Time;Image index (Image index);Distance L(t) (Extensometer 1);Change in distance (Extensometer 1);Strain - RC (Extensometer 1);Distance x L(t) (Extensometer 1);Distance y L(t) (Extensometer 1);Distance z L(t) (Extensometer 1);Change in distance x (Extensometer 1);Change in distance y (Extensometer 1);Change in distance z (Extensometer 1);X-displacement (Strain Gauge 1);Y-displacement (Strain Gauge 1);Z-displacement (Strain Gauge 1);Displacement (Strain Gauge 1);Height (Strain Gauge 1);Exx - RC (Strain Gauge 1);Exy - RC (Strain Gauge 1);Eyy - RC (Strain Gauge 1);Max. principal strain - RC (Strain Gauge 1);Min. principal strain - RC (Strain Gauge 1);Max. shear strain - RC (Strain Gauge 1);Poisson ratio -Exx/Eyy (Strain Gauge 1);Poisson ratio -Eyy/Exx (Strain Gauge 1);Von Mises - RC (Strain Gauge 1);Tresca - RC (Strain Gauge 1);Poisson ratio -strain max/min (Strain Gauge 1);Poisson ratio -strain min/max (Strain Gauge 1);Max. strain angle (Strain Gauge 1);Max. shear angle (Strain Gauge 1);Vorticity-z (Strain Gauge 1);du/dx (Strain Gauge 1);du/dy (Strain Gauge 1);dv/dx (Strain Gauge 1);dv/dy (Strain Gauge 1);dw/dx (Strain Gauge 1);dw/dy (Strain Gauge 1);Ezz plane stress state (Strain Gauge 1);Stereo reconstruction error (Strain Gauge 1);X-displacement (Strain Gauge 2);Y-displacement (Strain Gauge 2);Z-displacement (Strain Gauge 2);Displacement (Strain Gauge 2);Height (Strain Gauge 2);Exx - RC (Strain Gauge 2);Exy - RC (Strain Gauge 2);Eyy - RC (Strain Gauge 2);Max. principal strain - RC (Strain Gauge 2);Min. principal strain - RC (Strain Gauge 2);Max. shear strain - RC (Strain Gauge 2);Poisson ratio -Exx/Eyy (Strain Gauge 2);Poisson ratio -Eyy/Exx (Strain Gauge 2);Von Mises - RC (Strain Gauge 2);Tresca - RC (Strain Gauge 2);Poisson ratio -strain max/min (Strain Gauge 2);Poisson ratio -strain min/max (Strain Gauge 2);Max. strain angle (Strain Gauge 2);Max. shear angle (Strain Gauge 2);Vorticity-z (Strain Gauge 2);du/dx (Strain Gauge 2);du/dy (Strain Gauge 2);dv/dx (Strain Gauge 2);dv/dy (Strain Gauge 2);dw/dx (Strain Gauge 2);dw/dy (Strain Gauge 2);Ezz plane stress state (Strain Gauge 2);Stereo reconstruction error (Strain Gauge 2);Load ADC 1 channel 1;Position ADC 1 channel 2
ms;;mm;mm;S;mm;mm;mm;mm;mm;mm;mm;mm;mm;mm;mm;S;S;S;S;S;S;;;S;S;;;°;°;S;S;S;S;S;S;S;S;pixel;mm;mm;mm;mm;mm;S;S;S;S;S;S;;;S;S;;;°;°;S;S;S;S;S;S;S;S;pixel;kN;mm
0.02515;1;25.7528;0;0;-2.33407;25.6339;0.814098;0;0;0;0;0;0;0;-7.00384;0;5.55112e-17;2.22045e-16;2.35149e-16;-1.31044e-17;1.24127e-16;;;1.61312e-16;1.65502e-16;;;0;45;0;0;6.93889e-17;4.16334e-17;2.22045e-16;0;0;0;0;0;0;0;0;-6.18271;2.22045e-16;4.16334e-17;2.22045e-16;2.63678e-16;1.80411e-16;4.16334e-17;;;1.5564e-16;5.55112e-17;;;0;45;0;2.22045e-16;6.93889e-17;1.38778e-17;2.22045e-16;0;0;0;0;-0.00938269;2.18894
1000.03;2;25.7517;-0.00107837;-4.18737e-05;-2.33346;25.6328;0.816893;0.000614729;-0.00111632;0.00279496;-0.000352271;-0.000530869;0.00191956;0.00202253;-7.00193;-0.000130946;-0.000496839;0.000279545;0.000611863;-0.000463264;0.000537564;0.468426;2.13481;0.000622698;0.000716752;1.32076;0.757138;157.464;22.4636;-0.00135211;-0.00013105;-0.000318496;-0.000675109;0.000279617;0.00361751;-0.00057074;0;0.00997094;-0.000435243;2.6919e-05;-4.26233e-05;0.000438153;-6.18276;1.25802e-05;-0.00024936;-0.000130676;0.000200396;-0.000318492;0.000259444;0.0962704;10.3874;0.000302155;0.000345925;0.629203;1.58931;12.8375;57.8375;0.00142464;1.24335e-05;9.7571e-05;-0.000596341;-0.00013065;-4.24359e-05;-0.0033347;0;0.0153239;-0.00911437;2.18912
2000.03;3;25.7544;0.0015417;5.98653e-05;-2.33633;25.6351;0.819703;-0.00225452;0.00116489;0.00560436;-0.00499145;0.000513812;-0.0158365;0.0166125;-7.01968;-0.000238291;-0.000185146;0.000166429;0.000238347;-0.00031021;0.000274279;1.43179;0.698427;0.000317614;0.000365705;0.768343;1.3015;159.47;24.4697;-0.000867499;-0.0002384;0.000130671;-0.000500836;0.000166438;0.00120759;-7.70814e-05;0;0.00955099;-0.00606256;-5.50332e-05;-0.0194051;0.0203301;-6.20212;0.000170117;-0.000369428;-0.000131818;0.000418234;-0.000379934;0.000399084;1.29055;0.774863;0.000461;0.000532112;1.10081;0.908425;6.9108;51.9108;0.00173028;0.000170061;-0.000239798;-0.000499097;-0.000131778;0.00158582;-0.00321309;0;0.0139957;-0.00900909;2.1962
3000.03;4;25.7523;-0.000488973;-1.89872e-05;-2.33423;25.6336;0.80812;-0.000157289;-0.000316399;-0.00597819;-0.00629666;-0.00115297;-0.0121652;0.0137466;-7.01601;4.97678e-05;-0.000192744;-7.65586e-05;0.000189435;-0.000216225;0.00020283;0.650061;1.53832;0.000234378;0.00027044;0.876098;1.14143;10.3646;55.3646;-0.00144752;4.96671e-05;0.000102971;-0.000488497;-7.65454e-05;0.0018505;0.000355767;0;0.0134391;-0.00686955;-0.00170606;-0.0201225;0.0213311;-6.20284;0.000204288;-0.0003898;-0.000202431;0.000440587;-0.00043873;0.000439658;1.00917;0.99091;0.000507674;0.000586211;1.00423;0.995785;13.528;58.528;0.00214316;0.00020424;-0.000281686;-0.000497958;-0.000202395;0.00171833;-0.00455161;0;0.0202331;-0.00925054;2.20267
4000.03;5;25.7532;0.000408946;1.58797e-05;-2.33382;25.6343;0.815483;0.00025944;0.000390449;0.00138479;-0.00611143;-0.005581;-0.00669195;0.0106433;-7.01054;-0.000203145;-0.000514981;2.02742e-05;0.000435523;-0.000618393;0.000526958;10.0199;0.0998016;0.000611524;0.000702611;0.704281;1.41989;1.44873;46.4487;-0.00118853;-0.000203376;-0.000177165;-0.000852721;2.03911e-05;0.00140151;-0.00134092;0;0.0104066;-0.00674524;-0.00512789;-0.0134242;0.0158746;-6.19614;0.000255283;-0.000421351;-0.000164087;0.000516241;-0.000425045;0.000470643;1.55578;0.642765;0.000544301;0.000627523;1.21456;0.823346;112.356;157.356;0.00237815;0.000255332;-0.000559597;-0.000283047;-0.000164155;0.00207563;-0.0023754;0;0.0129078;-0.00920046;2.20982
5000.03;6;25.7524;-0.000393611;-1.52842e-05;-2.3321;25.6339;0.808985;0.00197795;-5.35342e-05;-0.00511311;-0.00300885;-0.010635;0.0107544;0.0154211;-6.99309;-0.000196478;-0.000545688;0.000177499;0.000567348;-0.000586326;0.000576837;1.10692;0.903406;0.000666104;0.000769116;0.967631;1.03345;171.434;36.434;-0.000772073;-0.00019669;-0.000242262;-0.000849001;0.000177619;0.00186123;-0.00167698;0;0.0149591;-0.00277733;-0.0102571;0.00303152;0.0110504;-6.17968;5.54004e-05;-0.000296012;-0.000143611;0.000268184;-0.000356394;0.000312289;0.385768;2.59223;0.000361797;0.000416385;0.752493;1.32892;81.9212;126.921;0.00220033;5.54172e-05;-0.000359606;-0.000232405;-0.000143631;0.000822887;-0.00129037;0;0.0139181;-0.00910231;2.21765
6000.03;7;25.7525;-0.000323341;-1.25555e-05;-2.33277;25.6338;0.810276;0.00130845;-8.46171e-05;-0.00382258;-0.00549435;-0.0104316;0.0104466;0.0157524;-6.9934;-0.00029986;-0.000506525;0.000258306;0.000557544;-0.000599098;0.000578321;1.16087;0.861424;0.000667931;0.000771095;0.93064;1.07453;167.335;32.3349;-0.00119412;-0.000300087;-0.000169935;-0.000842927;0.00025842;0.00216945;0.000625435;0;0.0142428;-0.00455453;-0.00849;-0.00129687;0.0097214;-6.18401;-8.87016e-06;-0.000399193;-4.94593e-05;0.000370544;-0.000428873;0.000399708;;;0.000461953;0.000532945;0.863994;1.15742;10.5386;55.5386;0.00158642;-8.90959e-06;-0.000310331;-0.000488058;-4.94278e-05;0.0019969;-0.00162707;0;0.016218;-0.00894366;2.22517
7000.03;8;25.751;-0.00185067;-7.18627e-05;-2.33213;25.6325;0.806196;0.00194268;-0.00143268;-0.00790171;-0.00510732;-0.00785468;0.000507319;0.00938286;-7.00334;-0.000303536;-0.000575377;0.000200221;0.000576436;-0.000679751;0.000628093;1.51601;0.659628;0.000726077;0.000837458;0.84801;1.17923;175.801;40.8012;-0.00128102;-0.000303663;-0.000385855;-0.000764804;0.000200312;0.00187805;0.000186627;0;0.0320371;-0.00413418;-0.00590428;-0.0106867;0.0128902;-6.1934;8.62187e-05;-0.000309913;-0.000217262;0.000279545;-0.000410588;0.000345067;0.396842;2.51989;0.000400836;0.000460089;0.68084;1.46877;66.9879;111.988;0.00226444;8.6225e-05;-0.000331056;-0.000288763;-0.000217269;0.000871166;-0.00147328;0;0.0154749;-0.00892959;2.23272
8000.03;9;25.7533;0.000438306;1.70197e-05;-2.33348;25.6344;0.813955;0.000592613;0.000498836;-0.000143141;-0.00468436;-0.00692679;-0.00263469;0.00876729;-7.00648;-0.00030766;-0.000400036;0.000406292;0.00058547;-0.000486837;0.000536154;0.757238;1.32059;0.000619969;0.000714871;1.2026;0.831533;154.97;19.9699;-0.00123817;-0.000307852;-6.2106e-05;-0.000737725;0.00040637;0.00171379;0.000212009;0;0.0204857;-0.00486046;-0.00608715;-0.0097882;0.0125094;-6.1925;3.18114e-05;-0.000301531;-9.50392e-05;0.000276515;-0.000339743;0.000308129;0.334719;2.98758;0.000356421;0.000410839;0.813895;1.22866;87.6128;132.613;0.00210304;3.18377e-05;-0.000407191;-0.000195857;-9.50766e-05;0.00140751;-0.0021709;0;0.0134726;-0.00908093;2.24018
9000.03;10;25.7528;-4.32232e-06;-1.67839e-07;-2.33415;25.634;0.811005;-7.23683e-05;8.71271e-05;-0.00309351;-0.00725235;-0.00873318;-0.000747216;0.0113764;-7.00459;-0.000198559;-0.000449061;0.000101811;0.000425136;-0.000521884;0.00047351;1.95027;0.512749;0.000547712;0.000631346;0.814618;1.22757;174.202;39.2016;-0.00105615;-0.000198818;-4.96596e-05;-0.000848343;0.000101911;8.42129e-06;0.000226726;0;0.0109621;-0.00753765;-0.00754076;-0.0111415;0.0154212;-6.19385;0.000287472;-0.000359773;-0.000150104;0.00048976;-0.000352392;0.000421076;1.91515;0.522151;0.000488368;0.000561435;1.38982;0.719519;171.278;36.2782;0.00267869;0.000287449;-0.000299543;-0.00042003;-0.000150084;0.00161703;-0.00208706;0;0.0143691;-0.00893324;2.24641
10000;11;25.7546;0.0018043;7.00624e-05;-2.33491;25.6356;0.816428;-0.000836113;0.00166244;0.00232972;-0.00700339;-0.00771621;-0.000281706;0.0104243;-7.00413;-0.000284724;-0.000355549;0.000136788;0.000339352;-0.000487288;0.00041332;2.08149;0.480425;0.000479801;0.000551093;0.69641;1.43594;172.059;37.0594;-0.000990775;-0.000284863;-7.52386e-05;-0.000635741;0.000136849;0.00151272;-0.00028072;0;0.0223697;-0.00776238;-0.00765336;-0.00500551;0.0119951;-6.18772;0.000264714;-0.000389673;-3.7908e-05;0.000531422;-0.000304616;0.000418019;6.98305;0.143204;0.000488571;0.000557359;1.74456;0.57321;118.173;163.173;0.0028253;0.000264764;-0.000550888;-0.000228409;-3.79839e-05;0.000927223;-0.00182107;0;0.0201311;-0.00908476;2.25466
11000;12;25.7521;-0.000679496;-2.63853e-05;-2.3357;25.6332;0.809094;-0.00162769;-0.000672477;-0.00500397;-0.00641136;-0.00711714;0.00331568;0.0101367;-7.00053;-0.000211252;-0.000451075;0.000127874;0.000440203;-0.000523581;0.000481892;1.65203;0.605316;0.000557135;0.000642523;0.840755;1.18941;172.968;37.968;-0.000969727;-0.000211482;-8.78371e-05;-0.000814189;0.000127972;0.0016932;-0.000351447;0;0.00994664;-0.00848117;-0.00602127;-0.00752863;0.01284;-6.19024;0.00023163;-0.000322643;-0.000101257;0.000428232;-0.000297859;0.000363045;2.28756;0.437148;0.000421455;0.00048406;1.4377;0.695554;2.39371;47.3937;0.0021791;0.000231567;-0.000165259;-0.000480079;-0.000101218;0.00246846;-0.00202325;0;0.0167109;-0.0091895;2.25812
12000;13;25.7545;0.0016677;6.47581e-05;-2.33464;25.6356;0.812496;-0.000568475;0.0016745;-0.00160196;-0.00806171;-0.00800564;-0.0025926;0.0116535;-7.00644;-7.54686e-05;-0.000393288;0.000172193;0.000460685;-0.00036396;0.000412323;0.438279;2.28165;0.000477199;0.000549763;1.26576;0.790042;167.454;32.454;-0.00107504;-7.56767e-05;-3.09944e-05;-0.000755493;0.00017227;0.00125386;0.000343875;0;0.013364;-0.00858646;-0.00837326;-0.00941155;0.0152452;-6.19213;0.000148185;-0.000475441;-1.14837e-05;0.000550448;-0.000413747;0.000482097;12.904;0.0774956;0.00055854;0.000642797;1.3304;0.751655;120.765;165.765;0.00270939;0.000148209;-0.000528846;-0.000422028;-1.15105e-05;0.00187789;-0.00247399;0;0.0165522;-0.00889065;2.26287
13000;14;25.7554;0.00256977;9.97859e-05;-2.33551;25.6362;0.818489;-0.00143796;0.00231092;0.00439098;-0.00945879;-0.0053683;-0.00662244;0.0127336;-7.01047;-0.000180298;-0.000303236;0.000175583;0.000349232;-0.000353947;0.00035159;1.02686;0.973846;0.000405984;0.000468786;0.986677;1.0135;164.952;29.9522;-0.00140781;-0.000180514;0.00011765;-0.000723973;0.000175622;0.00139857;0.00121706;0;0.0233352;-0.0109711;-0.00628437;-0.01113;0.0168444;-6.19384;0.000166582;-0.00048982;-8.16395e-05;0.00054777;-0.000462828;0.000505299;2.04046;0.490085;0.000584156;0.000673732;1.18353;0.84493;174.11;39.1099;0.0025634;0.000166536;-0.000402734;-0.000576927;-8.16007e-05;0.00243015;-0.00353672;0;0.0159401;-0.00902043;2.2692
14000;15;25.7512;-0.00160261;-6.22304e-05;-2.33809;25.632;0.812267;-0.00401904;-0.00191825;-0.00183083;-0.010102;-0.0090713;0.00130321;0.0136395;-7.00254;-0.000162829;-0.00045466;0.000342713;0.000610143;-0.000430259;0.000520201;0.475117;2.10474;0.000603661;0.000693601;1.41808;0.705177;159.916;24.9162;-0.00149299;-0.000163143;4.66911e-06;-0.000913757;0.000342816;0.00217971;0.000523188;0;0.0133179;-0.0133459;-0.00695201;-0.00845031;0.0172584;-6.19116;0.000160096;-0.000434913;-0.000117765;0.000477729;-0.000435399;0.000456564;1.35945;0.735591;0.000527384;0.000608752;1.09722;0.911392;6.80336;51.8034;0.00285142;0.000159924;-0.000139722;-0.000730186;-0.00011768;0.00251422;-0.00183077;0;0.0159198;-0.00886762;2.27687
15000;16;25.7517;-0.00113714;-4.41559e-05;-2.33785;25.6325;0.813086;-0.00377071;-0.00145392;-0.00101233;-0.0122;-0.0052252;-0.00274885;0.0135536;-7.00659;-0.000326112;-0.000226755;0.000364461;0.000432262;-0.000393912;0.000413087;0.894777;1.1176;0.000477163;0.000550783;1.09736;0.911281;150.631;15.6311;-0.00147827;-0.000326384;0.000318245;-0.000771379;0.000364437;0.000757991;-0.000370605;0;0.0163406;-0.0159074;-0.00466987;-0.0101273;0.0194272;-6.19284;0.000279786;-0.000406719;-6.54276e-05;0.000549009;-0.00033465;0.00044183;4.27627;0.233849;0.00051516;0.000589106;1.64054;0.609554;151.982;16.9818;0.00266666;0.000279777;-0.000385949;-0.000427496;-6.54194e-05;0.00251637;-0.00306669;0;0.0191968;-0.0090557;2.28378
16000;17;25.7538;0.00097594;3.78964e-05;-2.33754;25.6344;0.818077;-0.00346736;0.000537842;0.00397928;-0.0151043;-0.00425793;-0.00369912;0.0161231;-7.00754;-0.000188707;-0.000242116;0.000633966;0.000699932;-0.000254674;0.000477303;0.297661;3.35952;0.000570776;0.000636404;2.74835;0.363855;138.852;3.85155;-0.00140157;-0.000188976;0.00028873;-0.000772526;0.000633953;0.00129861;-0.00027306;0;0.0215253;-0.0188025;-0.00417803;-0.00980192;0.0216117;-6.19252;0.00026028;-0.000419773;-0.000221923;0.000503265;-0.000464908;0.000484086;1.17284;0.852632;0.000559121;0.000645448;1.0825;0.923784;11.2117;56.2117;0.0029355;0.000260207;-0.000273019;-0.000566599;-0.000221872;0.00274812;-0.00270363;0;0.0180634;-0.00881041;2.29146
17000;18;25.7482;-0.00460237;-0.000178713;-2.33848;25.629;0.810378;-0.00440079;-0.00490698;-0.0037203;-0.0137222;-0.00707383;0.0123906;0.0197956;-6.99145;-0.000381341;-0.000616918;0.000417961;0.000753366;-0.000716747;0.000735057;0.912385;1.09603;0.000848858;0.000980076;1.05109;0.951392;162.456;27.4556;-0.00167368;-0.000381764;-0.000126464;-0.00110698;0.000418143;0.00209849;0.000217882;0;0.0199433;-0.0180895;-0.00375274;0.00302498;0.0187207;-6.17969;0.000295649;-0.000442226;-0.000315574;0.000527589;-0.000547515;0.000537552;0.93686;1.0674;0.000620747;0.000716736;0.963608;1.03777;18.5208;63.5208;0.00247132;0.000295515;-0.00020469;-0.000679907;-0.000315497;0.0023555;-0.00202856;0;0.0162278;-0.00913046;2.29908
18000;19;25.7506;-0.00222051;-8.6224e-05;-2.33859;25.6311;0.818963;-0.0045112;-0.00279698;0.00486449;-0.0159979;-0.00179557;0.00139034;0.0161583;-7.00245;-0.000263211;-0.000430335;0.000498142;0.000692011;-0.000457081;0.000574546;0.528387;1.89255;0.000668035;0.000766062;1.51398;0.660511;152.613;17.6129;-0.00150272;-0.00026355;6.82042e-05;-0.000928496;0.000498232;0.000375023;-0.00176117;0;0.0230704;-0.0208028;0.000107703;-0.00291361;0.0210061;-6.18563;0.000298862;-0.000401872;-0.000290199;0.000502578;-0.000493915;0.000498246;1.02985;0.971014;0.000575333;0.000664328;1.01754;0.982763;17.7956;62.7956;0.00234926;0.000298629;-1.13441e-05;-0.00079263;-0.000290119;0.00294418;-0.00337747;0;0.0185351;-0.00886141;2.30667
19000;20;25.7504;-0.00240351;-9.333e-05;-2.33907;25.6309;0.819628;-0.00499907;-0.00304662;0.00552972;-0.0163866;0.000180204;0.000101405;0.0163879;-7.00374;-0.000269159;-0.000377449;0.000491176;0.000646728;-0.000424711;0.00053572;0.547989;1.82485;0.000623007;0.000714293;1.52275;0.656708;150.985;15.9854;-0.00210656;-0.000269463;0.000110985;-0.000865512;0.000491241;0.00173778;-0.00109038;0;0.0144048;-0.0218547;0.000865488;-0.00219772;0.021982;-6.18491;0.000254639;-0.000365747;-0.000119778;0.000478306;-0.000343444;0.000410875;2.12593;0.470383;0.000476562;0.000547833;1.39267;0.718043;8.63699;53.637;0.00251531;0.000254421;2.3739e-05;-0.000755379;-0.000119711;0.00167223;-0.00345547;0;0.0193743;-0.00932768;2.31349
20000;21;25.7502;-0.00264837;-0.000102838;-2.33911;25.6304;0.82472;-0.00503974;-0.00345968;0.0106219;-0.017899;0.00257258;-0.00223936;0.0182211;-7.00608;-0.000257192;-0.000361471;0.000622009;0.000751539;-0.000386722;0.000569131;0.413486;2.41846;0.000668332;0.000758841;1.94336;0.514574;144.758;9.75786;-0.00173461;-0.000257501;0.000142713;-0.000865212;0.000622064;0.000653927;-0.00123307;0;0.0136242;-0.0235102;0.00420484;-0.00376234;0.0241778;-6.18648;0.000257423;-0.000379813;6.37614e-05;0.000552554;-0.000231369;0.000391962;-4.03728;-0.247691;0.000465089;0.000522615;2.38819;0.418727;178.586;43.5857;0.00224504;0.000257089;0.000141668;-0.000901394;6.38235e-05;0.00276396;-0.00394192;0;0.0188706;-0.00882028;2.32106
21000;22;25.7496;-0.00326614;-0.000126827;-2.34017;25.6298;0.821457;-0.00609866;-0.00407219;0.00735835;-0.0186457;0.00602122;-0.00324844;0.0198613;-7.00709;-0.000161652;-0.00041333;6.14357e-05;0.000378008;-0.000478224;0.000428116;2.63124;0.380049;0.000495474;0.000570822;0.790441;1.26512;175.389;40.3888;-0.00226998;-0.00016197;7.2102e-05;-0.000898653;6.15185e-05;0.00123394;-0.00102878;0;0.0139276;-0.0252722;0.00737006;-0.00316918;0.026515;-6.18588;0.000238968;-0.000416926;-6.8006e-05;0.000529762;-0.0003588;0.000444281;3.51393;0.284582;0.000516166;0.000592374;1.47648;0.677285;4.69208;49.6921;0.00229733;0.000238681;3.05504e-05;-0.000864539;-6.79195e-05;0.00193895;-0.00421229;0;0.0194968;-0.00880128;2.32643
22000;23;25.7507;-0.00216352;-8.4011e-05;-2.34158;25.6306;0.829631;-0.00750774;-0.0033564;0.0155328;-0.0197338;0.00596078;-0.00535801;0.0212993;-7.0092;-0.000367409;-0.000628621;0.000657611;0.000956169;-0.000665967;0.000811068;0.558703;1.78986;0.000941523;0.00108142;1.43576;0.696495;152.937;17.937;-0.00287326;-0.0003679;-8.37527e-05;-0.00117293;0.000657805;0.00334889;-0.00165157;0;0.021337;-0.0275156;0.00705378;-0.000942399;0.028421;-6.18366;0.000211145;-0.000350476;-7.647e-05;0.00044617;-0.000311495;0.000378833;2.76115;0.362168;0.000439736;0.00050511;1.43235;0.698153;7.53535;52.5354;0.00212436;0.000210818;0.000180751;-0.000881856;-7.64249e-05;0.00279045;-0.00327581;0;0.0173837;-0.00886525;2.3352
23000;24;25.7497;-0.00310888;-0.00012072;-2.34124;25.6298;0.824407;-0.00716959;-0.00410674;0.0103092;-0.0220596;0.00734079;-0.00435225;0.0236528;-7.0082;-0.000104335;-0.000431416;0.000326565;0.000593338;-0.000371108;0.000482223;0.319493;3.12996;0.000561729;0.000642964;1.59883;0.625458;160.623;25.6235;-0.00222407;-0.000104689;8.26195e-05;-0.00094523;0.000326655;0.00158248;-0.00142679;0;0.0147915;-0.0302429;0.00895932;-0.00242879;0.0316355;-6.18514;0.000214785;-0.000425592;-2.95403e-05;0.0005354;-0.000350156;0.000442778;7.27091;0.137534;0.000514991;0.000590371;1.52904;0.654007;3.62326;48.6233;0.00140736;0.000214348;0.000176005;-0.00102734;-2.94652e-05;0.00301495;-0.00477464;0;0.0212678;-0.00864847;2.34179
24000;25;25.75;-0.00285839;-0.000110993;-2.34165;25.6301;0.821899;-0.00757156;-0.00381123;0.00780035;-0.0227155;0.00879373;-0.00230938;0.0244675;-7.00615;-0.000306359;-0.00054099;0.000367361;0.000667796;-0.000606793;0.000637295;0.833945;1.19912;0.000736165;0.000849726;1.10053;0.908651;162.666;27.6657;-0.00269232;-0.000306907;9.63642e-05;-0.00117791;0.000367503;0.00201821;-0.00243147;0;0.0216227;-0.0318828;0.0102317;-0.00206042;0.0335477;-6.18477;0.000260709;-0.000351325;0.00013159;0.000553357;-0.000161057;0.000357207;-1.98122;-0.50474;0.0004327;0.000476276;3.43578;0.291055;177.116;42.1158;0.00144445;0.000260242;0.00032555;-0.00102829;0.000131599;0.00317837;-0.00386467;0;0.0193446;-0.00881206;2.34297
25000;26;25.7518;-0.00106661;-4.14171e-05;-2.34251;25.6317;0.826405;-0.00843793;-0.00223513;0.0123069;-0.0245568;0.0107547;-0.00578498;0.0274256;-7.00963;2.82475e-05;-0.000513257;0.000400526;0.000760355;-0.000331581;0.000545968;-0.070526;-14.1792;0.000646428;0.000727957;2.29312;0.436087;160.138;25.138;-0.00260103;2.77637e-05;8.32785e-05;-0.00110957;0.000400654;0.00116289;-0.00116864;0;0.0145003;-0.0342558;0.0114847;-0.00380192;0.0363292;-6.18652;0.000265599;-0.000361469;0.000106468;0.000556156;-0.000184088;0.000370122;-2.49464;-0.40086;0.000445011;0.000493496;3.02114;0.331001;176.056;41.056;0.000908425;0.000265291;0.000141791;-0.000864808;0.000106523;0.00335883;-0.00424697;0;0.0195132;-0.00906923;2.35051
26000;27;25.7503;-0.00253205;-9.83211e-05;-2.34253;25.6303;0.823626;-0.00845528;-0.00361958;0.0095283;-0.0238021;0.00811447;0.00259267;0.0252806;-7.00125;-0.000298927;-0.000678415;0.000392333;0.000808089;-0.000714682;0.000761385;0.761921;1.31247;0.000879723;0.00101518;1.1307;0.884411;164.005;29.0054;-0.00276925;-0.000299435;-0.000141868;-0.00121459;0.000392553;0.00157666;-0.00160842;0;0.0279061;-0.0341743;0.00962307;0.00461226;0.0358016;-6.1781;0.000283457;-0.000384782;9.15528e-05;0.00058407;-0.00020906;0.000396565;-3.09611;-0.322986;0.00047467;0.000528754;2.79379;0.357937;179.643;44.6432;0.00137335;0.000282927;0.000330181;-0.00109988;9.15723e-05;0.00293296;-0.00340964;0;0.0200927;-0.00873438;2.35824
27000;28;25.7495;-0.0033321;-0.000129388;-2.34332;25.6295;0.821961;-0.00924353;-0.00444195;0.00786234;-0.0237691;0.00940581;-0.000144854;0.0255629;-7.00399;-0.000147741;-0.0003759;0.000168205;0.000417978;-0.000397513;0.000407746;0.878335;1.13852;0.000470873;0.000543661;1.05148;0.951039;168.072;33.0722;-0.002846;-0.000148109;0.000185291;-0.000936914;0.000168259;0.00230931;-0.00250327;0;0.0205045;-0.0350296;0.0114462;0.000638049;0.0368577;-6.18208;0.000221434;-0.000398196;5.09395e-06;0.000525891;-0.000299363;0.000412627;;;0.000482407;0.000550169;1.7567;0.569249;2.57914;47.5791;0.000898483;0.000220973;0.000242747;-0.00103928;5.14376e-06;0.00340683;-0.00432144;0;0.0176198;-0.00881846;2.36573
28000;29;25.7501;-0.00271651;-0.000105484;-2.34426;25.6299;0.825032;-0.0101854;-0.0040083;0.0109337;-0.0245724;0.0102312;-0.00838019;0.0279053;-7.01223;-0.000249995;-0.000671177;0.000310263;0.000757424;-0.000697156;0.00072729;0.805752;1.24108;0.000840043;0.00096972;1.08645;0.92043;167.528;32.5277;-0.00295003;-0.000250794;8.97092e-05;-0.00143164;0.000310484;0.00160646;-0.00195936;0;0.0137206;-0.0357386;0.0123744;-0.00763625;0.0385835;-6.19035;0.000170661;-0.000348192;8.51182e-05;0.000478699;-0.00022292;0.000350809;-2.00499;-0.498756;0.000413955;0.000467746;2.14741;0.465678;179.245;44.2451;0.000654933;0.000169996;0.000508752;-0.00120521;8.50494e-05;0.00291511;-0.00256013;0;0.0211261;-0.008766;2.37451
29000;30;25.7503;-0.00248692;-9.6569e-05;-2.34381;25.6302;0.824771;-0.00973238;-0.00372782;0.0106732;-0.0253841;0.0130123;-0.00867258;0.0298142;-7.01252;-0.000119687;-0.000559124;0.000349086;0.000720964;-0.000491565;0.000606265;0.342858;2.91666;0.000704218;0.000808353;1.46667;0.681817;163.603;28.6025;-0.00278206;-0.000120259;8.93857e-05;-0.00120733;0.000349238;0.00118251;-0.00330866;0;0.0183769;-0.0371327;0.0142994;-0.00638618;0.0403001;-6.1891;0.000109104;-0.000402507;0.00024498;0.000585242;-0.000231158;0.0004082;-0.445361;-2.24537;0.000485902;0.000544267;2.53178;0.394979;168.39;33.3896;0.000787972;0.000108543;0.000328328;-0.00113324;0.000245007;0.00376849;-0.00314891;0;0.019276;-0.00837887;2.38176
30000;31;25.7505;-0.00229421;-8.90856e-05;-2.34515;25.6301;0.828509;-0.0110758;-0.00377765;0.0144113;-0.0249264;0.00929324;0.00463516;0.0270032;-6.99921;-0.000265369;-0.000631594;0.000381104;0.000767369;-0.000651635;0.000709502;0.696318;1.43613;0.00082017;0.000946003;1.17761;0.84918;164.022;29.022;-0.00293281;-0.000266036;5.28954e-05;-0.00131564;0.000381302;0.00303247;-0.0020042;0;0.0444486;-0.03713;0.0117843;0.00680339;0.0395448;-6.17591;0.000110624;-0.000417427;0.000168752;0.000558125;-0.000278749;0.000418437;-0.655543;-1.52545;0.000492062;0.000557916;2.00225;0.499438;173.549;38.5492;7.77418e-05;0.000109853;0.000475391;-0.00131019;0.000168726;0.00393056;-0.00468588;0;0.0212842;-0.00841708;2.38827
31000;32;25.7513;-0.00156456;-6.07531e-05;-2.34451;25.631;0.827065;-0.010436;-0.00293939;0.0129666;-0.0255108;0.0180837;-0.0138922;0.0342172;-7.01774;-0.000134196;-0.000705634;0.000116335;0.000707736;-0.000725597;0.000716667;1.15353;0.866903;0.000827557;0.000955556;0.975384;1.02524;175.288;40.2883;-0.0028569;-0.000135035;6.37875e-05;-0.00147486;0.000116582;0.00164774;-0.00146776;0;0.0279174;-0.0380124;0.019132;-0.00847719;0.0433917;-6.19119;0.000174134;-0.000463696;0.000239342;0.000671579;-0.000258103;0.000464841;-0.727552;-1.37447;0.000554165;0.000619788;2.60198;0.384322;169.573;34.5735;0.000620245;0.000173583;0.000220653;-0.001148;0.000239425;0.00291965;-0.00485919;0;0.0212931;-0.00819006;2.39589
32000;33;25.7497;-0.00309086;-0.00012002;-2.34594;25.6294;0.823179;-0.011869;-0.00447888;0.00908092;-0.0243674;0.0140773;-0.000387051;0.0281441;-7.00423;-0.000342516;-0.000822397;-0.00023814;0.000533722;-0.00111438;0.000824051;-1.4383;-0.695267;0.000971018;0.00109873;0.478942;2.08794;10.6874;55.6874;-0.00315192;-0.000343221;-0.000200514;-0.00144421;-0.000237822;0.00262;-0.00173456;0;0.0168902;-0.0379965;0.0171926;0.00152906;0.0417332;-6.18118;9.38881e-05;-0.000324681;0.000223444;0.000489746;-0.000172414;0.00033108;-0.420186;-2.3799;0.000396662;0.00044144;2.84053;0.352047;167.994;32.994;0.000696791;9.34122e-05;0.000378976;-0.00102825;0.000223425;0.00222924;-0.00461395;0;0.0179853;-0.00861393;2.40124
33000;34;25.751;-0.00181604;-7.05181e-05;-2.34567;25.6306;0.8273;-0.0115957;-0.00330576;0.0132022;-0.0243156;0.0168588;-0.00553322;0.0301013;-7.00938;-0.000123564;-0.000549631;0.000522881;0.000837285;-0.000437968;0.000637626;0.236313;4.23167;0.000748203;0.000850169;1.91175;0.523081;157.059;22.0587;-0.0029504;-0.000124225;0.000175369;-0.00127416;0.000523017;0.000877811;-0.00281363;0;0.0167147;-0.0384518;0.0182447;0.00135404;0.0425822;-6.18136;0.000156793;-0.000385079;0.000285126;0.000611348;-0.000169429;0.000390388;-0.54991;-1.81848;0.00047424;0.000520518;3.60829;0.27714;168.259;33.2588;-0.000124955;0.000156059;0.000501512;-0.00127156;0.000285074;0.00435835;-0.00565121;0;0.0186108;-0.00815552;2.40533
34000;35;25.7499;-0.00296121;-0.000114986;-2.34544;25.6295;0.825392;-0.0113668;-0.00437383;0.0112937;-0.0227171;0.0163757;0.000449827;0.0280077;-7.0034;-0.000179584;-0.000477117;0.000187598;0.000515227;-0.000507213;0.00051122;0.95728;1.04463;0.000590312;0.000681627;1.0158;0.984445;169.288;34.2882;-0.00296636;-0.000180094;0.000162795;-0.00111679;0.000187699;0.00116662;-0.00232444;0;0.0144802;-0.0367171;0.0192869;0.0044327;0.0417107;-6.17828;0.000169903;-0.000345844;0.000103117;0.000483963;-0.000210943;0.000347453;-1.64768;-0.606914;0.000411396;0.00046327;2.29429;0.435865;177.836;42.836;0.000115482;0.00016932;0.000442807;-0.00113455;0.000103079;0.00379367;-0.0054863;0;0.0178726;-0.00765763;2.4115
35000;36;25.7509;-0.00193826;-7.5264e-05;-2.34696;25.6304;0.827214;-0.0128866;-0.00354395;0.0131161;-0.0220779;0.0204726;-0.00595088;0.0306916;-7.0098;-0.000112417;-0.000655998;0.000329448;0.000800718;-0.000583687;0.000692202;0.341229;2.93058;0.000802554;0.000922936;1.37183;0.728955;166.45;31.4497;-0.0027006;-0.000113161;7.31936e-05;-0.00138487;0.000329661;0.000521735;-0.00227371;0;0.0174503;-0.0361887;0.0222642;-0.000471498;0.0424917;-6.18318;0.000228824;-0.000382187;0.000161217;0.0005787;-0.000188659;0.000383679;-1.41936;-0.704545;0.000461718;0.000511573;3.06745;0.326004;175.904;40.9041;0.000467826;0.000228163;0.00044787;-0.0012123;0.00016119;0.00308581;-0.00516265;0;0.0183328;-0.00774774;2.41801
36000;37;25.7502;-0.00259842;-0.000100898;-2.34674;25.6298;0.826032;-0.0126665;-0.00414894;0.0119342;-0.0219734;0.0243716;-0.0106246;0.0344918;-7.01447;-0.000189186;-0.000663716;0.000186314;0.000688324;-0.000691196;0.00068976;1.01542;0.984816;0.000796467;0.00091968;0.995844;1.00417;172.145;37.1448;-0.00289509;-0.000189995;0.000107226;-0.00143437;0.000186528;0.00128826;-0.00201173;0;0.0195999;-0.0366721;0.0267225;-0.00489778;0.0456391;-6.18761;0.000163225;-0.000402887;0.000164097;0.000566548;-0.000239226;0.000402887;-0.994684;-1.00534;0.000477837;0.000537183;2.36826;0.422252;174.241;39.2412;0.000193968;0.000162572;0.000406489;-0.00121226;0.000164096;0.0046787;-0.00490972;0;0.0194073;-0.00776255;2.42502
37000;38;25.7527;-0.000116325;-4.51698e-06;-2.34791;25.6319;0.833945;-0.0138304;-0.00201798;0.0198465;-0.01949;0.02714;-0.00963065;0.0347734;-7.01348;-0.000189737;-0.00047168;0.000238772;0.000542578;-0.000493544;0.000518061;0.794639;1.25843;0.000598428;0.000690748;1.09935;0.909627;166.863;31.8632;-0.00320284;-0.000190398;0.000299161;-0.00124219;0.000238838;0.00233029;-0.00342502;0;0.0151103;-0.0343191;0.0284686;0.00141461;0.0446124;-6.1813;0.000173253;-0.000434234;5.48488e-05;0.000552302;-0.000324201;0.000438252;-3.15873;-0.316583;0.000511729;0.000584335;1.70358;0.586999;0.0324035;45.0324;0.000594716;0.000172527;0.000412129;-0.0012807;5.48581e-05;0.00363085;-0.00543602;0;0.0235935;-0.00756149;2.43125
38000;39;25.7529;0.000110908;4.30663e-06;-2.34719;25.6322;0.834345;-0.0131167;-0.00173734;0.0202471;-0.0188141;0.0291876;-0.0108258;0.0363742;-7.01467;-6.43962e-05;-0.000482789;0.000361561;0.000676262;-0.000379097;0.000527679;0.178106;5.61463;0.000617311;0.000703573;1.78388;0.560577;162.153;27.1526;-0.00258903;-6.49872e-05;0.000224302;-0.00118958;0.000361653;0.000613453;-0.00294885;0;0.0183777;-0.033678;0.0310525;-0.000283268;0.0458098;-6.183;8.63123e-05;-0.000422148;4.06119e-05;0.000486228;-0.000359304;0.000422766;-2.1253;-0.470523;0.000489998;0.000563688;1.35325;0.738962;179.252;44.2522;0.000807413;8.56622e-05;0.000371609;-0.00121594;4.06319e-05;0.00388539;-0.00692861;0;0.0198545;-0.00759421;2.43842
39000;40;25.7547;0.00192485;7.47432e-05;-2.3481;25.6337;0.839946;-0.0140204;-0.000180522;0.0258477;-0.0166061;0.0307983;-0.0125122;0.0371598;-7.01636;-0.000117971;-0.000699043;0.000201197;0.00075864;-0.000675415;0.000717027;0.586346;1.70548;0.000828417;0.000956037;1.12322;0.890296;172.053;37.0534;-0.00314029;-0.000118837;9.22356e-05;-0.00149007;0.000201437;0.00227483;-0.00265067;0;0.0143958;-0.0317015;0.0311267;0.00259976;0.044504;-6.18011;0.000241392;-0.00045982;0.000117609;0.000643467;-0.000284466;0.000463966;-2.0525;-0.487211;0.000548944;0.000618622;2.26201;0.442084;177.011;42.011;0.00138556;0.000240777;0.000280877;-0.00120061;0.000117675;0.00324543;-0.00575705;0;0.0248198;-0.00720379;2.44574
40000;41;25.7542;0.00139524;5.41783e-05;-2.34799;25.6334;0.835257;-0.0139169;-0.000549925;0.0211586;-0.0142285;0.0320766;-0.0105266;0.0366356;-7.01437;-0.000203271;-0.000423147;0.000110446;0.000404873;-0.000497698;0.000451285;1.84046;0.543343;0.000522017;0.000601714;0.813491;1.22927;171.561;36.5615;-0.00277831;-0.000203884;0.000339215;-0.00118527;0.000110478;0.00118802;-0.00208952;0;0.0212214;-0.029589;0.0332779;0.000972845;0.0445407;-6.18174;0.000131682;-0.000424022;-2.60393e-05;0.000484114;-0.000378471;0.000431293;5.05706;0.197743;0.000499258;0.000575057;1.27913;0.781781;3.59994;48.5999;0.00102938;0.000130878;0.000489355;-0.00133754;-2.60691e-05;0.00433871;-0.0063536;0;0.0205242;-0.00717108;2.45356
41000;42;25.7556;0.00280127;0.000108775;-2.34872;25.6345;0.840116;-0.0146438;0.000637363;0.0260176;-0.0119923;0.0316885;-0.0132787;0.0363909;-7.01712;-6.91658e-05;-0.000551059;0.000168687;0.000613507;-0.000513985;0.000563746;0.410025;2.43888;0.000651803;0.000751661;1.19363;0.837783;171.809;36.8087;-0.0018773;-6.97718e-05;0.000129155;-0.00123111;0.00016883;-0.000390915;-0.00186339;0;0.0143987;-0.0271456;0.0324068;0.00169887;0.042308;-6.18101;0.000331118;-0.000402431;-4.07425e-05;0.000588495;-0.000298119;0.000443307;8.1271;0.123045;0.000520957;0.000591075;1.97403;0.506578;7.76103;52.761;0.00157519;0.000330362;0.000488935;-0.00129413;-4.07811e-05;0.00205538;-0.00620381;0;0.0198563;-0.00720909;2.46042
42000;43;25.7552;0.00235361;9.13923e-05;-2.34868;25.634;0.841761;-0.0146076;0.00013692;0.027663;-0.0102642;0.0335263;-0.0172942;0.0390955;-7.02114;-0.000257799;-0.00052101;8.74049e-05;0.000463659;-0.000634053;0.000548856;2.94948;0.339043;0.000636305;0.000731809;0.731262;1.3675;173.755;38.7545;-0.00257902;-0.000258576;0.000308914;-0.00135065;8.74929e-05;0.000973273;-0.00168684;0;0.0133929;-0.0259031;0.0342631;-0.00128133;0.0429717;-6.18399;0.000253641;-0.000450606;-0.000101713;0.000560334;-0.000408407;0.00048437;2.49368;0.401013;0.000561591;0.000645827;1.372;0.728863;8.23192;53.2319;0.00146485;0.000252879;0.000412147;-0.00131366;-0.000101697;0.00302307;-0.00533854;0;0.0200729;-0.00707896;2.46734
43000;44;25.7569;0.0041183;0.000159916;-2.34951;25.6356;0.845084;-0.0154388;0.00172446;0.030986;-0.0079881;0.0325865;-0.0146098;0.0365942;-7.01845;-7.51239e-05;-0.000413606;0.000170527;0.00047916;-0.000383757;0.000431458;0.440541;2.26994;0.000499219;0.000575278;1.2486;0.800896;169.859;34.8585;-0.00293811;-7.56959e-05;0.000319656;-0.00114669;0.000170561;0.00134554;-0.00227147;0;0.018923;-0.0239118;0.0331879;0.00124389;0.0409238;-6.18147;0.000297968;-0.000431484;2.9674e-06;0.000606466;-0.000305531;0.000455998;;;0.000536012;0.000607998;1.98496;0.503789;4.25758;49.2576;0.00179729;0.000297271;0.000393652;-0.00125686;2.983e-06;0.00240096;-0.00658561;0;0.0302292;-0.00704788;2.47471
44000;45;25.7578;0.00498962;0.00019375;-2.35071;25.6363;0.847669;-0.016634;0.00240499;0.033571;-0.00578398;0.0364229;-0.0304422;0.0478206;-7.03429;-0.000105236;-0.00031695;-9.76385e-05;0.000215535;-0.00041841;0.000316972;-1.07781;-0.927805;0.000372203;0.00042263;0.515129;1.94126;3.95933;48.9593;-0.00295037;-0.000105672;0.000351807;-0.000985701;-9.76502e-05;0.00220985;-0.00225155;0;0.0172979;-0.0227402;0.0348046;-0.00864932;0.0424652;-6.19136;0.000302329;-0.000441885;-9.85534e-06;0.00061488;-0.000322407;0.000468643;;;0.000549855;0.000624858;1.90716;0.524341;3.99114;48.9911;0.0018107;0.000301749;0.000279901;-0.0011639;-9.79688e-06;0.00180192;-0.00683644;0;0.0228253;-0.0070042;2.48041
45000;46;25.7577;0.00488186;0.000189566;-2.35081;25.6362;0.848855;-0.0167338;0.00224835;0.0347564;-0.00236109;0.0355466;-0.0255236;0.0438246;-7.02937;9.23856e-05;-0.00043532;-0.000159926;0.000419461;-0.000487002;0.000453231;0.577676;1.73107;0.00052383;0.000604308;0.861313;1.16102;9.69457;54.6946;-0.00235368;9.19488e-05;0.000160306;-0.0010311;-0.000159844;-0.000149755;-0.00273676;0;0.016803;-0.0190849;0.0348492;-0.00197699;0.039782;-6.18469;0.000364738;-0.000431711;-6.55005e-05;0.000631957;-0.00033272;0.000482338;5.56848;0.179582;0.000565818;0.000643118;1.89937;0.526491;7.08418;52.0842;0.00186995;0.000364206;0.000254475;-0.00111819;-6.54396e-05;0.00169385;-0.00668427;0;0.0199194;-0.00695595;2.48595
46000;47;25.7587;0.00584122;0.000226818;-2.35122;25.637;0.852326;-0.0171465;0.00305923;0.038228;-0.00113047;0.035345;-0.0273642;0.044714;-7.03121;0.000166456;-0.000355197;-8.30154e-05;0.000418182;-0.000334742;0.000376462;2.00512;0.498722;0.00043559;0.000501949;1.24927;0.800468;7.6066;52.6066;-0.00280543;0.000166083;0.000223916;-0.000934453;-8.29774e-05;0.00140053;-0.00150582;0;0.0146538;-0.0180209;0.0336023;-0.000262722;0.0381306;-6.18298;0.000477159;-0.000464533;2.78629e-06;0.000761555;-0.00028161;0.000521582;;;0.000623157;0.000695443;2.70429;0.369783;5.21189;50.2119;0.00211146;0.000476461;0.000340262;-0.00126971;2.83629e-06;0.00176791;-0.00619054;0;0.0200883;-0.00692378;2.49015
47000;48;25.757;0.00421941;0.000163843;-2.35198;25.6355;0.845213;-0.017902;0.00159593;0.0311149;0.000637264;0.0379978;-0.0298449;0.0483214;-7.03369;6.34158e-05;-0.000300949;-0.00027829;0.000238628;-0.000453502;0.000346065;0.227877;4.38834;0.00040597;0.00046142;0.526189;1.90046;19.6806;64.6806;-0.00281897;6.30348e-05;0.000321231;-0.000923342;-0.000278296;0.00251892;-0.00161323;0;0.0135942;-0.0172918;0.0376701;-0.0091176;0.0424402;-6.19183;0.000457316;-0.00045778;-9.15386e-05;0.000716624;-0.000350846;0.000533735;4.99589;0.200165;0.000628249;0.000711647;2.04256;0.489582;9.24032;54.2403;0.00177225;0.000456593;0.000371325;-0.00128734;-9.15028e-05;0.00225731;-0.00602707;0;0.0188602;-0.00692396;2.49737
48000;49;25.7584;0.00559563;0.000217282;-2.35223;25.6368;0.848102;-0.018156;0.00285997;0.0340035;0.00118772;0.0374574;-0.0317272;0.0491028;-7.03557;5.02242e-05;-0.000514975;-0.000532296;0.000350599;-0.000832671;0.000591635;0.0943539;10.5984;0.000701805;0.000788846;0.421054;2.37499;23.9078;68.9078;-0.0028015;4.95855e-05;0.000211649;-0.00124202;-0.000532186;0.00106348;-0.00134287;0;0.0158155;-0.0169236;0.0365411;-0.0110484;0.041758;-6.19376;0.000424925;-0.000502886;-1.68885e-05;0.000753285;-0.000345249;0.000549267;25.1606;0.0397447;0.000648659;0.000732356;2.18186;0.458325;5.27302;50.273;0.00183315;0.000424103;0.000370704;-0.00137686;-1.68308e-05;0.00219858;-0.00730373;0;0.0194185;-0.00690148;2.50442
49000;50;25.7591;0.00623253;0.000242014;-2.35301;25.6373;0.84777;-0.0189349;0.0034394;0.0336715;0.00338383;0.0398654;-0.0447888;0.0600561;-7.04863;-0.000120631;-0.000671966;-0.000450578;0.000406317;-0.000977525;0.000691921;-0.267724;-3.73519;0.000821336;0.000922561;0.415659;2.40582;17.8982;62.8982;-0.00324575;-0.000121354;3.39035e-05;-0.00137807;-0.000450353;0.00260642;-0.00131353;0;0.0214826;-0.016095;0.0373316;-0.0217982;0.0461288;-6.20451;0.000430765;-0.000431332;-8.4277e-05;0.000675603;-0.000329115;0.000502359;5.11129;0.195645;0.00059146;0.000669812;2.05279;0.487143;10.339;55.339;0.00185163;0.000429877;0.000537851;-0.00140101;-8.43287e-05;0.000759493;-0.00709988;0;0.0278149;-0.00670737;2.51203
50000;51;25.7592;0.00636387;0.000247113;-2.35437;25.6373;0.849548;-0.0202956;0.00338757;0.0354499;0.00292537;0.0374801;-0.0397312;0.0546982;-7.04358;2.27905e-05;-0.000526847;-0.000411121;0.000375605;-0.000763935;0.00056977;0.0554349;18.0392;0.000670527;0.000759693;0.491671;2.03388;18.7974;63.7974;-0.00269144;2.21605e-05;0.000185937;-0.00123994;-0.000411;0.00184089;-0.000660175;0;0.0146454;-0.017423;0.036052;-0.0167698;0.0434112;-6.19948;0.000328389;-0.000411937;-0.000120997;0.000572928;-0.000365537;0.000469233;2.71402;0.368458;0.000546215;0.000625643;1.56736;0.638015;11.5296;56.5296;0.00147081;0.000327371;0.000660774;-0.00148513;-0.000121131;0.0013765;-0.00736857;0;0.018975;-0.00668617;2.51881
51000;52;25.7589;0.00608407;0.000236249;-2.35441;25.6372;0.842758;-0.0203372;0.00332673;0.0286596;0.00420355;0.0411717;-0.0495605;0.064568;-7.05341;-4.21105e-05;-0.000654736;-0.000601771;0.000390087;-0.00103397;0.000712028;-0.0699776;-14.2903;0.000849731;0.00094937;0.377272;2.65061;23.3616;68.3616;-0.00302923;-4.28645e-05;8.17399e-05;-0.00139162;-0.00060156;0.00215482;-0.000757322;0;0.0175217;-0.0166526;0.0385709;-0.031319;0.0524013;-6.21403;0.000391467;-0.0004309;1.36441e-05;0.000673048;-0.000267936;0.000470492;-28.6914;-0.0348537;0.000559808;0.000627323;2.51197;0.398094;5.36295;50.363;0.00121031;0.000390697;0.000451869;-0.001314;1.36348e-05;0.00164925;-0.00634487;0;0.018595;-0.00658417;2.52648
52000;53;25.7569;0.00403532;0.000156694;-2.35544;25.6352;0.840003;-0.0213691;0.00126389;0.0259044;0.00541682;0.0377253;-0.0401356;0.055348;-7.04398;-0.000193769;-0.000478141;-0.000526273;0.000146199;-0.000866241;0.00050622;-0.36819;-2.71599;0.00063189;0.00067496;0.168775;5.92506;22.4385;67.4385;-0.00253146;-0.000194405;0.000268817;-0.00122535;-0.000526195;0.00105698;-0.00184224;0;0.0338117;-0.016138;0.0370398;-0.0238334;0.0469086;-6.20655;0.000381879;-0.000399734;-7.26778e-05;0.00061443;-0.000305228;0.000459829;5.25441;0.190316;0.000540876;0.000613105;2.01302;0.496767;10.0713;55.0713;0.0011215;0.000381077;0.000528736;-0.00132863;-7.27377e-05;0.00203678;-0.00712884;0;0.0281934;-0.00645824;2.53373
53000;54;25.7585;0.00563315;0.000218739;-2.35583;25.6367;0.842647;-0.0217517;0.00274736;0.0285491;0.00406591;0.0381261;-0.0488779;0.0621223;-7.05272;-0.000178058;-0.000435049;-0.000872062;3.14276e-05;-0.00108155;0.000556487;-0.20418;-4.89764;0.000731732;0.000741983;0.029058;34.414;38.9555;83.9555;-0.00281822;-0.000178541;0.000204853;-0.0010754;-0.000871988;0.00142958;-0.000391199;0;0.0146525;-0.0176385;0.036095;-0.0307088;0.0505667;-6.21342;0.000423355;-0.00042564;9.71145e-05;0.000716061;-0.000195591;0.000455826;-4.35934;-0.229392;0.000554198;0.000607768;3.66101;0.273149;3.82233;48.8223;0.00137275;0.00042228;0.000675847;-0.00152749;9.69767e-05;0.0016061;-0.00617058;0;0.0185008;-0.00650558;2.54244
54000;55;25.7582;0.00536654;0.000208387;-2.35471;25.6366;0.838993;-0.0206344;0.00270199;0.0248946;0.00661997;0.0406055;-0.054665;0.0684171;-7.05851;4.21683e-05;-0.000479909;-0.000526527;0.000315644;-0.000800002;0.000557823;0.0800877;12.4863;0.000664045;0.000743764;0.394554;2.53451;23.651;68.651;-0.00311148;4.14536e-05;0.000328096;-0.00128837;-0.000526465;0.00286835;-0.00134192;0;0.0205282;-0.0143921;0.0388614;-0.0392551;0.0570815;-6.22197;0.000425913;-0.000398156;-4.59137e-05;0.000652799;-0.0002728;0.0004628;9.27638;0.107801;0.000549202;0.000617066;2.39296;0.417893;9.99674;54.9967;0.00128613;0.000424997;0.000614525;-0.00141132;-4.60232e-05;0.00021017;-0.00833934;0;0.0242487;-0.00595852;2.54585
55000;56;25.7594;0.00655006;0.000254343;-2.35541;25.6377;0.839702;-0.0213337;0.00380365;0.0256042;0.00862228;0.0409981;-0.0570284;0.0707632;-7.06087;-4.53846e-05;-0.000629333;-0.000532957;0.000385731;-0.000964073;0.000674902;-0.0851562;-11.7431;0.0008028;0.000899869;0.400106;2.49934;20.1105;65.1105;-0.00306073;-4.6261e-05;0.00020683;-0.0014659;-0.00053278;0.000989095;-0.000681984;0;0.0205651;-0.0132212;0.0384881;-0.0422223;0.0586418;-6.22494;0.000350209;-0.000337962;-1.96976e-05;0.000550516;-0.000220005;0.000385261;17.7793;0.0562452;0.0004583;0.000513681;2.50229;0.399634;9.65191;54.6519;0.00120538;0.000349367;0.00066477;-0.00134106;-1.98614e-05;-0.000343171;-0.00869762;0;0.0272113;-0.00568911;2.554
56000;57;25.7552;0.00238751;9.27087e-05;-2.35482;25.634;0.825492;-0.0207419;0.000137286;0.0113938;0.0115903;0.0390186;-0.0522076;0.0661999;-7.05605;-0.0001429;-0.000560705;-0.000198076;0.000390896;-0.000731871;0.000561384;-0.721439;-1.38612;0.000658119;0.000748511;0.534105;1.87229;7.2592;52.2592;-0.00305735;-0.000143698;0.000260642;-0.0013821;-0.000197953;0.00186455;-0.00158115;0;0.0150591;-0.01003;0.0389675;-0.0455139;0.0607502;-6.22823;0.000511109;-0.00031505;3.95202e-06;0.000661954;-0.000146893;0.000404424;;;0.000497548;0.000539232;4.50637;0.221908;12.6529;57.6529;0.000644315;0.000510195;0.000758046;-0.00138869;3.71433e-06;0.00043892;-0.00911112;0;0.0180264;-0.0054886;2.56235
57000;58;25.7563;0.00346897;0.000134703;-2.35439;25.6351;0.826462;-0.0203173;0.00123161;0.0123635;0.0128577;0.0406421;-0.057801;0.0718196;-7.06165;-6.89288e-05;-0.000862968;-0.000482845;0.00061155;-0.00116332;0.000887437;-0.142755;-7.00499;0.0010411;0.00118325;0.525692;1.90225;15.8969;60.8969;-0.00319634;-6.99942e-05;-3.05894e-05;-0.00169569;-0.000482473;0.00242386;-0.00190916;0;0.01683;-0.00888103;0.0395883;-0.048469;0.0632088;-6.23118;0.00052828;-0.000242767;-6.17562e-05;0.000615323;-0.0001488;0.000382062;8.55427;0.116901;0.000467772;0.000509416;4.13524;0.241824;19.2042;64.2042;0.000874272;0.000527425;0.000844184;-0.00133036;-6.20831e-05;-6.07099e-06;-0.00906262;0;0.0204905;-0.00518025;2.56431
58000;59;25.7495;-0.00327302;-0.000127094;-2.35384;25.629;0.808811;-0.0197666;-0.00492853;-0.00528755;0.017187;0.039545;-0.0561913;0.0708283;-7.06004;-0.000160947;-0.000714993;-4.80864e-05;0.0006127;-0.000821733;0.000717216;-3.34704;-0.298771;0.000831096;0.000956289;0.745619;1.34117;1.4593;46.4593;-0.00311399;-0.000161837;8.38309e-05;-0.00151373;-4.78342e-05;0.00247184;-0.00141701;0;0.0168874;-0.00367768;0.0419025;-0.0602433;0.0734751;-6.24296;0.000368933;-0.000223981;6.93837e-05;0.000488602;-5.02853e-05;0.000269444;-5.31729;-0.188066;0.000343725;0.000359258;9.71661;0.102917;11.5988;56.5988;0.000193728;0.000367976;0.000953955;-0.00140227;6.89538e-05;0.00242914;-0.00831597;0;0.0196354;-0.00520329;2.57083
59000;60;25.7478;-0.00499367;-0.000193908;-2.35244;25.6276;0.802155;-0.0183678;-0.00631966;-0.0119432;0.0183871;0.0375651;-0.0504412;0.0655251;-7.05429;-0.000289526;-0.000648091;-0.000902369;0.000120932;-0.00131283;0.00071688;-0.320851;-3.11671;0.000918187;0.00095584;0.0921157;10.8559;30.1047;75.1047;-0.00280952;-0.000290444;0.000204748;-0.00150145;-0.00090218;0.00264423;-0.00144806;0;0.0167468;-0.00163106;0.0420182;-0.0620152;0.0749271;-6.24473;0.000287072;-0.000319295;9.98481e-05;0.000526195;-0.000139275;0.000332735;-2.87509;-0.347815;0.000405279;0.000443647;3.7781;0.264683;3.59419;48.5942;0.000572976;0.000285961;0.000886184;-0.001525;9.95065e-05;0.00170682;-0.0081496;0;0.0278558;-0.00420696;2.57809
60000;61;25.7489;-0.00396161;-0.000153832;-2.35259;25.6286;0.803248;-0.0185203;-0.00533099;-0.01085;0.0212921;0.0391047;-0.0571459;0.0724444;-7.06099;-0.000193547;-0.000586073;-2.13693e-05;0.000484904;-0.00069982;0.000592362;-9.05722;-0.110409;0.000687742;0.000789816;0.692898;1.44321;179.532;44.532;-0.00292279;-0.000194367;0.000236394;-0.0014084;-2.12255e-05;0.00169749;-0.00180319;0;0.0153701;0.000745682;0.0424883;-0.0666884;0.0790769;-6.2494;0.000392323;-0.000261419;-2.49705e-05;0.000518151;-0.000150798;0.000334475;15.7115;0.0636477;0.000405165;0.000445966;3.43606;0.291031;14.3768;59.3768;0.000624145;0.000391482;0.000800669;-0.00132395;-2.52569e-05;0.0014853;-0.0076463;0;0.0195191;-0.00407317;2.58562
61000;62;25.7463;-0.00655428;-0.000254507;-2.35297;25.6261;0.796743;-0.0188974;-0.00776739;-0.017355;0.0238371;0.0374023;-0.0618464;0.076106;-7.06569;-0.000216761;-0.000360338;6.58505e-05;0.000311598;-0.000462509;0.000387054;3.29172;0.303793;0.000449753;0.000516072;0.673713;1.48431;171.945;36.9445;-0.00250683;-0.000217381;0.000449313;-0.00116976;6.58145e-05;0.00101977;-0.00248549;0;0.0513368;0.003796;0.0420072;-0.0762166;0.0871091;-6.25893;0.00034442;-0.00037637;-4.57853e-05;0.00057325;-0.000274616;0.000423933;7.52249;0.132935;0.000499534;0.000565244;2.08746;0.479051;10.1627;55.1627;0.000430589;0.000343234;0.000832371;-0.00158558;-4.60609e-05;0.00237739;-0.00668113;0;0.0374632;-0.00394742;2.59311
62000;63;25.7473;-0.00547676;-0.000212666;-2.35295;25.6271;0.799251;-0.0188764;-0.00676098;-0.0148469;0.0241951;0.0388184;-0.0610035;0.0762476;-7.06485;-0.000250604;-0.0004578;0.000112003;0.000423093;-0.000561694;0.000492393;2.23748;0.446931;0.000570441;0.000656525;0.753244;1.32759;171.63;36.6303;-0.00247027;-0.000251303;0.000352502;-0.00126781;0.000112045;0.00018168;-0.00213767;0;0.0159341;0.00442989;0.042762;-0.0740819;0.0856524;-6.2568;0.000279718;-0.000282446;-7.92945e-05;0.000434873;-0.000234449;0.000334661;3.52759;0.28348;0.000392166;0.000446215;1.85487;0.539121;13.8176;58.8176;0.000124446;0.000278657;0.00091881;-0.00148413;-7.96768e-05;0.00265998;-0.00720098;0;0.0184593;-0.00374983;2.60082
63000;64;25.7471;-0.00575547;-0.000223489;-2.35176;25.6271;0.794381;-0.0176847;-0.00678018;-0.0197171;0.0262877;0.0392824;-0.0626137;0.0784514;-7.06646;-0.000323649;-0.000369072;0.00071695;0.000834558;-0.000441257;0.000637908;0.451425;2.21521;0.000748168;0.000850544;1.89132;0.528732;145.167;10.1671;-0.00310783;-0.00032419;0.00036557;-0.00110295;0.000716952;0.00177524;-0.00254753;0;0.0175298;0.00736593;0.0435875;-0.0813266;0.0925643;-6.26404;0.000263281;-0.000317234;3.5423e-05;0.000486423;-0.00018772;0.000337071;-7.43247;-0.134545;0.00040175;0.000449429;2.59122;0.385918;6.06019;51.0602;0.000295061;0.000262299;0.000801705;-0.00143643;3.5152e-05;0.00339404;-0.00752649;0;0.0308887;-0.00371803;2.60795
64000;65;25.748;-0.00480576;-0.000186611;-2.35213;25.628;0.796028;-0.0180573;-0.00591133;-0.0180701;0.02778;0.0411157;-0.0738392;0.0889632;-7.07768;-0.000121342;-0.00046565;9.16147e-05;0.000462805;-0.000492532;0.000477669;1.32448;0.755015;0.000551654;0.000636892;0.939645;1.06423;174.121;39.1207;-0.00242088;-0.000121966;0.000279499;-0.00121064;9.1684e-05;0.000328122;-0.00223128;0;0.0158726;0.00899811;0.0458384;-0.0941635;0.105114;-6.27688;0.000389227;-0.000437502;1.05964e-05;0.000676617;-0.000276794;0.000476706;-36.7321;-0.0272241;0.000566357;0.000635607;2.44448;0.409085;5.98285;50.9829;0.000812882;0.000388302;0.00055342;-0.0014288;1.05389e-05;0.00183825;-0.00643518;0;0.0192915;-0.00342229;2.61531
65000;66;25.7483;-0.00448392;-0.000174114;-2.35214;25.6283;0.795403;-0.0180661;-0.00556937;-0.0186952;0.0317151;0.0405421;-0.0698296;0.0867506;-7.07367;-0.000154432;-0.000271797;0.000390654;0.000503018;-0.000266796;0.000384907;0.395316;2.52962;0.000451373;0.000513209;1.88541;0.53039;153.524;18.5239;-0.00255055;-0.000155032;0.000585247;-0.00112837;0.00039052;8.37869e-05;-0.00202546;0;0.0152572;0.0127281;0.0447402;-0.0896618;0.10101;-6.27238;0.000263179;-0.000371989;7.8577e-05;0.000554147;-0.000212392;0.000383269;-3.34931;-0.298569;0.000456988;0.000511026;2.60908;0.383276;1.44471;46.4447;0.000667963;0.000262468;0.000505403;-0.00124954;7.85184e-05;0.00132719;-0.00611386;0;0.0198702;-0.00337824;2.62149
66000;67;25.7507;-0.00214338;-8.32288e-05;-2.35265;25.6305;0.801544;-0.0185736;-0.00345576;-0.0125544;0.0332505;0.0424315;-0.0790116;0.0956496;-7.08286;3.37072e-05;-0.000471807;0.000543096;0.000824564;-0.000247761;0.000536163;-0.062065;-16.1122;0.000648275;0.000714884;3.32806;0.300475;155.501;20.5011;-0.00218306;3.30517e-05;0.000295191;-0.00123841;0.000543163;-0.000286486;-0.00146801;0;0.0170659;0.0143733;0.045475;-0.0969948;0.108086;-6.27971;0.00035651;-0.000375224;3.66455e-05;0.000604464;-0.000211308;0.000407886;-9.72862;-0.102789;0.000488879;0.000543848;2.86058;0.34958;5.35203;50.352;0.000396978;0.000355771;0.000522133;-0.00127287;3.65796e-05;0.00169357;-0.00600037;0;0.0186645;-0.00337313;2.62746
67000;68;25.751;-0.00177901;-6.90802e-05;-2.35211;25.6309;0.800436;-0.0180385;-0.00300596;-0.0136617;0.0350427;0.0426809;-0.0800086;0.0972164;-7.08385;-0.000116778;-0.000434971;0.000556123;0.000769581;-0.000330236;0.000549908;0.209986;4.76222;0.000651649;0.000733211;2.3304;0.429111;153.409;18.4085;-0.00235198;-0.00011744;0.000360826;-0.00123023;0.000556152;-0.00084326;-0.00280931;0;0.0138563;0.016614;0.0455546;-0.0992792;0.110488;-6.28199;0.000284485;-0.000438171;0.000129538;0.000651978;-0.000237956;0.000444967;-2.19615;-0.455342;0.000532015;0.000593289;2.73992;0.364975;177.604;42.6036;0.000574456;0.000283834;0.000345513;-0.00122197;0.000129574;0.00146816;-0.00513822;0;0.0213811;-0.00329636;2.6327
68000;69;25.7491;-0.00373188;-0.000144911;-2.35146;25.6291;0.797781;-0.0173893;-0.00482563;-0.0163167;0.0355832;0.0382717;-0.0695127;0.086965;-7.07336;-5.12937e-05;-0.000550201;0.000781946;0.00105547;-0.000324814;0.00069014;0.0655975;15.2445;0.000833292;0.000920187;3.24945;0.307745;147.855;12.8553;-0.0026399;-5.19398e-05;0.000163045;-0.00126285;0.000782084;0.00170917;-0.00207916;0;0.0152038;0.0180563;0.0431282;-0.0911531;0.102445;-6.27387;0.000323573;-0.00036922;6.00844e-06;0.000566705;-0.000237124;0.000401915;;;0.000476917;0.000535886;2.38991;0.418425;5.77551;50.7755;0.000587685;0.000322962;0.000426729;-0.00116542;5.98555e-06;3.29263e-05;-0.00461212;0;0.020378;-0.00325249;2.63652
69000;70;25.7497;-0.00310604;-0.00012061;-2.35114;25.6297;0.799353;-0.017061;-0.00421573;-0.0147448;0.0359885;0.03977;-0.0762234;0.0932032;-7.08007;4.16919e-05;-0.000424496;0.000699871;0.0009079;-0.000166337;0.000537119;-0.0595709;-16.7867;0.000667655;0.000716158;5.45818;0.183211;148.839;13.8391;-0.00286949;4.10164e-05;0.000389004;-0.00123746;0.000699885;0.000681488;-0.000806756;0;0.0144581;0.0183749;0.0435268;-0.0977164;0.108539;-6.28043;0.000225329;-0.000351081;-0.000122146;0.000443309;-0.000340125;0.000391717;1.84476;0.542076;0.000453622;0.00052229;1.30337;0.767242;11.2236;56.2236;0.000416684;0.000224769;0.000413444;-0.00111587;-0.000122169;0.000390926;-0.00415348;0;0.0202929;-0.00318432;2.64403
70000;71;25.7512;-0.0015798;-6.13448e-05;-2.35207;25.6311;0.799781;-0.0179937;-0.00278125;-0.0143171;0.0377452;0.0415332;-0.0846917;0.101599;-7.08854;-7.77095e-05;-0.000294874;0.000426332;0.00056221;-0.000213587;0.000387899;0.182274;5.48623;0.000462736;0.000517198;2.63223;0.379906;152.195;17.1947;-0.00214978;-7.81097e-05;0.000352605;-0.000942027;0.000426313;-0.000771301;-0.000840956;0;0.0157788;0.0201222;0.0444676;-0.107305;0.117884;-6.29002;0.000322435;-0.000366533;8.04515e-05;0.000587429;-0.000184543;0.000385986;-4.00781;-0.249513;0.000465491;0.000514648;3.18316;0.314154;0.78814;45.7881;0.000362842;0.000321962;0.000306076;-0.0010393;8.04718e-05;0.000515835;-0.00457852;0;0.0178165;-0.00319144;2.6548
71000;72;25.7521;-0.000692618;-2.68948e-05;-2.35157;25.632;0.801852;-0.0174906;-0.00190846;-0.0122459;0.039831;0.0419662;-0.0899518;0.106953;-7.0938;-7.28887e-05;-0.00055182;0.000776519;0.00104815;-0.000344517;0.000696332;0.093866;10.6535;0.000837565;0.000928443;3.04237;0.328691;147.643;12.6428;-0.0025761;-7.35038e-05;0.000135767;-0.00123882;0.000776662;0.000887098;-0.00125698;0;0.0141764;0.0221592;0.0441458;-0.110988;0.121484;-6.2937;0.000309283;-0.000382729;-5.60721e-05;0.000550696;-0.000297485;0.00042409;5.51582;0.181297;0.000496918;0.000565454;1.85117;0.540198;7.52779;52.5278;0.000351387;0.000308784;0.000304306;-0.00107001;-5.60451e-05;-0.000320283;-0.00353638;0;0.0183312;-0.00315507;2.65888
72000;73;25.752;-0.000798241;-3.09962e-05;-2.35128;25.6319;0.800998;-0.0172036;-0.00196154;-0.0131;0.0407578;0.0427047;-0.0931702;0.110298;-7.09702;-6.71488e-05;-0.0003161;0.000852328;0.000950513;-0.000165334;0.000557924;0.0787827;12.6931;0.00069537;0.000743898;5.74906;0.173942;138.749;3.74949;-0.00266355;-6.76893e-05;0.00045524;-0.00108673;0.000852275;0.000305572;-0.00230948;0;0.0137704;0.0234867;0.0443664;-0.114273;0.124813;-6.29699;0.000332783;-0.000360573;5.83867e-06;0.00056521;-0.000226588;0.000395899;;;0.000470874;0.000527866;2.49444;0.400892;3.73982;48.7398;0.000467126;0.000332427;0.000196917;-0.000918245;5.88429e-06;-0.000287933;-0.00523009;0;0.018309;-0.00301488;2.66568
73000;74;25.7531;0.00025341;9.8401e-06;-2.35177;25.6329;0.803153;-0.0176959;-0.00101756;-0.0109451;0.0402429;0.0430453;-0.0964632;0.113038;-7.10031;-4.61156e-05;-0.00029638;0.000842127;0.000931939;-0.000135928;0.000533933;0.0547608;18.2612;0.000671206;0.000711911;6.85613;0.145855;136.977;1.97689;-0.0023662;-4.65645e-05;0.000400628;-0.00099277;0.00084209;-0.000378741;-0.00291204;0;0.0147122;0.0234078;0.0448107;-0.11895;0.129248;-6.30166;0.000226894;-0.000315248;-9.99092e-05;0.000418572;-0.000291587;0.00035508;2.27101;0.440334;0.00041219;0.000473439;1.4355;0.696623;9.7768;54.7768;0.000682604;0.000226642;0.000146273;-0.00077692;-9.98702e-05;-0.00119236;-0.00415735;0;0.0184575;-0.00282077;2.67298
74000;75;25.7513;-0.00149967;-5.82333e-05;-2.35048;25.6315;0.796333;-0.0164075;-0.00244788;-0.0177654;0.0415612;0.0413778;-0.0937337;0.110569;-7.09758;-0.000123349;-0.000535081;0.000605392;0.000888384;-0.00040634;0.000647362;0.20375;4.90797;0.000764584;0.000863149;2.1863;0.457393;153.456;18.4564;-0.00191903;-0.000123977;0.000172709;-0.00124236;0.00060552;-0.00112125;-0.00134461;0;0.0157994;0.0249056;0.043451;-0.11896;0.129073;-6.30167;0.000191569;-0.000351465;3.40988e-05;0.00047301;-0.000247343;0.000360176;-5.61805;-0.177998;0.000422644;0.000480235;1.91237;0.522912;1.4712;46.4712;0.000189684;0.000191116;0.000311026;-0.00101406;3.41122e-05;-0.00062839;-0.00441447;0;0.0166529;-0.00279335;2.68014
75000;76;25.7529;5.05483e-05;1.96283e-06;-2.35042;25.6329;0.798844;-0.0163427;-0.000962622;-0.0152537;0.0431571;0.0420887;-0.10126;0.117845;-7.1051;-3.71152e-05;-0.000266806;0.000579579;0.000678986;-0.000136522;0.000407754;0.0640382;15.6157;0.000504362;0.000543672;4.97345;0.201068;141.601;6.60089;-0.00226953;-3.73872e-05;0.000251091;-0.000784383;0.000579583;-0.000384525;-0.00250719;0;0.0148404;0.0269336;0.0429417;-0.122083;0.132188;-6.3048;0.000170579;-0.000354567;-4.27621e-05;0.000434174;-0.000306356;0.000370265;3.98903;0.250688;0.000429663;0.000493687;1.41722;0.705608;4.48022;49.4802;7.53946e-05;0.000170304;0.000113769;-0.000823002;-4.27058e-05;-0.00084448;-0.00439669;0;0.0229642;-0.00207193;2.68772
76000;77;25.7531;0.000298435;1.15885e-05;-2.34895;25.6333;0.800681;-0.0148779;-0.000636594;-0.0134175;0.0465998;0.0427675;-0.101167;0.119312;-7.10501;-0.00013824;-0.000548367;0.0004438;0.000773585;-0.000468026;0.000620806;0.311492;3.21035;0.000724044;0.000827741;1.65287;0.605008;158.356;23.3558;-0.00259203;-0.000138702;9.64159e-06;-0.00110605;0.00044395;0.00087103;-0.000422735;0;0.0170416;0.0307969;0.0439143;-0.123043;0.134225;-6.30576;0.000178691;-0.000306258;-0.000149917;0.000361935;-0.000333162;0.000347548;1.19193;0.838976;0.000401429;0.000463398;1.08637;0.920501;13.4516;58.4516;-0.000177722;0.000178292;0.000331756;-0.000944482;-0.000149926;-0.00264681;-0.00478549;0;0.020601;-0.00151975;2.69446
77000;78;25.7557;0.00286498;0.000111249;-2.34946;25.6357;0.804957;-0.0153872;0.00176136;-0.00914114;0.0472726;0.0423623;-0.106805;0.124244;-7.11065;5.38118e-05;-0.000387023;0.000329637;0.000602585;-0.000219136;0.000410861;-0.163245;-6.12575;0.000491337;0.000547814;2.74982;0.36366;158.682;23.6824;-0.00263552;5.35351e-05;6.45576e-05;-0.000838478;0.00032971;0.000507689;-0.0014953;0;0.0141524;0.0315998;0.0420343;-0.127732;0.138134;-6.31045;0.000283309;-0.000272403;-0.000167594;0.000411456;-0.000295742;0.000353599;1.69045;0.59156;0.000410119;0.000471465;1.39127;0.718768;16.9754;61.9754;-6.31394e-05;0.000282979;0.000312828;-0.000857899;-0.000167606;-0.00218756;-0.00440018;0;0.0181357;-0.00118381;2.69668
78000;79;25.7544;0.00161723;6.27981e-05;-2.3486;25.6349;0.791067;-0.0145302;0.00101869;-0.023031;0.0479294;0.0466202;-0.121746;0.138898;-7.12559;0.000164522;-0.000380312;0.00025113;0.000590595;-0.000174943;0.000382769;-0.655126;-1.52642;0.000463191;0.000510359;3.37593;0.296215;165.36;30.3602;-0.00194995;0.000164211;0.000114902;-0.000875482;0.000251196;0.000229772;-0.000564631;0;0.0145926;0.0327815;0.0462024;-0.149239;0.15963;-6.33195;0.000162458;-0.000211363;-9.45744e-05;0.000281309;-0.000213425;0.000247367;1.71778;0.582146;0.00028653;0.000329823;1.31807;0.758686;14.3656;59.3656;-0.000510497;0.000162006;0.000551254;-0.000974175;-9.4704e-05;-0.00166636;-0.00523554;0;0.0152491;-0.00104855;2.70792
79000;80;25.7531;0.000284958;1.10651e-05;-2.34763;25.6338;0.788198;-0.0135532;-0.0001419;-0.0259006;0.0480653;0.0457667;-0.124941;0.141475;-7.12879;-9.59393e-05;-0.00051353;-5.84707e-05;0.000436666;-0.000591076;0.000513871;-1.64081;-0.609455;0.000595596;0.000685162;0.738765;1.35361;5.32737;50.3274;-0.00244037;-9.61727e-05;-0.000172445;-0.000854601;-5.83537e-05;0.00200486;-0.000191852;0;0.0283605;0.0338914;0.0461772;-0.155807;0.166002;-6.33852;5.01182e-05;-0.00014224;7.83196e-05;0.000207157;-7.87187e-05;0.000142938;-0.639919;-1.5627;0.000170512;0.000190583;2.6316;0.379996;174.459;39.4595;-0.000451648;4.97908e-05;0.000537134;-0.000821596;7.81854e-05;-0.00094462;-0.00689374;0;0.0222383;-0.000337179;2.71338
80000;81;25.7523;-0.000545887;-2.11972e-05;-2.34587;25.6331;0.789476;-0.0117935;-0.000854851;-0.0246219;0.0498299;0.0458245;-0.127667;0.144505;-7.13151;-0.000104851;-0.000703244;0.000527618;0.000982459;-0.000559692;0.000771075;0.198726;5.03206;0.000901444;0.0010281;1.75536;0.569685;156.611;21.6111;-0.00245821;-0.000105339;-0.00019398;-0.00121219;0.000527847;0.00201137;0.000544292;0;0.0245916;0.036612;0.0457703;-0.158283;0.168786;-6.341;0.000103653;-9.54875e-05;-2.91959e-05;0.000153548;-7.90902e-05;0.000116319;3.55027;0.281669;0.000136587;0.000155092;1.94142;0.515086;16.0684;61.0684;-0.000882634;0.000103257;0.000704526;-0.000895607;-2.94395e-05;-0.00190833;-0.00584431;0;0.0175274;-8.80525e-05;2.71783
81000;82;25.7525;-0.000302267;-1.17372e-05;-2.34454;25.6335;0.787115;-0.0104685;-0.000416261;-0.0269832;0.0511754;0.046202;-0.13365;0.150386;-7.1375;-0.000223952;-0.000632436;0.000236957;0.000679618;-0.000666613;0.000673115;0.945118;1.05807;0.000777259;0.000897487;1.01951;0.980865;169.511;34.5112;-0.0026002;-0.000224279;-0.000238096;-0.00102659;0.000237128;0.000992357;0.000354034;0;0.0201206;0.0388228;0.0461975;-0.166983;0.177552;-6.3497;8.82748e-05;-0.000123832;6.6863e-06;0.000177859;-8.28982e-05;0.000130379;;;0.00015384;0.000173838;2.14551;0.466089;7.75404;52.754;-0.00107345;8.76418e-05;0.000884268;-0.00113201;6.30301e-06;-0.000196977;-0.00473728;0;0.0143392;8.74146e-05;2.7247
82000;83;25.7514;-0.00141845;-5.50793e-05;-2.34349;25.6326;0.783929;-0.00941907;-0.00134401;-0.0301695;0.0521732;0.0460103;-0.138082;0.154614;-7.14193;-3.11461e-05;-0.000710253;0.000416201;0.000937168;-0.000552113;0.000744641;0.0748344;13.3628;0.000869364;0.000992854;1.69742;0.58913;159.05;24.0505;-0.00261063;-3.15374e-05;-0.000285824;-0.00113449;0.000416412;0.00246285;-0.000216414;0;0.0166099;0.0409119;0.0462812;-0.174141;0.184773;-6.35685;0.000140404;-0.000237329;3.67013e-05;0.00033148;-0.000154375;0.000242928;-3.82559;-0.261398;0.000286654;0.000323904;2.14724;0.465714;3.18201;48.182;-0.000750636;0.000139839;0.000614365;-0.00108911;3.65407e-05;-0.00164395;-0.00269091;0;0.0163097;0.000428479;2.73201
83000;84;25.7524;-0.000390739;-1.51727e-05;-2.34338;25.6336;0.782593;-0.00931024;-0.000260789;-0.0315048;0.0536453;0.0471744;-0.141082;0.158137;-7.14493;-0.000297374;-0.000658205;0.000580158;0.000932435;-0.000649651;0.000791043;0.512574;1.95094;0.000918269;0.00105472;1.43529;0.696726;152.828;17.8276;-0.00256724;-0.000297691;-0.000282767;-0.00103331;0.000580334;0.00267732;0.00135026;0;0.0143715;0.0428824;0.0461969;-0.17757;0.188426;-6.36028;0.000132369;-0.000194432;-4.23884e-05;0.000258154;-0.000168173;0.000213164;3.12276;0.320229;0.000247961;0.000284218;1.53505;0.651446;10.614;55.614;-0.00148889;0.000131817;0.000679611;-0.00106863;-4.26005e-05;0.000970782;-0.00359514;0;0.0159042;0.000447671;2.739
84000;85;25.7514;-0.00141349;-5.48869e-05;-2.34216;25.6328;0.779647;-0.00808569;-0.00108659;-0.0344507;0.0534328;0.0459014;-0.144056;0.160357;-7.1479;-7.55898e-05;-0.000602149;0.000418861;0.000822561;-0.00047929;0.000650926;0.180465;5.54124;0.000760284;0.000867901;1.71621;0.58268;155.329;20.3289;-0.00245942;-7.58492e-05;-0.00026534;-0.000938792;0.000419008;0.00175053;0.000507449;0;0.028242;0.0432048;0.0451945;-0.182332;0.192754;-6.36505;6.18489e-05;-0.000228796;9.833e-05;0.000309611;-0.000149432;0.000229521;-0.628992;-1.58984;0.000270353;0.000306029;2.07192;0.482645;174.952;39.9524;-0.000966986;6.13148e-05;0.000600996;-0.00105856;9.81756e-05;-0.000861302;-0.00334165;0;0.0207716;0.00058055;2.74676
85000;86;25.7523;-0.000516774;-2.00667e-05;-2.34089;25.6338;0.780612;-0.00681778;-9.92502e-05;-0.0334864;0.053976;0.0452894;-0.141622;0.158181;-7.14547;-0.00017725;-0.000604272;0.000165719;0.000622368;-0.000633899;0.000628134;1.06958;0.934947;0.000725317;0.000837512;0.98181;1.01853;172.481;37.4806;-0.00279706;-0.000177577;-0.000199417;-0.00100899;0.000165882;0.00213117;0.000644146;0;0.0173532;0.0453486;0.0449093;-0.182911;0.193726;-6.36562;7.95601e-05;-0.000322971;-0.000115539;0.000319392;-0.000355371;0.000337381;0.688598;1.45223;0.000389759;0.000449842;0.898756;1.11265;9.13888;54.1389;-0.000823162;7.90981e-05;0.000368008;-0.00101408;-0.000115555;-0.000501932;-0.00485384;0;0.0154707;0.00047326;2.75362
86000;87;25.7492;-0.00363369;-0.000141099;-2.34213;25.6306;0.779832;-0.00805473;-0.00331985;-0.0342657;0.0561594;0.0426521;-0.14003;0.156785;-7.14388;-0.000241618;-0.000871104;0.000722563;0.00123608;-0.000755134;0.000995607;0.33439;2.99052;0.00116075;0.00132748;1.6369;0.610911;147.802;12.8022;-0.00254737;-0.000241969;-0.00053283;-0.00120905;0.0007228;0.00317403;0.000687335;0;0.0209317;0.0466338;0.0429275;-0.181803;0.192535;-6.36452;0.000135273;-0.000213739;-0.00013838;0.000252229;-0.000255337;0.000253783;0.977544;1.02297;0.000293045;0.000338377;0.98783;1.01232;16.3588;61.3588;-0.000720247;0.000134803;0.00056531;-0.000993001;-0.000138517;0.000491787;-0.00282716;0;0.0172332;0.000672122;2.7614
87000;88;25.7524;-0.000410821;-1.59525e-05;-2.34026;25.6338;0.787146;-0.00618759;-0.00013508;-0.0269522;0.0580903;0.0439768;-0.149267;0.1661;-7.15311;-0.000267756;-0.000986429;0.00084;0.00141741;-0.000845171;0.00113129;0.318758;3.13718;0.00132016;0.00150839;1.67707;0.596276;149.743;14.7435;-0.00301203;-0.000268334;-0.000513383;-0.00145895;0.000840355;0.00336858;0.000356959;0;0.0189723;0.0500142;0.0417766;-0.184984;0.196127;-6.3677;5.47214e-05;-0.00025388;-0.00019804;0.000211938;-0.000355256;0.000283597;0.276315;3.61906;0.000330936;0.000378129;0.596577;1.67623;15.5916;60.5916;-0.000618714;5.41293e-05;0.000609486;-0.00111746;-0.000198193;0.000790037;-0.00358371;0;0.0174268;0.000574336;2.76851
88000;89;25.7501;-0.00271598;-0.000105464;-2.33874;25.6319;0.776416;-0.00466513;-0.00198469;-0.037682;0.0589785;0.0440126;-0.151346;0.168289;-7.15519;-0.000220772;-0.000724155;0.000784231;0.00116315;-0.000599694;0.000881424;0.281514;3.55222;0.00103497;0.00117523;1.93958;0.515577;144.109;9.10857;-0.00241135;-0.000221112;-0.000350248;-0.00109769;0.000784431;0.00119625;0.000219951;0;0.0166362;0.0520885;0.0427337;-0.194574;0.205908;-6.37729;-6.07352e-05;-0.000356718;-0.000423865;0.000157967;-0.000642567;0.000400267;-0.143289;-6.9789;0.000489603;0.000533689;0.245837;4.06774;25.3925;70.3925;0.000479379;-6.10815e-05;0.000191831;-0.000905467;-0.00042382;-0.000947515;-0.00314619;0;0.0193133;0.000749438;2.77577
89000;90;25.7502;-0.0026584;-0.000103227;-2.33972;25.6319;0.777012;-0.00564692;-0.00203449;-0.0370863;0.0601289;0.0452213;-0.158311;0.175279;-7.16216;-7.47102e-05;-0.000548427;0.00121919;0.00142036;-0.000275885;0.000848124;0.0612787;16.3189;0.00105101;0.00113083;5.14838;0.194236;127.299;172.299;-0.00283185;-7.50006e-05;-0.000157398;-0.00093895;0.00121933;0.00333344;0.000965315;0;0.0217786;0.0531029;0.0440117;-0.204278;0.215607;-6.38699;8.93051e-05;-0.000305294;-0.000225315;0.000275434;-0.000411445;0.000343439;0.396356;2.52298;0.000399153;0.000457919;0.669433;1.4938;16.2193;61.2193;-0.000385107;8.87976e-05;0.000441937;-0.00105276;-0.000225366;0.000390499;-0.00110752;0;0.0183143;0.00066207;2.77729
90000;91;25.7516;-0.00119992;-4.65938e-05;-2.33829;25.6333;0.78106;-0.00421171;-0.000561364;-0.0330377;0.0619903;0.0426813;-0.153905;0.171322;-7.15775;-0.000386374;-0.000642017;0.00144686;0.00164934;-0.000588851;0.0011191;0.267042;3.74472;0.0013397;0.00149213;2.80095;0.357022;126.246;171.246;-0.00238406;-0.000386718;-0.000234744;-0.00104854;0.00144704;0.00215153;0.00149212;0;0.0178108;0.0558821;0.0405304;-0.197355;0.20908;-6.38007;4.33046e-05;-0.000451245;-0.000393382;0.000326256;-0.000676333;0.000501294;0.110083;9.08407;0.00059049;0.000668393;0.482389;2.07302;20.3297;65.3297;0.00031506;4.27891e-05;0.000208374;-0.00111115;-0.000393302;0.000474793;-0.00261112;0;0.0193641;0.000761136;2.78549
91000;92;25.7513;-0.00149073;-5.78859e-05;-2.33748;25.6332;0.779819;-0.00340515;-0.000742147;-0.0342792;0.0624332;0.043784;-0.164786;0.181575;-7.16863;-0.000158003;-0.000486279;0.00162078;0.00174504;-0.000282261;0.00101365;0.0974856;10.2579;0.00126796;0.00135153;6.18238;0.16175;117.809;162.809;-0.00238389;-0.000158253;-0.000113768;-0.000858129;0.0016209;0.00257441;0.000798671;0;0.0237531;0.0576244;0.0414925;-0.20848;0.220241;-6.39119;4.73224e-05;-0.000438972;-0.000616968;0.000265647;-0.000835293;0.00055047;0.0767016;13.0375;0.000663384;0.00073396;0.318029;3.14437;30.5102;75.5102;0.000739646;4.68345e-05;0.000202671;-0.00108104;-0.000616893;-0.000579836;-0.00236487;0;0.0180283;0.00132903;2.79087
92000;93;25.747;-0.00586418;-0.00022771;-2.33615;25.6291;0.77142;-0.00207958;-0.00476071;-0.0426784;0.0634826;0.0390516;-0.152596;0.169825;-7.15644;-0.000242925;-0.000539656;0.00130903;0.00147824;-0.000412129;0.000945183;0.185576;5.38863;0.0011478;0.00126024;3.58683;0.278798;129.145;174.145;-0.00258703;-0.000243325;-3.349e-05;-0.00104504;0.00130918;0.00155166;0.00237187;0;0.0289213;0.0595096;0.0394686;-0.203474;0.21564;-6.38619;0.000125909;-0.000525521;-0.000547404;0.00041336;-0.000834854;0.000624107;0.230012;4.34761;0.000734225;0.000832143;0.495128;2.01968;24.688;69.688;0.000376815;0.000125296;0.000174327;-0.00122584;-0.000547281;0.000899986;-0.00272663;0;0.0215084;0.00136229;2.79795
93000;94;25.7518;-0.00102415;-3.97686e-05;-2.33738;25.6337;0.777598;-0.00330268;-0.000196597;-0.0365006;0.0642568;0.0413101;-0.166345;0.183047;-7.17019;-0.000431518;-0.000562713;0.00170523;0.00184436;-0.000570649;0.0012075;0.253056;3.95169;0.00145751;0.00161001;3.23204;0.309402;121.05;166.05;-0.00265901;-0.000431857;-0.000127089;-0.000997407;0.00170538;0.00167046;0.001102;0;0.0210095;0.0597246;0.0390778;-0.213745;0.225347;-6.39646;5.22045e-05;-0.000385219;-0.000644046;0.000223295;-0.000815137;0.000519216;0.0810571;12.337;0.000631163;0.000692288;0.273936;3.65049;39.606;84.606;0.00103709;5.19774e-05;5.59603e-06;-0.000776307;-0.000643972;0.000182846;-0.00174381;0;0.0237308;0.00203437;2.80538
94000;95;25.7525;-0.000292742;-1.13674e-05;-2.33568;25.6345;0.780145;-0.00160353;0.000615656;-0.0339531;0.066129;0.0418012;-0.171236;0.188261;-7.17508;-0.000367441;-0.000525567;0.00152048;0.00165693;-0.000503889;0.00108041;0.241661;4.13802;0.00130541;0.00144054;3.28828;0.304111;123.336;168.336;-0.00244168;-0.000367773;-8.14207e-05;-0.000968877;0.00152061;0.00122343;0.00132949;0;0.0300349;0.0630388;0.0383509;-0.21581;0.228076;-6.39852;5.1815e-05;-0.000418481;-0.000470114;0.000284033;-0.000702331;0.000493182;0.110218;9.07292;0.000586299;0.000657576;0.404414;2.47271;27.3587;72.3587;0.000959647;5.14826e-05;7.92703e-05;-0.000916492;-0.000470029;0.00121051;-0.0024631;0;0.0219885;0.00194792;2.81261
95000;96;25.7511;-0.0017402;-6.75733e-05;-2.33513;25.6334;0.770689;-0.00105326;-0.000502291;-0.043409;0.0663397;0.0401407;-0.172787;0.189387;-7.17663;-0.000332164;-0.000329061;0.00153121;0.00158761;-0.000388567;0.000988088;0.216929;4.60979;0.00120893;0.00131745;4.08581;0.24475;115.372;160.372;-0.00223755;-0.00033235;3.59264e-05;-0.000693369;0.00153126;0.00130943;0.00222537;0;0.0256734;0.0642799;0.0380178;-0.224937;0.23701;-6.40765;0.000188171;-0.000368234;-0.00044983;0.000356364;-0.000618023;0.000487194;0.418316;2.39054;0.000569284;0.000649592;0.576619;1.73425;29.9162;74.9162;0.00132467;0.000187958;1.28513e-05;-0.000749563;-0.000449762;0.000447584;-0.00204818;0;0.0226307;0.00313104;2.82046
96000;97;25.7526;-0.000240444;-9.33659e-06;-2.33423;25.6349;0.772701;-0.000152112;0.00102587;-0.0413973;0.0676742;0.0393391;-0.174408;0.191169;-7.17825;-0.000408394;-0.000214909;0.00131164;0.00133809;-0.000434839;0.000886464;0.31136;3.21171;0.00106696;0.00118195;3.07721;0.32497;111.135;156.135;-0.00194114;-0.000408475;2.79923e-05;-0.000457393;0.00131167;0.000850298;0.0020851;0;0.0156543;0.066329;0.0368809;-0.227933;0.240236;-6.41065;0.000214416;-0.000415976;-0.000420168;0.000420297;-0.00062605;0.000523173;0.51031;1.95959;0.000607989;0.000697565;0.671348;1.48954;28.9225;73.9225;0.00209753;0.000214264;-0.000141182;-0.000690945;-0.000420092;-0.000662479;-0.0027182;0;0.017968;0.00301114;2.82781
97000;98;25.7523;-0.00048778;-1.89408e-05;-2.33319;25.6349;0.767488;0.000883731;0.00102828;-0.0466098;0.0690653;0.0404821;-0.180087;0.197079;-7.18393;-0.000190624;-0.000727504;0.00174361;0.00198669;-0.000433704;0.0012102;0.109327;9.14687;0.00149022;0.0016136;4.58075;0.218305;119.84;164.84;-0.00218732;-0.000190913;-0.00040166;-0.00105272;0.00174379;0.00174214;0.00216072;0;0.0280722;0.0684795;0.0380387;-0.235871;0.248539;-6.41858;0.000161128;-0.000411876;-0.000496765;0.000359294;-0.000694931;0.000527113;0.324355;3.08304;0.000618854;0.000702817;0.517022;1.93416;32.1635;77.1635;0.00155778;0.000160924;-6.36951e-05;-0.000760286;-0.000496682;-0.000686012;-0.00334328;0;0.0204867;0.00378082;2.83527
98000;99;25.7526;-0.000261676;-1.01611e-05;-2.33245;25.6354;0.761145;0.00162115;0.00151165;-0.0529529;0.0701905;0.0429107;-0.182145;0.199862;-7.18599;-0.000384267;-0.000297803;0.00172088;0.00176219;-0.000425585;0.00109389;0.223297;4.47833;0.00133939;0.00145852;4.14064;0.241509;108.753;153.753;-0.0017134;-0.000384382;-3.12633e-05;-0.000563783;0.00172092;0.00038111;0.00227183;0;0.0327952;0.0708507;0.0394345;-0.241098;0.254368;-6.42381;0.000213836;-0.000408109;-0.000310768;0.000436669;-0.000533601;0.000485135;0.68809;1.4533;0.000561116;0.000646846;0.818344;1.22198;18.978;63.978;0.00150304;0.000213481;0.000120078;-0.000936574;-0.000310692;-8.90757e-05;-0.00373621;0;0.0254986;0.00353864;2.84137
99000;100;25.7524;-0.000443728;-1.72303e-05;-2.33123;25.6353;0.761338;0.00284393;0.00143427;-0.0527603;0.0711728;0.042832;-0.189138;0.206575;-7.19298;-0.000453988;-0.000418627;0.00166547;0.00174516;-0.000533678;0.00113942;0.272589;3.66853;0.00137627;0.00151922;3.27006;0.305805;113.744;158.744;-0.00136579;-0.000454155;-0.000123569;-0.000713061;0.00166555;-4.36773e-05;0.00241672;0;0.0210117;0.0724985;0.0397484;-0.249274;0.262628;-6.43199;0.000177138;-0.000389575;-0.000384641;0.000376527;-0.00058403;0.000480279;0.460528;2.17142;0.000558875;0.000640372;0.644705;1.5511;26.2982;71.2982;0.00161622;0.000176945;-4.63539e-05;-0.000732989;-0.000384566;5.17156e-05;-0.00445235;0;0.0191761;0.00413358;2.84812
100000;101;25.7527;-0.000131808;-5.1182e-06;-2.32877;25.6361;0.754178;0.00530937;0.00218332;-0.0599198;0.072464;0.0396918;-0.185884;0.203419;-7.18973;-0.000270846;-0.00040518;0.000802281;0.000938079;-0.000406645;0.000672362;0.337595;2.96213;0.00079633;0.000896483;2.30688;0.433487;121.161;166.161;-0.00136351;-0.000270905;-0.00027967;-0.000530555;0.000802324;0.00136983;0.00396584;0;0.0196392;0.0758017;0.0375391;-0.253735;0.267463;-6.43645;0.000153442;-0.000385127;-0.000235122;0.000390517;-0.000472196;0.000431356;0.652608;1.53231;0.000498831;0.000575142;0.827022;1.20916;15.802;60.802;0.00121399;0.000153141;9.62147e-05;-0.000866656;-0.000235052;0.00136805;-0.00610928;0;0.0245122;0.00399814;2.85177
101000;102;25.7526;-0.000229485;-8.91108e-06;-2.32924;25.6359;0.754966;0.0048326;0.0020187;-0.0591321;0.0733347;0.0419992;-0.194982;0.212509;-7.19883;-0.000305631;-0.000625303;0.00139244;0.00159785;-0.000511046;0.00105445;0.219494;4.55594;0.00127032;0.00140593;3.12663;0.319833;119.178;164.178;-0.00112085;-0.000305792;-0.000405602;-0.000844632;0.00139255;0.000597784;0.00267764;0;0.0139332;0.0761157;0.039405;-0.259724;0.273502;-6.44244;0.000165584;-0.000346655;-0.000282014;0.000354405;-0.000470836;0.000412621;0.587147;1.70315;0.000478031;0.000550161;0.752715;1.32852;20.4141;65.4141;0.00184702;0.000165354;6.77777e-05;-0.000761273;-0.000281956;0.000190317;-0.0055454;0;0.0230924;0.00422113;2.85655
102000;103;25.7527;-0.000168675;-6.54975e-06;-2.32827;25.6362;0.750079;0.00580136;0.00231125;-0.0640194;0.0768449;0.0391885;-0.193867;0.212192;-7.19771;-0.000252271;-0.000486936;0.00113378;0.00128775;-0.000406235;0.000846991;0.222504;4.49431;0.00102121;0.00112932;3.16996;0.315462;114.774;159.774;-0.000937817;-0.000252333;-0.000373183;-0.000600533;0.00113383;0.000379124;0.003606;0;0.0257629;0.0808918;0.0368355;-0.263165;0.27777;-6.44588;5.47638e-05;-0.000205658;-0.000285588;0.000151524;-0.000382349;0.000266936;0.191758;5.21491;0.00031769;0.000355915;0.396298;2.52335;25.6088;70.6088;0.00152334;5.44911e-05;0.000355128;-0.000766635;-0.00028563;0.00234489;-0.00576943;0;0.0213706;0.0042798;2.86301
103000;104;25.752;-0.000782654;-3.0391e-05;-2.32697;25.6358;0.748125;0.00710507;0.00186995;-0.0659734;0.0775287;0.0425711;-0.206304;0.224464;-7.21015;-0.000283089;-0.000385064;0.000766927;0.000893001;-0.000409163;0.000651082;0.369122;2.70913;0.000768909;0.000868109;2.18251;0.458189;109.633;154.633;-0.00133676;-0.000283094;-0.000372339;-0.000397775;0.000766932;0.00193457;0.00413585;0;0.0207533;0.0829707;0.0405;-0.279899;0.294734;-6.46261;0.000248386;-0.000280619;-0.000153409;0.000392607;-0.00029763;0.000345119;1.61911;0.617622;0.000399764;0.000460158;1.31911;0.758086;15.0232;60.0232;0.00189124;0.000248129;0.00020902;-0.000770455;-0.000153391;0.00101315;-0.00516818;0;0.018477;0.00427176;2.86942
104000;105;25.7509;-0.00187502;-7.28084e-05;-2.32599;25.6349;0.743568;0.00808879;0.000994493;-0.0705305;0.078882;0.041845;-0.205266;0.223847;-7.20911;-0.000238359;-0.000309692;0.000913441;0.000991429;-0.000316348;0.000653889;0.260947;3.8322;0.000787865;0.000871852;3.13398;0.319083;110.426;155.426;-0.000584199;-0.000238386;-0.000234287;-0.000385012;0.000913461;-0.00027748;0.00515957;0;0.0131026;0.0846929;0.0402108;-0.280637;0.295883;-6.46335;0.000129129;-0.000377698;-0.000143095;0.000394492;-0.000408458;0.000401475;0.902404;1.10815;0.000463607;0.0005353;0.965809;1.0354;10.2902;55.2902;0.00169897;0.000128802;0.000136855;-0.000892391;-0.000143033;0.00207138;-0.0057143;0;0.0192945;0.00429826;2.87715
105000;106;25.7535;0.000706544;2.74356e-05;-2.32601;25.6373;0.750695;0.00806105;0.00337752;-0.0634032;0.0802691;0.0429954;-0.214907;0.233403;-7.21875;-0.000338008;-0.000477805;0.000800294;0.000974265;-0.000511979;0.000743122;0.422355;2.36768;0.00087181;0.00099083;1.90294;0.525503;91.7925;136.793;-0.000853316;-0.000337941;-0.000648544;-0.000307261;0.000800198;0.00217185;0.00529387;0;0.0141786;0.0870775;0.0399937;-0.28767;0.303209;-6.47038;0.000306563;-0.000400311;-0.00022432;0.000521443;-0.000439199;0.000480321;1.36663;0.731725;0.000555304;0.000640428;1.18726;0.842277;14.3227;59.3227;0.0016757;0.000306255;8.03346e-05;-0.000881212;-0.000224243;0.00225843;-0.00692358;0;0.0218679;0.00452235;2.88454
106000;107;25.7511;-0.00169265;-6.57266e-05;-2.32474;25.6353;0.740678;0.0093395;0.0013748;-0.0734202;0.0825025;0.0418387;-0.213697;0.232859;-7.21754;-0.000153066;-0.000408456;-8.74046e-06;0.000333879;-0.000495685;0.000414782;;;0.000481976;0.000553043;0.67357;1.48463;71.7195;116.719;-0.000164287;-0.000153013;-0.000570399;-0.000246538;-8.81972e-06;-0.000111186;0.00525155;0;0.0183235;0.0895805;0.0401821;-0.292454;0.308494;-6.47517;0.000193649;-0.000389041;-0.000117099;0.000457195;-0.000380644;0.00041892;1.65372;0.604696;0.000484399;0.000558559;1.20111;0.832565;8.23815;53.2382;0.00229531;0.000193402;2.48737e-05;-0.000803083;-0.000117023;0.00188943;-0.00518122;0;0.0206899;0.0044889;2.8924
107000;108;25.7513;-0.00154273;-5.99053e-05;-2.32449;25.6355;0.739277;0.0095797;0.0015876;-0.0748207;0.083557;0.0437964;-0.221568;0.240816;-7.22541;-0.000381553;-0.000672475;-6.50105e-05;0.000467567;-0.000914131;0.000690849;-5.8691;-0.170384;0.000811493;0.000921132;0.511489;1.95508;61.1819;106.182;-0.00033287;-0.000381425;-0.000900502;-0.00044452;-6.51898e-05;-0.000156222;0.00596225;0;0.0143294;0.0909055;0.0412215;-0.299376;0.315578;-6.48209;0.000325213;-0.000459116;-0.000194982;0.000592788;-0.000462557;0.000527672;1.66791;0.599552;0.000610848;0.000703563;1.28155;0.780308;9.43373;54.4337;0.00204628;0.000324994;-0.00011309;-0.000805321;-0.000194883;0.0021805;-0.00533794;0;0.022616;0.00482101;2.89878
108000;109;25.7543;0.00149094;5.78942e-05;-2.32529;25.6383;0.746258;0.00878038;0.00436027;-0.0678405;0.085532;0.0448297;-0.23081;0.250197;-7.23465;-0.000191481;-0.000533562;-0.000267725;0.00030532;-0.000764526;0.000534923;-0.715217;-1.39818;0.000636359;0.00071323;0.399358;2.50402;75.0783;120.078;-0.000726168;-0.000191357;-0.000874681;-0.000192417;-0.000267965;0.00260324;0.00516176;0;0.0160278;0.0928282;0.0408722;-0.305875;0.322253;-6.48859;0.000252966;-0.000412887;-0.000201524;0.000497013;-0.00044557;0.000471292;1.25527;0.796642;0.000544471;0.000628389;1.11545;0.896496;10.9841;55.9841;0.00244972;0.000252855;-0.000198916;-0.000626955;-0.000201458;0.00146507;-0.00499363;0;0.0259551;0.00510779;2.90612
109000;110;25.7527;-0.000119417;-4.63703e-06;-2.32349;25.637;0.740072;0.0105866;0.00308568;-0.0740257;0.0868015;0.0434295;-0.224659;0.244729;-7.2285;-0.000101891;-0.000326727;-0.000294315;0.000142495;-0.000538701;0.000340598;-0.346199;-2.88851;0.000414871;0.000454131;0.264516;3.78049;82.297;127.297;-0.000651177;-0.000101838;-0.000645882;-7.51032e-06;-0.00029447;0.00168116;0.00616083;0;0.0168254;0.0950244;0.0398258;-0.302885;0.31993;-6.4856;0.00032872;-0.000415666;-0.000232355;0.00054966;-0.000453295;0.000501477;1.41473;0.706848;0.000579946;0.000668637;1.21259;0.824683;9.3569;54.3569;0.00252524;0.000328631;-0.000239549;-0.000591882;-0.000232297;0.00155659;-0.00506756;0;0.0202076;0.00560348;2.91301
110000;111;25.7534;0.000603812;2.34464e-05;-2.32576;25.6374;0.744226;0.00831269;0.00348576;-0.0698722;0.0907698;0.0448788;-0.236309;0.25709;-7.24015;-0.000327567;-0.000493184;-0.000403975;0.000128891;-0.000860433;0.000494662;-0.81086;-1.23326;0.00062106;0.000659549;0.149798;6.67567;69.8581;114.858;-0.000438137;-0.000327453;-0.000862416;-0.000123925;-0.000404225;0.00162666;0.00640966;0;0.0202985;0.098499;0.0406614;-0.312097;0.329788;-6.49481;0.000445641;-0.000437863;-0.00023312;0.000660249;-0.000447727;0.000553988;1.91164;0.52311;0.000643601;0.000738651;1.47467;0.678119;0.226007;45.226;0.00277163;0.000445571;-0.00029853;-0.00057729;-0.000233068;0.00119699;-0.00447187;0;0.0194835;0.00597745;2.91996
111000;112;25.7552;0.0024127;9.36867e-05;-2.32438;25.6393;0.744817;0.0096905;0.0054106;-0.0692807;0.090901;0.0480922;-0.247468;0.267985;-7.25131;-0.000197679;-0.000454391;-0.000126195;0.000293857;-0.000617732;0.000455794;-1.56646;-0.638384;0.000537264;0.000607726;0.475703;2.10215;76.0346;121.035;-0.000247035;-0.000197579;-0.000827804;-8.10044e-05;-0.000126435;0.00060784;0.00594365;0;0.0260934;0.0993242;0.0428858;-0.323352;0.340971;-6.50607;0.000374384;-0.000495859;-0.000163839;0.00066945;-0.000458906;0.000564178;2.28507;0.437624;0.000655226;0.000752237;1.4588;0.685496;172.023;37.0227;0.00288497;0.000374325;-0.000388536;-0.00060324;-0.000163792;0.00085731;-0.00485077;0;0.0342659;0.00655832;2.92481
112000;113;25.7531;0.000284291;1.10392e-05;-2.32372;25.6373;0.742258;0.0103594;0.00340743;-0.0718397;0.0929207;0.0447721;-0.24412;0.265016;-7.24796;-0.000198444;-0.00059508;-0.000477168;0.000273375;-0.000948987;0.000611181;-0.415877;-2.40455;0.000740792;0.000814908;0.28807;3.47138;76.0152;121.015;-3.16694e-06;-0.000198288;-0.000981359;-0.000208693;-0.000477473;-1.71571e-05;0.00557742;0;0.0238662;0.10197;0.0405503;-0.320815;0.339064;-6.50353;0.00046436;-0.000406776;-0.000251339;0.000648288;-0.000435267;0.000541778;1.84754;0.541259;0.000629608;0.00072237;1.4894;0.67141;4.53861;49.5386;0.00285873;0.000464277;-0.000238062;-0.00057561;-0.000251285;0.00123379;-0.00514084;0;0.0198132;0.00703427;2.92837
113000;114;25.7536;0.000824913;3.20319e-05;-2.32465;25.6379;0.737409;0.00942522;0.00400574;-0.0766892;0.0949628;0.0431652;-0.239826;0.26153;-7.24367;-0.0002348;-0.00033653;-0.000540765;-1.81128e-05;-0.000757452;0.00036967;-0.4342;-2.30309;0.00049904;0.000492893;-0.0239128;-41.8185;81.9528;126.953;-0.000374139;-0.00023475;-0.000789552;0.000116631;-0.00054102;0.00101996;0.00555029;0;0.021828;0.103603;0.0381635;-0.320356;0.338848;-6.50307;0.000468245;-0.000453485;-0.00023334;0.00069078;-0.000455875;0.000573327;2.00671;0.498328;0.000666636;0.000764437;1.51529;0.659942;149.103;14.1033;0.00287826;0.000468254;-0.000473172;-0.000433785;-0.000233349;0.00106044;-0.00544983;0;0.0188001;0.00730771;2.93529
114000;115;25.7555;0.00266077;0.00010332;-2.32381;25.6397;0.741518;0.0102605;0.00580711;-0.0725805;0.0963909;0.0481099;-0.252709;0.274714;-7.25655;-0.000357054;-0.000845362;-0.000166463;0.000588958;-0.00111248;0.000850716;-2.14495;-0.466212;0.000997702;0.00113429;0.529412;1.88889;66.3858;111.386;-0.000547165;-0.000356844;-0.00114854;-0.000542238;-0.000166765;0.00119995;0.00504914;0;0.0214678;0.105954;0.0418639;-0.333336;0.352267;-6.51605;0.000547814;-0.00041299;-0.000227125;0.000726643;-0.000405953;0.000566298;2.41195;0.414602;0.000662584;0.000755064;1.78997;0.55867;135.386;0.386317;0.00310492;0.000547864;-0.000559388;-0.000266478;-0.000227196;0.000277599;-0.00531429;0;0.0206144;0.00749597;2.94261
115000;116;25.757;0.00418274;0.000162419;-2.32185;25.6413;0.744668;0.0122199;0.00742214;-0.0694297;0.0978309;0.0481988;-0.255559;0.277857;-7.2594;-0.000424818;-0.000440819;1.9569e-05;0.000291027;-0.000696275;0.000493651;21.7087;0.0460644;0.000585806;0.000658201;0.417976;2.39248;64.2353;109.235;-0.000535566;-0.000424721;-0.000879559;-2.27421e-06;1.92793e-05;0.000933524;0.00534816;0;0.0151339;0.108954;0.0404363;-0.328769;0.348704;-6.51148;0.00046434;-0.000434546;-0.00033513;0.000655044;-0.000525834;0.000590439;1.38555;0.721733;0.000683139;0.000787252;1.24572;0.802745;119.473;164.473;0.00315271;0.000464412;-0.00065497;-0.000213945;-0.00033525;-0.00053113;-0.00586191;0;0.0202408;0.00803444;2.95033
116000;117;25.7548;0.00196944;7.64748e-05;-2.3213;25.6395;0.734471;0.0127785;0.00554357;-0.0796269;0.0978167;0.0484361;-0.262372;0.284171;-7.26622;-0.000362457;-0.000406257;-0.00027996;8.7137e-05;-0.000729554;0.000408346;-1.29467;-0.772397;0.000517865;0.000544461;0.119439;8.37249;66.6362;111.636;-0.000230951;-0.000362375;-0.000776493;-3.60518e-05;-0.000280179;0.000787055;0.00615026;0;0.0181015;0.109618;0.0426425;-0.345041;0.364538;-6.52775;0.000456834;-0.000425164;-0.000220454;0.000661738;-0.000425358;0.000543548;2.07225;0.482568;0.000632562;0.000724731;1.55572;0.642788;128.861;173.861;0.00304506;0.000456885;-0.000570142;-0.000280089;-0.000220526;-0.000950948;-0.00639048;0;0.0180296;0.00806423;2.95698
117000;118;25.7529;5.4952e-05;2.13382e-06;-2.31974;25.6378;0.729829;0.0143342;0.00389385;-0.084269;0.099274;0.0457081;-0.264596;0.286279;-7.26844;-0.000281535;-0.000660057;-0.000449214;0.000299986;-0.00103073;0.000665361;-0.626727;-1.59559;0.000805981;0.000887147;0.291041;3.43594;75.1643;120.164;-0.000656117;-0.000281332;-0.00114613;-0.0001739;-0.000449653;0.00164611;0.00481664;0;0.0157055;0.112153;0.042096;-0.353472;0.37322;-6.53619;0.00048347;-0.000429216;-0.000237033;0.000683582;-0.000437145;0.000560363;2.03967;0.490275;0.000652245;0.000747151;1.56374;0.639492;124.128;169.128;0.00288069;0.000483542;-0.000658553;-0.000199713;-0.000237158;-0.000324284;-0.00638015;0;0.0178954;0.00814319;2.96417
118000;119;25.7538;0.000998134;3.87582e-05;-2.31879;25.639;0.72476;0.015285;0.00507107;-0.0893381;0.102615;0.0483178;-0.269546;0.292438;-7.27339;-0.00030404;-0.000481341;1.6528e-05;0.00036357;-0.000651083;0.000507326;18.3955;0.0543612;0.000593598;0.000676435;0.558409;1.7908;73.2854;118.285;0.000301177;-0.000303926;-0.00101688;5.40301e-05;1.61268e-05;0.000449028;0.00452976;0;0.0196227;0.116217;0.0428234;-0.359171;0.379926;-6.54188;0.000482959;-0.000342044;-0.000103367;0.000640283;-0.000260691;0.000450487;4.67229;0.214028;0.000535345;0.000600649;2.4561;0.407149;128.283;173.283;0.00252385;0.000483014;-0.000603616;-8.0318e-05;-0.00010349;-0.000690751;-0.00785501;0;0.018207;0.00812272;2.97113
119000;120;25.7513;-0.00154133;-5.9851e-05;-2.31818;25.6366;0.719922;0.015895;0.0027117;-0.094176;0.103856;0.0449925;-0.26201;0.285411;-7.26585;-0.000493943;-0.000638401;0.000115981;0.00051852;-0.000896482;0.000707501;4.25882;0.234807;0.000826609;0.000943334;0.578394;1.72892;65.1775;110.177;-1.02655e-05;-0.000493762;-0.0010605;-0.000216561;0.000115622;0.000156774;0.00406642;0;0.0164344;0.118168;0.0419083;-0.358533;0.379823;-6.54125;0.00031882;-0.000325738;-0.000255585;0.000465887;-0.000402653;0.00043427;1.24741;0.80166;0.000501895;0.000579027;1.15705;0.86427;115.712;160.712;0.00266347;0.000318862;-0.000504688;-0.000146685;-0.000255659;-0.00172872;-0.00646338;0;0.0176448;0.0082534;2.97879
120000;121;25.7515;-0.00129753;-5.03839e-05;-2.31616;25.6371;0.718715;0.0179103;0.00317263;-0.0953835;0.102967;0.0484507;-0.277804;0.300208;-7.28165;-0.000302696;-0.000654533;0.000360978;0.000762986;-0.000704704;0.000733845;0.838544;1.19254;0.000847594;0.00097846;1.0827;0.923613;78.4554;123.455;3.52104e-05;-0.000302504;-0.00109548;-0.000213876;0.000360592;-0.000469175;0.00441852;0;0.0147222;0.1192;0.0436734;-0.372207;0.39326;-6.55492;0.000354648;-0.000326943;-8.3473e-05;0.000529135;-0.00025796;0.000393547;4.24865;0.235369;0.000463332;0.00052473;2.05123;0.487512;125.407;170.407;0.00188241;0.000354691;-0.000506935;-0.000146872;-8.3548e-05;0.000835184;-0.00768946;0;0.0182569;0.00830403;2.98575
121000;122;25.7507;-0.00216333;-8.40036e-05;-2.3148;25.6365;0.713282;0.0192722;0.00257771;-0.100816;0.105377;0.0481002;-0.278416;0.301552;-7.28226;-0.000521708;-0.000419661;0.000270856;0.00045177;-0.000702622;0.000577196;1.92615;0.519171;0.000671713;0.000769594;0.642977;1.55527;60.2469;105.247;4.00943e-05;-0.00052162;-0.000852658;1.29924e-05;0.00027058;-0.000559675;0.00467281;0;0.0171505;0.122718;0.0449128;-0.381383;0.40315;-6.5641;0.000289066;-0.000333856;-6.51141e-05;0.000489892;-0.00026594;0.000377916;4.43937;0.225257;0.000442719;0.000503889;1.84211;0.542855;157.472;22.4719;0.00216116;0.000289054;-0.000299622;-0.000368102;-6.51033e-05;0.00158184;-0.00549668;0;0.0200053;0.00841937;2.99322
122000;123;25.749;-0.00381754;-0.000148238;-2.3142;25.6351;0.706905;0.0198764;0.00114733;-0.107194;0.10699;0.0472399;-0.276154;0.299899;-7.28;-0.00038938;-0.000123948;0.000136033;0.000163805;-0.000417152;0.000290479;2.86239;0.349359;0.000345884;0.000387305;0.392676;2.54663;50.2623;95.2623;0.000503815;-0.000389436;-0.000605263;0.000357113;0.000135858;-0.0012359;0.00476037;0;0.0224085;0.124971;0.0445495;-0.381769;0.404166;-6.56448;0.000226828;-0.000334687;-1.52431e-05;0.000461693;-0.000250108;0.0003559;14.8807;0.067201;0.000416966;0.000474534;1.84597;0.541719;110.095;155.095;0.00199221;0.000226883;-0.000620648;-4.86562e-05;-1.53797e-05;0.000449568;-0.00535214;0;0.0234856;0.00856541;2.99839
123000;124;25.751;-0.00177942;-6.90961e-05;-2.31251;25.6372;0.708246;0.0215669;0.00331002;-0.105852;0.109251;0.0461733;-0.277387;0.301681;-7.28123;-0.00035909;-0.000673733;0.000214797;0.000660146;-0.00080444;0.000732293;1.67177;0.598169;0.000846946;0.000976391;0.820628;1.21858;74.6381;119.638;0.000427914;-0.000358873;-0.0012096;-0.000138178;0.000214292;-0.000646782;0.00478906;0;0.0153268;0.128601;0.0425758;-0.383085;0.406332;-6.5658;0.000192295;-0.000298655;-0.000117305;0.000373884;-0.000298895;0.00033639;1.63927;0.610027;0.000389233;0.000448519;1.25089;0.799431;107.088;152.088;0.00169376;0.000192339;-0.000614551;1.73384e-05;-0.000117449;0.00045308;-0.00472976;0;0.018368;0.00879827;3.00331
124000;125;25.7492;-0.00358649;-0.000139266;-2.31214;25.6356;0.704059;0.0219341;0.00164338;-0.110039;0.109342;0.0474303;-0.286205;0.31003;-7.29005;-0.000460026;-0.000517177;0.000139533;0.000437533;-0.000758026;0.000597779;3.2969;0.303315;0.000698474;0.000797039;0.5772;1.7325;66.8556;111.856;6.69797e-05;-0.000459892;-0.00106865;3.39686e-05;0.000139095;4.80826e-05;0.00495703;0;0.0164253;0.129463;0.0443222;-0.39382;0.416917;-6.57653;0.000139881;-0.000246521;-0.000112077;0.000290748;-0.000262944;0.000276846;1.24808;0.801229;0.000319808;0.000369128;1.10574;0.904369;104.726;149.726;0.00192344;0.000139908;-0.000581784;8.88258e-05;-0.000112216;0.00127984;-0.00496558;0;0.0182575;0.00919599;3.00908
125000;126;25.7483;-0.00449387;-0.0001745;-2.31129;25.6348;0.700255;0.022787;0.000913102;-0.113843;0.110675;0.0473807;-0.289196;0.313254;-7.29304;-0.00029189;-0.000592353;0.000105991;0.000531919;-0.000717817;0.000624868;2.7539;0.363121;0.000724191;0.000833157;0.741022;1.34949;76.205;121.205;0.000356228;-0.000291714;-0.00117652;-8.42345e-06;0.000105475;-0.000871012;0.00416921;0;0.0153956;0.13138;0.0449986;-0.401579;0.424913;-6.58429;-9.36901e-06;-0.000251488;-9.57599e-05;0.000202607;-0.000307736;0.000255171;;;0.000296723;0.000340228;0.658379;1.51888;92.1867;137.187;0.00239447;-9.38414e-06;-0.000808709;0.000305781;-9.60553e-05;1.07767e-05;-0.00434183;0;0.02379;0.00972952;3.0159
126000;127;25.7493;-0.00354274;-0.000137567;-2.31078;25.6357;0.703002;0.0232907;0.00183866;-0.111096;0.110829;0.0458287;-0.287768;0.311759;-7.29161;-0.000428;-0.000457282;0.000394289;0.000598081;-0.000631792;0.000614936;1.0855;0.921236;0.000710156;0.000819915;0.946642;1.05637;68.2767;113.277;0.00101223;-0.000427912;-0.00109863;0.000183542;0.00039379;-0.000950425;0.00500941;0;0.0165525;0.132556;0.042679;-0.39895;0.422556;-6.58166;0.00010833;-0.000326838;-8.2284e-05;0.000353473;-0.000327427;0.00034045;1.31654;0.759566;0.000393214;0.000453934;1.07955;0.926313;98.9208;143.921;0.00187478;0.000108373;-0.000801627;0.000148042;-8.25519e-05;0.000231056;-0.00343703;0;0.0187084;0.0103724;3.0232
127000;128;25.7503;-0.00251479;-9.76509e-05;-2.30965;25.6368;0.704172;0.0244262;0.00294139;-0.109927;0.113123;0.0477848;-0.292759;0.317472;-7.2966;-0.00034405;-0.00075689;0.000379441;0.000856589;-0.000821198;0.000838894;0.906729;1.10287;0.000968743;0.00111852;1.0431;0.958684;77.9849;122.985;0.000860493;-0.000343766;-0.00143512;-7.91554e-05;0.000378698;-0.00170056;0.00542962;0;0.0146547;0.135672;0.0440501;-0.403808;0.428262;-6.58652;9.45733e-05;-0.000304442;-4.79609e-05;0.000335979;-0.000289366;0.000312672;1.97188;0.50713;0.000361377;0.000416897;1.16108;0.861264;97.7123;142.712;0.00200381;9.45766e-05;-0.000902288;0.000293489;-4.83217e-05;-0.000263293;-0.00277078;0;0.0259021;0.0102689;3.03045
128000;129;25.7525;-0.000361425;-1.40344e-05;-2.31059;25.6389;0.703825;0.0234892;0.00502937;-0.110273;0.116153;0.0511276;-0.306403;0.331645;-7.31025;-0.000466061;-0.000320116;0.000104781;0.000248242;-0.000609522;0.000428882;4.44793;0.224823;0.000509662;0.000571843;0.407274;2.45535;62.4108;107.411;0.00145922;-0.000466103;-0.00107388;0.000433221;0.000104256;-0.00220184;0.00447533;0;0.0146156;0.138461;0.0460429;-0.418224;0.442948;-6.60094;0.000194281;-0.000336222;-8.95179e-05;0.000417321;-0.000312558;0.000364939;2.17031;0.460764;0.00042284;0.000486586;1.33518;0.748962;103.317;148.317;0.00240251;0.000194229;-0.00113992;0.000467709;-9.01111e-05;-0.0010236;-0.00450964;0;0.018765;0.0108481;3.03822
129000;130;25.752;-0.000846428;-3.28674e-05;-2.30964;25.6385;0.70392;0.0244348;0.00462481;-0.110178;0.116576;0.0503687;-0.303068;0.328599;-7.30691;-0.000336299;-0.000232562;8.89898e-05;0.000191469;-0.000438778;0.000315124;3.77907;0.264615;0.000373095;0.000420165;0.436369;2.29164;64.3602;109.36;0.00111255;-0.000336429;-0.00102558;0.000560121;8.8491e-05;-0.00154548;0.00602122;0;0.0177143;0.139733;0.0462412;-0.418031;0.443186;-6.60074;0.000224568;-0.000280305;-0.000202907;0.000363328;-0.000341667;0.000352498;1.10675;0.903543;0.000407094;0.000469997;1.0634;0.940381;109.156;154.156;0.00177822;0.000224542;-0.000921025;0.000360689;-0.000203292;-0.000679887;-0.002698;0;0.019601;0.0110417;3.04551
130000;131;25.7516;-0.0012656;-4.91442e-05;-2.30934;25.6382;0.701188;0.0247309;0.00430533;-0.11291;0.117556;0.0486985;-0.302478;0.328152;-7.30632;-0.000474734;-0.000297903;0.000610232;0.000686646;-0.000551149;0.000618897;0.777957;1.28542;0.000716067;0.000825197;1.24585;0.802668;61.7465;106.747;0.00188006;-0.000474829;-0.0011231;0.0005264;0.000609646;-0.00300276;0.00538725;0;0.0140642;0.141929;0.0445309;-0.419964;0.445529;-6.60268;4.12818e-05;-0.000337113;-0.000182594;0.000284555;-0.000425867;0.000355211;0.226085;4.42311;0.000412859;0.000473615;0.668178;1.49661;96.6382;141.638;0.00221355;4.12363e-05;-0.00112635;0.000452303;-0.000183172;-0.00208875;-0.00256763;0;0.0183543;0.0112332;3.053
131000;132;25.7541;0.00125894;4.88855e-05;-2.30864;25.6407;0.706003;0.0254371;0.00677249;-0.108095;0.118465;0.0518122;-0.313895;0.339483;-7.31774;-0.000317663;-0.000439198;3.65733e-05;0.000333023;-0.000614112;0.000473567;8.68565;0.115132;0.000554798;0.000631423;0.542283;1.84405;74.3134;119.313;0.00182043;-0.000317649;-0.00128509;0.000406395;3.5844e-05;-0.00354052;0.00591062;0;0.0136301;0.142783;0.0469881;-0.428957;0.454532;-6.61167;0.000166884;-0.00033737;-0.000320808;0.000339306;-0.000493231;0.000416269;0.520198;1.92234;0.000483396;0.000555025;0.687926;1.45364;105.644;150.644;0.00226691;0.000166749;-0.0012938;0.000619529;-0.000321589;-0.00210872;-0.00336185;0;0.0183749;0.0111983;3.06016
132000;133;25.7542;0.0013631;5.293e-05;-2.30858;25.6408;0.70696;0.0254921;0.00685569;-0.107138;0.119656;0.0510169;-0.314298;0.340152;-7.31814;-0.000292289;-9.52129e-05;-0.00021521;-0.000151033;-0.000356467;0.000102717;-1.35815;-0.736293;0.000206603;0.000136956;-0.423694;-2.36019;71.532;116.532;0.00256633;-0.000292651;-0.00104701;0.000856508;-0.000215754;-0.00518521;0.00567342;0;0.0156845;0.144227;0.045705;-0.429734;0.455589;-6.61245;4.37443e-05;-0.000338327;-0.000190892;0.000284516;-0.000431664;0.00035809;0.229157;4.36382;0.000416386;0.000477454;0.659115;1.51719;97.5153;142.515;0.00213225;4.35687e-05;-0.00135882;0.000682403;-0.000191758;-0.00138346;-0.00302009;0;0.0178274;0.0113276;3.06802
133000;134;25.7552;0.00236939;9.20049e-05;-2.30877;25.6417;0.707273;0.0253027;0.00784074;-0.106825;0.121083;0.0548661;-0.328822;0.354677;-7.33267;-0.000289687;-0.000562071;-0.000562378;0.00015234;-0.0010044;0.000578372;-0.51511;-1.94133;0.000725732;0.000771163;0.151672;6.59317;85.4044;130.404;0.00168719;-0.000289629;-0.00157247;0.000448606;-0.000563457;-0.00214852;0.00648936;0;0.0143761;0.145935;0.0491655;-0.445215;0.471095;-6.62793;0.000112695;-0.00029191;-0.000270448;0.000270281;-0.000428034;0.000349158;0.416696;2.39983;0.000406587;0.000465543;0.631447;1.58366;104.125;149.125;0.00252855;0.000112557;-0.00118406;0.000600587;-0.000271106;-0.00215063;-0.00288346;0;0.015983;0.0112989;3.07292
134000;135;25.7552;0.00234173;9.0931e-05;-2.30812;25.6419;0.703694;0.0259589;0.00797051;-0.110404;0.122661;0.0537853;-0.328995;0.355213;-7.33284;-0.000169069;-0.00039548;-0.000960175;-5.27649e-06;-0.00112397;0.000559345;-0.176081;-5.6792;0.000747559;0.000745793;;;99.8811;144.881;0.00247194;-0.000169311;-0.00159036;0.000800346;-0.000961362;-0.00249316;0.00741588;0;0.0130067;0.147833;0.047685;-0.447606;0.473792;-6.63032;9.51666e-05;-0.000223006;-0.000109719;0.000238134;-0.000252686;0.00024541;0.867365;1.15292;0.000283417;0.000327213;0.942408;1.06111;102.167;147.167;0.00267443;9.47875e-05;-0.00134474;0.000898963;-0.000110599;-0.00407644;-0.00196136;0;0.020582;0.0114765;3.07584
135000;136;25.7571;0.00427972;0.000166185;-2.30692;25.6439;0.705593;0.0271532;0.00997235;-0.108505;0.122466;0.0551521;-0.336238;0.362072;-7.34008;-0.00023192;-0.000239983;-0.0011241;-0.000171465;-0.00118455;0.000506544;-0.206317;-4.84691;0.000739205;0.000675392;-0.144751;-6.90841;107.028;152.028;0.00264301;-0.000232445;-0.00153026;0.00105145;-0.00112524;-0.0037221;0.00790269;0;0.0131779;0.148443;0.0475271;-0.452491;0.478584;-6.6352;8.11498e-05;-0.00034087;-0.000283927;0.00028528;-0.000488058;0.000386669;0.285812;3.4988;0.000451574;0.000515559;0.584522;1.7108;100.941;145.941;0.00261279;8.10422e-05;-0.00125711;0.000575704;-0.000284659;-0.00296338;-0.00290312;0;0.0161557;0.0116328;3.08268
136000;137;25.7591;0.00624687;0.00024257;-2.30734;25.6458;0.708009;0.0267304;0.0118436;-0.106089;0.124411;0.0574936;-0.345985;0.372141;-7.34983;-0.000108332;-0.000505375;-0.00163799;4.35539e-05;-0.00178988;0.000916717;-0.066137;-15.1201;0.00120803;0.00122229;0.0243334;41.0958;101.734;146.734;0.00282545;-0.000108552;-0.00184242;0.000833715;-0.00163957;-0.00366423;0.00790534;0;0.0129572;0.15111;0.0489218;-0.46145;0.48802;-6.64416;0.000249286;-0.000316248;-0.000200171;0.000412521;-0.000363406;0.000387963;1.24537;0.802977;0.00044828;0.000517284;1.13515;0.880939;108.521;153.521;0.00220284;0.000249183;-0.00118465;0.000552541;-0.000200822;-0.00343708;-0.00240062;0;0.0168943;0.0120172;3.08944
137000;138;25.7557;0.00287333;0.000111574;-2.30572;25.6427;0.701562;0.0283502;0.00877802;-0.112536;0.128339;0.05398;-0.337902;0.365462;-7.34175;-0.000271421;-0.000437482;-0.00147313;-0.000129028;-0.00161552;0.000743245;-0.184249;-5.42745;0.00103668;0.000990994;-0.0798681;-12.5206;100.206;145.206;0.00305779;-0.000271711;-0.00175066;0.000877273;-0.00147456;-0.0033255;0.00702586;0;0.0308877;0.154995;0.0466736;-0.458713;0.486435;-6.64143;0.00011811;-0.000285605;-0.000365232;0.000250571;-0.000497694;0.000374132;0.323383;3.09231;0.000439794;0.000498843;0.503465;1.98624;106.255;151.255;0.00215123;0.000117957;-0.00119281;0.00062204;-0.000365903;-0.00277617;-0.00339593;0;0.0279653;0.0129548;3.09715
138000;139;25.7552;0.0023825;9.25141e-05;-2.30467;25.6424;0.697642;0.0294061;0.0084869;-0.116456;0.129999;0.0567153;-0.345856;0.373808;-7.3497;-0.000433387;-0.000273108;-0.0011438;-0.000340531;-0.00123666;0.000448063;-0.3789;-2.63922;0.000737613;0.000597418;-0.275364;-3.63155;100.673;145.673;0.00305642;-0.000433883;-0.00157754;0.00103225;-0.00114501;-0.00287489;0.00718682;0;0.0174992;0.157461;0.0493822;-0.467414;0.49569;-6.65013;-2.59931e-05;-0.000285281;-0.000287868;0.000156964;-0.000470826;0.000313895;-0.090295;-11.0748;0.000377252;0.000418527;0.333381;2.99957;98.002;143.002;0.00227327;-2.62283e-05;-0.00131307;0.00074278;-0.00028869;-0.00408459;-0.00358269;0;0.0147235;0.0133608;3.10349
139000;140;25.7549;0.00205967;7.99784e-05;-2.30428;25.6422;0.692691;0.0297934;0.00833168;-0.121407;0.131403;0.0566596;-0.350515;0.3786;-7.35436;-0.00028988;-0.000686583;-0.0010912;0.000104396;-0.00148548;0.000794938;-0.265652;-3.76433;0.00102689;0.00105992;0.0702779;14.2292;92.0402;137.04;0.00289609;-0.0002899;-0.00208731;0.000715267;-0.00109315;-0.00281995;0.00600555;0;0.012853;0.159254;0.0494484;-0.47588;0.504251;-6.65859;0.00011517;-0.000128359;-0.000415318;0.000144596;-0.000444744;0.00029467;0.277307;3.60611;0.00035466;0.000392894;0.325123;3.07576;117.004;162.004;0.00214274;0.000114929;-0.000962784;0.000706509;-0.000415773;-0.00431708;-0.0040114;0;0.0142627;0.014086;3.11112
140000;141;25.7523;-0.000542568;-2.10683e-05;-2.30261;25.64;0.685765;0.0314687;0.00605469;-0.128333;0.132682;0.0558303;-0.347944;0.376545;-7.35179;-0.000230481;-0.000719018;-0.000798308;0.000258647;-0.00128744;0.000773041;-0.288712;-3.46366;0.000956238;0.00103072;0.200901;4.97759;90.0082;135.008;0.00293857;-0.000230392;-0.00201963;0.000582339;-0.000800091;-0.00243628;0.00705225;0;0.0138284;0.161506;0.0492224;-0.477516;0.506486;-6.66023;3.5379e-05;-0.000115435;-0.000283574;7.27728e-05;-0.000320968;0.00019687;0.124761;8.01531;0.000241913;0.000262494;0.226729;4.41054;112.959;157.959;0.00215533;3.51083e-05;-0.000975481;0.000744886;-0.000284043;-0.00335808;-0.0029028;0;0.0166112;0.0145457;3.11867
141000;142;25.7538;0.00101663;3.94763e-05;-2.30281;25.6415;0.686712;0.0312618;0.00757679;-0.127386;0.133814;0.0585678;-0.354987;0.383864;-7.35883;-0.000400187;-0.000370571;-0.000772003;-0.000171505;-0.00100069;0.00041459;-0.518375;-1.9291;0.00061794;0.000552787;-0.171388;-5.83472;91.8399;136.84;0.00281438;-0.000400629;-0.00175055;0.00100992;-0.000773468;-0.00262529;0.00658647;0;0.0161901;0.163787;0.0514751;-0.487555;0.5169;-6.67027;1.61012e-06;-6.98913e-05;-0.000369556;1.43346e-05;-0.00038228;0.000198307;;;0.000259763;0.00026441;0.0374976;26.6684;117.537;162.537;0.00220503;1.40038e-06;-0.00079096;0.000651445;-0.000369866;-0.00286977;-0.00433674;0;0.0187092;0.0147519;3.12642
142000;143;25.7532;0.000344597;1.33809e-05;-2.30123;25.641;0.683192;0.0328447;0.00713796;-0.130906;0.135699;0.059282;-0.361551;0.390702;-7.3654;-0.000476083;-0.000301464;-0.000925395;-0.000324772;-0.00107671;0.000375967;-0.514465;-1.94377;0.000637735;0.000501289;-0.301635;-3.31526;94.9534;139.953;0.00264781;-0.000476626;-0.00168628;0.00108397;-0.000926773;-0.00211116;0.00507091;0;0.0149134;0.1664;0.0520771;-0.496582;0.526303;-6.6793;0.000188297;-0.000260849;-0.000223055;0.000314803;-0.000349561;0.000332182;0.844174;1.18459;0.000383746;0.000442909;0.900567;1.11041;108.608;153.608;0.00209389;0.000188104;-0.001195;0.000673685;-0.000223735;-0.00164778;-0.00298141;0;0.0158219;0.0149104;3.13317
143000;144;25.7534;0.000544024;2.11248e-05;-2.30062;25.6413;0.681468;0.0334535;0.00743877;-0.13263;0.137804;0.0593173;-0.362832;0.392626;-7.36668;-0.000338221;-0.000399006;-0.000609798;-5.25306e-05;-0.000895488;0.000421479;-0.554644;-1.80296;0.000580275;0.000561972;-0.0586614;-17.047;90.1263;135.126;0.00287294;-0.000338652;-0.00180843;0.0010108;-0.000611354;-0.00258396;0.00503608;0;0.0160335;0.169029;0.052702;-0.502294;0.532586;-6.68501;8.10179e-05;-7.65335e-05;-0.00049108;9.10794e-05;-0.000501141;0.00029611;0.164979;6.06137;0.000368228;0.000394814;0.181744;5.50224;119.141;164.141;0.00212412;8.08381e-05;-0.000757167;0.00060449;-0.000491363;-0.00135889;-0.00410115;0;0.0175916;0.0149109;3.13997
144000;145;25.7534;0.000620636;2.40997e-05;-2.29958;25.6415;0.681009;0.0344898;0.00762087;-0.133089;0.139477;0.057785;-0.360629;0.390956;-7.36447;-0.000387036;-0.00078137;-0.000328363;0.000424221;-0.00113962;0.00078192;-1.17868;-0.848406;0.000933844;0.00104256;0.372248;2.68638;81.5015;126.501;0.00266074;-0.000386889;-0.00212687;0.000564058;-0.000330321;-0.00158579;0.00495541;0;0.0152819;0.1714;0.0502029;-0.500672;0.531574;-6.68339;8.66851e-05;-0.000232121;-0.000395854;0.000180216;-0.000489385;0.0003348;0.218982;4.56658;0.000400094;0.0004464;0.368249;2.71555;108.243;153.243;0.00228234;8.64826e-05;-0.00114125;0.000677448;-0.000396479;-0.000720721;-0.00352784;0;0.0170721;0.0151882;3.14526
145000;146;25.7519;-0.000904838;-3.51355e-05;-2.29926;25.6401;0.677301;0.0348138;0.00621602;-0.136798;0.14018;0.0581618;-0.36143;0.392001;-7.36527;-0.000230855;-0.000342816;-0.00038763;4.24209e-05;-0.000660906;0.000351664;-0.595554;-1.67911;0.000455403;0.000468885;0.064186;15.5797;90.275;135.275;0.00277821;-0.000231366;-0.0017525;0.00106709;-0.000389108;-0.00200532;0.0057597;0;0.0168763;0.172523;0.0518713;-0.505711;0.536841;-6.68842;0.000112867;-0.000187253;-0.000378815;0.000176059;-0.000442007;0.000309033;0.297947;3.35631;0.000367687;0.000412044;0.398316;2.51057;112.204;157.204;0.00260053;0.000112624;-0.00109603;0.000721976;-0.000379398;-0.00199502;-0.00291844;0;0.0169477;0.0162472;3.15071
146000;147;25.7526;-0.000174426;-6.77309e-06;-2.29873;25.6409;0.676346;0.0353484;0.00702276;-0.137753;0.143494;0.0590095;-0.361664;0.39354;-7.36551;-0.00035847;-0.000718615;-9.37022e-05;0.000504622;-0.000956794;0.000730708;-3.82563;-0.261395;0.000857105;0.000974277;0.527409;1.89606;79.5147;124.515;0.00205257;-0.000358333;-0.00193055;0.000493002;-9.53076e-05;-0.00156405;0.00562638;0;0.0168485;0.176639;0.0521881;-0.507312;0.539713;-6.69003;0.000320477;-0.000311217;-0.000465245;0.00042881;-0.000573578;0.000501194;0.688834;1.45173;0.000580738;0.000668259;0.747605;1.33761;113.075;158.075;0.00239292;0.000320427;-0.00106468;0.000442836;-0.000465764;-0.000403048;-0.00437581;0;0.0178241;0.0171379;3.15635
147000;148;25.7519;-0.000928782;-3.60652e-05;-2.29817;25.6404;0.668835;0.0359066;0.00651216;-0.145263;0.145591;0.0590426;-0.364676;0.397078;-7.36852;-0.000336851;-0.000588949;-0.000115422;0.000373129;-0.000825402;0.000599265;-2.91844;-0.342649;0.000708204;0.00079902;0.452058;2.21211;79.5717;124.572;0.00201862;-0.000336897;-0.00184;0.000661827;-0.000116941;-0.0012312;0.0050044;0;0.0154886;0.178969;0.0522976;-0.518162;0.550687;-6.70088;0.00021863;-0.00022458;-0.000689242;0.000271147;-0.000741759;0.000506453;0.317204;3.15255;0.000605476;0.000675271;0.365546;2.73564;114.971;159.971;0.00266039;0.000218384;-0.00118474;0.000736448;-0.000689919;-0.0022367;-0.00338996;0;0.0179863;0.0177186;3.16303
148000;149;25.752;-0.00083898;-3.25782e-05;-2.29798;25.6406;0.667633;0.0360943;0.00665052;-0.146466;0.146671;0.059615;-0.364635;0.397524;-7.36848;-0.000519288;-0.000807919;-0.000162648;0.000486396;-0.00116833;0.000827364;-3.19272;-0.313213;0.000982028;0.00110315;0.416316;2.40202;75.976;120.976;0.00225922;-0.000519046;-0.00202615;0.000409884;-0.000164374;-0.00213717;0.00612135;0;0.0310521;0.180833;0.052502;-0.519359;0.552441;-6.70207;0.000150269;-0.000293718;-0.00072876;0.000239378;-0.000817869;0.000528624;0.206198;4.84971;0.000640136;0.000704832;0.292685;3.41664;108.86;153.86;0.00285796;0.00015015;-0.00115512;0.000568439;-0.000729384;-0.00116685;-0.00289513;0;0.023013;0.0181678;3.17043
149000;150;25.7536;0.000823806;3.1989e-05;-2.29769;25.6422;0.668785;0.0363823;0.00831631;-0.145313;0.149144;0.0598043;-0.372154;0.405363;-7.376;-0.000366353;-0.000671673;0.000342794;0.000747738;-0.000771297;0.000759518;1.06873;0.935693;0.000877051;0.00101269;0.969455;1.03151;75.8411;120.841;0.00177561;-0.000366315;-0.00195687;0.000612609;0.000341105;-0.000745994;0.0067171;0;0.0175082;0.183702;0.0522736;-0.52947;0.562866;-6.71218;0.000195092;-0.00016632;-0.000853539;0.00022084;-0.000879286;0.000550063;0.228569;4.37506;0.000672011;0.000733417;0.251158;3.98156;116.596;161.596;0.00301001;0.000194804;-0.0011092;0.000777552;-0.000854141;-0.00150501;-0.00260081;0;0.0246314;0.018264;3.17796
150000;151;25.7527;-0.000107102;-4.15883e-06;-2.29648;25.6416;0.661355;0.0375963;0.00768283;-0.152743;0.150319;0.062226;-0.375607;0.409327;-7.37945;-0.000262694;-0.000625784;0.000699804;0.00100799;-0.000570879;0.000789434;0.375382;2.66395;0.000923131;0.00105258;1.76568;0.566354;75.9357;120.936;0.00223177;-0.000262739;-0.00194744;0.000694605;0.000698104;-0.00212122;0.00552752;0;0.0170918;0.186126;0.0539446;-0.535954;0.569912;-6.71867;0.000321465;-0.000385748;-0.000927501;0.000430999;-0.00103703;0.000734017;0.346593;2.88523;0.000871311;0.000978689;0.415607;2.40612;110.295;155.295;0.00288386;0.000321382;-0.00133258;0.000562267;-0.000928315;-0.00189505;-0.00201532;0;0.0182133;0.0187418;3.18538
151000;152;25.7534;0.000625721;2.42972e-05;-2.29823;25.6421;0.662584;0.0358429;0.00823;-0.151514;0.153175;0.0597012;-0.37094;0.405738;-7.37479;-0.000316871;-0.000523067;0.000530249;0.000779743;-0.000566365;0.000673054;0.597589;1.67339;0.000780424;0.000897405;1.37675;0.726349;73.0166;118.017;0.00203485;-0.000316977;-0.0017437;0.000696533;0.000528866;-0.0014382;0.00553566;0;0.0152184;0.187828;0.0504573;-0.529531;0.564117;-6.71224;0.000392077;-0.000193407;-0.00108198;0.000417031;-0.00110694;0.000761984;0.362369;2.75962;0.00090942;0.00101598;0.376743;2.65433;117.952;162.952;0.00337409;0.000391787;-0.00117095;0.000785575;-0.00108265;-0.00128077;-0.00357625;0;0.0188297;0.0196027;3.19227
152000;153;25.7533;0.000471459;1.83071e-05;-2.29522;25.6424;0.658397;0.0388534;0.00845256;-0.155701;0.15453;0.0607677;-0.377293;0.412216;-7.38114;-0.000234772;-0.000836894;0.000304747;0.000914283;-0.000844309;0.000879296;0.770384;1.29805;0.00101559;0.00117239;1.08288;0.923465;81.886;126.886;0.00187452;-0.000234508;-0.00208823;0.000413773;0.000302917;-0.0011804;0.00516119;0;0.0158188;0.191725;0.0514638;-0.540884;0.576162;-6.7236;0.000404192;-0.000230293;-0.00118205;0.00043695;-0.00121481;0.000825878;0.341942;2.92447;0.000988262;0.00110117;0.359687;2.78019;116.08;161.08;0.00359948;0.000403938;-0.00120786;0.000748823;-0.00118275;-0.00204343;-0.00111118;0;0.0170534;0.0213199;3.19941
153000;154;25.7552;0.00234634;9.111e-05;-2.29454;25.6444;0.652745;0.0395317;0.0105407;-0.161353;0.15615;0.0620479;-0.38178;0.41712;-7.38563;-0.000266791;-0.00104457;0.000458513;0.00120159;-0.00100987;0.00110573;0.58186;1.71863;0.00127839;0.00147431;1.18985;0.840443;82.4841;127.484;0.00171466;-0.00026629;-0.00239047;0.000300355;0.000456203;-0.000848782;0.00689048;0;0.0151139;0.194082;0.0526349;-0.551474;0.586994;-6.73419;0.000345652;-0.000260555;-0.00106075;0.000392371;-0.00110747;0.000749921;0.325856;3.06884;0.000898143;0.000999894;0.354295;2.8225;114.685;159.685;0.00375112;0.000345438;-0.00122488;0.000705124;-0.00106147;-0.00192081;-0.00249351;0;0.0189787;0.0220809;3.20668
154000;155;25.7556;0.00278607;0.000108185;-2.29348;25.6451;0.647885;0.040593;0.0112005;-0.166213;0.158439;0.0624005;-0.383893;0.419965;-7.38774;-0.000315333;-0.000611689;0.00045879;0.000795594;-0.000652136;0.000723865;0.687314;1.45494;0.000837214;0.000965153;1.21998;0.819685;75.2979;120.298;0.00237772;-0.000315477;-0.00203834;0.000813862;0.000456901;-0.00228896;0.00739064;0;0.0163845;0.197198;0.052119;-0.558714;0.594781;-6.74143;0.000353879;-0.000222589;-0.0012023;0.000385091;-0.00123351;0.000809302;0.294335;3.39749;0.000976357;0.00107907;0.312191;3.20317;115.129;160.129;0.00372989;0.000353631;-0.00118318;0.000739497;-0.00120298;-0.00161127;-0.00239729;0;0.0192453;0.0221787;3.21362
155000;156;25.7536;0.000813853;3.16025e-05;-2.29157;25.6436;0.636546;0.0425036;0.00967463;-0.177553;0.158384;0.0583445;-0.379068;0.414948;-7.38291;-0.000243823;-0.000510453;-2.50544e-05;0.000387603;-0.00065648;0.000522041;-9.73174;-0.102757;0.000609428;0.000696055;0.590425;1.69369;81.2159;126.216;0.00231848;-0.000244082;-0.00190336;0.000882152;-2.67356e-05;-0.00233937;0.00725228;0;0.0172101;0.198526;0.0498904;-0.563563;0.599587;-6.74628;0.000391232;-0.000253791;-0.00108861;0.000433547;-0.00113093;0.000782238;0.359386;2.78253;0.000932684;0.00104298;0.383355;2.60855;114.912;159.912;0.0042752;0.000391058;-0.00114872;0.00064246;-0.00108924;-0.00258076;-0.00154161;0;0.0171543;0.0230447;3.22066
156000;157;25.751;-0.00183154;-7.11199e-05;-2.28979;25.6413;0.627625;0.0442835;0.0073968;-0.186473;0.162816;0.0605453;-0.377077;0.415164;-7.38092;-0.000255874;-0.000785758;-0.000192156;0.000562388;-0.00101042;0.000786403;-1.3316;-0.750977;0.000920259;0.00104854;0.55659;1.79666;84.6212;129.621;0.00264575;-0.000255822;-0.00228837;0.00071676;-0.000194466;-0.0025613;0.00924038;0;0.030876;0.204721;0.0539256;-0.565947;0.604247;-6.74866;0.000309481;-0.000202334;-0.001052;0.000338914;-0.00108143;0.000710174;0.294184;3.39924;0.000856576;0.000946899;0.313394;3.19087;114.943;159.943;0.00351357;0.000309292;-0.00105198;0.000648473;-0.00105253;-0.000753086;-0.0033318;0;0.0484902;0.0242865;3.22497
157000;158;25.7497;-0.00311148;-0.000120821;-2.28816;25.6403;0.621152;0.0459145;0.00641462;-0.192947;0.165168;0.0623431;-0.387625;0.425935;-7.39147;-0.000229345;-0.000709711;-0.000339419;0.000427459;-0.000996224;0.000711841;-0.675701;-1.47994;0.000843545;0.000949122;0.42908;2.33057;87.2182;132.218;0.00278027;-0.000229495;-0.00231501;0.00089577;-0.000341847;-0.00264247;0.00814946;0;0.0149412;0.208843;0.0550639;-0.581242;0.620072;-6.76396;0.00030831;-0.000210364;-0.00115789;0.000337895;-0.00118747;0.000762684;0.266269;3.7556;0.000925084;0.00101691;0.284549;3.51433;114.191;159.191;0.00372953;0.000308104;-0.00109483;0.000675403;-0.00115847;-0.00175514;-0.00264912;0;0.0195152;0.0253401;3.2289
158000;159;25.7515;-0.00129774;-5.03923e-05;-2.28665;25.6424;0.616269;0.0474237;0.00848854;-0.197829;0.167518;0.0642684;-0.395085;0.433918;-7.39893;-0.000126667;-0.000448378;-0.000776076;0.000102231;-0.00100497;0.000553603;-0.163215;-6.1269;0.00070653;0.000738137;0.101725;9.83043;100.161;145.161;0.00290674;-0.000127245;-0.00206021;0.0011645;-0.0007781;-0.00198774;0.010026;0;0.0183176;0.212118;0.0561248;-0.59697;0.636016;-6.77968;0.000352743;-0.00013623;-0.00106738;0.000365693;-0.00108033;0.000723014;0.330474;3.02596;0.000868185;0.000964018;0.3385;2.95421;120.771;165.771;0.00373701;0.000352263;-0.00125965;0.000988785;-0.00106817;-0.00187905;-0.00184599;0;0.0314524;0.0255228;3.23643
159000;160;25.7522;-0.000613287;-2.38144e-05;-2.28689;25.6431;0.615711;0.0471824;0.00916779;-0.198387;0.169841;0.0633464;-0.394777;0.434405;-7.39862;-0.000279189;-0.000842846;-0.00131826;0.000191379;-0.00178883;0.000990104;-0.211786;-4.72174;0.00126119;0.00132014;0.106986;9.34704;93.7828;138.783;0.00319212;-0.000279276;-0.00262381;0.000939975;-0.00132135;-0.00202781;0.010809;0;0.0220702;0.215137;0.0550941;-0.598576;0.638446;-6.78129;0.000295478;-0.000156069;-0.00114148;0.000312234;-0.00115823;0.000735233;0.258856;3.86315;0.000894584;0.000980311;0.269578;3.7095;118.778;163.778;0.0040256;0.000294998;-0.00130341;0.000992925;-0.00114232;-0.00142259;-0.00101935;0;0.0286415;0.0267014;3.24399
160000;161;25.7529;7.47824e-05;2.90385e-06;-2.28554;25.644;0.61268;0.0485355;0.010052;-0.201418;0.172994;0.0639517;-0.401116;0.441487;-7.40496;4.17303e-05;-0.000982027;-0.00187471;0.000455575;-0.00228855;0.00137206;0.0222596;44.9245;0.00169806;0.00182942;0.199067;5.02344;99.4212;144.421;0.00320234;4.17711e-05;-0.00289993;0.000939565;-0.00187844;-0.00127364;0.0115937;0;0.0160992;0.218581;0.053014;-0.604053;0.644568;-6.78677;0.000278399;-0.000250511;-0.000940526;0.000327875;-0.000990002;0.000658939;0.296004;3.37834;0.000792241;0.000878585;0.331186;3.01945;115.98;160.98;0.00386652;0.000278002;-0.00142509;0.000925499;-0.000941511;-0.000955321;-0.000815388;0;0.0192385;0.028423;3.25109
161000;162;25.754;0.00121011;4.69896e-05;-2.28678;25.6449;0.614437;0.0472916;0.0110392;-0.199661;0.175339;0.0658388;-0.404291;0.445567;-7.40814;-5.35296e-05;-0.000811165;-0.0023727;0.000202027;-0.00262826;0.00141514;-0.0225606;-44.3251;0.00182325;0.00188686;0.0768672;13.0095;102.514;147.514;0.00346248;-5.40279e-05;-0.00290378;0.00128632;-0.0023766;-0.00147477;0.0129668;0;0.0156041;0.221087;0.0551016;-0.608959;0.65019;-6.79167;0.000345276;-0.000171567;-0.00103536;0.000366277;-0.00105636;0.000711317;0.333485;2.99863;0.000852961;0.000948423;0.346736;2.88404;120.398;165.398;0.00403699;0.000344695;-0.00143328;0.00109189;-0.00103637;-0.0020757;-0.000925749;0;0.0188129;0.0292385;3.25839
162000;163;25.7555;0.00272235;0.000105711;-2.28648;25.6465;0.614423;0.0475938;0.0125852;-0.199675;0.177405;0.0646928;-0.403943;0.445901;-7.40779;-0.000121948;-0.000878262;-0.00238006;0.00017942;-0.00268143;0.00143042;-0.0512374;-19.517;0.00185033;0.00190723;0.0669121;14.945;100.53;145.53;0.00340571;-0.000122276;-0.00294674;0.0011949;-0.00238402;-0.00117445;0.0126388;0;0.0148961;0.224139;0.0528585;-0.611116;0.653066;-6.79383;0.000269475;-0.000292268;-0.00101311;0.000332936;-0.00107657;0.000704751;0.265989;3.75955;0.000850691;0.000939668;0.309257;3.23356;114.359;159.359;0.00369046;0.000269078;-0.00152157;0.00093861;-0.00101422;-0.000220404;-0.000119739;0;0.0215611;0.029646;3.26555
163000;164;25.7566;0.00382348;0.000148469;-2.28611;25.6476;0.614616;0.047962;0.0137192;-0.199483;0.179018;0.064269;-0.404274;0.446784;-7.40812;-0.000208134;-0.00100516;-0.00225156;0.000203416;-0.00266311;0.00143326;-0.0924401;-10.8178;0.00184695;0.00191102;0.0763829;13.0919;97.9688;142.969;0.00382781;-0.000208303;-0.0031672;0.00116132;-0.00225608;-0.00108831;0.013325;0;0.0172845;0.226421;0.052566;-0.614158;0.656673;-6.79687;0.000221108;-0.000298182;-0.00106834;0.000286723;-0.00113395;0.000710338;0.206964;4.83176;0.000867484;0.000947117;0.252852;3.95488;114.393;159.393;0.00423097;0.000220504;-0.00173307;0.00113856;-0.0010698;-0.00170267;-0.000555404;0;0.0198451;0.0315553;3.27327
164000;165;25.7584;0.00557216;0.000216371;-2.28494;25.6495;0.614505;0.0491378;0.0155828;-0.199593;0.182027;0.0656324;-0.407471;0.451081;-7.41132;-0.000186123;-0.000868178;-0.00199841;0.000162656;-0.00234719;0.00125492;-0.0931354;-10.7371;0.00162173;0.00167323;0.0692982;14.4304;99.2372;144.237;0.00348352;-0.00018647;-0.0029359;0.0012033;-0.00200235;-0.00123562;0.0120323;0;0.0174904;0.229649;0.0516828;-0.615117;0.658619;-6.79783;0.000205033;-0.000298144;-0.000944496;0.00027776;-0.00101722;0.000647491;0.217082;4.60654;0.000787241;0.000863321;0.273057;3.66224;114.983;159.983;0.00399975;0.00020417;-0.00194218;0.00134778;-0.000946339;-0.00109117;-0.000134924;0;0.0190746;0.0327024;3.28036
165000;166;25.7587;0.00592105;0.000229918;-2.28529;25.6499;0.611968;0.0487868;0.0159625;-0.20213;0.183477;0.0666347;-0.413406;0.457175;-7.41725;-0.000238548;-0.000952975;-0.00194735;0.000186958;-0.00237286;0.00127991;-0.122499;-8.16335;0.00164776;0.00170654;0.0787902;12.6919;97.4452;142.445;0.00397534;-0.0002388;-0.00309046;0.00118818;-0.00195168;-0.00120532;0.0121909;0;0.0166707;0.2316;0.0525559;-0.623214;0.66693;-6.80593;0.00012895;-0.000336764;-0.00101028;0.000221054;-0.00110238;0.000661717;0.127639;7.83463;0.000818614;0.000882289;0.200524;4.98692;112.614;157.614;0.00489624;0.000128025;-0.00207321;0.00140167;-0.00101237;-0.00333222;0.000312812;0;0.0182045;0.0333253;3.28725
166000;167;25.7607;0.00787292;0.000305711;-2.28415;25.652;0.610883;0.0499282;0.0180502;-0.203215;0.186591;0.0688987;-0.419392;0.464169;-7.42324;-0.000165995;-0.000707392;-0.00100796;0.000236206;-0.00141016;0.000823182;-0.164684;-6.07222;0.00102793;0.00109758;0.167503;5.97004;97.6224;142.622;0.00331712;-0.000166724;-0.002812;0.00139899;-0.00101167;-0.0013955;0.0109417;0;0.0169052;0.235596;0.0535035;-0.631807;0.676423;-6.81452;0.00018338;-0.000322462;-0.00096055;0.000268017;-0.00104519;0.000656601;0.190911;5.23803;0.000801214;0.000875469;0.256429;3.89971;114.364;159.364;0.00405452;0.000182276;-0.00216318;0.00152036;-0.00096284;-0.00223858;-0.00022804;0;0.0189043;0.035992;3.29457
167000;168;25.7611;0.00824035;0.000319978;-2.28331;25.6524;0.609462;0.0507615;0.0185271;-0.204636;0.188007;0.0678302;-0.416836;0.462277;-7.42068;-0.000200125;-0.000721849;-0.00119663;0.000178733;-0.00157548;0.000877109;-0.167241;-5.9794;0.00111469;0.00116948;0.113446;8.81475;97.9068;142.907;0.0035395;-0.00020074;-0.00276455;0.00132289;-0.00120019;-0.00139551;0.0101741;0;0.0154471;0.237597;0.0514795;-0.631297;0.67649;-6.81401;0.000101568;-0.000322455;-0.00082737;0.000202527;-0.000928329;0.000565428;0.12276;8.14597;0.000696283;0.000753904;0.218163;4.58373;112.631;157.631;0.00468079;0.000100123;-0.00237368;0.00173067;-0.000830137;-0.00338151;0.00165237;0;0.0185842;0.0368949;3.29835
168000;169;25.7603;0.00746345;0.000289811;-2.28173;25.6519;0.603466;0.0523474;0.0180298;-0.210632;0.189765;0.0693497;-0.423632;0.469345;-7.42748;-0.000337345;-0.000514065;-0.00106204;-7.07581e-05;-0.00132863;0.000628935;-0.317639;-3.14823;0.000863133;0.000838579;-0.0532566;-18.777;97.7872;142.787;0.00340209;-0.000338256;-0.00247109;0.00144438;-0.00106496;-0.00176963;0.00973346;0;0.0177157;0.240519;0.0532683;-0.641344;0.687029;-6.82406;1.65339e-05;-0.000327143;-0.000814287;0.000129884;-0.000927638;0.000528761;0.0203047;49.2497;0.000665955;0.000705015;0.140016;7.14203;110.34;155.34;0.00470521;1.51498e-05;-0.00234826;0.00169566;-0.000816993;-0.00440041;0.00168938;0;0.0162585;0.0374797;3.30359
169000;170;25.7614;0.00859301;0.000333672;-2.28031;25.6533;0.600441;0.0537651;0.0193612;-0.213657;0.192704;0.0685729;-0.42217;0.469111;-7.42602;-0.000377723;-0.000494227;-0.00038038;0.000115177;-0.000873281;0.000494229;-0.993014;-1.00704;0.000624132;0.000658972;0.131891;7.58205;84.7815;129.782;0.00358135;-0.000378758;-0.0025098;0.00152135;-0.000383409;-0.00200111;0.00966396;0;0.0171602;0.245152;0.0521472;-0.645627;0.692569;-6.82834;-9.97212e-06;-0.000277984;-0.000758811;8.19397e-05;-0.000850723;0.000466331;;;0.000596341;0.000621775;0.0963177;10.3823;111.691;156.691;0.00439751;-1.17058e-05;-0.00243707;0.00188272;-0.000761745;-0.00514132;0.00140884;0;0.0165729;0.0398821;3.31021
170000;171;25.759;0.00616833;0.000239521;-2.27807;25.6512;0.592514;0.056009;0.01731;-0.221585;0.193447;0.0687816;-0.421427;0.468778;-7.42527;-0.000323662;-0.000535096;-0.000169037;0.000294303;-0.000787002;0.000540652;-1.91474;-0.522264;0.000645533;0.00072087;0.373954;2.67412;82.4703;127.47;0.00328602;-0.000324646;-0.00257181;0.00150131;-0.000172201;-0.000557276;0.00904237;0;0.0219334;0.246866;0.0533235;-0.651525;0.698764;-6.83424;4.74245e-06;-0.000286995;-0.000753565;0.000101113;-0.000849936;0.000475525;;;0.00060316;0.000634033;0.118966;8.40578;111.852;156.852;0.00466225;2.75301e-06;-0.0025875;0.00201526;-0.000756874;-0.00516016;0.00218675;0;0.0180089;0.0403109;3.31725
171000;172;25.7597;0.00692304;0.000268827;-2.27569;25.6523;0.587275;0.0583884;0.0183996;-0.226823;0.195101;0.0694142;-0.426014;0.473678;-7.42986;-0.000332915;-0.000510642;-7.94447e-05;0.000319955;-0.000732314;0.000526134;-4.19052;-0.238634;0.000622883;0.000701512;0.436909;2.28881;80.1957;125.196;0.00371557;-0.000333976;-0.00256579;0.00154398;-8.26062e-05;-0.00294074;0.00890616;0;0.0190292;0.24994;0.0534578;-0.659912;0.707681;-6.84263;-9.67423e-05;-0.000217105;-0.000612214;-1.74883e-05;-0.000691468;0.00033699;-0.158021;-6.32829;0.000455261;0.00044932;-0.0252916;-39.5389;110.274;155.274;0.00393085;-9.85685e-05;-0.00235641;0.00192331;-0.000614968;-0.00254203;0.00142104;0;0.0159201;0.0429736;3.32396
172000;173;25.7588;0.0060176;0.000233667;-2.27528;25.6516;0.580464;0.058793;0.0176812;-0.233634;0.196789;0.0694111;-0.429326;0.477352;-7.43317;-0.000395376;-0.000397683;0.000201155;0.000399995;-0.000594216;0.000497106;1.96553;0.50877;0.000577647;0.000662807;0.673148;1.48556;70.1974;115.197;0.00337291;-0.000396566;-0.00238946;0.00159291;0.00019838;-0.0015324;0.00774643;0;0.0214452;0.252833;0.0534985;-0.668526;0.716738;-6.85124;-0.000145851;-0.000242259;-0.000637918;-4.65994e-05;-0.00073717;0.000345285;-0.228636;-4.37377;0.000476673;0.00046038;-0.0632139;-15.8193;107.646;152.646;0.00425043;-0.00014769;-0.00241639;0.00193295;-0.00064081;-0.00347636;0.000252776;0;0.0168218;0.0437822;3.3314
173000;174;25.7555;0.00270642;0.000105092;-2.27337;25.6487;0.567147;0.0607017;0.0148234;-0.246952;0.198352;0.0684611;-0.425341;0.474284;-7.42919;-0.0003624;-0.000514291;0.000826954;0.00101849;-0.00055394;0.000786216;0.438235;2.28188;0.000920956;0.00104829;1.83864;0.543882;68.7692;113.769;0.00357511;-0.000363369;-0.00251492;0.00148396;0.000823926;-0.00228002;0.00759638;0;0.0169684;0.256362;0.0533165;-0.67379;0.722881;-6.8565;0.000182935;-0.000315324;-0.00053678;0.00030154;-0.000655385;0.000478463;0.340801;2.93426;0.000564931;0.00063795;0.460097;2.17346;111.921;156.921;0.00429839;0.000181521;-0.0023406;0.00171141;-0.000539471;-0.00267003;0.000645553;0;0.0175244;0.0467275;3.3377
174000;175;25.758;0.00521297;0.000202423;-2.27381;25.6511;0.57288;0.0602665;0.0171744;-0.241218;0.199627;0.069153;-0.427322;0.476694;-7.43117;-0.000380956;-0.000361959;0.000727007;0.000834773;-0.000488722;0.000661748;0.524006;1.90838;0.000772778;0.00088233;1.70807;0.585455;64.0139;109.014;0.00413698;-0.000382325;-0.00241979;0.00169359;0.000724147;-0.00367273;0.00793443;0;0.0217057;0.257575;0.0539516;-0.676726;0.726095;-6.85944;0.000114386;-0.000266281;-0.00058102;0.000204636;-0.00067127;0.000437953;0.19687;5.07949;0.000529085;0.000583937;0.304848;3.28032;113.116;158.116;0.0047381;0.000112764;-0.00235161;0.0018205;-0.000583751;-0.00356777;0.000918415;0;0.0178434;0.0474418;3.34549
175000;176;25.7564;0.00357786;0.000138931;-2.27235;25.6497;0.56875;0.0617221;0.0157534;-0.245348;0.199809;0.0660612;-0.419423;0.469258;-7.42327;-0.000536348;-0.000207736;0.000977715;0.0010057;-0.000564333;0.000785017;0.548573;1.82291;0.000918321;0.00104669;1.7821;0.561134;55.6025;100.603;0.00476518;-0.000538256;-0.00238294;0.00196418;0.0009749;-0.00446278;0.00668524;0;0.0205612;0.258516;0.051045;-0.673363;0.723087;-6.85608;0.000191468;-0.000325313;-0.000529907;0.000316501;-0.00065494;0.00048572;0.361325;2.7676;0.000572095;0.000647627;0.483252;2.06931;111.604;156.604;0.00424233;0.000190094;-0.0023389;0.00168973;-0.000532591;-0.00162454;0.00010006;0;0.0177181;0.0504913;3.35296
176000;177;25.7573;0.00444529;0.000172614;-2.2713;25.6507;0.566514;0.0627756;0.0167672;-0.247584;0.201039;0.0692287;-0.428683;0.478516;-7.43253;-0.000456325;-0.000468043;0.000747197;0.000907788;-0.000616916;0.000762352;0.610715;1.63743;0.000885612;0.00101647;1.4715;0.679581;65.9138;110.914;0.00461553;-0.000457609;-0.00260784;0.00166918;0.000743909;-0.00402057;0.00634935;0;0.0184696;0.260657;0.0533134;-0.685661;0.735469;-6.86837;0.000116967;-0.000314723;-0.000428515;0.000260685;-0.000572234;0.000416459;0.272959;3.66356;0.000491971;0.000555279;0.455557;2.19511;108.205;153.205;0.00467495;0.000115672;-0.00226812;0.00163974;-0.000431039;-0.00219194;0.0007915;0;0.0194712;0.0515713;3.36068
177000;178;25.7564;0.00360702;0.000140063;-2.27119;25.65;0.557649;0.0628821;0.0161292;-0.256449;0.202533;0.0689985;-0.425016;0.475835;-7.42886;-0.000637421;-0.000405638;0.000939166;0.00103741;-0.000735665;0.000886537;0.67871;1.47338;0.00102861;0.00118205;1.41017;0.709137;60.6342;105.634;0.00475395;-0.000638894;-0.00257768;0.00176299;0.000935929;-0.00433056;0.00609051;0;0.0183906;0.262718;0.0534224;-0.68829;0.73866;-6.871;3.75418e-05;-0.000274342;-0.000513868;0.00015078;-0.000627106;0.000388943;0.0730574;13.6879;0.000476353;0.000518591;0.240438;4.15907;108.952;153.952;0.0045369;3.63199e-05;-0.00213487;0.00158722;-0.00051611;-0.00251177;-6.15079e-05;0;0.0199698;0.0547697;3.36555
178000;179;25.7573;0.00446302;0.000173302;-2.27092;25.6509;0.557655;0.0631513;0.0170124;-0.256443;0.203632;0.0675399;-0.423851;0.475055;-7.4277;-0.000536618;-2.64853e-05;0.00155966;0.00156;-0.000536952;0.00104848;0.34406;2.90647;0.00125779;0.00139797;2.90528;0.3442;51.9955;96.9955;0.00506073;-0.000539226;-0.00234115;0.00228333;0.00155693;-0.0045741;0.00551829;0;0.0182989;0.264138;0.0523324;-0.691606;0.742177;-6.87432;0.000182941;-0.000279238;-0.000571479;0.000275051;-0.000663589;0.00046932;0.320118;3.12385;0.000557185;0.00062576;0.41449;2.41261;113.991;158.991;0.00467728;0.000181508;-0.00227266;0.00171569;-0.000574024;-0.00247021;-0.000232686;0;0.0205827;0.0554727;3.36879
179000;180;25.7546;0.00181939;7.06482e-05;-2.27063;25.6485;0.546229;0.0634426;0.0146295;-0.267869;0.204316;0.0675484;-0.422835;0.474444;-7.42668;-0.000674018;-0.000212732;0.00120788;0.00123163;-0.000697766;0.000964699;0.558015;1.79207;0.00112806;0.00128627;1.76511;0.566537;54.8319;99.8319;0.00549814;-0.000676005;-0.00243364;0.002004;0.00120495;-0.00531847;0.00583865;0;0.0213314;0.264831;0.0527548;-0.697025;0.747504;-6.87974;0.000194621;-0.000311289;-0.000455238;0.000319669;-0.000580286;0.000449978;0.427515;2.3391;0.000526802;0.00059997;0.550882;1.81527;111.359;156.359;0.00439526;0.00019309;-0.00239889;0.00177767;-0.000458068;-0.00189323;0.000535102;0;0.018751;0.0588004;3.37602
180000;181;25.7571;0.00428994;0.000166581;-2.27064;25.6509;0.549589;0.0634374;0.017038;-0.26451;0.205854;0.0672992;-0.424264;0.476345;-7.42811;-0.000467887;-0.000151652;0.00165862;0.00166938;-0.000478647;0.00107402;0.282093;3.54493;0.00130213;0.00143202;3.48771;0.286721;56.4112;101.411;0.00544633;-0.000470136;-0.00243393;0.00212578;0.00165568;-0.00549093;0.00585293;0;0.0166313;0.267054;0.0523362;-0.701634;0.75256;-6.88435;0.000202434;-0.000318072;-0.000469882;0.000329063;-0.000596511;0.000462787;0.430819;2.32116;0.000541766;0.000617049;0.551646;1.81276;111.326;156.326;0.00467249;0.000201204;-0.00223573;0.00160088;-0.000472332;-0.00274569;0.00111073;0;0.0244092;0.0610538;3.38152
181000;182;25.7552;0.00236687;9.19073e-05;-2.27075;25.6492;0.539734;0.063327;0.0153065;-0.274364;0.206593;0.0661683;-0.421179;0.473763;-7.42502;-0.000647176;-0.000189748;0.00158377;0.0015998;-0.000663199;0.0011315;0.408629;2.44721;0.00134332;0.00150866;2.41224;0.414552;55.529;100.529;0.00534222;-0.000649458;-0.0025286;0.00214389;0.0015806;-0.0050593;0.00582484;0;0.017582;0.268144;0.0515103;-0.703309;0.754452;-6.88602;0.000228373;-0.000364227;-0.000485507;0.000381401;-0.000638535;0.000509968;0.470381;2.12594;0.000595065;0.000679957;0.597307;1.67418;110.318;155.318;0.00495076;0.000227236;-0.00227872;0.00155164;-0.000488038;-0.0041537;-0.000383219;0;0.0232771;0.0627904;3.38946
182000;183;25.7556;0.00281521;0.000109316;-2.27051;25.6497;0.538469;0.0635651;0.0158044;-0.27563;0.207117;0.0655063;-0.420557;0.473347;-7.4244;-0.000723311;-0.000151362;0.00149357;0.00150385;-0.000733598;0.00111873;0.484285;2.0649;0.00131706;0.00149163;2.04997;0.487812;53.8156;98.8156;0.00531396;-0.000725461;-0.00238591;0.00207824;0.00149074;-0.00493703;0.00574994;0;0.0173448;0.26884;0.0508373;-0.707244;0.758323;-6.88996;0.000195135;-0.000332506;-0.000479801;0.000331423;-0.000616089;0.000473756;0.406699;2.45882;0.000555215;0.000631675;0.537946;1.85892;110.58;155.58;0.00459122;0.000193984;-0.00221701;0.00155328;-0.000482204;-0.00274969;-0.000517137;0;0.0244938;0.066512;3.39662
183000;184;25.7559;0.0030908;0.000120018;-2.27024;25.6501;0.534547;0.0638338;0.0161869;-0.279551;0.207068;0.0665027;-0.423752;0.476304;-7.4276;-0.000608408;-0.000178491;0.00162697;0.00164113;-0.000622571;0.00113185;0.373952;2.67414;0.00135033;0.00150914;2.63606;0.379354;55.6607;100.661;0.00584275;-0.000610767;-0.00254114;0.00217889;0.00162376;-0.00510203;0.00458859;0;0.0176329;0.269235;0.0513286;-0.712563;0.763458;-6.89528;0.000197265;-0.000413278;-0.000485829;0.000391865;-0.000680429;0.000536147;0.406039;2.46282;0.000626517;0.000714863;0.575909;1.73639;107.828;152.828;0.00432591;0.000195968;-0.0024883;0.00166317;-0.000488841;-0.00196699;0.00119836;0;0.0232637;0.0697963;3.40401
184000;185;25.7546;0.00179962;6.98807e-05;-2.27013;25.6489;0.529649;0.0639458;0.0150019;-0.284449;0.208687;0.0647655;-0.420335;0.473736;-7.42418;-0.000702715;-0.000227403;0.00161419;0.0016363;-0.000724823;0.00118056;0.435337;2.29707;0.00139664;0.00157408;2.25751;0.442966;56.2976;101.298;0.00529404;-0.000704742;-0.0024857;0.00202567;0.00161113;-0.00446121;0.00470376;0;0.0166322;0.271066;0.0503742;-0.71379;0.765187;-6.8965;0.000331638;-0.00036182;-0.000568519;0.000459041;-0.000695922;0.000577481;0.583337;1.71427;0.000671477;0.000769975;0.659616;1.51603;114.007;159.007;0.00490951;0.000330217;-0.00244645;0.00172468;-0.000571448;-0.00323306;0.000701372;0;0.0225154;0.0704784;3.41151
185000;186;25.7544;0.00159406;6.18985e-05;-2.26967;25.6488;0.526076;0.0644059;0.0149098;-0.288022;0.208668;0.0630768;-0.418949;0.472271;-7.42279;-0.000510736;-0.000391678;0.0017538;0.00181963;-0.000576568;0.0011981;0.291217;3.43386;0.00144416;0.00159746;3.15597;0.31686;61.9846;106.985;0.00514675;-0.000512572;-0.00274409;0.00195542;0.00175012;-0.00413346;0.00554755;0;0.0205287;0.271418;0.0488231;-0.718323;0.769441;-6.90104;0.000286909;-0.000337964;-0.00057628;0.000403487;-0.000692858;0.000548173;0.497865;2.00858;0.000640282;0.000730897;0.582353;1.71717;114.065;159.065;0.00489377;0.000285343;-0.00247624;0.00180216;-0.00057929;-0.0037088;0.000765552;0;0.0189285;0.0755772;3.41931
186000;187;25.756;0.00313112;0.000121584;-2.26972;25.6505;0.518765;0.0643544;0.0165975;-0.295333;0.208896;0.0642062;-0.421494;0.474781;-7.42534;-0.000495547;-0.000320868;0.00203195;0.00207205;-0.000535645;0.00130385;0.243877;4.10042;0.00159028;0.00173846;3.86833;0.25851;61.2932;106.293;0.00554061;-0.000497503;-0.00265115;0.00200354;0.0020285;-0.00447091;0.00537742;0;0.0208418;0.272019;0.0489044;-0.72858;0.77924;-6.91129;0.000234665;-0.000372551;-0.000453283;0.000397754;-0.000616372;0.000507063;0.5177;1.93162;0.000590023;0.000676084;0.645314;1.54963;109.974;154.974;0.0045569;0.000233045;-0.00258195;0.00183837;-0.000456549;-0.00339559;0.00156984;0;0.0179371;0.0771775;3.42602
187000;188;25.7559;0.00304761;0.000118341;-2.26973;25.6504;0.519259;0.0643436;0.0165027;-0.294839;0.208983;0.0638871;-0.423154;0.476251;-7.427;-0.000604907;-0.000279383;0.00197006;0.00200003;-0.000634871;0.00131745;0.30705;3.2568;0.00158786;0.0017566;3.15029;0.317431;58.8321;103.832;0.00577874;-0.0006073;-0.00277003;0.00220487;0.00196627;-0.00501275;0.00537328;0;0.0183071;0.272167;0.0493803;-0.730616;0.781225;-6.91333;0.000343586;-0.000365507;-0.000552185;0.000473798;-0.000682397;0.000578098;0.62223;1.60712;0.000671141;0.000770797;0.694314;1.44027;114.116;159.116;0.00486333;0.000341815;-0.0026467;0.00191773;-0.000555623;-0.00379281;0.000924814;0;0.0230349;0.0808153;3.43306
188000;189;25.7547;0.00183838;7.13856e-05;-2.26932;25.6494;0.511843;0.0647578;0.0154742;-0.302255;0.210382;0.063199;-0.422669;0.476344;-7.42651;-0.000535637;-0.000251196;0.0013937;0.00142587;-0.000567806;0.000996838;0.384327;2.60195;0.00118605;0.00132912;2.51119;0.398217;57.3255;102.325;0.00553125;-0.000537991;-0.00269078;0.00218369;0.00139012;-0.00486902;0.00625162;0;0.017854;0.273715;0.0486392;-0.73495;0.785772;-6.91766;0.000350166;-0.000294185;-0.000507076;0.000441411;-0.000598321;0.000519866;0.690559;1.4481;0.000602564;0.000693155;0.737749;1.35547;116.757;161.757;0.00472074;0.000348477;-0.00244847;0.00186195;-0.000510032;-0.00356947;0.00188774;0;0.024838;0.0841325;3.44013
189000;190;25.7543;0.00143055;5.55492e-05;-2.2695;25.649;0.509609;0.0645723;0.0150928;-0.304489;0.210587;0.062707;-0.420216;0.474195;-7.42406;-0.000509894;-0.000270945;0.00114782;0.00119098;-0.000553055;0.000872019;0.444228;2.2511;0.00102913;0.00116269;2.15346;0.464369;57.7537;102.754;0.00534317;-0.000512291;-0.00275147;0.00220548;0.00114408;-0.0044419;0.00713138;0;0.0178509;0.274094;0.0486975;-0.737569;0.788357;-6.92028;0.000412121;-0.0003529;-0.00058728;0.000524171;-0.000699331;0.000611751;0.701745;1.42502;0.000708798;0.000815668;0.749533;1.33416;116.376;161.376;0.00506057;0.000410076;-0.00275667;0.00205328;-0.00059102;-0.00486065;0.00204622;0;0.0176847;0.0875821;3.44613
190000;191;25.7539;0.00109375;4.24709e-05;-2.26949;25.6488;0.50298;0.0645812;0.0148862;-0.311118;0.212611;0.0608605;-0.418901;0.473693;-7.42275;-0.000573984;-0.000480765;0.00109773;0.00122613;-0.000702384;0.000964258;0.522881;1.91248;0.00112703;0.00128568;1.74567;0.572845;63.1178;108.118;0.00541212;-0.000575683;-0.00287009;0.00190458;0.00109373;-0.00481241;0.00678657;0;0.01701;0.276485;0.0465037;-0.739322;0.790698;-6.92204;0.000490004;-0.000356081;-0.000569327;0.00059857;-0.000677893;0.000638231;0.860673;1.16188;0.00073744;0.000850975;0.882986;1.13252;117.579;162.579;0.00480815;0.000488209;-0.00263824;0.0019285;-0.000572746;-0.00392251;0.00207805;0;0.018182;0.0914797;3.45043
191000;192;25.7549;0.00209525;8.13601e-05;-2.26859;25.6499;0.499759;0.0654833;0.0160346;-0.314339;0.210574;0.0639046;-0.428003;0.481261;-7.43185;-0.00050255;-0.000112354;0.00154209;0.00154824;-0.000508705;0.00102847;0.32589;3.06852;0.0012371;0.0013713;3.04349;0.32857;54.215;99.215;0.00580474;-0.000505219;-0.00254227;0.00231261;0.00153887;-0.00528539;0.00550727;0;0.0169945;0.275006;0.0489815;-0.751719;0.801941;-6.93443;0.000295227;-0.000290999;-0.000550647;0.000385667;-0.000641088;0.000513377;0.536145;1.86517;0.00059888;0.000684503;0.601582;1.66228;116.185;161.185;0.00488926;0.000293233;-0.00259833;0.00201828;-0.000553982;-0.00437373;0.00435883;0;0.0187408;0.095288;3.45449
192000;193;25.7541;0.00129819;5.04095e-05;-2.26822;25.6493;0.493949;0.0658543;0.0153796;-0.320149;0.212571;0.0606819;-0.416862;0.471851;-7.42071;-0.000433064;-0.000355005;0.0017768;0.00183243;-0.000488693;0.00116056;0.243733;4.10285;0.00141297;0.00154741;3.74965;0.266692;61.5745;106.575;0.00555188;-0.000435216;-0.00282008;0.00210463;0.00177289;-0.00402525;0.00539487;0;0.0188317;0.276771;0.0467511;-0.746578;0.7976;-6.92929;0.000440913;-0.000411667;-0.000808045;0.000564394;-0.000931526;0.00074796;0.545654;1.83266;0.000872296;0.00099728;0.605881;1.65049;116.122;161.122;0.00458336;0.000439079;-0.00277944;0.00195907;-0.000811826;-0.00315175;0.00253224;0;0.0180939;0.0986091;3.46184
193000;194;25.755;0.00213619;8.29496e-05;-2.26865;25.6501;0.49401;0.0654216;0.0161816;-0.320088;0.21217;0.0612237;-0.423791;0.477874;-7.42764;-0.000542096;-0.000383318;0.00125223;0.00133068;-0.000620553;0.000975618;0.432906;2.30997;0.00115115;0.00130082;2.14435;0.466342;60.7464;105.746;0.00586708;-0.00054413;-0.00282335;0.00205235;0.00124832;-0.00477893;0.00622645;0;0.0168923;0.276887;0.0463491;-0.7566;0.807005;-6.93931;0.000351658;-0.000419974;-0.000773569;0.000491122;-0.000913033;0.000702077;0.454592;2.19977;0.000822797;0.000936103;0.537902;1.85908;114.288;159.288;0.00499761;0.000349507;-0.00295397;0.00211688;-0.000777848;-0.00467642;0.00262547;0;0.0161701;0.103634;3.46963
194000;195;25.7552;0.00235207;9.13327e-05;-2.26845;25.6505;0.486777;0.0656259;0.0165547;-0.327321;0.212817;0.0608095;-0.424007;0.478299;-7.42785;-0.000490701;-0.000124373;0.00112481;0.00113433;-0.00050022;0.000817276;0.43625;2.29226;0.000967091;0.0010897;2.26767;0.440981;52.9558;97.9558;0.00550046;-0.000493634;-0.00267766;0.00242479;0.00112124;-0.00386023;0.00682453;0;0.0174387;0.27754;0.0454857;-0.760486;0.810825;-6.9432;0.000322332;-0.000375524;-0.000778967;0.000438191;-0.000894826;0.000666508;0.413794;2.41666;0.000784525;0.000888678;0.489694;2.04209;115.157;160.157;0.00476127;0.000320376;-0.0027617;0.00201328;-0.000782713;-0.00407688;0.00314425;0;0.0193207;0.107891;3.47719
195000;196;25.7532;0.000398894;1.54893e-05;-2.26712;25.6488;0.478479;0.0669572;0.0148674;-0.335619;0.21365;0.0595139;-0.42265;0.477307;-7.4265;-0.000555183;-0.000265214;0.00155746;0.00159025;-0.000587968;0.00108911;0.356466;2.80531;0.00130121;0.00145214;2.70465;0.369734;57.5398;102.54;0.00550913;-0.000557869;-0.00286827;0.00233235;0.00155339;-0.00412563;0.00612832;0;0.0223543;0.2785;0.0451111;-0.766609;0.816876;-6.94932;0.00024658;-0.000293604;-0.00109696;0.000307939;-0.00115832;0.00073313;0.224784;4.44872;0.000892743;0.000977507;0.265849;3.76153;118.185;163.185;0.00470604;0.000244425;-0.00268094;0.00209695;-0.00110052;-0.00462126;0.00410308;0;0.0207644;0.113089;3.48434
196000;197;25.7541;0.00129571;5.03132e-05;-2.26691;25.6497;0.476053;0.0671659;0.0158315;-0.338045;0.212877;0.0602501;-0.425379;0.479473;-7.42922;-0.0007193;9.07841e-05;0.00117913;0.00118346;-0.000723631;0.000953546;0.610026;1.63928;0.00111168;0.0012714;1.63545;0.611453;44.8116;89.8116;0.00588182;-0.000722972;-0.00253403;0.00271062;0.00117593;-0.00447683;0.00739373;0;0.0176696;0.278479;0.045604;-0.773482;0.82335;-6.9562;0.00038755;-0.00038718;-0.001039;0.000485859;-0.00113731;0.000811585;0.373003;2.68095;0.000961967;0.00108211;0.4272;2.34082;117.234;162.234;0.00470858;0.000385151;-0.00299543;0.0022248;-0.00104342;-0.00421024;0.00510722;0;0.015986;0.11697;3.49179
197000;198;25.7535;0.000676179;2.62565e-05;-2.26636;25.6493;0.470352;0.0677163;0.0153633;-0.343746;0.212962;0.0587559;-0.422301;0.476596;-7.42615;-0.000351161;-0.000196144;0.00137438;0.00139639;-0.000373176;0.000884785;0.255505;3.91381;0.00107709;0.00117971;3.74191;0.267243;57.0101;102.01;0.0056546;-0.000354025;-0.00279767;0.0024009;0.00137049;-0.00411191;0.00702911;0;0.0186011;0.278878;0.0441524;-0.775397;0.825205;-6.95811;0.000275193;-0.000269637;-0.00118952;0.000323253;-0.00123758;0.000780416;0.231348;4.32249;0.000951291;0.00104056;0.261198;3.82852;119.467;164.467;0.00461082;0.000273023;-0.00263661;0.00210081;-0.00119296;-0.00406837;0.0049911;0;0.0197475;0.123148;3.49907
198000;199;25.7532;0.000369497;1.43478e-05;-2.26618;25.6491;0.463368;0.0678981;0.0151985;-0.350731;0.212884;0.0569786;-0.422505;0.476526;-7.42635;-0.000525873;-8.55812e-05;0.00126597;0.00127005;-0.000529952;0.000900002;0.41539;2.40737;0.00106811;0.0012;2.39654;0.417267;51.7774;96.7774;0.00631933;-0.000529092;-0.00271375;0.00253789;0.0012623;-0.00614147;0.00724171;0;0.0225532;0.279078;0.0430881;-0.782097;0.831515;-6.96481;3.04809e-05;-0.000188344;-0.00130655;5.65058e-05;-0.00133258;0.000694542;0.0233292;42.8647;0.000907808;0.000926057;0.0424033;23.5831;120.085;165.085;0.00499361;2.77613e-05;-0.00271314;0.00233983;-0.00131022;-0.00346526;0.00707557;0;0.0247226;0.128135;3.50611
199000;200;25.7535;0.000672974;2.6132e-05;-2.26616;25.6496;0.455305;0.0679119;0.0156488;-0.358793;0.213853;0.0572322;-0.426777;0.480778;-7.43062;-0.00044597;-0.000351825;0.00172524;0.00178082;-0.000501557;0.00114119;0.258497;3.86851;0.00138501;0.00152159;3.5506;0.281643;60.8375;105.837;0.00567368;-0.000448511;-0.00299081;0.00228145;0.00172083;-0.00355721;0.00639698;0;0.0174883;0.280242;0.041794;-0.791479;0.840668;-6.97419;0.000186535;-0.000205622;-0.00128864;0.00021466;-0.00131677;0.000765715;0.144753;6.90832;0.000957455;0.00102095;0.16302;6.13421;120.551;165.551;0.00486392;0.000184329;-0.00251879;0.00211096;-0.0012918;-0.00365139;0.00652654;0;0.0200054;0.134757;3.51269
200000;201;25.7548;0.00199748;7.75635e-05;-2.26492;25.651;0.455868;0.0691594;0.0170789;-0.35823;0.213812;0.0571228;-0.426173;0.48021;-7.43002;-0.000500683;-0.000494464;0.00162886;0.00173807;-0.000609893;0.00117398;0.307383;3.25327;0.00140679;0.00156531;2.84979;0.350903;63.4142;108.414;0.00582367;-0.000502968;-0.00318837;0.00219372;0.00162391;-0.00395621;0.007531;0;0.017763;0.280867;0.0416161;-0.794179;0.843409;-6.97689;0.000193415;-0.000223883;-0.00138033;0.000224645;-0.00141156;0.000818103;0.140122;7.13664;0.00102417;0.0010908;0.159146;6.28352;120.566;165.566;0.00521336;0.000190712;-0.00277978;0.00233605;-0.00138418;-0.00361082;0.00647564;0;0.0169105;0.14209;3.51752
201000;202;25.7527;-0.000125978;-4.89182e-06;-2.2654;25.649;0.446003;0.0686795;0.0150779;-0.368095;0.214109;0.054278;-0.419883;0.474437;-7.42373;-0.000304388;-0.000426038;0.0014244;0.00152369;-0.000403677;0.000963683;0.213695;4.67956;0.00117372;0.00128491;3.77453;0.264934;64.1303;109.13;0.00588014;-0.00030676;-0.00307564;0.002219;0.00141977;-0.00415701;0.00489856;0;0.0158255;0.281585;0.0393331;-0.794491;0.843832;-6.9772;0.000210919;-0.000221528;-0.00149724;0.000239181;-0.00152551;0.000882343;0.140871;7.09867;0.00110539;0.00117646;0.156788;6.37805;121.283;166.283;0.00544417;0.000207637;-0.00301008;0.0025718;-0.00150176;-0.00372329;0.00887682;0;0.0194123;0.146435;3.52245
202000;203;25.752;-0.000838335;-3.25531e-05;-2.26321;25.6486;0.437448;0.0708666;0.0147031;-0.37665;0.214667;0.0539738;-0.424339;0.4786;-7.42818;-0.000387118;-0.000367636;0.00148156;0.00155128;-0.000456844;0.00100406;0.261291;3.82714;0.00121543;0.00133875;3.39565;0.294494;61.3009;106.301;0.00587618;-0.000390015;-0.00317493;0.00243442;0.00147659;-0.00405327;0.00755738;0;0.0175524;0.282893;0.0396264;-0.806024;0.855145;-6.98874;0.000214521;-0.000243399;-0.00156597;0.000247195;-0.00159864;0.000922917;0.13699;7.29981;0.00115699;0.00123056;0.154629;6.46711;120.363;165.363;0.00557747;0.000211535;-0.00293833;0.00245634;-0.00157026;-0.00279513;0.0103993;0;0.0260956;0.153907;3.52912
203000;204;25.7534;0.000624333;2.42433e-05;-2.26518;25.6499;0.439289;0.0688963;0.0159663;-0.37481;0.213762;0.0521006;-0.423542;0.47728;-7.42739;-0.000404926;-0.000121248;0.00153117;0.00153873;-0.000412489;0.000975612;0.264455;3.78136;0.00118745;0.00130082;3.73036;0.268071;54.276;99.276;0.00591857;-0.000408529;-0.00293466;0.00268672;0.00152688;-0.00362537;0.00678953;0;0.0299207;0.28109;0.0373883;-0.807823;0.856147;-6.99054;-3.92464e-06;-0.000282262;-0.00142933;4.99348e-05;-0.00148319;0.00076656;;;0.00100585;0.00102208;0.0336673;29.7025;116.994;161.994;0.00521039;-6.99095e-06;-0.00305301;0.00249244;-0.00143395;-0.00308948;0.0125354;0;0.0194213;0.16433;3.53691
204000;205;25.7535;0.000722616;2.80597e-05;-2.2641;25.6502;0.431568;0.0699793;0.0162916;-0.38253;0.213937;0.0507709;-0.419286;0.473442;-7.42313;-0.000521433;-0.000149499;0.00181394;0.00182347;-0.000530964;0.00117722;0.287459;3.47876;0.00142598;0.00156962;3.43426;0.291183;55.2392;100.239;0.00536345;-0.000524868;-0.00293009;0.00262461;0.00180967;-0.00299641;0.00599469;0;0.02106;0.282215;0.0352213;-0.810423;0.858878;-6.99314;-4.37923e-05;-0.000321124;-0.00143481;2.67626e-05;-0.00150536;0.000766062;-0.0305214;-32.7639;0.00101261;0.00102142;0.0177782;56.2487;114.761;159.761;0.00556259;-4.63808e-05;-0.0029364;0.0022978;-0.00143907;-0.00253876;0.0110147;0;0.0172249;0.168461;3.5437
205000;206;25.7503;-0.00257187;-9.98677e-05;-2.26234;25.6473;0.41923;0.0717362;0.0133435;-0.394868;0.214158;0.0491803;-0.424039;0.477589;-7.42788;-0.000309411;-0.000226273;0.00193715;0.00195972;-0.000331974;0.00114585;0.159725;6.26078;0.00143004;0.00152779;5.90322;0.169399;58.9555;103.955;0.00572382;-0.000312585;-0.00298817;0.00252943;0.00193272;-0.00312393;0.00714449;0;0.0206465;0.28337;0.0348435;-0.82153;0.869726;-7.00424;0.000154542;-0.00037649;-0.00114418;0.00025579;-0.00124543;0.000750609;0.135067;7.40371;0.000927383;0.00100081;0.205383;4.86895;114.612;159.612;0.00541492;0.000152122;-0.00298148;0.00223189;-0.00114856;-0.00270436;0.0121548;0;0.0174135;0.177115;3.55142
206000;207;25.7505;-0.00236219;-9.17255e-05;-2.26295;25.6475;0.415661;0.0711238;0.0135581;-0.398437;0.213712;0.0453873;-0.415952;0.469839;-7.4198;-0.000366907;7.22556e-05;0.0025351;0.00253689;-0.000368705;0.0014528;0.144731;6.90936;0.00182661;0.00193707;6.88055;0.145337;54.1649;99.1649;0.0052148;-0.000371051;-0.0027428;0.00287916;0.00253135;-0.00227694;0.00837294;0;0.035478;0.28279;0.030917;-0.816202;0.864356;-6.99892;0.000111403;-0.000457653;-0.00103885;0.000271271;-0.00119872;0.000734996;0.107237;9.32516;0.000903253;0.000979995;0.2263;4.41891;110.93;155.93;0.00561194;0.000108968;-0.00316629;0.0022541;-0.00104377;-0.0025797;0.0130135;0;0.0246068;0.186937;3.55824
207000;208;25.7507;-0.00212493;-8.25124e-05;-2.26262;25.6478;0.413424;0.0714588;0.013862;-0.400674;0.213234;0.0464327;-0.42171;0.47483;-7.42555;-0.000630656;-0.000548291;0.00217588;0.00227919;-0.000733969;0.00150658;0.28984;3.45018;0.0018143;0.00200877;3.10529;0.322031;63.5077;108.508;0.00516337;-0.000632965;-0.00332149;0.00221715;0.00217052;-0.00154129;0.00771767;0;0.0249283;0.28228;0.0321059;-0.825925;0.873422;-7.00864;-8.59789e-07;-0.000407263;-0.00105425;0.000138231;-0.00119334;0.000665785;;;0.000845412;0.000887713;0.115835;8.63294;110.371;155.371;0.00534768;-3.10831e-06;-0.00297119;0.00215937;-0.00105858;-0.00300939;0.0122452;0;0.0180973;0.193979;3.56559
208000;209;25.7499;-0.00296619;-0.000115179;-2.26252;25.6471;0.404897;0.0715497;0.0131615;-0.409201;0.21474;0.0444205;-0.423301;0.476728;-7.42715;-0.000442376;-0.000214132;0.00236039;0.00237666;-0.000458641;0.00141765;0.187417;5.33571;0.00175738;0.0018902;5.18195;0.192978;58.7779;103.778;0.00518159;-0.000445741;-0.00303852;0.00260236;0.00235581;-0.00109684;0.00746646;0;0.0208053;0.284382;0.0307907;-0.835277;0.882898;-7.01799;0.000129623;-0.000435848;-0.000768349;0.000306379;-0.000945104;0.000625741;0.168704;5.92754;0.000753259;0.000834322;0.324175;3.08476;109.288;154.288;0.00501566;0.000127634;-0.00291145;0.00204198;-0.000772495;-0.0021004;0.0129293;0;0.0174168;0.204507;3.57232
209000;210;25.7488;-0.00400954;-0.000155693;-2.26207;25.6461;0.403861;0.0720027;0.0121702;-0.410237;0.213931;0.0418051;-0.418601;0.471954;-7.42245;-0.000515338;-0.000118549;0.00232481;0.00232975;-0.000520278;0.00142501;0.221669;4.51123;0.00175252;0.00190002;4.47789;0.22332;56.4488;101.449;0.00538922;-0.000518859;-0.00290064;0.00265566;0.00232062;-0.00146203;0.00907555;0;0.0262769;0.283338;0.0281112;-0.832886;0.88021;-7.0156;0.000141831;-0.000444185;-0.000807574;0.000317239;-0.000982982;0.00065011;0.175627;5.6939;0.000782797;0.000866814;0.322731;3.09855;109.907;154.907;0.00522995;0.0001395;-0.00309064;0.00220479;-0.000812256;-0.00128349;0.0128959;0;0.0183468;0.212188;3.57954
210000;211;25.7496;-0.00326804;-0.0001269;-2.26227;25.6469;0.399416;0.0718018;0.0129666;-0.414683;0.213651;0.0410363;-0.420499;0.473445;-7.42434;-0.000427516;-0.000189834;0.00246648;0.00247888;-0.000439915;0.0014594;0.173331;5.76932;0.00181706;0.00194586;5.6349;0.177466;58.7634;103.763;0.00535869;-0.000430912;-0.00300052;0.00261274;0.002462;-0.0014271;0.00794895;0;0.0220221;0.283495;0.0276413;-0.841784;0.88867;-7.0245;8.30576e-05;-0.000523748;-0.000572854;0.000373055;-0.000862852;0.000617954;0.144989;6.89707;0.000731991;0.000823938;0.432351;2.31293;103.212;148.212;0.00500032;8.13316e-05;-0.00297633;0.00193045;-0.000577149;-0.00173387;0.0121451;0;0.0191053;0.228342;3.58744
211000;212;25.7468;-0.00599108;-0.000232638;-2.26135;25.6444;0.389041;0.0727288;0.0104739;-0.425057;0.214854;0.0378294;-0.417428;0.470998;-7.42127;-0.000540101;-0.000296938;0.00201376;0.00204783;-0.000574171;0.001311;0.268205;3.72849;0.00159152;0.001748;3.56659;0.28038;59.1191;104.119;0.0052718;-0.000543029;-0.00303814;0.00243728;0.0020092;-0.0022072;0.0087774;0;0.0229477;0.284818;0.0248035;-0.842344;0.889539;-7.02506;0.000152877;-0.000423983;-0.000603017;0.000342913;-0.000793054;0.000567984;0.25352;3.94446;0.000672796;0.000757312;0.432396;2.31269;108.192;153.192;0.0048231;0.000151049;-0.00280471;0.00195855;-0.000606863;-0.00130634;0.0123478;0;0.0194933;0.235298;3.59434
212000;213;25.7474;-0.00544965;-0.000211614;-2.26148;25.645;0.386238;0.0725996;0.0110485;-0.42786;0.213953;0.0388115;-0.422797;0.475437;-7.42664;-0.000665317;-0.000208338;0.00218281;0.00219797;-0.000680476;0.00143922;0.304798;3.28086;0.00173715;0.00191897;3.23005;0.309593;56.9931;101.993;0.00532445;-0.000668446;-0.00293352;0.0025091;0.00217854;-0.00192096;0.0084357;0;0.0181524;0.283882;0.0262196;-0.851663;0.898112;-7.03438;0.000198396;-0.000459197;-0.000433416;0.000439857;-0.000674877;0.000557367;0.457749;2.1846;0.000648343;0.000743156;0.651759;1.53431;105.985;150.985;0.0047586;0.000196297;-0.00301651;0.00209974;-0.000437862;-0.00228573;0.0121521;0;0.023629;0.244756;3.5956
213000;214;25.7464;-0.00640708;-0.000248792;-2.26099;25.6441;0.383181;0.0730865;0.010176;-0.430917;0.213664;0.0350556;-0.42175;0.474083;-7.4256;-0.000730701;-0.000493828;0.00150792;0.00161202;-0.000834796;0.00122341;0.484575;2.06366;0.00143623;0.00163121;1.93103;0.517858;61.0402;106.04;0.0051202;-0.000733004;-0.00319529;0.0022016;0.00150295;-0.00183867;0.00975733;0;0.0164361;0.283841;0.0236987;-0.854232;0.900467;-7.03695;6.05344e-05;-0.000416334;-0.000456437;0.000292098;-0.000688001;0.00049005;0.132624;7.54013;0.000581045;0.0006534;0.424561;2.35537;103.663;148.663;0.00492698;5.85091e-05;-0.00288669;0.0020553;-0.000460519;-0.00175058;0.0139198;0;0.0233493;0.259435;3.60149
214000;215;25.7464;-0.00646322;-0.000250971;-2.26114;25.6441;0.380356;0.0729355;0.0101484;-0.433742;0.21406;0.0332896;-0.419461;0.472099;-7.42331;-0.000736083;-0.000402707;0.00205063;0.00210766;-0.000793111;0.00145039;0.358954;2.78588;0.00173114;0.00193385;2.65746;0.376299;60.2907;105.291;0.00525588;-0.000738329;-0.00296932;0.00215677;0.00204632;-0.00177626;0.0100029;0;0.0154263;0.283953;0.0221028;-0.857431;0.903497;-7.04014;0.000106303;-0.00043327;-0.000523581;0.000327002;-0.00074428;0.000535641;0.203031;4.92536;0.000633952;0.000714188;0.439354;2.27607;105.678;150.678;0.00434807;0.000104215;-0.00295419;0.00208924;-0.000527853;-0.000751076;0.0134332;0;0.0188321;0.272672;3.60878
215000;216;25.7458;-0.00705273;-0.000273863;-2.2613;25.6435;0.373776;0.0727771;0.00963932;-0.440323;0.213874;0.0313247;-0.42064;0.472928;-7.42448;-0.000629288;-0.000405584;0.00133516;0.0014156;-0.000709731;0.00106267;0.47132;2.1217;0.00124942;0.00141689;1.99456;0.501363;60.012;105.012;0.00513391;-0.000631782;-0.00308575;0.00226933;0.00133049;-0.000463303;0.0108142;0;0.0196494;0.283642;0.0201716;-0.861953;0.907646;-7.04467;0.000168316;-0.000436568;-0.000383827;0.000408779;-0.000624289;0.000516534;0.438521;2.28039;0.000600753;0.000688712;0.65479;1.52721;104.985;149.985;0.00458643;0.000166159;-0.00299438;0.00212266;-0.000388217;-0.00196187;0.0126879;0;0.0179464;0.287472;3.61622
216000;217;25.7449;-0.00789266;-0.000306477;-2.26101;25.6428;0.36812;0.0730616;0.00890294;-0.445978;0.213138;0.0295924;-0.41851;0.470589;-7.42236;-0.000651735;-0.000265742;0.00134076;0.0013756;-0.000686568;0.00103108;0.486092;2.05723;0.00121254;0.00137478;2.00359;0.499105;56.1742;101.174;0.00538034;-0.0006546;-0.00294476;0.00240794;0.00133647;-0.0005196;0.00961648;0;0.025217;0.282996;0.0187958;-0.864482;0.909818;-7.0472;0.000104668;-0.000370328;-0.000481775;0.000283804;-0.000660911;0.000472358;0.217256;4.60287;0.000559729;0.00062981;0.429413;2.32876;107.12;152.12;0.00471319;0.000102329;-0.00293392;0.00219477;-0.000486013;-0.00212825;0.0137895;0;0.0176625;0.297318;3.62385
217000;218;25.7453;-0.00754665;-0.000293042;-2.26152;25.6431;0.365665;0.0725583;0.00924109;-0.448433;0.213716;0.0254284;-0.416241;0.468591;-7.42009;-0.000561643;-0.000446564;0.000881652;0.00100865;-0.000688638;0.000848643;0.637034;1.56977;0.000985717;0.00113152;1.4647;0.682734;62.6154;107.615;0.00497978;-0.000564057;-0.0031387;0.00224169;0.00087683;-0.000740552;0.00937174;0;0.0151263;0.283099;0.0153205;-0.864803;0.91009;-7.04752;6.49799e-06;-0.000301875;-0.000435764;0.00015957;-0.000588835;0.000374202;;;0.000455168;0.000498937;0.270992;3.69015;105.835;150.835;0.00420194;3.78484e-06;-0.0029515;0.00234893;-0.000440076;-0.00229206;0.0155515;0;0.0190972;0.317143;3.631
218000;219;25.746;-0.00685115;-0.000266035;-2.26144;25.6439;0.362985;0.0726353;0.00998421;-0.451113;0.212783;0.0260476;-0.422881;0.474113;-7.42673;-0.000673206;-0.00047722;0.000479833;0.00065172;-0.000845094;0.000748407;1.403;0.712757;0.000866587;0.000997876;0.771181;1.29671;63.8138;108.814;0.0053218;-0.000675517;-0.00315905;0.00220152;0.000474959;-0.00143986;0.00825361;0;0.0161585;0.282159;0.0154008;-0.875958;0.920409;-7.05867;-2.74974e-05;-0.000272289;-0.000568186;8.58607e-05;-0.000681544;0.000383703;-0.0483951;-20.6633;0.00048552;0.000511603;0.12598;7.93779;109.149;154.149;0.00367933;-3.01366e-05;-0.00285671;0.00231353;-0.000572232;-1.07049e-05;0.0149786;0;0.0157937;0.329409;3.63873
219000;220;25.7462;-0.00665821;-0.000258543;-2.26095;25.6442;0.359705;0.0731213;0.010267;-0.454393;0.213064;0.0230758;-0.421264;0.472644;-7.42511;-0.000511825;-0.000436652;0.000830745;0.000960265;-0.000641345;0.000800805;0.616104;1.6231;0.00093078;0.00106774;1.49727;0.667883;63.3127;108.313;0.00507639;-0.00051407;-0.00303982;0.00216303;0.000826223;-0.00124244;0.00813656;0;0.0171745;0.282478;0.0119297;-0.877313;0.921745;-7.06003;-8.98209e-05;-0.000265354;-0.000680824;1.18347e-05;-0.00078248;0.000397157;-0.13193;-7.5798;0.000525642;0.000529543;0.0151247;66.1172;109.761;154.761;0.00431587;-9.2372e-05;-0.00280345;0.00227425;-0.000684721;-0.00171653;0.0165624;0;0.0165798;0.347279;3.64619
220000;221;25.746;-0.00678536;-0.00026348;-2.26251;25.644;0.35459;0.071569;0.0100737;-0.459508;0.213439;0.0216222;-0.419539;0.471208;-7.42338;-0.000717645;-0.000434233;0.000469352;0.000611243;-0.000859537;0.00073539;1.52901;0.654016;0.000853179;0.00098052;0.711131;1.40621;61.77;106.77;0.00511561;-0.000719911;-0.00304333;0.00217177;0.000464817;-0.00152403;0.00860744;0;0.0166608;0.282803;0.010946;-0.882014;0.926308;-7.06473;-7.51071e-05;-0.000206884;-0.000721034;-1.45262e-05;-0.000781615;0.000383544;-0.104166;-9.60007;0.000516303;0.000511392;-0.0185849;-53.8071;114.279;159.279;0.00411341;-7.78325e-05;-0.00275587;0.00234375;-0.000724813;-0.0021642;0.0178354;0;0.0157144;0.365534;3.65353
221000;222;25.7486;-0.00422444;-0.000164038;-2.26213;25.6466;0.352493;0.0719405;0.0127065;-0.461605;0.21317;0.0189005;-0.424165;0.475095;-7.42801;-0.000356898;-0.000256309;0.000248;0.000341998;-0.000450895;0.000396447;1.4391;0.694878;0.000459214;0.000528595;0.758486;1.31842;64.6003;109.6;0.00538019;-0.000359845;-0.00295504;0.00244079;0.000243668;-0.00170803;0.00842383;0;0.0177531;0.281644;0.00666898;-0.889244;0.932803;-7.07196;-4.781e-05;-0.000105718;-0.000987748;-3.60663e-05;-0.000999491;0.000481713;-0.0484031;-20.6599;0.000654637;0.000642283;-0.0360847;-27.7126;123.093;168.093;0.00531764;-5.09472e-05;-0.00271604;0.00250706;-0.000991434;-0.00394872;0.0160904;0;0.019601;0.388954;3.66025
222000;223;25.7486;-0.0042606;-0.000165442;-2.26228;25.6466;0.347623;0.0717941;0.0127237;-0.466476;0.212145;0.0190317;-0.420459;0.471332;-7.4243;-0.000575096;-0.000663836;0.000439941;0.000768038;-0.000903194;0.000835616;1.30721;0.764986;0.000965937;0.00111415;0.850358;1.17597;70.5877;115.588;0.00501952;-0.000576712;-0.00324604;0.00191575;0.000434895;-0.000307541;0.00755242;0;0.0330467;0.280721;0.00687395;-0.891047;0.934246;-7.07376;-0.000110175;-0.000126394;-0.000905324;-9.05671e-05;-0.000924932;0.000417183;-0.121696;-8.21717;0.000588759;0.000556243;-0.0979175;-10.2127;120.189;165.189;0.0046683;-0.000112702;-0.00250256;0.00225167;-0.000908451;-0.00250564;0.0178867;0;0.0549123;0.402233;3.66377
223000;224;25.752;-0.000859503;-3.33751e-05;-2.26367;25.6499;0.347192;0.0704093;0.016022;-0.466906;0.211869;0.015087;-0.42186;0.472315;-7.4257;-0.000536577;-0.000694543;0.000413584;0.000779986;-0.000902979;0.000841482;1.29738;0.770782;0.000972524;0.00112198;0.863792;1.15769;72.2103;117.21;0.00556125;-0.000538429;-0.00343706;0.00204538;0.000407921;-0.00157308;0.00804157;0;0.0229112;0.27952;0.00127839;-0.894235;0.936905;-7.07695;-4.98153e-05;-0.000163921;-0.00123468;-2.75557e-05;-0.00125694;0.000614691;-0.0403468;-24.7851;0.000828926;0.000819588;-0.0219229;-45.6144;119.299;164.299;0.00478153;-5.19577e-05;-0.00240158;0.0020764;-0.00123755;-0.00102038;0.019735;0;0.0417213;0.427002;3.6688
224000;225;25.7508;-0.00204348;-7.93498e-05;-2.2642;25.6488;0.34103;0.0698763;0.0148689;-0.473068;0.210475;0.0127719;-0.420562;0.470463;-7.42441;-0.00050085;-0.000455932;0.000590483;0.000755891;-0.000666258;0.000711074;0.848204;1.17896;0.000821621;0.000948099;1.13453;0.881421;65.457;110.457;0.00555292;-0.000503227;-0.00314157;0.00222678;0.000585655;-0.00211524;0.00668019;0;0.0236295;0.278061;-0.00155803;-0.89802;0.940085;-7.08073;5.74511e-05;-0.000227369;-0.00123761;9.62094e-05;-0.00127637;0.000686291;0.0464209;21.542;0.00088473;0.000915054;0.0753773;13.2666;117.953;162.953;0.00520549;5.54665e-05;-0.00245716;0.00200531;-0.00124061;-0.00231135;0.020627;0;0.0254795;0.447764;3.67679
225000;226;25.7514;-0.00145821;-5.66234e-05;-2.2649;25.6494;0.336813;0.0691736;0.0154502;-0.477285;0.209798;0.0105345;-0.416041;0.466065;-7.41989;-0.000585069;-0.000371572;0.000537647;0.000649482;-0.000696904;0.000673193;1.0882;0.918947;0.000777497;0.000897591;0.931954;1.07301;61.5421;106.542;0.00516423;-0.000587806;-0.00311472;0.0023685;0.000532868;-0.00220617;0.0069149;0;0.017655;0.27679;-0.00405138;-0.897487;0.939208;-7.0802;7.38062e-05;-0.000317524;-0.00102627;0.000158877;-0.00111134;0.000635109;0.071917;13.9049;0.000799134;0.000846811;0.14296;6.99496;113.589;158.589;0.00509859;7.22992e-05;-0.00239768;0.00176493;-0.0010291;-0.00210178;0.0215207;0;0.0175464;0.472029;3.68262
226000;227;25.7535;0.000727478;2.82485e-05;-2.26469;25.6516;0.333442;0.0693871;0.0177075;-0.480657;0.210645;0.00833971;-0.421676;0.471436;-7.42552;-0.00057825;-0.000633802;0.000259123;0.000600044;-0.000919171;0.000759608;2.23156;0.448116;0.000883546;0.00101281;0.65281;1.53184;71.6881;116.688;0.00534464;-0.000580405;-0.00343995;0.00217;0.000253409;-0.00119441;0.00692589;0;0.0157436;0.277892;-0.00825035;-0.904769;0.946519;-7.08748;0.000180798;-0.000286407;-0.000686867;0.000266811;-0.00077288;0.000519846;0.263221;3.79909;0.000623519;0.000693127;0.345216;2.89673;115.03;160.03;0.00458259;0.000179014;-0.00248174;0.00191083;-0.000689908;-0.000609101;0.0205946;0;0.0181757;0.489575;3.68909
227000;228;25.7527;-0.000126247;-4.90227e-06;-2.26591;25.6507;0.331898;0.0681631;0.0167623;-0.4822;0.208232;0.00691572;-0.42021;0.469026;-7.42406;-0.000665279;-0.000453437;0.00092073;0.00104121;-0.000785763;0.000913488;0.722556;1.38398;0.00105824;0.00121798;1.3251;0.75466;61.2277;106.228;0.00575516;-0.000667919;-0.00325289;0.00234158;0.000915547;-0.00237625;0.00586217;0;0.0162915;0.274442;-0.00919643;-0.90583;0.946536;-7.08854;6.00887e-05;-0.000462438;-0.000691304;0.000280208;-0.000911423;0.000595816;0.0869208;11.5047;0.000719443;0.000794421;0.30744;3.25267;104.714;149.714;0.00507755;5.92419e-05;-0.00230462;0.00138113;-0.000693854;0.000111732;0.0198135;0;0.0201991;0.514358;3.6967
228000;229;25.754;0.00121616;4.72243e-05;-2.26584;25.6521;0.325145;0.0682316;0.0182026;-0.488953;0.208954;0.00614411;-0.425839;0.474382;-7.42968;-0.000571972;-0.000435114;0.000706179;0.000840241;-0.000706034;0.000773137;0.809953;1.23464;0.000893862;0.00103085;1.19009;0.840276;62.8265;107.827;0.00592942;-0.000574938;-0.0033477;0.00247376;0.000700673;-0.00247066;0.0075416;0;0.0160759;0.275078;-0.0121226;-0.915942;0.956433;-7.09866;0.000235167;-0.00045939;-0.000385881;0.000479138;-0.000629852;0.000554495;0.609429;1.64088;0.000642244;0.000739327;0.760716;1.31455;105.827;150.827;0.004895;0.000234428;-0.00221786;0.00130017;-0.000388236;0.00155858;0.0193526;0;0.0212327;0.548453;3.7041
229000;230;25.7534;0.000531596;2.06422e-05;-2.26713;25.6513;0.326009;0.0669431;0.0173905;-0.48809;0.208593;0.00196231;-0.417757;0.466943;-7.4216;-0.000520818;-0.000525372;0.00113266;0.00128547;-0.000673626;0.000979548;0.459818;2.17478;0.00114932;0.00130606;1.90828;0.524031;64.3081;109.308;0.00555253;-0.000523409;-0.00339111;0.00233564;0.00112706;-0.00159351;0.00676358;0;0.0187879;0.273949;-0.0149907;-0.908415;0.948942;-7.09113;0.000315201;-0.000550369;-0.000423163;0.000608742;-0.000716703;0.000662722;0.74487;1.34252;0.000766092;0.00088363;0.849363;1.17735;106.115;151.115;0.00498369;0.000314515;-0.00239343;0.00129405;-0.000425877;0.00157211;0.019421;0;0.0314165;0.563847;3.71202
230000;231;25.7543;0.00152133;5.90743e-05;-2.26711;25.6523;0.323884;0.0669678;0.0184132;-0.490214;0.209456;0.00121257;-0.426138;0.474833;-7.42998;-0.000517178;-0.000416184;0.000760325;0.000883946;-0.000640799;0.000762373;0.680206;1.47014;0.000884035;0.0010165;1.37944;0.72493;62.7669;107.767;0.00635687;-0.000520289;-0.00336455;0.00252842;0.000754756;-0.00323131;0.0077331;0;0.0160417;0.274644;-0.0170848;-0.918638;0.958967;-7.10135;0.000156773;-0.000499275;-0.000264494;0.000488027;-0.000595748;0.000541887;0.592728;1.68712;0.000626747;0.000722516;0.819184;1.22073;100.592;145.592;0.00474508;0.000156087;-0.00227101;0.00127321;-0.000266949;0.0024125;0.0184058;0;0.0209082;0.598778;3.7189
231000;232;25.7536;0.000790925;3.07122e-05;-2.26689;25.6517;0.314761;0.0671803;0.0178123;-0.499337;0.208381;-0.00208836;-0.421172;0.469907;-7.42502;-0.000460946;-0.000259334;0.00113333;0.00117445;-0.00050207;0.00083826;0.406719;2.4587;0.000993549;0.00111768;2.33922;0.427493;57.2252;102.225;0.00593379;-0.000464732;-0.00328693;0.00276344;0.00112796;-0.00276734;0.00640194;0;0.0202304;0.27346;-0.0208431;-0.916983;0.957116;-7.0997;0.000247501;-0.000436787;-0.000147873;0.000529254;-0.000429626;0.00047944;1.67374;0.597463;0.000554605;0.000639254;1.2319;0.811757;103.043;148.043;0.00457748;0.00024681;-0.00212758;0.00125467;-0.000150041;0.00202142;0.0195186;0;0.0213434;0.620605;3.72556
232000;233;25.7534;0.000577003;2.24054e-05;-2.26894;25.6512;0.322696;0.0651309;0.0173177;-0.491403;0.206088;-0.00752036;-0.414948;0.463369;-7.41879;-0.000510982;-0.000391477;0.00145915;0.00153409;-0.000585921;0.00106;0.350192;2.85558;0.00126414;0.00141334;2.61825;0.381934;60.147;105.147;0.0059919;-0.000514736;-0.00355619;0.00276702;0.00145291;-0.00202674;0.00652396;0;0.0267727;0.270088;-0.0256425;-0.907432;0.94712;-7.09015;0.000222405;-0.000613496;-7.6677e-05;0.000704322;-0.000558595;0.000631458;2.90054;0.344764;0.000730762;0.000841944;1.26088;0.793095;98.0381;143.038;0.00507596;0.000221896;-0.00240714;0.00118069;-7.93862e-05;0.000515237;0.0216834;0;0.017668;0.651669;3.73204
233000;234;25.7534;0.000590252;2.29199e-05;-2.26908;25.6513;0.31782;0.0649968;0.01738;-0.496278;0.206457;-0.0108207;-0.417734;0.466094;-7.42158;-0.000577334;-0.000163681;0.00210848;0.00211842;-0.000587273;0.00135285;0.273815;3.6521;0.0016434;0.0018038;3.60722;0.277222;55.2923;100.292;0.00519508;-0.000581857;-0.00334717;0.00301128;0.00210291;-0.00115425;0.00565317;0;0.0268125;0.270412;-0.0290768;-0.913671;0.95329;-7.09638;0.000245204;-0.000547261;-6.31329e-05;0.000659597;-0.000477526;0.000568561;3.88393;0.257471;0.000659317;0.000758082;1.38128;0.723966;99.3576;144.358;0.00460093;0.000244596;-0.00232492;0.00123095;-6.5686e-05;0.00125355;0.0213187;0;0.0181946;0.698775;3.74116
234000;235;25.7524;-0.000386646;-1.50137e-05;-2.26896;25.6504;0.312166;0.0651156;0.0164792;-0.501932;0.20495;-0.0122621;-0.418526;0.466175;-7.42237;-0.000574855;-0.000114737;0.00228583;0.00229043;-0.000579449;0.00143494;0.251486;3.97637;0.00175233;0.00191325;3.95277;0.252987;55.1208;100.121;0.00589571;-0.00057921;-0.0031912;0.00295295;0.00228076;-0.00226572;0.00630423;0;0.0361568;0.268605;-0.0306955;-0.918135;0.957112;-7.10085;0.000277049;-0.000641393;-0.000150824;0.000739244;-0.000613019;0.000676132;1.83691;0.544394;0.000781862;0.000901509;1.20591;0.829251;100.411;145.411;0.00472417;0.000276842;-0.00219089;0.000908765;-0.000153019;0.00175751;0.0209392;0;0.0232552;0.716659;3.74299
235000;236;25.7527;-0.000154264;-5.99018e-06;-2.26907;25.6506;0.311823;0.0650008;0.0167065;-0.502275;0.203877;-0.0158878;-0.416188;0.463714;-7.42003;-0.000582932;6.0424e-05;0.00247803;0.00247922;-0.000584124;0.00153167;0.23524;4.25098;0.00187805;0.00204223;4.24434;0.235608;52.0288;97.0288;0.00549155;-0.000588421;-0.00320221;0.0033131;0.00247292;-0.000515249;0.00728567;0;0.0199938;0.267249;-0.0343527;-0.918678;0.957377;-7.10139;0.00026501;-0.000628837;-5.49479e-05;0.000753898;-0.000543837;0.000648868;4.82292;0.207343;0.000752512;0.000865157;1.38626;0.721366;98.9134;143.913;0.00474614;0.000264617;-0.0023438;0.00108668;-5.74971e-05;0.000584372;0.0220335;0;0.0180615;0.752619;3.74865
236000;237;25.7516;-0.00120083;-4.66293e-05;-2.27005;25.6495;0.308127;0.0640226;0.0156139;-0.505972;0.202306;-0.0190927;-0.418616;0.465329;-7.42246;-0.000707173;-1.22143e-05;0.00311583;0.00311587;-0.000707212;0.00191154;0.226961;4.40604;0.00234875;0.00254872;4.40585;0.226971;55.7489;100.749;0.00584451;-0.000712025;-0.0031506;0.00311421;0.00311088;-0.00103159;0.00684954;0;0.0223495;0.26527;-0.0378027;-0.921703;0.959861;-7.10442;0.000281679;-0.000580197;-0.000284965;0.000644035;-0.00064732;0.000645678;0.988471;1.01166;0.000745565;0.000860903;0.994925;1.0051;103.009;148.009;0.00488341;0.000281253;-0.00225063;0.00109119;-0.00028733;0.00118652;0.0228807;0;0.0185167;0.789596;3.75588
237000;238;25.7531;0.00028301;1.09895e-05;-2.27034;25.651;0.307877;0.0637363;0.0170813;-0.506221;0.20233;-0.0240528;-0.415154;0.46246;-7.419;-0.00076754;-9.18073e-05;0.00248045;0.00248304;-0.000770133;0.00162659;0.309435;3.23169;0.00196309;0.00216878;3.22418;0.310157;54.7527;99.7527;0.0051633;-0.000771615;-0.00304862;0.00285542;0.00247582;-0.000697656;0.00777964;0;0.0193315;0.26437;-0.0434162;-0.918772;0.957036;-7.10149;0.000161864;-0.000549313;-0.000491283;0.000474349;-0.000803768;0.000639058;0.329472;3.03516;0.000746046;0.000852078;0.590156;1.69447;102.614;147.614;0.00495251;0.000161359;-0.002243;0.00114549;-0.000493649;0.00120039;0.0223228;0;0.0151596;0.824115;3.76316
238000;239;25.7547;0.00183574;7.12829e-05;-2.26996;25.6526;0.306525;0.0641126;0.0186897;-0.507573;0.201242;-0.0254921;-0.417005;0.463726;-7.42085;-0.000854562;-8.97383e-05;0.00227033;0.0022729;-0.000857137;0.00156502;0.376405;2.65671;0.00186773;0.00208669;2.65174;0.377111;53.3517;98.3517;0.00598108;-0.000858749;-0.00308284;0.00289403;0.00226559;-0.000707381;0.00833311;0;0.0231842;0.262745;-0.0459476;-0.924013;0.961741;-7.10673;0.000108417;-0.000543763;-0.000576555;0.000408563;-0.0008767;0.000642631;0.188043;5.31793;0.000758277;0.000856842;0.466023;2.14582;101.859;146.859;0.00487624;0.000108048;-0.00210328;0.00101682;-0.00057862;0.00154126;0.023962;0;0.0246216;0.854094;3.77045
239000;240;25.7577;0.00484323;0.000188066;-2.2709;25.6555;0.308192;0.063173;0.021606;-0.505906;0.199779;-0.0283403;-0.419773;0.465751;-7.42362;-0.000808377;-0.000185708;0.00235614;0.002367;-0.000819238;0.00159312;0.343094;2.91465;0.00191055;0.00212416;2.88927;0.346108;55.7295;100.729;0.00586593;-0.000812185;-0.00314551;0.00276476;0.00235122;-0.00126506;0.00769007;0;0.024593;0.26051;-0.0506515;-0.925758;0.963047;-7.10847;0.000213962;-0.000653965;-0.000399248;0.00062963;-0.000814916;0.000722273;0.535913;1.86597;0.000836292;0.00096303;0.772632;1.29428;100.868;145.868;0.00482646;0.000213777;-0.00220044;0.000893459;-0.000401456;0.00236031;0.0260308;0;0.0249483;0.896884;3.77663
240000;241;25.7596;0.00675297;0.000262223;-2.27163;25.6573;0.30988;0.0624399;0.0234381;-0.504218;0.198467;-0.031991;-0.41834;0.464135;-7.42218;-0.000848451;-0.000266767;0.00194039;0.00196568;-0.000873739;0.00141971;0.437257;2.28698;0.00167926;0.00189295;2.24974;0.444497;55.7082;100.708;0.00566291;-0.000851997;-0.00321699;0.00267525;0.00193526;0.0010092;0.00736741;0;0.0183331;0.258229;-0.0549419;-0.926588;0.963466;-7.1093;0.00012815;-0.000740292;-0.00019684;0.00072357;-0.000792261;0.000757916;0.651034;1.53602;0.000875465;0.00101055;0.913298;1.09493;95.3894;140.389;0.00484937;0.000128317;-0.0019427;0.000462506;-0.000198454;0.00362142;0.0250323;0;0.017955;0.935048;3.78395
241000;242;25.76;0.00716799;0.000278338;-2.27208;25.6577;0.310325;0.061996;0.0238101;-0.503773;0.197868;-0.0345068;-0.419441;0.465052;-7.42329;-0.000686769;-0.000455383;0.00162083;0.00170745;-0.000773383;0.00124041;0.423714;2.36008;0.00146576;0.00165389;2.20776;0.452947;60.2944;105.294;0.00556846;-0.000689797;-0.00341966;0.00250207;0.0016151;-0.000294488;0.00755055;0;0.0190109;0.257231;-0.0587962;-0.926697;0.963531;-7.10941;0.000183099;-0.000815041;7.95866e-05;0.000948026;-0.00068534;0.000816683;-2.30063;-0.434663;0.000947081;0.00108891;1.38329;0.722913;94.7113;139.711;0.00486596;0.000183312;-0.00211905;0.000489104;7.76737e-05;0.00357266;0.0250122;0;0.0165033;0.974298;3.7905
242000;243;25.7611;0.00831745;0.000322973;-2.27281;25.6588;0.30942;0.061261;0.02491;-0.504678;0.19575;-0.0370902;-0.418053;0.463101;-7.4219;-0.00091634;-0.000276278;0.00127039;0.00130476;-0.000950706;0.00112773;0.721306;1.38637;0.00130753;0.00150364;1.37241;0.728646;53.8011;98.8011;0.0063818;-0.000920112;-0.00331847;0.00275927;0.00126493;-0.00191636;0.00680263;0;0.0267853;0.255199;-0.0618991;-0.927944;0.964385;-7.11066;0.000146714;-0.000857177;0.000253527;0.00105896;-0.000658719;0.000858839;-0.578691;-1.72804;0.00100064;0.00114512;1.60761;0.622043;93.2313;138.231;0.00457292;0.000147043;-0.00199283;0.000278352;0.000251909;0.00497791;0.0244976;0;0.0193727;1.01299;3.79797
243000;244;25.7643;0.011483;0.000445892;-2.27438;25.6618;0.313063;0.0596966;0.0279054;-0.501035;0.195505;-0.0400598;-0.419653;0.464688;-7.4235;-0.000753927;-0.000148355;0.000649496;0.000665007;-0.000769438;0.000717223;1.16079;0.861484;0.000828909;0.000956297;0.864276;1.15704;50.5281;95.5281;0.00604234;-0.000758223;-0.00323489;0.00293385;0.000644278;-0.00122357;0.00631883;0;0.018584;0.253896;-0.0667706;-0.926995;0.963453;-7.10971;0.000211377;-0.000861452;0.000385958;0.00116453;-0.000567195;0.000865863;-0.54767;-1.82592;0.00101945;0.00115448;2.05314;0.487059;93.6045;138.605;0.00504066;0.000211653;-0.00215979;0.000436659;0.000383997;0.00340711;0.0233928;0;0.0176376;1.06012;3.80424
244000;245;25.7658;0.0129564;0.000503105;-2.27441;25.6633;0.313199;0.0596687;0.0293805;-0.500899;0.194818;-0.041999;-0.420097;0.464972;-7.42394;-0.000865736;-0.000274848;0.000987919;0.00102781;-0.00090563;0.000966721;0.876322;1.14113;0.00111702;0.00128896;1.13492;0.881123;53.8688;98.8688;0.00597381;-0.000869665;-0.00337117;0.00281575;0.00098228;-0.000517147;0.00567647;0;0.0174375;0.252694;-0.0691734;-0.929059;0.965293;-7.11177;0.000144517;-0.000904522;0.000516258;0.00125381;-0.000593034;0.000923422;-0.279933;-3.57229;0.00108879;0.00123123;2.11423;0.472986;93.2313;138.231;0.00482268;0.00014492;-0.00191895;0.000109533;0.000514827;0.00358804;0.0231737;0;0.0188239;1.09088;3.8057
245000;246;25.7666;0.0137587;0.000534258;-2.27515;25.664;0.315584;0.0589224;0.0300906;-0.498514;0.193156;-0.0460831;-0.41743;0.462256;-7.42127;-0.00079406;-0.000346853;0.0010153;0.00107951;-0.000858273;0.000968892;0.782095;1.27862;0.00112121;0.00129186;1.25777;0.795057;56.541;101.541;0.00630447;-0.000797907;-0.00349368;0.00279429;0.00100926;-0.000952516;0.0068491;0;0.018366;0.250298;-0.0746614;-0.9247;0.960882;-7.10741;0.000183834;-0.000796067;0.000654405;0.00124923;-0.00041099;0.00083011;-0.280917;-3.55977;0.000998423;0.00110681;3.03956;0.328995;92.8723;137.872;0.00463744;0.000184124;-0.00182453;0.000231915;0.000653058;0.00271565;0.0226351;0;0.0190211;1.15201;3.81677
246000;247;25.7678;0.0149803;0.000581695;-2.27574;25.6651;0.317388;0.0583297;0.0312424;-0.49671;0.191716;-0.0484639;-0.41888;0.463211;-7.42273;-0.00083815;-0.000431135;0.000768017;0.000876427;-0.00094656;0.000911493;1.09132;0.916324;0.00105276;0.00121532;0.925907;1.08002;58.8394;103.839;0.00644101;-0.000841718;-0.00357217;0.00270487;0.000761734;-0.00183372;0.00664284;0;0.0216038;0.248574;-0.0777294;-0.92606;0.961987;-7.10877;0.000361152;-0.000730384;0.000700346;0.00128057;-0.000219067;0.000749816;-0.515676;-1.9392;0.000935323;0.000999755;5.84555;0.17107;97.4431;142.443;0.00445141;0.000361382;-0.00173196;0.000270854;0.000699114;0.00248128;0.021694;0;0.0194591;1.18967;3.82028
247000;248;25.7697;0.0168911;0.000655892;-2.27623;25.667;0.320699;0.0578442;0.0330766;-0.493399;0.189973;-0.0495035;-0.423454;0.466748;-7.4273;-0.000696188;-0.000538736;0.000684929;0.000870217;-0.000881477;0.000875847;1.01644;0.983827;0.00101135;0.0011678;0.987226;1.01294;63.9747;108.975;0.00697949;-0.000699537;-0.00372438;0.00264251;0.000678143;-0.00216813;0.00679134;0;0.0173334;0.24643;-0.0801716;-0.929469;0.964919;-7.11218;0.000351686;-0.000738479;0.000725495;0.00130035;-0.000223174;0.000761764;-0.484753;-2.06291;0.000950072;0.00101569;5.82665;0.171625;97.6737;142.674;0.00397461;0.000351936;-0.00168997;0.000212661;0.000724341;0.00205453;0.0221954;0;0.019909;1.2322;3.82769
248000;249;25.7717;0.0188527;0.000732062;-2.27651;25.6689;0.321109;0.0575695;0.0350165;-0.49299;0.188773;-0.0518247;-0.424984;0.467902;-7.42883;-0.000795873;-0.000379288;0.00065068;0.000744097;-0.00088929;0.000816693;1.22314;0.817568;0.000944277;0.00108892;0.836732;1.19513;58.2514;103.251;0.00713776;-0.000800032;-0.00367127;0.00290794;0.000644017;-0.00328802;0.00758636;0;0.0175663;0.245059;-0.0840091;-0.932241;0.967567;-7.11495;0.00031099;-0.000636536;0.000731914;0.00119188;-0.000148976;0.000670427;-0.424899;-2.3535;0.000848614;0.000893903;8.0005;0.124992;95.3621;140.362;0.0034683;0.000311146;-0.00157797;0.000304502;0.000730872;0.00238176;0.022044;0;0.0200202;1.286;3.83381
249000;250;25.771;0.0182066;0.000706975;-2.27709;25.6683;0.315235;0.0569873;0.034389;-0.498863;0.188533;-0.0553989;-0.419689;0.463414;-7.42353;-0.000785898;-0.000235601;0.000762233;0.000797294;-0.000820959;0.000809126;1.03105;0.969888;0.000934332;0.00107883;0.971174;1.02968;53.4112;98.4112;0.00720108;-0.000790726;-0.0035915;0.00311511;0.000755816;-0.00185875;0.00697539;0;0.0183642;0.243992;-0.0875854;-0.929908;0.965366;-7.11262;0.000282373;-0.000543025;0.000844581;0.00117495;-4.79925e-05;0.00061147;-0.334335;-2.99101;0.000799776;0.000815293;24.4819;0.0408465;93.3991;138.399;0.00370029;0.000282479;-0.00137439;0.000287875;0.000843785;0.00174075;0.0220359;0;0.0183634;1.32303;3.84149
250000;251;25.7734;0.02057;0.000798747;-2.27742;25.6706;0.319024;0.0566596;0.036686;-0.495075;0.186889;-0.0582831;-0.422159;0.465341;-7.426;-0.000737621;-0.000527612;0.000787965;0.000952657;-0.000902313;0.000927485;0.936109;1.06825;0.0010711;0.00123665;1.05579;0.947154;62.5937;107.594;0.00690733;-0.000741762;-0.00398508;0.00292459;0.00078017;-0.00160754;0.00684539;0;0.0188849;0.242219;-0.0922594;-0.930344;0.965775;-7.11306;0.000229356;-0.000551426;0.000751628;0.00110063;-0.000119641;0.000610133;-0.305146;-3.27712;0.000776708;0.000813511;9.19942;0.108703;92.897;137.897;0.00306434;0.000229474;-0.00136457;0.000261296;0.00075085;0.00239453;0.0221836;0;0.0182143;1.3731;3.84837
251000;252;25.7736;0.0207906;0.000807314;-2.27833;25.6708;0.317658;0.0557461;0.0368434;-0.49644;0.185337;-0.0604577;-0.426611;0.469044;-7.43046;-0.000808403;-0.000522408;0.0013134;0.00143505;-0.000930051;0.00118255;0.615505;1.62468;0.00137583;0.00157673;1.54298;0.648098;60.267;105.267;0.00708744;-0.000812466;-0.00394899;0.00289692;0.00130575;-0.00167422;0.00682084;0;0.0183226;0.24052;-0.0954702;-0.936729;0.971815;-7.11944;0.000102465;-0.000482046;0.000764494;0.00101823;-0.000151276;0.000584756;-0.134029;-7.46106;0.00073446;0.000779674;6.73097;0.148567;88.4166;133.417;0.00288705;0.000102554;-0.00119568;0.000231112;0.000763896;0.00279166;0.0233387;0;0.0172334;1.42974;3.85625
252000;253;25.7751;0.0222453;0.000863802;-2.27826;25.6722;0.318722;0.0558109;0.0382965;-0.495377;0.184128;-0.0633303;-0.426988;0.469289;-7.43083;-0.000689787;-6.54047e-05;0.000826015;0.000828832;-0.000692604;0.000760718;0.835078;1.19749;0.000879574;0.00101429;1.19669;0.835638;48.0506;93.0506;0.00818521;-0.000696268;-0.00373605;0.00359969;0.000819044;-0.00428146;0.00983432;0;0.0206991;0.238803;-0.100653;-0.936602;0.971793;-7.11932;8.61143e-05;-0.00029879;0.000555059;0.000700392;-5.92193e-05;0.000379806;-0.155145;-6.4456;0.000487867;0.000506408;11.8271;0.0845517;80.7014;125.701;0.00293394;8.5975e-05;-0.00120448;0.000606473;0.000554378;0.00223451;0.0256629;0;0.0195678;1.47492;3.86352
253000;254;25.7756;0.0228271;0.000886392;-2.27849;25.6728;0.315299;0.0555799;0.0389024;-0.498799;0.182837;-0.0699034;-0.416725;0.460408;-7.42057;-0.000679377;-0.00018808;0.0018718;0.00188559;-0.000693169;0.00128938;0.362954;2.75517;0.00154099;0.00171917;2.72025;0.367613;53.7318;98.7318;0.00739719;-0.000685795;-0.00397212;0.00358633;0.00186394;-0.00305721;0.00942599;0;0.0206981;0.237201;-0.107223;-0.930932;0.966641;-7.11365;5.68293e-05;-0.000364356;0.000738047;0.000896206;-0.00010133;0.000498768;-0.0769996;-12.9871;0.000633952;0.000665024;8.84445;0.113065;81.7041;126.704;0.00295174;5.68014e-05;-0.00116346;0.000434203;0.000737437;0.00331534;0.0256491;0;0.0195925;1.5228;3.87046
254000;255;25.7779;0.0250599;0.000973093;-2.27892;25.675;0.315596;0.0551513;0.0411024;-0.498502;0.180912;-0.0713433;-0.424078;0.466542;-7.42792;-0.000738682;-0.000435165;0.00158002;0.001659;-0.000817662;0.00123833;0.467515;2.13897;0.00145714;0.00165111;2.02895;0.492865;58.6035;103.604;0.0073101;-0.000743832;-0.00411634;0.0032375;0.00157165;-0.00122728;0.0093865;0;0.0191687;0.235347;-0.110599;-0.936977;0.972392;-7.11969;-4.60796e-05;-0.000448206;0.00102183;0.00118501;-0.000209259;0.000697136;0.045095;22.1754;0.000868208;0.000929514;5.6629;0.176588;79.3223;124.322;0.00306889;-4.60786e-05;-0.0013434;0.000446037;0.00102103;0.00309618;0.0241873;0;0.0177618;1.57389;3.87794
255000;256;25.7784;0.0256015;0.000994123;-2.2793;25.6755;0.317339;0.0547748;0.0415913;-0.496759;0.178311;-0.0759544;-0.4223;0.464652;-7.42614;-0.000629324;-0.000337871;0.000948788;0.00101808;-0.000698619;0.000858351;0.663292;1.50763;0.000996842;0.00114447;1.45728;0.68621;57.8412;102.841;0.00720252;-0.000635335;-0.00416446;0.00348269;0.000940182;-0.00141669;0.0138705;0;0.0196999;0.232598;-0.115437;-0.937151;0.97246;-7.11986;-7.23218e-05;-0.000460452;0.00110328;0.00126215;-0.000231198;0.000746675;0.0655518;15.2551;0.00092815;0.000995567;5.45919;0.183177;80.5958;125.596;0.00336135;-7.22703e-05;-0.00125199;0.00033016;0.0011026;0.00256955;0.0230694;0;0.0205281;1.63661;3.88613
256000;257;25.7763;0.0235077;0.000912822;-2.27792;25.6736;0.312234;0.0561519;0.039674;-0.501864;0.175647;-0.0782664;-0.423093;0.464743;-7.42694;-0.000700171;-0.000534367;0.00077868;0.000951558;-0.00087305;0.000912304;0.899178;1.11213;0.00105376;0.00121641;1.08992;0.917495;63.2805;108.28;0.00665711;-0.00070522;-0.00429545;0.00322116;0.000769604;0.00100004;0.0137364;0;0.0179958;0.229798;-0.117758;-0.939644;0.974477;-7.12236;-9.60035e-05;-0.000286639;0.00112537;0.00118929;-0.000159928;0.000674611;0.0853084;11.7222;0.000851195;0.000899482;7.43643;0.134473;72.9063;117.906;0.00298046;-9.61317e-05;-0.00115616;0.000581824;0.00112474;0.00321558;0.0239391;0;0.0230601;1.67807;3.88733
257000;258;25.7773;0.0244602;0.000949807;-2.27787;25.6746;0.308563;0.0562032;0.0406792;-0.505536;0.175056;-0.0813847;-0.424353;0.466202;-7.4282;-0.000812767;-0.000371102;0.000648595;0.000737433;-0.000901605;0.000819519;1.25312;0.798009;0.00094788;0.00109269;0.817912;1.22263;57.8999;102.9;0.00672989;-0.000818601;-0.00418242;0.00343465;0.000639923;0.000841109;0.0153788;0;0.0205593;0.228886;-0.121445;-0.941204;0.976218;-7.12392;-7.03101e-05;-0.000379286;0.00113894;0.00124805;-0.000179429;0.000713741;0.0617332;16.1987;0.000897842;0.000951655;6.95571;0.143767;78.9524;123.952;0.00294451;-7.03036e-05;-0.00112124;0.00036177;0.00113838;0.00249291;0.024121;0;0.0204096;1.73434;3.89321
258000;259;25.7786;0.0258078;0.00100214;-2.27826;25.6759;0.306975;0.0558128;0.0420166;-0.507123;0.174512;-0.0840868;-0.429535;0.471196;-7.43338;-0.000635284;-0.000706582;-0.000201154;0.000320953;-0.00115739;0.000739172;-3.1582;-0.316636;0.000897907;0.000985563;0.277307;3.60611;78.2543;123.254;0.006615;-0.000639393;-0.00436641;0.00295167;-0.000210439;0.000151173;0.0147459;0;0.0220484;0.228113;-0.124883;-0.948669;0.983668;-7.13138;-8.06766e-05;-0.000370231;0.00133579;0.00142673;-0.000171609;0.000799167;0.060396;16.5574;0.00101321;0.00106556;8.31384;0.120281;80.7751;125.775;0.0028886;-8.06475e-05;-0.00102227;0.000280889;0.00133534;0.001726;0.0240594;0;0.0198243;1.79431;3.90035
259000;260;25.7787;0.0259121;0.00100618;-2.27813;25.6761;0.305206;0.0559476;0.0421543;-0.508892;0.17257;-0.0862354;-0.428727;0.470132;-7.43257;-0.000700196;-0.000541311;-0.000403382;9.49743e-06;-0.00111308;0.000561287;-1.73581;-0.576099;0.000745236;0.000748382;;;78.1048;123.105;0.00695007;-0.000704924;-0.00420497;0.00312127;-0.00041208;-0.000924027;0.0170394;0;0.0185556;0.226058;-0.126723;-0.949283;0.984022;-7.132;-0.00011609;-0.000272278;0.0013868;0.00143461;-0.000163898;0.000799252;0.083711;11.9459;0.00101545;0.00106567;8.75304;0.114246;74.8934;119.893;0.00251382;-0.000116173;-0.00103438;0.000488679;0.0013863;0.00187883;0.0245844;0;0.0212536;1.8381;3.90725
260000;261;25.7793;0.0264337;0.00102644;-2.27844;25.6766;0.305453;0.0556316;0.042647;-0.508645;0.171336;-0.0890926;-0.43045;0.471785;-7.43429;-0.000606713;-0.000565648;-0.00102364;-0.000212338;-0.00141801;0.000602839;-0.592702;-1.68719;0.000883115;0.000803785;-0.149743;-6.67811;93.6997;138.7;0.00666859;-0.000611007;-0.00411327;0.00298346;-0.00103195;-0.00056146;0.0170083;0;0.0183989;0.224547;-0.130048;-0.951434;0.986185;-7.13415;-7.28141e-05;-0.000197753;0.00146749;0.00149247;-9.77976e-05;0.000795136;0.0496181;20.1539;0.00102913;0.00106018;15.2609;0.0655271;77.2587;122.259;0.00139222;-7.28687e-05;-0.000781473;0.000385069;0.00146721;0.00364766;0.0255722;0;0.0201702;1.89545;3.91495
261000;262;25.7793;0.0265096;0.00102939;-2.27798;25.6767;0.300526;0.0560898;0.0428221;-0.513572;0.16895;-0.0923152;-0.430223;0.471336;-7.43407;-0.000639851;-0.000893761;-0.00160459;-0.000106597;-0.00213784;0.00101562;-0.398764;-2.50775;0.00139106;0.00135416;-0.0498619;-20.0554;95.873;140.873;0.00697145;-0.000643494;-0.00462635;0.00284244;-0.0016149;-0.000798328;0.0177133;0;0.0165544;0.222188;-0.133119;-0.95547;0.989956;-7.13818;-0.000221288;-0.000117458;0.00160431;0.00161184;-0.000228814;0.000920325;0.137933;7.24988;0.00115839;0.0012271;7.0443;0.141959;70.4271;115.427;0.00173015;-0.000221468;-0.000847054;0.000610808;0.00160396;0.00141309;0.0268975;0;0.0219734;1.95254;3.92183
262000;263;25.7779;0.0250796;0.000973857;-2.27686;25.6755;0.294653;0.0572111;0.0415538;-0.519445;0.167715;-0.0960542;-0.42845;0.470025;-7.43229;-0.000748424;-0.00110468;-0.00213784;-0.000138163;-0.0027481;0.00130497;-0.350085;-2.85645;0.00178779;0.00173996;-0.050276;-19.8902;95.366;140.366;0.00643599;-0.000751072;-0.00475606;0.00255179;-0.00214856;0.000886;0.0169072;0;0.0184457;0.221031;-0.136815;-0.956081;0.99079;-7.13879;-0.00024291;-9.2546e-05;0.00155855;0.0015633;-0.000247652;0.000905474;0.155856;6.41617;0.0011338;0.0012073;6.31247;0.158417;71.251;116.251;0.000994644;-0.000243046;-0.000714992;0.00052878;0.0015583;0.0019046;0.0248926;0;0.0174456;2.0017;3.92946
263000;264;25.7785;0.025642;0.000995698;-2.27854;25.6759;0.290919;0.0555396;0.0420128;-0.523179;0.166118;-0.0986865;-0.426033;0.467802;-7.42988;-0.000901607;-0.00112188;-0.00192482;-0.000180183;-0.00264625;0.00123303;-0.468411;-2.13488;0.00170727;0.00164404;-0.0680902;-14.6864;91.6437;136.644;0.00628481;-0.000904096;-0.00473647;0.00249643;-0.00193543;0.000767215;0.0171725;0;0.0178774;0.21889;-0.138799;-0.959469;0.99386;-7.14218;-0.000432249;4.77557e-05;0.00158013;0.00158126;-0.000433381;0.00100732;0.273553;3.6556;0.00122447;0.00134309;3.64866;0.274073;62.3707;107.371;0.00106892;-0.000432565;-0.000702883;0.000796886;0.00157988;0.00251815;0.0265979;0;0.0186533;2.061;3.93695
264000;265;25.7803;0.0274643;0.00106646;-2.2784;25.6778;0.290185;0.0556736;0.0438626;-0.523913;0.162901;-0.101681;-0.426101;0.467374;-7.42995;-0.000848796;-0.000938782;-0.00160368;-0.000214421;-0.00223806;0.00101182;-0.52928;-1.88936;0.00142595;0.00134909;-0.095807;-10.4377;91.6319;136.632;0.0066046;-0.000851934;-0.0045491;0.00267428;-0.0016136;-0.000723697;0.0163207;0;0.0162551;0.215562;-0.142718;-0.962401;0.996519;-7.14511;-0.000400391;8.02845e-05;0.00161581;0.00161901;-0.000403583;0.00101129;0.247796;4.03558;0.00123603;0.00134839;4.01158;0.249279;62.6365;107.637;0.00135591;-0.000400716;-0.000649925;0.000809024;0.00161561;0.000860901;0.0279883;0;0.0167848;2.1201;3.94475
265000;266;25.7823;0.029518;0.0011462;-2.27969;25.6797;0.290578;0.0543844;0.0458056;-0.52352;0.163325;-0.10422;-0.42806;0.469864;-7.4319;-0.000937267;-0.00126617;-0.00190047;-6.42029e-05;-0.00277354;0.00135467;-0.493176;-2.02768;0.001828;0.00180622;-0.0231484;-43.1995;89.557;134.557;0.00661942;-0.000939062;-0.00480708;0.00227817;-0.00191125;0.000270002;0.0162189;0;0.0167647;0.215506;-0.146832;-0.96665;1.00121;-7.14936;-0.000469084;0.000172868;0.00156493;0.00157951;-0.000483671;0.00103159;0.299748;3.33613;0.00124593;0.00137546;3.26568;0.306215;58.6004;103.6;0.000801816;-0.000469478;-0.000559786;0.000904034;0.00156479;0.000594018;0.0279631;0;0.0214277;2.1698;3.95096
266000;267;25.7795;0.0266498;0.00103483;-2.27954;25.677;0.279665;0.0545332;0.0430604;-0.534433;0.162505;-0.111223;-0.415876;0.460143;-7.41972;-0.000898352;-0.000517414;-0.00131461;-0.000548776;-0.00166419;0.000557705;-0.68336;-1.46336;0.000979207;0.000743606;-0.329757;-3.03254;92.4126;137.413;0.0072557;-0.000902898;-0.00409142;0.00305809;-0.00132286;-0.0020639;0.0166773;0;0.0149185;0.214002;-0.151998;-0.964582;0.999659;-7.1473;-0.000506039;0.000194694;0.00145456;0.00147371;-0.000525186;0.000999447;0.347898;2.87441;0.00119659;0.0013326;2.80607;0.35637;56.7782;101.778;0.00121734;-0.000506405;-0.000489275;0.000877323;0.00145446;0.000330717;0.0295652;0;0.0210372;2.23158;3.95613
267000;268;25.7837;0.0308871;0.00119937;-2.27869;25.6813;0.279001;0.0553801;0.047397;-0.535098;0.160637;-0.112158;-0.422769;0.465959;-7.42661;-0.0006784;-0.00086869;-0.0014109;-0.000101909;-0.00198739;0.000942741;-0.480827;-2.07975;0.0012923;0.00125699;-0.0512778;-19.5016;93.4695;138.469;0.00686759;-0.000681855;-0.00450228;0.00276758;-0.00142067;-0.00181469;0.0162423;0;0.0170606;0.212683;-0.158021;-0.965832;1.00152;-7.14855;-0.000490177;0.000182305;0.00155;0.00156616;-0.000506339;0.00103625;0.316244;3.16212;0.00124762;0.00138167;3.0931;0.3233;72.0663;117.066;0.00118438;-0.000490256;-7.35302e-05;0.00043762;0.00155001;0.00165983;0.030235;0;0.0202979;2.28806;3.96088
268000;269;25.785;0.0322062;0.00125059;-2.28108;25.6825;0.273394;0.0529918;0.0485696;-0.540704;0.158316;-0.113468;-0.426893;0.46923;-7.43074;-0.000778057;-0.000805656;-0.0011948;-0.000154263;-0.0018186;0.000832167;-0.651201;-1.53562;0.00116439;0.00110956;-0.0848255;-11.7889;89.8246;134.825;0.00671573;-0.000781899;-0.00449535;0.00288559;-0.00120459;-0.00099018;0.0162715;0;0.0181421;0.209257;-0.159202;-0.977013;1.01178;-7.15973;-0.000591517;-1.19469e-05;0.00152263;0.0015227;-0.000591585;0.00105714;0.388483;2.57412;0.00125952;0.00140952;2.57394;0.38851;68.8381;113.838;0.00177607;-0.000591606;-0.000446401;0.00042159;0.00152254;0.00156059;0.0291996;0;0.0273034;2.34347;3.9667
269000;270;25.7864;0.0335933;0.00130445;-2.28052;25.6839;0.270873;0.0535589;0.0500393;-0.543226;0.157438;-0.11645;-0.427106;0.469858;-7.43095;-0.00060346;-0.000921042;-0.000572012;0.00033344;-0.00150891;0.000921176;-1.05498;-0.947888;0.00113355;0.00122823;0.22098;4.52529;84.9489;129.949;0.00694174;-0.00060667;-0.00453765;0.00269547;-0.000581889;-0.00150237;0.0165667;0;0.0199975;0.208773;-0.164603;-0.976309;1.01186;-7.15902;-0.0005246;-9.49086e-05;0.00165802;0.00166214;-0.000528719;0.00109543;0.316402;3.16054;0.00132011;0.00146057;3.14371;0.318096;73.1942;118.194;0.00224122;-0.000524659;-0.000547845;0.000357041;0.00165787;0.00150019;0.0291107;0;0.0183559;2.39917;3.97436
270000;271;25.7861;0.0333196;0.00129382;-2.28179;25.6836;0.267556;0.0522828;0.0496859;-0.546542;0.154906;-0.118025;-0.430177;0.472205;-7.43402;-0.000504927;-0.000727108;0.000179756;0.000641083;-0.000966255;0.000803669;2.80896;0.356003;0.000934306;0.00107156;0.663472;1.50722;76.1722;121.172;0.00678877;-0.000508942;-0.00438157;0.00292486;0.000170423;-0.00262174;0.0153884;0;0.0201125;0.205775;-0.166451;-0.982236;1.01727;-7.16495;-0.000411017;-0.000135645;0.00173059;0.00173914;-0.000419574;0.00107936;0.237501;4.2105;0.00132168;0.00143914;4.14502;0.241253;86.1497;131.15;0.00208725;-0.000411008;-0.000311757;4.009e-05;0.00173055;0.0027308;0.0266735;0;0.0197394;2.46749;3.98194
271000;272;25.785;0.0322118;0.00125081;-2.28134;25.6826;0.260773;0.0527353;0.0486837;-0.553325;0.153264;-0.123907;-0.419063;0.463094;-7.42291;-0.000730297;-0.000568361;0.000685817;0.000885713;-0.000930193;0.000907953;1.06486;0.939094;0.00104852;0.0012106;0.952182;1.05022;64.25;109.25;0.00664944;-0.000734645;-0.00414395;0.00300217;0.000677398;-0.0025485;0.0143285;0;0.0180227;0.204389;-0.171792;-0.975418;1.0113;-7.15813;-0.000454648;-0.000118145;0.00172307;0.00172946;-0.000461039;0.00109525;0.263859;3.78991;0.00133349;0.00146034;3.75123;0.266579;76.9088;121.909;0.00255777;-0.000454681;-0.000520983;0.000283817;0.00172295;0.00213493;0.0272641;0;0.0210016;2.52174;3.98956
272000;273;25.786;0.0331313;0.00128651;-2.28308;25.6833;0.261696;0.0509927;0.0494426;-0.552403;0.152591;-0.123818;-0.429712;0.472512;-7.43356;-0.000585145;-0.000590621;0.00108671;0.00127431;-0.000772745;0.00102353;0.538456;1.85716;0.00119363;0.0013647;1.64907;0.606403;64.7118;109.712;0.00646333;-0.000589245;-0.00410992;0.00292281;0.00107845;-0.00284526;0.0148726;0;0.0218658;0.202742;-0.172621;-0.986505;1.02181;-7.16922;-0.000310249;-0.000146847;0.00177834;0.00178862;-0.000320523;0.00105457;0.174459;5.73199;0.00131237;0.00140609;5.58031;0.179201;82.1329;127.133;0.00250922;-0.000310254;-0.000470256;0.000175888;0.00177825;0.0032557;0.0252889;0;0.0179077;2.58661;3.99669
273000;274;25.7857;0.0329097;0.00127791;-2.28304;25.6831;0.260549;0.0510301;0.0492351;-0.553549;0.150526;-0.128726;-0.425894;0.469696;-7.42974;-0.000624057;-0.000568766;0.00167575;0.00180872;-0.00075703;0.00128288;0.372405;2.68525;0.00152225;0.0017105;2.38923;0.418544;62.4269;107.427;0.0051781;-0.000628322;-0.00412011;0.00297443;0.00166744;0.000688638;0.0148397;0;0.0283888;0.200738;-0.177205;-0.983144;1.01895;-7.16586;-0.000319624;-0.000204791;0.00181259;0.00183208;-0.000339115;0.0010856;0.176336;5.67099;0.00134871;0.00144746;5.40252;0.185099;88.3074;133.307;0.002415;-0.000319603;-0.000394845;-1.51418e-05;0.00181253;0.00243286;0.0256879;0;0.0200396;2.63466;4.00423
274000;275;25.7836;0.0308028;0.0011961;-2.28305;25.6811;0.256354;0.051027;0.0471618;-0.557744;0.148976;-0.131756;-0.427624;0.47161;-7.43147;-0.000693894;-0.000520848;0.0021405;0.00223318;-0.000786574;0.00150988;0.324173;3.08477;0.00180891;0.00201317;2.83913;0.352221;60.9656;105.966;0.00614863;-0.00069821;-0.00403474;0.00298311;0.00213251;-0.00144542;0.0143999;0;0.0202634;0.198913;-0.180167;-0.986546;1.0224;-7.16926;-0.000250551;-0.000273771;0.00204074;0.002073;-0.000282808;0.0011779;0.122774;8.14502;0.00148527;0.00157054;7.33006;0.136425;89.0807;134.081;0.00237592;-0.000250513;-0.000518784;-2.93194e-05;0.00204064;0.00245915;0.0251729;0;0.0187326;2.70082;4.01175
275000;276;25.7836;0.0307796;0.00119519;-2.28307;25.6811;0.255335;0.0510094;0.0471471;-0.558763;0.147979;-0.134946;-0.429561;0.473952;-7.43341;-0.00060261;-0.000429776;0.00258883;0.00264569;-0.000659473;0.00165258;0.232773;4.29603;0.00201983;0.00220344;4.01183;0.249263;60.9991;105.999;0.00545305;-0.00060658;-0.00371965;0.00284964;0.00258202;-0.00103593;0.0139769;0;0.0186398;0.19737;-0.182646;-0.990084;1.02595;-7.1728;-0.000224354;-0.00026579;0.00207781;0.00210809;-0.000254641;0.00118137;0.107976;9.26129;0.00149751;0.00157516;8.27867;0.120792;89.8275;134.828;0.00189572;-0.000224319;-0.000486124;-4.59631e-05;0.00207772;0.00409836;0.0258222;0;0.0180612;2.75722;4.01855
276000;277;25.7833;0.0304427;0.00118211;-2.28229;25.6808;0.251816;0.0517853;0.0469125;-0.562282;0.146566;-0.137434;-0.428467;0.473237;-7.43231;-0.000950595;-0.000461595;0.00223746;0.00230295;-0.00101608;0.00165951;0.424855;2.35374;0.00196367;0.00221269;2.26649;0.441211;58.5684;103.568;0.00555948;-0.000954635;-0.00381205;0.00287821;0.00223031;9.79827e-05;0.0148516;0;0.019014;0.195822;-0.185819;-0.991984;1.02806;-7.1747;-0.000267666;-0.0002869;0.00215811;0.00219158;-0.000301137;0.00124636;0.124028;8.06269;0.00157108;0.00166181;7.27769;0.137406;95.4424;140.442;0.00164893;-0.000267656;-0.000326994;-0.000246904;0.0021581;0.00328959;0.0259066;0;0.0180442;2.82019;4.02385
277000;278;25.7832;0.0304042;0.00118062;-2.28278;25.6808;0.250192;0.0512981;0.0468464;-0.563906;0.144495;-0.141414;-0.430093;0.475244;-7.43394;-0.000625736;-0.000283277;0.00238468;0.00241111;-0.00065216;0.00153163;0.262398;3.81101;0.00186323;0.00204218;3.69711;0.270482;58.0249;103.025;0.00531751;-0.000629985;-0.00350445;0.00292822;0.0023786;-0.000563801;0.0145466;0;0.0189926;0.193166;-0.190124;-0.99352;1.02983;-7.17623;-0.000286;-0.000322845;0.00204579;0.00208966;-0.000329873;0.00120977;0.139799;7.15311;0.00151508;0.00161302;6.33474;0.15786;90.4545;135.455;0.00160716;-0.000285952;-0.000552002;-9.42206e-05;0.00204569;0.00492155;0.026324;0;0.0170255;2.88528;4.03185
278000;279;25.7856;0.0327884;0.0012732;-2.28305;25.6831;0.251787;0.0510265;0.0492004;-0.562311;0.143189;-0.144415;-0.430935;0.476512;-7.43478;-0.00077905;-0.000529433;0.00181873;0.00192248;-0.000882805;0.00140264;0.428349;2.33454;0.0016563;0.00187019;2.1777;0.459201;60.6853;105.685;0.00507512;-0.00078259;-0.00377937;0.00271208;0.00181174;0.00102356;0.0131686;0;0.0180316;0.191245;-0.19432;-0.995053;1.03173;-7.17777;-0.000295818;-0.000354855;0.00214806;0.00219854;-0.000346301;0.00127242;0.137714;7.26142;0.00159372;0.00169656;6.34865;0.157514;95.5481;140.548;0.00163538;-0.000295792;-0.000437642;-0.00027227;0.00214803;0.00391032;0.028155;0;0.0168866;2.94905;4.03664
279000;280;25.7867;0.0338658;0.00131503;-2.28372;25.6841;0.250513;0.0503591;0.0502352;-0.563585;0.141738;-0.147645;-0.426054;0.472663;-7.4299;-0.000949639;-0.000615569;0.00219046;0.00230682;-0.001066;0.00168641;0.433535;2.30662;0.00199074;0.00224855;2.16399;0.462109;61.374;106.374;0.00510658;-0.000952577;-0.00374044;0.00249952;0.00218367;0.00134578;0.0135788;0;0.0184158;0.189362;-0.198118;-0.991488;1.02867;-7.1742;-0.000402516;-0.000450105;0.0021871;0.0022631;-0.000478519;0.00137081;0.184041;5.43356;0.00169096;0.00182775;4.72938;0.211444;96.3498;141.35;0.00170609;-0.000402476;-0.000551501;-0.000348972;0.00218705;0.00483339;0.029361;0;0.0161098;3.00362;4.04073
280000;281;25.7893;0.0364714;0.00141621;-2.28394;25.6867;0.250935;0.0501351;0.0528272;-0.563163;0.140213;-0.149539;-0.430236;0.476576;-7.43408;-0.000883802;-0.000578348;0.00189449;0.00201007;-0.000999386;0.00150473;0.466512;2.14357;0.00176987;0.00200631;2.01131;0.497189;60.8663;105.866;0.00508547;-0.000887005;-0.00376052;0.00259501;0.0018876;0.0015836;0.0127071;0;0.0253484;0.187007;-0.202569;-0.997181;1.03459;-7.17989;-0.000466216;-0.000473628;0.0021251;0.00220896;-0.00055007;0.00137951;0.219385;4.55819;0.00168617;0.00183935;4.01577;0.249018;101.914;146.914;0.00194282;-0.000466243;-0.000419182;-0.000527933;0.00212513;0.00564686;0.0282429;0;0.0180221;3.07033;4.04758
281000;282;25.7927;0.0398806;0.00154859;-2.28496;25.69;0.253567;0.0491141;0.0561333;-0.560531;0.139545;-0.151882;-0.43282;0.479452;-7.43667;-0.000822762;-0.000782467;0.00186298;0.00207431;-0.0010341;0.00155421;0.441639;2.26429;0.00182783;0.00207227;2.00591;0.498526;65.0748;110.075;0.0048559;-0.00082491;-0.00378745;0.00221446;0.00185612;0.00107431;0.0119734;0;0.0216601;0.185759;-0.207407;-0.998471;1.03657;-7.18118;-0.000478305;-0.000572977;0.00206671;0.00218976;-0.000601354;0.00139556;0.231433;4.32091;0.0016962;0.00186074;3.64138;0.274621;104.083;149.083;0.00238174;-0.000478337;-0.000518366;-0.000627451;0.00206674;0.00565893;0.0281482;0;0.0159374;3.12817;4.05471
282000;283;25.7945;0.0416824;0.00161856;-2.28541;25.6918;0.253701;0.048667;0.0579013;-0.560397;0.13742;-0.152559;-0.437175;0.482992;-7.44102;-0.000794009;-0.000771057;0.00136939;0.00161608;-0.00104069;0.00132838;0.579826;1.72465;0.00154583;0.00177118;1.55288;0.643963;65.4746;110.475;0.00480569;-0.000796315;-0.00382981;0.00228109;0.00136236;0.000430187;0.0132529;0;0.0223452;0.183145;-0.209885;-1.00346;1.0414;-7.18617;-0.000507336;-0.000578242;0.00218134;0.00230043;-0.000626422;0.00146343;0.23258;4.2996;0.00177957;0.00195123;3.67233;0.272306;102.908;147.908;0.00244248;-0.000507358;-0.000541011;-0.000615374;0.00218137;0.0059073;0.0285645;0;0.017286;3.18332;4.06258
283000;284;25.7965;0.0437017;0.00169697;-2.28664;25.6937;0.252687;0.0474344;0.059829;-0.561411;0.135997;-0.157242;-0.433003;0.480325;-7.43685;-0.000796418;-0.000913309;0.00127631;0.00162131;-0.00114142;0.00138137;0.624003;1.60256;0.00160307;0.00184182;1.42043;0.704013;68.0321;113.032;0.00453876;-0.00079815;-0.00390551;0.00207271;0.0012691;0.0018577;0.0108458;0;0.0219;0.181173;-0.216095;-0.999261;1.03829;-7.18197;-0.000531696;-0.00067948;0.0022168;0.00237561;-0.000690501;0.00153305;0.239848;4.1693;0.0018572;0.00204407;3.44041;0.290663;104.901;149.901;0.0030074;-0.000531732;-0.000627938;-0.00073088;0.00221684;0.00598964;0.0274199;0;0.0185509;3.25646;4.06952
284000;285;25.7981;0.0452544;0.00175726;-2.2868;25.6953;0.254749;0.0472774;0.0613535;-0.55935;0.135108;-0.159511;-0.433902;0.481631;-7.43775;-0.000911571;-0.000837997;0.00177386;0.00201391;-0.00115161;0.00158276;0.51389;1.94594;0.00185008;0.00211035;1.74877;0.571831;65.0983;110.098;0.0051798;-0.000913581;-0.00385636;0.00217228;0.00176679;0.000307971;0.0108554;0;0.0198823;0.179756;-0.219672;-0.999943;1.03945;-7.18266;-0.000475348;-0.000728427;0.00223945;0.00242255;-0.000658448;0.0015405;0.212261;4.71118;0.00187349;0.002054;3.67918;0.2718;100.93;145.93;0.00259654;-0.000475281;-0.000826944;-0.000630177;0.00223937;0.00708034;0.0274731;0;0.0194066;3.3136;4.07701
285000;286;25.8004;0.0475802;0.00184757;-2.28742;25.6975;0.256628;0.0466501;0.0636142;-0.55747;0.13343;-0.160273;-0.436871;0.484094;-7.44072;-0.000869238;-0.000804337;0.00140123;0.0016573;-0.0011253;0.0013913;0.620338;1.61202;0.00161629;0.00185507;1.47276;0.678999;65.103;110.103;0.00490869;-0.000871707;-0.00397805;0.00236219;0.00139365;0.00149057;0.0115163;0;0.0192285;0.177694;-0.222087;-1.00278;1.04234;-7.18549;-0.000385555;-0.000699671;0.00235965;0.00252769;-0.000553595;0.00154064;0.163395;6.12014;0.00189678;0.00205419;4.56596;0.219012;101.699;146.699;0.00300315;-0.000385514;-0.000762117;-0.000637397;0.00235961;0.0051669;0.0272305;0;0.0193098;3.37427;4.08434
286000;287;25.8016;0.0487437;0.00189275;-2.28847;25.6986;0.257129;0.0456047;0.0646842;-0.556969;0.13249;-0.163123;-0.436387;0.484351;-7.44023;-0.000803428;-0.000726752;0.00150758;0.00171713;-0.00101297;0.00136505;0.532925;1.87644;0.0015936;0.00182007;1.69514;0.589923;64.3601;109.36;0.00526079;-0.000805994;-0.00383861;0.00237793;0.00150049;0.000556585;0.0105783;0;0.0202216;0.176323;-0.225747;-1.0023;1.04243;-7.18502;-0.000335076;-0.000616125;0.00241444;0.00254619;-0.000466827;0.00150651;0.13878;7.20565;0.00187257;0.00200868;5.45424;0.183343;103.207;148.207;0.00281655;-0.000335102;-0.000574737;-0.000657399;0.00241446;0.00531213;0.0264349;0;0.0194901;3.43531;4.09184
287000;288;25.8032;0.0503843;0.00195646;-2.28924;25.7001;0.260225;0.0448299;0.0662312;-0.553874;0.130851;-0.165777;-0.437921;0.486188;-7.44177;-0.000717703;-0.000512229;0.0016546;0.00176048;-0.000823578;0.00129203;0.433761;2.30542;0.00152424;0.0017227;2.1376;0.467815;60.8551;105.855;0.00567083;-0.000721249;-0.00374324;0.00271113;0.00164774;-0.000865255;0.0111866;0;0.021425;0.174446;-0.229159;-1.00407;1.04456;-7.18678;-0.000349197;-0.000626516;0.00249174;0.00262377;-0.000481227;0.0015525;0.140142;7.13564;0.0019297;0.00207;5.45226;0.18341;97.5976;142.598;0.00281444;-0.000349109;-0.000789039;-0.000464453;0.00249163;0.00389354;0.0279407;0;0.0196518;3.49565;4.09996
288000;289;25.8036;0.0508074;0.00197289;-2.28951;25.7006;0.258834;0.0445692;0.0666468;-0.555264;0.129872;-0.168143;-0.436943;0.485858;-7.44079;-0.000828828;-0.00080521;0.0018331;0.00205772;-0.00105344;0.00155558;0.452145;2.21168;0.00182716;0.00207411;1.95333;0.511947;65.0095;110.009;0.00544436;-0.000831514;-0.00407191;0.00245282;0.00182515;0.00049301;0.0100355;0;0.0206175;0.172882;-0.232402;-1.00355;1.04452;-7.18627;-0.000427473;-0.000503123;0.00244177;0.00252744;-0.000513138;0.00152029;0.175066;5.71212;0.0018795;0.00202705;4.92546;0.203027;98.6156;143.616;0.00265748;-0.000427455;-0.000540049;-0.000466303;0.00244176;0.0036035;0.0272048;0;0.019748;3.56742;4.10624
289000;290;25.8048;0.0519853;0.00201863;-2.29098;25.7016;0.263154;0.0430953;0.0676543;-0.550944;0.128507;-0.170265;-0.437974;0.487161;-7.44182;-0.000873681;-0.000816106;0.00135432;0.00162127;-0.00114063;0.00138095;0.645107;1.55013;0.00160261;0.00184127;1.42138;0.703542;65.2647;110.265;0.00562979;-0.000876341;-0.00408509;0.00244562;0.00134632;-0.000696072;0.00953923;0;0.023859;0.171355;-0.235496;-1.00415;1.04553;-7.18686;-0.000273483;-0.000558553;0.00252035;0.00262788;-0.000381012;0.00150445;0.10851;9.21575;0.00189176;0.00200593;6.8971;0.144988;100.235;145.235;0.0024419;-0.000273469;-0.000584598;-0.000532581;0.00252034;0.00307921;0.0270247;0;0.020951;3.62227;4.10983
290000;291;25.8061;0.0533218;0.00207052;-2.29131;25.7029;0.263377;0.0427604;0.068964;-0.550721;0.127402;-0.173069;-0.43787;0.487764;-7.44171;-0.000942942;-0.000632314;0.0015515;0.00170263;-0.00109407;0.00139835;0.607761;1.64538;0.00162737;0.00186447;1.55623;0.642577;61.1061;106.106;0.00598267;-0.000946354;-0.00395923;0.00268632;0.00154388;-0.000203682;0.011348;0;0.0206997;0.169819;-0.239101;-1.00445;1.04638;-7.18716;-0.000219976;-0.000441438;0.00264721;0.00271363;-0.000286402;0.00150002;0.0830976;12.034;0.00191172;0.00200002;9.4749;0.105542;95.5131;140.513;0.00191578;-0.000219928;-0.000571237;-0.00031201;0.00264714;0.00252366;0.0264426;0;0.018662;3.68878;4.11468
291000;292;25.8068;0.0539508;0.00209495;-2.29153;25.7035;0.262291;0.0425457;0.0695875;-0.551808;0.125513;-0.176218;-0.437979;0.4885;-7.44182;-0.000805401;-0.000363396;0.00247651;0.00251627;-0.000845157;0.00168071;0.325216;3.07488;0.00201908;0.00224095;2.97728;0.335877;58.1486;103.149;0.00559465;-0.000810011;-0.00379482;0.00305679;0.0024694;-0.000489481;0.0103111;0;0.0225781;0.167719;-0.243204;-1.00493;1.04746;-7.18765;-0.000421283;-0.000388134;0.0026969;0.00274449;-0.000468869;0.00160668;0.15621;6.40164;0.00200431;0.00214224;5.85342;0.17084;91.5175;136.517;0.00156061;-0.000421222;-0.000608758;-0.000168196;0.00269679;0.00247662;0.0271714;0;0.0191978;3.75298;4.12249
292000;293;25.8071;0.0542717;0.00210741;-2.29188;25.7038;0.261788;0.0421994;0.0698839;-0.552311;0.124017;-0.178651;-0.438551;0.489513;-7.4424;-0.000734398;-0.000323901;0.00256947;0.00260092;-0.000765853;0.00168339;0.285817;3.49874;0.00203778;0.00224452;3.39611;0.294454;58.0572;103.057;0.00576316;-0.0007392;-0.00377409;0.00311492;0.00256242;-0.000243746;0.0120935;0;0.0220028;0.165911;-0.246547;-1.0055;1.04849;-7.18821;-0.00049884;-0.000341191;0.0026529;0.00268941;-0.000535352;0.00161238;0.188036;5.31814;0.00199547;0.00214984;5.02363;0.199059;91.8395;136.84;0.00161642;-0.000498797;-0.000503305;-0.000179587;0.00265283;0.00221024;0.0286388;0;0.0174688;3.81301;4.12894
293000;294;25.8078;0.054959;0.00213409;-2.29238;25.7045;0.260113;0.0416973;0.0705462;-0.553985;0.122402;-0.181442;-0.442805;0.493943;-7.44665;-0.000989259;-0.0002113;0.0027199;0.0027319;-0.00100126;0.00186658;0.363711;2.74943;0.00223121;0.00248877;2.72847;0.366506;55.4729;100.473;0.00594714;-0.000994255;-0.00360171;0.00316657;0.00271346;0.000103831;0.0115661;0;0.0259393;0.163984;-0.250853;-1.01009;1.05362;-7.19281;-0.000469164;-0.000358842;0.00271059;0.00275059;-0.000509157;0.00162987;0.173085;5.7775;0.00202489;0.00217316;5.40224;0.185109;92.0243;137.024;0.00137106;-0.000469117;-0.000530204;-0.000188023;0.00271052;0.00254595;0.0280559;0;0.0179553;3.87473;4.13632
294000;295;25.8089;0.0560999;0.0021784;-2.29198;25.7057;0.255635;0.0420971;0.0717722;-0.558463;0.122813;-0.182415;-0.443322;0.494866;-7.44717;-0.000988549;-0.00033439;0.00320753;0.00323401;-0.00101503;0.00212452;0.308197;3.24468;0.00256226;0.00283269;3.18612;0.313861;58.5935;103.593;0.00566722;-0.000993205;-0.00375126;0.00306819;0.00320057;-0.000413632;0.0119234;0;0.0221958;0.164098;-0.252951;-1.01294;1.05687;-7.19566;-0.000601501;-0.000280948;0.0029046;0.00292697;-0.000623871;0.00177542;0.207086;4.82891;0.0021891;0.00236723;4.69162;0.213146;94.8262;139.826;0.000977616;-0.000601504;-0.000269913;-0.000291945;0.0029046;0.00214062;0.0288701;0;0.0210518;3.93681;4.14317
295000;296;25.8093;0.0564857;0.00219338;-2.29258;25.706;0.255991;0.041496;0.0721025;-0.558107;0.120581;-0.185933;-0.447776;0.499614;-7.45162;-0.00120816;0.00016359;0.003225;0.00323103;-0.00121419;0.00222261;0.374623;2.66935;0.00265304;0.00296348;2.66106;0.37579;51.1113;96.1113;0.00641019;-0.00121462;-0.00328425;0.00359619;0.00321964;-0.00116638;0.0122673;0;0.0247896;0.161637;-0.257106;-1.01968;1.06395;-7.2024;-0.000575705;-0.000267675;0.00293486;0.00295515;-0.000595998;0.00177557;0.196161;5.09784;0.00219589;0.00236743;4.95832;0.201681;91.2396;136.24;0.00151571;-0.000575679;-0.000396015;-0.000139785;0.00293481;0.00221951;0.0288749;0;0.0174788;3.99694;4.15072
296000;297;25.8135;0.0607179;0.00235772;-2.29135;25.7103;0.265003;0.0427244;0.0763698;-0.549095;0.118035;-0.188011;-0.450288;0.502035;-7.45413;-0.000968922;-5.81374e-05;0.00371197;0.00371269;-0.000969644;0.00234117;0.261026;3.83103;0.00285379;0.00312156;3.82892;0.26117;56.3142;101.314;0.00644766;-0.000975016;-0.00362258;0.00348968;0.00370544;-0.000170044;0.0131276;0;0.028946;0.159735;-0.263721;-1.01508;1.06087;-7.19779;-0.000633196;-0.000278173;0.0027613;0.00278395;-0.00065584;0.00171989;0.22931;4.3609;0.00210885;0.00229319;4.24486;0.235579;94.9682;139.968;0.00155765;-0.000633199;-0.000266466;-0.000289841;0.00276131;0.00329578;0.0279882;0;0.0181672;4.07517;4.15789
297000;298;25.8071;0.0543221;0.00210937;-2.28959;25.7042;0.249315;0.0444838;0.0702621;-0.564783;0.114945;-0.196321;-0.437861;0.493433;-7.44171;-0.00136113;-0.000622804;0.00186866;0.00198459;-0.00147707;0.00173083;0.728401;1.37287;0.00200574;0.00230777;1.3436;0.744267;57.646;102.646;0.00647756;-0.00136518;-0.00416836;0.00291133;0.00186018;0.00068842;0.0146867;0;0.039322;0.157105;-0.26623;-1.01607;1.06206;-7.19879;-0.000785248;-0.000195576;0.0029038;0.00291414;-0.000795587;0.00185486;0.270421;3.69794;0.00225523;0.00247315;3.66288;0.27301;93.2622;138.262;0.00120212;-0.000785249;-0.000186828;-0.000204292;0.0029038;0.00428135;0.0294588;0;0.0210001;4.12689;4.16534
298000;299;25.8118;0.058953;0.00228919;-2.29143;25.7086;0.253502;0.0426452;0.0747068;-0.560596;0.114262;-0.19965;-0.437015;0.49386;-7.44086;-0.0012555;-0.000444296;0.00192643;0.0019873;-0.00131638;0.00165184;0.651726;1.53439;0.00192045;0.00220245;1.50968;0.662394;55.5618;100.562;0.00659456;-0.00126018;-0.00398667;0.00308684;0.0019186;0.000473526;0.0161059;0;0.0190531;0.155431;-0.273329;-1.01231;1.06002;-7.19503;-0.000716941;-0.000134474;0.0026787;0.00268402;-0.000722258;0.00170314;0.267645;3.73629;0.00207248;0.00227085;3.71615;0.269096;84.3898;129.39;0.0021818;-0.000716942;-0.000411843;0.000141955;0.00267862;0.00119931;0.0279645;0;0.0197001;4.19609;4.17264
299000;300;25.8141;0.061284;0.0023797;-2.29218;25.7109;0.254364;0.041894;0.0769717;-0.559734;0.114187;-0.199062;-0.445496;0.50113;-7.44934;-0.001364;-0.000467627;0.00197023;0.00203458;-0.00142835;0.00173146;0.692306;1.44445;0.00200951;0.00230862;1.42443;0.702036;55.3118;100.312;0.00667576;-0.0013687;-0.00404453;0.00309738;0.00196218;9.37573e-06;0.0142277;0;0.020598;0.154438;-0.274582;-1.01834;1.06596;-7.20105;-0.000559632;-0.000211102;0.00279521;0.00280844;-0.000572864;0.00169065;0.200212;4.99472;0.00208959;0.0022542;4.90245;0.20398;90.1303;135.13;0.00169489;-0.000559613;-0.000346992;-7.56665e-05;0.00279517;0.00260879;0.0293216;0;0.0241198;4.2588;4.17966
300000;301;25.815;0.0621868;0.00241476;-2.2917;25.7118;0.253187;0.0423727;0.0779324;-0.560911;0.112926;-0.200792;-0.448237;0.50397;-7.45208;-0.00139697;-8.17412e-05;0.00181729;0.00181937;-0.00139905;0.00160921;0.768713;1.30088;0.00186343;0.00214561;1.30043;0.768977;48.1832;93.1832;0.00752592;-0.00140311;-0.00367605;0.00350104;0.00181055;-0.00157511;0.0145675;0;0.0195289;0.153389;-0.276779;-1.02341;1.07122;-7.20612;-0.000785309;-9.71961e-05;0.00293456;0.0029371;-0.000787847;0.00186247;0.267607;3.73682;0.00226679;0.0024833;3.728;0.26824;82.7855;127.785;0.00139778;-0.000785333;-0.000435392;0.000239746;0.00293447;0.00254271;0.0289491;0;0.0215834;4.31245;4.18116
301000;302;25.8149;0.0621011;0.00241143;-2.29183;25.7118;0.250231;0.0422427;0.0778637;-0.563867;0.11174;-0.203849;-0.446636;0.503512;-7.45048;-0.00122402;-0.000563328;0.00151079;0.00162228;-0.00133552;0.0014789;0.810189;1.23428;0.00171036;0.00197186;1.21472;0.823234;57.4058;102.406;0.00712426;-0.00122828;-0.0041074;0.00297107;0.00150252;0.000947233;0.013457;0;0.0244703;0.152237;-0.279779;-1.02473;1.07309;-7.20744;-0.000683962;-1.1425e-05;0.00297073;0.00297076;-0.000683998;0.00182738;0.230234;4.34341;0.00224354;0.00243651;4.34323;0.230243;87.5238;132.524;0.00139548;-0.000683967;-0.000118024;9.47855e-05;0.00297072;0.00200107;0.0293513;0;0.0205394;4.39109;4.18878
302000;303;25.8189;0.0660575;0.00256506;-2.29233;25.7156;0.255186;0.0417413;0.0817426;-0.558912;0.109703;-0.203049;-0.459403;0.514116;-7.46325;-0.00133806;-0.00040547;0.00164341;0.00169756;-0.00139222;0.00154489;0.814202;1.2282;0.00178679;0.00205986;1.21932;0.82013;53.897;98.897;0.00738579;-0.00134285;-0.00394049;0.00311903;0.00163574;-0.00143101;0.0127101;0;0.0224113;0.149903;-0.281689;-1.03337;1.08151;-7.21608;-0.000708486;4.04595e-05;0.00302593;0.00302637;-0.000708924;0.00186764;0.234138;4.27098;0.00229075;0.00249019;4.26895;0.234249;84.4576;129.458;0.000509408;-0.000708514;-0.000161203;0.000241371;0.00302591;0.00293355;0.030195;0;0.0220438;4.44573;4.19541
303000;304;25.8178;0.065;0.00252399;-2.29175;25.7147;0.250254;0.0423242;0.0807813;-0.563844;0.108114;-0.207906;-0.454266;0.511147;-7.45811;-0.00123371;-0.000232642;0.00104852;0.00107199;-0.00125718;0.00116459;1.17662;0.849895;0.00134617;0.00155278;0.852697;1.17275;50.0947;95.0947;0.00783376;-0.00123963;-0.00392198;0.00344829;0.00104087;-0.00136161;0.0133366;0;0.0179405;0.147963;-0.286332;-1.0316;1.08078;-7.21431;-0.000844212;0.000131539;0.00311897;0.00312333;-0.000848573;0.00198595;0.27067;3.69454;0.00241529;0.00264794;3.68069;0.271688;82.181;127.181;0.000461225;-0.000844272;-0.000107657;0.000369789;0.00311897;0.00221471;0.0318231;0;0.0197837;4.52223;4.20301
304000;305;25.8202;0.0673971;0.00261708;-2.29312;25.717;0.251211;0.0409549;0.0830566;-0.562887;0.106557;-0.209781;-0.45523;0.512442;-7.45907;-0.00148301;-0.000856018;0.000963201;0.001233;-0.00175281;0.0014929;1.53967;0.649489;0.00173254;0.00199054;0.70344;1.42158;60.4685;105.468;0.00758408;-0.00148635;-0.00443962;0.00271883;0.000953721;-0.000862023;0.0131635;0;0.0188671;0.146665;-0.288847;-1.03407;1.08363;-7.21679;-0.000817343;0.000190562;0.00314591;0.00315505;-0.000826484;0.00199077;0.259811;3.84895;0.00242625;0.00265436;3.81744;0.261956;76.4141;121.414;0.000704777;-0.000817538;-0.000273764;0.000653053;0.00314589;0.00190402;0.0306808;0;0.0184865;4.57824;4.21076
305000;306;25.8197;0.0668412;0.00259549;-2.29274;25.7165;0.24071;0.0413384;0.0826331;-0.573388;0.104306;-0.209435;-0.464805;0.520372;-7.46865;-0.00121146;-0.000888915;0.000696011;0.00104603;-0.00156148;0.00130376;1.74058;0.57452;0.00151522;0.00173834;0.669895;1.49277;64.4918;109.492;0.00789812;-0.00121471;-0.00448334;0.00269867;0.000686362;-0.00247905;0.0147743;0;0.0224973;0.144305;-0.290095;-1.04661;1.09562;-7.22933;-0.000875151;0.000164717;0.0032397;0.00324629;-0.000881734;0.00206401;0.270133;3.70188;0.00251026;0.00275201;3.6817;0.271613;81.3155;126.316;0.000438401;-0.000875231;-0.000104587;0.000432916;0.00323971;0.00155862;0.0305352;0;0.0183425;4.6438;4.21791
306000;307;25.8187;0.0659249;0.00255991;-2.29175;25.7158;0.234123;0.0423198;0.0818614;-0.579976;0.10204;-0.216408;-0.447228;0.507206;-7.45107;-0.00140524;-0.000891309;-0.000384799;0.000131995;-0.00192203;0.00102701;-3.65187;-0.273832;0.00132754;0.00136935;0.0686747;14.5614;68.5762;113.576;0.0073607;-0.00140914;-0.00471681;0.0029303;-0.00039553;-0.00138643;0.0156119;0;0.0200267;0.142483;-0.295752;-1.0352;1.08601;-7.21791;-0.000862021;0.000249349;0.00330556;0.00332042;-0.000876886;0.00209865;0.260779;3.83466;0.00255654;0.0027982;3.7866;0.264089;79.1415;124.141;0.00100532;-0.000862155;-7.66759e-05;0.000574019;0.00330558;0.000412526;0.032825;0;0.0182897;4.70295;4.22541
307000;308;25.8214;0.0685663;0.00266248;-2.29302;25.7183;0.234163;0.0410587;0.0844006;-0.579935;0.100665;-0.216215;-0.454865;0.513599;-7.45871;-0.00142554;-0.00119804;-0.000728234;0.000170853;-0.00232463;0.00124774;-1.95753;-0.510849;0.00160973;0.00166365;0.0734968;13.606;74.0466;119.047;0.00732395;-0.00142822;-0.00500548;0.00260676;-0.000740053;-0.000502848;0.0165417;0;0.0215865;0.14062;-0.297717;-1.044;1.09469;-7.22672;-0.000923186;0.00027359;0.00350913;0.00352595;-0.00094001;0.00223298;0.263081;3.80111;0.00271869;0.00297731;3.75097;0.266597;80.7897;125.79;0.0011484;-0.000923291;1.23641e-05;0.000533662;0.00350917;0.000182276;0.0316181;0;0.0190984;4.77017;4.23277
308000;309;25.8218;0.0690168;0.00267997;-2.29238;25.7188;0.232812;0.041697;0.0849221;-0.581287;0.0987936;-0.219469;-0.450274;0.510562;-7.45412;-0.00138675;-0.00101866;-0.000202465;0.000383651;-0.00197287;0.00117826;-6.84937;-0.145999;0.00146003;0.00157101;0.194463;5.14236;69.0633;114.063;0.00739771;-0.0013901;-0.0048187;0.0027769;-0.000213558;-0.000971176;0.0171192;0;0.0291656;0.138756;-0.300538;-1.04234;1.09364;-7.22506;-0.000848878;0.000215408;0.00347005;0.00348077;-0.000859595;0.00217018;0.24463;4.08781;0.00265386;0.00289358;4.04931;0.246956;82.5157;127.516;0.00055604;-0.000848947;6.97684e-07;0.000429195;0.00347007;0.00121998;0.0312094;0;0.0250899;4.82546;4.24011
309000;310;25.8222;0.0693978;0.00269477;-2.29204;25.7193;0.223471;0.0420388;0.0854179;-0.590627;0.0969051;-0.221473;-0.451068;0.511765;-7.45491;-0.00140159;-0.00107864;-0.000253231;0.000394529;-0.00204935;0.00122194;-5.53482;-0.180674;0.00151496;0.00162925;0.192514;5.19442;69.905;114.905;0.00726213;-0.00140471;-0.00488306;0.00272144;-0.000264575;-0.00131688;0.0168111;0;0.0329119;0.137282;-0.305157;-1.04756;1.09971;-7.23027;-0.000911887;3.02783e-05;0.00355358;0.00355378;-0.000912093;0.00223294;0.256611;3.89695;0.00272459;0.00297725;3.8963;0.256654;86.5886;131.589;0.00106828;-0.000911901;-0.000110116;0.000170048;0.00355357;0.000608052;0.0290081;0;0.0208842;4.89528;4.24879
310000;311;25.823;0.0701624;0.00272445;-2.2923;25.7201;0.220012;0.0417792;0.0861922;-0.594086;0.0950057;-0.226008;-0.448525;0.511155;-7.45237;-0.00139547;-0.00106396;0.000181761;0.000717507;-0.00193121;0.00132436;7.67749;0.130251;0.00158185;0.00176581;0.371531;2.69156;67.2548;112.255;0.00732868;-0.00139866;-0.00487429;0.00274037;0.00017045;-0.000784975;0.0169054;0;0.0300719;0.134909;-0.311431;-1.04587;1.09956;-7.22858;-0.000903309;1.37804e-05;0.00355833;0.00355837;-0.000903352;0.00223086;0.253858;3.93922;0.00272377;0.00297448;3.93908;0.253867;88.5139;133.514;0.00109236;-0.000903312;-4.71412e-05;7.44311e-05;0.00355833;0.0020809;0.0296906;0;0.0189001;4.95976;4.2558
311000;312;25.826;0.0731567;0.00284073;-2.29335;25.723;0.222378;0.0407227;0.0890841;-0.59172;0.0943863;-0.227887;-0.454539;0.517153;-7.45838;-0.00105081;-0.000818191;0.000799957;0.00110979;-0.00136065;0.00123522;1.31359;0.761273;0.00142876;0.00164696;0.815634;1.22604;64.8458;109.846;0.00733853;-0.00105487;-0.00460519;0.00296181;0.000789696;-0.00152292;0.018014;0;0.0324348;0.133862;-0.31559;-1.05112;1.10561;-7.23384;-0.000749175;-2.87155e-06;0.00344369;0.00344369;-0.000749177;0.00209644;0.21755;4.59664;0.00258201;0.00279525;4.59663;0.21755;86.4785;131.479;0.00193199;-0.000749189;-0.000171774;0.000165325;0.00344368;0.00107906;0.0287883;0;0.0189841;5.02243;4.25952
312000;313;25.8255;0.0726339;0.00282042;-2.29248;25.7226;0.215671;0.0415906;0.0886936;-0.598427;0.0930863;-0.228476;-0.455903;0.518376;-7.45975;-0.00132344;-0.00108146;0.000646015;0.00112391;-0.00180133;0.00146262;2.04863;0.488132;0.00170392;0.00195016;0.62393;1.60274;66.3246;111.325;0.0075572;-0.00132645;-0.0048506;0.00268026;0.000634843;-0.00229759;0.0188903;0;0.0225513;0.133184;-0.316552;-1.05582;1.11027;-7.23853;-0.00095195;-6.70681e-05;0.00335079;0.00335184;-0.000952995;0.00215242;0.284097;3.51992;0.00261086;0.00286989;3.51716;0.28432;89.936;134.936;0.00200192;-0.000951948;-0.000107277;-2.70319e-05;0.00335079;0.00223758;0.0283692;0;0.0196442;5.07473;4.26333
313000;314;25.826;0.0732102;0.0028428;-2.29269;25.7232;0.213839;0.0413832;0.089269;-0.600259;0.0912362;-0.233417;-0.449014;0.514219;-7.45286;-0.00123069;-0.000757278;0.00188874;0.00206286;-0.00140481;0.00173383;0.651594;1.5347;0.00201404;0.00231178;1.46842;0.681002;60.5569;105.557;0.00689091;-0.00123466;-0.00444244;0.00291642;0.00187917;-0.00199175;0.0185737;0;0.0234998;0.131829;-0.322103;-1.05235;1.10841;-7.23506;-0.000709476;-0.000127687;0.00328425;0.00328833;-0.000713554;0.00200094;0.216024;4.62913;0.00246475;0.00266792;4.60838;0.216996;89.6924;134.692;0.00210975;-0.000709468;-0.000224213;-3.15441e-05;0.00328424;0.00258792;0.0288813;0;0.0233057;5.14136;4.27032
314000;315;25.8242;0.0713498;0.00277056;-2.29263;25.7214;0.209249;0.0414455;0.0874445;-0.604849;0.0891892;-0.238527;-0.450942;0.517879;-7.45479;-0.00127104;-0.000347831;0.00178296;0.00182207;-0.00131016;0.00156612;0.712885;1.40275;0.00181643;0.00208815;1.39073;0.719049;53.41;98.41;0.00727958;-0.00127684;-0.0041283;0.00342112;0.00177451;-0.00258429;0.0193971;0;0.023367;0.129713;-0.326417;-1.05653;1.11339;-7.23924;-0.000694376;-0.000100872;0.00324501;0.00324759;-0.000696957;0.00197227;0.213982;4.67328;0.00243092;0.0026297;4.65967;0.214607;89.87;134.87;0.00222771;-0.000694371;-0.000172221;-2.98042e-05;0.003245;0.00221968;0.0275808;0;0.0199167;5.20572;4.27653
315000;316;25.8246;0.07179;0.00278765;-2.29316;25.7218;0.206608;0.0409139;0.0878604;-0.60749;0.0870612;-0.240315;-0.452275;0.519503;-7.45612;-0.0012301;-0.00037329;0.00241966;0.00245745;-0.00126788;0.00186267;0.508375;1.96705;0.00218707;0.00248356;1.93823;0.515935;55.4327;100.433;0.00646876;-0.00123546;-0.00405359;0.00329361;0.00241154;-0.00115676;0.01886;0;0.0228212;0.127078;-0.329118;-1.05907;1.11628;-7.24178;-0.000670987;-0.000124308;0.00334484;0.00334868;-0.000674831;0.00201176;0.200604;4.98495;0.00248809;0.00268234;4.96225;0.201521;95.1431;140.143;0.00227883;-0.000671019;3.43044e-05;-0.000282285;0.00334484;0.00357612;0.027347;0;0.0238434;5.27653;4.28437
316000;317;25.8231;0.070274;0.00272879;-2.29192;25.7204;0.204851;0.0421569;0.0864632;-0.609247;0.0846285;-0.243746;-0.451553;0.520072;-7.4554;-0.00116043;-0.000570743;0.00293076;0.00300889;-0.00123856;0.00212372;0.395948;2.52559;0.00252227;0.00283163;2.42935;0.411633;59.9555;104.955;0.00604442;-0.00116452;-0.00407209;0.00291633;0.00292266;-0.000425222;0.0192722;0;0.0207046;0.125466;-0.332196;-1.06034;1.11822;-7.24305;-0.000580072;-0.000212361;0.00331262;0.00332417;-0.000591623;0.00195789;0.17511;5.7107;0.00243737;0.00261053;5.61873;0.177976;97.6254;142.625;0.00159786;-0.000580142;5.34248e-06;-0.00042922;0.00331264;0.00434264;0.0272131;0;0.0222634;5.33445;4.29157
317000;318;25.8234;0.0706176;0.00274213;-2.29183;25.7207;0.206751;0.0422491;0.0868012;-0.607347;0.083502;-0.248624;-0.451976;0.52256;-7.45582;-0.00125581;-0.000563947;0.00309301;0.00316495;-0.00132775;0.00224635;0.406016;2.46296;0.00266518;0.00299514;2.38369;0.419518;59.8775;104.877;0.00615786;-0.00125966;-0.00397314;0.00283047;0.0030853;-0.00148086;0.0186851;0;0.0200162;0.123566;-0.337329;-1.05993;1.11916;-7.24265;-0.000695586;-0.000139263;0.00355621;0.00356076;-0.000700142;0.00213045;0.195598;5.11254;0.00263837;0.0028406;5.08577;0.196627;93.6894;138.689;0.00156189;-0.000695602;-4.81766e-05;-0.000229963;0.00355622;0.00411786;0.0286859;0;0.0193734;5.40102;4.29936
318000;319;25.8258;0.0729487;0.00283265;-2.29154;25.7231;0.206823;0.0425302;0.0891661;-0.607275;0.0816828;-0.250462;-0.452793;0.523856;-7.45664;-0.00111657;-0.000252871;0.00282113;0.0028373;-0.00113274;0.00198502;0.395788;2.52661;0.00236148;0.00264669;2.50481;0.399232;55.9224;100.922;0.0060052;-0.0011212;-0.0035727;0.00305392;0.00281479;-0.00119475;0.0183814;0;0.0229854;0.121812;-0.340254;-1.06115;1.12101;-7.24387;-0.000689603;-0.00017673;0.003718;0.00372507;-0.000696678;0.00221088;0.185477;5.3915;0.00274523;0.00294783;5.34691;0.187024;96.3275;141.328;0.00105981;-0.000689664;3.87683e-05;-0.000391281;0.00371801;0.0051048;0.0293701;0;0.0195334;5.45861;4.30571
319000;320;25.8278;0.0749919;0.00291199;-2.29182;25.7251;0.207955;0.0422584;0.0911841;-0.606143;0.0807521;-0.253183;-0.452163;0.524475;-7.45601;-0.00118519;-0.000509584;0.00308275;0.00314275;-0.00124519;0.00219397;0.38446;2.60105;0.00261115;0.0029253;2.52391;0.396211;60.1731;105.173;0.00565031;-0.00118851;-0.00365512;0.00262257;0.00307622;-0.000291037;0.0186012;0;0.0268094;0.120326;-0.343811;-1.06451;1.12511;-7.24722;-0.000645804;-0.000232945;0.00383976;0.00385182;-0.000657869;0.00225485;0.168189;5.9457;0.00281293;0.00300646;5.855;0.170794;95.4881;140.488;0.000953685;-0.000645847;-9.13794e-05;-0.000373879;0.00383978;0.0046185;0.0274748;0;0.0229149;5.53183;4.31318
320000;321;25.8275;0.0746431;0.00289844;-2.29118;25.7248;0.204589;0.0428933;0.0909174;-0.609509;0.0784796;-0.25883;-0.447716;0.52307;-7.45156;-0.00112766;-0.000363366;0.00284953;0.00288245;-0.00116059;0.00202152;0.395736;2.52693;0.00240378;0.00269536;2.48362;0.402639;58.1234;103.123;0.00583128;-0.00113117;-0.00341226;0.00267344;0.00284379;-0.00043334;0.0168256;0;0.0184005;0.118033;-0.348918;-1.0611;1.12321;-7.24381;-0.000758186;-0.000262927;0.00402281;0.00403723;-0.000772602;0.00240492;0.188472;5.30584;0.00298257;0.00320656;5.2255;0.191369;96.6293;141.629;0.000996836;-0.000758259;-6.22189e-05;-0.000462679;0.00402285;0.00543964;0.0303421;0;0.0230843;5.58644;4.31981
321000;322;25.8291;0.0762431;0.00296057;-2.29127;25.7264;0.204338;0.042802;0.0925176;-0.60976;0.0774357;-0.260964;-0.447495;0.523784;-7.45134;-0.00126359;-0.000546175;0.00287402;0.0029449;-0.00133447;0.00213969;0.439659;2.27449;0.00252834;0.00285292;2.20679;0.453146;59.5701;104.57;0.0054127;-0.00126687;-0.00372211;0.00261667;0.00286726;0.000918645;0.0163097;0;0.0188604;0.116614;-0.353202;-1.06062;1.12395;-7.24333;-0.000865464;-0.000219995;0.00410499;0.00411471;-0.000875182;0.00249495;0.210832;4.74311;0.00307664;0.00332659;4.70155;0.212696;97.5751;142.575;0.00063724;-0.000865568;6.94707e-05;-0.000508027;0.00410501;0.00682584;0.0303114;0;0.0187251;5.65301;4.32658
322000;323;25.8327;0.0798823;0.00310189;-2.2936;25.7298;0.208536;0.0404721;0.0959302;-0.605562;0.0755054;-0.263876;-0.44752;0.524981;-7.45136;-0.00124005;-0.000293224;0.00294199;0.00296245;-0.00126051;0.00211148;0.421502;2.37247;0.00250326;0.00281531;2.35019;0.425497;56.759;101.759;0.00549027;-0.00124388;-0.00338045;0.00278113;0.00293633;0.000538692;0.0156367;0;0.0294177;0.113407;-0.359027;-1.05827;1.12325;-7.24098;-0.000882249;-0.000431912;0.00418072;0.0042173;-0.000918831;0.00256807;0.211028;4.73871;0.00316262;0.00342409;4.58986;0.217872;99.6582;144.658;0.00120372;-0.000882409;-0.00015078;-0.000711626;0.0041808;0.00570805;0.0280236;0;0.0174993;5.7148;4.33263
323000;324;25.8333;0.0804947;0.00312567;-2.29226;25.7306;0.202838;0.041812;0.09671;-0.61126;0.0742552;-0.266242;-0.448532;0.526858;-7.45238;-0.00111219;-0.000686386;0.00275804;0.00287617;-0.00123032;0.00205324;0.403253;2.47983;0.00243353;0.00273766;2.33775;0.427762;62.6379;107.638;0.00506281;-0.00111448;-0.00362836;0.00224424;0.00275171;0.000871049;0.0148338;0;0.0212511;0.112378;-0.362515;-1.06348;1.12917;-7.24619;-0.000998971;-0.000519113;0.00422381;0.00427491;-0.00105007;0.00266249;0.23651;4.22816;0.00325688;0.00354998;4.07108;0.245635;101.827;146.827;0.00128803;-0.000999218;-0.000162783;-0.000873589;0.00422393;0.00598565;0.0281876;0;0.0253514;5.77798;4.3384
324000;325;25.8358;0.0829399;0.00322061;-2.29283;25.733;0.204804;0.0412448;0.0990988;-0.609294;0.0718843;-0.270537;-0.445845;0.526436;-7.44969;-0.00131547;-0.00088878;0.00278129;0.0029658;-0.00149998;0.00223289;0.472972;2.11429;0.00262421;0.00297719;1.97722;0.505759;63.7514;108.751;0.00494476;-0.00131719;-0.0038436;0.00205398;0.00277432;0.00113051;0.0142981;0;0.0213004;0.109871;-0.368135;-1.06013;1.12759;-7.24284;-0.00109036;-0.000633838;0.00401012;0.00408771;-0.00116794;0.00262783;0.271901;3.67781;0.00318662;0.00350377;3.49992;0.285721;106.407;151.407;0.00178864;-0.0010908;-0.000133223;-0.00113191;0.00401031;0.00652176;0.029345;0;0.0247662;5.83443;4.34314
325000;326;25.8386;0.0857442;0.00332951;-2.29391;25.7357;0.205341;0.0401679;0.101814;-0.608757;0.0704956;-0.273605;-0.446905;0.528728;-7.45075;-0.00126964;-0.000833732;0.00290715;0.00306742;-0.00142991;0.00224867;0.43673;2.28974;0.00265329;0.00299822;2.14518;0.466161;63.5652;108.565;0.00475815;-0.00127162;-0.00383784;0.00215787;0.00290015;0.000763822;0.0143496;0;0.0227107;0.108074;-0.373563;-1.0623;1.13124;-7.24502;-0.00105777;-0.000642589;0.00385484;0.0039375;-0.00114044;0.00253897;0.274402;3.64429;0.00307643;0.00338529;3.45263;0.289635;102.567;147.567;0.00242388;-0.00105797;-0.00038303;-0.000900879;0.00385497;0.00571429;0.0306174;0;0.0188563;5.89669;4.3507
326000;327;25.8416;0.0888135;0.00344869;-2.29581;25.7386;0.211774;0.0382619;0.104674;-0.602325;0.0679897;-0.277015;-0.441731;0.525819;-7.44558;-0.00128088;-0.000764567;0.00272474;0.00286572;-0.00142186;0.00214379;0.470094;2.12724;0.00252179;0.00285838;2.01547;0.496161;62.4071;107.407;0.00461007;-0.00128293;-0.00370269;0.00216182;0.0027182;0.0015093;0.0138389;0;0.0263976;0.104319;-0.37924;-1.05323;1.12428;-7.23595;-0.00102453;-0.000677947;0.00400452;0.00409431;-0.00111432;0.00260431;0.255845;3.90862;0.00316701;0.00347242;3.67425;0.272164;105.597;150.597;0.00224041;-0.00102492;-0.000245972;-0.00110776;0.00400472;0.00669371;0.0291639;0;0.020841;5.9589;4.35799
327000;328;25.843;0.090225;0.0035035;-2.29638;25.7399;0.211806;0.0376913;0.10604;-0.602292;0.0668651;-0.278675;-0.446325;0.530412;-7.45017;-0.00130804;-0.000598572;0.00262692;0.00271596;-0.00139708;0.00205652;0.497938;2.00828;0.00241501;0.00274202;1.94402;0.514397;59.629;104.629;0.00527374;-0.00131083;-0.00364284;0.00243375;0.00262048;0.000307181;0.0130974;0;0.0275043;0.103068;-0.381981;-1.05759;1.12917;-7.2403;-0.00101919;-0.000593608;0.00384889;0.00392023;-0.00109053;0.00250538;0.264801;3.77642;0.00304285;0.00334051;3.5948;0.27818;104.486;149.486;0.00243062;-0.00101949;-0.000205938;-0.000979398;0.00384905;0.00529546;0.0293184;0;0.0213484;6.02229;4.36469
328000;329;25.8424;0.0896003;0.00347924;-2.2963;25.7393;0.210786;0.0377701;0.105428;-0.603312;0.0657445;-0.281385;-0.444621;0.530271;-7.44847;-0.00132561;-0.000832169;0.0028842;0.00304273;-0.00148414;0.00226344;0.459611;2.17575;0.00266473;0.00301791;2.05016;0.487766;63.1955;108.196;0.00508357;-0.00132753;-0.00380269;0.00212588;0.00287734;0.000341317;0.012824;0;0.0299909;0.101996;-0.384946;-1.05785;1.13033;-7.24057;-0.000981638;-0.000610689;0.00387966;0.0039552;-0.00105718;0.00250619;0.253022;3.95223;0.00305088;0.00334159;3.74128;0.267289;101.876;146.876;0.00234289;-0.000981819;-0.000363383;-0.000856798;0.00387978;0.00470447;0.0293814;0;0.0314123;6.07161;4.37169
329000;330;25.8445;0.09166;0.00355922;-2.29646;25.7414;0.213578;0.0376168;0.107459;-0.60052;0.064509;-0.284385;-0.449519;0.53582;-7.45336;-0.00111763;-0.000765291;0.00303626;0.00317277;-0.00125413;0.00221345;0.368093;2.71671;0.00263467;0.00295127;2.52985;0.39528;63.8707;108.871;0.00494388;-0.00111995;-0.0038293;0.00228603;0.00302924;0.00044766;0.0152447;0;0.0241371;0.100483;-0.38974;-1.06051;1.13432;-7.24322;-0.000920603;-0.000552982;0.00395979;0.00402166;-0.000982475;0.00250207;0.232488;4.3013;0.0030616;0.00333609;4.09339;0.244296;99.6054;144.605;0.00223169;-0.000920712;-0.000380711;-0.000724415;0.00395987;0.00428116;0.0297674;0;0.019007;6.13752;4.37858
330000;331;25.846;0.0932246;0.00361998;-2.29703;25.7429;0.214267;0.0370476;0.108973;-0.599831;0.0631463;-0.28917;-0.445861;0.535162;-7.44971;-0.00116522;-0.000799358;0.0033232;0.00346131;-0.00130334;0.00238232;0.350633;2.85198;0.00284337;0.00317643;2.65574;0.376544;64.6462;109.646;0.0048391;-0.00116738;-0.00383787;0.00222557;0.00331618;-0.000176722;0.0141206;0;0.0263891;0.0992938;-0.394731;-1.05877;1.13431;-7.24149;-0.000874088;-0.000470817;0.00398474;0.00402994;-0.00091929;0.00247462;0.219359;4.55874;0.00303975;0.00329949;4.38376;0.228115;97.9212;142.921;0.00179864;-0.00087416;-0.000337648;-0.000603341;0.00398479;0.00472806;0.0297651;0;0.0225626;6.19386;4.38623
331000;332;25.8467;0.0939171;0.00364687;-2.29765;25.7435;0.214543;0.0364249;0.109611;-0.599555;0.0617402;-0.293011;-0.443233;0.534904;-7.44708;-0.00114495;-0.000405372;0.00353028;0.00356517;-0.00117983;0.0023725;0.324322;3.08336;0.00285258;0.00316334;3.02175;0.330934;59.8189;104.819;0.00533974;-0.00114913;-0.00374529;0.00291899;0.00352337;-0.000637918;0.013381;0;0.0277344;0.0974904;-0.399236;-1.0568;1.1339;-7.23951;-0.000827251;-0.000464663;0.00414015;0.00418324;-0.000870343;0.00252679;0.199812;5.00471;0.00311968;0.00336906;4.80643;0.208054;94.9742;139.974;0.00190645;-0.000827242;-0.000483485;-0.000445933;0.00414014;0.00306468;0.0301214;0;0.0257479;6.24716;4.39322
332000;333;25.8454;0.0925678;0.00359447;-2.29753;25.7422;0.209794;0.0365463;0.108306;-0.604304;0.0622883;-0.298932;-0.432182;0.529171;-7.43603;-0.00114765;-0.000440805;0.00369381;0.00373362;-0.00118745;0.00246054;0.310695;3.21859;0.00296524;0.00328072;3.14422;0.318044;61.1118;106.112;0.00524967;-0.00115129;-0.00363147;0.00273447;0.00368734;-0.00102639;0.0149276;0;0.024746;0.0981612;-0.404755;-1.04629;1.12613;-7.229;-0.000872652;-0.000390812;0.00424072;0.00427042;-0.000902349;0.00258638;0.205779;4.85958;0.00319055;0.00344851;4.73256;0.211302;98.16;143.16;0.00173639;-0.000872765;-0.000164285;-0.000616186;0.00424078;0.00376554;0.0307633;0;0.0188108;6.30015;4.39965
333000;334;25.8476;0.0948191;0.00368189;-2.29757;25.7444;0.212745;0.0365053;0.110538;-0.601353;0.0599646;-0.297858;-0.449761;0.542771;-7.45361;-0.00122921;-0.000664595;0.00440838;0.00448566;-0.00130649;0.00289608;0.278834;3.58636;0.003508;0.00386144;3.43336;0.29126;65.135;110.135;0.00456727;-0.00123202;-0.00380726;0.00246044;0.00440138;0.000882753;0.0140983;0;0.0242027;0.095501;-0.405436;-1.06683;1.14527;-7.24955;-0.0010344;-0.00039397;0.00445186;0.00448001;-0.00106255;0.00277128;0.232353;4.3038;0.00339671;0.00369504;4.21628;0.237176;93.7072;138.707;0.00168086;-0.0010344;-0.000416695;-0.000371369;0.00445186;0.00256508;0.0315263;0;0.0176312;6.35424;4.40539
334000;335;25.8484;0.0956182;0.00371292;-2.29808;25.7452;0.210921;0.0359911;0.11131;-0.603177;0.0594616;-0.301588;-0.45064;0.545497;-7.45448;-0.00134002;-0.000780984;0.00436968;0.00447458;-0.00144492;0.00295975;0.306664;3.26089;0.00356371;0.00394633;3.09676;0.322918;65.5878;110.588;0.00451385;-0.00134248;-0.0039278;0.00234795;0.0043623;0.000686412;0.0157108;0;0.0226702;0.094922;-0.410507;-1.06719;1.14735;-7.2499;-0.000929537;-0.000477714;0.00461105;0.00465194;-0.000970425;0.00281118;0.201589;4.96059;0.00347029;0.00374824;4.79372;0.208606;95.1572;140.157;0.00149445;-0.000929546;-0.000460594;-0.00049474;0.00461106;0.00368214;0.0305645;0;0.0217415;6.41009;4.41027
335000;336;25.8491;0.0962956;0.00373923;-2.29865;25.7459;0.20987;0.0354265;0.111948;-0.604228;0.058357;-0.305128;-0.44927;0.546216;-7.45311;-0.00130538;-0.000541042;0.00480095;0.00484852;-0.00135295;0.00310073;0.2719;3.67782;0.00376525;0.00413431;3.58367;0.279043;64.2851;109.285;0.00450514;-0.00130883;-0.00378227;0.00268049;0.00479398;0.00201705;0.0160691;0;0.0227909;0.0932181;-0.415424;-1.06932;1.15096;-7.25203;-0.000912203;-0.00051006;0.0047343;0.00478;-0.000957908;0.00286896;0.19268;5.18996;0.00354932;0.00382527;4.99004;0.200399;95.0674;140.067;0.00107707;-0.000912202;-0.000513611;-0.000506529;0.0047343;0.00253554;0.0290201;0;0.0210071;6.45346;4.41694
336000;337;25.8504;0.0975376;0.00378745;-2.29815;25.7471;0.214841;0.0359295;0.113199;-0.599257;0.0570096;-0.308096;-0.451006;0.549162;-7.45485;-0.00128951;-0.000455027;0.00414178;0.00417963;-0.00132737;0.0027535;0.311343;3.21189;0.00331858;0.00367134;3.14881;0.31758;62.188;107.188;0.00476401;-0.00129287;-0.00355549;0.00262867;0.00413559;0.00208058;0.0160342;0;0.02427;0.0919401;-0.419339;-1.06958;1.15252;-7.2523;-0.0010096;-0.000525447;0.00469043;0.00473847;-0.00105764;0.00289805;0.215248;4.64581;0.00356422;0.00386407;4.48024;0.223202;97.1938;142.194;0.00106623;-0.00100968;-0.000398047;-0.000652124;0.00469049;0.00379359;0.0291198;0;0.0262431;6.5022;4.42349
337000;338;25.8511;0.0982754;0.0038161;-2.2976;25.7479;0.209582;0.0364728;0.114032;-0.604516;0.0565045;-0.311235;-0.454692;0.553899;-7.45854;-0.00124669;-0.000816506;0.00361262;0.00374614;-0.00138021;0.00256318;0.345092;2.89778;0.00306297;0.00341757;2.71418;0.368436;64.674;109.674;0.00447653;-0.00124903;-0.00395941;0.00231119;0.00360514;0.00244626;0.0164448;0;0.0192057;0.0911543;-0.423347;-1.07525;1.15918;-7.25796;-0.0010943;-0.000499087;0.00450347;0.00454762;-0.00113845;0.00284304;0.242991;4.11538;0.00347398;0.00379072;3.99456;0.25034;96.4227;141.423;0.00127885;-0.00109435;-0.000417295;-0.000580424;0.00450351;0.00426515;0.0262181;0;0.0244333;6.54115;4.43098
338000;339;25.8519;0.0990871;0.00384762;-2.29817;25.7487;0.208154;0.0359084;0.114808;-0.605944;0.0548869;-0.31322;-0.457486;0.557147;-7.46133;-0.00146594;-0.000871146;0.00372083;0.00386324;-0.00160834;0.00273579;0.393982;2.53819;0.00324721;0.00364772;2.402;0.41632;64.444;109.444;0.00495846;-0.00146794;-0.0039397;0.00218156;0.00371348;0.00388939;0.016537;0;0.0242082;0.0892262;-0.426431;-1.07911;1.16374;-7.26183;-0.00107799;-0.000471373;0.00450222;0.00454175;-0.00111753;0.00282964;0.239436;4.17647;0.00346102;0.00377286;4.06409;0.246057;95.8407;140.841;0.0021004;-0.00107803;-0.000408549;-0.000533848;0.00450224;0.00326053;0.0291694;0;0.0172927;6.58447;4.43795
339000;340;25.8525;0.0997148;0.00387199;-2.29793;25.7494;0.207038;0.0361441;0.115468;-0.60706;0.0547815;-0.316559;-0.456027;0.557827;-7.45987;-0.00133493;-0.000862315;0.00310741;0.00326892;-0.00149644;0.00238268;0.429596;2.32777;0.00281401;0.00317691;2.18446;0.457779;63.5905;108.59;0.00454647;-0.00133709;-0.00398708;0.00224862;0.00309985;0.0038372;0.0160671;0;0.0201995;0.0887553;-0.429603;-1.07965;1.16537;-7.26237;-0.00115052;-0.000399223;0.00430073;0.00432981;-0.0011796;0.00275471;0.267517;3.73808;0.0033497;0.00367294;3.67058;0.272437;92.2479;137.248;0.0018946;-0.00115048;-0.000505319;-0.000293703;0.00430068;0.00306684;0.0271288;0;0.0190287;6.61886;4.44567
340000;341;25.8543;0.101483;0.00394064;-2.29847;25.7511;0.20839;0.0356063;0.117184;-0.605708;0.0539911;-0.318944;-0.462454;0.564362;-7.4663;-0.00141258;-0.000693949;0.00332108;0.00342071;-0.00151222;0.00246646;0.425339;2.35107;0.00291821;0.00328862;2.26205;0.442077;61.9495;106.95;0.00471341;-0.00141506;-0.00373435;0.00233211;0.00331437;0.00279742;0.0155063;0;0.0229901;0.0875645;-0.43377;-1.08289;1.16982;-7.26561;-0.00113376;-0.000367924;0.00428296;0.00430784;-0.00115863;0.00273324;0.264713;3.77768;0.00332607;0.00364431;3.71804;0.268959;89.8885;134.889;0.00243649;-0.0011337;-0.00058902;-0.000148021;0.00428286;0.00218723;0.0293388;0;0.0237563;6.65758;4.4529
341000;342;25.855;0.102181;0.00396777;-2.29924;25.7518;0.20468;0.0348299;0.117846;-0.609418;0.0517231;-0.318954;-0.469607;0.570033;-7.47345;-0.00140643;-0.000743908;0.00325116;0.0033671;-0.00152236;0.00244473;0.432593;2.31164;0.00288913;0.00325964;2.21176;0.45213;62.3055;107.305;0.00501083;-0.00140881;-0.00380589;0.00230386;0.00324422;0.00330635;0.0158181;0;0.0189791;0.0849153;-0.433917;-1.09511;1.181;-7.27783;-0.00124193;-0.000232125;0.00423752;0.00424734;-0.00125175;0.00274955;0.29308;3.41204;0.00332822;0.00366606;3.39312;0.294714;86.8168;131.817;0.00167292;-0.00124191;-0.000530214;6.43375e-05;0.00423741;0.00201511;0.0317683;0;0.0190575;6.6953;4.4606
342000;343;25.856;0.103149;0.00400533;-2.29905;25.7528;0.203303;0.0350221;0.118845;-0.610795;0.0515481;-0.323413;-0.465599;0.569241;-7.46944;-0.00128533;-0.000733924;0.00299208;0.00311451;-0.00140775;0.00226113;0.429577;2.32787;0.00267219;0.00301484;2.21239;0.451999;62.2372;107.237;0.00528382;-0.00128782;-0.00383038;0.00234934;0.00298504;0.00184309;0.0149358;0;0.0198196;0.084656;-0.439346;-1.09013;1.17838;-7.27285;-0.00109004;-0.000223079;0.00430915;0.00431836;-0.00109924;0.0027088;0.252958;3.95322;0.00330679;0.00361173;3.9285;0.25455;87.7025;132.702;0.00169892;-0.00109001;-0.000488343;4.07587e-05;0.00430906;0.00198125;0.0314208;0;0.0214763;6.7344;4.46818
343000;344;25.8558;0.102941;0.00399726;-2.29963;25.7525;0.202463;0.0344409;0.118591;-0.611635;0.05143;-0.326318;-0.465651;0.570929;-7.4695;-0.00132573;-0.00094065;0.00248138;0.00270111;-0.00154546;0.00212329;0.53427;1.87171;0.00248184;0.00283105;1.74777;0.572157;63.3616;108.362;0.00533444;-0.00132776;-0.00411586;0.00222251;0.00247337;0.00237021;0.0159202;0;0.0188899;0.0843936;-0.441996;-1.09257;1.18161;-7.27529;-0.00115168;-0.000222692;0.00438765;0.00439659;-0.00116062;0.0027786;0.262482;3.80978;0.00338492;0.0037048;3.78815;0.263981;86.6902;131.69;0.00145688;-0.00115166;-0.000544966;9.78053e-05;0.00438753;0.00140194;0.0309381;0;0.0196273;6.7644;4.47569
344000;345;25.8577;0.104907;0.00407363;-2.30049;25.7544;0.205662;0.0335854;0.120464;-0.608436;0.0501454;-0.32937;-0.469061;0.575341;-7.47291;-0.00152067;-0.00066274;0.00281327;0.00291235;-0.00161975;0.00226605;0.540535;1.85002;0.00265185;0.0030214;1.79802;0.556166;59.2365;104.237;0.00523615;-0.00152369;-0.00388312;0.00254373;0.00280597;0.00251797;0.0134457;0;0.0236452;0.0825061;-0.445773;-1.0958;1.18588;-7.27851;-0.00121795;-0.000121689;0.00455309;0.00455566;-0.00122052;0.00288809;0.2675;3.73832;0.0035153;0.00385078;3.73256;0.267912;87.6856;132.686;0.000938939;-0.00121795;-0.000328675;8.41069e-05;0.00455305;0.00215787;0.0331698;0;0.02007;6.80063;4.48204
345000;346;25.8565;0.103709;0.0040271;-2.29991;25.7532;0.204588;0.0341686;0.119322;-0.60951;0.0495402;-0.332668;-0.464855;0.573771;-7.4687;-0.00146792;-0.000840839;0.00229391;0.0024733;-0.00164731;0.00206031;0.63992;1.56269;0.00239492;0.00274708;1.50142;0.666037;60.7076;105.708;0.0052735;-0.00147047;-0.00410053;0.00240663;0.00228588;0.00199475;0.0149928;0;0.0331817;0.0821081;-0.449327;-1.0898;1.18165;-7.27252;-0.00119668;-0.000189407;0.00445463;0.00446097;-0.00120303;0.002832;0.268638;3.72248;0.00344572;0.003776;3.70813;0.269678;88.5025;133.502;0.00106411;-0.00119667;-0.000385386;5.46829e-06;0.00445457;0.00177599;0.0325697;0;0.0270057;6.82286;4.48377
346000;347;25.8598;0.106993;0.00415462;-2.30009;25.7565;0.202122;0.0339866;0.122622;-0.611977;0.0464907;-0.330649;-0.479102;0.583977;-7.48295;-0.00175478;-0.00104024;0.00277051;0.00299818;-0.00198245;0.00249032;0.633379;1.57883;0.00289543;0.00332042;1.51236;0.661218;61.782;106.782;0.0062907;-0.00175676;-0.00433686;0.00224152;0.00276167;6.4859e-05;0.0151278;0;0.0450408;0.0785752;-0.449202;-1.10706;1.19731;-7.28978;-0.00129999;1.27001e-05;0.00474996;0.00474998;-0.00130002;0.003025;0.273685;3.65383;0.00367741;0.00403334;3.65378;0.27369;85.3396;130.34;0.000489533;-0.00130004;-0.0002643;0.000288032;0.00474992;0.000194281;0.0352696;0;0.0315564;6.87006;4.494
347000;348;25.8592;0.106344;0.00412942;-2.30122;25.7558;0.200768;0.0328538;0.12188;-0.61333;0.0469174;-0.337869;-0.469624;0.580434;-7.47347;-0.00150898;-0.00101119;0.00265491;0.00288748;-0.00174155;0.00231452;0.568373;1.75941;0.00269973;0.00308602;1.65799;0.603139;62.7079;107.708;0.00607187;-0.00151144;-0.00447615;0.00243939;0.00264542;0.000841487;0.0154916;0;0.022711;0.0783443;-0.456481;-1.09905;1.19265;-7.28176;-0.00136458;4.68415e-05;0.00488229;0.00488264;-0.00136493;0.00312379;0.279496;3.57786;0.00379284;0.00416505;3.5772;0.279548;88.5672;133.567;-0.000295722;-0.00136459;-1.50753e-05;0.000108373;0.00488229;0.00150269;0.0362683;0;0.0182167;6.88827;4.49698
348000;349;25.8611;0.108323;0.00420627;-2.30194;25.7577;0.196862;0.0321304;0.123832;-0.617236;0.0464642;-0.339348;-0.473549;0.584435;-7.47739;-0.00130372;-0.000783368;0.00326367;0.00339429;-0.00143434;0.00241432;0.399464;2.50335;0.00286334;0.00321909;2.36645;0.422575;62.5763;107.576;0.00629464;-0.0013068;-0.00418301;0.0026008;0.00325526;-0.000742474;0.0159317;0;0.0245613;0.0774756;-0.460136;-1.1032;1.19782;-7.28591;-0.00137873;4.86919e-05;0.00507224;0.00507261;-0.00137909;0.00322585;0.271818;3.67893;0.00392308;0.00430113;3.67822;0.271871;87.3476;132.348;1.41915e-06;-0.00137874;-9.54302e-05;0.000191889;0.00507223;-0.000113863;0.035382;0;0.0182171;6.92467;4.50451
349000;350;25.8596;0.10682;0.0041479;-2.3024;25.7562;0.198924;0.0316763;0.122267;-0.615174;0.0453926;-0.34469;-0.467025;0.582223;-7.47087;-0.00153711;-0.000565169;0.00293882;0.00300908;-0.00160737;0.00230823;0.523036;1.91191;0.00270596;0.00307764;1.87205;0.534173;57.732;102.732;0.00617923;-0.00154137;-0.0041173;0.00297112;0.00293053;-4.21632e-05;0.0165978;0;0.0370732;0.075935;-0.463999;-1.09643;1.19299;-7.27915;-0.0014194;-1.11003e-06;0.00499363;0.00499363;-0.0014194;0.00320652;0.284243;3.51812;0.00388953;0.00427536;3.51812;0.284243;89.3538;134.354;0.000176044;-0.0014194;-4.22489e-05;3.97664e-05;0.00499363;0.000136871;0.0345068;0;0.0183629;6.95418;4.5113
350000;351;25.8635;0.110669;0.00429735;-2.30243;25.76;0.198918;0.0316481;0.126129;-0.61518;0.0440966;-0.345463;-0.475446;0.589353;-7.47929;-0.00157573;-0.000551727;0.00348091;0.00354041;-0.00163523;0.00258782;0.452677;2.20908;0.0030549;0.00345043;2.16509;0.461875;58.7517;103.752;0.00591435;-0.00158;-0.0040947;0.0029734;0.00347271;0.000776927;0.0161191;0;0.0236457;0.0751379;-0.469507;-1.10439;1.2024;-7.28711;-0.00127007;-9.45364e-05;0.00507518;0.00507659;-0.00127148;0.00317403;0.250252;3.99598;0.00387833;0.00423205;3.99266;0.25046;88.2955;133.296;0.000146169;-0.00127007;-0.000265725;7.55716e-05;0.00507515;0.000932682;0.032125;0;0.0223315;6.98742;4.51861
351000;352;25.8625;0.109654;0.00425795;-2.30289;25.759;0.192033;0.0311888;0.125121;-0.622065;0.0438131;-0.351268;-0.46952;0.588012;-7.47336;-0.0015618;-0.00066041;0.00346589;0.00355119;-0.0016471;0.00259914;0.45062;2.21916;0.00306761;0.00346552;2.15603;0.463816;60.2598;105.26;0.00536723;-0.00156528;-0.0040568;0.00271897;0.0034579;0.00120374;0.0167208;0;0.0264797;0.0745823;-0.4736;-1.10541;1.2049;-7.28813;-0.00133541;-0.000125983;0.00486781;0.00487036;-0.00133797;0.00310417;0.274335;3.64517;0.00377283;0.00413889;3.64012;0.274717;90.6891;135.689;0.000528173;-0.00133541;-0.000155346;-9.68013e-05;0.0048678;0.000387794;0.032269;0;0.0200332;7.01738;4.52598
352000;353;25.8647;0.111894;0.00434491;-2.30413;25.7611;0.196442;0.0299414;0.127225;-0.617656;0.0453133;-0.354377;-0.468808;0.589421;-7.47265;-0.00160178;-0.000587542;0.00388136;0.00394361;-0.00166403;0.00280382;0.412686;2.42315;0.00332555;0.00373843;2.36991;0.421957;60.1772;105.177;0.00555934;-0.00160576;-0.00407411;0.00287999;0.00387326;0.00127783;0.0182882;0;0.0302545;0.0753559;-0.478611;-1.10333;1.20503;-7.28605;-0.0013721;-9.34677e-05;0.00478751;0.00478893;-0.00137351;0.00308122;0.286599;3.4892;0.0037356;0.0041083;3.48663;0.28681;90.6277;135.628;0.000683012;-0.00137209;-0.000107932;-7.90925e-05;0.00478751;0.00146105;0.0326415;0;0.020739;7.05022;4.53373
353000;354;25.8647;0.111835;0.00434265;-2.3056;25.761;0.192237;0.0284763;0.127067;-0.621861;0.0434857;-0.356008;-0.479741;0.598986;-7.48359;-0.00167731;-0.000511439;0.00452131;0.00456322;-0.00171922;0.00314122;0.370978;2.69557;0.00374901;0.0041883;2.65424;0.376756;61.1739;106.174;0.00570032;-0.00168124;-0.00389371;0.00284997;0.00451389;0.00122682;0.0172677;0;0.022603;0.0724652;-0.480374;-1.11728;1.21833;-7.29999;-0.0014108;-4.96899e-05;0.00465813;0.00465854;-0.00141121;0.00303487;0.302869;3.30176;0.00366774;0.0040465;3.30109;0.30293;89.7106;134.711;0.000878104;-0.0014108;-9.28868e-05;-6.754e-06;0.00465813;0.00100454;0.0327347;0;0.0299227;7.07236;4.54117
354000;355;25.8656;0.112771;0.00437899;-2.30492;25.762;0.194721;0.0291519;0.128048;-0.619377;0.0415913;-0.359669;-0.47643;0.598396;-7.48027;-0.00172785;-0.000618418;0.00337199;0.00344591;-0.00180177;0.00262384;0.512413;1.95155;0.00307892;0.00349845;1.91251;0.522872;58.4362;103.436;0.00581123;-0.00173186;-0.00415056;0.00289578;0.00336359;0.00204868;0.019411;0;0.0211972;0.0706229;-0.483353;-1.11595;1.21818;-7.29866;-0.00138249;1.35654e-05;0.0045475;0.00454753;-0.00138252;0.00296502;0.304011;3.28936;0.00358258;0.00395337;3.28931;0.304015;86.1488;131.149;0.00109695;-0.00138251;-0.000194041;0.000219946;0.00454748;0.00104206;0.0332269;0;0.0186992;7.10819;4.54841
355000;356;25.8645;0.111704;0.00433754;-2.30426;25.761;0.185006;0.0298121;0.127107;-0.629093;0.0404997;-0.361123;-0.481183;0.602982;-7.48503;-0.00184325;-0.000600026;0.00377377;0.00383715;-0.00190664;0.00287189;0.488438;2.04734;0.00337804;0.00382919;2.01252;0.496888;59.1021;104.102;0.00604838;-0.00184686;-0.0039666;0.00274771;0.00376611;0.00117166;0.0170725;0;0.025272;0.0691209;-0.486695;-1.12131;1.22433;-7.30402;-0.00141944;4.37187e-05;0.00462834;0.00462866;-0.00141976;0.00302421;0.306685;3.26068;0.0036522;0.00403228;3.26017;0.306732;87.6996;132.7;0.00128983;-0.00141945;-6.25631e-05;0.000149361;0.00462834;0.00011253;0.0323691;0;0.0269968;7.13484;4.55397
356000;357;25.8636;0.110802;0.0043025;-2.30491;25.76;0.189666;0.0291666;0.12611;-0.624432;0.0425208;-0.36599;-0.483765;0.6081;-7.48761;-0.00171794;-0.000668693;0.00358973;0.00367268;-0.00180089;0.00273678;0.47857;2.08956;0.00322117;0.00364904;2.03937;0.490347;59.9256;104.926;0.00554896;-0.00172129;-0.00402826;0.00267312;0.00358187;0.00321277;0.0170833;0;0.0342253;0.0701348;-0.490599;-1.1208;1.22548;-7.30351;-0.00131794;0.000107574;0.00454253;0.00454451;-0.00131991;0.00293221;0.290133;3.4467;0.00355234;0.00390961;3.44304;0.290441;88.3319;133.332;0.000568977;-0.00131794;7.26956e-05;0.000142249;0.00454254;0.00164867;0.0333772;0;0.0304285;7.16715;4.55902
357000;358;25.8643;0.111513;0.00433013;-2.3052;25.7608;0.182559;0.0288738;0.126849;-0.63154;0.0397313;-0.364836;-0.486836;0.609666;-7.49068;-0.00158507;-0.000589368;0.00300346;0.00307795;-0.00165956;0.00236876;0.52775;1.89484;0.00277576;0.00315834;1.85467;0.539179;57.9734;102.973;0.00623051;-0.00158914;-0.00410338;0.00290858;0.00299523;0.00250291;0.0184685;0;0.0271357;0.0671491;-0.491743;-1.12651;1.231;-7.30923;-0.00139916;6.88406e-05;0.0047257;0.00472647;-0.00139993;0.0030632;0.296074;3.37753;0.00370681;0.00408427;3.37622;0.296189;86.1091;131.109;0.00127328;-0.00139919;-0.000121386;0.000257907;0.00472569;0.000582803;0.0334298;0;0.0370288;7.18951;4.56264
358000;359;25.8666;0.113812;0.0044194;-2.30586;25.763;0.184818;0.0282156;0.129082;-0.62928;0.0389155;-0.369329;-0.483548;0.609702;-7.48739;-0.00179401;-0.000865217;0.00311987;0.00326776;-0.00194191;0.00260483;0.575029;1.73904;0.0030401;0.00347311;1.68276;0.594262;59.956;104.956;0.00604911;-0.00179739;-0.00448415;0.002736;0.00311022;0.00424103;0.0174168;0;0.0204953;0.0661364;-0.496798;-1.12497;1.23156;-7.30769;-0.00129339;0.000163788;0.00485754;0.0048619;-0.00129774;0.00307982;0.266263;3.75568;0.00374947;0.00410643;3.74643;0.266921;84.6363;129.636;0.000548336;-0.00129345;-7.7663e-05;0.000403761;0.00485755;0.00048722;0.0352978;0;0.021208;7.22333;4.56985
359000;360;25.8679;0.115109;0.00446976;-2.30506;25.7644;0.181724;0.0290121;0.130478;-0.632374;0.0400205;-0.371957;-0.485882;0.613217;-7.48973;-0.00179171;-0.000721902;0.0030917;0.00319618;-0.00189619;0.00254618;0.579523;1.72556;0.00297184;0.00339491;1.68558;0.593268;58.5898;103.59;0.00638797;-0.00179521;-0.00420149;0.00274076;0.00308316;0.00252187;0.0174069;0;0.0189103;0.0667178;-0.4999;-1.12939;1.23688;-7.31211;-0.00133804;3.82499e-05;0.00503242;0.00503265;-0.00133827;0.00318546;0.265884;3.76104;0.00387892;0.00424728;3.76057;0.265917;85.7317;130.732;0.000652433;-0.00133808;-0.000217665;0.000292542;0.0050324;-0.00120297;0.0348197;0;0.0166405;7.24795;4.57726
360000;361;25.8706;0.117757;0.00457258;-2.30686;25.7669;0.184184;0.0272147;0.132958;-0.629914;0.0390077;-0.374365;-0.488312;0.616538;-7.49216;-0.00173223;-0.000807042;0.00346461;0.00358706;-0.00185468;0.00272087;0.499978;2.00009;0.00319442;0.00362782;1.93406;0.517047;60.7259;105.726;0.00668305;-0.00173538;-0.00426622;0.00263423;0.00345587;0.00210952;0.0160581;0;0.0193881;0.0649424;-0.504371;-1.12975;1.23893;-7.31247;-0.0013512;3.65038e-05;0.00522184;0.00522204;-0.0013514;0.00328672;0.258759;3.8646;0.00400849;0.00438229;3.86417;0.258788;89.111;134.111;-4.63072e-05;-0.0013512;-2.26252e-06;7.50167e-05;0.00522184;1.65015e-05;0.0357992;0;0.016329;7.27148;4.58502
361000;362;25.8721;0.119269;0.00463128;-2.30769;25.7683;0.18186;0.026383;0.134418;-0.632238;0.0387141;-0.376391;-0.490117;0.61918;-7.49396;-0.00176221;-0.000809477;0.00311326;0.00324414;-0.0018931;0.00256862;0.566035;1.76668;0.00299998;0.00342482;1.71367;0.583543;59.692;104.692;0.00665737;-0.0017655;-0.00432237;0.00268635;0.00310427;0.00149642;0.015244;0;0.0201278;0.0639785;-0.507975;-1.13333;1.24362;-7.31605;-0.00146015;1.39878e-05;0.00550072;0.00550075;-0.00146018;0.00348046;0.265447;3.76723;0.00423857;0.00464061;3.76718;0.265451;88.9982;133.998;-0.000383872;-0.00146015;-4.89068e-05;7.6447e-05;0.00550072;-0.000299166;0.0347551;0;0.0176808;7.30713;4.59271
362000;363;25.8763;0.123447;0.00479352;-2.30775;25.7725;0.182338;0.0263248;0.138604;-0.63176;0.0371731;-0.377756;-0.495342;0.624055;-7.49919;-0.00172646;-0.000832234;0.00324787;0.00338341;-0.00186201;0.00262271;0.531568;1.88123;0.00307061;0.00349695;1.81708;0.550334;60.2165;105.216;0.00692703;-0.00173002;-0.004475;0.00279249;0.00323824;0.00156497;0.0152391;0;0.0203546;0.0623467;-0.51246;-1.13895;1.25049;-7.32167;-0.00123365;-0.000157439;0.00549246;0.00549614;-0.00123733;0.00336674;0.224607;4.45222;0.00413866;0.00448898;4.44194;0.225127;90.6191;135.619;0.000177964;-0.00123364;-0.000211341;-0.000103899;0.00549245;-6.91622e-08;0.0321177;0;0.0321083;7.32947;4.5992
363000;364;25.8761;0.123304;0.00478798;-2.30901;25.7723;0.178516;0.0250651;0.138375;-0.635582;0.037621;-0.381498;-0.487317;0.620027;-7.49116;-0.00183362;-0.000808221;0.00287427;0.00300916;-0.0019685;0.00248883;0.637943;1.56754;0.00289471;0.00331844;1.52865;0.654172;58.5467;103.547;0.00681337;-0.00183741;-0.00450237;0.0028686;0.00286449;0.00244006;0.0159285;0;0.0237075;0.061879;-0.517031;-1.13355;1.24743;-7.31626;-0.00142696;-0.000135767;0.00556617;0.0055688;-0.00142959;0.0034992;0.256363;3.90072;0.00426961;0.0046656;3.89538;0.256715;93.6283;138.628;-0.000656837;-0.001427;4.75192e-05;-0.00031778;0.00556618;0.000264719;0.0333919;0;0.0224919;7.35076;4.60654
364000;365;25.8792;0.126356;0.00490648;-2.3098;25.7753;0.178155;0.0242701;0.14137;-0.635943;0.0376085;-0.381304;-0.496787;0.627379;-7.50063;-0.00192918;-0.000776544;0.00306498;0.00318294;-0.00204714;0.00261504;0.629428;1.58874;0.00304323;0.00348672;1.55482;0.643161;58.2393;103.239;0.00690984;-0.0019327;-0.00433095;0.00276018;0.00305593;0.00126664;0.014788;0;0.0321857;0.0611687;-0.520161;-1.14259;1.25691;-7.3253;-0.00125572;-0.000264984;0.00568327;0.00569338;-0.00126583;0.0034796;0.220951;4.5259;0.00428038;0.00463947;4.49775;0.222333;95.0966;140.097;0.000354148;-0.00125581;-3.78278e-05;-0.000490573;0.00568331;-0.000176274;0.0318413;0;0.0201467;7.38239;4.61354
365000;366;25.8819;0.129085;0.00501246;-2.31041;25.778;0.176997;0.0236679;0.144064;-0.637101;0.0367786;-0.382997;-0.497616;0.629016;-7.50146;-0.00178657;-0.00078285;0.00368225;0.0037921;-0.00189643;0.00284427;0.485186;2.06107;0.00334451;0.00379235;1.9996;0.5001;60.233;105.233;0.00762736;-0.00179049;-0.00449056;0.00290467;0.0036725;-0.000349437;0.0143782;0;0.0273364;0.0596146;-0.524058;-1.14545;1.26105;-7.32816;-0.00123251;-0.000234049;0.0056602;0.00566814;-0.00124045;0.0034543;0.21775;4.59242;0.00425298;0.00460573;4.56943;0.218846;95.8772;140.877;0.000468833;-0.00123263;7.36805e-05;-0.000539669;0.00566023;0.00156626;0.0301814;0;0.0202217;7.40573;4.62109
366000;367;25.8822;0.129346;0.00502258;-2.31173;25.7782;0.170183;0.022348;0.144254;-0.643915;0.0364514;-0.386999;-0.49216;0.627151;-7.496;-0.00184315;-0.000999956;0.00298081;0.00317988;-0.00204221;0.00261105;0.618337;1.61724;0.00303873;0.00348139;1.55707;0.64223;60.6437;105.644;0.00732234;-0.00184637;-0.00474366;0.00272575;0.00297009;0.000954293;0.0168989;0;0.0238286;0.0586442;-0.529041;-1.14255;1.26045;-7.32526;-0.00135504;-0.000128919;0.00546371;0.00546614;-0.00135748;0.00341181;0.248007;4.03214;0.00417088;0.00454908;4.0267;0.248343;94.8923;139.892;0.00102276;-0.00135511;0.000147395;-0.000403359;0.0054637;0.000351451;0.0317598;0;0.0211827;7.43113;4.62657
367000;368;25.8854;0.132622;0.0051498;-2.31243;25.7814;0.171024;0.0216478;0.147475;-0.643074;0.0366717;-0.38813;-0.495825;0.630739;-7.49967;-0.00180534;-0.000828097;0.0030542;0.00319144;-0.00194258;0.00256701;0.5911;1.69176;0.00299321;0.00342268;1.64289;0.608684;59.1024;104.102;0.00760198;-0.00180946;-0.00466198;0.00298722;0.00304371;-0.000225324;0.01574;0;0.0329697;0.0581681;-0.533308;-1.14609;1.26544;-7.32881;-0.0012823;-0.000112194;0.00536906;0.00537096;-0.00128419;0.00332757;0.238831;4.18706;0.00407669;0.00443676;4.18236;0.239099;94.7079;139.708;0.00112078;-0.00128237;0.000157675;-0.000380276;0.00536906;0.000725674;0.0307851;0;0.0315651;7.4544;4.6319
368000;369;25.8869;0.134048;0.00520517;-2.31274;25.7828;0.169707;0.0213342;0.148887;-0.644391;0.0363057;-0.391931;-0.497596;0.634452;-7.50144;-0.00172393;-0.000539218;0.00369532;0.00374845;-0.00177706;0.00276275;0.466517;2.14354;0.00325713;0.00368367;2.10935;0.474079;57.978;102.978;0.0073705;-0.00172904;-0.00433741;0.00323848;0.00368609;-0.000868633;0.0150254;0;0.0314951;0.0575481;-0.539285;-1.14896;1.27053;-7.33167;-0.00131645;-4.4274e-05;0.00530051;0.0053008;-0.00131675;0.00330878;0.248363;4.02636;0.00404487;0.0044117;4.02568;0.248405;93.0719;138.072;0.0010218;-0.00131648;0.000144219;-0.000231527;0.0053005;0.000125925;0.0315841;0;0.0332557;7.47954;4.63698
369000;370;25.89;0.137148;0.00532557;-2.31375;25.7858;0.169635;0.0203233;0.15191;-0.644463;0.0368279;-0.39459;-0.491023;0.631;-7.49487;-0.00194799;-0.000837707;0.00354617;0.00367106;-0.00207288;0.00287197;0.549321;1.82043;0.00335878;0.00382929;1.771;0.564653;59.415;104.415;0.00735987;-0.00195212;-0.00468773;0.00299125;0.00353558;-0.000175252;0.017618;0;0.0233114;0.0571067;-0.54387;-1.14183;1.26603;-7.32454;-0.00142551;5.83018e-05;0.00533947;0.00533997;-0.00142601;0.00338299;0.266976;3.74565;0.00411845;0.00451066;3.74468;0.267045;91.0169;136.017;0.000953047;-0.00142551;0.000162144;-4.48411e-05;0.00533946;-5.65161e-05;0.0328573;0;0.019113;7.50173;4.64313
370000;371;25.8919;0.139096;0.0054012;-2.31489;25.7877;0.168084;0.0191844;0.153774;-0.646014;0.0359872;-0.395499;-0.492665;0.632798;-7.49651;-0.00192644;-0.000945856;0.003857;0.00400776;-0.0020772;0.00304248;0.499467;2.00213;0.00357161;0.00405664;1.9294;0.518296;61.4399;106.44;0.00677015;-0.00192974;-0.00464776;0.00273473;0.00384668;-5.13093e-05;0.0171126;0;0.0254838;0.0554506;-0.546961;-1.14532;1.27043;-7.32803;-0.00124948;-1.39182e-06;0.00536109;0.00536109;-0.00124948;0.00330529;0.233065;4.29065;0.00405523;0.00440705;4.29065;0.233065;93.4151;138.415;0.000168797;-0.00124951;0.000245291;-0.000246452;0.00536106;0.0013221;0.0324261;0;0.0225054;7.52113;4.65098
371000;372;25.8933;0.140487;0.00545522;-2.31509;25.7891;0.163561;0.0189801;0.155181;-0.650537;0.0359966;-0.397699;-0.495764;0.636587;-7.49961;-0.00191235;-0.000548581;0.00381473;0.00386681;-0.00196442;0.00291561;0.501306;1.99479;0.00342586;0.00388749;1.96842;0.508022;57.5714;102.571;0.00755585;-0.00191734;-0.00432294;0.00320425;0.00380557;-0.00171622;0.0166582;0;0.0259747;0.0547451;-0.551222;-1.15011;1.27656;-7.33283;-0.00121681;-3.92445e-05;0.00579536;0.00579558;-0.00121703;0.00350631;0.209963;4.76275;0.00432683;0.00467508;4.76207;0.209993;92.9508;137.951;0.000291847;-0.00121684;0.000172748;-0.000249759;0.00579535;0.000287925;0.0340689;0;0.0183108;7.54183;4.65817
372000;373;25.8974;0.144619;0.00561566;-2.31585;25.7932;0.166328;0.0182281;0.159244;-0.64777;0.035089;-0.396424;-0.502946;0.641356;-7.50679;-0.00203209;-0.00042192;0.0044729;0.00450015;-0.00205934;0.00327975;0.454311;2.20113;0.00387354;0.004373;2.18524;0.457616;57.4374;102.437;0.00734547;-0.00203803;-0.00433798;0.00346879;0.00446362;-0.00102046;0.0157451;0;0.0279372;0.0535038;-0.553343;-1.15789;1.28443;-7.3406;-0.00123332;-0.000159509;0.00609212;0.00609559;-0.00123679;0.00366619;0.202444;4.93963;0.00453259;0.00488825;4.92857;0.202899;95.8451;140.845;-0.000112863;-0.00123346;0.000236232;-0.000552368;0.0060921;0.000758524;0.0341232;0;0.019234;7.56024;4.66554
373000;374;25.9014;0.148582;0.00576954;-2.31664;25.7971;0.166337;0.0174354;0.163152;-0.647762;0.0346911;-0.4005;-0.49561;0.638148;-7.49945;-0.00200283;-0.00053681;0.00394998;0.003998;-0.00205086;0.00302443;0.50705;1.97219;0.00355211;0.00403257;1.94943;0.512971;57.4612;102.461;0.0072074;-0.0020078;-0.00428959;0.00319372;0.00394096;-0.000941882;0.0170656;0;0.0253817;0.0525285;-0.560102;-1.15157;1.28163;-7.33428;-0.00137441;-9.91358e-05;0.00653524;0.00653648;-0.00137565;0.00395607;0.210307;4.75495;0.00488125;0.00527476;4.75156;0.210457;94.1608;139.161;-0.000106965;-0.00137449;0.00021452;-0.000410327;0.00653522;-0.00030205;0.0333061;0;0.0200352;7.58518;4.67263
374000;375;25.9043;0.151483;0.0058822;-2.31693;25.8;0.161119;0.0171422;0.166072;-0.652979;0.0343728;-0.401922;-0.503156;0.644894;-7.507;-0.00216688;-0.000433295;0.00517551;0.00520099;-0.00219236;0.00369668;0.41868;2.38846;0.00438478;0.0049289;2.37232;0.421528;59.0758;104.076;0.00696942;-0.00217262;-0.00430672;0.00341185;0.00516638;-0.00105951;0.016267;0;0.0268136;0.0514851;-0.565858;-1.162;1.29348;-7.34471;-0.00126242;-0.000306479;0.00657267;0.00658464;-0.00127439;0.00392951;0.192071;5.2064;0.00487045;0.00523935;5.16689;0.19354;95.637;140.637;0.000342424;-0.00126257;1.22429e-05;-0.000622721;0.00657271;0.000455346;0.0308411;0;0.0204235;7.60341;4.68042
375000;376;25.9066;0.153828;0.00597323;-2.3175;25.8023;0.161444;0.0165796;0.168373;-0.652654;0.0338743;-0.40544;-0.494757;0.640557;-7.4986;-0.00220789;-0.000464793;0.00472812;0.00475912;-0.0022389;0.00349901;0.466971;2.14146;0.00412672;0.00466535;2.12565;0.470444;57.9001;102.9;0.0073301;-0.00221354;-0.00434596;0.00338959;0.00471882;-0.00177312;0.0167657;0;0.0254012;0.0505314;-0.573062;-1.15342;1.28893;-7.33614;-0.00135892;-0.000294777;0.00687141;0.00688195;-0.00136947;0.00412571;0.197765;5.05651;0.00510605;0.00550095;5.02528;0.198994;97.5173;142.517;3.2436e-05;-0.00135922;0.000241544;-0.000826713;0.00687142;0.00167317;0.0287342;0;0.0198862;7.61805;4.68762
376000;377;25.9136;0.16075;0.00624204;-2.31913;25.8091;0.162901;0.0149446;0.175167;-0.651197;0.0349854;-0.405008;-0.500152;0.644522;-7.504;-0.00214212;-0.000263156;0.00531571;0.00532498;-0.00215139;0.00373819;0.402978;2.48152;0.00444423;0.00498425;2.47514;0.404018;58.4253;103.425;0.00646129;-0.00214828;-0.00407267;0.0035181;0.0053075;-0.000143811;0.0158516;0;0.0249143;0.0499663;-0.578099;-1.15861;1.29579;-7.34133;-0.0014139;-0.000312379;0.0069434;0.00695506;-0.00142556;0.00419031;0.203633;4.91081;0.00517773;0.00558708;4.87882;0.204968;98.562;143.562;0.000125501;-0.0014143;0.000322656;-0.000942143;0.0069434;0.00268211;0.0298976;0;0.0257866;7.6405;4.69543
377000;378;25.9162;0.163416;0.00634556;-2.31977;25.8117;0.159572;0.0143056;0.177808;-0.654526;0.033198;-0.404641;-0.504003;0.64719;-7.50785;-0.0022582;-0.000320384;0.00507949;0.00509345;-0.00227216;0.00368281;0.444573;2.24935;0.00435528;0.00491041;2.24167;0.446095;57.8879;102.888;0.00718718;-0.00226396;-0.00407418;0.00340601;0.00507128;-0.000797956;0.0170124;0;0.0243332;0.0474059;-0.5818;-1.16437;1.3025;-7.34708;-0.00130954;-0.000403393;0.00669572;0.006716;-0.00132982;0.00402291;0.195579;5.11303;0.00498014;0.00536388;5.05032;0.198007;100.563;145.563;0.00110501;-0.00131011;0.000342;-0.00114286;0.00669574;0.00184347;0.0283094;0;0.0214914;7.65446;4.70215
378000;379;25.9207;0.167842;0.00651743;-2.3198;25.8162;0.159001;0.0142794;0.182253;-0.655097;0.032018;-0.407545;-0.501568;0.647062;-7.50541;-0.00220271;-0.0004763;0.00574544;0.00577388;-0.00223115;0.00400251;0.383385;2.60835;0.00477019;0.00533669;2.58785;0.386422;60.9105;105.911;0.00721665;-0.00220816;-0.00431487;0.00333194;0.00573629;-0.00100373;0.0168737;0;0.0334167;0.0458265;-0.588208;-1.16404;1.30502;-7.34676;-0.00129298;-0.000316881;0.00647152;0.00648443;-0.00130589;0.00389516;0.199796;5.00511;0.00481762;0.00519355;4.96552;0.201389;98.8625;143.862;0.000941537;-0.00129335;0.000287621;-0.000916719;0.00647153;0.00274374;0.0299976;0;0.032798;7.66857;4.70688
379000;380;25.9264;0.173561;0.00673951;-2.32156;25.8217;0.158628;0.0125157;0.187839;-0.65547;0.0335003;-0.406633;-0.505521;0.649634;-7.50937;-0.00221808;-0.000553846;0.00584591;0.00588377;-0.00225594;0.00406986;0.379425;2.63557;0.00485256;0.00542648;2.60812;0.383418;62.1879;107.188;0.0068198;-0.00222269;-0.00421791;0.00308085;0.00583722;-0.000141613;0.0168565;0;0.0260471;0.0462234;-0.592548;-1.16849;1.31096;-7.35121;-0.00133125;-0.000260018;0.00651615;0.00652475;-0.00133985;0.0039323;0.204299;4.89478;0.00485843;0.00524307;4.86976;0.205349;97.2448;142.245;0.00125085;-0.00133149;0.000232961;-0.000749153;0.00651615;0.0022348;0.0301686;0;0.0306442;7.68708;4.71102
380000;381;25.9319;0.179065;0.00695322;-2.32099;25.8273;0.161889;0.0130846;0.193396;-0.652209;0.0319715;-0.406609;-0.506233;0.650096;-7.51008;-0.00251719;-0.00076991;0.00587482;0.00594487;-0.00258724;0.00426605;0.42847;2.33388;0.00505156;0.00568807;2.29777;0.435205;62.597;107.597;0.0068457;-0.00252102;-0.00443959;0.00286916;0.00586532;0.00044937;0.0180852;0;0.0235116;0.0443168;-0.597272;-1.16945;1.31389;-7.35217;-0.00131007;-0.000170648;0.00667173;0.00667538;-0.00131371;0.00399454;0.196361;5.09266;0.00494665;0.00532606;5.0813;0.1968;96.3589;141.359;0.000477231;-0.00131027;0.000318323;-0.000655743;0.00667169;0.00336274;0.0299519;0;0.02512;7.69782;4.71663
381000;382;25.937;0.184129;0.00714984;-2.32211;25.8323;0.160563;0.0119641;0.198388;-0.653535;0.0328539;-0.407209;-0.510616;0.653932;-7.51446;-0.00245223;-0.000364075;0.00592113;0.00593693;-0.00246804;0.00420248;0.41415;2.41459;0.00498847;0.00560331;2.40553;0.415709;60.4031;105.403;0.00673779;-0.00245737;-0.00398082;0.00322257;0.00591332;-0.000257622;0.0170288;0;0.0227604;0.043953;-0.602714;-1.17406;1.32046;-7.35678;-0.00147031;-0.000122837;0.00700862;0.0070104;-0.00147209;0.00424125;0.209786;4.76675;0.00523377;0.005655;4.7622;0.209987;96.9168;141.917;0.00046269;-0.00147056;0.00047878;-0.000719388;0.00700852;0.00256936;0.0331057;0;0.0214894;7.71265;4.72368
382000;383;25.9419;0.189123;0.00734378;-2.32205;25.8373;0.160539;0.0120247;0.203408;-0.653559;0.032092;-0.407794;-0.509705;0.653547;-7.51355;-0.00241761;-0.000402168;0.00618727;0.00620603;-0.00243636;0.0043212;0.390739;2.55925;0.00514548;0.0057616;2.54725;0.39258;61.1338;106.134;0.00658194;-0.00242303;-0.00414966;0.00331328;0.0061788;0.00139963;0.0167046;0;0.0247382;0.0427545;-0.608178;-1.17396;1.32284;-7.35668;-0.00143765;-0.000169255;0.00742834;0.00743157;-0.00144088;0.00443622;0.193536;5.16701;0.00549797;0.00591496;5.15766;0.193886;96.2303;141.23;-5.11207e-05;-0.00143789;0.000377747;-0.000711444;0.00742828;0.00289551;0.0323908;0;0.023617;7.72078;4.73066
383000;384;25.9477;0.194903;0.00756821;-2.32281;25.8431;0.157401;0.0112625;0.209162;-0.656697;0.0324547;-0.410385;-0.506083;0.652372;-7.50993;-0.00248727;-0.000549884;0.00577179;0.00580824;-0.00252373;0.00416598;0.430937;2.32053;0.00493348;0.00555464;2.30145;0.434508;61.2085;106.208;0.00683311;-0.00249165;-0.0041331;0.00300392;0.00576344;-0.00132617;0.0180099;0;0.0221457;0.0420369;-0.616157;-1.17258;1.32528;-7.3553;-0.00146133;-0.000239479;0.00801334;0.00801939;-0.00146738;0.00474338;0.182362;5.48361;0.00589656;0.00632451;5.46512;0.182978;95.9225;140.922;0.00013789;-0.00146158;0.000280675;-0.000754744;0.00801333;0.00305122;0.0334654;0;0.0197197;7.73852;4.73813
384000;385;25.9542;0.201352;0.00781864;-2.32539;25.8493;0.155935;0.00868824;0.215415;-0.658163;0.0339624;-0.41062;-0.505294;0.651984;-7.50914;-0.00258935;-0.000306833;0.00644397;0.00645438;-0.00259976;0.00452707;0.401825;2.48864;0.005383;0.00603609;2.48268;0.40279;61.7547;106.755;0.00662194;-0.00259407;-0.00372841;0.00308403;0.00643711;-0.000580782;0.0176075;0;0.0234924;0.0417631;-0.623403;-1.17236;1.32846;-7.35508;-0.0015856;-0.000345753;0.00822565;0.00823782;-0.00159777;0.0049178;0.192763;5.18772;0.00609469;0.00655706;5.15582;0.193955;95.5704;140.57;-0.000478815;-0.00158583;7.17405e-05;-0.000759184;0.00822571;0.00356052;0.0305114;0;0.0245829;7.74693;4.74444
385000;386;25.9602;0.207382;0.00805278;-2.32496;25.8554;0.150291;0.00911113;0.22154;-0.663807;0.0322374;-0.410353;-0.506542;0.652697;-7.51039;-0.00269382;-0.000464745;0.00674581;0.00676864;-0.00271665;0.00474265;0.399333;2.50418;0.00564044;0.00632353;2.49154;0.401358;62.457;107.457;0.00656347;-0.00269869;-0.00411257;0.00314889;0.00673752;0.000522546;0.0168084;0;0.0232863;0.0399353;-0.629197;-1.17489;1.33336;-7.3576;-0.00141707;-0.000342917;0.00843509;0.00844701;-0.00142899;0.004938;0.167997;5.95249;0.00616314;0.006584;5.91117;0.169171;96.0411;141.041;-0.000469828;-0.00141737;0.000160724;-0.000841638;0.00843514;0.00458547;0.0277322;0;0.0251718;7.75268;4.75202
386000;387;25.9681;0.215257;0.00835857;-2.32581;25.8633;0.150853;0.00826173;0.229367;-0.663245;0.0310006;-0.409204;-0.508545;0.653473;-7.51239;-0.00278873;-0.000509007;0.00709667;0.00712281;-0.00281487;0.00496884;0.392963;2.54477;0.00591449;0.00662512;2.53042;0.395191;63.7916;108.792;0.00619494;-0.00279305;-0.00403082;0.00297824;0.00708874;0.000719494;0.0166987;0;0.0240206;0.0381854;-0.635096;-1.17808;1.33891;-7.3608;-0.00154282;-0.00036225;0.00856735;0.00858031;-0.00155579;0.00506805;0.180082;5.55304;0.00630313;0.0067574;5.5151;0.18132;96.8784;141.878;-0.000220031;-0.00154322;0.00024061;-0.000959066;0.00856738;0.00513273;0.0283608;0;0.0242144;7.76671;4.7595
387000;388;25.9768;0.223968;0.00869683;-2.32774;25.8718;0.153981;0.00633522;0.237922;-0.660117;0.0314655;-0.406776;-0.512866;0.655354;-7.51671;-0.00276922;-0.000497028;0.00722146;0.00724613;-0.00279388;0.00502;0.383471;2.60776;0.00598357;0.00669334;2.59357;0.385569;64.4308;109.431;0.00619055;-0.00277333;-0.00393512;0.00290697;0.0072139;-0.00036783;0.0169214;0;0.0230552;0.0375321;-0.640316;-1.18196;1.34479;-7.36468;-0.00154046;-0.0003406;0.008527;0.00853851;-0.00155197;0.00504524;0.180656;5.53537;0.00627398;0.00672699;5.50173;0.181761;96.8196;141.82;0.000321035;-0.00154084;0.000265962;-0.000941108;0.00852703;0.00535679;0.0292364;0;0.0236609;7.77308;4.76753
388000;389;25.9822;0.229356;0.00890606;-2.32752;25.8773;0.152626;0.00655841;0.24336;-0.661472;0.0312758;-0.407242;-0.513994;0.656517;-7.51784;-0.00290828;-0.000282486;0.00686145;0.00686961;-0.00291644;0.00489303;0.423858;2.35928;0.00580161;0.00652404;2.35548;0.424543;61.3271;106.327;0.00604194;-0.00291349;-0.00383358;0.00323415;0.00685419;-9.71372e-05;0.0162619;0;0.0215634;0.0367307;-0.646913;-1.185;1.35058;-7.36771;-0.00151696;-0.000127323;0.00842251;0.00842414;-0.0015186;0.00497137;0.180108;5.55221;0.00618475;0.00662849;5.54732;0.180267;94.5695;139.57;0.000720802;-0.00151713;0.000341693;-0.000591717;0.00842246;0.00472874;0.0310229;0;0.0261668;7.78234;4.7737
389000;390;25.9898;0.237019;0.00920363;-2.32818;25.8849;0.15174;0.00589953;0.251001;-0.662358;0.0316233;-0.407978;-0.512702;0.655979;-7.51655;-0.00306145;-0.000736512;0.00802112;0.00806985;-0.00311018;0.00559002;0.381674;2.62004;0.00666315;0.00745335;2.59465;0.385408;66.8424;111.842;0.00547601;-0.00306473;-0.00417076;0.00265999;0.00801276;0.00113095;0.0169839;0;0.0229362;0.0359793;-0.654417;-1.18462;1.35384;-7.36733;-0.00162352;2.11004e-06;0.00851811;0.00851811;-0.00162352;0.00507082;0.190596;5.2467;0.00629015;0.00676109;5.2467;0.190596;95.07;140.07;0.000519096;-0.00162371;0.000625425;-0.000614937;0.00851792;0.00474582;0.0307788;0;0.0252063;7.79186;4.78064
390000;391;25.9971;0.244306;0.00948657;-2.32868;25.8922;0.153557;0.00539647;0.258261;-0.660541;0.0311082;-0.405137;-0.518028;0.658374;-7.52187;-0.00310373;-0.000507534;0.0081117;0.00813462;-0.00312665;0.00563063;0.382624;2.61353;0.00671258;0.00750751;2.6017;0.384364;65.4567;110.457;0.00629933;-0.00310803;-0.00402357;0.00296939;0.00810379;-0.000747348;0.0171819;0;0.025575;0.0349741;-0.659118;-1.18811;1.35914;-7.37082;-0.00150254;3.07593e-05;0.00886343;0.00886352;-0.00150263;0.00518308;0.169521;5.89896;0.00646833;0.00691077;5.89866;0.16953;93.172;138.172;0.000557592;-0.00150262;0.000465913;-0.000399923;0.00886332;0.00427024;0.0320296;0;0.027004;7.79178;4.78349
391000;392;26.0044;0.251575;0.00976882;-2.32954;25.8994;0.149691;0.0045388;0.265504;-0.664408;0.0311203;-0.406132;-0.51545;0.656963;-7.51929;-0.00322267;-0.000769485;0.00854049;0.00859061;-0.00327279;0.0059317;0.37734;2.65013;0.007075;0.00790894;2.62486;0.380973;67.7755;112.776;0.0052814;-0.00322581;-0.00419722;0.00261828;0.00853205;0.00217855;0.0152701;0;0.0233161;0.0338801;-0.66665;-1.18847;1.36309;-7.37118;-0.0017035;8.58792e-06;0.00960742;0.00960743;-0.00170351;0.00565547;0.177311;5.63981;0.00704181;0.00754062;5.63979;0.177312;94.4713;139.471;-3.43008e-06;-0.00170369;0.00064267;-0.00061839;0.00960722;0.00519462;0.0313826;0;0.0211053;7.80262;4.78868
392000;393;26.0126;0.259734;0.0100857;-2.33046;25.9075;0.149188;0.00361708;0.273617;-0.664911;0.0309319;-0.404666;-0.517588;0.657731;-7.52143;-0.00335418;-0.000684676;0.00862325;0.00866227;-0.0033932;0.00602773;0.38897;2.5709;0.0071784;0.00803697;2.55283;0.391721;67.0082;112.008;0.00595734;-0.00335773;-0.00415617;0.00274561;0.00861492;-8.8788e-06;0.0162339;0;0.0260974;0.0328446;-0.673488;-1.19073;1.3684;-7.37345;-0.00181071;9.97755e-06;0.0104488;0.0104488;-0.00181072;0.00612976;0.173293;5.77056;0.00764129;0.00817301;5.77054;0.173294;94.174;139.174;-0.000143118;-0.00181091;0.000657663;-0.00062985;0.0104486;0.00564704;0.0320461;0;0.0235521;7.80968;4.79625
393000;394;26.0227;0.269879;0.0104796;-2.33241;25.9175;0.147388;0.00166241;0.283638;-0.666711;0.0306303;-0.403858;-0.51693;0.656701;-7.52078;-0.00341137;-0.000912115;0.00863509;0.00870376;-0.00348004;0.0060919;0.395059;2.53127;0.00724662;0.00812253;2.50105;0.399832;68.6737;113.674;0.00506748;-0.0034137;-0.00420281;0.00233929;0.00862674;0.00022118;0.0160476;0;0.0250689;0.0315191;-0.681207;-1.19137;1.37274;-7.37409;-0.00190532;-0.000263148;0.0107632;0.0107686;-0.00191078;0.00633971;0.177022;5.64901;0.00789348;0.00845294;5.63571;0.17744;95.5219;140.522;-0.000364984;-0.00190573;0.000419102;-0.000936846;0.0107631;0.00550525;0.0265549;0;0.0263973;7.81797;4.80353
394000;395;26.0312;0.278351;0.0108086;-2.33319;25.926;0.146479;0.000883041;0.292078;-0.667619;0.0310892;-0.402678;-0.517179;0.656194;-7.52102;-0.00353936;-0.000662901;0.0092707;0.00930491;-0.00357358;0.00643924;0.38178;2.61931;0.00767691;0.00858566;2.60381;0.384053;68.7151;113.715;0.00575297;-0.00354245;-0.00393553;0.0025682;0.00926324;-0.00127301;0.0163132;0;0.0275072;0.0309312;-0.688857;-1.19278;1.37776;-7.3755;-0.00193105;-0.000135327;0.0111529;0.0111543;-0.00193245;0.00654336;0.173144;5.77554;0.008157;0.00872449;5.77209;0.173248;94.3745;139.375;-0.000479177;-0.00193132;0.000483802;-0.000746445;0.0111528;0.00626875;0.029659;0;0.0256806;7.82286;4.81117
395000;396;26.0407;0.287921;0.0111802;-2.33383;25.9355;0.14709;0.000245142;0.301627;-0.667008;0.0306429;-0.401784;-0.516914;0.655415;-7.52076;-0.0035682;-0.000733183;0.00915555;0.00919766;-0.00361031;0.00640399;0.389731;2.56587;0.00762562;0.00853865;2.54761;0.392525;68.9264;113.926;0.00530679;-0.00357093;-0.00395051;0.00244359;0.00914809;-0.00011485;0.0149405;0;0.0271476;0.0295089;-0.696821;-1.19414;1.38289;-7.37685;-0.00205552;-4.69799e-05;0.0109651;0.0109653;-0.00205569;0.00651049;0.18746;5.33447;0.00808303;0.00868065;5.33411;0.187473;93.4478;138.448;0.000226527;-0.00205567;0.000464737;-0.000552106;0.010965;0.00530244;0.0298145;0;0.0304463;7.82735;4.81855
396000;397;26.0475;0.294636;0.0114409;-2.33464;25.9422;0.140528;-0.000561979;0.308333;-0.67357;0.0300005;-0.401532;-0.51541;0.654046;-7.51925;-0.00359117;-0.000603277;0.00929251;0.00932069;-0.00361936;0.00647002;0.386459;2.5876;0.00770887;0.0086267;2.57524;0.388314;68.0271;113.027;0.00576689;-0.00359466;-0.00395425;0.00270493;0.00928494;-0.00147981;0.0172896;0;0.0249367;0.0282194;-0.704361;-1.19456;1.38705;-7.37728;-0.00215924;-2.99955e-05;0.0106355;0.0106356;-0.00215931;0.00639746;0.203022;4.92558;0.00790905;0.00852994;4.92545;0.203027;93.8162;138.816;0.000485679;-0.00215941;0.000523568;-0.000576551;0.0106354;0.00557704;0.0316973;0;0.031629;7.82991;4.8265
397000;398;26.0563;0.303432;0.0117825;-2.33655;25.9509;0.145684;-0.00247819;0.316963;-0.668414;0.0296348;-0.400405;-0.514143;0.652339;-7.51799;-0.00386671;-0.00110813;0.0100268;0.0101146;-0.00395454;0.00703457;0.385638;2.5931;0.00837834;0.00937943;2.55772;0.390973;71.1235;116.123;0.00554859;-0.00386845;-0.00442863;0.00216671;0.0100177;-0.00146583;0.0161187;0;0.0253053;0.0267179;-0.711074;-1.19188;1.38813;-7.37459;-0.00225278;0.00010226;0.010678;0.0106788;-0.00225359;0.00646621;0.210974;4.73993;0.00797724;0.00862161;4.73858;0.211034;93.0408;138.041;0.000487678;-0.00225286;0.000624123;-0.000412927;0.0106778;0.00573715;0.0327433;0;0.0270213;7.83269;4.83301
398000;399;26.0626;0.309765;0.0120284;-2.33695;25.9572;0.140587;-0.00287057;0.323314;-0.673512;0.0301993;-0.400322;-0.513996;0.652197;-7.51784;-0.00384772;-0.000682649;0.00966955;0.00970393;-0.00388211;0.00679302;0.397922;2.51306;0.0080804;0.00905736;2.49965;0.400055;69.2314;114.231;0.0053178;-0.00385054;-0.00387367;0.00246566;0.00966235;-0.000473873;0.0168816;0;0.0241821;0.0266818;-0.71775;-1.19564;1.39479;-7.37835;-0.00235544;9.36786e-05;0.0113492;0.0113499;-0.00235608;0.00685297;0.207542;4.8183;0.00846199;0.0091373;4.81726;0.207587;92.2001;137.2;0.000212404;-0.00235549;0.00050625;-0.000313302;0.0113491;0.00568156;0.0320912;0;0.0248563;7.84052;4.83966
399000;400;26.0721;0.319273;0.0123976;-2.33705;25.9668;0.140307;-0.00297317;0.332854;-0.673792;0.0309489;-0.399091;-0.520292;0.656457;-7.52414;-0.00376491;-0.000568119;0.0107487;0.0107709;-0.00378712;0.00727903;0.350266;2.85498;0.00872153;0.00970538;2.8441;0.351605;70.923;115.923;0.00601705;-0.00376825;-0.0038219;0.00263894;0.0107417;-0.00231741;0.0150674;0;0.0305702;0.0266967;-0.725919;-1.2019;1.40436;-7.38461;-0.00232846;0.000166077;0.0123628;0.0123647;-0.00233034;0.0073475;0.188344;5.30943;0.00911967;0.00979666;5.30596;0.188467;91.6812;136.681;0.000430904;-0.00232847;0.000579889;-0.00024173;0.0123626;0.00430325;0.0299347;0;0.0245729;7.85459;4.84745
400000;401;26.0812;0.328374;0.012751;-2.33794;25.9758;0.138973;-0.00387018;0.341918;-0.675125;0.0296008;-0.396277;-0.517636;0.652579;-7.52148;-0.00410643;-0.000850286;0.0101355;0.0101861;-0.00415701;0.00717154;0.405154;2.4682;0.00852136;0.00956206;2.45033;0.408108;69.8824;114.882;0.00619907;-0.00410891;-0.00412651;0.00237976;0.0101274;-0.00289363;0.0155892;0;0.0254689;0.024884;-0.731431;-1.20184;1.40714;-7.38455;-0.00233091;0.000150388;0.012996;0.0129975;-0.00233239;0.00766492;0.179356;5.57549;0.00953797;0.0102199;5.5726;0.179449;91.5458;136.546;-0.000545665;-0.00233093;0.000548576;-0.000241776;0.0129958;0.00637483;0.0304066;0;0.034121;7.85019;4.85386
401000;402;26.0897;0.336839;0.0130797;-2.33915;25.9842;0.139379;-0.00507912;0.350306;-0.67472;0.0310872;-0.396902;-0.518878;0.654013;-7.52272;-0.00394726;-0.000718511;0.011261;0.0112949;-0.00398113;0.00763802;0.350524;2.85288;0.00915037;0.010184;2.83711;0.352471;72.8266;117.827;0.00568538;-0.00394969;-0.00379747;0.00231416;0.0112542;-0.0019128;0.0147944;0;0.025917;0.0247094;-0.741207;-1.19858;1.40946;-7.38129;-0.00268446;-2.91185e-05;0.013238;0.0132381;-0.00268451;0.0079613;0.202784;4.93135;0.00984301;0.0106151;4.93127;0.202787;93.234;138.234;-0.000800669;-0.00268464;0.000557256;-0.000606278;0.0132379;0.00742692;0.0293379;0;0.0246873;7.8529;4.85682
402000;403;26.0997;0.346859;0.0134688;-2.33997;25.9942;0.142186;-0.00589057;0.360279;-0.671913;0.0283153;-0.393198;-0.526064;0.657381;-7.52991;-0.00397439;-0.00082874;0.0109386;0.0109845;-0.00402031;0.00750241;0.363336;2.75227;0.00896867;0.0100032;2.73226;0.365997;72.1295;117.129;0.0064117;-0.00397672;-0.00401212;0.00230769;0.010931;-0.00400521;0.0150002;0;0.0240719;0.0215806;-0.747189;-1.20486;1.41791;-7.38758;-0.00269284;-6.85438e-05;0.0133592;0.0133595;-0.00269313;0.00802633;0.201572;4.96101;0.00992659;0.0107018;4.96058;0.201589;94.0645;139.065;-0.00110344;-0.00269315;0.000656414;-0.000782018;0.013359;0.00830774;0.0310286;0;0.0287785;7.85918;4.86203
403000;404;26.1091;0.356271;0.0138342;-2.34107;26.0035;0.142655;-0.00699873;0.369627;-0.671443;0.0272867;-0.393245;-0.524742;0.656308;-7.52859;-0.00419554;-0.000721144;0.0108872;0.0109216;-0.00422994;0.00757578;0.385363;2.59496;0.00902767;0.010101;2.58198;0.387299;70.342;115.342;0.00648831;-0.00419864;-0.00408288;0.00259044;0.0108792;-0.00352944;0.0159945;0;0.0281845;0.019829;-0.755419;-1.20564;1.42289;-7.38835;-0.00286262;-4.92696e-05;0.0130104;0.0130105;-0.00286278;0.00793666;0.220026;4.54492;0.0097688;0.0105822;4.54473;0.220035;94.3483;139.348;-0.000808817;-0.00286293;0.000704342;-0.000791073;0.0130102;0.00821487;0.0317734;0;0.0333419;7.86547;4.86925
404000;405;26.1155;0.362718;0.0140846;-2.34128;26.01;0.135735;-0.00720468;0.376118;-0.678363;0.02767;-0.392179;-0.523834;0.65496;-7.52768;-0.00426655;-0.000682126;0.0113244;0.0113542;-0.00429633;0.00782526;0.376757;2.65423;0.00933708;0.0104337;2.64276;0.378392;71.5765;116.576;0.00592842;-0.00426938;-0.00388299;0.0024694;0.0113172;-0.00131298;0.0159012;0;0.0329644;0.018957;-0.761905;-1.20703;1.42751;-7.38974;-0.0028204;0.000141549;0.0127539;0.0127552;-0.00282169;0.00778842;0.221141;4.522;0.00958348;0.0103846;4.5204;0.22122;92.817;137.817;-0.000513226;-0.00282049;0.000730268;-0.000438117;0.0127536;0.00842146;0.0323028;0;0.0352667;7.87018;4.87683
405000;406;26.1242;0.37142;0.0144225;-2.34301;26.0186;0.137735;-0.00893824;0.384689;-0.676363;0.0271707;-0.390427;-0.525567;0.65528;-7.52941;-0.0043585;-0.000769139;0.0111962;0.0112342;-0.00439644;0.00781531;0.389282;2.56883;0.00930773;0.0104204;2.55529;0.391345;71.1832;116.183;0.00686976;-0.0043612;-0.00402982;0.0024414;0.0111885;-0.00444781;0.0157648;0;0.0260123;0.0173331;-0.768906;-1.20847;1.43245;-7.39119;-0.00290818;0.000183422;0.0130013;0.0130034;-0.00291029;0.00795686;0.223683;4.47061;0.0097844;0.0106091;4.46809;0.223809;93.0156;138.016;-0.000310407;-0.00290827;0.000843055;-0.000465851;0.013001;0.00778421;0.0332174;0;0.0303485;7.8706;4.88445
406000;407;26.1326;0.379819;0.0147486;-2.34259;26.0271;0.136669;-0.0085168;0.393165;-0.677429;0.0271074;-0.388525;-0.528053;0.656145;-7.5319;-0.00402387;-0.00088734;0.0109048;0.0109574;-0.00407642;0.00751691;0.368998;2.71004;0.00897772;0.0100226;2.68799;0.372025;72.0651;117.065;0.00676454;-0.00402607;-0.00409572;0.00227367;0.0108969;-0.00356403;0.0173323;0;0.0265314;0.0166567;-0.775279;-1.21097;1.43798;-7.39368;-0.0030026;0.000252981;0.0137084;0.0137122;-0.00300643;0.00835931;0.219034;4.5655;0.010291;0.0111458;4.56096;0.219252;92.8299;137.83;4.78549e-06;-0.00300266;0.000957181;-0.00043961;0.0137079;0.00728278;0.0322447;0;0.0263986;7.87408;4.89151
407000;408;26.1414;0.38855;0.0150877;-2.34343;26.0358;0.133646;-0.00935603;0.401872;-0.680453;0.0272244;-0.389526;-0.521546;0.651523;-7.52539;-0.00454717;-0.00109025;0.0114912;0.011565;-0.00462095;0.00809295;0.39571;2.5271;0.00962733;0.0107906;2.50272;0.399565;72.9712;117.971;0.00702025;-0.00454859;-0.00423459;0.00200424;0.0114829;-0.00409369;0.0158378;0;0.0270409;0.0158874;-0.784392;-1.2086;1.44091;-7.39131;-0.00308596;0.000129692;0.0145585;0.0145595;-0.00308691;0.0088232;0.211969;4.71768;0.0108822;0.0117643;4.71653;0.21202;92.9474;137.947;-4.62883e-05;-0.0030861;0.000817203;-0.000545862;0.0145582;0.00711703;0.0304603;0;0.0291954;7.88717;4.89861
408000;409;26.151;0.398219;0.0154631;-2.34477;26.0454;0.131976;-0.0106972;0.411468;-0.682123;0.0269177;-0.389424;-0.522802;0.652455;-7.52665;-0.0044706;-0.000621138;0.0116767;0.0117005;-0.00449446;0.00809749;0.382866;2.61188;0.00965379;0.0107967;2.60332;0.384125;71.9402;116.94;0.00698166;-0.00447342;-0.00374055;0.00244849;0.0116699;-0.0042996;0.0172411;0;0.0246738;0.0144524;-0.793228;-1.21013;1.44701;-7.39285;-0.00315752;8.83757e-05;0.0150559;0.0150563;-0.00315795;0.00910713;0.20972;4.76826;0.0112391;0.0121428;4.76775;0.209743;92.3811;137.381;-0.00109537;-0.00315762;0.000650527;-0.000463689;0.0150557;0.0082374;0.0312394;0;0.032461;7.88974;4.90604
409000;410;26.1584;0.40561;0.0157501;-2.34565;26.0527;0.128912;-0.011578;0.418825;-0.685187;0.02761;-0.387125;-0.524434;0.652425;-7.52828;-0.00455794;-0.000759933;0.0117161;0.0117515;-0.00459335;0.00817243;0.389032;2.57048;0.0097337;0.0108966;2.55838;0.390873;72.0939;117.094;0.00691261;-0.00456044;-0.0039284;0.00235758;0.0117088;-0.00396232;0.0173801;0;0.0262962;0.0142612;-0.79909;-1.21333;1.4529;-7.39605;-0.00327305;-1.19638e-07;0.0154372;0.0154372;-0.00327305;0.00935511;0.212024;4.71645;0.0115383;0.0124735;4.71645;0.212024;94.2414;139.241;-0.000894366;-0.00327346;0.000920963;-0.000904231;0.0154367;0.0087658;0.0315078;0;0.0306602;7.88721;4.9141
410000;411;26.1701;0.417257;0.0162024;-2.34704;26.0643;0.131749;-0.0129605;0.430381;-0.68235;0.0274286;-0.383496;-0.530885;0.655484;-7.53473;-0.0042604;-0.000964098;0.0120228;0.0120797;-0.00431728;0.00819847;0.354361;2.82198;0.00981401;0.0109313;2.79798;0.357401;74.1103;119.11;0.00683825;-0.00426218;-0.00409597;0.0021174;0.0120149;-0.00295086;0.0167411;0;0.0300162;0.0127012;-0.80534;-1.21759;1.45988;-7.4003;-0.00334089;5.6802e-05;0.0155088;0.015509;-0.00334107;0.00942501;0.215419;4.64211;0.0116143;0.0125667;4.64192;0.215428;93.1854;138.185;-0.00122864;-0.00334111;0.000784376;-0.000657267;0.0155085;0.00996645;0.0326208;0;0.0333516;7.88976;4.92099
411000;412;26.1749;0.422102;0.0163905;-2.34704;26.0692;0.12651;-0.0129611;0.435272;-0.687588;0.026956;-0.382694;-0.529366;0.653766;-7.53321;-0.00451292;-0.000874607;0.0122133;0.0122589;-0.00455853;0.00840873;0.369509;2.7063;0.0100431;0.0112116;2.68923;0.371854;73.7204;118.72;0.0069506;-0.00451493;-0.00398165;0.0021811;0.0122059;-0.00341368;0.0170599;0;0.0280064;0.0117196;-0.811877;-1.21908;1.46473;-7.4018;-0.00355655;0.000202869;0.0153095;0.0153117;-0.00355873;0.00943522;0.232309;4.3046;0.0115778;0.0125803;4.30258;0.232419;93.9813;138.981;-0.00117147;-0.00355681;0.00116873;-0.000745048;0.0153089;0.00932615;0.0347154;0;0.0338505;7.89956;4.92788
412000;413;26.1864;0.433614;0.0168375;-2.34801;26.0806;0.133478;-0.0139348;0.446708;-0.68062;0.0268181;-0.381715;-0.533582;0.656609;-7.53743;-0.00450673;-0.00100556;0.0123079;0.0123678;-0.00456665;0.00846725;0.366165;2.73101;0.010117;0.0112897;2.7083;0.369236;74.242;119.242;0.00615938;-0.00450837;-0.00413188;0.00206885;0.0123;-0.00201216;0.0162699;0;0.0251315;0.0105721;-0.820592;-1.22093;1.47111;-7.40365;-0.00356886;0.000257005;0.0152611;0.0152646;-0.00357237;0.00941849;0.233853;4.27618;0.0115528;0.012558;4.27297;0.23403;93.4734;138.473;-0.000335693;-0.00356902;0.00114521;-0.000614729;0.0152605;0.00784856;0.0335525;0;0.0316062;7.91118;4.93564
413000;414;26.1938;0.44096;0.0171228;-2.34926;26.0879;0.131287;-0.0151816;0.453983;-0.682811;0.0268186;-0.379305;-0.536247;0.657383;-7.54009;-0.00457646;-0.00095793;0.0127748;0.0128275;-0.00462919;0.00872837;0.358241;2.79142;0.0104426;0.0116378;2.77101;0.360879;75.2966;120.297;0.00661695;-0.00457797;-0.00394511;0.00197808;0.0127676;-0.00347985;0.0163965;0;0.0259228;0.00980639;-0.825848;-1.22778;1.47972;-7.41049;-0.00355618;0.00039539;0.0154539;0.0154621;-0.0035644;0.00951325;0.230116;4.34564;0.0116789;0.0126843;4.33792;0.230525;93.1205;138.12;0.000316918;-0.00355623;0.00131151;-0.000503582;0.0154531;0.00804097;0.0333953;0;0.0316818;7.91019;4.94097
414000;415;26.2028;0.44999;0.0174734;-2.35057;26.0968;0.130277;-0.0164999;0.462936;-0.683821;0.0263626;-0.378516;-0.533943;0.65503;-7.53779;-0.00465034;-0.000955918;0.0125709;0.0126238;-0.00470324;0.00866354;0.369928;2.70323;0.0103463;0.0115514;2.68407;0.372568;74.0898;119.09;0.00680773;-0.00465219;-0.00411031;0.00214484;0.012563;-0.00290866;0.0179667;0;0.0275105;0.00821504;-0.834274;-1.22333;1.48075;-7.40604;-0.00378506;0.000182407;0.0163059;0.0163075;-0.00378672;0.0100471;0.232129;4.30795;0.0123293;0.0133962;4.3065;0.232207;94.2923;139.292;-0.000671104;-0.00378543;0.00126148;-0.000875332;0.0163051;0.00895576;0.0319608;0;0.0297985;7.9073;4.94433
415000;416;26.2132;0.46042;0.0178784;-2.3516;26.1072;0.135448;-0.0175251;0.473289;-0.67865;0.0264654;-0.378835;-0.532874;0.654348;-7.53672;-0.00469185;-0.00113302;0.0127637;0.012837;-0.00476509;0.00880102;0.367593;2.7204;0.0105127;0.0117347;2.69396;0.371201;74.7651;119.765;0.00620648;-0.0046932;-0.00431504;0.00199417;0.0127552;-0.00147242;0.0166454;0;0.0238952;0.00754408;-0.842017;-1.2243;1.48592;-7.40701;-0.00385531;0.000177266;0.0169839;0.0169854;-0.00385682;0.0104211;0.226998;4.40533;0.0128043;0.0138948;4.404;0.227066;93.9143;138.914;-0.000267024;-0.00385565;0.0012112;-0.000835486;0.0169832;0.0064392;0.033298;0;0.0326275;7.90738;4.95138
416000;417;26.2188;0.466024;0.018096;-2.35153;26.1129;0.130218;-0.0174527;0.478949;-0.68388;0.0263812;-0.377847;-0.53401;0.654699;-7.53785;-0.00472413;-0.0008251;0.0131722;0.0132102;-0.00476209;0.00898615;0.358643;2.78829;0.0107516;0.0119815;2.77403;0.360486;75.0037;120.004;0.00602585;-0.00472611;-0.00385411;0.00215041;0.0131652;-0.00184069;0.0150122;0;0.0262792;0.00669822;-0.84838;-1.22682;1.4916;-7.40954;-0.00394222;0.000126793;0.0174966;0.0174973;-0.00394297;0.0107202;0.225313;4.43826;0.0131773;0.0142935;4.43761;0.225347;93.8399;138.84;-0.000974342;-0.00394258;0.00113991;-0.000864977;0.017496;0.00881711;0.0332076;0;0.0297315;7.91275;4.95815
417000;418;26.2271;0.474259;0.0184158;-2.35244;26.1211;0.127101;-0.0183659;0.487151;-0.686997;0.0264196;-0.376409;-0.535745;0.65529;-7.53959;-0.00464857;-0.00121444;0.0133337;0.0134154;-0.00473021;0.00907279;0.348632;2.86835;0.010869;0.0120971;2.8361;0.352597;76.4775;121.477;0.00570263;-0.00464943;-0.00426892;0.00178585;0.0133255;-0.00105248;0.0172001;0;0.0228798;0.00591759;-0.855395;-1.22953;1.49783;-7.41224;-0.00403728;9.3195e-05;0.0176578;0.0176582;-0.00403768;0.0108479;0.22864;4.37369;0.0133235;0.0144639;4.37336;0.228657;93.8639;138.864;-0.00146762;-0.00403767;0.00109443;-0.000886698;0.0176572;0.00904868;0.0339119;0;0.0323895;7.92177;4.96525
418000;419;26.2362;0.483338;0.0187683;-2.35451;26.13;0.1244;-0.020435;0.496093;-0.689699;0.0270217;-0.377893;-0.530316;0.651743;-7.53416;-0.00491481;-0.00083235;0.014159;0.0141953;-0.00495106;0.00957318;0.347114;2.88089;0.0114756;0.0127642;2.86712;0.348782;75.4327;120.433;0.0066969;-0.00491709;-0.00401214;0.00228765;0.0141515;-0.00358281;0.0164991;0;0.0216934;0.00535621;-0.86519;-1.22612;1.50065;-7.40883;-0.00418932;0.000211929;0.0176273;0.0176294;-0.00419138;0.0109104;0.237661;4.20767;0.0133708;0.0145472;4.2061;0.23775;94.6389;139.639;-0.00128871;-0.00418982;0.00146584;-0.0010151;0.0176263;0.00901722;0.0345947;0;0.0347296;7.93723;4.97286
419000;420;26.2459;0.493114;0.019148;-2.35438;26.1398;0.124855;-0.0203084;0.505918;-0.689243;0.025402;-0.37854;-0.527191;0.649514;-7.53104;-0.00513085;-0.00106685;0.0136374;0.0136979;-0.00519129;0.00944458;0.376233;2.65793;0.0112683;0.0125928;2.63862;0.378986;75.1682;120.168;0.00610813;-0.00513234;-0.00422;0.00202792;0.0136292;-0.000889257;0.0156348;0;0.0349339;0.00334001;-0.874301;-1.22612;1.50592;-7.40883;-0.00435196;0.000379247;0.0176045;0.017611;-0.00435851;0.0109848;0.247208;4.04518;0.0134314;0.0146464;4.04061;0.247488;92.9346;137.935;-0.00118128;-0.00435203;0.00130869;-0.000530143;0.0176037;0.00908092;0.033547;0;0.0346305;7.94114;4.97943
420000;421;26.2552;0.50239;0.0195082;-2.35682;26.1489;0.132508;-0.0227452;0.514974;-0.681591;0.0246971;-0.37597;-0.531725;0.651686;-7.53557;-0.00515821;-0.00136839;0.0141861;0.0142824;-0.00525452;0.00976847;0.36361;2.7502;0.0116742;0.0130246;2.71812;0.367901;77.5918;122.592;0.00548588;-0.00515845;-0.00432928;0.00153604;0.0141778;-0.000887169;0.0166828;0;0.02576;0.00085427;-0.881436;-1.22662;1.51047;-7.40933;-0.00439436;0.000293585;0.0176789;0.0176828;-0.00439827;0.0110405;0.248565;4.02309;0.0134957;0.0147207;4.02041;0.248731;93.514;138.514;4.04665e-05;-0.00439457;0.00131016;-0.000700941;0.0176781;0.00780394;0.0349623;0;0.0320757;7.93506;4.98713
421000;422;26.2632;0.510383;0.0198185;-2.35649;26.1569;0.13008;-0.0224178;0.523042;-0.684018;0.0256693;-0.375293;-0.530165;0.650061;-7.53401;-0.00523632;-0.00135543;0.0145656;0.014658;-0.00532867;0.00999332;0.359499;2.78165;0.011951;0.0133244;2.75078;0.363534;77.7658;122.766;0.00596687;-0.00523665;-0.00434583;0.00157661;0.0145572;-0.00154304;0.0155728;0;0.023293;0.00147882;-0.88859;-1.22745;1.51533;-7.41016;-0.00440814;0.000270036;0.0182872;0.0182904;-0.00441135;0.0113509;0.241051;4.1485;0.0138994;0.0151345;4.14621;0.241184;93.1939;138.194;-0.000195886;-0.00440833;0.00123192;-0.000670413;0.0182865;0.0079887;0.0334742;0;0.0311766;7.93769;4.99446
422000;423;26.2727;0.519831;0.0201854;-2.35743;26.1664;0.127013;-0.0233548;0.532459;-0.687086;0.0262715;-0.373345;-0.530253;0.649033;-7.5341;-0.00534369;-0.0013253;0.0146746;0.0147619;-0.00543105;0.0100965;0.364146;2.74615;0.0120662;0.013462;2.71806;0.367909;77.177;122.177;0.00538704;-0.00534428;-0.00442483;0.00171309;0.0146658;0.000324706;0.0161113;0;0.0230834;0.000942321;-0.895075;-1.22901;1.5204;-7.41172;-0.00458108;0.000309175;0.0188337;0.0188378;-0.00458516;0.0117115;0.243239;4.11119;0.0143335;0.0156153;4.10842;0.243403;93.5955;138.595;-0.000275822;-0.00458133;0.00142076;-0.00077686;0.0188327;0.0089573;0.0339613;0;0.0347556;7.94123;4.99767
423000;424;26.2802;0.527366;0.020478;-2.35894;26.1738;0.124981;-0.0248605;0.539898;-0.689118;0.0255823;-0.370114;-0.538553;0.65397;-7.5424;-0.00506591;-0.00140433;0.0151196;0.0152168;-0.00516314;0.01019;0.335055;2.98458;0.0122343;0.0135867;2.94721;0.339304;79.1481;124.148;0.00463758;-0.00506596;-0.00430849;0.00144209;0.0151114;0.00175228;0.0173273;0;0.0233487;-0.000827737;-0.900989;-1.23887;1.53185;-7.42158;-0.00458659;0.000283645;0.0193526;0.0193559;-0.00458995;0.011973;0.237002;4.21938;0.0146752;0.0159639;4.21702;0.237134;93.4926;138.493;-0.000587704;-0.00458687;0.00138736;-0.000794152;0.0193517;0.00824871;0.0359622;0;0.0409004;7.94476;5.00269
424000;425;26.2906;0.537826;0.0208841;-2.36135;26.1841;0.131336;-0.027274;0.550152;-0.682762;0.0252233;-0.369501;-0.540013;0.654814;-7.54386;-0.00519742;-0.00136856;0.0155932;0.0156829;-0.00528712;0.010485;0.333314;3.00018;0.0125932;0.01398;2.96624;0.337127;79.4049;124.405;0.00502183;-0.00519756;-0.00425978;0.00146347;0.0155852;0.00182825;0.0179159;0;0.0238695;-0.0026502;-0.909481;-1.23735;1.53564;-7.42007;-0.00463844;0.00018191;0.019715;0.0197164;-0.00463979;0.0121781;0.235274;4.25036;0.0149331;0.0162374;4.24941;0.235327;93.9095;138.91;-0.0020278;-0.00463888;0.00135484;-0.000963002;0.0197141;0.00968591;0.0356951;0;0.035051;7.95859;5.00989
425000;426;26.2985;0.545668;0.0211887;-2.36103;26.192;0.126246;-0.0269535;0.55808;-0.687852;0.0250471;-0.369263;-0.539658;0.65438;-7.5435;-0.00524638;-0.0013413;0.0150849;0.015173;-0.00533449;0.0102538;0.34779;2.8753;0.0122858;0.0136717;2.84432;0.351577;78.1732;123.173;0.00558596;-0.0052468;-0.00436462;0.00162147;0.0150764;0.000498208;0.0170003;0;0.0222851;-0.00381018;-0.917788;-1.23413;1.53799;-7.41684;-0.00469915;0.000242262;0.0200466;0.0200489;-0.00470152;0.0123752;0.234411;4.266;0.0151778;0.0165003;4.26436;0.234502;93.3672;138.367;-0.00127475;-0.00469945;0.0013224;-0.000811672;0.0200457;0.0085401;0.0354547;0;0.0358103;7.95862;5.01664
426000;427;26.305;0.55217;0.0214411;-2.36108;26.1985;0.123189;-0.0270018;0.564618;-0.690909;0.0250874;-0.371052;-0.527204;0.645177;-7.53105;-0.00548743;-0.00164301;0.0156884;0.0158151;-0.00561415;0.0107146;0.349777;2.85896;0.0128309;0.0142862;2.817;0.354987;79.707;124.707;0.00518692;-0.00548682;-0.00456522;0.00121829;0.0156794;0.00181087;0.0180512;0;0.0238176;-0.00361271;-0.925988;-1.22901;1.53881;-7.41172;-0.0047893;0.000300213;0.0200822;0.0200859;-0.00479292;0.0124394;0.238484;4.19315;0.0152415;0.0165858;4.19073;0.238622;93.5014;138.501;-0.00124861;-0.00478959;0.00145013;-0.000821667;0.0200812;0.00905499;0.0361746;0;0.0372815;7.96213;5.02384
427000;428;26.3142;0.561397;0.0217994;-2.36257;26.2076;0.12677;-0.0284924;0.573732;-0.687328;0.0247422;-0.367432;-0.539123;0.652895;-7.54297;-0.00542571;-0.00146395;0.0157303;0.0158311;-0.00552654;0.0106788;0.344921;2.89922;0.0128003;0.0142385;2.86457;0.349093;79.1245;124.124;0.00438867;-0.0054257;-0.00444307;0.00145313;0.0157217;0.00337964;0.0176789;0;0.0238607;-0.00499957;-0.931749;-1.23952;1.55067;-7.42223;-0.00489162;0.000440343;0.0203145;0.0203222;-0.00489931;0.0126107;0.240795;4.15292;0.0154425;0.0168143;4.14797;0.241082;92.6659;137.666;-0.000933718;-0.00489167;0.00145292;-0.000547216;0.0203135;0.00901228;0.0348532;0;0.0356293;7.96618;5.03168
428000;429;26.3214;0.568581;0.0220784;-2.36297;26.2148;0.122354;-0.0288964;0.580929;-0.691744;0.0253252;-0.366647;-0.541805;0.654694;-7.54565;-0.00547006;-0.00140277;0.0163346;0.0164245;-0.00555994;0.0109922;0.334875;2.98619;0.0131993;0.0146563;2.95408;0.338515;80.0257;125.026;0.00495025;-0.00547004;-0.00425205;0.00138539;0.0163267;0.00138969;0.0175441;0;0.0331986;-0.00535364;-0.938753;-1.24572;1.55984;-7.42843;-0.00503078;0.000407971;0.0203129;0.0203194;-0.00503735;0.0126784;0.247665;4.03771;0.0155007;0.0169045;4.03375;0.247908;93.4513;138.451;-0.000431086;-0.00503099;0.00160755;-0.000761813;0.0203117;0.00762753;0.0350461;0;0.0380401;7.97052;5.03858
429000;430;26.331;0.578153;0.0224501;-2.36392;26.2244;0.119733;-0.0298444;0.590467;-0.694365;0.0240323;-0.366511;-0.537875;0.651319;-7.54172;-0.00565803;-0.00177648;0.0160014;0.0161461;-0.00580277;0.0109744;0.353597;2.82808;0.0131328;0.0146326;2.78248;0.359392;80.3177;125.318;0.00508836;-0.00565699;-0.00465307;0.0010388;0.0159923;0.00167804;0.0174669;0;0.0264254;-0.00717852;-0.946538;-1.24576;1.56458;-7.42848;-0.00501386;0.000305964;0.0209019;0.0209055;-0.00501747;0.0129615;0.239876;4.16882;0.015876;0.017282;4.16654;0.240007;93.466;138.466;-0.000724238;-0.00501417;0.00148697;-0.000845064;0.0209008;0.00932074;0.0339529;0;0.0327224;7.9732;5.0459
430000;431;26.3399;0.587065;0.0227961;-2.3647;26.2332;0.12394;-0.0306204;0.599326;-0.690159;0.0230549;-0.363031;-0.541274;0.652151;-7.54512;-0.00534138;-0.00176995;0.0162764;0.0164204;-0.00548534;0.0109528;0.328167;3.04723;0.013162;0.0146038;2.9935;0.334057;80.8874;125.887;0.00367843;-0.00534038;-0.00466768;0.00106615;0.0162672;0.00559029;0.0186282;0;0.0261606;-0.00911118;-0.952022;-1.24615;1.56822;-7.42887;-0.00503101;0.000351949;0.0213185;0.0213232;-0.00503571;0.0131795;0.235993;4.23742;0.0161578;0.0175726;4.2344;0.236161;93.0168;138.017;-0.00033168;-0.00503121;0.00145647;-0.000724072;0.0213175;0.00776636;0.0343529;0;0.0336047;7.97697;5.05358
431000;432;26.3482;0.595415;0.0231204;-2.36606;26.2415;0.12582;-0.0319871;0.607578;-0.688278;0.0240023;-0.362706;-0.540311;0.651204;-7.54416;-0.00558398;-0.00153292;0.0167344;0.0168392;-0.00568877;0.011264;0.333683;2.99686;0.0135272;0.0150186;2.96007;0.33783;80.3939;125.394;0.00374289;-0.00558364;-0.00442749;0.00129811;0.0167259;0.00611685;0.018162;0;0.0255332;-0.0090176;-0.959588;-1.24578;1.57253;-7.42849;-0.00509923;0.000414379;0.021927;0.0219334;-0.00510558;0.0135195;0.232555;4.30006;0.0165881;0.018026;4.29596;0.232777;92.6788;137.679;-0.00131751;-0.00509935;0.00148756;-0.000630418;0.021926;0.0102258;0.0360258;0;0.034611;7.98079;5.06119
432000;433;26.3551;0.602311;0.0233881;-2.36618;26.2484;0.122933;-0.0321079;0.614504;-0.691165;0.0228095;-0.362656;-0.543168;0.653507;-7.54701;-0.00568335;-0.00172164;0.0169637;0.0170938;-0.00581348;0.0114537;0.33503;2.98481;0.0137497;0.0152715;2.94038;0.340092;80.8672;125.867;0.00443908;-0.0056825;-0.00463506;0.00112691;0.0169546;0.00351585;0.0186126;0;0.0256775;-0.0105366;-0.96707;-1.25131;1.58149;-7.43402;-0.00515829;0.00039117;0.0223395;0.022345;-0.00516385;0.0137544;0.230905;4.33079;0.0168833;0.0183393;4.3272;0.231096;93.2995;138.299;-0.00204619;-0.00515857;0.00166134;-0.000844835;0.0223382;0.0108674;0.0384368;0;0.0381202;7.98536;5.06797
433000;434;26.3621;0.609237;0.0236571;-2.36682;26.2553;0.115793;-0.0327416;0.621434;-0.698305;0.0224015;-0.362053;-0.539175;0.649841;-7.54302;-0.00560506;-0.00170681;0.0172651;0.0173918;-0.00573174;0.0115618;0.324647;3.08027;0.0139046;0.0154157;3.03429;0.329566;81.1441;126.144;0.00426243;-0.00560426;-0.00462726;0.00114799;0.017256;0.00382336;0.0175806;0;0.0274678;-0.0125974;-0.974463;-1.24859;1.58389;-7.4313;-0.0052206;0.000479679;0.0225723;0.0225806;-0.00522887;0.0139047;0.231283;4.32371;0.0170658;0.0185397;4.31845;0.231565;92.8961;137.896;-0.00177721;-0.00522073;0.0016902;-0.000697936;0.0225711;0.00996039;0.0371709;0;0.0397697;7.98764;5.07389
434000;435;26.3717;0.618854;0.0240305;-2.36858;26.2648;0.117649;-0.0345026;0.630923;-0.69645;0.0226019;-0.362134;-0.536428;0.647617;-7.54027;-0.00596634;-0.00160241;0.017574;0.0176826;-0.00607491;0.0118788;0.339497;2.94553;0.0142517;0.0158384;2.91076;0.343553;80.6982;125.698;0.00464002;-0.00596584;-0.00453055;0.00125801;0.0175652;0.00181493;0.0179652;0;0.0248829;-0.0134446;-0.983499;-1.24525;1.58685;-7.42796;-0.00507199;0.000431931;0.0224432;0.0224499;-0.00507877;0.0137644;0.225993;4.42492;0.0169156;0.0183525;4.42035;0.226226;92.4303;137.43;-0.00118189;-0.00507207;0.00146876;-0.000576995;0.0224422;0.00951737;0.0367507;0;0.0418441;7.99557;5.07931
435000;436;26.3819;0.629077;0.0244275;-2.36982;26.275;0.123926;-0.0357466;0.641046;-0.690173;0.0227566;-0.360969;-0.541631;0.651292;-7.54548;-0.00592984;-0.00179113;0.0182763;0.0184081;-0.00606166;0.0122349;0.324455;3.08209;0.0147149;0.0163132;3.03681;0.329292;82.0734;127.073;0.00455667;-0.00592871;-0.00462737;0.000977706;0.0182674;0.00309456;0.0183722;0;0.0266099;-0.0138889;-0.990986;-1.25078;1.59584;-7.4335;-0.00517636;0.000488217;0.0227352;0.0227437;-0.0051849;0.0139643;0.227681;4.39212;0.017154;0.0186191;4.38653;0.227971;92.2955;137.296;-0.000911087;-0.00517638;0.00152632;-0.000521559;0.0227342;0.00889338;0.0362484;0;0.0381352;8.00613;5.08679
436000;437;26.388;0.635158;0.0246636;-2.36897;26.2812;0.116209;-0.0348999;0.647264;-0.69789;0.0223836;-0.360198;-0.539698;0.649244;-7.54354;-0.00586222;-0.00162069;0.0184272;0.0185348;-0.00596989;0.0122524;0.318129;3.14338;0.0147547;0.0163365;3.10472;0.32209;81.7427;126.743;0.00444758;-0.0058616;-0.00448668;0.00117696;0.0184186;0.00221493;0.0172203;0;0.0277652;-0.014966;-0.998763;-1.25165;1.60136;-7.43436;-0.00522738;0.000456484;0.0231258;0.0231332;-0.00523473;0.0141839;0.226041;4.42398;0.017431;0.0189119;4.41917;0.226287;92.5072;137.507;-0.000977188;-0.00522747;0.00155787;-0.000614385;0.0231247;0.00913706;0.0365202;0;0.0361485;8.00963;5.09356
437000;438;26.3989;0.646114;0.0250891;-2.37053;26.292;0.119394;-0.0364518;0.658111;-0.694704;0.0214341;-0.358374;-0.537773;0.6466;-7.54162;-0.0061213;-0.00191077;0.0189218;0.0190667;-0.00626626;0.0126665;0.323506;3.09113;0.0152357;0.0168887;3.04276;0.328649;82.9349;127.935;0.00426364;-0.00611976;-0.00465451;0.000765544;0.0189129;0.00286779;0.0169756;0;0.0253575;-0.0165121;-1.00514;-1.25086;1.60476;-7.43358;-0.00513721;0.000357965;0.0234242;0.0234286;-0.0051417;0.0142852;0.219313;4.5597;0.0175854;0.0190469;4.55659;0.219462;91.8493;136.849;-0.000643249;-0.00513726;0.00119882;-0.000459424;0.0234235;0.00886022;0.0333105;0;0.0372557;8.00616;5.09699
438000;439;26.4071;0.654282;0.0254062;-2.37139;26.3001;0.121216;-0.0373189;0.666225;-0.692882;0.0213056;-0.356512;-0.543545;0.650382;-7.54739;-0.00613041;-0.00191838;0.0189771;0.0191229;-0.00627614;0.0126995;0.323042;3.09557;0.0152766;0.0169327;3.04691;0.328201;83.0803;128.08;0.00423886;-0.00612883;-0.00463473;0.000731058;0.0189684;0.00329179;0.0167083;0;0.0309506;-0.0175236;-1.01144;-1.25735;1.61377;-7.44006;-0.00527368;0.000407902;0.0239309;0.0239366;-0.00527938;0.014608;0.220371;4.53779;0.0179778;0.0194773;4.53398;0.220557;92.3062;137.306;-0.00128045;-0.00527378;0.00144771;-0.000602251;0.0239299;0.00874925;0.0357888;0;0.0373669;8.00926;5.10473
439000;440;26.4139;0.661084;0.0256704;-2.37231;26.3069;0.116915;-0.0382388;0.672992;-0.697183;0.0219265;-0.355811;-0.542355;0.649023;-7.5462;-0.00630668;-0.00174116;0.0195261;0.0196429;-0.00642351;0.0130332;0.322987;3.0961;0.0156813;0.0173776;3.05797;0.327014;82.9443;127.944;0.003963;-0.00630555;-0.00443636;0.000885765;0.0195179;0.00424149;0.0162933;0;0.0325737;-0.017848;-1.01887;-1.25772;1.61873;-7.44043;-0.00542073;0.000565751;0.0243607;0.0243714;-0.00543147;0.0149014;0.22252;4.49399;0.0183284;0.0198686;4.48707;0.222862;91.975;136.975;-0.00151119;-0.00542067;0.00160692;-0.000445152;0.0243596;0.00931839;0.0378432;0;0.0378059;8.01357;5.11212
440000;441;26.4198;0.666978;0.0258992;-2.37314;26.3128;0.11148;-0.0390625;0.678858;-0.702618;0.0216709;-0.354341;-0.544959;0.65039;-7.5488;-0.00632228;-0.00198905;0.0197122;0.0198633;-0.00647337;0.0131683;0.320729;3.1179;0.015847;0.0175578;3.06847;0.325896;83.9571;128.957;0.00370045;-0.00632044;-0.00457999;0.000535756;0.0197039;0.00349362;0.0167718;0;0.0268806;-0.0188558;-1.02526;-1.26116;1.62543;-7.44387;-0.0053501;0.000517462;0.0248365;0.0248454;-0.00535897;0.0151022;0.215413;4.64225;0.0186089;0.0201362;4.63622;0.215693;92.2013;137.201;-0.00178746;-0.00535013;0.00163158;-0.000563837;0.0248353;0.00972588;0.0394036;0;0.0409241;8.01439;5.11986
441000;442;26.4285;0.67567;0.0262368;-2.37364;26.3215;0.10937;-0.0395687;0.68755;-0.704728;0.0221668;-0.354728;-0.544044;0.649852;-7.54789;-0.00624903;-0.00197717;0.0197652;0.0199147;-0.00639845;0.0131566;0.316163;3.16293;0.0158459;0.0175421;3.11242;0.321293;83.9566;128.957;0.00421535;-0.00624723;-0.00458669;0.00056579;0.0197568;0.00231009;0.0159535;0;0.0270783;-0.0192571;-1.0336;-1.26119;1.63073;-7.4439;-0.005485;0.000658882;0.0250787;0.0250929;-0.0054992;0.0152961;0.218711;4.57224;0.0188313;0.0203947;4.56301;0.219153;91.3849;136.385;-0.00111393;-0.00548481;0.00157968;-0.000234466;0.0250777;0.00891251;0.0391945;0;0.0422112;8.02906;5.12649
442000;443;26.4379;0.685091;0.0266026;-2.37439;26.3308;0.111016;-0.0403174;0.696934;-0.703082;0.0217267;-0.354472;-0.542845;0.648694;-7.54669;-0.00638923;-0.00175403;0.0203208;0.0204355;-0.00650392;0.0134697;0.314418;3.18048;0.0162319;0.0179596;3.14203;0.318266;83.242;128.242;0.00393964;-0.00638809;-0.00448345;0.000903948;0.0203125;0.00239669;0.0161099;0;0.026593;-0.0205337;-1.04176;-1.26136;1.63607;-7.44408;-0.00544009;0.000717955;0.0254055;0.0254222;-0.00545679;0.0154395;0.21413;4.67006;0.0190297;0.020586;4.65882;0.214647;91.0978;136.098;-0.00057669;-0.00543984;0.00158852;-0.000126425;0.0254045;0.00909005;0.0367772;0;0.040229;8.03324;5.13415
443000;444;26.4462;0.693332;0.0269226;-2.37559;26.339;0.111645;-0.0415195;0.705097;-0.702453;0.0215201;-0.352925;-0.543927;0.648749;-7.54777;-0.00645479;-0.00183666;0.0204877;0.0206123;-0.00657942;0.0135959;0.315057;3.17403;0.0163812;0.0181278;3.13285;0.319198;83.9688;128.969;0.00344638;-0.00645332;-0.00441937;0.000677877;0.0204798;0.00422371;0.0145947;0;0.0270432;-0.0215027;-1.04854;-1.26423;1.64262;-7.44695;-0.00555653;0.000629398;0.0255867;0.0255994;-0.00556924;0.0155843;0.217165;4.6048;0.0191939;0.0207791;4.59657;0.217554;91.4866;136.487;-0.000964562;-0.00555637;0.00158009;-0.000292427;0.0255857;0.00936706;0.0360255;0;0.0394981;8.03345;5.1414
444000;445;26.4578;0.70497;0.0273745;-2.37719;26.3505;0.117656;-0.0431124;0.716613;-0.696442;0.0214128;-0.3506;-0.550163;0.652732;-7.55401;-0.0063411;-0.00191404;0.0209309;0.0210646;-0.00647478;0.0137697;0.302954;3.30084;0.016627;0.0183596;3.25333;0.307377;84.5677;129.568;0.00300816;-0.00633942;-0.00445845;0.000562414;0.020923;0.00518196;0.0152059;0;0.0314846;-0.0224742;-1.05525;-1.27062;1.65183;-7.45334;-0.00552687;0.000607116;0.0258981;0.0259098;-0.0055386;0.0157242;0.213409;4.68584;0.019385;0.0209656;4.67804;0.213765;91.507;136.507;-0.000778387;-0.00552674;0.00156305;-0.000319541;0.0258971;0.00872654;0.0353372;0;0.0386268;8.03896;5.14899
445000;446;26.4652;0.712363;0.0276616;-2.37665;26.358;0.111177;-0.0425728;0.724113;-0.702921;0.0214013;-0.349793;-0.54976;0.651958;-7.5536;-0.00661224;-0.0018902;0.020782;0.0209118;-0.00674205;0.0138269;0.318172;3.14296;0.01665;0.0184359;3.1017;0.322404;84.3949;129.395;0.00273183;-0.00661059;-0.00439099;0.00054348;0.0207743;0.00529538;0.0150773;0;0.033207;-0.0230549;-1.06262;-1.27159;1.6573;-7.4543;-0.00570794;0.000609319;0.0261962;0.0262078;-0.00571957;0.0159637;0.217892;4.58944;0.0196578;0.0212849;4.58214;0.218239;91.4357;136.436;-0.00107899;-0.00570779;0.00153997;-0.000292398;0.0261952;0.00826593;0.0348738;0;0.0388709;8.03909;5.15229
446000;447;26.4724;0.719587;0.0279421;-2.37806;26.3651;0.111789;-0.043984;0.731237;-0.70231;0.0205966;-0.350348;-0.547313;0.650169;-7.55116;-0.00633061;-0.0018053;0.0212642;0.0213818;-0.00644821;0.013915;0.297712;3.35895;0.0168211;0.0185533;3.31592;0.301575;84.7106;129.711;0.00292476;-0.00632915;-0.00428885;0.000611153;0.0212568;0.00464755;0.014529;0;0.0381876;-0.0247953;-1.06964;-1.27111;1.66146;-7.45382;-0.00566991;0.00067912;0.0266077;0.026622;-0.00568419;0.0161531;0.213093;4.69279;0.019915;0.0215374;4.68352;0.213515;90.3789;135.379;-0.00135711;-0.00566968;0.00127388;0.000103062;0.0266071;0.00904142;0.0358087;0;0.0379221;8.03914;5.1561
447000;448;26.4794;0.726582;0.0282137;-2.37844;26.3721;0.109392;-0.0443629;0.738236;-0.704707;0.0208592;-0.348829;-0.549425;0.651141;-7.55327;-0.00669371;-0.00217035;0.0215819;0.0217475;-0.00685933;0.0143034;0.310153;3.22421;0.0172457;0.0190713;3.17051;0.315407;85.4994;130.499;0.00198915;-0.00669136;-0.00460247;0.000194456;0.0215739;0.00675598;0.0147452;0;0.0285429;-0.0253856;-1.07649;-1.27209;1.66664;-7.4548;-0.00570896;0.00070074;0.0271084;0.0271233;-0.00572392;0.0164236;0.210598;4.74839;0.0202615;0.0218982;4.73859;0.211033;90.2898;135.29;-0.00171224;-0.00570873;0.00128149;0.000138549;0.0271078;0.00990793;0.0390125;0;0.0412319;8.04572;5.1635
448000;449;26.4875;0.734726;0.0285299;-2.37906;26.3803;0.107073;-0.0449899;0.746366;-0.707025;0.0202796;-0.349504;-0.545024;0.647777;-7.54887;-0.0066135;-0.00223833;0.0222691;0.0224415;-0.00678593;0.0146137;0.296981;3.36722;0.017663;0.019485;3.30707;0.302383;86.243;131.243;0.00226232;-0.00661098;-0.00458281;3.99167e-05;0.0222613;0.00692405;0.013998;0;0.0315656;-0.0265271;-1.08524;-1.27046;1.67108;-7.45317;-0.00565549;0.000824537;0.0273804;0.027401;-0.00567605;0.0165385;0.206552;4.84139;0.0204239;0.0220513;4.82747;0.207148;90.204;135.204;-0.0012272;-0.00565516;0.00146132;0.000208232;0.0273797;0.00878925;0.0419606;0;0.0427505;8.05415;5.17134
449000;450;26.4958;0.742994;0.028851;-2.38035;26.3885;0.101513;-0.0462769;0.754573;-0.712585;0.0210465;-0.34768;-0.549455;0.650558;-7.5533;-0.00680985;-0.00246682;0.0223703;0.0225773;-0.00701692;0.0147971;0.304415;3.28499;0.0178562;0.0197295;3.21756;0.310795;86.4317;131.432;0.00233238;-0.00680679;-0.00485906;-0.000142853;0.0223617;0.00688364;0.0146707;0;0.0298294;-0.0271272;-1.09203;-1.27586;1.67961;-7.45858;-0.00576072;0.000847798;0.027793;0.0278144;-0.00578213;0.0167983;0.207272;4.82457;0.0207407;0.0223977;4.81041;0.207882;90.3426;135.343;-0.000439639;-0.00576037;0.0015558;0.000162907;0.0277922;0.00868018;0.039342;0;0.0419509;8.06052;5.17888
450000;451;26.5062;0.753389;0.0292546;-2.38149;26.3988;0.104641;-0.0474186;0.764896;-0.709457;0.0211268;-0.348077;-0.547864;0.64943;-7.55171;-0.00691511;-0.00224414;0.0227097;0.0228787;-0.00708415;0.0149814;0.3045;3.28407;0.0180825;0.0199753;3.22957;0.309639;86.1159;131.116;0.00269477;-0.00691258;-0.00461946;6.2385e-05;0.0227017;0.00638861;0.013223;0;0.0315283;-0.0276419;-1.10072;-1.27692;1.68608;-7.45963;-0.00595401;0.000762808;0.0279261;0.0279433;-0.00597118;0.0169572;0.213206;4.69031;0.0209055;0.0226097;4.6797;0.213689;90.6101;135.61;-0.000488921;-0.00595372;0.00151261;3.7714e-05;0.0279253;0.00698216;0.0382301;0;0.0409186;8.06395;5.18595
451000;452;26.5155;0.762704;0.0296163;-2.38296;26.408;0.11002;-0.0488866;0.774094;-0.704079;0.0197199;-0.347026;-0.549313;0.650047;-7.55316;-0.00693767;-0.00217483;0.0232146;0.0233707;-0.00709373;0.0152322;0.298849;3.34617;0.0184064;0.0203096;3.29455;0.303531;86.3953;131.395;0.00197091;-0.00693529;-0.00447211;5.47745e-05;0.0232071;0.00685852;0.0134582;0;0.0265163;-0.0298378;-1.10759;-1.27952;1.69258;-7.46224;-0.00587004;0.000758561;0.0283784;0.0283952;-0.00588684;0.017141;0.206849;4.83445;0.0211671;0.0228547;4.82351;0.207318;90.1833;135.183;-0.000796066;-0.00586977;0.00134548;0.000191189;0.0283778;0.00833767;0.0356541;0;0.0393502;8.0644;5.19288
452000;453;26.5262;0.773373;0.0300306;-2.38427;26.4186;0.109231;-0.0501981;0.784691;-0.704867;0.0198476;-0.346604;-0.54615;0.647154;-7.54999;-0.00683247;-0.00224593;0.0235447;0.0237099;-0.00699762;0.0153537;0.290191;3.446;0.0185836;0.0204717;3.38827;0.295136;86.8413;131.841;0.00200211;-0.00682993;-0.00449498;-6.36232e-05;0.0235373;0.00714147;0.0141108;0;0.0303517;-0.0304126;-1.1156;-1.27804;1.69673;-7.46076;-0.00601377;0.000884867;0.0285708;0.0285934;-0.00603639;0.0173149;0.210487;4.75089;0.0213606;0.0230865;4.73684;0.211111;89.6503;134.65;-0.000841515;-0.00601348;0.00133661;0.00044831;0.0285703;0.00601925;0.0357309;0;0.0405021;8.06758;5.19927
453000;454;26.5352;0.78241;0.0303815;-2.38551;26.4276;0.110087;-0.0514305;0.793651;-0.704011;0.0198046;-0.34389;-0.551361;0.650117;-7.55521;-0.00707499;-0.00247206;0.023737;0.023934;-0.00727206;0.0156031;0.298058;3.35505;0.0188535;0.0208041;3.29123;0.303838;87.454;132.454;0.00172298;-0.00707198;-0.00463202;-0.0003771;0.0237295;0.00601787;0.0135568;0;0.0308718;-0.031292;-1.12073;-1.28362;1.70432;-7.46634;-0.00596991;0.000768861;0.028905;0.0289219;-0.00598685;0.0174544;0.206536;4.84178;0.0215558;0.0232725;4.83091;0.207;89.7257;134.726;-0.001414;-0.00596969;0.00117595;0.000375571;0.0289046;0.00693201;0.0365702;0;0.0407985;8.07036;5.20682
454000;455;26.5405;0.787637;0.0305845;-2.38575;26.4328;0.106077;-0.0516747;0.798893;-0.708022;0.0194317;-0.34297;-0.551097;0.649395;-7.55494;-0.00708718;-0.0025366;0.0238621;0.0240687;-0.0072937;0.0156812;0.297005;3.36694;0.0189508;0.0209082;3.29992;0.303037;87.511;132.511;0.00179525;-0.00708403;-0.00472409;-0.000415217;0.0238544;0.00715957;0.0138608;0;0.0266471;-0.032372;-1.12801;-1.28408;1.70948;-7.4668;-0.00597949;0.000803056;0.0292531;0.0292714;-0.00599778;0.0176346;0.204405;4.89225;0.0217905;0.0235128;4.88038;0.204902;89.6993;134.699;-0.00155027;-0.00597924;0.00122314;0.000397347;0.0292527;0.00789836;0.0379521;0;0.0413164;8.07591;5.21306
455000;456;26.548;0.795163;0.0308767;-2.3866;26.4403;0.104818;-0.0525225;0.806378;-0.70928;0.0194242;-0.342999;-0.548432;0.64715;-7.55228;-0.0072318;-0.00264055;0.0247769;0.0249933;-0.00744817;0.0162207;0.291876;3.42611;0.0196219;0.0216276;3.35563;0.298007;87.9282;132.928;0.00230711;-0.00722844;-0.00480145;-0.000547132;0.0247691;0.00480082;0.0133275;0;0.0352637;-0.033288;-1.13591;-1.28383;1.71453;-7.46654;-0.00604164;0.000983037;0.0298785;0.0299054;-0.00606852;0.0179869;0.202207;4.94543;0.0222375;0.0239826;4.92795;0.202924;89.4828;134.483;-0.00106224;-0.0060413;0.00143281;0.000548949;0.0298779;0.00725275;0.0403615;0;0.0445895;8.08797;5.22084
456000;457;26.5568;0.803978;0.031219;-2.38752;26.4491;0.0999083;-0.0534498;0.815164;-0.71419;0.01962;-0.341444;-0.554304;0.651323;-7.55815;-0.00704322;-0.00229716;0.0242961;0.0244636;-0.00721071;0.0158372;0.289891;3.44957;0.0191701;0.0211162;3.39268;0.294752;87.0665;132.067;0.00145977;-0.00704057;-0.00453478;-0.000127979;0.0242887;0.0070597;0.0133668;0;0.035745;-0.0340189;-1.14343;-1.28909;1.72347;-7.4718;-0.00616441;0.00101329;0.030187;0.0302152;-0.00619263;0.0182039;0.204207;4.89698;0.0224937;0.0242719;4.87922;0.204951;89.1677;134.168;-0.000920045;-0.00616414;0.00134299;0.00069522;0.0301866;0.00731016;0.0426807;0;0.045331;8.09341;5.22827
457000;458;26.5667;0.813874;0.0316033;-2.38878;26.4589;0.10229;-0.0547058;0.824978;-0.711808;0.0195926;-0.340879;-0.553849;0.650639;-7.55769;-0.00722233;-0.00227788;0.0250425;0.0252026;-0.00738236;0.0162925;0.288403;3.46738;0.0197284;0.0217233;3.41389;0.292921;87.3729;132.373;0.00137075;-0.00721974;-0.00443592;-0.000187756;0.0250355;0.00666496;0.0123285;0;0.0319941;-0.0350648;-1.15132;-1.29081;1.73001;-7.47352;-0.00632329;0.00089941;0.0307177;0.0307395;-0.00634511;0.0185423;0.205852;4.85787;0.0229029;0.0247231;4.8446;0.206415;89.6297;134.63;-0.000862307;-0.00632299;0.00134716;0.000467747;0.0307172;0.00700685;0.0441896;0;0.0413352;8.08412;5.23087
458000;459;26.5744;0.82162;0.0319041;-2.38898;26.4667;0.100222;-0.05491;0.832745;-0.713876;0.0190193;-0.339021;-0.555564;0.651113;-7.55941;-0.00723283;-0.00218418;0.0247404;0.0248889;-0.00738135;0.0161351;0.29235;3.42056;0.0195238;0.0215135;3.37186;0.296572;87.1151;132.115;0.00195405;-0.00723043;-0.00434653;-8.92902e-05;0.0247335;0.0052707;0.0123657;0;0.0302978;-0.0363083;-1.15687;-1.29448;1.73648;-7.47719;-0.00633077;0.000843718;0.0309825;0.0310016;-0.00634984;0.0186757;0.204334;4.89396;0.0230774;0.024901;4.88227;0.204823;89.1203;134.12;-0.000600533;-0.00633064;0.00102779;0.000666312;0.0309824;0.00582832;0.0424777;0;0.0398688;8.0864;5.23633
459000;460;26.5831;0.830275;0.0322402;-2.38986;26.4753;0.101452;-0.0557805;0.841353;-0.712646;0.0187602;-0.339833;-0.553677;0.649921;-7.55752;-0.00730184;-0.00248932;0.025185;0.0253746;-0.00749148;0.016433;0.289929;3.44912;0.0198895;0.0219107;3.38713;0.295235;87.8435;132.843;0.00122499;-0.00729882;-0.00461049;-0.000435347;0.0251776;0.00694825;0.0121276;0;0.0361808;-0.0374232;-1.1661;-1.29401;1.74231;-7.47672;-0.00650035;0.000977376;0.0312544;0.0312797;-0.00652563;0.0189026;0.207982;4.80811;0.0233345;0.0252035;4.79336;0.208622;88.8407;133.841;-0.00086873;-0.00650022;0.00112111;0.000838908;0.0312542;0.00624439;0.037273;0;0.0401869;8.10393;5.24265
460000;461;26.5931;0.840232;0.0326268;-2.39133;26.4851;0.100662;-0.0572557;0.85122;-0.713436;0.01876;-0.338498;-0.551219;0.647128;-7.55506;-0.00740885;-0.00224723;0.0258598;0.0260109;-0.00755996;0.0167854;0.286501;3.49039;0.0203346;0.0223806;3.44062;0.290646;87.7464;132.746;0.000811499;-0.00740634;-0.00429403;-0.000266787;0.0258533;0.00877426;0.0117302;0;0.0314626;-0.0382349;-1.17261;-1.29409;1.74675;-7.47681;-0.00629391;0.00101392;0.0315211;0.0315483;-0.00632108;0.0189347;0.199673;5.00819;0.0234252;0.0252462;4.99096;0.200362;88.4284;133.428;-0.000895847;-0.00629393;0.000997196;0.00103002;0.0315211;0.00605576;0.0386501;0;0.0422647;8.09831;5.2502
461000;462;26.5996;0.846734;0.0328793;-2.39158;26.4916;0.0986343;-0.0575039;0.857734;-0.715464;0.0190604;-0.336617;-0.553723;0.648293;-7.55757;-0.00754244;-0.00243457;0.0260605;0.0262359;-0.00771791;0.0169769;0.289421;3.45518;0.0205521;0.0226359;3.39936;0.294173;88.2621;133.262;0.000666617;-0.00753959;-0.00440595;-0.000527749;0.0260539;0.00768947;0.0118334;0;0.0309429;-0.0386081;-1.17854;-1.29729;1.75311;-7.48;-0.00654219;0.00107396;0.0316643;0.0316945;-0.00657235;0.0191334;0.206611;4.84002;0.0236271;0.0255112;4.8224;0.207366;88.5613;133.561;-0.00130053;-0.00654211;0.00115094;0.000999843;0.0316642;0.00706838;0.0379922;0;0.0419864;8.10091;5.2572
462000;463;26.6063;0.853527;0.033143;-2.39317;26.4983;0.0998983;-0.0590995;0.864405;-0.7142;0.0200823;-0.337213;-0.556968;0.651406;-7.56081;-0.00746103;-0.00219933;0.0263955;0.0265378;-0.0076033;0.0170705;0.282663;3.53778;0.0206972;0.0227607;3.49029;0.286509;87.8011;132.801;0.00130173;-0.00745862;-0.00422979;-0.000235827;0.0263891;0.00709629;0.0113548;0;0.0279681;-0.0391491;-1.18769;-1.29898;1.76054;-7.4817;-0.00639053;0.00108805;0.0320358;0.0320666;-0.00642131;0.0192439;0.199481;5.01301;0.0238086;0.0256586;4.99377;0.200249;88.8408;133.841;-0.00103579;-0.00639032;0.00130123;0.000882815;0.0320355;0.00618739;0.0415585;0;0.0435472;8.10952;5.2652
463000;464;26.6126;0.859801;0.0333867;-2.39147;26.5048;0.0933726;-0.0573972;0.870882;-0.720726;0.0182777;-0.336618;-0.553863;0.64839;-7.55771;-0.00754962;-0.00229729;0.0266291;0.0267828;-0.00770333;0.0172431;0.28351;3.52721;0.0209017;0.0229908;3.47678;0.287622;88.0473;133.047;0.000996502;-0.00754702;-0.00430124;-0.000360041;0.0266227;0.00594842;0.011786;0;0.0358662;-0.0407712;-1.19499;-1.29941;1.76583;-7.48213;-0.00648152;0.0011717;0.0326272;0.0326623;-0.00651659;0.0195894;0.198654;5.03388;0.0242408;0.0261192;5.01217;0.199514;88.4447;133.445;-0.000266439;-0.00648144;0.00124675;0.00109948;0.0326271;0.0057052;0.0427745;0;0.0477227;8.11555;5.27236
464000;465;26.6226;0.869779;0.0337741;-2.39353;26.5146;0.0955481;-0.0594535;0.880708;-0.71855;0.0197231;-0.333487;-0.560816;0.652777;-7.56466;-0.00753606;-0.00225263;0.0269567;0.0271032;-0.00768255;0.0173929;0.279561;3.57703;0.0211011;0.0231905;3.5279;0.283455;87.917;132.917;0.00044108;-0.00753354;-0.00430137;-0.000272689;0.0269502;0.00712678;0.0104502;0;0.0303649;-0.0407383;-1.20068;-1.30521;1.77394;-7.48792;-0.00666361;0.00122302;0.0331055;0.0331431;-0.00670119;0.0199221;0.201284;4.96811;0.0246348;0.0265629;4.94585;0.20219;88.0401;133.04;-2.25231e-06;-0.00666373;0.00112764;0.00131473;0.0331056;0.00557075;0.0438986;0;0.0446145;8.11842;5.2798
465000;466;26.6308;0.877989;0.0340929;-2.39343;26.5229;0.0934208;-0.0593528;0.888968;-0.720677;0.0187686;-0.333037;-0.559713;0.65157;-7.56356;-0.00786717;-0.00238527;0.0275242;0.0276843;-0.0080272;0.0178557;0.285827;3.49862;0.0216341;0.0238076;3.4488;0.289956;88.643;133.643;0.00144917;-0.00786448;-0.00423743;-0.000596902;0.0275182;0.00557105;0.00874363;0;0.0291718;-0.0420668;-1.20847;-1.30622;1.78;-7.48894;-0.00670919;0.00106752;0.0335106;0.0335389;-0.00673751;0.0201382;0.200211;4.99473;0.0249107;0.0268509;4.97794;0.200886;88.2327;133.233;-1.0023e-05;-0.00670932;0.000947647;0.00118274;0.0335107;0.00476437;0.0451197;0;0.0422929;8.11953;5.28715
466000;467;26.6388;0.885951;0.0344021;-2.39408;26.5308;0.0897594;-0.0600091;0.896915;-0.724339;0.0186847;-0.332307;-0.559594;0.651093;-7.56344;-0.00774934;-0.00237058;0.0278791;0.0280362;-0.00790638;0.0179713;0.277962;3.59761;0.0218093;0.0239617;3.54602;0.282007;88.6107;133.611;0.00108347;-0.00774666;-0.0042619;-0.000544814;0.027873;0.00711385;0.0108935;0;0.0298499;-0.042892;-1.21563;-1.30979;1.78749;-7.4925;-0.00682129;0.00102631;0.0337908;0.0338167;-0.0068472;0.020332;0.201868;4.95373;0.0251396;0.0271093;4.93876;0.20248;88.0546;133.055;-0.00021966;-0.00682155;0.000783587;0.0012595;0.033791;0.00570558;0.0414211;0;0.0417601;8.12151;5.29358
467000;468;26.6487;0.895925;0.0347894;-2.3942;26.5408;0.0905422;-0.0601269;0.906916;-0.723556;0.0175008;-0.331024;-0.563631;0.653883;-7.56748;-0.00774514;-0.00228174;0.027804;0.0279498;-0.007891;0.0179204;0.278563;3.58986;0.0217461;0.0238939;3.54199;0.282327;88.1103;133.11;0.000703331;-0.00774257;-0.0043035;-0.000329899;0.0277975;0.00711012;0.0101136;0;0.0294308;-0.0450641;-1.22237;-1.31584;1.79657;-7.49856;-0.00684059;0.001104;0.0339928;0.0340226;-0.00687042;0.0204465;0.201237;4.96928;0.025285;0.027262;4.95204;0.201937;88.0099;133.01;-0.000548798;-0.00684084;0.000887152;0.00131228;0.033993;0.00614858;0.0385024;0;0.0486654;8.13074;5.29973
468000;469;26.6555;0.902645;0.0350503;-2.39413;26.5476;0.0838627;-0.0600537;0.913693;-0.730236;0.0172852;-0.33293;-0.557738;0.649779;-7.56158;-0.00770614;-0.00236836;0.0285812;0.0287351;-0.00786007;0.0182976;0.269623;3.70889;0.0222446;0.0243968;3.65584;0.273535;88.606;133.606;0.000803306;-0.00770344;-0.00430521;-0.000499844;0.0285749;0.00661202;0.00870117;0;0.0298172;-0.0455208;-1.23262;-1.3107;1.79982;-7.49341;-0.00669136;0.00116147;0.0343071;0.03434;-0.00672423;0.0205321;0.195043;5.12708;0.0254328;0.0273762;5.1069;0.195813;87.9598;132.96;-0.000814513;-0.00669161;0.000952688;0.00136197;0.0343073;0.00679075;0.0387543;0;0.0477801;8.13384;5.30487
469000;470;26.6643;0.911442;0.0353919;-2.3954;26.5563;0.0847206;-0.0613245;0.922408;-0.729378;0.017876;-0.330304;-0.560612;0.650927;-7.56446;-0.00802526;-0.00217409;0.0286217;0.0287502;-0.00815379;0.018452;0.280391;3.56645;0.0223854;0.0246027;3.526;0.283608;88.1546;133.155;0.0010777;-0.00802292;-0.00412956;-0.000288278;0.0286157;0.00573359;0.00857246;0;0.038182;-0.0464322;-1.23927;-1.31283;1.80595;-7.49554;-0.00694406;0.00109559;0.034441;0.03447;-0.00697305;0.0207215;0.201622;4.95978;0.0256226;0.0276287;4.94332;0.202293;88.3609;133.361;-0.000476117;-0.00694413;0.00103419;0.00115454;0.0344411;0.00600231;0.0396963;0;0.0464233;8.13297;5.30848
470000;471;26.6696;0.916809;0.0356003;-2.39617;26.5616;0.0815126;-0.0620994;0.927737;-0.732586;0.0187406;-0.329711;-0.559107;0.649354;-7.56295;-0.00792334;-0.00235426;0.0292341;0.0293826;-0.00807191;0.0187273;0.271031;3.68961;0.0227613;0.0249697;3.64011;0.274717;88.8759;133.876;0.000818622;-0.00792073;-0.00418387;-0.000590692;0.0292283;0.00593437;0.0100068;0;0.0346366;-0.0459921;-1.24549;-1.31313;1.81043;-7.49584;-0.0069159;0.00113806;0.0347357;0.0347668;-0.00694697;0.0208569;0.1991;5.02259;0.0258071;0.0278092;5.0046;0.199816;88.5206;133.521;-0.000861638;-0.00691585;0.00118055;0.00109729;0.0347357;0.0060849;0.0441852;0;0.0452935;8.14142;5.31539
471000;472;26.679;0.92617;0.0359638;-2.39642;26.571;0.0790979;-0.0623413;0.937122;-0.735;0.0175614;-0.327735;-0.56118;0.650109;-7.56503;-0.00806047;-0.00201852;0.0302258;0.0303319;-0.0081666;0.0192493;0.266675;3.74988;0.023423;0.0256657;3.71414;0.269241;88.5499;133.55;0.000994213;-0.00805846;-0.00381068;-0.000292964;0.0302207;0.00586095;0.00959003;0;0.0429329;-0.048159;-1.2521;-1.31828;1.81877;-7.501;-0.00676508;0.00131573;0.03536;0.035401;-0.00680613;0.0211036;0.19132;5.22684;0.0261661;0.0281381;5.20134;0.192258;88.0424;133.042;0.000230644;-0.00676519;0.00122771;0.00140016;0.0353601;0.00633805;0.0449379;0;0.0499202;8.1484;5.32325
472000;473;26.6848;0.931977;0.0361893;-2.39712;26.5768;0.0711891;-0.0630409;0.942911;-0.742909;0.0178987;-0.329735;-0.554951;0.645768;-7.5588;-0.0080918;-0.00205599;0.0301743;0.0302845;-0.00820195;0.0192432;0.268168;3.729;0.0234076;0.0256576;3.69235;0.27083;88.3268;133.327;0.000781635;-0.00808969;-0.00395555;-0.000226971;0.0301688;0.00518102;0.00904553;0;0.0289969;-0.0487389;-1.26044;-1.31597;1.82287;-7.49868;-0.00699184;0.00141172;0.0360037;0.03605;-0.00703814;0.0215441;0.194198;5.14939;0.0266905;0.0287254;5.12209;0.195233;87.4046;132.405;-0.00011436;-0.00699242;0.00103562;0.00177222;0.0360041;0.00495292;0.0456174;0;0.0435995;8.14986;5.32944
473000;474;26.6972;0.944425;0.0366727;-2.39753;26.5893;0.0748609;-0.0634529;0.955363;-0.739237;0.018365;-0.326473;-0.559609;0.648139;-7.56345;-0.00830489;-0.0020996;0.0308043;0.0309167;-0.00841729;0.019667;0.269601;3.70918;0.0239159;0.0262227;3.673;0.272257;88.4859;133.486;0.00173644;-0.00830271;-0.00396905;-0.000301077;0.0307988;0.00383688;0.00824636;0;0.041255;-0.0489107;-1.26755;-1.31965;1.83045;-7.50236;-0.00711264;0.00127171;0.0362343;0.0362715;-0.00714992;0.0217107;0.196296;5.09435;0.0268832;0.0289476;5.073;0.197122;87.55;132.55;-0.00047699;-0.00711321;0.000865533;0.00166089;0.0362347;0.00413725;0.0473429;0;0.0431;8.14864;5.33731
474000;475;26.7053;0.952485;0.0369856;-2.398;26.5973;0.0754735;-0.0639283;0.96341;-0.738625;0.0179862;-0.32544;-0.5599;0.647861;-7.56375;-0.00870774;-0.00261727;0.0316932;0.0318621;-0.00887658;0.0203693;0.274751;3.63967;0.024737;0.0271591;3.58945;0.278594;90.0859;135.086;0.000480029;-0.00870498;-0.00411753;-0.00117576;0.0316883;0.00593215;0.00881529;0;0.0358555;-0.0497032;-1.27472;-1.31952;1.83535;-7.50224;-0.00705317;0.00124871;0.0364186;0.0364545;-0.00708901;0.0217717;0.193669;5.16344;0.0269782;0.029029;5.14239;0.194462;87.3358;132.336;-0.000713792;-0.00705396;0.000706531;0.00176814;0.0364191;0.00623566;0.0424572;0;0.0444339;8.14981;5.34466
475000;476;26.7162;0.963375;0.0374085;-2.39893;26.6082;0.0766925;-0.064858;0.974258;-0.737406;0.0160098;-0.324243;-0.562815;0.649731;-7.56666;-0.00866236;-0.00258457;0.0325656;0.032727;-0.00882375;0.0207754;0.265997;3.75943;0.0252779;0.0277005;3.70896;0.269617;90.2769;135.277;0.000274675;-0.00865973;-0.00401095;-0.00121513;0.032561;0.00637912;0.00676081;0;0.0311429;-0.0528529;-1.28141;-1.32417;1.84343;-7.50688;-0.0071618;0.00141907;0.0366875;0.0367334;-0.00720768;0.0219705;0.195211;5.12266;0.0272115;0.029294;5.09642;0.196216;86.8455;131.845;-0.000219917;-0.00716298;0.000722543;0.00208614;0.0366882;0.00336028;0.0422294;0;0.0467683;8.15082;5.35268
476000;477;26.722;0.969183;0.0376341;-2.39876;26.614;0.0722011;-0.0646878;0.980117;-0.741897;0.0173081;-0.324251;-0.556892;0.644644;-7.56074;-0.00895101;-0.00282242;0.0329546;0.0331439;-0.00914025;0.0211421;0.271616;3.68166;0.0256905;0.0281894;3.62614;0.275775;90.9089;135.909;0.000869528;-0.00894829;-0.00409356;-0.00160285;0.0329504;0.00553416;0.00837185;0;0.0303878;-0.0519616;-1.28919;-1.32002;1.84585;-7.50273;-0.0070908;0.00140088;0.0369208;0.0369653;-0.00713534;0.0220503;0.192054;5.20686;0.0273342;0.0294004;5.18059;0.193028;87.1557;132.156;-0.0004609;-0.00709168;0.000848329;0.00192997;0.0369214;0.00492901;0.0406677;0;0.0484886;8.16065;5.35915
477000;478;26.729;0.976164;0.0379051;-2.40021;26.6209;0.0721323;-0.0661378;0.986996;-0.741966;0.0171213;-0.319716;-0.572337;0.655806;-7.57618;-0.00896132;-0.00292696;0.0333009;0.0335026;-0.00916307;0.0213329;0.269101;3.71607;0.0259348;0.0284438;3.65627;0.273503;90.7617;135.762;0.000397791;-0.00895826;-0.00432931;-0.00158196;0.033296;0.00670758;0.00798457;0;0.0327573;-0.0530431;-1.29405;-1.33522;1.86016;-7.51793;-0.00731445;0.00139817;0.0371718;0.0372157;-0.00735835;0.022287;0.196774;5.08196;0.0275922;0.029716;5.05761;0.197722;87.4002;132.4;-0.000631548;-0.00731512;0.000964932;0.00181282;0.0371722;0.00612574;0.0415744;0;0.0467672;8.17065;5.36653
478000;479;26.7346;0.981805;0.0381242;-2.39948;26.6267;0.0643012;-0.0654066;0.992746;-0.749797;0.01581;-0.320552;-0.566996;0.651527;-7.57084;-0.00894204;-0.00294796;0.0333462;0.0335507;-0.00914655;0.0213486;0.268157;3.72915;0.0259588;0.0284649;3.66813;0.272619;90.7632;135.763;0.00157206;-0.00893893;-0.00436479;-0.00158911;0.0333412;0.00372804;0.00586649;0;0.0372136;-0.0546572;-1.30262;-1.33249;1.86423;-7.5152;-0.00708045;0.0013745;0.0376254;0.0376676;-0.00712267;0.0223952;0.188183;5.31398;0.0277919;0.0298602;5.28841;0.189093;87.8863;132.886;-0.000674809;-0.00708073;0.00117851;0.00156206;0.0376257;0.00800493;0.0456195;0;0.0464439;8.1731;5.37406
479000;480;26.743;0.990131;0.0384475;-2.40009;26.635;0.0624119;-0.0660108;1.00106;-0.751686;0.0160543;-0.3193;-0.568935;0.652608;-7.57278;-0.00918298;-0.00272753;0.0336669;0.0338398;-0.0093559;0.0215979;0.27276;3.66623;0.0262405;0.0287971;3.61695;0.276476;90.3562;135.356;0.00185344;-0.00918012;-0.00417895;-0.00133627;0.033662;0.00314529;0.0061155;0;0.038606;-0.0553931;-1.30944;-1.33532;1.87104;-7.51803;-0.00724985;0.00150363;0.0379728;0.0380228;-0.00729979;0.0226613;0.190922;5.23774;0.0280996;0.030215;5.20875;0.191985;87.2095;132.21;0.000381025;-0.00725068;0.00100912;0.00197661;0.0379734;0.00445941;0.0475538;0;0.0456122;8.175;5.38026
480000;481;26.7547;1.00189;0.0389043;-2.4019;26.6466;0.064798;-0.0678254;1.0127;-0.7493;0.0161158;-0.318742;-0.56568;0.6495;-7.56952;-0.00922969;-0.00318232;0.0340268;0.0342596;-0.00946256;0.0218611;0.271248;3.68666;0.0265619;0.0291481;3.62055;0.276201;91.174;136.174;0.000760888;-0.00922638;-0.00453495;-0.00188627;0.0340217;0.00585459;0.00837682;0;0.0369223;-0.0562262;-1.3179;-1.33407;1.8761;-7.51679;-0.00733548;0.00149626;0.0384406;0.0384895;-0.00738434;0.0229369;0.190826;5.24036;0.0284424;0.0305825;5.21231;0.191854;87.3519;132.352;-0.000204426;-0.0073362;0.00105758;0.0019156;0.0384411;0.00428574;0.0482489;0;0.0454441;8.17452;5.38327
481000;482;26.7616;1.0088;0.0391726;-2.4019;26.6536;0.0587984;-0.067825;1.01965;-0.7553;0.0158912;-0.31827;-0.56619;0.649707;-7.57003;-0.00905829;-0.00271185;0.0341501;0.0343196;-0.00922783;0.0217737;0.26525;3.77003;0.0264968;0.0290316;3.71914;0.268879;90.3783;135.378;0.00207791;-0.00905546;-0.00416682;-0.00131768;0.0341452;0.00234233;0.00823629;0;0.0320554;-0.0567308;-1.32441;-1.33823;1.88366;-7.52095;-0.00743348;0.00148589;0.0388601;0.0389078;-0.00748113;0.0231944;0.191288;5.22771;0.0287584;0.0309259;5.20079;0.192278;87.0542;132.054;-0.000682339;-0.00743457;0.0008535;0.00209009;0.0388608;0.00387343;0.048461;0;0.0454596;8.16943;5.38897
482000;483;26.7718;1.01896;0.039567;-2.40298;26.6637;0.0599982;-0.068908;1.02975;-0.7541;0.0155299;-0.319981;-0.563207;0.647943;-7.56705;-0.00912344;-0.00284783;0.0344499;0.0346352;-0.00930878;0.021972;0.264833;3.77597;0.0267387;0.029296;3.7207;0.268766;90.6744;135.674;0.00195537;-0.0091205;-0.00424748;-0.00150713;0.0344451;0.00195818;0.00582219;0;0.0322891;-0.0576507;-1.33382;-1.33753;1.88981;-7.52024;-0.00738182;0.00152531;0.0390145;0.0390646;-0.00743191;0.0232483;0.189207;5.28522;0.0288413;0.0309977;5.25634;0.190247;86.5298;131.53;4.47703e-05;-0.00738354;0.000612701;0.00239716;0.0390155;0.00441947;0.0464122;0;0.0503892;8.18134;5.39708
483000;484;26.7824;1.02959;0.0399798;-2.40429;26.6742;0.0633496;-0.0702149;1.0403;-0.750749;0.0161085;-0.316523;-0.567825;0.650286;-7.57167;-0.00929685;-0.00291004;0.0345432;0.0347355;-0.00948917;0.0221124;0.269137;3.71558;0.0268842;0.0294831;3.66055;0.273183;90.7448;135.745;0.00125241;-0.00929383;-0.00429948;-0.00157949;0.0345384;0.00501221;0.00798486;0;0.0348929;-0.0578304;-1.33967;-1.33996;1.89566;-7.52267;-0.00743637;0.00150098;0.0393922;0.0394402;-0.00748444;0.0234623;0.188778;5.29723;0.0291108;0.0312831;5.26964;0.189766;86.7681;131.768;0.000165175;-0.00743785;0.000689939;0.00227548;0.039393;0.00356612;0.0434757;0;0.0484975;8.19241;5.4044
484000;485;26.7904;1.03757;0.0402895;-2.40519;26.6821;0.0614226;-0.0711199;1.04823;-0.752676;0.0172139;-0.316423;-0.563;0.646056;-7.56684;-0.00934737;-0.00287328;0.0346844;0.0348711;-0.00953407;0.0222026;0.269498;3.71061;0.0269927;0.0296035;3.65753;0.273409;90.5587;135.559;0.00155525;-0.00934431;-0.00432472;-0.00148361;0.0346794;0.00359342;0.00845272;0;0.038061;-0.0580523;-1.34735;-1.3396;1.90086;-7.52232;-0.00749518;0.00161966;0.0395448;0.0396005;-0.00755089;0.0235757;0.189536;5.27603;0.0292441;0.0314343;5.24449;0.190676;87.0143;132.014;-0.000699725;-0.00749627;0.00102857;0.00218401;0.0395456;0.00780231;0.0428222;0;0.0488603;8.18492;5.41192
485000;486;26.7973;1.0445;0.0405586;-2.40423;26.6892;0.0638108;-0.0701558;1.05527;-0.750287;0.0161879;-0.314504;-0.566164;0.647855;-7.57001;-0.00940556;-0.00253274;0.0351498;0.0352933;-0.00954907;0.0224212;0.267585;3.73713;0.0272749;0.0298949;3.69599;0.270564;89.8784;134.878;0.00178111;-0.00940286;-0.00410507;-0.00102808;0.0351447;0.00319645;0.00802244;0;0.0414651;-0.0590273;-1.35415;-1.3421;1.90747;-7.52482;-0.00737349;0.00143603;0.039977;0.0400205;-0.007417;0.0237187;0.184444;5.42171;0.0294655;0.031625;5.39577;0.18533;87.5506;132.551;-0.000943513;-0.00737416;0.00101346;0.00183935;0.0399775;0.00776114;0.043201;0;0.0495693;8.19226;5.41935
486000;487;26.8065;1.05365;0.0409141;-2.4052;26.6983;0.0684822;-0.0711287;1.06436;-0.745616;0.014399;-0.313973;-0.567528;0.648748;-7.57137;-0.00978853;-0.00253504;0.0356187;0.0357598;-0.00992962;0.0228447;0.274814;3.63882;0.0277484;0.0304596;3.60133;0.277675;89.5891;134.589;0.00179006;-0.00978571;-0.00422319;-0.000920891;0.0356132;0.00313149;0.00682242;0;0.0474329;-0.0612589;-1.36214;-1.34139;1.91272;-7.52411;-0.00745229;0.00163034;0.040386;0.0404415;-0.00750779;0.0239746;0.184527;5.41927;0.0297807;0.0319662;5.3866;0.185646;86.9357;131.936;3.08974e-05;-0.00745354;0.000963408;0.0022666;0.0403868;0.0058819;0.0482305;0;0.0477397;8.19629;5.4264
487000;488;26.8194;1.06653;0.0414142;-2.40758;26.711;0.0722535;-0.0735068;1.07707;-0.741845;0.0150286;-0.312867;-0.568752;0.6493;-7.5726;-0.00981113;-0.00267839;0.0354034;0.0355615;-0.00996924;0.0227654;0.277124;3.60849;0.0276368;0.0303538;3.56712;0.280338;89.9611;134.961;0.00294936;-0.00980819;-0.00426646;-0.00115967;0.0353981;0.00165877;0.00811733;0;0.0393732;-0.0617075;-1.36928;-1.34678;1.92161;-7.5295;-0.00739151;0.00164855;0.0409418;0.040998;-0.00744768;0.0242228;0.180537;5.53903;0.030123;0.0322971;5.5048;0.18166;86.8114;131.811;-0.000134834;-0.00739297;0.000893841;0.00236821;0.0409427;0.00362759;0.0521339;0;0.0489206;8.20551;5.43318
488000;489;26.8323;1.07947;0.0419166;-2.4095;26.7238;0.0823506;-0.0754289;1.08986;-0.731748;0.0146243;-0.311297;-0.572454;0.651785;-7.5763;-0.0100306;-0.00264669;0.0362907;0.0364414;-0.0101813;0.0233114;0.276396;3.61799;0.0283051;0.0310818;3.57923;0.279389;89.7577;134.758;0.00339031;-0.0100276;-0.00431844;-0.00104967;0.0362851;-0.000867053;0.00779626;0;0.0371203;-0.0624446;-1.37759;-1.34925;1.92929;-7.53197;-0.00768723;0.00169035;0.0414391;0.0414972;-0.00774532;0.0246212;0.185507;5.39064;0.0305753;0.0328283;5.35771;0.186647;86.4614;131.461;-9.68302e-05;-0.00768922;0.000726009;0.0026092;0.0414402;0.00264778;0.0539415;0;0.0484457;8.20324;5.44133
489000;490;26.84;1.08716;0.0422153;-2.40949;26.7315;0.0764409;-0.0754193;1.0976;-0.737657;0.015768;-0.31186;-0.568395;0.64852;-7.57224;-0.0100729;-0.00312298;0.0363478;0.036557;-0.010282;0.0234195;0.277125;3.60848;0.0284254;0.031226;3.55542;0.281261;90.6075;135.608;0.00220383;-0.0100693;-0.00466185;-0.00165302;0.036342;0.00209767;0.00883665;0;0.0376516;-0.0622541;-1.38559;-1.34782;1.934;-7.53054;-0.00777456;0.00163581;0.0416055;0.0416596;-0.00782869;0.0247442;0.186864;5.35149;0.030717;0.0329922;5.32141;0.18792;86.2719;131.272;3.10708e-05;-0.00777691;0.000506997;0.00271111;0.0416067;0.00378436;0.0486183;0;0.0491477;8.20022;5.44712
490000;491;26.8466;1.09376;0.0424716;-2.40916;26.7382;0.0710609;-0.0750873;1.10427;-0.743037;0.0139876;-0.309564;-0.570793;0.649484;-7.57464;-0.0100361;-0.00279421;0.0366057;0.0367725;-0.0102029;0.0234877;0.274169;3.64739;0.0285307;0.031317;3.60411;0.277461;89.5198;134.52;0.00327894;-0.0100327;-0.0046791;-0.000994128;0.0365989;0.00121947;0.00755889;0;0.0367531;-0.0644343;-1.38914;-1.3551;1.94169;-7.53781;-0.00781762;0.00155189;0.0415785;0.0416272;-0.00786633;0.0247468;0.188021;5.31856;0.0307112;0.0329957;5.29182;0.188971;86.1286;131.129;-0.000838572;-0.00782027;0.000276881;0.00276642;0.0415796;0.00384421;0.0504249;0;0.0497303;8.19235;5.44759
491000;492;26.8498;1.09697;0.042596;-2.40731;26.7416;0.0600818;-0.0732341;1.10768;-0.754016;0.0141622;-0.309685;-0.569858;0.648725;-7.5737;-0.00989257;-0.00304521;0.0364534;0.0366526;-0.0100918;0.0233722;0.271376;3.68493;0.028403;0.0311629;3.63192;0.275336;89.7312;134.731;0.00300477;-0.0098886;-0.00498582;-0.00119137;0.0364459;0.00299463;0.00979704;0;0.0361992;-0.0649011;-1.396;-1.35772;1.94844;-7.54043;-0.007941;0.0015532;0.0419008;0.0419491;-0.00798936;0.0249692;0.189519;5.27651;0.0309746;0.0332923;5.25063;0.190453;86.0742;131.074;-0.000671452;-0.00794378;0.000227508;0.00281548;0.0419019;0.00526558;0.0477002;0;0.0513004;8.20704;5.45494
492000;493;26.8494;1.09658;0.0425811;-2.40414;26.7415;0.037943;-0.0700616;1.10762;-0.776155;0.0139983;-0.30981;-0.56784;0.647009;-7.57169;-0.0100822;-0.00319768;0.0369558;0.0371722;-0.0102986;0.0237354;0.272819;3.66544;0.0288341;0.0316472;3.60943;0.277052;90.2574;135.257;0.00229531;-0.0100782;-0.00496492;-0.00151058;0.0369489;0.00356166;0.00825026;0;0.040937;-0.0654625;-1.40432;-1.35702;1.95395;-7.53973;-0.00788692;0.00163327;0.0423969;0.0424499;-0.00793991;0.0251949;0.186026;5.3756;0.0312843;0.0335932;5.3464;0.187042;86.7377;131.738;-0.00108696;-0.00788865;0.00075111;0.00247288;0.0423979;0.00715382;0.0475104;0;0.0504121;8.2214;5.46257
493000;494;26.8567;1.10386;0.0428638;-2.40494;26.7488;0.0341929;-0.0708677;1.11486;-0.779905;0.0129968;-0.309007;-0.567069;0.645927;-7.57091;-0.0103483;-0.00347145;0.0373181;0.0375696;-0.0105998;0.0240847;0.277301;3.60619;0.0292275;0.0321129;3.54436;0.282139;90.3305;135.331;0.00261268;-0.0103437;-0.00534458;-0.00168438;0.0373101;0.00362977;0.00836743;0;0.0428199;-0.0667858;-1.41187;-1.35806;1.96014;-7.54077;-0.00780733;0.00154501;0.0427853;0.0428325;-0.00785447;0.0253435;0.182477;5.48015;0.0315012;0.0337913;5.45326;0.183376;87.1623;132.162;-0.00189973;-0.00780858;0.000850664;0.00220566;0.0427861;0.00734415;0.0485676;0;0.0507135;8.22216;5.47037
494000;495;26.8644;1.1116;0.0431642;-2.40505;26.7565;0.0328808;-0.0709761;1.12262;-0.781217;0.0123969;-0.307752;-0.570011;0.647902;-7.57386;-0.0101323;-0.00315358;0.0376005;0.0378079;-0.0103397;0.0240738;0.269472;3.71097;0.0292671;0.0320984;3.65658;0.27348;89.8621;134.862;0.00308413;-0.0101281;-0.00510667;-0.00129033;0.0375927;0.00201559;0.00724109;0;0.0399882;-0.0688453;-1.41996;-1.35982;1.96726;-7.54253;-0.00775605;0.00165618;0.0431699;0.0432237;-0.00780986;0.0255168;0.179663;5.56597;0.031741;0.0340224;5.53451;0.180685;86.8713;131.871;-0.000576427;-0.00775766;0.000838057;0.00243437;0.0431709;0.00570238;0.0519443;0;0.050835;8.21814;5.47674
495000;496;26.8714;1.11855;0.0434343;-2.40364;26.7636;0.0235496;-0.069568;1.12974;-0.790549;0.0133852;-0.306317;-0.569164;0.646496;-7.57301;-0.010405;-0.00353316;0.0378318;0.0380892;-0.0106624;0.0243758;0.275034;3.63592;0.0295943;0.0325011;3.57228;0.279933;90.3197;135.32;0.0029584;-0.0104002;-0.00545634;-0.00169937;0.0378235;0.0024173;0.00828399;0;0.0404834;-0.0677726;-1.42732;-1.35913;1.97207;-7.54184;-0.00786809;0.00156219;0.0438264;0.0438736;-0.00791526;0.0258944;0.179529;5.57014;0.0322133;0.0345259;5.54291;0.180411;86.6482;131.648;-9.94591e-05;-0.0078702;0.000498129;0.00257355;0.0438275;0.00384084;0.0537293;0;0.0511414;8.22482;5.48424
496000;497;26.8845;1.13166;0.0439431;-2.40609;26.7766;0.0288384;-0.072012;1.14267;-0.78526;0.0104794;-0.30505;-0.57043;0.646958;-7.57427;-0.0102362;-0.00295857;0.0389316;0.039109;-0.0104136;0.0247613;0.262929;3.80331;0.0301494;0.0330151;3.75555;0.266272;89.4862;134.486;0.00367789;-0.0102323;-0.00502458;-0.000990332;0.0389236;0.00123549;0.00656495;0;0.0474723;-0.0709743;-1.43393;-1.36448;1.98066;-7.5472;-0.00819021;0.00155577;0.0442557;0.0443018;-0.00823632;0.0262691;0.185066;5.40349;0.0326283;0.0350254;5.37884;0.185914;86.1317;131.132;-0.000330538;-0.00819327;0.00012615;0.0029136;0.0442568;0.00422428;0.0544787;0;0.0498488;8.23274;5.49113
497000;498;26.8975;1.14467;0.0444482;-2.40805;26.7895;0.0331699;-0.0739745;1.15555;-0.780928;0.0125644;-0.30377;-0.57524;0.650642;-7.57908;-0.0103632;-0.0033674;0.0388714;0.0391007;-0.0105924;0.0248466;0.266602;3.75091;0.0302231;0.0331287;3.69137;0.270902;89.9923;134.992;0.0035978;-0.0103585;-0.00539731;-0.00143368;0.0388629;0.00187589;0.00784971;0;0.0412493;-0.0703282;-1.44154;-1.36888;1.98918;-7.55159;-0.00830007;0.00148506;0.0441383;0.0441803;-0.0083421;0.0262612;0.188047;5.31781;0.0325921;0.0350149;5.29606;0.188819;86.0548;131.055;-0.000555106;-0.00830329;-3.64033e-05;0.00293012;0.0441393;0.00526548;0.0505196;0;0.0511695;8.23021;5.4989
498000;499;26.9047;1.15183;0.0447265;-2.40822;26.7966;0.0280112;-0.0741444;1.16274;-0.786087;0.0119721;-0.302105;-0.575729;0.650288;-7.57957;-0.0101999;-0.00293108;0.0385623;0.0387379;-0.0103755;0.0245567;0.264505;3.78065;0.0298902;0.0327422;3.7336;0.267838;88.9527;133.953;0.00392629;-0.0101959;-0.00525094;-0.000720124;0.0385532;0.00262111;0.00664654;0;0.0413579;-0.0713274;-1.44824;-1.37316;1.99701;-7.55587;-0.00827803;0.00146947;0.0446868;0.0447275;-0.00831877;0.0265231;0.185246;5.39824;0.0329433;0.0353642;5.3767;0.185988;86.094;131.094;-0.000491154;-0.00828128;-7.27689e-05;0.00293352;0.0446878;0.00404731;0.0517256;0;0.050683;8.23401;5.50608
499000;500;26.913;1.16013;0.0450486;-2.40888;26.8049;0.0294076;-0.0748086;1.17101;-0.784691;0.0112264;-0.299708;-0.579025;0.652089;-7.58287;-0.0104621;-0.0028281;0.039146;0.0393067;-0.0106228;0.0249647;0.267258;3.74171;0.0303711;0.0332863;3.70023;0.270254;88.651;133.651;0.00376025;-0.0104582;-0.00524308;-0.000528396;0.0391366;0.00194793;0.00623444;0;0.0421764;-0.0726382;-1.45514;-1.37659;2.00442;-7.55931;-0.00861316;0.00153755;0.0450956;0.0451396;-0.00865714;0.0268984;0.190998;5.23567;0.0333554;0.0358645;5.21415;0.191786;86.405;131.405;-0.000437328;-0.00861585;0.000233452;0.00277463;0.0450967;0.00644555;0.0476111;0;0.0530037;8.24426;5.51366
500000;501;26.9194;1.16657;0.0452989;-2.40993;26.8113;0.0245589;-0.075853;1.17739;-0.789539;0.0126919;-0.300975;-0.575551;0.64962;-7.5794;-0.0102452;-0.00290083;0.0395602;0.0397286;-0.0104136;0.0250711;0.258978;3.86134;0.0305543;0.0334281;3.81507;0.262118;88.715;133.715;0.00368397;-0.0102411;-0.00537308;-0.00054701;0.0395503;0.00112502;0.0071411;0;0.0406329;-0.0722789;-1.46426;-1.37584;2.01053;-7.55856;-0.00822974;0.00143333;0.0454806;0.0455189;-0.00826796;0.0268934;0.18095;5.52638;0.0334443;0.0358579;5.50545;0.181638;87.423;132.423;-0.00104348;-0.00823095;0.000719706;0.0021103;0.0454814;0.00793396;0.0484062;0;0.0550135;8.24651;5.52105
501000;502;26.9258;1.17295;0.0455465;-2.40963;26.8177;0.0226316;-0.0755507;1.18382;-0.791467;0.011769;-0.300729;-0.568605;0.643341;-7.57245;-0.010266;-0.00277019;0.0394592;0.039613;-0.0104198;0.0250164;0.260167;3.84368;0.0304815;0.0333553;3.80169;0.263041;88.5155;133.515;0.00366303;-0.0102622;-0.00526253;-0.00039706;0.0394496;0.00190637;0.00637859;0;0.0435911;-0.073306;-1.47157;-1.37248;2.0136;-7.55519;-0.0083747;0.00152378;0.0461629;0.0462054;-0.00841724;0.0273113;0.181416;5.51218;0.0339589;0.0364151;5.48938;0.18217;87.2842;132.284;-0.00140791;-0.00837609;0.000752925;0.00225445;0.0461637;0.00675837;0.0537977;0;0.0516866;8.24002;5.52558
502000;503;26.9359;1.1831;0.0459408;-2.41073;26.8278;0.0183964;-0.076656;1.19392;-0.795702;0.0119283;-0.299188;-0.570249;0.644081;-7.57409;-0.0103216;-0.00287426;0.0393362;0.039502;-0.0104874;0.0249947;0.262396;3.81104;0.0304388;0.0333263;3.7666;0.265492;88.4254;133.425;0.00346747;-0.0103175;-0.00546635;-0.000406005;0.0393258;0.00228072;0.00671241;0;0.0398777;-0.0737428;-1.47868;-1.37554;2.0209;-7.55825;-0.00832802;0.00163214;0.0464736;0.0465221;-0.00837659;0.0274494;0.179199;5.58038;0.0341511;0.0365991;5.55382;0.180056;86.9608;131.961;-0.000335839;-0.00832987;0.000701466;0.00251408;0.0464746;0.00470251;0.0552097;0;0.0529874;8.24354;5.52937
503000;504;26.9449;1.19206;0.0462884;-2.41047;26.8368;0.0174389;-0.0763967;1.20293;-0.796659;0.0121131;-0.298593;-0.571238;0.644684;-7.57508;-0.0104587;-0.0031341;0.0397334;0.0399284;-0.0106536;0.025291;0.263221;3.79909;0.0307907;0.0337213;3.74787;0.266818;88.7822;133.782;0.00334149;-0.010454;-0.00569619;-0.000695665;0.0397226;0.00279187;0.00554941;0;0.0414415;-0.0740585;-1.48811;-1.37276;2.02594;-7.55548;-0.00854489;0.00154182;0.0469614;0.0470042;-0.00858768;0.0277959;0.181956;5.49585;0.0345562;0.0370612;5.47344;0.1827;86.6564;131.656;-0.0005195;-0.00854739;0.00030918;0.00270911;0.0469625;0.00550991;0.0582008;0;0.0544734;8.24729;5.53532
504000;505;26.9566;1.20378;0.0467436;-2.41199;26.8485;0.0175528;-0.0779157;1.21456;-0.796545;0.011033;-0.296611;-0.57695;0.648823;-7.58079;-0.0105623;-0.00275259;0.0413958;0.0415413;-0.0107077;0.0261245;0.255153;3.91921;0.0318688;0.0348326;3.87957;0.257761;88.3762;133.376;0.00333814;-0.0105585;-0.005381;-0.000255288;0.0413856;0.00155185;0.00523472;0;0.0413078;-0.0760005;-1.49301;-1.38168;2.03565;-7.56439;-0.00878459;0.00160476;0.0468992;0.0469454;-0.0088308;0.0278881;0.187308;5.33881;0.0346181;0.0371842;5.3161;0.188108;85.8864;130.886;-0.000259403;-0.00878857;-0.00011571;0.00323372;0.0469005;0.00265494;0.0562031;0;0.0554846;8.2509;5.54288
505000;506;26.9656;1.21275;0.0470918;-2.41196;26.8575;0.0173039;-0.0778825;1.22357;-0.796794;0.0105633;-0.29372;-0.579785;0.650026;-7.58363;-0.0105037;-0.00275152;0.0406826;0.0408301;-0.0106512;0.0257406;0.258186;3.87317;0.0313789;0.0343208;3.83339;0.260866;88.2181;133.218;0.00413978;-0.0104999;-0.00543633;-0.000198749;0.040672;0.00103243;0.00307533;0;0.0401434;-0.077309;-1.49884;-1.38698;2.04358;-7.56969;-0.00876604;0.0015255;0.0472987;0.0473402;-0.00880752;0.0280738;0.185334;5.39568;0.0348687;0.0374318;5.37497;0.186047;85.8908;130.891;0.000198417;-0.00877013;-0.000276679;0.0032312;0.0472998;0.000821664;0.0572734;0;0.0552319;8.25108;5.54975
506000;507;26.9736;1.22081;0.0474048;-2.41445;26.8653;0.0178899;-0.0803794;1.23144;-0.796208;0.0119261;-0.295226;-0.572589;0.644328;-7.57643;-0.010563;-0.0029974;0.0406376;0.0408125;-0.0107378;0.0257752;0.259931;3.84718;0.0314056;0.0343669;3.80081;0.263102;88.2843;133.284;0.00368917;-0.0105585;-0.00578815;-0.000343933;0.0406259;0.00229187;0.00724228;0;0.0416737;-0.0770249;-1.50755;-1.38049;2.04558;-7.56321;-0.00858754;0.00150242;0.0473159;0.0473562;-0.00862789;0.0279921;0.181494;5.50983;0.0348051;0.0373228;5.48874;0.182191;86.4418;131.442;-5.48925e-05;-0.00859052;7.0109e-05;0.00285828;0.047317;0.00520052;0.0518676;0;0.0545473;8.25224;5.55758
507000;508;26.9799;1.22711;0.0476497;-2.41443;26.8717;0.0137059;-0.0803522;1.23777;-0.800392;0.0103185;-0.293493;-0.577715;0.648074;-7.58156;-0.0106508;-0.00264442;0.0413692;0.0415032;-0.0107849;0.0261441;0.257458;3.88413;0.0318778;0.0348588;3.84827;0.259857;87.8506;132.851;0.00400121;-0.0106473;-0.00549538;6.41351e-05;0.041358;0.00142917;0.004025;0;0.0395076;-0.0787615;-1.51449;-1.38919;2.05663;-7.5719;-0.00854869;0.00150663;0.0475932;0.0476336;-0.0085891;0.0281113;0.17962;5.5673;0.0349721;0.0374818;5.54582;0.180316;87.0471;132.047;-0.000824484;-0.00855061;0.000494393;0.00246462;0.0475942;0.00702267;0.0493735;0;0.0540883;8.27151;5.56462
508000;509;26.9865;1.23366;0.0479038;-2.4151;26.8782;0.0111569;-0.0810233;1.24429;-0.802941;0.00948369;-0.293737;-0.571594;0.642721;-7.57544;-0.010309;-0.0028055;0.0416428;0.0417938;-0.01046;0.0261269;0.247557;4.03947;0.0319256;0.0348359;3.99557;0.250277;88.1219;133.122;0.00388099;-0.010305;-0.00566035;-9.30253e-05;0.0416312;-0.000616339;0.00439705;0;0.0405544;-0.0803888;-1.52283;-1.38471;2.05983;-7.56742;-0.00857085;0.00170169;0.0484158;0.0484666;-0.00862162;0.0285441;0.177026;5.6489;0.0355353;0.0380588;5.62152;0.177888;87.4011;132.401;-0.00188624;-0.00857209;0.00105259;0.00231551;0.0484167;0.0076387;0.0513527;0;0.0536192;8.26964;5.57229
509000;510;26.9942;1.24137;0.0482034;-2.41441;26.886;0.00938611;-0.0803314;1.2521;-0.804712;0.00891766;-0.291347;-0.576056;0.645603;-7.5799;-0.0104011;-0.0027041;0.042035;0.0421741;-0.0105402;0.0263571;0.247439;4.04141;0.0322095;0.0351428;4.00128;0.24992;87.6689;132.669;0.00357989;-0.0103974;-0.00577478;0.000212087;0.0420225;0.00215351;0.0038047;0;0.0403082;-0.0809037;-1.52867;-1.39112;2.06848;-7.57383;-0.008756;0.00156981;0.049167;0.0492095;-0.00879851;0.029004;0.178087;5.61523;0.0360984;0.038672;5.59293;0.178797;87.0041;132.004;-0.000651303;-0.00875811;0.000499865;0.00258068;0.049168;0.00721401;0.0509985;0;0.0540881;8.26318;5.57968
510000;511;27.0082;1.25534;0.0487459;-2.41741;26.8998;0.0181484;-0.0833386;1.26585;-0.79595;0.0105942;-0.28741;-0.585377;0.652214;-7.58922;-0.0103892;-0.00303217;0.042205;0.0423792;-0.0105634;0.0264713;0.246161;4.06239;0.032354;0.0352951;4.01188;0.24926;87.7599;132.76;0.00301737;-0.0103846;-0.00627316;4.52912e-05;0.0421905;0.00322084;0.00257424;0;0.0417487;-0.0810578;-1.53519;-1.39789;2.07785;-7.5806;-0.00871242;0.00162674;0.0493091;0.0493547;-0.008758;0.0290563;0.17669;5.65963;0.0361776;0.0387418;5.63538;0.17745;86.5766;131.577;-0.000584571;-0.00871535;0.000272671;0.00290593;0.0493103;0.00578884;0.0542969;0;0.0537021;8.26956;5.58692
511000;512;27.0158;1.26295;0.0490413;-2.41641;26.9075;0.00693761;-0.0823374;1.27358;-0.807161;0.00986762;-0.287723;-0.581808;0.649139;-7.58565;-0.0102504;-0.00285839;0.0415677;0.0417249;-0.0104076;0.0260662;0.246595;4.05523;0.0318576;0.034755;4.00908;0.249434;87.2953;132.295;0.00304194;-0.0102463;-0.00623854;0.000353628;0.0415529;0.00296743;0.0034308;0;0.0411696;-0.081755;-1.54257;-1.39964;2.08451;-7.58235;-0.00882861;0.00170701;0.0496431;0.0496929;-0.0088784;0.0292856;0.177842;5.62298;0.0364503;0.0390475;5.59705;0.178665;86.4958;131.496;-0.000495529;-0.00883169;0.000334238;0.0030033;0.0496444;0.00353239;0.0603356;0;0.0543071;8.27209;5.59294
512000;513;27.0282;1.27538;0.0495239;-2.41794;26.9198;0.0164162;-0.0838693;1.28592;-0.797682;0.00954183;-0.285857;-0.584305;0.650552;-7.58815;-0.00997236;-0.00305739;0.0423932;0.0425711;-0.0101503;0.0263607;0.235235;4.25106;0.0323002;0.0351476;4.19408;0.238431;87.6441;132.644;0.0033985;-0.00996766;-0.00645708;0.000171543;0.0423776;0.00390829;0.00226142;0;0.0462572;-0.0830097;-1.54923;-1.40109;2.09047;-7.58381;-0.00888635;0.00186608;0.0497089;0.0497683;-0.00894572;0.029357;0.178768;5.59385;0.0365277;0.0391427;5.56336;0.179747;86.1774;131.177;-0.00030344;-0.00889002;0.000367503;0.00328101;0.0497105;0.00234743;0.0622508;0;0.0565096;8.26987;5.59487
513000;514;27.0389;1.28603;0.0499375;-2.41976;26.9304;0.0163811;-0.0856878;1.29645;-0.797717;0.00911391;-0.28381;-0.5879;0.652884;-7.59175;-0.0101228;-0.00260821;0.0428444;0.0429725;-0.0102509;0.0266117;0.236268;4.23247;0.0326069;0.0354823;4.19207;0.238546;86.9639;131.964;0.00335273;-0.0101196;-0.00614175;0.000745887;0.0428296;0.00413545;0.00193393;0;0.045127;-0.0840077;-1.55544;-1.40629;2.0986;-7.58901;-0.00899347;0.0018124;0.0498918;0.0499476;-0.0090492;0.0294984;0.180259;5.54757;0.0366887;0.0393312;5.51956;0.181174;86.0438;131.044;-0.000107276;-0.00899753;0.000164157;0.00336819;0.0498934;0.0022624;0.0570671;0;0.0574166;8.27347;5.60161
514000;515;27.0466;1.29378;0.0502386;-2.41996;26.9381;0.0159449;-0.0858876;1.30422;-0.798153;0.00796956;-0.28275;-0.587229;0.651804;-7.59107;-0.0101286;-0.00251055;0.0432596;0.0433774;-0.0102464;0.0268119;0.234134;4.27106;0.0328705;0.0357492;4.23345;0.236214;86.9862;131.986;0.00262701;-0.0101257;-0.00599653;0.000797058;0.0432454;0.00345366;0.00134429;0;0.041734;-0.0855938;-1.56306;-1.40708;2.10484;-7.5898;-0.00909859;0.00174604;0.0501122;0.0501636;-0.00915003;0.0296568;0.181564;5.50769;0.0368728;0.0395424;5.48234;0.182404;86.5621;131.562;-0.000647237;-0.00910156;0.000428693;0.0029891;0.0501135;0.00836665;0.0524132;0;0.0566819;8.28815;5.60945
515000;516;27.0557;1.30287;0.0505912;-2.4213;26.9471;0.0146938;-0.087226;1.31321;-0.799404;0.00883129;-0.280569;-0.591158;0.654419;-7.595;-0.0102899;-0.00262952;0.0438478;0.0439752;-0.0104173;0.0271962;0.234672;4.26126;0.0333363;0.0362617;4.22137;0.23689;86.9471;131.947;0.00322403;-0.0102867;-0.0062433;0.000796861;0.0438324;0.00195456;0.00186044;0;0.051015;-0.086231;-1.57212;-1.40813;2.11231;-7.59085;-0.008919;0.00184162;0.0506572;0.0507141;-0.00897587;0.029845;0.176066;5.67969;0.0371644;0.0397933;5.65004;0.17699;87.5478;132.548;-0.0011728;-0.00892004;0.00131853;0.00233505;0.050658;0.00780556;0.0514954;0;0.0578096;8.28774;5.6164
516000;517;27.0598;1.30694;0.0507494;-2.42166;26.9512;0.00800369;-0.0875893;1.31728;-0.806094;0.00934867;-0.279199;-0.588352;0.651305;-7.5922;-0.0102341;-0.00244689;0.0436874;0.0437982;-0.0103449;0.0270716;0.234257;4.26881;0.033189;0.0360954;4.23379;0.236195;86.6682;131.668;0.00308841;-0.0102316;-0.00611101;0.00102795;0.0436724;0.00226244;0.00175821;0;0.0456417;-0.0861395;-1.57692;-1.41156;2.11816;-7.59427;-0.00884993;0.00189831;0.051339;0.0513989;-0.00890975;0.0301543;0.172382;5.80106;0.0375895;0.0402057;5.76884;0.173345;87.3892;132.389;-0.00103418;-0.00885125;0.00126963;0.00249099;0.05134;0.00716184;0.054906;0;0.0538137;8.28512;5.62369
517000;518;27.0675;1.31472;0.0510515;-2.42196;26.959;0.00495291;-0.0878901;1.32506;-0.809145;0.00794184;-0.279115;-0.589278;0.652086;-7.59312;-0.0101891;-0.00285807;0.0440676;0.0442177;-0.0103393;0.0272785;0.231216;4.32497;0.0334616;0.0363713;4.27668;0.233826;87.0053;132.005;0.00289183;-0.0101852;-0.00661987;0.000708273;0.0440505;0.00306181;0.00165945;0;0.0444475;-0.0879264;-1.58489;-1.41211;2.12454;-7.59482;-0.00899795;0.00174192;0.0517075;0.0517574;-0.00904789;0.0304027;0.174016;5.74658;0.0378828;0.0405369;5.72038;0.174813;87.4183;132.418;-0.000915405;-0.00899941;0.00100519;0.00243613;0.0517084;0.00593802;0.0567276;0;0.0519138;8.28701;5.63122
518000;519;27.079;1.32613;0.0514947;-2.42423;26.9702;0.00800463;-0.0901579;1.33632;-0.806094;0.00872602;-0.276986;-0.594258;0.655698;-7.5981;-0.0103187;-0.00281534;0.0445377;0.0446818;-0.0104628;0.0275723;0.231685;4.31621;0.0338194;0.0367631;4.27053;0.234163;87.1373;132.137;0.00312154;-0.0103149;-0.00648055;0.000657423;0.0445214;0.00139664;0.00013139;0;0.0467195;-0.087772;-1.59196;-1.41676;2.13289;-7.59947;-0.00897205;0.00177099;0.0519745;0.0520259;-0.00902346;0.0305247;0.172624;5.79294;0.0380501;0.0406996;5.76562;0.173442;87.0931;132.093;-0.00143018;-0.00897413;0.000788238;0.0026968;0.0519757;0.00507428;0.0613437;0;0.0544585;8.28872;5.63839
519000;520;27.0927;1.33986;0.0520275;-2.42411;26.984;0.00990973;-0.0900304;1.3501;-0.804188;0.00785574;-0.275261;-0.596504;0.656998;-7.60035;-0.0101741;-0.00253258;0.0446318;0.0447485;-0.0102909;0.0275197;0.227957;4.38679;0.0337891;0.036693;4.34836;0.229972;86.6422;131.642;0.00357498;-0.0101715;-0.00635826;0.00109243;0.0446155;0.00118413;0.00105495;0;0.0439379;-0.0891152;-1.59888;-1.42148;2.14125;-7.6042;-0.00914287;0.00189228;0.0522656;0.0523238;-0.00920112;0.0307625;0.174931;5.71654;0.0383196;0.0410166;5.68668;0.17585;86.3238;131.324;-0.00113955;-0.00914663;0.000374993;0.00332102;0.0522672;0.00431161;0.0629825;0;0.0572497;8.295;5.64615
520000;521;27.1008;1.34801;0.052344;-2.42515;26.9921;0.00165468;-0.0910771;1.35819;-0.812444;0.00884389;-0.277149;-0.587476;0.649628;-7.59132;-0.0102156;-0.00302063;0.0449731;0.0451379;-0.0103805;0.0277592;0.22715;4.40238;0.0340831;0.0370122;4.34835;0.229972;87.1356;132.136;0.00376541;-0.0102112;-0.00687418;0.000629432;0.0449548;-9.16143e-05;0.000440681;0;0.0463164;-0.0889347;-1.60941;-1.41351;2.14386;-7.59623;-0.00921928;0.00198002;0.052171;0.0522348;-0.00928307;0.0307589;0.176713;5.6589;0.0382945;0.0410119;5.62689;0.177718;86.1072;131.107;-0.000320504;-0.00922349;0.000362246;0.00350339;0.0521728;0.00418884;0.0603461;0;0.0592947;8.30594;5.65243
521000;522;27.1093;1.35648;0.0526732;-2.42545;27.0006;-0.00226041;-0.0913774;1.36668;-0.816359;0.00844556;-0.274448;-0.587206;0.648232;-7.59105;-0.00998586;-0.00317985;0.0454737;0.0456554;-0.0101676;0.0279115;0.219597;4.5538;0.0343317;0.0372153;4.49029;0.222703;87.4801;132.48;0.0031195;-0.00998084;-0.0069829;0.000421499;0.0454552;0.0004037;0.000973919;0;0.0488287;-0.090122;-1.61495;-1.41661;2.15011;-7.59932;-0.00933826;0.0019005;0.0527523;0.0528104;-0.00939638;0.0311034;0.177021;5.64905;0.038721;0.0414712;5.62029;0.177927;86.5136;131.514;-0.000168911;-0.00934162;0.000514881;0.00320439;0.0527539;0.00507868;0.0576031;0;0.0610037;8.30173;5.65955
522000;523;27.1182;1.36536;0.053018;-2.4273;27.0093;-0.00102165;-0.093222;1.37543;-0.81512;0.00845409;-0.271104;-0.593513;0.652554;-7.59736;-0.0105374;-0.0030215;0.0455156;0.045678;-0.0106998;0.0281889;0.231511;4.31945;0.034575;0.0375852;4.26906;0.234243;87.2883;132.288;0.00336013;-0.0105329;-0.00676851;0.000524661;0.0454981;-0.00128698;6.29883e-05;0;0.0456744;-0.0907002;-1.62009;-1.42331;2.15841;-7.60602;-0.00931313;0.00187911;0.05307;0.0531266;-0.00936968;0.0312481;0.175488;5.69841;0.0389187;0.0416642;5.67005;0.176365;86.9868;131.987;4.94111e-05;-0.00931546;0.000841419;0.00285532;0.0530714;0.00650889;0.0541583;0;0.05797;8.29885;5.66577
523000;524;27.1268;1.374;0.0533535;-2.42823;27.0179;0.000348981;-0.0941589;1.38402;-0.813749;0.00909244;-0.268624;-0.594924;0.652821;-7.59877;-0.0104071;-0.00267045;0.0459842;0.0461104;-0.0105333;0.0283219;0.226319;4.41854;0.0347871;0.0377625;4.37759;0.228436;87.1402;132.14;0.00230696;-0.0104038;-0.00633227;0.000793986;0.0459685;-0.00132482;0.00161758;0;0.0449767;-0.0909816;-1.62691;-1.42537;2.1649;-7.60808;-0.0091469;0.00183134;0.0535421;0.0535956;-0.00920036;0.031398;0.170836;5.85358;0.0391591;0.041864;5.82538;0.171663;87.3857;132.386;-0.000832311;-0.00914851;0.0010617;0.00255518;0.0535432;0.00607155;0.0535348;0;0.0577952;8.30049;5.66935
524000;525;27.128;1.37521;0.0534002;-2.42887;27.0191;-0.0149053;-0.0947919;1.38517;-0.829003;0.00639028;-0.270284;-0.590348;0.649312;-7.59419;-0.010271;-0.0023687;0.0459069;0.0460066;-0.0103707;0.0281887;0.223736;4.46956;0.0346492;0.0375849;4.43621;0.225418;86.7261;131.726;0.00288709;-0.0102689;-0.00611688;0.00117819;0.0458917;-0.00247845;0.000528099;0;0.0439106;-0.0937125;-1.63518;-1.42592;2.1716;-7.60863;-0.00942528;0.00183942;0.0540407;0.054094;-0.00947854;0.0317863;0.174411;5.73359;0.0396021;0.0423817;5.70699;0.175224;87.6626;132.663;-0.000837684;-0.00942639;0.00128228;0.002363;0.0540415;0.00647471;0.0545777;0;0.0558326;8.30075;5.67372
525000;526;27.1357;1.38286;0.0536976;-2.4303;27.0266;-0.0155345;-0.0962216;1.39273;-0.829633;0.00731835;-0.270692;-0.588035;0.647389;-7.59188;-0.0103906;-0.0026645;0.0461428;0.0462681;-0.0105159;0.028392;0.225183;4.44084;0.0348831;0.037856;4.39984;0.227281;87.2801;132.28;0.00207444;-0.0103872;-0.0062414;0.000719137;0.0461276;-0.00162805;0.000582426;0;0.0436795;-0.0936373;-1.64375;-1.42174;2.17532;-7.60445;-0.00945776;0.00173507;0.054469;0.054516;-0.00950482;0.0320104;0.173636;5.75918;0.0398915;0.0426806;5.73562;0.174349;87.3478;132.348;-0.000658682;-0.00945963;0.000824521;0.00259042;0.0544701;0.00504467;0.0555556;0;0.059642;8.30958;5.68057
526000;527;27.1488;1.396;0.0542076;-2.43118;27.0397;-0.0157861;-0.0971066;1.40583;-0.829884;0.00902101;-0.26729;-0.595587;0.652877;-7.59943;-0.0106541;-0.00280984;0.046519;0.0466568;-0.0107919;0.0287243;0.229027;4.3663;0.0352567;0.0382991;4.32333;0.231303;87.4181;132.418;0.00206039;-0.0106503;-0.0063833;0.000568431;0.0465033;0.000221718;0.00181521;0;0.0433028;-0.0935208;-1.65097;-1.43065;2.1866;-7.61337;-0.00936619;0.00194801;0.0548832;0.0549422;-0.0094252;0.0321837;0.170657;5.85971;0.0401404;0.0429116;5.82929;0.171548;86.8706;131.871;-0.00108435;-0.00936896;0.000778588;0.00304621;0.0548847;0.00403498;0.0612508;0;0.058478;8.30619;5.68815
527000;528;27.163;1.41014;0.0547568;-2.43048;27.054;-0.00653072;-0.0964075;1.4201;-0.820629;0.00819221;-0.264303;-0.598661;0.65446;-7.60251;-0.0106727;-0.00245644;0.0459818;0.0460881;-0.010779;0.0284336;0.232107;4.30836;0.0348781;0.0379114;4.27573;0.233878;86.8103;131.81;0.00257099;-0.0106702;-0.00615954;0.00104612;0.0459666;0.000263415;0.00322761;0;0.0442901;-0.0944562;-1.65612;-1.43383;2.19261;-7.61655;-0.00964781;0.00213166;0.0548972;0.0549676;-0.00971813;0.0323429;0.175743;5.69013;0.0402771;0.0431238;5.65619;0.176798;85.954;130.954;-0.000264587;-0.00965289;0.000331538;0.00382164;0.0548993;0.00405338;0.0599811;0;0.0591758;8.31727;5.69568
528000;529;27.1737;1.42085;0.0551725;-2.4311;27.0647;-0.00854873;-0.0970253;1.43079;-0.822647;0.00720138;-0.263077;-0.601315;0.656385;-7.60516;-0.0108203;-0.00227363;0.0467158;0.0468055;-0.01091;0.0288577;0.231619;4.31743;0.0354051;0.038477;4.29015;0.233092;86.72;131.72;0.00288061;-0.0108184;-0.00595342;0.00120391;0.0467013;0.00078065;0.00138488;0;0.0488129;-0.0962778;-1.6643;-1.43789;2.20152;-7.6206;-0.00972277;0.0022146;0.0555815;0.0556565;-0.00979778;0.0327271;0.174928;5.71663;0.0407646;0.0436362;5.68052;0.17604;85.4406;130.441;-0.000625711;-0.00972961;-4.82712e-06;0.00429672;0.0555838;0.00531786;0.0601199;0;0.0638822;8.32119;5.70348
529000;530;27.1833;1.43047;0.0555463;-2.43273;27.0742;-0.0066965;-0.0986533;1.44031;-0.820795;0.00725778;-0.262668;-0.599939;0.654961;-7.60378;-0.0107949;-0.00229578;0.0464542;0.0465462;-0.0108868;0.0287165;0.232377;4.30336;0.035225;0.0382886;4.27547;0.233893;86.7338;131.734;0.00284732;-0.0107929;-0.0059636;0.0011714;0.0464398;-0.000889205;0.00259192;0;0.0415959;-0.0968095;-1.6729;-1.437;2.20747;-7.61972;-0.00988797;0.00220283;0.0559805;0.0560541;-0.00996156;0.0330078;0.176632;5.66147;0.0410943;0.0440104;5.62704;0.177713;85.8008;130.801;-0.000798009;-0.00989371;0.000256672;0.00402758;0.0559827;0.00438896;0.0614454;0;0.0619361;8.32425;5.70957
530000;531;27.1883;1.43553;0.0557425;-2.43188;27.0794;-0.0135959;-0.0978025;1.44546;-0.827694;0.00633177;-0.260894;-0.600994;0.65521;-7.60484;-0.0108812;-0.00236099;0.0466186;0.0467154;-0.010978;0.0288467;0.233408;4.28433;0.0353754;0.0384622;4.25538;0.234997;86.7644;131.764;0.00249055;-0.010879;-0.00605374;0.00112892;0.0466038;-0.00064782;0.00237515;0;0.0428683;-0.0980955;-1.6783;-1.44193;2.21483;-7.62464;-0.00971445;0.0022057;0.0563192;0.0563928;-0.00978804;0.0330904;0.172489;5.79747;0.0412468;0.0441206;5.7614;0.173569;86.4685;131.468;-0.000965566;-0.00971822;0.000811765;0.00351249;0.0563212;0.00423342;0.0631218;0;0.0638506;8.31728;5.71688
531000;532;27.1918;1.43899;0.0558768;-2.43519;27.0825;-0.0292436;-0.101116;1.44862;-0.843342;0.00745696;-0.259653;-0.600385;0.65417;-7.60423;-0.0108972;-0.00269132;0.0467591;0.0468844;-0.0110226;0.0289535;0.233051;4.29091;0.0355055;0.0386047;4.25348;0.235102;87.0376;132.038;0.00244311;-0.0108939;-0.00642895;0.000840464;0.0467428;0.00147367;0.00168532;0;0.0434118;-0.098158;-1.68521;-1.44286;2.22068;-7.62557;-0.00976635;0.00203253;0.0564735;0.0565358;-0.00982866;0.0331822;0.172937;5.78245;0.0413579;0.044243;5.75214;0.173848;86.9587;131.959;-0.000383409;-0.00976903;0.000924705;0.00307089;0.056475;0.00448314;0.058285;0;0.0573818;8.31724;5.72421
532000;533;27.2037;1.45085;0.0563376;-2.43375;27.0946;-0.0179337;-0.0996731;1.46068;-0.832032;0.00756495;-0.258259;-0.598299;0.651703;-7.60214;-0.0109888;-0.00223623;0.0467684;0.0468548;-0.0110752;0.028965;0.234962;4.256;0.0355088;0.03862;4.23059;0.236374;86.6363;131.636;0.00361634;-0.0109871;-0.00593023;0.00125398;0.046754;-0.0019667;0.00324626;0;0.0433978;-0.0982367;-1.6924;-1.44313;2.22632;-7.62585;-0.00973242;0.00201789;0.0568978;0.0569589;-0.00979348;0.0333762;0.171051;5.84621;0.0416229;0.0445016;5.816;0.17194;87.0961;132.096;-0.000507515;-0.00973483;0.000998624;0.0029729;0.0568992;0.00364973;0.0562805;0;0.0554201;8.32323;5.73169
533000;534;27.207;1.45415;0.0564655;-2.43593;27.0977;-0.0297265;-0.101857;1.46378;-0.843825;0.00634186;-0.256318;-0.598832;0.651413;-7.60268;-0.0110847;-0.00220032;0.0472183;0.0473012;-0.0111676;0.0292344;0.234753;4.25979;0.0358414;0.0389792;4.23558;0.236095;86.592;131.592;0.00274702;-0.0110831;-0.00592466;0.00131669;0.0472038;-0.000256127;0.00327628;0;0.0434276;-0.10036;-1.69897;-1.44356;2.23168;-7.62627;-0.00973735;0.00209526;0.0573202;0.0573856;-0.00980276;0.0335942;0.169876;5.88663;0.0419086;0.0447923;5.85403;0.170823;87.1427;132.143;-0.00177225;-0.00973961;0.00115578;0.00297516;0.0573217;0.00373426;0.0602125;0;0.0557261;8.32099;5.73541
534000;535;27.2134;1.46056;0.0567146;-2.43709;27.104;-0.0404685;-0.103018;1.4701;-0.854567;0.00557104;-0.255632;-0.59958;0.651824;-7.60342;-0.0110474;-0.00248248;0.0474253;0.0475305;-0.0111526;0.0293416;0.232943;4.29289;0.0359853;0.0391221;4.26183;0.234641;86.949;131.949;0.00266357;-0.0110448;-0.0061716;0.00100073;0.0474101;-0.000254002;0.00297336;0;0.0442113;-0.101186;-1.7057;-1.44689;2.239;-7.62961;-0.00995127;0.0022849;0.0578099;0.0578869;-0.0100282;0.0339575;0.172138;5.8093;0.0423318;0.0452767;5.77239;0.173238;86.7404;131.74;-0.00151183;-0.00995442;0.0011084;0.00338603;0.0578118;0.00451014;0.062465;0;0.057047;8.32465;5.73958
535000;536;27.2357;1.48286;0.0575804;-2.43574;27.1265;-0.0193022;-0.101667;1.49263;-0.8334;0.00561161;-0.253217;-0.60193;0.653047;-7.60577;-0.0111594;-0.00238475;0.046964;0.0470617;-0.0112571;0.0291594;0.237615;4.20848;0.035723;0.0388792;4.18064;0.239198;86.9761;131.976;0.00223352;-0.011157;-0.00594058;0.000973697;0.0469499;0.000566485;0.00404945;0;0.0428624;-0.102146;-1.71347;-1.44785;2.24559;-7.63057;-0.00984375;0.0025217;0.0581466;0.05824;-0.00993715;0.0340886;0.169292;5.90695;0.0425278;0.0454514;5.86083;0.170624;86.5471;131.547;-0.00128006;-0.00984721;0.0013328;0.00363421;0.0581487;0.00556959;0.0638644;0;0.0621573;8.33574;5.74807
536000;537;27.2363;1.48348;0.0576044;-2.43877;27.1269;-0.0400627;-0.104697;1.49296;-0.854161;0.00633714;-0.252577;-0.602918;0.653717;-7.60676;-0.0111656;-0.00241506;0.0477971;0.0478958;-0.0112643;0.0295801;0.233604;4.28075;0.0362731;0.0394401;4.25199;0.235184;86.943;131.943;0.00206081;-0.0111632;-0.00607615;0.00104003;0.0477822;0.00166894;0.00196583;0;0.0423687;-0.102269;-1.72102;-1.45331;2.25487;-7.63602;-0.00978251;0.00249233;0.0582827;0.0583738;-0.00987365;0.0341237;0.167846;5.95784;0.0425903;0.0454983;5.91208;0.169145;86.7611;131.761;-0.000864458;-0.00978539;0.00146641;0.00345228;0.0582846;0.00509793;0.0624331;0;0.0633775;8.34022;5.75544
537000;538;;;;;;;;;;0.00621881;-0.251213;-0.602002;0.652345;-7.60585;-0.0112667;-0.00296934;0.047887;0.0480357;-0.0114154;0.0297255;0.235277;4.2503;0.0364301;0.0396341;4.20797;0.237644;87.4451;132.445;0.0026572;-0.0112624;-0.00664549;0.000499329;0.0478701;0.00125331;0.00202499;0;0.0452562;-0.103388;-1.72897;-1.45223;2.26032;-7.63508;-0.00984796;0.00226716;0.058717;0.0587919;-0.00992284;0.0343574;0.167719;5.96235;0.0428866;0.0458098;5.9249;0.168779;87.0471;132.047;-0.00116075;-0.00985042;0.00130853;0.0031637;0.0587186;0.00452404;0.0612786;0;0.0667034;8.33972;5.76171
538000;539;27.251;1.49814;0.058174;-2.44097;27.1414;-0.0462952;-0.106895;1.50748;-0.860393;0.00622781;-0.248653;-0.60355;0.652794;-7.6074;-0.0111972;-0.00265301;0.047413;0.0475329;-0.011317;0.029425;0.236163;4.23437;0.0360579;0.0392333;4.20012;0.238088;86.7981;131.798;0.00269985;-0.0111941;-0.00653971;0.00101623;0.047396;0.00259511;0.00108287;0;0.0442244;-0.10393;-1.73555;-1.45488;2.26707;-7.63759;-0.00999609;0.00218519;0.0585805;0.0586501;-0.0100656;0.0343579;0.170638;5.86035;0.0428512;0.0458105;5.82676;0.171622;87.3405;132.341;0.000383315;-0.00999788;0.00143434;0.00288739;0.0585818;0.00456391;0.0548953;0;0.0594185;8.33914;5.76836
539000;540;27.2618;1.50898;0.0585948;-2.44018;27.1523;-0.0380903;-0.10611;1.51844;-0.852188;0.00572084;-0.24709;-0.604425;0.653005;-7.60827;-0.0113234;-0.00225333;0.04804;0.0481255;-0.0114088;0.0297671;0.235707;4.24255;0.0364861;0.0396895;4.21827;0.237064;86.5314;131.531;0.00373077;-0.0113218;-0.00609182;0.00136777;0.0480248;-0.00141674;0.00204261;0;0.0477771;-0.10525;-1.74268;-1.45562;2.27307;-7.63833;-0.0102448;0.00201313;0.0591341;0.0591925;-0.0103032;0.0347478;0.173248;5.77208;0.0433065;0.0463305;5.74505;0.174063;87.5233;132.523;-0.00082838;-0.0102465;0.00127546;0.00270248;0.0591353;0.00472638;0.0602204;0;0.0573528;8.34074;5.77574
540000;541;27.2648;1.51202;0.058713;-2.4437;27.1551;-0.0495156;-0.109624;1.52116;-0.863614;0.00707599;-0.246541;-0.599772;0.648505;-7.60362;-0.0113581;-0.00202153;0.0479539;0.0480227;-0.0114269;0.0297248;0.236855;4.22199;0.0364265;0.0396331;4.20259;0.237949;86.4532;131.453;0.00435349;-0.0113572;-0.00574772;0.0014938;0.0479401;-0.00245998;0.00263234;0;0.0433976;-0.1045;-1.74972;-1.45587;2.27859;-7.63858;-0.0102514;0.00216884;0.0599517;0.0600186;-0.0103183;0.0351685;0.170994;5.84816;0.0438583;0.0468913;5.81671;0.171918;87.4398;132.44;-0.00176566;-0.0102531;0.00144013;0.00284929;0.0599529;0.00540299;0.0634115;0;0.0599825;8.34202;5.78257
541000;542;27.2836;1.5308;0.059442;-2.44095;27.1742;-0.0337896;-0.106878;1.54028;-0.847888;0.00591308;-0.242693;-0.607907;0.654588;-7.61175;-0.0114311;-0.00217535;0.0482679;0.0483471;-0.0115103;0.0299287;0.236826;4.2225;0.0366753;0.0399049;4.20034;0.238076;86.5863;131.586;0.00454869;-0.0114297;-0.00592812;0.00136372;0.0482534;-0.00338484;0.000460575;0;0.0474207;-0.106508;-1.75543;-1.46229;2.28718;-7.64501;-0.0100834;0.00236425;0.0602938;0.0603731;-0.0101628;0.0352679;0.167238;5.97949;0.044029;0.0470239;5.94062;0.168333;87.218;132.218;-0.00166682;-0.0100855;0.00156482;0.00311063;0.0602952;0.00469629;0.0648402;0;0.0572229;8.34346;5.7905
542000;543;27.2961;1.54329;0.0599269;-2.44147;27.1867;-0.0309235;-0.107396;1.55278;-0.845022;0.0052816;-0.241262;-0.608111;0.654243;-7.61196;-0.0113074;-0.0023614;0.048353;0.0484464;-0.0114008;0.0299236;0.233852;4.27621;0.036693;0.0398981;4.2494;0.235328;86.6511;131.651;0.00342503;-0.0113054;-0.00621622;0.00127407;0.0483373;-0.00094801;0.0026757;0;0.045746;-0.107541;-1.76316;-1.46312;2.29369;-7.64583;-0.0100979;0.00252447;0.0607694;0.0608592;-0.0101877;0.0355235;0.166168;6.01801;0.0443604;0.0473647;5.97377;0.167399;86.6865;131.686;-0.00231152;-0.0101014;0.00132666;0.00364225;0.0607716;0.00621398;0.064003;0;0.060895;8.34554;5.79721
543000;544;27.3089;1.55606;0.0604228;-2.44262;27.1994;-0.0298644;-0.108541;1.5655;-0.843963;0.00554321;-0.237896;-0.613399;0.657939;-7.61724;-0.0118305;-0.00243174;0.0490775;0.0491744;-0.0119274;0.0305509;0.241058;4.14838;0.0373982;0.0407346;4.1228;0.242554;86.838;131.838;0.00262267;-0.0118281;-0.00619157;0.00110982;0.049062;0.000312543;0.00428001;0;0.0489617;-0.108169;-1.76953;-1.46818;2.30184;-7.65089;-0.00989888;0.00268773;0.0610986;0.0612002;-0.0100005;0.0356003;0.162015;6.17228;0.0445097;0.0474671;6.11973;0.163406;86.4375;131.438;-0.00110994;-0.00990301;0.00136144;0.00392527;0.0611011;0.00785964;0.0663778;0;0.0640624;8.35015;5.80473
544000;545;;;;;;;;;;0.00523687;-0.238591;-0.608903;0.654;-7.61275;-0.011773;-0.00220463;0.0490842;0.049164;-0.0118528;0.0305084;0.239854;4.16921;0.037359;0.0406779;4.14788;0.241087;86.5665;131.566;0.00327926;-0.0117715;-0.00601413;0.00138391;0.0490693;-0.00280455;0.0038255;0;0.0487999;-0.109493;-1.77803;-1.46633;2.30727;-7.64917;-0.0102375;0.00258756;0.0613355;0.061429;-0.0103309;0.0358799;0.16691;5.99125;0.0447952;0.0478399;5.94612;0.168177;87.0771;132.077;-0.00243025;-0.0102398;0.00177796;0.00334255;0.0613372;0.00748241;0.0657274;0;0.0681102;8.35047;5.81141
545000;546;;;;;;;;;;0.00557648;-0.23614;-0.607711;0.652001;-7.61156;-0.0116903;-0.00228629;0.0495215;0.0496068;-0.0117755;0.0306912;0.236064;4.23613;0.0376158;0.0409215;4.2127;0.237378;86.9709;131.971;0.00318216;-0.0116883;-0.00590601;0.00112235;0.0495074;-0.00435367;0.00517582;0;0.04479;-0.109459;-1.78453;-1.46639;2.31232;-7.64924;-0.0103097;0.00229085;0.0616248;0.0616977;-0.0103826;0.0360402;0.167299;5.97734;0.0449938;0.0480535;5.9424;0.168282;87.4621;132.462;-0.000612239;-0.0103114;0.00161019;0.00292538;0.0616261;0.00182384;0.0631093;0;0.0705077;8.35322;5.81584
546000;547;27.328;1.57514;0.0611636;-2.44492;27.2183;-0.0396497;-0.110847;1.58443;-0.853748;0.00580664;-0.233612;-0.613696;0.656682;-7.61754;-0.0118658;-0.00246995;0.049931;0.0500295;-0.0119644;0.030997;0.237645;4.20796;0.0379747;0.0413293;4.18153;0.239147;87.0419;132.042;0.00365912;-0.0118633;-0.00616987;0.00101223;0.0499157;-0.00503004;0.00464139;0;0.0444066;-0.10996;-1.79186;-1.47394;2.32279;-7.65666;-0.0103656;0.00212325;0.0617867;0.0618492;-0.010428;0.0361386;0.167764;5.96077;0.0451123;0.0481848;5.93107;0.168604;87.6085;132.608;-0.000359182;-0.0103671;0.001449;0.00275169;0.0617879;0.00299676;0.0622446;0;0.0658434;8.35835;5.82414
547000;548;27.3359;1.58306;0.0614715;-2.44711;27.2261;-0.0433889;-0.11304;1.59219;-0.857487;0.0065866;-0.23164;-0.612609;0.654973;-7.61645;-0.011972;-0.00229424;0.049977;0.0500619;-0.0120569;0.0310594;0.23955;4.17449;0.0380359;0.0414125;4.15215;0.240839;86.6498;131.65;0.00332331;-0.0119702;-0.00615097;0.00133498;0.0499615;-0.00334965;0.00309165;0;0.044184;-0.109968;-1.79828;-1.4762;2.32918;-7.65891;-0.0104453;0.00193658;0.062279;0.0623305;-0.0104968;0.0364137;0.167718;5.96239;0.0454584;0.0485516;5.93803;0.168406;87.9528;132.953;-0.00160753;-0.0104463;0.00143397;0.00240479;0.0622798;0.00487669;0.0663623;0;0.0613823;8.35624;5.82697
548000;549;27.3472;1.59441;0.061912;-2.44585;27.2376;-0.0369895;-0.111776;1.60371;-0.851088;0.00469164;-0.22802;-0.617492;0.658264;-7.62134;-0.0119251;-0.00214352;0.0508881;0.0509612;-0.0119981;0.0314796;0.234339;4.26733;0.0386001;0.0419728;4.24743;0.235437;86.7462;131.746;0.00518847;-0.0119237;-0.00590668;0.00139473;0.0508737;-0.00971891;0.00691562;0;0.050021;-0.112114;-1.8036;-1.48119;2.33655;-7.66391;-0.0106274;0.00216156;0.062681;0.0627447;-0.0106911;0.0367179;0.169547;5.89807;0.0458112;0.0489571;5.8689;0.17039;87.7209;132.721;-0.00126434;-0.0106287;0.00159025;0.00269346;0.062682;0.00398534;0.0654603;0;0.0600231;8.35798;5.83456
549000;550;27.3563;1.60351;0.0622656;-2.44708;27.2466;-0.0411749;-0.113003;1.61273;-0.855273;0.00588841;-0.227737;-0.615933;0.656713;-7.61978;-0.0123848;-0.00240428;0.0507922;0.0508835;-0.0124761;0.0316798;0.243832;4.10118;0.0387563;0.0422398;4.07847;0.24519;87.2268;132.227;0.00328476;-0.0123823;-0.00592673;0.000906409;0.0507782;-0.00334823;0.00325313;0;0.0486493;-0.111946;-1.81203;-1.47992;2.34225;-7.66263;-0.010428;0.0025312;0.0631553;0.0632423;-0.010515;0.0368786;0.165117;6.05632;0.0460683;0.0491715;6.01449;0.166265;87.3168;132.317;-0.00227258;-0.0104299;0.00183114;0.00318282;0.0631568;0.00595145;0.066549;0;0.0606964;8.3616;5.84175
550000;551;27.3665;1.61368;0.0626602;-2.44791;27.2568;-0.0422323;-0.11384;1.62286;-0.85633;0.00584593;-0.225879;-0.615598;0.655756;-7.61944;-0.0122107;-0.00233375;0.0519499;0.0520347;-0.0122955;0.0321651;0.235048;4.25446;0.0394326;0.0428868;4.23202;0.236294;87.1342;132.134;0.00445671;-0.0122086;-0.00597996;0.0010901;0.0519355;-0.00831811;-0.00080853;0;0.0425199;-0.112743;-1.81841;-1.48171;2.34836;-7.66442;-0.0106655;0.00282399;0.0637578;0.0638648;-0.0107725;0.0373187;0.167282;5.97794;0.0465844;0.0497582;5.92849;0.168677;86.91;131.91;-0.00178247;-0.0106683;0.00191675;0.00366777;0.0637598;0.00736006;0.0665072;0;0.0631894;8.36133;5.84975
551000;552;27.3775;1.62467;0.0630872;-2.4477;27.2678;-0.0426761;-0.113623;1.63392;-0.856774;0.00304762;-0.226868;-0.607501;0.648487;-7.61135;-0.0121804;-0.00246497;0.0519412;0.0520359;-0.012275;0.0321554;0.234503;4.26433;0.0394244;0.0428739;4.23917;0.235895;87.6763;132.676;0.00242554;-0.0121775;-0.0057945;0.000661628;0.0519282;-0.00432597;0.00322396;0;0.0499061;-0.116296;-1.82792;-1.47542;2.35195;-7.65813;-0.0109073;0.00274163;0.0642201;0.06432;-0.0110072;0.0376636;0.169843;5.8878;0.0469809;0.0502182;5.84343;0.171132;86.3353;131.335;-0.0008586;-0.0109124;0.00117786;0.00419501;0.064223;0.00711963;0.0666223;0;0.0667807;8.35991;5.85671
552000;553;;;;;;;;;;0.00709715;-0.222972;-0.619532;0.658473;-7.62338;-0.0125084;-0.00241225;0.0510677;0.051159;-0.0125998;0.0318794;0.244938;4.08267;0.0389906;0.0425059;4.06031;0.246287;87.1949;132.195;0.00313956;-0.0125059;-0.00596812;0.000928551;0.0510535;-0.00680086;0.00275772;0;0.0472655;-0.113114;-1.83289;-1.4883;2.36375;-7.67114;-0.0107663;0.00261633;0.0641907;0.0642819;-0.0108575;0.0375697;0.167723;5.96221;0.0468947;0.050093;5.92052;0.168904;86.4058;131.406;-0.00139578;-0.0107713;0.00102934;0.00409154;0.0641935;0.00520139;0.0701015;0;0.0727107;8.36677;5.86448
553000;554;;;;;;;;;;0.0060959;-0.223595;-0.607693;0.647551;-7.61154;-0.0124666;-0.00276577;0.0521557;0.0522738;-0.0125847;0.0324293;0.239026;4.18364;0.0397144;0.043239;4.15375;0.240746;87.9166;132.917;0.00189509;-0.0124628;-0.00609576;0.000359715;0.0521416;-0.00338068;0.00191766;0;0.0435278;-0.115242;-1.84255;-1.47723;2.36442;-7.66007;-0.0111734;0.00218279;0.0641153;0.0641785;-0.0112366;0.0377076;0.174271;5.7382;0.0469813;0.0502768;5.71154;0.175084;87.4158;132.416;-0.00188468;-0.0111756;0.00127299;0.00302822;0.0641168;0.00531439;0.0695208;0;0.0734109;8.36873;5.87213
554000;555;27.4034;1.65055;0.0640919;-2.45183;27.2934;-0.047076;-0.117758;1.65952;-0.861174;0.00473437;-0.21819;-0.619162;0.6565;-7.62301;-0.0124567;-0.00269803;0.0523059;0.0524181;-0.012569;0.0324935;0.238152;4.199;0.0398021;0.0433247;4.17044;0.239783;87.6316;132.632;0.00247008;-0.0124532;-0.00620751;0.000595489;0.052291;-0.00448289;0.00276233;0;0.0466521;-0.117233;-1.84671;-1.48973;2.37558;-7.67244;-0.0109985;0.00199546;0.0645075;0.0645602;-0.0110512;0.0378057;0.170499;5.86514;0.0471575;0.0504076;5.84194;0.171176;87.8521;132.852;-0.000336066;-0.0109998;0.00136397;0.00258215;0.0645085;0.00452397;0.0621706;0;0.0688587;8.36709;5.87941
555000;556;27.4114;1.65859;0.0644041;-2.45257;27.3014;-0.0438617;-0.118493;1.66753;-0.85796;0.00534393;-0.215266;-0.624164;0.660264;-7.62801;-0.0123267;-0.00323915;0.0519245;0.0520874;-0.0124896;0.0322885;0.237397;4.21235;0.039551;0.0430514;4.17045;0.239782;88.3884;133.388;0.00214351;-0.0123214;-0.00653142;-0.00014795;0.0519092;-0.00417238;0.00583346;0;0.0468545;-0.116911;-1.85191;-1.49427;2.38245;-7.67698;-0.0108862;0.00200414;0.0648145;0.0648675;-0.0109393;0.0379034;0.16796;5.9538;0.0473149;0.0505378;5.92979;0.16864;87.9321;132.932;-0.000725838;-0.0108874;0.00145045;0.00251847;0.0648154;0.0044476;0.0660067;0;0.0667092;8.36922;5.88583
556000;557;27.419;1.66618;0.0646989;-2.45304;27.309;-0.049319;-0.118966;1.6751;-0.863417;0.00489827;-0.214109;-0.621498;0.657363;-7.62534;-0.0123052;-0.00291028;0.052132;0.0522632;-0.0124363;0.0323498;0.236039;4.2366;0.0396432;0.043133;4.20246;0.237956;87.9713;132.971;0.00214952;-0.0123009;-0.00631168;0.000282835;0.0521171;-0.00225222;0.00663928;0;0.0448761;-0.118134;-1.86029;-1.49356;2.38859;-7.67627;-0.0111393;0.00202567;0.0653872;0.0654408;-0.0111929;0.0383168;0.170359;5.86997;0.047797;0.0510891;5.84665;0.171038;87.8945;132.894;-0.00144077;-0.0111406;0.00143011;0.00257846;0.0653882;0.00477228;0.0687616;0;0.0654199;8.37251;5.8915
557000;558;27.4209;1.66809;0.0647732;-2.45586;27.3106;-0.065447;-0.121786;1.67673;-0.879545;0.0050466;-0.210979;-0.623589;0.658332;-7.62743;-0.01242;-0.00312912;0.0517838;0.0519359;-0.0125721;0.032254;0.239842;4.1694;0.0394875;0.0430054;4.13105;0.242069;88.2184;133.218;0.00189394;-0.012415;-0.00645706;-4.28674e-06;0.0517686;-0.00340719;0.00681;0;0.0449904;-0.118771;-1.8657;-1.49716;2.39508;-7.67987;-0.01115;0.00253511;0.0659367;0.06602;-0.0112333;0.0386266;0.169101;5.91362;0.0481961;0.0515022;5.87719;0.170149;87.1775;132.178;-0.00275524;-0.0111527;0.00157571;0.00342512;0.0659386;0.00734772;0.0687904;0;0.0630459;8.37294;5.89466
558000;559;27.4382;1.68534;0.0654429;-2.45602;27.328;-0.0599909;-0.121946;1.69405;-0.874089;0.00475194;-0.209239;-0.62322;0.657425;-7.62707;-0.0124549;-0.00320447;0.0521049;0.0522636;-0.0126136;0.0324386;0.239035;4.18349;0.0397202;0.0432515;4.14344;0.241345;88.4319;133.432;0.000860042;-0.0124497;-0.00643621;-0.000171004;0.0520901;-0.000509882;0.00476764;0;0.0451116;-0.119712;-1.87332;-1.49853;2.40192;-7.68124;-0.0110478;0.00304997;0.0666913;0.0668108;-0.0111673;0.038989;0.165656;6.03662;0.0486917;0.0519854;5.98273;0.167148;86.7276;131.728;-0.0016656;-0.0110513;0.00198348;0.00403874;0.0666938;0.00856973;0.0649081;0;0.0706095;8.38095;5.90152
559000;560;27.4475;1.69469;0.0658062;-2.45798;27.3372;-0.0632136;-0.123904;1.70326;-0.877312;0.00425784;-0.207328;-0.626355;0.65979;-7.6302;-0.0125146;-0.00310891;0.052271;0.0524199;-0.0126634;0.0325416;0.239417;4.17681;0.0398443;0.0433889;4.13947;0.241577;88.3738;133.374;0.00106804;-0.0125097;-0.00632335;-9.23572e-05;0.0522566;-0.00184205;0.00551282;0;0.044761;-0.121179;-1.88095;-1.50099;2.40948;-7.6837;-0.0112407;0.00290942;0.0672447;0.0673524;-0.0113484;0.0393504;0.167161;5.98224;0.0491233;0.0524672;5.93496;0.168493;86.2374;131.237;-0.000975149;-0.0112467;0.00119402;0.00449865;0.067248;0.012362;0.0655812;0;0.0702944;8.38389;5.90884
560000;561;;;;;;;;;;0.00428862;-0.204276;-0.628368;0.660752;-7.63221;-0.0125415;-0.00307406;0.0518159;0.0519624;-0.012688;0.0323252;0.242039;4.13157;0.0395552;0.0431003;4.09541;0.244176;88.1478;133.148;-0.000799894;-0.0125367;-0.00640592;5.39722e-05;0.0518009;0.00438255;0.00267083;0;0.0473981;-0.122246;-1.8876;-1.50346;2.41627;-7.6863;-0.0114561;0.00261056;0.0671406;0.0672272;-0.0115427;0.0393849;0.170628;5.8607;0.0491199;0.0525133;5.82423;0.171697;87.0058;132.006;-0.00308665;-0.0114594;0.00147538;0.00366213;0.0671428;0.0115214;0.0713626;0;0.0765826;8.3872;5.91527
561000;562;27.466;1.71323;0.0665258;-2.46095;27.3555;-0.0690699;-0.126871;1.72158;-0.883168;0.00416462;-0.20095;-0.630823;0.662069;-7.63467;-0.0125292;-0.00336929;0.0518935;0.0520692;-0.0127049;0.0323871;0.241441;4.1418;0.0396325;0.0431827;4.09834;0.244001;88.4189;133.419;0.00127849;-0.0125235;-0.00669877;-0.000243692;0.0518775;-0.00360538;0.00643661;0;0.0487791;-0.123298;-1.89368;-1.50902;2.42454;-7.69173;-0.011452;0.00247676;0.0675225;0.0676001;-0.0115296;0.0395648;0.169603;5.89612;0.0493608;0.0527531;5.86317;0.170556;87.5751;132.575;-0.00108889;-0.0114537;0.00181813;0.00308667;0.0675238;0.00760877;0.0685983;0;0.0717809;8.38689;5.92269
562000;563;27.4743;1.72149;0.0668465;-2.46221;27.3637;-0.0690369;-0.128137;1.72976;-0.883135;0.00388401;-0.197427;-0.636482;0.666409;-7.64033;-0.0125992;-0.00339158;0.0518169;0.051995;-0.0127773;0.0323861;0.243148;4.11272;0.0396153;0.0431815;4.06933;0.24574;88.6475;133.647;0.000737597;-0.0125935;-0.00655434;-0.000422494;0.0518019;-0.000609151;0.00724173;0;0.0496772;-0.124057;-1.9001;-1.51438;2.43292;-7.69709;-0.0115354;0.00205583;0.0676513;0.0677047;-0.0115888;0.0396467;0.170513;5.86466;0.0494541;0.0528623;5.84227;0.171166;88.1384;133.138;-0.00162566;-0.0115362;0.00166326;0.00241928;0.067652;0.0062923;0.0670421;0;0.0708885;8.37994;5.93024
563000;564;27.4874;1.73455;0.0673538;-2.46106;27.3769;-0.0612462;-0.126983;1.743;-0.875344;0.00445952;-0.198345;-0.627161;0.657793;-7.63101;-0.0125012;-0.00329683;0.0526222;0.0527887;-0.0126676;0.0327281;0.237564;4.20939;0.0400878;0.0436375;4.16721;0.239969;88.2694;133.269;0.000842935;-0.0124957;-0.00673391;-7.23611e-05;0.0526058;-0.000359147;0.0044631;0;0.0498557;-0.124202;-1.90827;-1.50799;2.43536;-7.6907;-0.0115798;0.00195521;0.0678651;0.0679132;-0.0116279;0.0397706;0.17063;5.86064;0.0496078;0.0530274;5.84054;0.171217;87.9241;132.924;-0.00082375;-0.0115813;0.00125539;0.00260296;0.0678662;0.00408343;0.0671509;0;0.0684035;8.37998;5.93819
564000;565;27.4957;1.74286;0.0676765;-2.46279;27.3851;-0.063614;-0.128713;1.75118;-0.877712;0.00435735;-0.195362;-0.633288;0.662751;-7.63713;-0.0126842;-0.0034872;0.0523214;0.052508;-0.0128707;0.0326893;0.242428;4.12493;0.039992;0.0435858;4.07965;0.245119;88.3898;133.39;0.000775631;-0.0126781;-0.00691989;-0.000266526;0.0523044;0.000170779;0.00499036;0;0.0446678;-0.125073;-1.91469;-1.5152;2.4449;-7.69792;-0.0114978;0.00215751;0.0679977;0.0680562;-0.0115563;0.0398062;0.169091;5.91399;0.049673;0.053075;5.88911;0.169805;87.5762;132.576;-0.00209461;-0.0115;0.00124059;0.00300618;0.0679991;0.00506788;0.0721446;0;0.0629022;8.38407;5.94453
565000;566;27.5075;1.75466;0.0681345;-2.46374;27.3968;-0.0657769;-0.129662;1.76294;-0.879875;0.00381082;-0.193195;-0.632372;0.661236;-7.63622;-0.0125747;-0.00318122;0.0527472;0.0529018;-0.0127293;0.0328155;0.238396;4.19471;0.0401886;0.043754;4.15592;0.240621;88.06;133.06;0.00201626;-0.0125696;-0.00669917;0.000118483;0.0527307;-0.00394151;0.00553411;0;0.0445871;-0.126171;-1.92163;-1.51478;2.45013;-7.69749;-0.0117429;0.0027431;0.0687192;0.0688127;-0.0118363;0.0403245;0.170882;5.852;0.050287;0.0537659;5.81371;0.172007;86.9001;131.9;-0.00106987;-0.0117466;0.00152065;0.00387351;0.0687217;0.00387621;0.0701924;0;0.0664574;8.38351;5.95138
566000;567;27.5191;1.76631;0.0685871;-2.46479;27.4085;-0.0631595;-0.130716;1.77455;-0.877258;0.00351125;-0.191272;-0.63378;0.662023;-7.63762;-0.0128442;-0.00320622;0.0531545;0.0533099;-0.0129996;0.0331548;0.24164;4.1384;0.0405734;0.0442063;4.10088;0.24385;88.2348;133.235;0.00211859;-0.012839;-0.00659934;-2.56962e-05;0.0531387;-0.0022059;0.00453737;0;0.0451904;-0.127231;-1.92835;-1.51634;2.45642;-7.69905;-0.0118059;0.00310229;0.0694479;0.0695661;-0.0119241;0.0407451;0.169996;5.88249;0.0508206;0.0543269;5.83406;0.171407;86.2781;131.278;-0.000246598;-0.0118119;0.00144522;0.00463345;0.0694514;0.00554495;0.0651174;0;0.0710484;8.38708;5.95752
567000;568;27.5302;1.77738;0.0690171;-2.46597;27.4195;-0.0603919;-0.131895;1.78557;-0.87449;0.00458012;-0.189065;-0.636198;0.663712;-7.64004;-0.0127858;-0.00304032;0.053693;0.0538318;-0.0129246;0.0333782;0.238128;4.19943;0.0408828;0.0445042;4.16508;0.240091;87.817;132.817;9.28162e-05;-0.0127812;-0.00668358;0.000373114;0.0536762;0.00273011;0.0014622;0;0.046634;-0.126888;-1.93515;-1.51822;2.4629;-7.70093;-0.0117395;0.00321361;0.0697546;0.0698811;-0.0118661;0.0408736;0.168298;5.94185;0.0510049;0.0544981;5.88915;0.169804;86.0712;131.071;-0.00138732;-0.0117464;0.0013981;0.00489081;0.0697585;0.0121475;0.0636465;0;0.073932;8.39072;5.96342
568000;569;27.5399;1.78705;0.0693923;-2.46545;27.4292;-0.0621976;-0.131378;1.79531;-0.876296;0.00379801;-0.188469;-0.632476;0.659971;-7.63632;-0.0129783;-0.00276122;0.0534551;0.0535697;-0.0130928;0.0333313;0.242788;4.11881;0.040784;0.0444417;4.09152;0.244408;87.6142;132.614;0.00232597;-0.0129746;-0.00633903;0.000591001;0.0534396;-0.00575226;0.00128306;0;0.0509127;-0.128481;-1.94258;-1.51784;2.46859;-7.70055;-0.0120197;0.00281916;0.0695564;0.0696537;-0.012117;0.0408854;0.172806;5.78685;0.0509573;0.0545139;5.74841;0.173961;86.8085;131.808;-0.00132833;-0.0120239;0.00151379;0.00402496;0.0695591;0.0110764;0.0660159;0;0.0749494;8.39431;5.96846
569000;570;27.5529;1.8001;0.0698992;-2.46796;27.4421;-0.0530733;-0.133887;1.80821;-0.867171;0.00343833;-0.184792;-0.638404;0.66462;-7.64225;-0.0130623;-0.00253469;0.0531041;0.0532011;-0.0131593;0.0331802;0.245976;4.06544;0.0405715;0.0442402;4.04286;0.24735;87.2219;132.222;0.00262791;-0.0130595;-0.00622979;0.000928268;0.0530887;-0.00441539;0.00412115;0;0.0492461;-0.129819;-1.9482;-1.52541;2.47774;-7.70813;-0.0122301;0.0025742;0.0702789;0.0703591;-0.0123104;0.0413348;0.174023;5.74637;0.0515023;0.055113;5.71543;0.174965;87.1018;132.102;-0.00208913;-0.0122337;0.00136675;0.00368857;0.0702811;0.0100282;0.0680444;0;0.0779388;8.39316;5.97445
570000;571;27.5564;1.80361;0.0700356;-2.46714;27.4457;-0.0628138;-0.13307;1.81179;-0.876912;0.00305512;-0.184832;-0.634893;0.661257;-7.63874;-0.0130579;-0.00254155;0.0536077;0.0537045;-0.0131547;0.0334296;0.243583;4.10538;0.0408992;0.0445727;4.08254;0.244945;87.1158;132.116;0.00173975;-0.0130552;-0.00635892;0.00103431;0.0535916;-0.000310668;0.00332616;0;0.0490967;-0.130897;-1.95718;-1.52239;2.48301;-7.70511;-0.0120821;0.00219779;0.0703777;0.0704363;-0.0121406;0.0412884;0.171674;5.82498;0.0514838;0.0550512;5.80172;0.172363;88.0733;133.073;-0.00147435;-0.012083;0.00176103;0.00260091;0.0703785;0.00768443;0.064915;0;0.0731288;8.39665;5.98183
571000;572;27.5626;1.80977;0.0702748;-2.46752;27.4518;-0.0689209;-0.133441;1.81793;-0.883019;0.00195752;-0.183588;-0.630197;0.656397;-7.63404;-0.0129533;-0.00274297;0.0542687;0.0543804;-0.013065;0.0337227;0.238688;4.18957;0.0413032;0.0449636;4.16229;0.240252;87.4218;132.422;0.00254699;-0.0129498;-0.00651458;0.000788188;0.0542521;-0.00346431;0.00300111;0;0.0489614;-0.132332;-1.96561;-1.51923;2.48781;-7.70195;-0.0123517;0.0020237;0.0706868;0.0707361;-0.0124009;0.0415685;0.174738;5.72286;0.0517883;0.0554247;5.70409;0.175313;87.9353;132.935;-0.00186249;-0.0123533;0.00129376;0.00269703;0.0706879;0.00277998;0.0728141;0;0.0711019;8.4009;5.98919
572000;573;27.5642;1.81137;0.0703366;-2.46409;27.4537;-0.0894613;-0.130016;1.81978;-0.90356;0.00358889;-0.178267;-0.639903;0.66428;-7.64375;-0.0124864;-0.00287244;0.0541841;0.0543076;-0.0126099;0.0334588;0.230444;4.33946;0.041059;0.0446117;4.30674;0.232194;87.512;132.512;0.00299379;-0.0124825;-0.00670985;0.000722305;0.0541666;-0.00597892;0.00493466;0;0.0503832;-0.131246;-1.96999;-1.53289;2.49957;-7.7156;-0.0121821;0.00250424;0.0710966;0.0711719;-0.0122573;0.0417146;0.171345;5.83618;0.0520173;0.0556194;5.80649;0.172221;87.2849;132.285;-0.000453695;-0.0121851;0.00140875;0.00351455;0.0710986;0.0018499;0.0707544;0;0.0647716;8.40094;5.99688
573000;574;27.5777;1.82487;0.0708609;-2.46597;27.4671;-0.0822231;-0.131898;1.83319;-0.896321;0.0038152;-0.17563;-0.641918;0.665522;-7.64576;-0.0128158;-0.00249221;0.0541914;0.0542839;-0.0129084;0.0335962;0.236492;4.22847;0.0411722;0.0447949;4.20532;0.237794;87.0214;132.021;0.000598411;-0.0128134;-0.00642201;0.00118784;0.0541747;0.00135944;0.00100984;0;0.0507876;-0.132358;-1.97716;-1.53212;2.50481;-7.71483;-0.0122217;0.00296731;0.0716765;0.0717813;-0.0123265;0.0420539;0.170512;5.8647;0.0524481;0.0560719;5.82333;0.171723;86.8019;131.802;-0.00139647;-0.012226;0.00165988;0.00417239;0.0716793;0.00340287;0.0701855;0;0.0683032;8.39756;6.00354
574000;575;27.5867;1.83383;0.0712089;-2.46538;27.4761;-0.09081;-0.131302;1.84221;-0.904908;0.00328408;-0.173926;-0.64337;0.666472;-7.64721;-0.012811;-0.00318087;0.0550522;0.055201;-0.0129598;0.0340804;0.232706;4.29726;0.0417958;0.0454405;4.25941;0.234774;88.2005;133.201;-0.00124201;-0.0128059;-0.00669295;0.000105335;0.0550358;0.00613549;0.00384451;0;0.0521199;-0.132586;-1.98325;-1.53695;2.51259;-7.71967;-0.0122156;0.00332733;0.0721505;0.0722815;-0.0123466;0.0423141;0.169307;5.90644;0.0527867;0.0564188;5.85437;0.170813;86.2443;131.244;-0.000362791;-0.012222;0.0016427;0.00487939;0.0721544;0.00474636;0.062077;0;0.0756886;8.39741;6.0108
575000;576;27.5986;1.84573;0.071671;-2.46759;27.4879;-0.0844219;-0.133511;1.85398;-0.89852;0.00377629;-0.171769;-0.644318;0.666832;-7.64816;-0.013045;-0.00275995;0.0556209;0.0557316;-0.0131557;0.0344437;0.234534;4.26377;0.0422284;0.0459249;4.23629;0.236055;87.6734;132.673;-0.00033214;-0.0130414;-0.00642044;0.000662459;0.0556049;0.00134737;0.000541309;0;0.0524656;-0.134075;-1.99025;-1.53622;2.51775;-7.71893;-0.0123171;0.00338891;0.0725558;0.0726909;-0.0124522;0.0425715;0.169761;5.89064;0.0531002;0.0567621;5.83758;0.171304;86.3419;131.342;-0.000963219;-0.0123231;0.00183695;0.00481806;0.0725595;0.00779178;0.0649589;0;0.0751938;8.40456;6.01786
576000;577;;;;;;;;;;0.00294045;-0.170406;-0.639499;0.66182;-7.64334;-0.0127822;-0.00273559;0.0551476;0.0552576;-0.0128922;0.0340749;0.231782;4.3144;0.0418038;0.0454332;4.28612;0.233311;87.4545;132.454;-0.00189103;-0.0127788;-0.00655558;0.000838511;0.0551308;0.00339831;0.00390746;0;0.0505136;-0.135369;-1.99863;-1.53231;2.52207;-7.71516;-0.0127725;0.00307024;0.0727218;0.0728319;-0.0128826;0.0428572;0.175635;5.69364;0.0533696;0.057143;5.65352;0.176881;86.5738;131.574;-0.00253901;-0.0127779;0.00152892;0.00448871;0.0727251;0.0105729;0.0700154;0;0.0785005;8.40146;6.02573
577000;578;27.6157;1.86285;0.0723357;-2.46894;27.5049;-0.0918121;-0.134865;1.87102;-0.90591;0.00396416;-0.166687;-0.644863;0.666069;-7.64871;-0.0130665;-0.00307078;0.0559269;0.0560634;-0.0132029;0.0346331;0.233635;4.28018;0.0424663;0.0461775;4.24629;0.2355;87.9087;132.909;-0.00100184;-0.0130618;-0.00676506;0.000382149;0.0559097;0.00251852;0.00136176;0;0.0477799;-0.135427;-2.00382;-1.54019;2.53097;-7.72291;-0.0123618;0.00299128;0.0732824;0.0733868;-0.0124662;0.0429265;0.168688;5.92812;0.0535657;0.0572353;5.88687;0.16987;87.0897;132.09;-0.00200725;-0.0123652;0.00194976;0.00394968;0.0732848;0.00869033;0.0713239;0;0.0792846;8.39841;6.03134
578000;579;27.6237;1.87091;0.0726489;-2.47015;27.5129;-0.0895957;-0.136073;1.87902;-0.903694;0.00291011;-0.163978;-0.647024;0.667486;-7.65087;-0.0128395;-0.0032258;0.0569059;0.0570547;-0.0129884;0.0350216;0.225627;4.43209;0.0430245;0.0466954;4.39275;0.227648;88.0361;133.036;-0.00044769;-0.0128343;-0.00700385;0.000302984;0.0568876;0.00320352;0.00145071;0;0.0505043;-0.136383;-2.01041;-1.54389;2.5385;-7.72661;-0.0124491;0.00249459;0.0736221;0.0736943;-0.0125214;0.0431079;0.169095;5.91383;0.0537913;0.0574771;5.88548;0.16991;87.6869;132.687;-0.00131605;-0.0124511;0.00174435;0.00318468;0.0736236;0.00413231;0.0684893;0;0.0777422;8.40505;6.03773
579000;580;27.6309;1.87806;0.0729265;-2.47065;27.5201;-0.0916651;-0.136571;1.88615;-0.905763;0.00284213;-0.161738;-0.643834;0.663844;-7.64768;-0.0129679;-0.00268381;0.0565071;0.0566106;-0.0130714;0.034841;0.229491;4.35747;0.0427687;0.0464547;4.33088;0.2309;87.4965;132.497;3.70357e-05;-0.0129646;-0.00650277;0.000884053;0.0564905;-0.00045175;0.00300416;0;0.0490668;-0.137842;-2.01799;-1.54011;2.54229;-7.72282;-0.0127157;0.0023451;0.07367;0.0737337;-0.0127793;0.0432565;0.172603;5.79364;0.0539227;0.0576753;5.76978;0.173317;87.807;132.807;-0.00214396;-0.0127175;0.0016149;0.00301654;0.0736714;0.00341864;0.0691765;0;0.0768775;8.40477;6.04085
580000;581;27.6395;1.88668;0.0732613;-2.47141;27.5286;-0.0955986;-0.137338;1.89472;-0.909697;0.003906;-0.160488;-0.644986;0.664664;-7.64883;-0.0131162;-0.00325557;0.0569341;0.0570851;-0.0132672;0.0351761;0.230375;4.34075;0.0431642;0.0469015;4.30273;0.232411;88.308;133.308;-3.99964e-05;-0.0131108;-0.00679758;5.17174e-05;0.0569173;-0.00143007;0.00309636;0;0.0492086;-0.137662;-2.02481;-1.54521;2.55078;-7.72793;-0.0125267;0.00240969;0.0736647;0.0737321;-0.012594;0.043163;0.17005;5.88061;0.0538459;0.0575507;5.85453;0.170808;87.5546;132.555;-0.00200159;-0.0125293;0.00144108;0.00330053;0.0736665;0.00160074;0.0718122;0;0.0701303;8.40757;6.04764
581000;582;27.6528;1.89997;0.0737773;-2.47285;27.5418;-0.0944321;-0.138776;1.90794;-0.90853;0.00437947;-0.156887;-0.64851;0.667231;-7.65235;-0.0130919;-0.00334566;0.056709;0.056869;-0.0132519;0.0350605;0.230861;4.33161;0.0430159;0.0467473;4.29139;0.233025;88.3409;133.341;-0.00120857;-0.0130862;-0.00691173;-1.51221e-05;0.0566917;0.00147722;0.00537225;0;0.0501694;-0.137828;-2.03205;-1.55056;2.55978;-7.73328;-0.0124672;0.00304528;0.0742208;0.0743277;-0.0125741;0.0434509;0.167975;5.95328;0.0542312;0.0579345;5.91119;0.169171;86.5223;131.522;-0.000601649;-0.0124733;0.00134372;0.00460952;0.0742243;0.00314413;0.0651075;0;0.0802477;8.4116;6.05565
582000;583;27.6629;1.91011;0.0741707;-2.4752;27.5518;-0.0923503;-0.141124;1.91791;-0.906449;0.00407616;-0.155501;-0.643379;0.661917;-7.64722;-0.0131276;-0.00343795;0.0576497;0.0578163;-0.0132942;0.0355553;0.227713;4.39149;0.0436557;0.047407;4.34899;0.229939;88.8002;133.8;-0.00168534;-0.0131217;-0.00672592;-0.00036997;0.0576339;0.000406794;0.00429055;0;0.0587176;-0.139348;-2.03949;-1.54136;2.56022;-7.72407;-0.0129706;0.00318752;0.0748174;0.074933;-0.0130862;0.0440096;0.173364;5.76821;0.0548404;0.0586795;5.7261;0.174639;86.4528;131.453;-0.00156605;-0.012977;0.00147986;0.00475569;0.0748212;0.00580352;0.0689915;0;0.0740691;8.41013;6.06222
583000;584;27.683;1.93022;0.0749518;-2.4793;27.5717;-0.0786482;-0.145229;1.93778;-0.892746;0.00415045;-0.151324;-0.648821;0.666246;-7.65267;-0.0128968;-0.00371584;0.0580785;0.0582725;-0.0130908;0.0356816;0.222057;4.50334;0.0438679;0.0475755;4.45142;0.224647;89.2846;134.285;-0.000111571;-0.0128901;-0.00682437;-0.0008158;0.058063;-0.00659301;0.00715525;0;0.0513323;-0.139737;-2.0449;-1.54997;2.56973;-7.73268;-0.0128548;0.00368056;0.0755264;0.0756794;-0.0130078;0.0443436;0.170203;5.87533;0.0553012;0.0591248;5.81798;0.171881;86.3264;131.326;-0.000964335;-0.012861;0.00215826;0.00507776;0.0755305;0.00628055;0.0666473;0;0.0797266;8.41247;6.07002
584000;585;;;;;;;;;;0.00360139;-0.149152;-0.649746;0.666655;-7.65359;-0.0128449;-0.00361162;0.0588505;0.059032;-0.0130264;0.0360292;0.218264;4.58161;0.0443393;0.0480389;4.53172;0.220667;89.2459;134.246;-0.000710814;-0.0128386;-0.00671555;-0.000717827;0.0588354;-0.00365209;0.00875259;0;0.0537709;-0.141521;-2.05237;-1.54782;2.57449;-7.73066;-0.0131856;0.00328593;0.0752736;0.0753955;-0.0133075;0.0443515;0.175169;5.70876;0.0552365;0.0591354;5.66563;0.176503;86.5446;131.545;-0.00201238;-0.0131914;0.00173394;0.00471023;0.0752772;0.00640315;0.0720964;0;0.0789553;8.41315;6.07713
585000;586;27.6991;1.94624;0.0755737;-2.48521;27.5873;-0.0700474;-0.151131;1.95335;-0.884146;0.00465921;-0.148523;-0.645999;0.662869;-7.64984;-0.013288;-0.00357157;0.0576244;0.0578039;-0.0134674;0.0356357;0.230597;4.33657;0.043722;0.0475142;4.29212;0.232985;89.1807;134.181;-0.00287316;-0.0132818;-0.00661331;-0.000733749;0.0576098;0.000516965;0.00449766;0;0.0479473;-0.140884;-2.05961;-1.54901;2.58094;-7.73172;-0.0130817;0.00319676;0.0765997;0.0767135;-0.0131955;0.0449545;0.170781;5.85546;0.0560609;0.0599393;5.81359;0.172011;86.9723;131.972;-0.00141972;-0.0130858;0.00201606;0.0042791;0.0766025;0.0100261;0.0648274;0;0.0833822;8.41153;6.08507
586000;587;27.6973;1.94448;0.0755054;-2.48465;27.5855;-0.0986505;-0.150571;1.95155;-0.912749;0.00409083;-0.142993;-0.653589;0.669061;-7.65743;-0.0135866;-0.00407918;0.0588132;0.0590423;-0.0138157;0.036429;0.231012;4.32878;0.0446845;0.048572;4.27358;0.233996;89.9229;134.923;-0.0024419;-0.0135793;-0.00684288;-0.00150444;0.058799;-0.000493145;0.00326335;0;0.0490889;-0.141999;-2.06403;-1.55908;2.59058;-7.74179;-0.0132737;0.00280879;0.0769544;0.0770417;-0.0133611;0.0452014;0.172488;5.79749;0.0563454;0.0602685;5.76613;0.173427;87.2445;132.245;-0.00243458;-0.0132774;0.00164227;0.00387758;0.0769568;0.00733644;0.0760121;0;0.0826837;8.41194;6.09232
587000;588;27.7182;1.96537;0.0763167;-2.4863;27.6063;-0.0830799;-0.152229;1.97242;-0.897178;0.00539668;-0.140678;-0.651681;0.666714;-7.65553;-0.0137754;-0.00378942;0.0587117;0.0589093;-0.0139729;0.0364411;0.234627;4.26208;0.0446651;0.0485881;4.21596;0.237194;89.8251;134.825;-0.00324724;-0.013769;-0.00642373;-0.00133546;0.058699;0.00102441;0.00066303;0;0.0461371;-0.142113;-2.07243;-1.55673;2.59587;-7.73945;-0.013182;0.00258443;0.0770897;0.0771636;-0.013256;0.0452098;0.170996;5.84808;0.0563829;0.0602797;5.82105;0.17179;87.486;132.486;-0.00136937;-0.013185;0.00153236;0.00354832;0.0770917;0.00269541;0.0744609;0;0.0755213;8.41561;6.09994
588000;589;27.7171;1.96428;0.0762745;-2.487;27.6051;-0.0950439;-0.152923;1.97123;-0.909142;0.00257059;-0.138517;-0.652162;0.666715;-7.65601;-0.0139081;-0.00402082;0.058829;0.0590506;-0.0141297;0.0365902;0.236416;4.22983;0.0448255;0.0487869;4.17918;0.239282;90.34;135.34;-0.00290002;-0.0139016;-0.00636498;-0.00183768;0.0588175;0.00090558;0.00686997;0;0.0477058;-0.145324;-2.07822;-1.56128;2.6034;-7.744;-0.0132034;0.00257357;0.0768751;0.0769486;-0.0132768;0.0451127;0.171751;5.82239;0.0562494;0.0601503;5.79571;0.172542;87.5737;132.574;-0.00222107;-0.013206;0.00162657;0.00344135;0.0768769;0.00165974;0.0710507;0;0.0715038;8.4153;6.10706
589000;590;27.7279;1.97506;0.0766928;-2.4875;27.6159;-0.100065;-0.153425;1.98199;-0.914163;0.00420773;-0.133977;-0.658471;0.671976;-7.66232;-0.0135292;-0.00411725;0.0586056;0.0588398;-0.0137635;0.0363016;0.230852;4.33178;0.0445291;0.0484022;4.27507;0.233914;90.0539;135.054;-0.00204292;-0.013522;-0.00679572;-0.00162126;0.0585918;-0.000631969;0.00958814;0;0.0445588;-0.144279;-2.08443;-1.56581;2.61102;-7.74852;-0.0129602;0.00300644;0.0770462;0.0771465;-0.0130605;0.0451035;0.168213;5.94483;0.0562918;0.060138;5.90685;0.169295;87.0265;132.027;-0.00168584;-0.0129645;0.00172583;0.00418002;0.077049;8.47912e-05;0.0688939;0;0.0735843;8.41662;6.11337
590000;591;27.7446;1.99179;0.0773428;-2.48756;27.6327;-0.0902264;-0.153485;1.99882;-0.904325;0.00266598;-0.130874;-0.6625;0.675308;-7.66634;-0.0138154;-0.00430685;0.0601369;0.0603869;-0.0140654;0.0372261;0.229732;4.35289;0.0456741;0.0496349;4.2933;0.232921;90.0983;135.098;-0.00240524;-0.0138075;-0.0070818;-0.00172544;0.060122;7.9567e-05;0.00287465;0;0.046501;-0.146459;-2.09058;-1.57108;2.61921;-7.75379;-0.0132584;0.00323716;0.0772815;0.0773971;-0.013374;0.0453855;0.17156;5.82887;0.0565854;0.0605141;5.78713;0.172797;86.5835;131.583;-0.00107874;-0.0132645;0.0015849;0.00475054;0.0772852;0.00417197;0.0665562;0;0.076488;8.41891;6.11866
591000;592;27.7664;2.01362;0.0781903;-2.49112;27.6544;-0.0661232;-0.157047;2.02048;-0.880221;0.00359254;-0.12855;-0.657733;0.670187;-7.66158;-0.0139401;-0.00408939;0.0595672;0.059794;-0.0141669;0.0369805;0.234023;4.27308;0.045329;0.0493073;4.22068;0.236929;89.8514;134.851;-0.00174342;-0.0139327;-0.00690634;-0.00146784;0.0595526;0.000258604;0.0078143;0;0.0472493;-0.146671;-2.09745;-1.56974;2.62391;-7.75246;-0.0133177;0.00363429;0.0783514;0.0784952;-0.0134616;0.0459784;0.169974;5.88324;0.0573465;0.0613045;5.83106;0.171495;86.4215;131.421;-0.00110337;-0.0133242;0.00202758;0.00510441;0.0783556;0.00367493;0.0710665;0;0.0774048;8.42469;6.12732
592000;593;;;;;;;;;;0.00406011;-0.125533;-0.660692;0.672524;-7.66454;-0.01434;-0.00445386;0.0600808;0.0603464;-0.0146056;0.037476;0.238678;4.18974;0.045881;0.049968;4.13174;0.242029;90.128;135.128;-0.00172511;-0.0143317;-0.00724637;-0.00185736;0.0600654;0.00134777;0.00596836;0;0.0473663;-0.147027;-2.10402;-1.57128;2.6301;-7.75413;-0.0135547;0.00357073;0.0785186;0.0786569;-0.0136929;0.0461749;0.17263;5.79273;0.0575478;0.0615665;5.74433;0.174085;86.61;131.61;-0.0029062;-0.0135603;0.0021362;0.0048828;0.0785224;0.00468444;0.0756247;0;0.08108;8.42193;6.13091
593000;594;27.785;2.03218;0.078911;-2.49011;27.6731;-0.0792989;-0.156034;2.03917;-0.893397;0.00340376;-0.120192;-0.667832;0.67857;-7.67168;-0.0141193;-0.00416477;0.0597017;0.0599359;-0.0143535;0.0371447;0.236498;4.22837;0.0455028;0.0495263;4.17569;0.239481;89.6749;134.675;-0.000792903;-0.0141115;-0.00716837;-0.00137037;0.0596856;0.000598312;0.00520232;0;0.0503004;-0.148167;-2.1097;-1.57646;2.63781;-7.75918;-0.013651;0.00344006;0.0794175;0.0795445;-0.013778;0.0466612;0.171889;5.8177;0.0581688;0.062215;5.7733;0.173211;86.3233;131.323;-0.00148589;-0.0136588;0.00150185;0.00521115;0.0794219;0.00676616;0.0677946;0;0.0751349;8.41985;6.13741
594000;595;27.7844;2.03156;0.078887;-2.49124;27.6723;-0.0921974;-0.157169;2.03841;-0.906296;0.00235411;-0.122048;-0.655975;0.667236;-7.65982;-0.0142502;-0.00383005;0.0606621;0.0608574;-0.0144456;0.0376515;0.234912;4.25692;0.0461467;0.050202;4.21288;0.237367;89.5189;134.519;-0.000187107;-0.0142434;-0.00676584;-0.00110158;0.0606474;9.96576e-05;0.00704074;0;0.0491844;-0.150426;-2.11781;-1.57028;2.64075;-7.753;-0.0141552;0.00299474;0.0798842;0.0799794;-0.0142505;0.047115;0.177197;5.64344;0.0586497;0.06282;5.61239;0.178177;87.23;132.23;-0.00277787;-0.0141591;0.00182009;0.00406709;0.0798868;0.00653798;0.0746689;0;0.0798172;8.41912;6.14462
595000;596;27.7942;2.04134;0.0792667;-2.4906;27.6822;-0.0939121;-0.156527;2.04828;-0.90801;0.00452064;-0.11881;-0.660272;0.670891;-7.66412;-0.0140296;-0.00387234;0.0603135;0.0605146;-0.0142308;0.0373727;0.232612;4.29901;0.0458292;0.0498303;4.25237;0.235163;89.3439;134.344;0.000134815;-0.0140225;-0.00699863;-0.000965215;0.0602974;-0.000495025;0.00370026;0;0.0477761;-0.148202;-2.1244;-1.5743;2.64829;-7.75701;-0.0135116;0.00286464;0.0803677;0.080455;-0.0135989;0.0470269;0.168122;5.94806;0.0586971;0.0627026;5.91629;0.169025;87.5404;132.54;-0.00256753;-0.0135143;0.0019651;0.00368602;0.0803697;0.00742162;0.0783812;0;0.0778859;8.41969;6.15114
596000;597;27.8037;2.05088;0.0796371;-2.49232;27.6916;-0.0899607;-0.158242;2.05772;-0.904059;0.00439211;-0.114377;-0.666004;0.675769;-7.66985;-0.014315;-0.00334084;0.0614385;0.0615856;-0.0144621;0.0380238;0.232998;4.29189;0.0466314;0.0506984;4.25841;0.234829;88.8018;133.802;0.000214911;-0.0143094;-0.00660602;-0.000308659;0.0614232;8.71141e-05;0.00507309;0;0.0483331;-0.149563;-2.1307;-1.57873;2.65606;-7.76144;-0.0135818;0.00258842;0.0802271;0.0802984;-0.0136532;0.0469758;0.169292;5.90694;0.0586158;0.0626344;5.88129;0.170031;87.2335;132.233;-0.00141507;-0.0135864;0.00109584;0.00395137;0.0802296;-0.0013553;0.0725059;0;0.0738473;8.41925;6.15887
597000;598;27.8128;2.05993;0.0799887;-2.49318;27.7006;-0.093054;-0.159109;2.06672;-0.907152;0.00437478;-0.112363;-0.662101;0.671582;-7.66595;-0.0142669;-0.00281404;0.0602395;0.0603456;-0.0143731;0.0373594;0.236837;4.22231;0.0457798;0.0498125;4.19852;0.238179;87.9303;132.93;0.000855092;-0.0142631;-0.00643946;0.000556641;0.0602237;-0.000326375;-0.000813251;0;0.0492953;-0.150358;-2.13756;-1.57944;2.66203;-7.76215;-0.013554;0.00298097;0.0800617;0.0801566;-0.0136489;0.0469027;0.169295;5.90686;0.0585203;0.0625369;5.87277;0.170278;86.8658;131.866;-0.00160227;-0.0135597;0.00133461;0.00448463;0.080065;-0.00197902;0.0739309;0;0.0754587;8.42183;6.16617
598000;599;27.8255;2.0727;0.0804845;-2.49405;27.7134;-0.0902773;-0.159974;2.07947;-0.904375;0.00536215;-0.111052;-0.66119;0.670472;-7.66503;-0.013929;-0.00343682;0.0609271;0.0610846;-0.0140864;0.0375855;0.228617;4.37413;0.0461409;0.050114;4.33642;0.230605;88.3873;133.387;0.00109973;-0.013923;-0.00715121;1.55332e-05;0.0609086;-0.00277397;-0.00144445;0;0.0491642;-0.150208;-2.14641;-1.57655;2.66742;-7.75926;-0.0136269;0.00321253;0.0801343;0.0802443;-0.0137368;0.0469906;0.17005;5.88061;0.0586142;0.0626541;5.84155;0.171188;86.8149;131.815;-0.00102632;-0.0136324;0.00167557;0.00461606;0.0801378;0.000386304;0.0682487;0;0.0776684;8.43416;6.17352
599000;600;27.839;2.08614;0.0810065;-2.49412;27.7269;-0.0902273;-0.160048;2.09296;-0.904325;0.00463119;-0.106516;-0.668024;0.676479;-7.67187;-0.0145495;-0.00295617;0.0614784;0.0615931;-0.0146643;0.0381287;0.236661;4.22545;0.0467237;0.0508383;4.20021;0.238083;87.6918;132.692;0.00135581;-0.0145454;-0.00693036;0.000733411;0.0614599;-0.000886199;-0.00124703;0;0.0594538;-0.152237;-2.15188;-1.58513;2.67702;-7.76784;-0.0136768;0.00388141;0.080904;0.081063;-0.0138358;0.0474494;0.16905;5.91542;0.0591954;0.0632659;5.85893;0.17068;86.4312;131.431;-0.00080418;-0.0136834;0.00232964;0.00529739;0.0809085;0.00547335;0.0678825;0;0.0761654;8.43327;6.18014
600000;601;27.8325;2.07966;0.0807545;-2.48956;27.7206;-0.124755;-0.15549;2.08672;-0.938853;0.00376565;-0.102121;-0.672615;0.680334;-7.67646;-0.0142486;-0.00319016;0.0630742;0.0632056;-0.01438;0.0387928;0.225902;4.4267;0.0476591;0.0517237;4.39539;0.227511;87.9769;132.977;0.00263805;-0.0142435;-0.00719197;0.000520623;0.0630547;-0.00480767;0.00019219;0;0.0548361;-0.153581;-2.157;-1.59143;2.68494;-7.77415;-0.0140374;0.00372723;0.0813467;0.0814921;-0.0141828;0.0478375;0.172562;5.79501;0.0596207;0.0637833;5.74584;0.174039;86.7959;131.796;-0.000680752;-0.0140423;0.00249487;0.00485088;0.0813502;0.00434477;0.0722811;0;0.078991;8.42689;6.18727
601000;602;27.847;2.09416;0.0813178;-2.49038;27.7352;-0.117704;-0.156304;2.10125;-0.931802;0.00387808;-0.0980947;-0.676119;0.683209;-7.67996;-0.0143521;-0.00330906;0.0648836;0.0650216;-0.01449;0.0397558;0.221197;4.52086;0.0488987;0.0530077;4.48734;0.222849;88.3289;133.329;0.00374081;-0.0143465;-0.00714721;0.000243551;0.0648648;-0.010706;0.00164589;0;0.0538813;-0.154068;-2.16301;-1.59353;2.69103;-7.77624;-0.0141236;0.00363038;0.0821208;0.0822575;-0.0142603;0.0482589;0.171985;5.81445;0.0601578;0.0643452;5.76828;0.173362;86.7712;131.771;-0.000911613;-0.014129;0.00225343;0.00488487;0.0821245;0.00601579;0.0688733;0;0.0797738;8.42642;6.19299
602000;603;27.8496;2.09679;0.0814196;-2.4921;27.7376;-0.123694;-0.158023;2.1037;-0.937792;0.0046154;-0.0957358;-0.675073;0.681843;-7.67892;-0.0139939;-0.00309652;0.0643865;0.0645087;-0.014116;0.0393123;0.217342;4.60104;0.0484022;0.0524165;4.56988;0.218824;88.135;133.135;-0.000184926;-0.0139892;-0.00698494;0.000505597;0.0643681;-0.00532285;0.000792562;0;0.0532158;-0.1541;-2.16994;-1.59212;2.69578;-7.77483;-0.0142271;0.00306239;0.0827398;0.0828364;-0.0143237;0.0485801;0.17195;5.81565;0.0605661;0.0647734;5.78317;0.172916;86.9831;131.983;-0.00133403;-0.0142326;0.00149512;0.0044893;0.0827431;0.00291531;0.0674264;0;0.0828322;8.42349;6.19604
603000;604;27.861;2.10823;0.0818638;-2.4926;27.749;-0.123678;-0.158523;2.11514;-0.937776;0.00491953;-0.0929839;-0.676013;0.682396;-7.67986;-0.0144258;-0.00279284;0.0656973;0.0657945;-0.014523;0.0401588;0.21958;4.55416;0.0494205;0.053545;4.53036;0.220733;88.0123;133.012;0.00206927;-0.0144221;-0.00661552;0.000742465;0.0656804;-0.0101613;0.000962077;0;0.0493059;-0.15523;-2.17655;-1.59505;2.7029;-7.77777;-0.0140904;0.00297046;0.0833577;0.0834482;-0.0141809;0.0488146;0.169036;5.9159;0.0609119;0.0650861;5.88455;0.169937;87.2598;132.26;-0.00261691;-0.0140947;0.00166557;0.00415796;0.0833605;0.00383227;0.075548;0;0.0768565;8.42453;6.2026
604000;605;27.8703;2.11752;0.0822248;-2.49374;27.7583;-0.122;-0.159665;2.12438;-0.936099;0.00491625;-0.090757;-0.674685;0.68078;-7.67853;-0.0140933;-0.00355176;0.0657428;0.0659005;-0.014251;0.0400758;0.21437;4.66484;0.0493744;0.0534343;4.62428;0.21625;88.6299;133.63;-0.00118571;-0.0140869;-0.00733489;-5.19816e-05;0.0657235;-0.00459685;0.000507652;0;0.0495853;-0.155424;-2.18414;-1.59353;2.70814;-7.77625;-0.0140058;0.00263008;0.083225;0.0832961;-0.0140769;0.0486865;0.168289;5.94217;0.0607689;0.0649153;5.91722;0.168998;87.5438;132.544;-0.00283481;-0.0140093;0.00144163;0.00371185;0.0832272;-0.000732402;0.0777521;0;0.077342;8.42591;6.2098
605000;606;27.8816;2.12876;0.0826614;-2.49496;27.7695;-0.119944;-0.160884;2.13557;-0.934043;0.00488858;-0.0877004;-0.678856;0.684515;-7.6827;-0.0141716;-0.00307442;0.0662593;0.0663766;-0.0142889;0.0403328;0.21388;4.67551;0.0497035;0.053777;4.64533;0.21527;88.4858;133.486;-0.00168151;-0.0141668;-0.00668189;0.000260959;0.0662428;-0.00233145;-0.00117633;0;0.0475282;-0.156565;-2.19305;-1.59501;2.71625;-7.77773;-0.0138507;0.00321512;0.0834879;0.083594;-0.0139568;0.0487754;0.1659;6.02771;0.0609169;0.0650338;5.9895;0.166959;87.2772;132.277;-0.00163344;-0.0138544;0.00211771;0.00421394;0.0834906;0.00201864;0.0690374;0;0.0761667;8.42662;6.21731
606000;607;27.8883;2.13548;0.0829222;-2.49328;27.7763;-0.130709;-0.159205;2.14241;-0.944807;0.00521608;-0.0849238;-0.678501;0.683815;-7.68235;-0.0141629;-0.00329558;0.0660536;0.0661888;-0.014298;0.0402434;0.214415;4.66386;0.0495839;0.0536579;4.62922;0.216019;88.7548;133.755;-0.000288576;-0.0141574;-0.00678438;-6.92707e-05;0.0660371;-0.00993916;0.00246025;0;0.0533039;-0.155608;-2.19559;-1.6028;2.72283;-7.78551;-0.0137357;0.00320161;0.0831511;0.0832567;-0.0138414;0.0485491;0.16519;6.05363;0.0606471;0.0647321;6.01504;0.16625;87.0386;132.039;-0.00148669;-0.0137407;0.00179568;0.00448179;0.0831543;3.8817e-05;0.070721;0;0.0796604;8.43388;6.22491
607000;608;27.9054;2.15259;0.0835866;-2.49935;27.793;-0.109234;-0.165271;2.15914;-0.923332;0.00615951;-0.08032;-0.685215;0.689934;-7.68906;-0.0146035;-0.00331148;0.0662847;0.06642;-0.0147389;0.0405794;0.220316;4.53894;0.0499235;0.0541059;4.50645;0.221904;88.9434;133.943;-0.000707781;-0.014598;-0.0065947;-0.00027729;0.0662694;-0.0103646;0.00309179;0;0.0597545;-0.157546;-2.20349;-1.60456;2.73035;-7.78728;-0.0139774;0.00363569;0.0833496;0.0834853;-0.014113;0.0487991;0.167696;5.96316;0.0609087;0.0650655;5.91547;0.169048;86.5988;131.599;-0.0015022;-0.0139841;0.00197539;0.00514682;0.0833539;0.000942646;0.0740625;0;0.0781171;8.43421;6.23242
608000;609;27.9149;2.1621;0.0839559;-2.49889;27.8026;-0.112926;-0.164814;2.16871;-0.927024;0.00467934;-0.0778957;-0.680663;0.685122;-7.68451;-0.0151078;-0.00291087;0.065634;0.0657388;-0.0152126;0.0404757;0.230183;4.34437;0.0496793;0.0539676;4.32133;0.23141;88.5937;133.594;0.000802554;-0.0151035;-0.00618683;0.00011689;0.06562;-0.0136205;0.00643694;0;0.0555513;-0.158756;-2.20956;-1.60263;2.73419;-7.78535;-0.0142878;0.00372306;0.0837747;0.0839159;-0.014429;0.0491724;0.170551;5.86336;0.0613221;0.0655632;5.81579;0.171946;86.9695;131.97;-0.00238411;-0.0142923;0.00259325;0.00475065;0.083778;0.0052361;0.0754825;0;0.0793105;8.43416;6.23912
609000;610;;;;;;;;;;0.00375025;-0.0757221;-0.677324;0.681554;-7.68117;-0.0150385;-0.00394041;0.0665197;0.0667097;-0.0152284;0.040969;0.226076;4.42329;0.0503233;0.0546254;4.3806;0.228279;90.0122;135.012;-0.00145576;-0.0150318;-0.00658166;-0.00150112;0.0665067;-0.00749258;-0.000171837;0;0.0544854;-0.159901;-2.21556;-1.60405;2.73994;-7.7869;-0.0144533;0.00368291;0.0844061;0.0845431;-0.0145903;0.0495667;0.171236;5.83991;0.0618023;0.066089;5.79446;0.172579;87.292;132.292;-0.00252635;-0.0144562;0.00291834;0.00437778;0.0844084;0.0047716;0.0759939;0;0.0836365;8.43054;6.24606
610000;611;27.9281;2.17526;0.0844667;-2.50363;27.8153;-0.126338;-0.169558;2.18144;-0.940436;0.00372659;-0.0726337;-0.682182;0.686048;-7.68603;-0.0152189;-0.0034431;0.066282;0.0664272;-0.0153641;0.0408957;0.229608;4.35524;0.0501962;0.0545276;4.32353;0.231292;89.5554;134.555;-0.000191868;-0.0152133;-0.00616973;-0.000924863;0.0662697;-0.0149782;0.00502295;0;0.0495116;-0.161065;-2.22163;-1.60809;2.74728;-7.7908;-0.0149302;0.00324493;0.0850814;0.0851866;-0.0150354;0.050111;0.175482;5.6986;0.0624095;0.0668147;5.66573;0.1765;86.8401;131.84;-0.000768633;-0.0149367;0.00151186;0.00481825;0.0850852;0.00620152;0.0678685;0;0.0867027;8.43397;6.25274
611000;612;27.945;2.19219;0.0851242;-2.51166;27.8317;-0.107823;-0.177587;2.19779;-0.921921;0.00426722;-0.0691163;-0.683903;0.6874;-7.68775;-0.0155958;-0.00366712;0.0665757;0.066739;-0.0157592;0.0412491;0.234257;4.26881;0.050571;0.0549988;4.23493;0.236131;89.8706;134.871;-0.00316462;-0.0155899;-0.00621781;-0.00131292;0.0665639;-0.00582049;0.00830475;0;0.0534959;-0.161679;-2.22933;-1.60917;2.75418;-7.79189;-0.0145801;0.00316638;0.0860158;0.0861154;-0.0146797;0.0503975;0.169505;5.89954;0.0628773;0.0671967;5.86631;0.170465;86.9339;131.934;-0.00179548;-0.0145863;0.00145236;0.00472163;0.0860195;0.00508309;0.071001;0;0.0801662;8.43729;6.26028
612000;613;27.9439;2.19113;0.085083;-2.50225;27.8313;-0.138844;-0.168174;2.19744;-0.952942;0.00448588;-0.0659434;-0.684521;0.687704;-7.68837;-0.0158492;-0.00379343;0.066045;0.0662203;-0.0160245;0.0411224;0.239975;4.1671;0.0503458;0.0548299;4.13244;0.241988;89.9992;134.999;-0.00129785;-0.015843;-0.0062731;-0.00150424;0.0660333;-0.00976423;0.00976844;0;0.0525667;-0.162505;-2.23598;-1.61274;2.76169;-7.79545;-0.014552;0.00291499;0.0861431;0.0862274;-0.0146363;0.0504319;0.168928;5.91968;0.0629336;0.0672425;5.89133;0.169741;87.2304;132.23;-0.00163363;-0.014557;0.00140399;0.00428591;0.0861461;-0.000557443;0.0747464;0;0.0768947;8.43777;6.26474
613000;614;27.967;2.21418;0.0859783;-2.51238;27.8538;-0.0987275;-0.178304;2.21985;-0.912826;0.00464871;-0.0623922;-0.687249;0.690091;-7.69109;-0.01609;-0.00375427;0.0668472;0.0670168;-0.0162596;0.0416382;0.240698;4.15459;0.0509697;0.0555176;4.12169;0.242619;89.8089;134.809;-0.000940572;-0.0160837;-0.00638797;-0.00132529;0.0668347;-0.0116734;0.00313367;0;0.0556409;-0.163189;-2.24255;-1.61428;2.76795;-7.79699;-0.0144177;0.00295964;0.0867113;0.0867978;-0.0145042;0.050651;0.166272;6.01424;0.0632567;0.0675347;5.98432;0.167103;87.3111;132.311;-0.00183053;-0.0144223;0.00156867;0.00422117;0.0867142;0.001125;0.0766801;0;0.0818402;8.43561;6.26869
614000;615;27.9666;2.21381;0.0859639;-2.50716;27.8537;-0.125702;-0.173087;2.21984;-0.9398;0.00447841;-0.0588402;-0.689781;0.6923;-7.69363;-0.0160875;-0.00433784;0.0663544;0.066582;-0.0163151;0.0414485;0.242447;4.12461;0.0507089;0.0552647;4.08101;0.245037;90.3269;135.327;-0.000136931;-0.01608;-0.00684963;-0.00202022;0.0663412;-0.00704029;0.00386909;0;0.0519762;-0.163871;-2.24912;-1.61748;2.77518;-7.80019;-0.0142478;0.00325584;0.0861595;0.086265;-0.0143533;0.0503091;0.165366;6.04721;0.0628432;0.0670788;6.01012;0.166386;87.2234;132.223;-0.00167359;-0.0142522;0.00199945;0.00439608;0.0861625;0.00299151;0.069452;0;0.07996;8.43692;6.27526
615000;616;27.9849;2.2321;0.0866741;-2.50641;27.8722;-0.116524;-0.172337;2.23831;-0.930622;0.00459848;-0.0537631;-0.689683;0.691791;-7.70052;-0.0162001;-0.00398801;0.0663999;0.066592;-0.0163922;0.0414921;0.243977;4.09874;0.050749;0.0553228;4.06243;0.246158;89.8977;134.898;0.0015344;-0.0161932;-0.00666943;-0.00151426;0.0663865;-0.0101204;0.00593232;0;0.0500555;-0.164434;-2.25572;-1.62094;2.78258;-7.80365;-0.0145453;0.00361445;0.0861406;0.0862702;-0.0146749;0.0504725;0.168855;5.92224;0.0629776;0.0672967;5.87878;0.170103;86.7638;131.764;-0.00177767;-0.0145517;0.00200808;0.00507189;0.0861447;0.000596741;0.0716858;0;0.0843592;8.43795;6.28238
616000;617;27.9935;2.24071;0.0870083;-2.50415;27.881;-0.129614;-0.170079;2.24709;-0.943712;0.00520087;-0.0535242;-0.689694;0.691787;-7.69354;-0.0159404;-0.00423451;0.0674342;0.0676487;-0.0161549;0.0419018;0.236384;4.23041;0.0513385;0.0558691;4.18751;0.238805;89.6559;134.656;0.00175846;-0.0159322;-0.00736064;-0.00135251;0.0674172;-0.00511211;0.000687375;0;0.0513995;-0.164557;-2.26311;-1.6193;2.78763;-7.80201;-0.0147063;0.00376388;0.0862985;0.0864386;-0.0148464;0.0506425;0.170412;5.86812;0.0631589;0.0675233;5.82219;0.171757;86.8279;131.828;-0.00294175;-0.0147121;0.00235029;0.00504603;0.0863025;0.00497754;0.0766326;0;0.0816746;8.43531;6.29039
617000;618;;;;;;;;;;0.0045063;-0.0498835;-0.693289;0.695096;-7.69713;-0.0157916;-0.00381776;0.0670954;0.0672709;-0.0159671;0.041619;0.235361;4.2488;0.0510095;0.055492;4.2131;0.237355;89.2424;134.242;0.00190802;-0.0157845;-0.0070719;-0.000816355;0.0670788;-0.00527771;0.000794435;0;0.0521238;-0.165619;-2.26864;-1.62403;2.79493;-7.80687;-0.014784;0.00393247;0.0870169;0.0871686;-0.0149357;0.0510522;0.169898;5.88587;0.0636776;0.0680696;5.83625;0.171343;86.8908;131.891;-0.00230085;-0.0147891;0.00269828;0.00505108;0.0870207;0.00304893;0.075531;0;0.0890027;8.43896;6.29728
618000;619;28.0206;2.26774;0.088058;-2.51808;27.907;-0.0993625;-0.184008;2.27311;-0.913461;0.00513424;-0.046418;-0.695658;0.697224;-7.6995;-0.0156875;-0.00360032;0.0677857;0.0679407;-0.0158425;0.0418916;0.231428;4.321;0.0513951;0.0558554;4.28851;0.233181;89.0222;134.022;0.00243957;-0.015681;-0.00695993;-0.000503308;0.0677691;-0.00698359;-0.00347414;0;0.0532851;-0.166277;-2.27549;-1.6278;2.80272;-7.81051;-0.0152045;0.00363209;0.087682;0.0878101;-0.0153325;0.0515713;0.173405;5.76686;0.0642635;0.0687617;5.72704;0.17461;86.7722;131.772;-0.00146533;-0.0152112;0.00196829;0.00513849;0.0876863;0.00412186;0.068079;0;0.0817321;8.441;6.30441
619000;620;28.0273;2.27446;0.0883187;-2.5192;27.9136;-0.100695;-0.185125;2.27974;-0.914794;0.00476993;-0.0440887;-0.695619;0.697031;-7.69946;-0.0158992;-0.00368655;0.0688088;0.0689689;-0.0160593;0.0425141;0.231063;4.32782;0.052163;0.0566855;4.29464;0.232849;88.7867;133.787;0.0035141;-0.0158923;-0.00736026;-0.000303958;0.0687898;-0.00576397;-0.00422583;0;0.0497466;-0.167871;-2.28339;-1.62587;2.80811;-7.80858;-0.015097;0.00356873;0.0885732;0.0886959;-0.0152197;0.0519578;0.170446;5.86696;0.0648023;0.069277;5.82772;0.171594;87.1252;132.125;-0.00270874;-0.0151018;0.00230415;0.00471288;0.0885766;0.00702594;0.0712642;0;0.0794551;8.44111;6.31142
620000;621;28.0417;2.2889;0.0888796;-2.51752;27.9283;-0.0957647;-0.183443;2.29441;-0.909863;0.00225215;-0.045382;-0.681479;0.682992;-7.68532;-0.0158743;-0.00341276;0.069262;0.0693986;-0.0160108;0.0427047;0.229191;4.36317;0.0524241;0.0569396;4.33448;0.230708;88.7527;133.753;0.00232192;-0.0158683;-0.00695769;-0.000150054;0.0692448;-0.00474165;-0.00354848;0;0.0518654;-0.171364;-2.2942;-1.61407;2.81033;-7.79678;-0.0150172;0.00322949;0.0889904;0.0890906;-0.0151173;0.052104;0.16875;5.92592;0.0650213;0.069472;5.89327;0.169685;87.3612;132.361;-0.00167484;-0.0150214;0.00201708;0.0043261;0.0889934;0.000973502;0.0692651;0;0.0783764;8.44807;6.31917
621000;622;28.05;2.29718;0.0892011;-2.51575;27.9367;-0.114664;-0.181678;2.30282;-0.928762;0.00338228;-0.037445;-0.69287;0.693889;-7.69671;-0.015531;-0.00312668;0.0690038;0.0691192;-0.0156465;0.0423828;0.225074;4.44298;0.0520843;0.0565105;4.41757;0.226369;88.139;133.139;0.00269395;-0.0155262;-0.00712051;0.000551367;0.0689846;-0.00438911;-0.00525678;0;0.0513956;-0.170299;-2.29697;-1.63115;2.82236;-7.81387;-0.0147563;0.00312359;0.0895042;0.0895977;-0.0148498;0.0522238;0.164867;6.0655;0.0652475;0.0696317;6.03361;0.165738;87.0851;132.085;-0.000567397;-0.0147624;0.00141634;0.00466746;0.0895078;0.00137783;0.0697202;0;0.0851442;8.44445;6.32658
622000;623;28.0618;2.30898;0.0896594;-2.51612;27.9486;-0.109506;-0.182047;2.31465;-0.923605;0.00624815;-0.0336561;-0.698527;0.699366;-7.70237;-0.0161281;-0.0022658;0.069983;0.0700426;-0.0161877;0.0431151;0.230457;4.33921;0.0529227;0.0574868;4.32692;0.231111;87.1863;132.186;0.00498525;-0.016127;-0.006645;0.001761;0.0699648;-0.00985351;-0.00456238;0;0.0508468;-0.168991;-2.3042;-1.63391;2.82976;-7.81662;-0.0147094;0.00334679;0.0891411;0.0892488;-0.0148172;0.052033;0.165013;6.06014;0.0650036;0.0693773;6.02334;0.166021;87.1334;132.133;-0.00204404;-0.0147147;0.00189923;0.00465632;0.0891446;0.00217471;0.0754003;0;0.0874599;8.43798;6.33417
623000;624;28.074;2.32116;0.0901321;-2.51624;27.9608;-0.107525;-0.182165;2.32687;-0.921624;0.00538682;-0.0288234;-0.705449;0.706058;-7.70929;-0.0161791;-0.00187597;0.0692871;0.0693282;-0.0162203;0.0427743;0.233509;4.2825;0.0524681;0.0570324;4.27417;0.233964;87.0341;132.034;0.00362334;-0.0161794;-0.006093;0.00200403;0.0692714;-0.00756289;-0.0082909;0;0.05188;-0.170842;-2.30991;-1.64163;2.83898;-7.82434;-0.0147531;0.00353409;0.0885669;0.0886876;-0.0148738;0.0517807;0.166575;6.00329;0.0646558;0.0690409;5.96267;0.16771;87.0257;132.026;-0.00236884;-0.0147585;0.00210649;0.00482619;0.0885706;0.004465;0.0730379;0;0.0841869;8.43808;6.34158
624000;625;28.074;2.32114;0.0901314;-2.51079;27.9612;-0.127124;-0.176715;2.32726;-0.941222;0.00274604;-0.0275196;-0.698311;0.698859;-7.70216;-0.0160513;-0.00171566;0.0698499;0.0698842;-0.0160855;0.0429849;0.229797;4.35167;0.0527749;0.0573131;4.34453;0.230174;86.8672;131.867;0.0021813;-0.0160524;-0.00604512;0.00226621;0.0698342;-0.00848831;-0.013963;0;0.0487165;-0.174434;-2.31831;-1.63442;2.84188;-7.81713;-0.0150354;0.00387025;0.0888569;0.0890009;-0.0151794;0.0520901;0.169209;5.90986;0.0649873;0.0694535;5.86329;0.170553;87.1039;132.104;-0.00215749;-0.0150397;0.0027959;0.00484209;0.0888602;0.00216188;0.0714977;0;0.0827864;8.43758;6.34698
625000;626;28.0831;2.33028;0.0904864;-2.50968;27.9704;-0.13416;-0.17561;2.33651;-0.948258;0.00377185;-0.0214411;-0.705057;0.705393;-7.7089;-0.0159932;-0.00165615;0.0710638;0.0710953;-0.0160247;0.04356;0.225054;4.44337;0.0535438;0.05808;4.4366;0.225398;87.0102;132.01;0.00256681;-0.0159944;-0.00588539;0.00222936;0.0710489;-0.00722729;-0.0035492;0;0.0518614;-0.172844;-2.32106;-1.64278;2.84884;-7.82549;-0.0150752;0.00374047;0.088866;0.0890005;-0.0152096;0.0521051;0.16964;5.89485;0.0649994;0.0694734;5.85159;0.170894;87.4943;132.494;-0.00145191;-0.0150775;0.00311307;0.00430798;0.088868;0.0035202;0.0702033;0;0.0861886;8.43404;6.34985
626000;627;28.0907;2.33785;0.0907803;-2.51527;27.9775;-0.12801;-0.181197;2.34363;-0.942108;0.00411839;-0.0216728;-0.697081;0.69743;-7.70093;-0.0159131;-0.00181157;0.0707902;0.070828;-0.0159509;0.0433895;0.224792;4.44855;0.0533367;0.0578526;4.44037;0.225207;87.222;132.222;0.00168984;-0.0159134;-0.00591509;0.00195972;0.0707754;-0.0143894;-0.000223872;0;0.0510001;-0.173615;-2.32912;-1.63772;2.85255;-7.82043;-0.0156136;0.00390958;0.0899578;0.0901024;-0.0157582;0.0529303;0.173566;5.7615;0.0659515;0.0705737;5.71782;0.174892;87.0484;132.048;-0.00173021;-0.0156184;0.00273025;0.00497467;0.0899614;0.00415579;0.0693704;0;0.0876363;8.43721;6.35689
627000;628;28.1027;2.34991;0.0912487;-2.5158;27.9896;-0.122996;-0.181725;2.35572;-0.937094;0.00365407;-0.0171525;-0.70327;0.703488;-7.70711;-0.0156091;-0.00250805;0.0717399;0.0718118;-0.015681;0.0437464;0.217579;4.59604;0.0538678;0.0583286;4.57954;0.218363;87.9536;132.954;-0.000284823;-0.0156064;-0.00640454;0.0010709;0.0717237;-0.00733628;-0.00361115;0;0.0556149;-0.175164;-2.33506;-1.64148;2.85966;-7.82419;-0.0155159;0.00372614;0.090645;0.0907757;-0.0156465;0.0532111;0.171172;5.84209;0.0663504;0.0709481;5.80167;0.172364;87.2944;132.294;-0.00253377;-0.0155197;0.00272786;0.00462725;0.090648;0.00704376;0.07305;0;0.0823517;8.43414;6.36383
628000;629;28.1088;2.35596;0.0914837;-2.52022;27.9953;-0.134784;-0.186146;2.36135;-0.948882;0.00441508;-0.0137585;-0.704743;0.704891;-7.70859;-0.0156683;-0.00249729;0.0716264;0.0716978;-0.0157397;0.0437188;0.21875;4.57142;0.0538179;0.0582917;4.55522;0.219528;88.1702;133.17;-0.000728414;-0.0156655;-0.00614459;0.000852932;0.0716117;-0.00822187;-0.00231883;0;0.0552895;-0.175448;-2.34075;-1.64426;2.86592;-7.82698;-0.0155793;0.00356309;0.0914589;0.0915774;-0.0156978;0.0536376;0.170342;5.87054;0.0669009;0.0715168;5.83378;0.171415;86.8498;131.85;-0.00103062;-0.0155865;0.00176118;0.00518829;0.0914633;0.00430685;0.0722582;0;0.0793996;8.43499;6.37063
629000;630;28.1078;2.35501;0.0914467;-2.52286;27.994;-0.147767;-0.188789;2.36008;-0.961865;0.00426351;-0.0111511;-0.706053;0.706154;-7.7099;-0.0159666;-0.00303334;0.0716444;0.0717493;-0.0160715;0.0439104;0.222859;4.48714;0.0539933;0.0585472;4.46438;0.223995;88.6515;133.651;-0.000465173;-0.0159619;-0.00651654;0.000165119;0.0716289;-0.00956473;-0.00216596;0;0.0548424;-0.176467;-2.34648;-1.64878;2.87325;-7.8315;-0.0154039;0.0034484;0.0918363;0.091947;-0.0155147;0.0537309;0.167733;5.96187;0.0670704;0.0716412;5.92644;0.168735;87.1596;132.16;-0.000990028;-0.0154094;0.00199055;0.00476305;0.0918399;0.00304647;0.0702656;0;0.0775541;8.4426;6.3783
630000;631;28.1221;2.36915;0.0919955;-2.52386;28.0082;-0.14293;-0.189785;2.37432;-0.960118;0.00407442;-0.00702276;-0.706505;0.706552;-7.70938;-0.0157574;-0.00348762;0.070015;0.0701566;-0.015899;0.0430278;0.225057;4.44331;0.0528736;0.0573704;4.41265;0.226621;89.3163;134.316;-0.00149122;-0.0157515;-0.00654754;-0.000672948;0.0700007;-0.0125512;0.00303588;0;0.0530966;-0.177351;-2.35315;-1.65029;2.87963;-7.83301;-0.015135;0.0034965;0.0921915;0.0923053;-0.0152488;0.053777;0.164169;6.09128;0.067199;0.0717027;6.05329;0.165199;87.0698;132.07;-0.00256896;-0.015141;0.0019296;0.00490942;0.0921954;0.0040684;0.0738457;0;0.0839195;8.44568;6.38492
631000;632;28.1468;2.39397;0.0929595;-2.5305;28.0326;-0.115562;-0.196422;2.39866;-0.92966;0.00548319;-0.00231074;-0.715489;0.715514;-7.71933;-0.0157452;-0.0033634;0.071742;0.0718712;-0.0158743;0.0438728;0.21947;4.55643;0.0539892;0.058497;4.5275;0.220872;89.2763;134.276;-0.00259279;-0.0157396;-0.00643523;-0.000542296;0.071728;-0.00272929;-9.7456e-05;0;0.0552844;-0.176827;-2.35974;-1.65552;2.88798;-7.83824;-0.0150952;0.0032189;0.0912899;0.0913872;-0.0151925;0.0532899;0.165355;6.0476;0.0665694;0.0710532;6.01527;0.166243;87.0729;132.073;-0.00257327;-0.0151016;0.0014827;0.00478584;0.0912937;0.000171444;0.0798145;0;0.0847003;8.44161;6.39252
632000;633;28.146;2.39315;0.0929276;-2.52327;28.0323;-0.145998;-0.1892;2.39835;-0.960096;0.00438761;0.000237892;-0.711032;0.711046;-7.71488;-0.0162555;-0.00346633;0.0713535;0.0714905;-0.0163925;0.0439415;0.227817;4.38949;0.0539609;0.0585886;4.36118;0.229296;89.3775;134.378;-0.00234041;-0.0162497;-0.00644883;-0.000727687;0.0713397;-0.00631378;-0.00117365;0;0.0577358;-0.178022;-2.36714;-1.6528;2.89254;-7.83551;-0.0152558;0.00345103;0.0915433;0.0916547;-0.0153672;0.053511;0.166652;6.00054;0.0668172;0.071348;5.96429;0.167664;87.4115;132.411;-0.00365176;-0.0152597;0.00237578;0.00442107;0.0915462;0.00239426;0.0773405;0;0.0825008;8.44122;6.39981
633000;634;28.1583;2.40546;0.0934057;-2.52493;28.0445;-0.142829;-0.190852;2.41058;-0.956927;0.00502892;0.0053204;-0.7189;0.718937;-7.72274;-0.0163148;-0.00442046;0.0713094;0.0715318;-0.0165372;0.0440345;0.228789;4.37085;0.0540503;0.0587127;4.32551;0.231187;90.0884;135.088;-0.00226536;-0.0163064;-0.00730126;-0.00177525;0.0712936;-0.00262847;-0.00185379;0;0.0526978;-0.178856;-2.37195;-1.66163;2.90157;-7.84434;-0.0153287;0.00389368;0.0915476;0.0916893;-0.0154703;0.0535798;0.167439;5.97232;0.0668821;0.0714398;5.92678;0.168726;87.1124;132.112;-0.00243442;-0.0153334;0.00272598;0.00494705;0.0915512;0.00136516;0.0730224;0;0.0860741;8.44381;6.40566
634000;635;;;;;;;;;;0.00478509;0.00786052;-0.718158;0.718217;-7.722;-0.0166502;-0.00478166;0.0711719;0.0714315;-0.0169097;0.0441706;0.233943;4.27455;0.054145;0.0588942;4.22428;0.236727;90.4762;135.476;-0.00275619;-0.0166412;-0.00747144;-0.00231237;0.0711565;-0.00270284;-0.00114325;0;0.0516348;-0.17931;-2.37939;-1.66158;2.90766;-7.84442;-0.0158804;0.00387021;0.09211;0.0922486;-0.0160189;0.0541338;0.172407;5.80023;0.0674755;0.0721783;5.75872;0.17365;87.0092;132.009;-0.00463827;-0.015886;0.00250247;0.0051027;0.092114;0.00472261;0.0757664;0;0.0934665;8.44456;6.4112
635000;636;28.185;2.43218;0.0944431;-2.52975;28.0709;-0.135823;-0.195671;2.437;-0.949921;0.00499502;0.0122223;-0.719317;0.719438;-7.72316;-0.0166525;-0.00501783;0.0719481;0.0722313;-0.0169357;0.0445835;0.231451;4.32057;0.0546808;0.0594447;4.26503;0.234465;90.0672;135.067;0.00125344;-0.0166417;-0.00830494;-0.00200236;0.0719276;-0.00648622;-0.00254414;0;0.0495015;-0.180319;-2.38487;-1.66409;2.91364;-7.8468;-0.015837;0.00404233;0.092703;0.0928533;-0.0159873;0.0544203;0.170836;5.85357;0.067862;0.0725605;5.80793;0.172178;87.1118;132.112;-0.0030642;-0.0158416;0.00293043;0.00504378;0.0927066;0.00374124;0.0728083;0;0.0851165;8.44473;6.41568
636000;637;28.1827;2.42987;0.0943536;-2.52468;28.0689;-0.168202;-0.190601;2.43497;-0.9823;0.00652443;0.0134471;-0.715443;0.7156;-7.71929;-0.0165209;-0.00431618;0.0724916;0.0727004;-0.0167297;0.0447151;0.227901;4.38787;0.0548999;0.0596201;4.34558;0.230119;90.067;135.067;0.00112368;-0.0165129;-0.00715645;-0.00171162;0.0724764;-0.00641323;-0.000795507;0;0.0501886;-0.180318;-2.3927;-1.66154;2.9186;-7.84425;-0.0158437;0.00371651;0.0937662;0.0938921;-0.0159695;0.0549308;0.16897;5.91821;0.0685409;0.0732411;5.87945;0.170084;87.1763;132.176;-0.00191651;-0.0158489;0.00240116;0.00490003;0.0937699;0.00451644;0.0719968;0;0.0857822;8.44469;6.42188
637000;638;28.1995;2.44665;0.095005;-2.52747;28.0856;-0.136929;-0.193393;2.45173;-0.951027;0.0054419;0.017847;-0.721047;0.721289;-7.72489;-0.0166795;-0.00462057;0.0719541;0.0721943;-0.0169197;0.044557;0.231807;4.31393;0.0546496;0.0594094;4.26688;0.234363;90.0199;135.02;0.00169888;-0.0166703;-0.0076891;-0.00180573;0.0719365;-0.00643893;-0.00518089;0;0.0504418;-0.182192;-2.39924;-1.66901;2.92833;-7.85173;-0.0158363;0.00354158;0.0940047;0.0941188;-0.0159504;0.0550346;0.168463;5.93601;0.0686828;0.0733795;5.90071;0.169471;86.8687;131.869;-0.00223464;-0.0158441;0.00162001;0.00527021;0.0940092;0.0032776;0.0698513;0;0.0839827;8.44608;6.42887
638000;639;28.2093;2.45648;0.0953867;-2.52903;28.0954;-0.139833;-0.194951;2.46145;-0.953931;0.00460172;0.0246818;-0.723888;0.724323;-7.73473;-0.016627;-0.00489604;0.0723208;0.0725895;-0.0168956;0.0447426;0.229906;4.34961;0.0548985;0.0596567;4.29634;0.232756;90.3984;135.398;0.0044178;-0.0166174;-0.00776402;-0.00226593;0.0723039;-0.00949977;-0.00219603;0;0.0537485;-0.183996;-2.40535;-1.67465;2.93667;-7.85736;-0.0155551;0.00360854;0.0949818;0.0950995;-0.0156728;0.0553862;0.16377;6.10614;0.069218;0.0738482;6.0678;0.164804;87.0471;132.047;-0.00120059;-0.0155617;0.00196062;0.00509011;0.094986;0.00139732;0.0710753;0;0.0872824;8.44888;6.43652
639000;640;28.2328;2.47998;0.0962992;-2.53511;28.1185;-0.109982;-0.201032;2.48463;-0.92408;0.00679603;0.024667;-0.720349;0.720803;-7.72419;-0.0164449;-0.00402664;0.0728955;0.0730766;-0.016626;0.0448513;0.225595;4.43271;0.0551023;0.0598017;4.39532;0.227515;89.3353;134.335;0.00371964;-0.016437;-0.00746692;-0.000872792;0.072877;-0.00921924;-0.00402723;0;0.052203;-0.182522;-2.41441;-1.66726;2.93981;-7.84997;-0.0154008;0.00342788;0.0946186;0.0947253;-0.0155075;0.0551164;0.162768;6.14373;0.0689036;0.0734886;6.10834;0.163711;87.4353;132.435;-0.00181751;-0.0154051;0.00224431;0.00449249;0.0946217;-0.0028592;0.0790213;0;0.0875871;8.44712;6.44385
640000;641;28.2426;2.48975;0.0966789;-2.53544;28.1283;-0.107097;-0.201364;2.49443;-0.921195;0.00569492;0.0306239;-0.724708;0.725377;-7.72855;-0.0163429;-0.00404319;0.0728111;0.072994;-0.0165259;0.04476;0.224457;4.4552;0.0550052;0.05968;4.41695;0.226401;89.3617;134.362;0.00442037;-0.016335;-0.00747303;-0.000898343;0.0727927;-0.0117089;-0.00432295;0;0.0585833;-0.18419;-2.41891;-1.67281;2.94675;-7.85552;-0.0156472;0.00338837;0.0940248;0.0941294;-0.0157518;0.0549406;0.166416;6.00904;0.068609;0.0732542;5.97578;0.167342;87.2687;132.269;-0.0024788;-0.0156525;0.00194606;0.00468609;0.0940284;0.00028886;0.0719392;0;0.0861823;8.44557;6.45141
641000;642;28.2411;2.48823;0.0966197;-2.52719;28.1274;-0.146261;-0.193119;2.49346;-0.960359;0.00583376;0.0324487;-0.725011;0.72576;-7.72886;-0.0163179;-0.00370287;0.0728992;0.0730527;-0.0164714;0.044762;0.223842;4.46743;0.0550203;0.0596827;4.43513;0.225473;88.9489;133.949;0.00294733;-0.016311;-0.00734844;-0.000360415;0.0728805;-0.00917662;-0.00812186;0;0.0533067;-0.184932;-2.42657;-1.67698;2.95545;-7.85969;-0.0155498;0.00369748;0.0937812;0.0939061;-0.0156747;0.0547904;0.165809;6.03104;0.06843;0.0730539;5.99095;0.166918;87.3819;132.382;-0.00315789;-0.0155536;0.00267674;0.00461619;0.0937842;0.00288296;0.0776829;0;0.0859901;8.44478;6.45884
642000;643;;;;;;;;;;0.00632866;0.0386584;-0.728776;0.729828;-7.73262;-0.0164813;-0.00294572;0.073564;0.0736603;-0.0165776;0.0451189;0.224041;4.46347;0.0554648;0.0601586;4.44336;0.225055;88.466;133.466;0.00131069;-0.016477;-0.00660633;0.000407889;0.0735477;-0.00368057;-0.0136061;0;0.0564869;-0.184589;-2.43106;-1.68418;2.96321;-7.86703;-0.0157208;0.00389702;0.0945045;0.0946421;-0.0158584;0.0552503;0.16635;6.01142;0.0689911;0.073667;5.96794;0.167562;87.4441;132.444;-0.00403728;-0.0157239;0.00309397;0.00461918;0.0945071;-8.31667e-05;0.0767461;0;0.0915917;8.44334;6.46637
643000;644;28.2588;2.50598;0.0973091;-2.52962;28.1449;-0.163321;-0.195542;2.51098;-0.97742;0.00650587;0.0440926;-0.730726;0.732084;-7.73768;-0.0166008;-0.00249931;0.0745598;0.0746283;-0.0166693;0.0456488;0.222651;4.49134;0.0561397;0.060865;4.477;0.223364;87.8057;132.806;0.00169679;-0.0165984;-0.00661501;0.00126726;0.0745424;-0.00146428;-0.00624485;0;0.0532849;-0.186007;-2.4374;-1.68403;2.96842;-7.86675;-0.0158638;0.00409496;0.0954018;0.0955523;-0.0160143;0.0557833;0.166284;6.01382;0.069656;0.0743777;5.96669;0.167597;87.2355;132.236;-0.00350804;-0.0158679;0.00309177;0.00499625;0.0954051;0.00524389;0.0740773;0;0.0864777;8.44473;6.47307
644000;645;28.2693;2.51651;0.0977179;-2.52864;28.1556;-0.152815;-0.194566;2.52169;-0.966913;0.00564002;0.0453711;-0.729987;0.731417;-7.73383;-0.016551;-0.00244958;0.074104;0.0741701;-0.0166171;0.0453936;0.223348;4.47731;0.0558165;0.0605248;4.46347;0.224041;88.0324;133.032;0.00109432;-0.0165485;-0.0062612;0.00104037;0.0740885;-0.00767914;-0.00256733;0;0.0528297;-0.187322;-2.44529;-1.68235;2.97403;-7.86507;-0.0162094;0.0039552;0.0958068;0.0959463;-0.0163489;0.0561476;0.169188;5.91057;0.0700526;0.0748634;5.86868;0.170396;87.0438;132.044;-0.00184517;-0.0162154;0.00252904;0.00523558;0.095811;0.0032399;0.0713819;0;0.0833415;8.44128;6.48023
645000;646;28.275;2.52212;0.0979353;-2.53268;28.1609;-0.164424;-0.198608;2.52699;-0.981612;0.00534363;0.0500779;-0.735571;0.737293;-7.73845;-0.0159813;-0.00243608;0.0737212;0.0737874;-0.0160474;0.0449174;0.21678;4.61297;0.055322;0.0598898;4.59809;0.217482;87.907;132.907;0.00142671;-0.015979;-0.00640521;0.00120148;0.0737049;-0.00905744;0.002594;0;0.0558676;-0.189103;-2.4505;-1.69254;2.9842;-7.87729;-0.0153729;0.00363298;0.0963341;0.0964522;-0.0154909;0.0559716;0.159579;6.26649;0.0700385;0.0746287;6.22636;0.160607;86.9157;131.916;0.0021979;-0.0153807;0.00173636;0.00533634;0.0963388;0.0057026;0.0684907;0;0.0820266;8.4422;6.48528
646000;647;28.2898;2.53692;0.0985098;-2.53715;28.1755;-0.144403;-0.203078;2.54156;-0.961591;0.00616947;0.0551381;-0.742897;0.744966;-7.74577;-0.0157402;-0.00243873;0.073787;0.0738534;-0.0158066;0.04483;0.213319;4.68781;0.0552632;0.0597733;4.67232;0.214027;87.9949;132.995;-0.000510277;-0.0157378;-0.0063372;0.00113474;0.0737711;-0.00900774;0.00329717;0;0.0616602;-0.188611;-2.45496;-1.69758;2.99068;-7.88029;-0.0157364;0.0038592;0.0969772;0.0971092;-0.0158683;0.0564888;0.162269;6.16262;0.0706257;0.0753184;6.11968;0.163407;87.1668;132.167;-0.00395976;-0.0157419;0.00249844;0.00508013;0.0969812;0.00131791;0.0745811;0;0.0815004;8.44074;6.48982
647000;648;28.2966;2.54363;0.0987707;-2.53791;28.1821;-0.153983;-0.203833;2.54818;-0.971171;0.00560402;0.0585507;-0.741105;0.743435;-7.74398;-0.0155899;-0.00346552;0.0737453;0.0738795;-0.0157241;0.0448018;0.211402;4.73032;0.0552454;0.0597358;4.69848;0.212835;89.0382;134.038;-0.00154755;-0.0155838;-0.00694619;-0.000274404;0.0737284;-0.00583851;0.000371483;0;0.0561093;-0.190117;-2.46005;-1.69921;2.99588;-7.88193;-0.0159997;0.00343618;0.0970031;0.0971075;-0.0161041;0.0566058;0.16494;6.06282;0.0707202;0.0754744;6.03;0.165838;86.9204;131.92;-0.00207406;-0.016008;0.00135711;0.00530107;0.0970076;0.00253588;0.0763366;0;0.0869352;8.44096;6.49588
648000;649;28.3088;2.55597;0.0992501;-2.53804;28.1944;-0.155493;-0.203963;2.56045;-0.969591;0.0065078;0.0621774;-0.740674;0.743308;-7.74452;-0.0155483;-0.00394487;0.0749803;0.0751519;-0.0157199;0.0454359;0.207366;4.8224;0.0560805;0.0605812;4.78068;0.209175;89.9128;134.913;-0.000493411;-0.0155413;-0.00682714;-0.0013053;0.0749659;-0.0121692;-0.000442648;0;0.0631267;-0.189803;-2.46733;-1.69694;3.00055;-7.87965;-0.0160435;0.00352912;0.0973486;0.0974583;-0.0161532;0.0568058;0.164804;6.0678;0.070972;0.075741;6.03337;0.165745;87.0638;132.064;-0.0019856;-0.0160506;0.00172916;0.00514308;0.0973529;-0.000820119;0.0788206;0;0.0859306;8.44475;6.50249
649000;650;28.3202;2.56732;0.0996904;-2.53824;28.2059;-0.15206;-0.204169;2.57195;-0.969248;0.00697685;0.0652754;-0.746538;0.749419;-7.74942;-0.0157957;-0.00400718;0.074324;0.0745018;-0.0159735;0.0452377;0.212525;4.70532;0.0557603;0.0603169;4.66407;0.214405;89.9987;134.999;-0.00273649;-0.0157886;-0.00680482;-0.0014442;0.0743099;-0.00935724;-0.00120837;0;0.0531744;-0.189617;-2.47421;-1.70353;3.00993;-7.88624;-0.0157112;0.00357926;0.0968436;0.0969573;-0.0158249;0.0563911;0.162233;6.16397;0.0705077;0.0751882;6.12687;0.163216;87.1557;132.156;-0.00280086;-0.0157175;0.00198692;0.00500819;0.0968477;0.000525955;0.0793891;0;0.0876072;8.44466;6.51013
650000;651;;;;;;;;;;0.00565417;0.0671731;-0.739737;0.742802;-7.74261;-0.0158271;-0.00412275;0.0749531;0.07514;-0.0160139;0.0455769;0.21116;4.73575;0.0561971;0.0607693;4.69217;0.213121;90.1598;135.16;0.0005149;-0.0158198;-0.00683083;-0.00164335;0.0749393;-0.0148345;0.00078842;0;0.0530778;-0.19166;-2.48266;-1.69609;3.01281;-7.87893;-0.0158973;0.00367768;0.0962155;0.0963361;-0.0160178;0.0561769;0.165226;6.05231;0.0701753;0.0749026;6.0143;0.16627;87.2026;132.203;-0.00603277;-0.0159029;0.00226255;0.00494808;0.0962194;-0.000525902;0.0808158;0;0.0961559;8.44329;6.51735
651000;652;28.345;2.59207;0.100652;-2.54021;28.2306;-0.146502;-0.206133;2.59665;-0.96369;0.0063853;0.0730912;-0.747312;0.750905;-7.75019;-0.0158243;-0.00507593;0.0743266;0.0746115;-0.0161092;0.0453604;0.212903;4.69699;0.05589;0.0604805;4.6316;0.215908;90.8457;135.846;-0.000586244;-0.0158149;-0.00767831;-0.00269189;0.0743112;-0.00850244;0.000512218;0;0.0529707;-0.192532;-2.48771;-1.7044;3.02172;-7.88711;-0.0162395;0.00389179;0.0968837;0.0970174;-0.0163732;0.0566953;0.167618;5.96594;0.0707702;0.0755938;5.92538;0.168766;87.0321;132.032;-0.00402774;-0.0162459;0.0023474;0.00527689;0.0968881;-0.00027124;0.0780966;0;0.0883926;8.44159;6.52506
652000;653;28.3568;2.60391;0.101111;-2.54046;28.2424;-0.142383;-0.206388;2.60854;-0.95957;0.00558859;0.076045;-0.74859;0.752463;-7.75147;-0.0161294;-0.00472898;0.075032;0.0752766;-0.0163741;0.0458254;0.214967;4.65187;0.0564398;0.0611005;4.5973;0.217519;90.9002;135.9;0.000645368;-0.0161216;-0.00701131;-0.00264017;0.0750195;-0.0141342;0.00587589;0;0.0528238;-0.19373;-2.49436;-1.70498;3.02759;-7.88769;-0.0164066;0.00374553;0.0972836;0.0974069;-0.0165299;0.0569684;0.168647;5.92954;0.0710914;0.0759579;5.89278;0.169699;87.3481;132.348;-0.00443983;-0.0164112;0.00255727;0.00481066;0.0972871;0.00196434;0.0759451;0;0.0880421;8.4408;6.53211
653000;654;28.3742;2.62125;0.101785;-2.55052;28.259;-0.132197;-0.216443;2.62509;-0.949384;0.00726727;0.0761197;-0.738713;0.74266;-7.74159;-0.016136;-0.00499493;0.0744605;0.0747351;-0.0164106;0.0455728;0.216706;4.61455;0.0560995;0.0607638;4.55407;0.219584;90.8433;135.843;-0.000509749;-0.016127;-0.00751948;-0.00268323;0.0744458;-0.00718858;0.000392983;0;0.0556271;-0.192971;-2.50422;-1.69724;3.03133;-7.87995;-0.0163419;0.00383139;0.0987258;0.0988533;-0.0164693;0.0576613;0.165528;6.04127;0.0720224;0.0768817;6.00226;0.166604;87.2152;132.215;-0.00232844;-0.0163475;0.00244092;0.00507623;0.0987298;0.00182953;0.0752671;0;0.0908407;8.44476;6.53929
654000;655;28.3782;2.62529;0.101941;-2.53876;28.264;-0.15561;-0.204687;2.63009;-0.972798;0.00576951;0.0812707;-0.746852;0.751283;-7.74973;-0.0163124;-0.00515338;0.0741887;0.0744812;-0.0166049;0.0455431;0.219877;4.54799;0.0560156;0.0607241;4.48549;0.222941;91.2915;136.291;-0.000263961;-0.0163041;-0.00728043;-0.00320552;0.0741764;-0.00903249;0.00413312;0;0.0651396;-0.195109;-2.50958;-1.70817;3.04202;-7.89088;-0.0161336;0.00410555;0.098601;0.0987478;-0.0162804;0.0575141;0.163626;6.11152;0.0718759;0.0766854;6.06545;0.164868;87.0658;132.066;-0.00332196;-0.0161397;0.00270171;0.00536278;0.0986054;0.00229782;0.0771701;0;0.0819109;8.44482;6.54638
655000;656;28.4033;2.6505;0.102921;-2.54933;28.2884;-0.117383;-0.215253;2.65453;-0.931481;0.00734733;0.0883016;-0.753286;0.758479;-7.75713;-0.0163274;-0.00503605;0.0743005;0.0745795;-0.0166064;0.0455929;0.219748;4.55067;0.0560807;0.0607906;4.49102;0.222667;90.9697;135.97;-0.00170706;-0.0163186;-0.00743362;-0.00284072;0.0742866;-0.00386898;-0.00236876;0;0.0621654;-0.194898;-2.51239;-1.71597;3.04871;-7.89869;-0.0163862;0.00367454;0.0989376;0.0990546;-0.0165031;0.0577789;0.165621;6.03787;0.0721692;0.0770385;6.00216;0.166607;86.8335;131.833;-0.00286809;-0.0163952;0.00154586;0.00557982;0.0989427;-0.00193369;0.0783776;0;0.0830079;8.44084;6.55363
656000;657;28.4006;2.64777;0.102815;-2.54294;28.2862;-0.140327;-0.208868;2.65226;-0.954425;0.00762725;0.0931602;-0.756995;0.762744;-7.75977;-0.0168124;-0.00472364;0.0749263;0.0751689;-0.017055;0.0461119;0.224386;4.45661;0.0566598;0.0614826;4.40745;0.226889;90.4792;135.479;-0.00168358;-0.0168037;-0.00741328;-0.00226352;0.0749111;-0.00202979;-0.00240293;0;0.0623661;-0.196303;-2.51883;-1.71693;3.05465;-7.89965;-0.0161467;0.00364409;0.0994086;0.0995234;-0.0162615;0.0578925;0.162428;6.15659;0.0723809;0.0771899;6.12018;0.163394;86.9847;131.985;-0.00130455;-0.0161546;0.00170829;0.00537642;0.0994133;0.00144732;0.076356;0;0.0851892;8.44453;6.55826
657000;658;28.4261;2.67333;0.103807;-2.55016;28.3113;-0.110985;-0.216084;2.6774;-0.925083;0.00574939;0.0977544;-0.750241;0.756604;-7.76007;-0.0165639;-0.00538898;0.0730449;0.0733678;-0.0168868;0.0451273;0.226764;4.40988;0.0554054;0.0601698;4.34467;0.230167;91.2109;136.211;-0.000897207;-0.0165545;-0.00774037;-0.00323394;0.0730305;-0.00770529;-0.000150884;0;0.0554221;-0.198552;-2.52799;-1.71071;3.05887;-7.89342;-0.0162327;0.0035589;0.0993577;0.0994672;-0.0163421;0.0579046;0.163376;6.12085;0.0723764;0.0772062;6.08655;0.164297;87.4205;132.42;-0.00206577;-0.0162376;0.00225433;0.0047263;0.0993611;-0.000360309;0.0735911;0;0.0917105;8.44993;6.5674
658000;659;28.4187;2.66587;0.103518;-2.54565;28.3041;-0.146695;-0.211573;2.67016;-0.960793;0.00559537;0.0977282;-0.75286;0.759197;-7.7567;-0.0159609;-0.00466982;0.0754353;0.0756733;-0.0161989;0.0459361;0.211584;4.72625;0.0566262;0.0612482;4.67151;0.214064;90.419;135.419;-0.000412552;-0.0159521;-0.00746618;-0.00211108;0.0754196;-0.00742615;-0.00162554;0;0.0664048;-0.200142;-2.53685;-1.71311;3.06764;-7.89582;-0.0161464;0.00394161;0.0987116;0.0988467;-0.0162815;0.0575641;0.163571;6.11356;0.0719417;0.0767521;6.07112;0.164714;87.3789;132.379;-0.00353292;-0.0161505;0.00289974;0.00487456;0.0987149;-0.0042185;0.0763009;0;0.0927742;8.44298;6.57006
659000;660;28.4236;2.67082;0.10371;-2.54394;28.309;-0.171374;-0.209867;2.67514;-0.985473;0.00669733;0.103202;-0.750031;0.757127;-7.75281;-0.0164975;-0.00434891;0.0763395;0.0765428;-0.0167008;0.0466218;0.216107;4.62733;0.057411;0.0621624;4.58318;0.218189;89.4685;134.469;9.17771e-05;-0.0164885;-0.00797067;-0.00103948;0.0763188;-0.00516372;-0.00991328;0;0.0600697;-0.199562;-2.53935;-1.71223;3.06918;-7.88903;-0.0163799;0.00410817;0.0999378;0.100083;-0.0165249;0.0583038;0.163901;6.10123;0.0728575;0.0777384;6.05649;0.165112;87.687;132.687;-0.00595715;-0.0163818;0.00363858;0.0045281;0.0999395;-0.000390857;0.0779131;0;0.090944;8.44095;6.5765
660000;661;28.4369;2.68405;0.104223;-2.54557;28.3223;-0.154067;-0.211494;2.68838;-0.968165;0.00803231;0.105912;-0.752061;0.759524;-7.75591;-0.0156578;-0.00377571;0.0777705;0.0779229;-0.0158101;0.0468665;0.201333;4.96689;0.0579421;0.0624886;4.92867;0.202894;89.5359;134.536;0.00078671;-0.0156509;-0.00702812;-0.000805204;0.0777542;-0.010241;-0.00741735;0;0.0601475;-0.198325;-2.54832;-1.7165;3.0789;-7.89922;-0.0170446;0.0035967;0.0995046;0.0996155;-0.0171555;0.0583855;0.171294;5.83791;0.0728057;0.0778473;5.80663;0.172217;87.3462;132.346;-0.00346829;-0.01705;0.00219124;0.00485318;0.0995083;-0.000289001;0.0758992;0;0.0887223;8.44442;6.58402
661000;662;28.4468;2.69402;0.104611;-2.54581;28.3322;-0.164811;-0.211734;2.69831;-0.978909;0.00597091;0.112996;-0.76001;0.768387;-7.76386;-0.0160417;-0.00353655;0.0773364;0.0774702;-0.0161754;0.0468228;0.207427;4.82097;0.0577981;0.0624304;4.78938;0.208795;89.1787;134.179;0.000586972;-0.0160354;-0.0069924;-0.000380202;0.0773195;-0.0133132;-0.00261252;0;0.0663059;-0.201571;-2.55357;-1.72396;3.08762;-7.90667;-0.0169191;0.00381915;0.100725;0.100849;-0.017043;0.0589461;0.167972;5.95336;0.0735748;0.0785948;5.91736;0.168994;87.0739;132.074;-0.00283696;-0.0169263;0.00209769;0.00535661;0.10073;0.000852922;0.0693288;0;0.088847;8.4448;6.59016
662000;663;28.4541;2.70118;0.104888;-2.54631;28.3394;-0.16712;-0.212234;2.70554;-0.984308;0.00712728;0.115174;-0.759268;0.767987;-7.76215;-0.0154039;-0.00324975;0.077865;0.077978;-0.015517;0.0467475;0.197829;5.05488;0.0578555;0.06233;5.02532;0.198992;88.9466;133.947;0.00213876;-0.0153986;-0.00684365;3.31971e-05;0.0778481;-0.0111185;-0.00382909;0;0.0605685;-0.201837;-2.56191;-1.72527;3.09526;-7.91001;-0.0160981;0.00387985;0.100876;0.101004;-0.0162266;0.0586154;0.159583;6.26633;0.0733458;0.0781539;6.22461;0.160653;86.7363;131.736;0.00379733;-0.0161079;0.00165289;0.00587016;0.100881;0.00334507;0.0650348;0;0.0931929;8.44466;6.59735
663000;664;28.4659;2.71297;0.105346;-2.55086;28.351;-0.152341;-0.21679;2.71705;-0.969529;0.00708827;0.117702;-0.759161;0.768264;-7.76204;-0.0155725;-0.00380775;0.0772343;0.0773903;-0.0157284;0.0465593;0.201626;4.95967;0.0575572;0.0620791;4.92041;0.203235;89.3404;134.34;0.00163964;-0.0155653;-0.00730501;-0.000611747;0.0772163;-0.015026;-0.00168774;0;0.0581167;-0.201841;-2.56826;-1.72539;3.10059;-7.9081;-0.0166557;0.00406342;0.101353;0.101493;-0.0167954;0.0591443;0.164333;6.08521;0.0738995;0.078859;6.0429;0.165483;86.976;131.976;-0.00404917;-0.0166632;0.00234615;0.00559668;0.101358;3.57173e-06;0.0793298;0;0.0847961;8.44201;6.60408
664000;665;28.4792;2.72623;0.105861;-2.55211;28.3642;-0.150804;-0.218032;2.73027;-0.967992;0.00820554;0.121856;-0.759365;0.769124;-7.76114;-0.0159926;-0.0041274;0.0781352;0.0783158;-0.0161732;0.0472445;0.204679;4.88571;0.0583535;0.0629927;4.84231;0.206513;89.6412;134.641;-0.00272776;-0.0159845;-0.00748902;-0.00105924;0.078117;-0.00736453;-0.00588133;0;0.0583704;-0.202301;-2.57428;-1.72777;3.10693;-7.91048;-0.0167083;0.00415662;0.10172;0.101865;-0.016854;0.0593596;0.164258;6.08798;0.0741692;0.0791461;6.04399;0.165454;86.9978;131.998;-0.00212921;-0.0167155;0.00253032;0.00560809;0.101724;0.00250105;0.0765742;0;0.0875134;8.43915;6.61193
665000;666;28.4912;2.73833;0.106331;-2.5524;28.3762;-0.149889;-0.218325;2.74229;-0.963987;0.00722293;0.127811;-0.76614;0.776761;-7.76998;-0.0157047;-0.00492452;0.0773213;0.0775813;-0.0159646;0.0467729;0.203109;4.92346;0.0577823;0.0623639;4.85957;0.205779;90.432;135.432;-0.00514655;-0.0156947;-0.00793357;-0.00217526;0.0773034;-0.00245543;-0.00517159;0;0.0589434;-0.204275;-2.58081;-1.72918;3.11326;-7.91189;-0.016556;0.0038809;0.101846;0.101973;-0.016683;0.0593279;0.162559;6.1516;0.0741709;0.0791039;6.11236;0.163603;87.1831;132.183;-0.00164158;-0.0165624;0.002336;0.00525978;0.10185;-0.00388985;0.0734904;0;0.0886945;8.44052;6.61842
666000;667;28.5046;2.75174;0.106852;-2.55368;28.3895;-0.152134;-0.219609;2.75563;-0.966232;0.00651469;0.131875;-0.766797;0.778081;-7.77064;-0.0160957;-0.00496174;0.0787384;0.0789973;-0.0163546;0.047676;0.20442;4.8919;0.0588785;0.0635679;4.83029;0.207027;90.8285;135.829;-0.00700718;-0.0160867;-0.00751234;-0.00263535;0.0787237;-0.000371848;-0.00449319;0;0.0592409;-0.20575;-2.58681;-1.73476;3.12142;-7.91747;-0.0163524;0.00416265;0.101204;0.101351;-0.0164996;0.0589253;0.161578;6.18895;0.0736856;0.0785671;6.14265;0.162796;87.4575;132.458;-0.00297655;-0.0163558;0.00331935;0.00491592;0.101207;-0.00122811;0.077066;0;0.0965095;8.43842;6.62579
667000;668;;;;;;;;;;0.00787651;0.134918;-0.765351;0.777192;-7.76823;-0.0154659;-0.00418652;0.0780039;0.078191;-0.015653;0.046922;0.198271;5.04361;0.0580528;0.0625627;4.99527;0.20019;90.1895;135.189;-0.00150199;-0.0154583;-0.0069818;-0.00163358;0.0779894;-0.011314;0.000759389;0;0.0590723;-0.204501;-2.59181;-1.73035;3.12304;-7.90718;-0.0167965;0.00403708;0.102011;0.102148;-0.0169335;0.0595405;0.164654;6.07333;0.0743881;0.0793873;6.03228;0.165775;87.4956;132.496;-0.00659133;-0.0168002;0.00311841;0.00485671;0.102013;-0.000565762;0.0726952;0;0.0965867;8.43796;6.63268
668000;669;28.5246;2.7717;0.107627;-2.55666;28.4094;-0.156952;-0.222588;2.77547;-0.97414;0.00813553;0.14207;-0.776913;0.789838;-7.77979;-0.0157268;-0.00459699;0.0789036;0.0791264;-0.0159496;0.047538;0.199316;5.01715;0.0587931;0.063384;4.96104;0.201571;90.5803;135.58;-0.000909067;-0.0157185;-0.0072128;-0.00221058;0.0788893;-0.0117707;0.00216627;0;0.0594721;-0.205342;-2.59384;-1.74411;3.13243;-7.92091;-0.0170905;0.00371556;0.102099;0.102215;-0.0172063;0.0597106;0.167392;5.97402;0.0745436;0.0796141;5.94057;0.168334;87.7779;132.778;-0.00699712;-0.0170932;0.00299888;0.00435474;0.102101;-0.0043214;0.0746342;0;0.093772;8.44043;6.63603
669000;670;28.5363;2.78336;0.108079;-2.55802;28.421;-0.159384;-0.223943;2.78705;-0.976572;0.00743783;0.142667;-0.766351;0.779554;-7.76923;-0.0158056;-0.00415001;0.0786475;0.0788295;-0.0159876;0.0474085;0.200967;4.97594;0.0586136;0.0632114;4.93068;0.202812;90.5048;135.505;-0.00112489;-0.0157988;-0.0065275;-0.00198068;0.0786358;-0.0133773;0.000861762;0;0.0619943;-0.206346;-2.60532;-1.73688;3.13799;-7.91959;-0.0172247;0.00375761;0.102204;0.102322;-0.0173428;0.0598325;0.168533;5.93357;0.0746702;0.0797767;5.89997;0.169492;87.4902;132.49;-0.00449384;-0.0172292;0.00259753;0.00479199;0.102207;-0.00136438;0.0738498;0;0.0883216;8.43814;6.64213
670000;671;28.5452;2.79226;0.108425;-2.55904;28.4298;-0.16069;-0.224964;2.79588;-0.977878;0.008535;0.146487;-0.769928;0.783786;-7.77281;-0.0160047;-0.00454292;0.0778049;0.0780244;-0.0162242;0.0471243;0.205703;4.86137;0.0581833;0.0628324;4.80913;0.207938;90.6135;135.613;0.00100652;-0.0159968;-0.00705027;-0.00225377;0.0777914;-0.0141925;0.00268456;0;0.0593159;-0.206884;-2.61345;-1.73805;3.14543;-7.92076;-0.0171599;0.00412933;0.103182;0.103324;-0.0173014;0.0603126;0.166307;6.01299;0.075315;0.0804168;5.97198;0.167449;87.4354;132.435;-0.00377936;-0.017164;0.0031327;0.00501725;0.103185;0.0041779;0.0705523;0;0.0928742;8.43749;6.6477
671000;672;28.5606;2.80766;0.109023;-2.55873;28.4453;-0.155502;-0.224658;2.8114;-0.97269;0.00780977;0.149731;-0.76697;0.781488;-7.76875;-0.0169428;-0.00412347;0.078131;0.0783095;-0.0171213;0.0477154;0.216852;4.61145;0.058751;0.0636206;4.5738;0.218637;90.3887;135.389;-0.0018951;-0.0169361;-0.0065344;-0.00192513;0.0781191;-0.0073187;-0.000492552;0;0.0590317;-0.20892;-2.61867;-1.73776;3.14974;-7.91651;-0.0167569;0.00417209;0.102886;0.103031;-0.0169023;0.0599669;0.162869;6.13991;0.0749597;0.0799558;6.09572;0.164049;86.9669;131.967;-0.000250117;-0.0167647;0.00244985;0.0057075;0.102891;-0.00137575;0.0745738;0;0.0924381;8.43859;6.65484
672000;673;28.5653;2.81249;0.109211;-2.55954;28.4499;-0.1649;-0.225469;2.81602;-0.978998;0.00860363;0.158137;-0.777478;0.793444;-7.78132;-0.0166237;-0.00421494;0.0792133;0.0793984;-0.0168087;0.0481035;0.209859;4.76509;0.0593341;0.064138;4.72365;0.211701;90.639;135.639;-0.00109409;-0.0166171;-0.00642808;-0.00219832;0.0792024;-0.00838491;0.000454763;0;0.0615654;-0.208371;-2.62138;-1.7464;3.15674;-7.9232;-0.0173865;0.00455709;0.104045;0.104216;-0.0175573;0.0608868;0.167105;5.98426;0.0760089;0.0811824;5.93577;0.16847;87.2092;132.209;-0.00393799;-0.0173914;0.00348049;0.00551528;0.104049;-0.00594029;0.0831392;0;0.0855285;8.43838;6.66229
673000;674;28.584;2.83114;0.109935;-2.55821;28.4689;-0.150732;-0.224136;2.83495;-0.96483;0.00846139;0.160647;-0.776236;0.792731;-7.77901;-0.0170006;-0.00414481;0.0785893;0.0787687;-0.01718;0.0479744;0.216322;4.62273;0.0590778;0.0639658;4.58491;0.218107;90.3514;135.351;-0.00481014;-0.0169937;-0.00661533;-0.00189322;0.078577;0.000986697;-0.00767374;0;0.0631465;-0.210066;-2.63191;-1.74613;3.16544;-7.92884;-0.0169691;0.00410842;0.103893;0.104032;-0.0171086;0.0605705;0.163333;6.12247;0.0757049;0.0807606;6.0807;0.164455;87.2046;132.205;-0.000863128;-0.0169752;0.0026831;0.00537767;0.103897;-0.00104559;0.075695;0;0.0930597;8.43842;6.66977
674000;675;28.5943;2.84149;0.110337;-2.55909;28.4792;-0.153694;-0.22501;2.84525;-0.967792;0.0093195;0.166382;-0.783216;0.800748;-7.78706;-0.0168785;-0.00465053;0.078822;0.0790475;-0.017104;0.0480757;0.214135;4.66996;0.0592286;0.064101;4.62159;0.216376;90.5746;135.575;-0.00334184;-0.0168702;-0.00722289;-0.00230632;0.0788079;-0.00159293;-0.0101664;0;0.0621714;-0.210145;-2.63526;-1.75167;3.17129;-7.92847;-0.0169612;0.00431675;0.104505;0.104658;-0.0171144;0.0608861;0.162301;6.16139;0.0761207;0.0811814;6.11518;0.163527;87.6863;132.686;-0.00420032;-0.0169631;0.00384263;0.00473873;0.104506;-0.00728421;0.0801984;0;0.0968249;8.43771;6.67685
675000;676;28.6031;2.85024;0.110677;-2.56145;28.4877;-0.158125;-0.227373;2.85379;-0.972223;0.00855314;0.172194;-0.77972;0.798553;-7.79056;-0.0164884;-0.00427698;0.0789888;0.07918;-0.0166796;0.0479298;0.208744;4.79056;0.0591359;0.0639064;4.74711;0.210654;90.3705;135.371;-0.000950102;-0.016481;-0.00685899;-0.00192343;0.0789755;-0.00905792;-0.00687226;0;0.0606674;-0.21215;-2.64111;-1.75275;3.17688;-7.92955;-0.0168897;0.00399677;0.104081;0.104213;-0.0170216;0.0606172;0.162275;6.16239;0.0757889;0.080823;6.12238;0.163335;87.8212;132.821;-0.00346096;-0.0168916;0.00351204;0.0044284;0.104083;-0.0035085;0.0692091;0;0.097098;8.43465;6.68444
676000;677;;;;;;;;;;0.00804181;0.175127;-0.786254;0.805562;-7.7901;-0.0163561;-0.00423154;0.0812074;0.0813906;-0.0165393;0.0489649;0.201411;4.96497;0.0605314;0.0652866;4.92106;0.203208;89.7852;134.785;-0.0031871;-0.0163477;-0.00753817;-0.00122324;0.0811894;-0.00312424;-0.0148163;0;0.0623859;-0.212957;-2.64825;-1.75695;3.18519;-7.93378;-0.0172194;0.00386421;0.104423;0.104545;-0.0173421;0.0609437;0.164901;6.06423;0.0761388;0.0812583;6.02842;0.165881;87.5112;132.511;-0.00790598;-0.0172239;0.00273584;0.0048683;0.104426;-0.00499636;0.0794568;0;0.0947855;8.43779;6.69181
677000;678;28.6186;2.86578;0.11128;-2.56289;28.5031;-0.168263;-0.228819;2.86921;-0.982361;0.00904638;0.176824;-0.780458;0.80029;-7.7843;-0.0161249;-0.00413169;0.0810773;0.0812526;-0.0163002;0.0487764;0.198884;5.02807;0.0603402;0.0650352;4.98475;0.200612;89.8042;134.804;-0.00451275;-0.016117;-0.00735867;-0.00119482;0.0810601;-0.00320992;-0.0128947;0;0.0628986;-0.212451;-2.6568;-1.74933;3.18808;-7.92613;-0.0177389;0.00382603;0.105006;0.105125;-0.0178581;0.0614917;0.168932;5.91953;0.0767321;0.081989;5.88671;0.169874;87.4644;132.464;-0.00592514;-0.017744;0.00256004;0.00495138;0.10501;-0.00618832;0.06932;0;0.0949993;8.43779;6.69965
678000;679;28.6261;2.87314;0.111565;-2.56493;28.5104;-0.169608;-0.230853;2.8765;-0.986796;0.00717611;0.181939;-0.783363;0.804246;-7.78624;-0.0159457;-0.00399679;0.0806058;0.0807709;-0.0161108;0.0484409;0.197823;5.05503;0.0599436;0.0645878;5.01346;0.199463;89.4054;134.405;0.000601089;-0.0159378;-0.00762125;-0.000696121;0.0805863;-0.0128268;-0.00983944;0;0.0637525;-0.21454;-2.66299;-1.75738;3.1978;-7.94009;-0.0174164;0.00383892;0.104814;0.104934;-0.0175368;0.0612357;0.166165;6.01813;0.0764751;0.0816475;5.98366;0.167122;87.4297;132.43;-0.00357568;-0.0174216;0.00253567;0.00499799;0.104818;-0.00376653;0.0701941;0;0.0919112;8.42283;6.69974
679000;680;28.6375;2.88462;0.112011;-2.56652;28.5218;-0.16884;-0.232443;2.88789;-0.986028;0.00912518;0.186635;-0.788934;0.810761;-7.79071;-0.0166084;-0.00368519;0.0813915;0.0815299;-0.0167468;0.0491383;0.204056;4.90061;0.0607104;0.0655178;4.86838;0.205407;89.0968;134.097;-0.000628054;-0.0166016;-0.0074339;-0.00027616;0.0813722;-0.0113413;-0.00355512;0;0.0619164;-0.214172;-2.66722;-1.76651;3.20632;-7.94526;-0.0170417;0.00409704;0.105719;0.105855;-0.0171783;0.0615168;0.161198;6.20354;0.0769383;0.0820225;6.16217;0.16228;87.2894;132.289;-0.000639737;-0.0170475;0.00272547;0.00531633;0.105723;0.00224333;0.0726894;0;0.098169;8.43441;6.70651
680000;681;28.6453;2.89239;0.112313;-2.56722;28.5295;-0.173643;-0.233143;2.89561;-0.99083;0.00853632;0.188411;-0.784482;0.806836;-7.78626;-0.0170596;-0.00391321;0.0817561;0.0819108;-0.0172143;0.0495625;0.208665;4.79238;0.0611583;0.0660834;4.75829;0.210159;89.4453;134.445;-0.00144389;-0.0170521;-0.00736818;-0.000773807;0.081738;-0.00930674;-0.00714696;0;0.0637281;-0.215064;-2.67437;-1.76174;3.2097;-7.93854;-0.0175095;0.00437236;0.105934;0.106089;-0.0176642;0.0618766;0.165286;6.05012;0.0772899;0.0825022;6.0059;0.166503;87.3975;132.397;-0.00423164;-0.0175138;0.00338828;0.0052466;0.105938;-0.0055596;0.0807872;0;0.0895827;8.44448;6.71424
681000;682;28.659;2.90605;0.112844;-2.56908;28.5431;-0.170615;-0.235007;2.90917;-0.987803;0.00849645;0.193311;-0.789204;0.812579;-7.79098;-0.0166198;-0.00346993;0.0817793;0.0819015;-0.016742;0.0493217;0.203227;4.9206;0.060953;0.0657623;4.89198;0.204416;89.0147;134.015;-0.000613036;-0.0166137;-0.00717788;-9.92082e-05;0.081761;-0.00598289;-0.00775948;0;0.0671284;-0.215932;-2.6811;-1.76537;3.21737;-7.94217;-0.0174435;0.00461185;0.105631;0.105804;-0.017616;0.0617099;0.165136;6.05563;0.0770818;0.0822799;6.0061;0.166497;87.2968;132.297;-0.00394617;-0.0174478;0.00365835;0.0054592;0.105635;0.000564283;0.0822983;0;0.0925224;8.44587;6.72422
682000;683;28.6747;2.92187;0.113458;-2.56904;28.5589;-0.165628;-0.234966;2.92499;-0.979726;0.00947304;0.197772;-0.791642;0.816027;-7.79442;-0.016729;-0.00371487;0.0819992;0.0821388;-0.0168686;0.0495037;0.204015;4.90161;0.0611624;0.0660049;4.86932;0.205367;89.7921;134.792;-0.00465818;-0.0167226;-0.00663034;-0.0010654;0.0819852;-0.00543884;-0.00276756;0;0.0682469;-0.216845;-2.6892;-1.76581;3.22443;-7.94262;-0.0172441;0.00472425;0.106139;0.10632;-0.0174248;0.0618722;0.162467;6.15508;0.077345;0.0824962;6.10164;0.16389;87.1697;132.17;-0.00380452;-0.0172493;0.00362433;0.00570147;0.106143;-0.00565636;0.0770137;0;0.0948846;8.44252;6.73095
683000;684;28.6882;2.93536;0.113982;-2.57122;28.5722;-0.175975;-0.237144;2.93827;-0.990074;0.00844186;0.20376;-0.797354;0.823021;-7.8012;-0.0162249;-0.00383364;0.0817885;0.0819382;-0.0163746;0.0491564;0.198377;5.04092;0.0608229;0.0655419;5.00397;0.199841;89.9537;134.954;-0.00508833;-0.0162183;-0.00666579;-0.00125807;0.0817748;-0.00205947;-0.00563437;0;0.068199;-0.219288;-2.69703;-1.77233;3.23469;-7.94913;-0.0171443;0.00427439;0.106173;0.106321;-0.0172922;0.0618069;0.161474;6.19295;0.0772925;0.0824091;6.14851;0.162641;87.4027;132.403;-0.00589753;-0.0171488;0.00321796;0.00521304;0.106177;-0.00654922;0.0756895;0;0.0904479;8.43863;6.73571
684000;685;28.7038;2.95095;0.114588;-2.57089;28.5879;-0.167489;-0.236812;2.95401;-0.981587;0.00786794;0.206736;-0.79227;0.818837;-7.79612;-0.0164636;-0.00423519;0.0815042;0.0816869;-0.0166463;0.0491666;0.201996;4.95058;0.0607715;0.0655555;4.90721;0.203782;90.5281;135.528;-0.00416418;-0.0164566;-0.00662399;-0.00206276;0.0814922;-0.00874449;-0.00490811;0;0.0689587;-0.220002;-2.70872;-1.76634;3.24122;-7.94905;-0.0171695;0.00411516;0.106054;0.106191;-0.0173068;0.061749;0.161894;6.17686;0.0772124;0.082332;6.1358;0.162978;87.0435;132.044;-0.00417807;-0.0171775;0.00231971;0.00571057;0.106059;-0.00637334;0.0651089;0;0.105633;8.43422;6.74315
685000;686;28.7113;2.95841;0.114877;-2.57313;28.5952;-0.177036;-0.23906;2.96134;-0.994224;0.00944846;0.213035;-0.796214;0.824275;-7.79909;-0.0164203;-0.00348819;0.0815313;0.0816553;-0.0165443;0.0490998;0.201398;4.96528;0.0607078;0.0654664;4.93555;0.202612;90.0244;135.024;-0.000103211;-0.0164149;-0.005966;-0.00123476;0.0815204;-0.0125783;-0.00268537;0;0.0652746;-0.219211;-2.70881;-1.77682;3.24697;-7.95362;-0.0178512;0.00388742;0.107197;0.107318;-0.0179719;0.0626449;0.166526;6.00505;0.0782271;0.0835265;5.97143;0.167464;87.3588;132.359;-0.00731073;-0.0178573;0.00239815;0.00520848;0.107201;-0.00723922;0.0707905;0;0.0918189;8.43004;6.75075
686000;687;28.7224;2.96962;0.115312;-2.57382;28.6063;-0.180153;-0.23975;2.97241;-0.994251;0.00952004;0.215778;-0.79827;0.826974;-7.80105;-0.0173427;-0.00407643;0.081206;0.0813744;-0.017511;0.0494427;0.213564;4.68244;0.0609312;0.0659236;4.64704;0.215191;90.4298;135.43;-0.00242785;-0.0173362;-0.00641194;-0.00195379;0.0811947;-0.00486129;-0.00619547;0;0.0716694;-0.220059;-2.71758;-1.77568;3.25372;-7.95248;-0.0177596;0.00391495;0.107775;0.107897;-0.0178816;0.0628891;0.164785;6.06851;0.0785728;0.0838521;6.03394;0.165729;87.5764;132.576;-0.00564633;-0.0177641;0.00280247;0.00490135;0.107778;-0.00480666;0.0721058;0;0.0926381;8.42678;6.75852
687000;688;28.7346;2.9818;0.115785;-2.57341;28.6186;-0.17523;-0.239336;2.98471;-0.989329;0.0102103;0.219736;-0.794374;0.824268;-7.79822;-0.0170496;-0.00433211;0.0820854;0.0822744;-0.0172386;0.0497565;0.207706;4.8145;0.0614077;0.066342;4.77269;0.209525;90.6818;135.682;-0.00162127;-0.0170428;-0.00656529;-0.00230349;0.0820742;-0.00522575;-0.00644307;0;0.0655958;-0.220899;-2.72196;-1.77606;3.25764;-7.95286;-0.0178625;0.00423645;0.108086;0.108229;-0.0180048;0.0631168;0.165261;6.05103;0.0788424;0.0841558;6.0111;0.166359;87.6922;132.692;-0.00675943;-0.0178652;0.00356725;0.00482959;0.108089;0.00106087;0.0765632;0;0.0968414;8.4231;6.76487
688000;689;28.746;2.99314;0.116226;-2.57364;28.63;-0.170949;-0.239564;2.9961;-0.985048;0.0109665;0.225327;-0.802276;0.83339;-7.80505;-0.0174036;-0.00423034;0.0825228;0.0827016;-0.0175824;0.050142;0.210895;4.7417;0.0618341;0.066856;4.70366;0.2126;90.416;135.416;-0.00261162;-0.0173965;-0.00669987;-0.00198875;0.0825103;-0.00311069;-0.00722778;0;0.0650675;-0.222244;-2.73172;-1.7871;3.27191;-7.97184;-0.0167953;0.00427332;0.106365;0.106513;-0.0169434;0.0617283;0.157902;6.33305;0.0772783;0.0823044;6.28643;0.159073;86.8704;131.87;0.00191567;-0.0168045;0.00229224;0.00603385;0.106371;0.00637713;0.0716661;0;0.100865;8.42314;6.77251
689000;690;28.756;3.00313;0.116614;-2.57319;28.6401;-0.168297;-0.239111;3.00619;-0.982395;0.0102854;0.229627;-0.802344;0.83462;-7.80512;-0.0177281;-0.00410396;0.0825915;0.0827591;-0.0178957;0.0503274;0.214648;4.65878;0.0620049;0.0671032;4.62452;0.216239;89.9578;134.958;-0.000100299;-0.0177206;-0.00702902;-0.00144993;0.0825765;-0.00791395;-0.0114646;0;0.0660342;-0.222077;-2.73486;-1.78035;3.27085;-7.95716;-0.0177132;0.00478044;0.107355;0.107538;-0.0178957;0.0627168;0.164996;6.06075;0.0783414;0.0836224;6.00916;0.166413;87.4475;132.448;-0.00555851;-0.0177161;0.00414503;0.00534408;0.107358;-9.93314e-05;0.0849224;0;0.0974612;8.4239;6.77818
690000;691;28.7692;3.01639;0.117128;-2.5742;28.6533;-0.164822;-0.240128;3.01943;-0.97892;0.0107576;0.234203;-0.806524;0.839909;-7.81037;-0.0172742;-0.00411735;0.0822641;0.0824341;-0.0174442;0.0499392;0.209985;4.76225;0.0615997;0.0665855;4.72558;0.211614;90.2182;135.218;-0.000161251;-0.0172671;-0.00675746;-0.00172005;0.0822508;-0.00694824;-0.00455392;0;0.0698696;-0.223062;-2.74073;-1.78498;3.27833;-7.96178;-0.0174785;0.00481956;0.108014;0.108199;-0.0176633;0.062931;0.161817;6.17984;0.078684;0.0839081;6.12564;0.163248;87.3009;132.301;-0.0036571;-0.0174826;0.0039388;0.00560056;0.108017;-0.00720742;0.0800007;0;0.0967141;8.42513;6.78326
691000;692;28.773;3.0202;0.117277;-2.57637;28.6569;-0.177865;-0.242291;3.02299;-0.991963;0.0103506;0.240657;-0.809913;0.844975;-7.81376;-0.0170291;-0.00370553;0.0824961;0.0826339;-0.0171668;0.0499004;0.206423;4.84443;0.0616139;0.0665338;4.81357;0.207746;89.6029;134.603;0.00031112;-0.0170225;-0.00683886;-0.000860256;0.0824808;-0.00757686;-0.0192508;0;0.0637208;-0.224919;-2.74513;-1.79261;3.2863;-7.96941;-0.0173257;0.00464456;0.108061;0.108233;-0.0174975;0.0628654;0.160331;6.23708;0.0786396;0.0838205;6.18566;0.161664;87.5056;132.506;-0.0049797;-0.0173286;0.0039848;0.00522965;0.108064;-0.00868368;0.0760455;0;0.0977354;8.42655;6.78866
692000;693;28.782;3.02914;0.117624;-2.57738;28.6657;-0.184495;-0.243309;3.03183;-0.998594;0.0105583;0.243268;-0.807149;0.843078;-7.80993;-0.01725;-0.00369665;0.0832126;0.0833484;-0.0173858;0.0503671;0.2073;4.82392;0.0621765;0.0671562;4.79404;0.208592;89.3199;134.32;-0.000671272;-0.0172432;-0.00718067;-0.000535707;0.0831951;-0.0091711;-0.0134587;0;0.0671862;-0.225881;-2.75422;-1.78825;3.29159;-7.96505;-0.0174466;0.0041841;0.108544;0.108683;-0.0175854;0.0631343;0.160733;6.22151;0.0789726;0.0841791;6.1803;0.161805;87.2777;132.278;-0.00616008;-0.0174529;0.00273425;0.00546916;0.108549;-0.00384921;0.0688865;0;0.0930387;8.42597;6.79482
693000;694;28.7904;3.03751;0.117948;-2.5791;28.6741;-0.180088;-0.245021;3.0402;-0.997276;0.00891541;0.245637;-0.811041;0.84747;-7.81282;-0.0171567;-0.0032671;0.0839414;0.0840468;-0.0172622;0.0506545;0.20439;4.89262;0.0625839;0.0675394;4.86883;0.205388;88.832;133.832;0.00340656;-0.0171513;-0.00709384;0.000202765;0.0839231;-0.0168682;-0.00733217;0;0.0644154;-0.227493;-2.76123;-1.79601;3.30178;-7.97281;-0.0176446;0.00404955;0.108982;0.109112;-0.017774;0.0634429;0.161903;6.17652;0.0793324;0.0845906;6.13884;0.162897;87.6076;132.608;-0.00640985;-0.0176487;0.00305491;0.00493062;0.108986;-0.00655624;0.0669014;0;0.100852;8.42628;6.80225
694000;695;28.8052;3.05233;0.118524;-2.58015;28.6888;-0.184127;-0.246075;3.05487;-0.998225;0.0109202;0.252637;-0.812768;0.851197;-7.81555;-0.0175056;-0.0033085;0.0831427;0.0832514;-0.0176142;0.0504328;0.210548;4.7495;0.0622092;0.0672437;4.72638;0.211579;88.8133;133.813;-0.000641775;-0.0175;-0.00712998;0.000157926;0.0831243;-0.00815293;-0.00977966;0;0.0691423;-0.22657;-2.76721;-1.79525;3.30631;-7.97205;-0.0178888;0.00386676;0.10938;0.109497;-0.0180062;0.0637516;0.163548;6.11441;0.0796812;0.0850022;6.08107;0.164445;87.6797;132.68;-0.00641134;-0.0178928;0.0028362;0.00477909;0.109383;-0.00768748;0.0719638;0;0.098159;8.42617;6.80979
695000;696;28.8145;3.06171;0.118888;-2.58284;28.6979;-0.191585;-0.248761;3.06399;-1.00568;0.0103847;0.258437;-0.820744;0.860534;-7.82352;-0.0178047;-0.00381931;0.0839652;0.0841083;-0.0179478;0.0510281;0.212049;4.7159;0.0629141;0.0680375;4.68626;0.21339;89.1774;134.177;-0.00215162;-0.0177974;-0.00754934;-0.000439439;0.0839457;-0.00415676;-0.0147758;0;0.0675037;-0.228435;-2.77539;-1.80438;3.31825;-7.98709;-0.0176631;0.00382779;0.10933;0.109445;-0.0177783;0.0636117;0.161558;6.18974;0.0795544;0.0848156;6.15609;0.162441;87.6892;132.689;-0.00536989;-0.0176671;0.00278781;0.00474872;0.109333;0.0011509;0.0686732;0;0.0963676;8.42408;6.81721
696000;697;28.8254;3.07262;0.119312;-2.5823;28.709;-0.184752;-0.248224;3.07504;-0.99885;0.0112627;0.260284;-0.817213;0.857736;-7.81999;-0.0176775;-0.00331476;0.0841068;0.0842147;-0.0177853;0.051;0.210179;4.75785;0.0629151;0.068;4.73507;0.21119;89.0867;134.087;-0.00171971;-0.0176719;-0.00681626;-0.000141977;0.0840905;-0.0063336;-0.0133057;0;0.0638576;-0.229741;-2.78453;-1.80436;3.32598;-7.9891;-0.0170588;0.00439188;0.108167;0.108321;-0.0172127;0.0627666;0.157708;6.34081;0.0785822;0.0836888;6.29308;0.158905;86.8362;131.836;0.00193966;-0.0170686;0.00235076;0.00620232;0.108173;-0.000249816;0.071444;0;0.0937135;8.42659;6.82451
697000;698;28.8343;3.08149;0.119657;-2.58538;28.7175;-0.198696;-0.25131;3.08358;-1.01279;0.0108665;0.264303;-0.817154;0.858904;-7.81993;-0.0173676;-0.00338737;0.0846353;0.0847477;-0.01748;0.0511138;0.205205;4.87316;0.0631369;0.0681518;4.84827;0.206259;89.1738;134.174;0.000212073;-0.0173618;-0.00686988;-0.00023233;0.0846188;-0.0111336;-0.012361;0;0.0683346;-0.229235;-2.78773;-1.80353;3.32816;-7.98033;-0.0179298;0.0048455;0.109183;0.109367;-0.0181142;0.0637406;0.164218;6.08945;0.0796391;0.0849875;6.03763;0.165628;87.1845;132.185;-0.00466859;-0.0179352;0.00372252;0.00583978;0.109187;-0.000204748;0.0800372;0;0.0953916;8.42399;6.83175
698000;699;28.8484;3.09554;0.120202;-2.58618;28.7315;-0.195639;-0.252108;3.09764;-1.00974;0.0097487;0.269486;-0.818441;0.861721;-7.82436;-0.0173185;-0.00286367;0.0834407;0.083522;-0.0173998;0.0504609;0.207554;4.81802;0.0622966;0.0672812;4.80018;0.208326;88.7644;133.764;-0.00026097;-0.0173144;-0.00645503;0.000393729;0.0834252;-0.00912097;-0.00658413;0;0.0676005;-0.231265;-2.79368;-1.80374;3.33341;-7.98054;-0.0174286;0.00484184;0.109214;0.109399;-0.0176134;0.0635064;0.159581;6.2664;0.0794575;0.0846752;6.21113;0.161001;87.2283;132.228;-0.00352101;-0.0174336;0.00380148;0.00576341;0.109219;-0.00522305;0.0778155;0;0.100736;8.42182;6.83848
699000;700;28.8621;3.10927;0.120735;-2.58675;28.7453;-0.193055;-0.252673;3.11138;-1.00715;0.0106441;0.275618;-0.824858;0.869753;-7.83077;-0.0174514;-0.00330035;0.0837467;0.0838542;-0.0175589;0.0507066;0.208383;4.79885;0.0625823;0.0676087;4.77559;0.209398;89.4084;134.408;-0.00139295;-0.017446;-0.00638993;-0.000499237;0.0837328;-0.00688256;-0.00522609;0;0.068535;-0.231626;-2.79934;-1.80847;3.34073;-7.98527;-0.0173963;0.0048981;0.109871;0.110059;-0.0175846;0.063822;0.158334;6.31577;0.0798823;0.085096;6.25886;0.159773;87.3378;132.338;-0.00323016;-0.0174003;0.00407138;0.00563001;0.109875;-0.0100474;0.0717999;0;0.100334;8.42305;6.84629
700000;701;28.8728;3.11995;0.12115;-2.58845;28.7558;-0.195846;-0.254372;3.12194;-1.00994;0.0117734;0.277547;-0.822383;0.868035;-7.82516;-0.0180011;-0.00310903;0.0841568;0.0842513;-0.0180957;0.0511735;0.2139;4.67508;0.0630707;0.0682313;4.65588;0.214782;89.506;134.506;-0.000475645;-0.0179964;-0.0059135;-0.000568807;0.0841451;-0.0090511;-0.00492254;0;0.068621;-0.232117;-2.80721;-1.80842;3.34734;-7.98522;-0.0177586;0.00420222;0.110084;0.110222;-0.0178966;0.0640595;0.161318;6.19892;0.0801162;0.0854126;6.15884;0.162368;87.376;132.376;-0.00484856;-0.0177644;0.00287214;0.00537912;0.110089;-0.0077731;0.0733834;0;0.0986113;8.42313;6.85241
701000;702;28.8847;3.1319;0.121614;-2.58671;28.768;-0.19424;-0.252636;3.1341;-1.00834;0.0112808;0.280576;-0.820759;0.867465;-7.82354;-0.0176249;-0.00311612;0.084054;0.0841495;-0.0177203;0.0509349;0.209685;4.76905;0.0628448;0.0679132;4.74875;0.210582;89.4597;134.46;-0.00126808;-0.0176201;-0.00600583;-0.000497432;0.0840419;-0.00410562;-0.0127077;0;0.0670636;-0.233194;-2.81539;-1.81033;3.35531;-7.98713;-0.0175751;0.00407687;0.110862;0.110991;-0.0177044;0.0643477;0.158532;6.30787;0.0805467;0.085797;6.26912;0.159512;87.5896;132.59;-0.00731368;-0.0175795;0.00300212;0.00502736;0.110865;-0.00730707;0.0694066;0;0.0957386;8.4228;6.85883
702000;703;28.8982;3.14534;0.122136;-2.58796;28.7814;-0.191736;-0.253888;3.1475;-1.00583;0.0112589;0.285238;-0.821866;0.870029;-7.82464;-0.0175018;-0.003166;0.0840381;0.0841367;-0.0176004;0.0508686;0.20826;4.80169;0.0627857;0.0678247;4.78039;0.209188;89.7788;134.779;-0.00358655;-0.0174971;-0.00569484;-0.00087401;0.0840278;-0.00210138;-0.0151828;0;0.0677257;-0.233659;-2.82162;-1.81255;3.36177;-7.98935;-0.0178928;0.00409145;0.110978;0.111108;-0.0180226;0.0645652;0.161228;6.20239;0.0807526;0.0860869;6.16493;0.162208;87.5553;132.555;-0.00560208;-0.0178975;0.00295759;0.00509377;0.110982;-0.00892814;0.066894;0;0.103993;8.4185;6.86576
703000;704;28.9111;3.15824;0.122637;-2.58762;28.7944;-0.185;-0.253546;3.16053;-0.999098;0.0121035;0.290088;-0.822253;0.872008;-7.82503;-0.0176116;-0.00327861;0.0844241;0.0845293;-0.0177168;0.0511231;0.208608;4.79367;0.0630932;0.0681641;4.77114;0.209594;89.9357;134.936;-0.00281698;-0.0176067;-0.00568853;-0.00109542;0.0844141;-0.00252318;-0.00942555;0;0.0724839;-0.234385;-2.83183;-1.81552;3.37198;-7.99823;-0.0176872;0.00402787;0.110885;0.111011;-0.0178133;0.064412;0.15951;6.26919;0.0806037;0.0858827;6.23191;0.160465;87.7066;132.707;-0.0054026;-0.0176908;0.00312291;0.00482809;0.110888;0.00187891;0.067288;0;0.100875;8.41638;6.86843
704000;705;28.9207;3.16785;0.12301;-2.58997;28.8039;-0.185032;-0.255898;3.16997;-0.99913;0.0123716;0.295582;-0.825436;0.876851;-7.82821;-0.0180163;-0.00289434;0.0852187;0.0852997;-0.0180974;0.0516986;0.211412;4.73009;0.0637609;0.0689314;4.71338;0.212162;89.7623;134.762;-0.000870798;-0.0180123;-0.00524285;-0.000769233;0.0852099;-0.00789284;-0.0137273;0;0.0682036;-0.236869;-2.83849;-1.81904;3.37965;-8.00379;-0.0167682;0.00440863;0.109936;0.110089;-0.0169214;0.0635051;0.152528;6.55619;0.0796345;0.0846735;6.50588;0.153707;87.1514;132.151;0.00127712;-0.0167753;0.00285911;0.00578126;0.109941;-0.00122787;0.0722865;0;0.0979118;8.41898;6.87596
705000;706;;;;;;;;;;0.0115956;0.300607;-0.827891;0.880854;-7.82967;-0.0174047;-0.0031852;0.0853273;0.0854259;-0.0175034;0.0514646;0.203976;4.90254;0.0635931;0.0686195;4.88054;0.204895;89.2824;134.282;0.00499624;-0.0173996;-0.00639966;-0.000274966;0.0853131;-0.0179956;-0.0105244;0;0.0774397;-0.236391;-2.84032;-1.82283;3.3832;-7.99965;-0.017912;0.00498456;0.11103;0.111222;-0.0181044;0.0646632;0.161326;6.19863;0.0808612;0.0862176;6.14338;0.162777;87.3994;132.399;-0.00851906;-0.0179153;0.00428015;0.00560722;0.111033;-0.00263326;0.0839881;0;0.103302;8.41576;6.88238
706000;707;28.9386;3.18577;0.123706;-2.59327;28.8214;-0.204209;-0.259199;3.18753;-1.01831;0.0118713;0.305038;-0.825964;0.880572;-7.82874;-0.0181538;-0.00402139;0.08472;0.084877;-0.0183107;0.0515938;0.214279;4.6668;0.0635734;0.0687918;4.63537;0.215732;89.4021;134.402;0.0014857;-0.0181458;-0.00760393;-0.000778577;0.0847008;-0.0102587;-0.0167258;0;0.0647488;-0.237533;-2.84691;-1.82188;3.3883;-7.99868;-0.01782;0.00492154;0.110938;0.111126;-0.0180078;0.0645667;0.160631;6.22546;0.0807584;0.0860889;6.17096;0.162049;87.1547;132.155;-0.00287487;-0.0178258;0.00373054;0.00597451;0.110942;-0.00453193;0.0761908;0;0.10723;8.41225;6.89004
707000;708;;;;;;;;;;0.012599;0.309922;-0.832855;0.888739;-7.83463;-0.0172612;-0.00317376;0.0853224;0.0854205;-0.0173592;0.0513899;0.202305;4.94303;0.063529;0.0685199;4.92075;0.203221;88.874;133.874;0.00655602;-0.0172561;-0.0069213;0.000219602;0.085305;-0.0236239;-0.0117754;0;0.0673124;-0.237723;-2.85439;-1.82768;3.39772;-8.0045;-0.017591;0.00513177;0.111213;0.111417;-0.0177951;0.0646062;0.158174;6.32216;0.0808651;0.0861415;6.2611;0.159716;87.3517;132.352;-0.00580557;-0.0175943;0.00445936;0.00572624;0.111216;-0.00780534;0.0799697;0;0.103307;8.4128;6.89711
708000;709;;;;;;;;;;0.0128659;0.314212;-0.830302;0.88786;-7.83415;-0.0172625;-0.00309281;0.0849579;0.0850514;-0.017356;0.0512037;0.203189;4.92152;0.0632846;0.0682716;4.90039;0.204065;88.9481;133.948;-0.000255523;-0.0172577;-0.0066726;0.00014973;0.0849418;-0.00678716;-0.0194788;0;0.0659062;-0.238721;-2.86179;-1.82626;3.40324;-8.00309;-0.0177356;0.00456126;0.111469;0.111629;-0.0178964;0.0647629;0.159108;6.28503;0.0810465;0.0863506;6.23754;0.16032;87.3809;132.381;-0.0079485;-0.0177405;0.00347051;0.00552522;0.111473;-0.00931387;0.0816813;0;0.110515;8.40893;6.905
709000;710;28.9656;3.21268;0.12475;-2.59319;28.8484;-0.229289;-0.259119;3.21447;-1.04648;0.0130026;0.318771;-0.833377;0.892357;-7.83515;-0.0176607;-0.00308048;0.0853604;0.0854525;-0.0177528;0.0516026;0.206896;4.83334;0.0637157;0.0688035;4.81347;0.20775;88.7263;133.726;-0.000452811;-0.017656;-0.00692298;0.000397333;0.0853427;-0.00546412;-0.0100639;0;0.0582198;-0.239293;-2.86784;-1.82847;3.40955;-8.00527;-0.0175536;0.00431044;0.112476;0.112619;-0.0176964;0.0651575;0.156066;6.40755;0.0816198;0.0868766;6.36393;0.157136;87.452;132.452;-0.00759951;-0.0175589;0.00310965;0.00537088;0.11248;-0.00862327;0.0726248;0;0.0941023;8.40905;6.91288
710000;711;28.9818;3.22897;0.125383;-2.59729;28.8643;-0.218288;-0.263211;3.23044;-1.03239;0.0128484;0.322046;-0.832034;0.892277;-7.83481;-0.0179265;-0.00289984;0.0851591;0.0852406;-0.018008;0.0516243;0.210506;4.75046;0.0636842;0.0688324;4.73348;0.211261;88.5123;133.512;0.00157119;-0.0179225;-0.00686062;0.000684716;0.0851413;-0.0133712;-0.0114638;0;0.0641007;-0.240477;-2.87652;-1.82853;3.41698;-8.00533;-0.017903;0.0038819;0.112781;0.112896;-0.0180182;0.065457;0.158742;6.29952;0.081933;0.087276;6.26564;0.159601;87.577;132.577;-0.00670211;-0.0179084;0.00254923;0.00505805;0.112784;-0.00818614;0.0669996;0;0.105936;8.41193;6.91987
711000;712;28.9974;3.24458;0.125989;-2.59903;28.8799;-0.217688;-0.264952;3.24596;-1.03179;0.0132794;0.326608;-0.83437;0.896115;-7.83715;-0.0182061;-0.00284079;0.0852363;0.0853143;-0.018284;0.0517992;0.213595;4.68175;0.0638496;0.0690655;4.66606;0.214314;88.4146;133.415;0.00165931;-0.0182023;-0.00686645;0.000801185;0.0852183;-0.00667608;-0.0145741;0;0.0658519;-0.241357;-2.88636;-1.83294;3.42768;-8.01566;-0.0175747;0.00409623;0.112547;0.112676;-0.0177036;0.0651896;0.156155;6.40389;0.0816604;0.0869194;6.36457;0.15712;87.2871;132.287;-0.00408119;-0.0175821;0.00241456;0.00558121;0.112552;-0.00350066;0.067717;0;0.102548;8.40939;6.92683
712000;713;29.0084;3.25556;0.126416;-2.60183;28.8907;-0.216775;-0.267754;3.25674;-1.03087;0.0131713;0.329993;-0.832789;0.895883;-7.83557;-0.0174344;-0.00174046;0.0851235;0.0851531;-0.0174639;0.0513085;0.204813;4.88251;0.063397;0.0684113;4.87594;0.205089;87.8625;132.863;0.000675925;-0.0174347;-0.00574317;0.00188395;0.0851097;-0.000512937;-0.0162965;0;0.0655888;-0.243239;-2.89288;-1.8361;3.43499;-8.02084;-0.0166326;0.00454396;0.11151;0.111671;-0.0167935;0.0642325;0.149157;6.70433;0.0806305;0.0856433;6.64966;0.150384;86.9495;131.95;6.09794e-05;-0.0166417;0.00266173;0.00620918;0.111517;0.00142381;0.077048;0;0.0972263;8.407;6.93321
713000;714;;;;;;;;;;0.0135316;0.336025;-0.834631;0.899836;-7.83848;-0.017199;-0.00243633;0.0856761;0.0857338;-0.0172567;0.0514952;0.200745;4.98145;0.0636921;0.0686603;4.96815;0.201282;88.6349;133.635;0.000572238;-0.0171963;-0.00597807;0.000769828;0.0856624;-0.0115223;-0.0182573;0;0.0682806;-0.242507;-2.89495;-1.83717;3.43726;-8.01399;-0.0178572;0.00489597;0.112065;0.112249;-0.0180415;0.0651454;0.159347;6.27561;0.0815149;0.0868605;6.22173;0.160727;87.4392;132.439;-0.00779343;-0.0178607;0.00415397;0.00555127;0.112068;0.00283926;0.0813364;0;0.104626;8.40894;6.93624
714000;715;29.0339;3.28112;0.127408;-2.60252;28.9163;-0.21441;-0.26845;3.28237;-1.02851;0.0133796;0.342026;-0.840909;0.907904;-7.84786;-0.0168236;-0.00345144;0.0863638;0.0864791;-0.0169389;0.051709;0.194799;5.1335;0.0640501;0.0689453;5.10536;0.195873;89.6057;134.606;-0.00196567;-0.0168178;-0.00650146;-0.000691102;0.0863498;-0.00436804;-0.0134691;0;0.0688824;-0.243652;-2.90163;-1.84022;3.4446;-8.01703;-0.0178675;0.00489199;0.112375;0.112559;-0.018051;0.065305;0.158999;6.28936;0.0817235;0.0870733;6.23559;0.16037;87.4225;132.422;-0.00429359;-0.0178713;0.00410387;0.00558784;0.112379;-0.00467521;0.075898;0;0.10802;8.40521;6.943
715000;716;29.0489;3.29606;0.127988;-2.60525;28.931;-0.212425;-0.271179;3.29713;-1.02652;0.012431;0.345111;-0.841052;0.909189;-7.84425;-0.0176499;-0.00325004;0.0852173;0.0853199;-0.0177525;0.0515362;0.207116;4.82821;0.0636284;0.0687149;4.80609;0.208069;89.6732;134.673;-0.000566619;-0.0176448;-0.00598724;-0.000772288;0.0852057;-0.000947932;-0.01318;0;0.0642675;-0.245826;-2.9086;-1.84125;3.45117;-8.01805;-0.0175028;0.00513441;0.112499;0.112702;-0.0177053;0.0652035;0.155582;6.4275;0.0816784;0.086938;6.36543;0.157099;87.0777;132.078;-0.00519254;-0.0175091;0.00390912;0.0062165;0.112504;-0.0106528;0.072171;0;0.100177;8.40501;6.94893
716000;717;29.0538;3.30102;0.128181;-2.60115;28.9361;-0.243592;-0.267071;3.30224;-1.05769;0.0125029;0.348821;-0.837415;0.907247;-7.84333;-0.0180883;-0.00304346;0.0861033;0.0861921;-0.0181771;0.0521846;0.210077;4.76016;0.0643816;0.0695795;4.74179;0.210891;89.5734;134.573;-0.00371259;-0.0180838;-0.00575395;-0.000592963;0.0860923;0.00589153;-0.0128275;0;0.0712097;-0.246814;-2.91652;-1.84148;3.45804;-8.01828;-0.0174302;0.0048371;0.113206;0.113385;-0.0176091;0.0654968;0.153969;6.4948;0.0820914;0.0873291;6.43899;0.155304;87.0087;132.009;-0.0060079;-0.0174383;0.0032108;0.00627255;0.113212;-0.00947946;0.071368;0;0.103589;8.40714;6.95625
717000;718;29.0679;3.3151;0.128727;-2.60755;28.9499;-0.224027;-0.27348;3.31595;-1.03812;0.0141816;0.352076;-0.834934;0.906241;-7.83771;-0.0177942;-0.00319449;0.085433;0.0855318;-0.017893;0.0517124;0.208283;4.80117;0.0638271;0.0689499;4.78019;0.209197;89.7227;134.723;-0.00334696;-0.0177894;-0.00582357;-0.00081543;0.0854221;0.00255879;-0.0186207;0;0.0707286;-0.246885;-2.92564;-1.8403;3.46512;-8.0171;-0.0174429;0.00414333;0.113701;0.113832;-0.0175737;0.0657028;0.153411;6.51845;0.082373;0.0876037;6.47739;0.154383;87.7;132.7;-0.0067217;-0.0174467;0.00322226;0.00495592;0.113704;-0.007123;0.0729344;0;0.0974522;8.40362;6.96362
718000;719;29.0794;3.32659;0.129174;-2.60919;28.9612;-0.227769;-0.275116;3.32731;-1.04187;0.0138038;0.358794;-0.843198;0.916464;-7.84598;-0.0177222;-0.00396091;0.0865617;0.0867119;-0.0178725;0.0522922;0.204735;4.88435;0.0645949;0.0697229;4.8517;0.206113;90.1606;135.161;-0.000837724;-0.0177155;-0.00659127;-0.00158299;0.0865489;-0.0024986;-0.0150656;0;0.0726517;-0.248276;-2.93403;-1.84807;3.47643;-8.03079;-0.0176563;0.003842;0.112805;0.112918;-0.0177693;0.0653436;0.15652;6.38894;0.0818472;0.0871247;6.35466;0.157365;87.2585;132.258;-0.00573767;-0.0176645;0.0018893;0.00556576;0.11281;-0.00441692;0.0694659;0;0.104247;8.39846;6.97067
719000;720;29.0887;3.33585;0.129533;-2.60564;28.9707;-0.246677;-0.271568;3.33678;-1.06078;0.0140751;0.361683;-0.84334;0.917734;-7.84227;-0.0183519;-0.00312926;0.0869334;0.0870263;-0.0184448;0.0527356;0.211103;4.73702;0.0650435;0.0703141;4.7182;0.211945;89.808;134.808;-0.00183066;-0.0183473;-0.00559574;-0.000901671;0.0869235;0.00284141;-0.0309834;0;0.0683457;-0.249168;-2.94137;-1.85163;3.48458;-8.03435;-0.0174425;0.00383753;0.113078;0.11319;-0.0175552;0.0653728;0.154252;6.48289;0.0819412;0.0871637;6.44768;0.155094;87.9028;132.903;-0.00665121;-0.0174454;0.00306731;0.00451743;0.11308;-0.000586425;0.0775261;0;0.0974516;8.40146;6.97812
720000;721;;;;;;;;;;0.0146644;0.36705;-0.843929;0.920411;-7.84671;-0.0183073;-0.00276231;0.0866658;0.0867385;-0.0183799;0.0525592;0.21124;4.73396;0.0648267;0.0700789;4.7192;0.2119;89.4872;134.487;-0.00265838;-0.0183035;-0.00538462;-0.000393294;0.086656;0.00142372;-0.0199323;0;0.0822117;-0.25119;-2.94933;-1.8543;3.49286;-8.03921;-0.0165613;0.00463304;0.112768;0.112934;-0.016727;0.0648305;0.146861;6.80915;0.0814396;0.0864407;6.75159;0.148113;86.861;131.861;-0.0011423;-0.0165714;0.00259537;0.00643387;0.112775;0.00265641;0.0801078;0;0.106416;8.39777;6.98567
721000;722;29.1212;3.36839;0.130797;-2.60788;29.0035;-0.206902;-0.273803;3.36956;-1.021;0.0159948;0.373265;-0.850881;0.929291;-7.85301;-0.0181799;-0.00279903;0.088253;0.0883265;-0.0182535;0.05329;0.205998;4.85442;0.065818;0.0710534;4.83888;0.206659;89.2286;134.229;-0.00144135;-0.0181759;-0.00583599;-5.90686e-05;0.0882409;-0.00264042;-0.0227031;0;0.0771339;-0.249423;-2.95247;-1.85526;3.4959;-8.03206;-0.0178906;0.00521445;0.113823;0.114029;-0.0180967;0.0660627;0.15718;6.36214;0.0827139;0.0880836;6.30107;0.158703;87.2331;132.233;-0.0050682;-0.0178953;0.00427567;0.00604222;0.113827;-0.0047776;0.0767083;0;0.105549;8.39381;6.99326
722000;723;29.1256;3.37276;0.130967;-2.6131;29.0071;-0.237839;-0.279024;3.37324;-1.05194;0.0153085;0.378312;-0.849123;0.929712;-7.85125;-0.0184156;-0.00290766;0.087913;0.0879924;-0.0184951;0.0532437;0.209475;4.77383;0.0657002;0.0709916;4.75762;0.210189;89.2526;134.253;-0.000812207;-0.0184113;-0.00596643;-0.000147812;0.0879005;-0.0119986;-0.0186053;0;0.0845455;-0.251626;-2.9582;-1.85615;3.50136;-8.03295;-0.017398;0.00508719;0.113278;0.113475;-0.0175957;0.0655355;0.153587;6.51097;0.0821461;0.0873807;6.44904;0.155062;87.3032;132.303;-0.00414025;-0.0174023;0.00421004;0.00586139;0.113281;-0.0054016;0.0776647;0;0.104652;8.39391;7.0004
723000;724;29.1414;3.38857;0.131581;-2.60751;29.0236;-0.232843;-0.273433;3.38966;-1.04694;0.0157177;0.381909;-0.84848;0.930602;-7.85171;-0.0180089;-0.00315036;0.0877845;0.0878782;-0.0181026;0.0529904;0.205149;4.8745;0.0654595;0.0706539;4.85444;0.205997;89.4334;134.433;0.000453724;-0.018004;-0.00616512;-0.000428787;0.0877716;-0.0147214;-0.0179907;0;0.0835628;-0.252293;-2.96707;-1.85434;3.50795;-8.03114;-0.017508;0.00524846;0.113585;0.113794;-0.0177178;0.0657561;0.15414;6.48759;0.0824063;0.0876748;6.42261;0.1557;86.9034;131.903;-0.0045386;-0.017516;0.0037401;0.00657924;0.113591;-0.010068;0.0815647;0;0.0947517;8.39082;7.00747
724000;725;29.1409;3.38808;0.131562;-2.61294;29.0223;-0.270252;-0.278862;3.38836;-1.08435;0.0150326;0.385022;-0.84701;0.930534;-7.84498;-0.0184401;-0.00265231;0.0871828;0.0872493;-0.0185067;0.052878;0.211511;4.72789;0.0652164;0.070504;4.71448;0.212112;88.6206;133.621;-0.00746786;-0.0184368;-0.00633925;0.000676457;0.0871675;0.0130426;-0.017152;0;0.0613601;-0.252365;-2.97449;-1.85458;3.51436;-8.03138;-0.0174558;0.0047408;0.11478;0.11495;-0.0176255;0.0662876;0.15208;6.57547;0.0831334;0.0883834;6.52178;0.153332;87.1529;132.153;-0.0065882;-0.0174631;0.0032322;0.00607043;0.114785;-0.00988165;0.0778159;0;0.0997353;8.39057;7.01287
725000;726;29.1475;3.39466;0.131817;-2.61694;29.0284;-0.285897;-0.28287;3.39445;-1.1;0.0139715;0.391837;-0.853858;0.939577;-7.85508;-0.0182201;-0.00251821;0.0867133;0.0867737;-0.0182805;0.0525271;0.210119;4.75922;0.0648078;0.0700361;4.7468;0.210668;88.5227;133.523;-0.0099534;-0.0182172;-0.00623514;0.000839847;0.0866983;0.0206557;-0.0224532;0;0.0629112;-0.255282;-2.97918;-1.86751;3.52538;-8.04456;-0.0172142;0.00373277;0.114582;0.114688;-0.0173198;0.0660039;0.150234;6.65628;0.0828377;0.0880052;6.62178;0.151017;88.2024;133.202;-0.00458805;-0.0172153;0.00339834;0.00402765;0.114583;-0.00906058;0.0686889;0;0.102175;8.38758;7.01599
726000;727;29.1659;3.41298;0.132528;-2.61971;29.0468;-0.264652;-0.285635;3.4129;-1.08184;0.0141425;0.393605;-0.850006;0.936822;-7.84959;-0.0169021;-0.00274151;0.0880096;0.0880812;-0.0169737;0.0525274;0.192048;5.20702;0.0651203;0.0700366;5.18928;0.192705;88.9313;133.931;-0.00410229;-0.0168984;-0.00621411;0.000396276;0.0879953;-0.00514913;-0.00970335;0;0.0554021;-0.254736;-2.99181;-1.86264;3.53345;-8.04536;-0.0172599;0.00432435;0.115001;0.115142;-0.0174011;0.0662716;0.150085;6.66291;0.0831708;0.0883621;6.61695;0.151127;87.381;132.381;-0.00539134;-0.0172662;0.00290052;0.00557927;0.115005;-0.00611617;0.0751972;0;0.110452;8.38501;7.02278
727000;728;29.1767;3.42382;0.132949;-2.62246;29.0574;-0.26484;-0.288383;3.42353;-1.08203;0.0137132;0.394338;-0.843047;0.930816;-7.83935;-0.0168458;-0.00200664;0.087722;0.0877605;-0.0168843;0.0523224;0.192036;5.20735;0.0648717;0.0697632;5.19776;0.19239;88.6162;133.616;-0.00313345;-0.0168443;-0.00535615;0.00102089;0.0877106;-0.00554681;-0.0226285;0;0.0564271;-0.257439;-2.99936;-1.8625;3.53996;-8.04725;-0.0164962;0.00417756;0.113959;0.114092;-0.0166299;0.0653611;0.144756;6.90817;0.0821677;0.0871481;6.86069;0.145758;86.931;131.931;-0.00059055;-0.0165072;0.00183254;0.00624795;0.113965;-0.000265138;0.0756708;0;0.102515;8.38397;7.02981
728000;729;;;;;;;;;;0.0164437;0.402418;-0.848044;0.938823;-7.85041;-0.0173551;-0.00262714;0.0879761;0.0880415;-0.0174206;0.0527311;0.197271;5.06917;0.0652807;0.0703081;5.05387;0.197868;89.184;134.184;-0.00712607;-0.0173516;-0.0056427;9.64892e-05;0.0879646;0.0157566;-0.0150857;0;0.0650974;-0.256317;-3.00305;-1.867;3.54538;-8.04581;-0.0167318;0.00476983;0.114424;0.114597;-0.0169051;0.0657509;0.146227;6.83868;0.0826115;0.0876679;6.77885;0.147518;87.0761;132.076;-0.00168423;-0.0167397;0.00316599;0.00618492;0.114429;-0.00341931;0.071674;0;0.123054;8.38416;7.0371
729000;730;29.1983;3.44545;0.133789;-2.62462;29.0788;-0.268125;-0.29055;3.44493;-1.08222;0.0162089;0.409145;-0.853628;0.946754;-7.85896;-0.0186108;-0.00216122;0.0872522;0.0872963;-0.0186549;0.0529756;0.213299;4.68825;0.06531;0.0706341;4.67953;0.213697;88.8967;133.897;-0.0061342;-0.0186086;-0.00512757;0.000516321;0.0872422;0.0076907;-0.0181614;0;0.0807963;-0.256966;-3.00637;-1.8717;3.55071;-8.0485;-0.0175532;0.00512313;0.114923;0.115121;-0.017751;0.066436;0.152739;6.54714;0.0832972;0.0885814;6.48532;0.154195;87.3407;132.341;-0.00471012;-0.0175574;0.00427427;0.00587113;0.114927;-0.00638967;0.0769702;0;0.10893;8.38368;7.04478
730000;731;29.2154;3.46263;0.134456;-2.61679;29.0968;-0.264622;-0.282713;3.46291;-1.07872;0.0169467;0.414547;-0.856291;0.95151;-7.86269;-0.0177548;-0.00219817;0.0875503;0.0875962;-0.0178006;0.0526984;0.202795;4.93109;0.0651467;0.0702645;4.92096;0.203212;89.507;134.507;-0.00585153;-0.0177523;-0.00443755;-0.000175617;0.0875435;0.00573779;-0.0166871;0;0.0786353;-0.257418;-3.01496;-1.87095;3.55763;-8.04776;-0.0177722;0.00509498;0.11454;0.114736;-0.0179681;0.0663519;0.155161;6.44491;0.0831297;0.0884692;6.38554;0.156604;86.9005;131.9;-0.00357916;-0.017781;0.00340484;0.00658447;0.114546;-0.00756645;0.0774918;0;0.10601;8.38018;7.0523
731000;732;29.2267;3.47388;0.134893;-2.62131;29.1076;-0.274769;-0.287234;3.47371;-1.08887;0.0155987;0.418229;-0.859427;0.955915;-7.86156;-0.0189299;-0.00346908;0.0885838;0.0886956;-0.0190417;0.0538686;0.213695;4.67957;0.0663941;0.0718249;4.65797;0.214686;90.1345;135.135;-0.00772261;-0.0189248;-0.00573709;-0.00142506;0.0885742;0.0070904;-0.0203277;0;0.0820753;-0.25921;-3.02206;-1.87524;3.56603;-8.05229;-0.0177415;0.00502306;0.11494;0.11513;-0.0179314;0.0665305;0.154355;6.47856;0.0833754;0.0887073;6.42055;0.15575;87.376;132.376;-0.00540981;-0.0177457;0.00415481;0.00578798;0.114943;-0.00696558;0.0889517;0;0.100061;8.37997;7.05949
732000;733;29.2421;3.48931;0.135492;-2.6268;29.1228;-0.259182;-0.292729;3.48885;-1.07328;0.0164853;0.424415;-0.862862;0.961733;-7.86499;-0.0187683;-0.00244134;0.0889129;0.0889683;-0.0188236;0.0538959;0.211086;4.73741;0.066481;0.0718612;4.72643;0.211576;89.4518;134.452;-0.00638398;-0.0187652;-0.00490632;-0.00022011;0.0889046;0.00557512;-0.0222002;0;0.0773469;-0.260316;-3.02714;-1.88302;3.57451;-8.06007;-0.0176034;0.00440611;0.115657;0.115803;-0.0177489;0.0667758;0.152203;6.57016;0.0837475;0.0890345;6.52449;0.153269;87.4295;132.429;-0.00653449;-0.0176092;0.00310971;0.00554766;0.115662;-0.00650561;0.0759111;0;0.107982;8.37723;7.0666
733000;734;29.2523;3.49953;0.135889;-2.61864;29.1338;-0.255875;-0.284562;3.49987;-1.06997;0.0168886;0.429771;-0.86189;0.963246;-7.86402;-0.0189616;-0.00215313;0.0883588;0.088402;-0.0190048;0.0537034;0.214598;4.65987;0.0661855;0.0716046;4.65156;0.214982;89.4233;134.423;-0.00451714;-0.0189593;-0.00443068;-0.000100145;0.0883519;-0.00146266;-0.0254743;0;0.0858449;-0.260687;-3.03516;-1.87864;3.57903;-8.05544;-0.0173159;0.00433058;0.116229;0.11637;-0.0174562;0.0669129;0.148981;6.71228;0.0840052;0.0892172;6.66637;0.150007;87.4632;132.463;-0.00598068;-0.0173217;0.00301722;0.0054868;0.116234;-0.00987001;0.0714653;0;0.100285;8.3726;7.07297
734000;735;29.2628;3.50997;0.136295;-2.62248;29.1438;-0.272933;-0.288403;3.50986;-1.08703;0.0166;0.432387;-0.862142;0.964636;-7.86033;-0.018829;-0.00241371;0.0885397;0.0885939;-0.0188832;0.0537386;0.212662;4.7023;0.0662601;0.0716514;4.69167;0.213144;89.4808;134.481;-0.00399085;-0.0188261;-0.00480938;-0.00025432;0.0885317;0.00706252;-0.0222053;0;0.0658315;-0.262777;-3.04385;-1.88638;3.59061;-8.0691;-0.0170768;0.00391437;0.115362;0.115478;-0.0171924;0.0663351;0.148027;6.75551;0.0833095;0.0884469;6.71681;0.14888;87.6194;132.619;-0.00394625;-0.0170821;0.00259553;0.00507662;0.115366;-0.00625791;0.0729813;0;0.0982353;8.37097;7.07994
735000;736;;;;;;;;;;0.0157411;0.440142;-0.868494;0.973783;-7.86785;-0.0183952;-0.00269031;0.0897374;0.0898043;-0.0184621;0.0541332;0.20499;4.87829;0.0668785;0.0721776;4.86424;0.205582;89.7831;134.783;-0.00387251;-0.0183918;-0.00491978;-0.000682044;0.0897296;0.000497814;-0.0275804;0;0.0704262;-0.265129;-3.05302;-1.89228;3.60166;-8.07719;-0.0165399;0.00417563;0.11473;0.114863;-0.0166726;0.0657676;0.144163;6.93657;0.0826948;0.0876902;6.88932;0.145152;87.1648;132.165;-0.00128449;-0.0165486;0.00223547;0.0058873;0.114736;0.00273346;0.0785987;0;0.113091;8.36806;7.08578
736000;737;29.285;3.53213;0.137155;-2.62541;29.1657;-0.278572;-0.291338;3.53179;-1.09267;0.0159997;0.44113;-0.859076;0.965849;-7.85726;-0.0192281;-0.00337347;0.0891668;0.0892717;-0.019333;0.0543023;0.215642;4.63732;0.0668965;0.0724031;4.61759;0.216563;89.8631;134.863;-0.00437272;-0.0192229;-0.0059271;-0.00107397;0.0891559;-0.00386886;-0.0210746;0;0.0848084;-0.265433;-3.05907;-1.88206;3.60146;-8.06081;-0.0167199;0.00461946;0.11484;0.115002;-0.0168819;0.0659418;0.145593;6.86844;0.0828702;0.0879224;6.81213;0.146797;86.839;131.839;0.00069907;-0.0167309;0.00241785;0.00656125;0.114847;-0.00176811;0.0795129;0;0.109746;8.36473;7.08773
737000;738;29.2991;3.5463;0.137705;-2.62991;29.1796;-0.265021;-0.29584;3.54574;-1.07912;0.0156028;0.452969;-0.880226;0.990062;-7.87841;-0.0183666;-0.0025892;0.0895451;0.0896072;-0.0184287;0.0540179;0.20511;4.87544;0.0667346;0.0720239;4.86238;0.205661;89.0574;134.057;-0.00136995;-0.0183632;-0.00573164;0.000242018;0.0895331;-0.00332818;-0.011748;0;0.0679159;-0.265728;-3.06067;-1.89829;3.61134;-8.07524;-0.0178147;0.00530906;0.115206;0.115418;-0.0180262;0.066722;0.154633;6.46694;0.0836042;0.0889627;6.40278;0.156182;87.5164;132.516;-0.00816719;-0.0178165;0.00492681;0.00564571;0.115208;-0.00236951;0.0780902;0;0.111845;8.36452;7.09437
738000;739;29.316;3.56314;0.138359;-2.62983;29.1966;-0.256407;-0.295752;3.56273;-1.07051;0.0172491;0.454146;-0.872511;0.98378;-7.8707;-0.0185332;-0.00327965;0.0890163;0.0891163;-0.0186332;0.0538747;0.2082;4.80306;0.0664979;0.0718329;4.78267;0.209088;89.4066;134.407;-9.10281e-05;-0.0185279;-0.00641975;-0.000449624;0.0890024;-0.00626865;-0.00912148;0;0.0666957;-0.265445;-3.07087;-1.89162;3.61648;-8.06842;-0.0176601;0.00495956;0.11576;0.115944;-0.0178442;0.0668942;0.152558;6.55489;0.0838793;0.0891923;6.49758;0.153903;87.0484;132.048;-0.00397908;-0.0176681;0.00338164;0.00634879;0.115766;-0.00814674;0.0759186;0;0.110564;8.36574;7.10175
739000;740;29.3267;3.57389;0.138777;-2.62657;29.2076;-0.272398;-0.292499;3.57368;-1.0865;0.0171283;0.458538;-0.867915;0.981746;-7.86932;-0.0184691;-0.00281558;0.0880948;0.0881691;-0.0185435;0.0533563;0.209651;4.76984;0.0658369;0.0711417;4.75472;0.210317;89.1271;134.127;-0.00572697;-0.0184651;-0.0059773;3.65129e-05;0.088082;0.00918628;-0.032692;0;0.0736116;-0.265871;-3.07984;-1.88896;3.62274;-8.06601;-0.0176889;0.00482391;0.116104;0.116278;-0.0178626;0.0670703;0.152353;6.56368;0.0841075;0.089427;6.50958;0.15362;87.1629;132.163;-0.00647592;-0.0176962;0.00333804;0.00613164;0.11611;-0.00792155;0.0802731;0;0.103998;8.36311;7.10976
740000;741;29.3425;3.58969;0.13939;-2.63067;29.2232;-0.255136;-0.296593;3.58933;-1.06923;0.0155138;0.465962;-0.876113;0.992439;-7.88144;-0.0182093;-0.00257773;0.0881709;0.0882333;-0.0182718;0.0532525;0.206523;4.84207;0.0657644;0.0710034;4.82894;0.207085;88.9743;133.974;-0.00452813;-0.018206;-0.00579188;0.000322217;0.0881585;0.00505569;-0.0298295;0;0.0786359;-0.268691;-3.08615;-1.89972;3.63393;-8.07678;-0.0171875;0.00444686;0.116482;0.11663;-0.0173353;0.0669827;0.147555;6.77714;0.0841293;0.0893103;6.7279;0.148635;87.8079;132.808;-0.00446023;-0.0171899;0.003888;0.0049388;0.116484;-0.00825843;0.0759926;0;0.102164;8.35737;7.11602
741000;742;29.3508;3.59796;0.139711;-2.63472;29.231;-0.27238;-0.300645;3.59712;-1.08648;0.0175517;0.469719;-0.873729;0.992143;-7.88013;-0.0172433;-0.00285863;0.0882512;0.0883286;-0.0173207;0.0528247;0.195389;5.11799;0.0654281;0.0704329;5.09959;0.196094;89.6243;134.624;-0.00245173;-0.0172393;-0.0054614;-0.000508158;0.0882413;-0.00337119;-0.0278201;0;0.0683619;-0.268335;-3.09737;-1.90036;3.64377;-8.08307;-0.0172162;0.00419545;0.116005;0.116137;-0.0173482;0.0667428;0.148408;6.73817;0.0838083;0.0889904;6.69451;0.149376;87.452;132.452;-0.00451105;-0.0172224;0.00275959;0.00545991;0.11601;-0.00776487;0.0774487;0;0.0970329;8.35399;7.12347
742000;743;29.3707;3.61784;0.140483;-2.62881;29.2515;-0.269505;-0.294735;3.61764;-1.0836;0.0172858;0.47319;-0.875028;0.994928;-7.87825;-0.0174899;-0.0021457;0.0880058;0.0880494;-0.0175335;0.0527915;0.198735;5.03182;0.0653331;0.0703886;5.02179;0.199132;88.9648;133.965;-0.00205921;-0.0174877;-0.00509758;0.000519971;0.087996;-0.00759496;-0.0227843;0;0.0695805;-0.269415;-3.10523;-1.90313;3.65198;-8.08585;-0.0173466;0.00419596;0.115528;0.11566;-0.017479;0.0665694;0.150151;6.65994;0.0835447;0.0887593;6.61708;0.151124;87.5039;132.504;-0.00536245;-0.0173523;0.00287826;0.00535669;0.115532;-0.00283811;0.0805998;0;0.102224;8.35046;7.12999
743000;744;;;;;;;;;;0.0168781;0.47989;-0.87953;1.00207;-7.88593;-0.0178291;-0.00307705;0.0875864;0.0876762;-0.0179188;0.0527975;0.20356;4.91255;0.0652491;0.0703967;4.89296;0.204375;89.9076;134.908;-0.00183682;-0.0178248;-0.00541453;-0.000966107;0.0875773;-0.00550092;-0.0209566;0;0.082606;-0.272077;-3.1131;-1.90651;3.66063;-8.09143;-0.0164391;0.00447863;0.115155;0.115307;-0.0165913;0.0659491;0.142757;7.00492;0.0829566;0.0879321;6.94982;0.143889;86.8415;131.842;-0.000132879;-0.0164506;0.00214949;0.0065329;0.115161;-0.00074937;0.0802467;0;0.110239;8.3465;7.13758
744000;745;29.3889;3.63611;0.141193;-2.63487;29.2692;-0.280878;-0.300798;3.63532;-1.09498;0.0167178;0.482732;-0.879004;1.00297;-7.87907;-0.0185083;-0.00292578;0.0890483;0.0891278;-0.0185878;0.0538578;0.207846;4.81126;0.0664863;0.0718104;4.79495;0.208553;90.3228;135.323;-0.00382454;-0.018505;-0.00458169;-0.00143341;0.0890426;0.00298048;-0.0163918;0;0.0774064;-0.272302;-3.11745;-1.906;3.66408;-8.08305;-0.0178075;0.00487853;0.116283;0.11646;-0.0179847;0.0672223;0.15314;6.52999;0.0842769;0.0896297;6.47548;0.154429;87.5205;132.52;-0.00644284;-0.017811;0.00411365;0.00555154;0.116286;0.00448309;0.0783362;0;0.112506;8.34402;7.14491
745000;746;29.4027;3.64984;0.141726;-2.6357;29.2829;-0.285675;-0.301622;3.64899;-1.09977;0.018085;0.489615;-0.883508;1.01027;-7.88244;-0.0187208;-0.0033524;0.0883336;0.0884384;-0.0188257;0.0536321;0.211933;4.71846;0.0661335;0.0715094;4.69775;0.212868;90.4369;135.437;-0.00359326;-0.0187166;-0.00514551;-0.00173567;0.0883266;0.0106263;-0.013179;0;0.073356;-0.271782;-3.12317;-1.9134;3.67275;-8.09045;-0.0175915;0.00474315;0.116287;0.116454;-0.0177593;0.0671068;0.151277;6.61039;0.0841828;0.0894758;6.55736;0.1525;87.5371;132.537;-0.00557894;-0.0175953;0.00390396;0.00548169;0.11629;-0.00290645;0.0824532;0;0.110507;8.33638;7.15281
746000;747;29.4138;3.66098;0.142159;-2.63654;29.294;-0.285339;-0.302461;3.66011;-1.09944;0.018543;0.495651;-0.884826;1.01436;-7.88376;-0.0186708;-0.00285757;0.0884225;0.0884987;-0.018747;0.0536229;0.211154;4.73588;0.0661398;0.0714971;4.7207;0.211833;89.9705;134.97;-0.000939946;-0.0186671;-0.00492267;-0.00099565;0.0884152;0.00108819;-0.0139805;0;0.0702453;-0.272666;-3.1293;-1.91353;3.6781;-8.09048;-0.0176985;0.0052517;0.116213;0.116419;-0.0179041;0.0671613;0.152294;6.56627;0.0842172;0.0895484;6.50233;0.153791;87.2067;132.207;-0.0085667;-0.0177039;0.00419436;0.00618219;0.116217;-0.00518483;0.0850629;0;0.104642;8.31743;7.15286
747000;748;29.4209;3.66809;0.142434;-2.63644;29.3012;-0.284318;-0.302368;3.66726;-1.09842;0.0179767;0.500316;-0.886167;1.01781;-7.8851;-0.0188004;-0.00344066;0.0896374;0.0897465;-0.0189095;0.054328;0.209738;4.76785;0.0670292;0.0724373;4.74612;0.210699;90.2083;135.208;-0.000819405;-0.0187955;-0.00560831;-0.00148872;0.0896284;-0.00033701;-0.017112;0;0.0765533;-0.273832;-3.13182;-1.91471;3.68095;-8.09166;-0.0175353;0.00511039;0.116956;0.11715;-0.0177292;0.0674394;0.149931;6.66974;0.0846307;0.0899191;6.60773;0.151338;87.2433;132.243;-0.00879944;-0.017541;0.00397874;0.00610577;0.11696;-0.00721491;0.0836988;0;0.102269;8.27763;7.15369
748000;749;29.4302;3.67741;0.142797;-2.63748;29.3103;-0.294042;-0.303408;3.67643;-1.10814;0.0179537;0.502675;-0.886337;1.01912;-7.8864;-0.0179763;-0.00313918;0.089231;0.0893228;-0.0180681;0.0536955;0.201458;4.96381;0.0663958;0.071594;4.94367;0.202279;90.16;135.16;0.000640122;-0.0179721;-0.00519454;-0.00128611;0.0892231;-0.0037396;-0.0254761;0;0.0746836;-0.2751;-3.14141;-1.91741;3.6906;-8.09446;-0.0171475;0.00443217;0.116883;0.117029;-0.0172939;0.0671617;0.146707;6.81632;0.0843771;0.0895489;6.76708;0.147774;87.7894;132.789;-0.00504321;-0.0171501;0.00381253;0.00497746;0.116885;-0.00638071;0.0810676;0;0.10252;8.34295;7.16789
749000;750;29.4394;3.68661;0.143154;-2.63929;29.3194;-0.298522;-0.305218;3.68546;-1.11262;0.0183835;0.508056;-0.883836;1.01962;-7.8839;-0.0182408;-0.00231904;0.0895675;0.0896174;-0.0182907;0.053954;0.203654;4.91028;0.0666833;0.0719387;4.89962;0.204097;89.5678;134.568;-0.000993617;-0.0182381;-0.00457861;-0.000283029;0.0895604;-0.00225859;-0.0251083;0;0.071836;-0.276103;-3.15267;-1.91672;3.69991;-8.09974;-0.0170778;0.00410758;0.116695;0.116821;-0.0172038;0.0670125;0.146345;6.83315;0.0842032;0.0893499;6.79043;0.147266;87.9781;132.978;-0.00684408;-0.0170798;0.00359347;0.00456011;0.116697;-0.00536488;0.0824957;0;0.0985707;8.33042;7.17425
750000;751;29.4554;3.70256;0.143773;-2.64025;29.3353;-0.297659;-0.306173;3.70139;-1.11176;0.0187546;0.514626;-0.890102;1.02833;-7.89017;-0.0174112;-0.00274772;0.0902672;0.0903372;-0.0174813;0.0539092;0.192885;5.18444;0.0668186;0.071879;5.16766;0.193511;89.8667;134.867;0.00116004;-0.0174076;-0.00496009;-0.00075383;0.0902593;-0.0110884;-0.0282288;0;0.0806574;-0.277596;-3.15802;-1.92315;3.70792;-8.10587;-0.0169143;0.00423022;0.117057;0.117191;-0.0170478;0.0671193;0.144496;6.9206;0.0843857;0.0894924;6.87426;0.14547;87.2207;132.221;-0.00483582;-0.016923;0.00233053;0.00590206;0.117063;-0.0028848;0.0774567;0;0.104302;8.32474;7.18185
751000;752;;;;;;;;;;0.0185736;0.518873;-0.889792;1.0302;-7.88872;-0.018188;-0.00291899;0.0902751;0.0903536;-0.0182665;0.0543101;0.201473;4.96344;0.0671578;0.0724134;4.94641;0.202167;89.5344;134.534;-0.00174724;-0.0181838;-0.00567559;-0.000436608;0.0902642;-0.00059582;-0.020414;0;0.0775326;-0.279512;-3.16971;-1.92225;3.71756;-8.10756;-0.0164085;0.00487602;0.116097;0.116276;-0.0165877;0.0664321;0.141334;7.07544;0.0835972;0.0885761;7.00981;0.142657;86.9645;131.965;-0.0031528;-0.0164177;0.00306772;0.00646963;0.116104;0.00390977;0.0845154;0;0.116982;8.33566;7.18873
752000;753;29.4977;3.74489;0.145417;-2.64361;29.3779;-0.261209;-0.309536;3.74395;-1.07531;0.0183235;0.524157;-0.888545;1.03179;-7.89132;-0.0185451;-0.00322363;0.0896047;0.0897007;-0.0186411;0.0541709;0.206966;4.83172;0.0668858;0.0722279;4.81199;0.207814;89.4328;134.433;-0.00521145;-0.0185399;-0.00630199;-0.000450792;0.0895913;0.00268248;-0.0222589;0;0.0707581;-0.279251;-3.17804;-1.92167;3.72435;-8.09872;-0.0177495;0.0044979;0.117011;0.117161;-0.0178994;0.0675304;0.15169;6.59239;0.0847068;0.0900405;6.54553;0.152776;87.9159;132.916;-0.0077244;-0.0177509;0.00416012;0.00479494;0.117013;0.00282057;0.0799208;0;0.11556;8.32521;7.19626
753000;754;29.5133;3.76045;0.146021;-2.6454;29.3933;-0.26502;-0.311326;3.75937;-1.07912;0.0182709;0.529347;-0.889519;1.03527;-7.8923;-0.0183042;-0.00180451;0.0895709;0.0896011;-0.0183344;0.0539678;0.204355;4.89346;0.066691;0.071957;4.88705;0.204623;88.8373;133.837;-0.00275014;-0.0183029;-0.00468424;0.000790116;0.0895624;-0.00460204;-0.0324235;0;0.0752593;-0.281229;-3.18635;-1.92423;3.7329;-8.10103;-0.0175567;0.00517817;0.117308;0.117506;-0.0177553;0.0676307;0.149664;6.68164;0.0848772;0.0901743;6.61811;0.151101;87.0366;132.037;-0.00431689;-0.0175645;0.00368423;0.00649178;0.117314;-0.00780856;0.0802294;0;0.107658;8.30981;7.20295
754000;755;29.5272;3.77442;0.146564;-2.64677;29.4072;-0.261008;-0.312692;3.77332;-1.07511;0.0185582;0.537321;-0.892364;1.04181;-7.89932;-0.0181414;-0.00228798;0.0893477;0.0893964;-0.0181901;0.0537933;0.203043;4.92507;0.0664955;0.0717243;4.91457;0.203477;89.6302;134.63;-0.00503493;-0.0181388;-0.00444111;-0.000347299;0.0893411;-0.00420515;-0.026102;0;0.0779395;-0.282579;-3.19281;-1.92815;3.74054;-8.10495;-0.0174066;0.00494174;0.116881;0.117062;-0.0175882;0.0673253;0.148926;6.71472;0.0845165;0.089767;6.65571;0.150247;87.2217;132.222;-0.00458743;-0.0174131;0.0036353;0.00609109;0.116886;-0.00501689;0.0876112;0;0.104262;8.30281;7.21035
755000;756;29.5488;3.79584;0.147394;-2.6523;29.4285;-0.242752;-0.318223;3.79457;-1.05994;0.0186228;0.541896;-0.89762;1.04868;-7.89765;-0.0174672;-0.00221298;0.0893446;0.0893905;-0.0175131;0.0534518;0.195504;5.11498;0.066208;0.071269;5.10422;0.195916;89.4109;134.411;-0.00443871;-0.0174647;-0.00464256;-2.16138e-05;0.089337;-0.0024428;-0.00953463;0;0.0670467;-0.283438;-3.20226;-1.92951;3.74937;-8.10656;-0.0169257;0.00414782;0.117381;0.117509;-0.0170537;0.0672812;0.144195;6.93505;0.0845986;0.0897083;6.89051;0.145127;88.1354;133.135;-0.00576347;-0.0169265;0.00395711;0.0043156;0.117381;-0.00749874;0.0807069;0;0.10552;8.29505;7.21799
756000;757;29.56;3.80721;0.147837;-2.64989;29.4398;-0.268283;-0.315815;3.80589;-1.08238;0.0198404;0.548257;-0.902504;1.05617;-7.90635;-0.0177935;-0.0022047;0.087546;0.0875921;-0.0178396;0.0527158;0.203247;4.92012;0.0651604;0.0702878;4.90998;0.203667;89.6839;134.684;-0.00264273;-0.0177911;-0.00421199;-0.000391825;0.08754;-0.00481134;-0.0191543;0;0.0720775;-0.283888;-3.21218;-1.93839;3.76245;-8.1211;-0.0172103;0.00425663;0.116896;0.117031;-0.0173453;0.0671883;0.147227;6.79221;0.0843988;0.0895844;6.74714;0.148211;87.3033;132.303;-0.00517275;-0.017218;0.00254489;0.00576283;0.116901;-0.00210155;0.0842724;0;0.0999423;8.28048;7.22576
757000;758;;;;;;;;;;0.0197468;0.550457;-0.895991;1.05176;-7.89984;-0.0184135;-0.0021566;0.0885952;0.0886387;-0.0184569;0.0535478;0.207838;4.81143;0.0661093;0.0713971;4.80246;0.208227;89.69;134.69;-0.00355741;-0.0184112;-0.00411058;-0.000394687;0.0885896;-0.00253801;-0.0193127;0;0.076318;-0.284861;-3.22095;-1.93885;3.77026;-8.12416;-0.0163527;0.00464047;0.116373;0.116535;-0.0165147;0.0665248;0.14052;7.11643;0.0837394;0.0886997;7.05642;0.141715;86.9385;131.939;-0.00380309;-0.016363;0.00257077;0.00646409;0.11638;0.00139642;0.0881818;0;0.118477;8.28407;7.23148
758000;759;29.5779;3.82512;0.148532;-2.6561;29.4571;-0.279266;-0.322029;3.82321;-1.09336;0.0217507;0.555514;-0.896783;1.05513;-7.89571;-0.0189592;-0.00238211;0.0880449;0.0880979;-0.0190122;0.053555;0.215335;4.64392;0.0659887;0.0714067;4.63376;0.215807;89.8065;134.806;-0.00257221;-0.0189565;-0.00431004;-0.000643781;0.088039;0.00695141;-0.0174054;0;0.0751313;-0.284769;-3.22564;-1.93603;3.7728;-8.11499;-0.0169581;0.00486486;0.116948;0.117124;-0.0171346;0.0671294;0.145006;6.89629;0.0843763;0.0895059;6.83555;0.146294;86.9299;131.93;-0.000851459;-0.016968;0.00292996;0.00656779;0.116955;0.00013166;0.0791461;0;0.116581;8.28045;7.23459
759000;760;29.595;3.84213;0.149193;-2.65988;29.474;-0.261002;-0.325806;3.84012;-1.0751;0.0200395;0.562501;-0.89973;1.06128;-7.90358;-0.0179306;-0.00233105;0.0875034;0.0875549;-0.0179821;0.0527685;0.204913;4.88011;0.0651959;0.070358;4.86899;0.205381;89.8484;134.848;-0.00189633;-0.0179281;-0.00420455;-0.000639182;0.0874978;-0.00449551;-0.0158316;0;0.0793784;-0.285744;-3.23227;-1.93819;3.77965;-8.11524;-0.0176549;0.00471779;0.117571;0.117735;-0.0178193;0.0677771;0.150164;6.65937;0.0850542;0.0903695;6.60716;0.151351;87.8097;132.81;-0.00922202;-0.0176566;0.00433854;0.00505115;0.117572;0.00115385;0.0854419;0;0.116686;8.27342;7.24001
760000;761;29.6087;3.85592;0.149728;-2.65716;29.488;-0.269243;-0.323085;3.85413;-1.08334;0.0198161;0.566711;-0.897032;1.06124;-7.90088;-0.0178726;-0.00184459;0.0886702;0.0887021;-0.0179046;0.0533034;0.201563;4.96123;0.0659185;0.0710711;4.95416;0.20185;89.444;134.444;0.00045936;-0.0178709;-0.00392851;3.5401e-05;0.0886647;-0.00733556;-0.0229499;0;0.0702633;-0.287109;-3.24031;-1.94017;3.78765;-8.11723;-0.0175704;0.00486111;0.117435;0.11761;-0.0177452;0.0676777;0.149617;6.68372;0.0849419;0.0902369;6.62773;0.150881;87.546;132.546;-0.00502489;-0.0175739;0.00409275;0.00553663;0.117438;-0.00386151;0.0860249;0;0.104721;8.27164;7.24698
761000;762;29.6064;3.85362;0.149639;-2.6523;29.4858;-0.306654;-0.318227;3.8519;-1.12075;0.0212768;0.574605;-0.905455;1.0726;-7.90823;-0.0182349;-0.00237236;0.08855;0.0886027;-0.0182876;0.0534451;0.205928;4.85607;0.0660141;0.0712601;4.84497;0.2064;89.5299;134.53;0.000512379;-0.0182321;-0.0047027;-0.000270608;0.0885424;-0.0036186;-0.0273132;0;0.0695344;-0.287538;-3.24746;-1.94963;3.79865;-8.12668;-0.0173289;0.00464495;0.117572;0.117732;-0.0174887;0.0676103;0.14739;6.78473;0.0849199;0.090147;6.73189;0.148547;87.7996;132.8;-0.00342484;-0.0173309;0.00419387;0.00504157;0.117574;-0.00622565;0.0883146;0;0.103917;8.26645;7.255
762000;763;29.6278;3.87497;0.150468;-2.65174;29.5074;-0.291851;-0.317663;3.87353;-1.10595;0.0214208;0.579424;-0.905767;1.07546;-7.9047;-0.0184998;-0.00175398;0.0898788;0.0899072;-0.0185281;0.0542177;0.20583;4.85838;0.066974;0.0722902;4.85247;0.206081;89.2479;134.248;-0.00120679;-0.0184982;-0.00403651;0.000301582;0.0898728;-0.00033026;-0.0212194;0;0.0707091;-0.289238;-3.25694;-1.94642;3.80524;-8.12347;-0.0172575;0.00424423;0.117928;0.118061;-0.0173906;0.0677258;0.14634;6.83342;0.0850986;0.0903011;6.78877;0.147302;88.0567;133.057;-0.00800906;-0.0172586;0.00395587;0.00449772;0.117929;-0.00539839;0.0832672;0;0.103446;8.25498;7.26207
763000;764;29.6442;3.89136;0.151104;-2.65399;29.5237;-0.292075;-0.319913;3.88979;-1.10617;0.0216206;0.585578;-0.908119;1.08076;-7.90818;-0.0180511;-0.00237505;0.0903511;0.0904031;-0.0181031;0.0542531;0.199788;5.0053;0.0671218;0.0723375;4.99379;0.200249;89.7046;134.705;-0.00125618;-0.0180483;-0.00450981;-0.000452515;0.0903443;-0.00871126;-0.0212884;0;0.0682866;-0.291004;-3.26632;-1.95222;3.81637;-8.13494;-0.0169343;0.00438298;0.117595;0.117738;-0.0170769;0.0674073;0.144005;6.94421;0.0847594;0.0898763;6.89455;0.145042;87.5528;132.553;-0.0041617;-0.0169393;0.0032379;0.00539022;0.117599;-0.00279185;0.0824102;0;0.105159;8.24416;7.26985
764000;765;;;;;;;;;;0.0211588;0.59159;-0.908519;1.08436;-7.9113;-0.0181828;-0.00146772;0.0894533;0.0894733;-0.0182028;0.0538381;0.203266;4.91966;0.0665515;0.0717841;4.91535;0.203444;88.6932;133.693;-0.00161091;-0.0181823;-0.00430247;0.00108698;0.0894458;-0.00461947;-0.0255607;0;0.0687604;-0.292626;-3.27612;-1.95519;3.8264;-8.14049;-0.0165052;0.00461688;0.11636;0.11652;-0.0166654;0.0665928;0.141846;7.04989;0.0837895;0.0887904;6.99172;0.143026;87.0615;132.062;-0.0036128;-0.0165142;0.00276645;0.00624707;0.116366;0.00441627;0.0845289;0;0.122888;8.24208;7.2771
765000;766;29.6711;3.91829;0.15215;-2.65566;29.5506;-0.292763;-0.321589;3.91667;-1.10686;0.0210286;0.597669;-0.909609;1.0886;-7.91239;-0.0185396;-0.00155979;0.0883868;0.0884096;-0.0185623;0.053486;0.209755;4.76747;0.066003;0.0713146;4.76285;0.209958;88.569;133.569;-0.000924028;-0.018539;-0.00457367;0.00115801;0.0883783;-0.00388211;-0.0266242;0;0.0684051;-0.292397;-3.27999;-1.95525;3.82972;-8.13347;-0.0174086;0.00465092;0.117426;0.117586;-0.0175689;0.0675773;0.148252;6.74525;0.0848552;0.0901031;6.69285;0.149413;87.6802;132.68;-0.00561566;-0.0174116;0.00397486;0.00524541;0.117428;0.00116545;0.0820181;0;0.112745;8.23235;7.28457
766000;767;29.6902;3.9374;0.152892;-2.65929;29.5697;-0.266077;-0.325211;3.93579;-1.08018;0.0216655;0.602658;-0.914989;1.09584;-7.91777;-0.0183375;-0.00157428;0.0888417;0.0888648;-0.0183606;0.0536127;0.206406;4.84481;0.0662174;0.0714836;4.83997;0.206613;88.7242;133.724;-0.00212615;-0.0183367;-0.00441639;0.000988087;0.0888339;-0.00115411;-0.026193;0;0.0764431;-0.292587;-3.28711;-1.95942;3.83797;-8.13647;-0.0178032;0.00459801;0.117654;0.11781;-0.0179591;0.0678844;0.151319;6.60858;0.0851597;0.0905125;6.55989;0.152442;87.7655;132.766;-0.00660418;-0.0178057;0.0040281;0.00509885;0.117656;0.00332434;0.0841281;0;0.113722;8.22159;7.29176
767000;768;29.7115;3.95872;0.15372;-2.66411;29.5908;-0.252054;-0.330034;3.95688;-1.06615;0.0214443;0.607209;-0.912425;1.09621;-7.91627;-0.0180309;-0.00169884;0.0893516;0.0893784;-0.0180577;0.0537181;0.201797;4.95548;0.0664281;0.0716241;4.94959;0.202037;89.164;134.164;-0.000960676;-0.0180295;-0.00406433;0.000433476;0.0893453;-0.00303384;-0.0250786;0;0.0705533;-0.293609;-3.29457;-1.96109;3.84529;-8.1379;-0.017542;0.00479579;0.117846;0.118015;-0.0177117;0.0678635;0.148856;6.71791;0.0851966;0.0904846;6.66313;0.15008;87.1985;132.198;-0.00482147;-0.0175494;0.00327807;0.00612969;0.117851;-0.00842481;0.0862456;0;0.1075;8.21832;7.29785
768000;769;29.7176;3.96478;0.153955;-2.66154;29.597;-0.268582;-0.327461;3.96306;-1.08268;0.0215995;0.612853;-0.914212;1.10084;-7.91806;-0.0175895;-0.00185821;0.0894577;0.0894899;-0.0176218;0.0535559;0.196624;5.08585;0.0663189;0.0714078;5.07837;0.196914;89.4501;134.45;-0.00101171;-0.0175878;-0.00397041;4.64554e-05;0.089452;-0.00369392;-0.0168607;0;0.0663437;-0.294924;-3.30339;-1.9593;3.85204;-8.13635;-0.0174501;0.00459754;0.117353;0.117509;-0.0176067;0.067558;0.148698;6.72503;0.0848197;0.0900773;6.6741;0.149833;87.713;132.713;-0.00430586;-0.017453;0.00394316;0.00517297;0.117355;-0.00533655;0.0833955;0;0.103148;8.21398;7.30353
769000;770;29.7287;3.97586;0.154385;-2.66508;29.6076;-0.284564;-0.331008;3.97371;-1.09866;0.0210085;0.619467;-0.914905;1.10509;-7.91875;-0.0176698;-0.0026287;0.088273;0.0883382;-0.017735;0.0530366;0.200172;4.9957;0.0656077;0.0707155;4.98102;0.200762;90.1042;135.104;-0.00175797;-0.0176668;-0.00439516;-0.00103419;0.0882673;0.000954127;-0.0269707;0;0.066747;-0.297991;-3.31517;-1.9642;3.86487;-8.1473;-0.0167568;0.00421919;0.116903;0.117037;-0.0168899;0.0669632;0.143339;6.97646;0.0842207;0.0892843;6.92938;0.144313;87.7995;132.799;-0.00392336;-0.01676;0.00344936;0.0048969;0.116906;-0.00374331;0.0893985;0;0.0966573;8.20559;7.30975
770000;771;29.7503;3.99746;0.155224;-2.66823;29.629;-0.285078;-0.334158;3.99511;-1.09918;0.0203773;0.6253;-0.914228;1.1078;-7.91807;-0.0176932;-0.00273407;0.0884688;0.0885391;-0.0177635;0.0531513;0.199993;5.00016;0.065752;0.0708684;4.98432;0.200629;89.9754;134.975;0.000594869;-0.0176898;-0.00475136;-0.000913517;0.0884618;-0.00417687;-0.0275176;0;0.0673795;-0.299911;-3.32587;-1.96439;3.8743;-8.14748;-0.0172144;0.0041496;0.117326;0.117454;-0.0173423;0.0673981;0.146723;6.81557;0.0846774;0.0898641;6.77269;0.147652;87.4994;132.499;-0.00486604;-0.0172206;0.00271305;0.00541317;0.11733;0.000977499;0.0809819;0;0.106514;8.19646;7.31901
771000;772;;;;;;;;;;0.0218982;0.628972;-0.907824;1.10464;-7.91167;-0.0178445;-0.00162919;0.0876953;0.0877204;-0.0178697;0.052795;0.203483;4.91441;0.0652576;0.0703934;4.9089;0.203711;89.4187;134.419;-0.000847059;-0.0178432;-0.00357428;0.000127176;0.0876906;-0.00597312;-0.0307001;0;0.073917;-0.300415;-3.3315;-1.96665;3.88031;-8.14546;-0.0167335;0.0050113;0.117409;0.117596;-0.0169205;0.067258;0.142524;7.01636;0.0846031;0.0896774;6.94989;0.143887;86.6998;131.7;-0.00259384;-0.0167459;0.00272515;0.00702298;0.117417;-0.00331184;0.0857376;0;0.12218;8.16785;7.32042
772000;773;29.7616;4.00883;0.155666;-2.66553;29.6404;-0.311197;-0.331457;4.0065;-1.12529;0.0222163;0.635915;-0.914719;1.11427;-7.9175;-0.01847;-0.00135094;0.0883996;0.0884167;-0.0184871;0.0534519;0.208938;4.78612;0.0659759;0.0712692;4.78262;0.20909;88.8328;133.833;-0.000147404;-0.0184695;-0.00386727;0.000918315;0.0883936;-0.00405188;-0.0268806;0;0.0703603;-0.300532;-3.33888;-1.9658;3.88623;-8.14285;-0.0175545;0.00457211;0.117598;0.117753;-0.017709;0.0677309;0.149275;6.69905;0.0850219;0.0903079;6.64933;0.150391;87.7483;132.748;-0.00799603;-0.0175572;0.00395473;0.00511483;0.117601;-0.000642755;0.0878598;0;0.112472;8.16229;7.32793
773000;774;29.7755;4.02264;0.156202;-2.66591;29.6542;-0.310411;-0.33184;4.02034;-1.12451;0.022136;0.642856;-0.919247;1.12195;-7.92203;-0.018191;-0.00183928;0.0894806;0.089512;-0.0182224;0.0538672;0.203295;4.91896;0.0665852;0.0718229;4.91221;0.203574;88.9903;133.99;-0.000434722;-0.0181894;-0.00453876;0.000593425;0.0894727;-0.00278143;-0.0293688;0;0.0691221;-0.301947;-3.34389;-1.97092;3.89324;-8.14798;-0.0177323;0.00444401;0.118068;0.118214;-0.0178776;0.0680456;0.150187;6.65839;0.0853944;0.0907275;6.61241;0.151231;88.0104;133.01;-0.00848646;-0.0177332;0.00421434;0.00464578;0.118069;-0.00152391;0.088912;0;0.113577;8.16096;7.33539
774000;775;29.7986;4.04576;0.1571;-2.66548;29.6777;-0.289813;-0.331408;4.04381;-1.10391;0.019923;0.646803;-0.916747;1.12213;-7.92059;-0.0178051;-0.00239758;0.0896975;0.0897509;-0.0178586;0.0538048;0.198502;5.03774;0.0665899;0.0717397;5.02566;0.198979;89.4121;134.412;0.000370379;-0.0178022;-0.00495124;-9.58294e-05;0.0896889;-0.0060434;-0.0283005;0;0.0735634;-0.304641;-3.35386;-1.96865;3.90086;-8.1456;-0.01823;0.00477732;0.117789;0.117957;-0.0183976;0.0681772;0.154768;6.46128;0.0854333;0.090903;6.41153;0.155969;87.5318;132.532;-0.00896756;-0.0182342;0.00388543;0.00556067;0.117793;-0.00410211;0.0900309;0;0.102144;8.15695;7.34323
775000;776;29.8073;4.05446;0.157437;-2.66941;29.6859;-0.312459;-0.335332;4.05196;-1.12656;0.0230234;0.654391;-0.923033;1.1317;-7.92688;-0.0172234;-0.00152562;0.0896553;0.0896771;-0.0172452;0.0534611;0.192107;5.20543;0.0662852;0.0712815;5.20012;0.192303;88.8342;133.834;-0.00091913;-0.0172227;-0.00426244;0.000942761;0.089648;-0.00689697;-0.0291154;0;0.0629573;-0.303379;-3.3622;-1.97728;3.9123;-8.15423;-0.0174707;0.00504261;0.117312;0.117501;-0.0176591;0.06758;0.148925;6.71479;0.0848352;0.0901067;6.65382;0.15029;87.416;132.416;-0.00551282;-0.0174749;0.00417724;0.00580359;0.117316;-0.00777133;0.0955221;0;0.0941989;8.15225;7.34978
776000;777;29.8233;4.07051;0.158061;-2.67358;29.7017;-0.302874;-0.339502;4.0678;-1.11697;0.0226552;0.660342;-0.922561;1.13476;-7.92534;-0.0178695;-0.00112956;0.0901669;0.0901787;-0.0178813;0.05403;0.198182;5.04586;0.0668812;0.07204;5.04318;0.198287;88.1187;133.119;0.000654962;-0.0178708;-0.00455039;0.00195228;0.090158;-0.000107508;-0.0301158;0;0.0676138;-0.306165;-3.37651;-1.97657;3.92446;-8.1596;-0.0176657;0.00425892;0.116825;0.116959;-0.0178005;0.0673799;0.151216;6.61306;0.0845334;0.0898399;6.57057;0.152194;87.1281;132.128;-0.00503767;-0.0176752;0.00220916;0.00606182;0.116831;-0.00529005;0.086933;0;0.0963016;8.13966;7.35731
777000;778;;;;;;;;;;0.0226936;0.667661;-0.926248;1.14202;-7.93009;-0.0178842;-0.00195862;0.0903604;0.0903958;-0.0179197;0.0541577;0.197921;5.05252;0.0670402;0.0722103;5.04451;0.198235;89.2193;134.219;-0.00103407;-0.0178823;-0.00446827;0.000301901;0.090353;-0.00502434;-0.0373789;0;0.0716747;-0.308544;-3.38738;-1.98688;3.93919;-8.17179;-0.0165363;0.00465803;0.116793;0.116956;-0.0166988;0.0668273;0.141586;7.06286;0.0840913;0.089103;7.00384;0.142779;86.7919;131.792;-0.00217704;-0.0165483;0.00229257;0.00674108;0.116801;0.00638698;0.0867503;0;0.117201;8.12074;7.36437
778000;779;29.8702;4.11742;0.159882;-2.68057;29.7485;-0.273239;-0.346496;4.11456;-1.08734;0.0240955;0.675142;-0.931662;1.15082;-7.93551;-0.0175573;-0.00157372;0.0910809;0.0911037;-0.0175801;0.0543419;0.192766;5.18763;0.0673648;0.0724559;5.1822;0.192968;88.9382;133.938;0.000695829;-0.0175564;-0.00422616;0.000814625;0.0910738;-0.00471351;-0.0332753;0;0.0700278;-0.306873;-3.38938;-1.98768;3.94118;-8.16448;-0.0173547;0.00493144;0.117914;0.118093;-0.0175342;0.0678138;0.147181;6.79435;0.0851774;0.0904185;6.73502;0.148478;87.4052;132.405;-0.00562096;-0.0173595;0.00393131;0.00581055;0.117918;-0.00683032;0.0784747;0;0.10743;8.07097;7.36606
779000;780;29.8821;4.12926;0.160342;-2.68137;29.7603;-0.270378;-0.347298;4.1264;-1.08448;0.0245073;0.679803;-0.928216;1.15079;-7.93517;-0.0179123;-0.00238845;0.088871;0.0889244;-0.0179657;0.053445;0.201554;4.96144;0.0660905;0.0712601;4.94967;0.202034;89.5128;134.513;-0.000660118;-0.0179095;-0.00477575;-0.000235259;0.0888631;-0.000434312;-0.0263554;0;0.0698248;-0.306325;-3.39686;-1.98662;3.94705;-8.16606;-0.0178608;0.00476278;0.117389;0.117556;-0.0180283;0.0677923;0.152151;6.57243;0.0850199;0.0903898;6.52065;0.153359;87.2213;132.221;-0.00751409;-0.017868;0.00327875;0.00606718;0.117394;-0.00307844;0.0815617;0;0.1115;8.07541;7.37205
780000;781;29.8931;4.14028;0.16077;-2.68345;29.7712;-0.271421;-0.349374;4.13728;-1.08552;0.0250157;0.678041;-0.919584;1.1428;-7.92343;-0.0179351;-0.00133178;0.0883786;0.0883953;-0.0179518;0.0531735;0.202935;4.92769;0.0657363;0.0708981;4.92404;0.203085;89.0348;134.035;0.000642745;-0.0179344;-0.00358628;0.000702512;0.0883735;-0.00448577;-0.031416;0;0.0656306;-0.307927;-3.40634;-1.98433;3.95418;-8.16138;-0.0178687;0.00470254;0.118314;0.118477;-0.0180309;0.0682538;0.151027;6.62133;0.0856299;0.091005;6.57076;0.152189;87.5484;132.548;-0.00549719;-0.017873;0.00376878;0.00552259;0.118318;-0.00559435;0.0867064;0;0.105692;8.08304;7.37922
781000;782;29.9081;4.15529;0.161353;-2.68235;29.7862;-0.289208;-0.348279;4.15227;-1.10331;0.0235828;0.687484;-0.925921;1.15348;-7.9287;-0.0186098;-0.00209245;0.0914911;0.0915308;-0.0186496;0.0550902;0.203406;4.91629;0.0680937;0.0734536;4.90794;0.203752;89.4893;134.489;0.0011795;-0.0186076;-0.0043151;-9.39959e-05;0.0914846;-0.00439812;-0.0316892;0;0.0664695;-0.311694;-3.41618;-1.98561;3.9636;-8.16266;-0.0175042;0.00451338;0.11786;0.118011;-0.0176545;0.0678326;0.148516;6.73329;0.0851708;0.0904435;6.68447;0.149601;87.8482;132.848;-0.0042529;-0.0175062;0.0040352;0.00493365;0.117862;-0.00504762;0.0860473;0;0.101864;8.07932;7.38671
782000;783;29.931;4.17816;0.162241;-2.6873;29.8088;-0.279459;-0.353229;4.17488;-1.09356;0.0253831;0.696862;-0.932131;1.1641;-7.93491;-0.0182518;-0.00216781;0.0879503;0.0879945;-0.018296;0.0531453;0.207524;4.81873;0.0656175;0.0708604;4.80949;0.207922;89.4035;134.403;-0.00248008;-0.0182494;-0.00450736;-5.66305e-05;0.0879431;0.00629424;-0.0333736;0;0.0815055;-0.312198;-3.43111;-1.99516;3.98128;-8.17787;-0.0172398;0.00440444;0.116569;0.116714;-0.0173846;0.0670492;0.147894;6.76162;0.0842044;0.0893989;6.71363;0.148951;87.251;132.251;-0.00419443;-0.0172475;0.00272794;0.00588002;0.116574;-0.00192599;0.0942209;0;0.0948296;8.05402;7.39885
783000;784;29.9501;4.19728;0.162983;-2.68657;29.8279;-0.299625;-0.352498;4.19395;-1.11372;0.0255;0.704838;-0.931222;1.16817;-7.934;-0.0182624;-0.00194163;0.0906453;0.0906799;-0.018297;0.0544884;0.201471;4.9635;0.0673854;0.0726512;4.956;0.201775;88.8946;133.895;0.000150934;-0.0182607;-0.00487715;0.000700769;0.0906361;-0.000149696;-0.0338116;0;0.0711287;-0.313573;-3.44311;-1.99439;3.99135;-8.17144;-0.017584;0.00448233;0.118162;0.118309;-0.0177319;0.0680207;0.148813;6.71982;0.0853995;0.0906943;6.67213;0.149877;87.6767;132.677;-0.00556287;-0.0175877;0.00363006;0.00523114;0.118165;-0.00472727;0.0787364;0;0.113272;8.02883;7.40778
784000;785;29.9664;4.21362;0.163618;-2.68849;29.8441;-0.303497;-0.354418;4.21015;-1.11759;0.0265012;0.714352;-0.934277;1.17638;-7.93706;-0.0182529;-0.0024664;0.0906154;0.0906712;-0.0183087;0.05449;0.201432;4.96445;0.0673846;0.0726533;4.95235;0.201924;89.1441;134.144;-0.000509784;-0.0182498;-0.00543794;0.000208524;0.0906046;0.00728298;-0.0340233;0;0.0751635;-0.313848;-3.4508;-1.99913;4.00038;-8.17618;-0.0178566;0.0043159;0.118148;0.118285;-0.0179935;0.0681393;0.151138;6.61649;0.0854881;0.0908524;6.57378;0.152119;87.9229;132.923;-0.0075467;-0.0178587;0.00380431;0.00476527;0.11815;-0.000877537;0.0863026;0;0.113916;7.96611;7.40809
785000;786;29.9648;4.212;0.163555;-2.68245;29.8427;-0.327514;-0.348375;4.20881;-1.14161;0.0261213;0.718635;-0.933034;1.17799;-7.93581;-0.0182952;-0.0015664;0.0907145;0.0907371;-0.0183177;0.0545274;0.201679;4.95837;0.0674318;0.0727032;4.95351;0.201877;88.4833;133.483;0.00131445;-0.0182949;-0.0047996;0.00134368;0.0907051;0.00187637;-0.0334229;0;0.0645838;-0.314858;-3.45495;-2.00044;4.0047;-8.17725;-0.0177403;0.0046747;0.118053;0.118213;-0.017901;0.0680572;0.150274;6.65449;0.0854035;0.0907429;6.60372;0.15143;87.4602;132.46;-0.00693642;-0.0177454;0.00355791;0.00565585;0.118057;-0.00492624;0.086205;0;0.104928;7.95525;7.41494
786000;787;29.9936;4.24079;0.164673;-2.68202;29.8721;-0.281966;-0.347942;4.23822;-1.09606;0.0255139;0.726638;-0.943415;1.19109;-7.94619;-0.0183451;-0.001353;0.091692;0.0917086;-0.0183618;0.0550352;0.200074;4.99816;0.06809;0.0733802;4.99454;0.200219;88.2992;133.299;0.00195085;-0.0183456;-0.00472265;0.00167702;0.0916826;-0.00235426;-0.0332999;0;0.0646029;-0.316034;-3.4607;-2.00724;4.01315;-8.18429;-0.0177862;0.004322;0.118155;0.118292;-0.0179235;0.0681079;0.150533;6.64308;0.0854648;0.0908105;6.59986;0.151518;87.8585;132.859;-0.00510921;-0.0177888;0.00369063;0.0048766;0.118157;-0.000496778;0.0840475;0;0.104784;7.95927;7.41816
787000;788;29.9983;4.24547;0.164855;-2.68701;29.8762;-0.30382;-0.352938;4.24226;-1.11792;0.0259895;0.73105;-0.938284;1.18974;-7.9442;-0.0184256;-0.00201586;0.0901348;0.0901722;-0.018463;0.0543176;0.204423;4.89183;0.067121;0.0724235;4.88394;0.204753;88.7515;133.752;0.000623489;-0.0184239;-0.00517741;0.000830863;0.0901243;0.00148987;-0.0350743;0;0.0717686;-0.317279;-3.47029;-2.00805;4.02192;-8.18485;-0.0174694;0.00473592;0.117512;0.117678;-0.0176354;0.0676566;0.148661;6.72672;0.0849428;0.0902088;6.67283;0.149861;87.4059;132.406;-0.00505465;-0.0174748;0.00359005;0.00574337;0.117516;-0.00698398;0.0870933;0;0.0962424;7.95902;7.42962
788000;789;30.0373;4.28447;0.166369;-2.68762;29.9154;-0.290104;-0.353544;4.2815;-1.1042;0.0270486;0.738265;-0.936337;1.19268;-7.94329;-0.017627;-0.00204377;0.0900696;0.0901084;-0.0176657;0.0538871;0.195704;5.10977;0.0667447;0.0718494;5.10075;0.19605;89.2467;134.247;0.000215131;-0.0176249;-0.00458358;0.00024512;0.0900619;-0.00394234;-0.0331602;0;0.0699088;-0.320054;-3.49462;-2.01125;4.04474;-8.19643;-0.0165301;0.0042198;0.116643;0.116777;-0.0166637;0.0667204;0.141715;7.05643;0.083959;0.0889605;7.00788;0.142697;87.2935;132.294;0.00255271;-0.0165379;0.00247608;0.00575555;0.116649;-2.91482e-05;0.0884143;0;0.112771;7.92714;7.43738
789000;790;30.0572;4.30442;0.167144;-2.68856;29.935;-0.323397;-0.354482;4.30111;-1.1375;0.025955;0.750951;-0.942381;1.20527;-7.94516;-0.0182763;-0.0019492;0.0899698;0.0900049;-0.0183114;0.0541582;0.203139;4.92274;0.0669471;0.0722109;4.91523;0.203449;89.2554;134.255;0.0012997;-0.0182744;-0.00437458;0.000235326;0.0899628;-0.00183223;-0.035566;0;0.0720266;-0.322026;-3.50871;-2.01765;4.06025;-8.1947;-0.0180065;0.00425855;0.118708;0.11884;-0.018139;0.0684897;0.151687;6.59251;0.085914;0.0913197;6.55165;0.152633;87.9949;132.995;-0.00791308;-0.0180082;0.00382076;0.00464284;0.11871;-0.00337109;0.0883399;0;0.106555;7.85793;7.44719
790000;791;30.0828;4.32995;0.168135;-2.6999;29.96;-0.28533;-0.365828;4.32611;-1.09943;0.0278116;0.760332;-0.941855;1.21077;-7.94463;-0.0185244;-0.00232873;0.0886177;0.0886683;-0.0185749;0.0536216;0.209037;4.78385;0.0661785;0.0714955;4.77354;0.209488;89.7373;134.737;-0.00142342;-0.0185217;-0.00433794;-0.000517255;0.0886115;-0.0050536;-0.0337761;0;0.0741592;-0.322223;-3.51495;-2.01387;4.06379;-8.19082;-0.0178696;0.00469665;0.11856;0.118721;-0.0180311;0.0683761;0.150723;6.63471;0.0857917;0.0911682;6.58424;0.151878;87.8593;132.859;-0.00843318;-0.0178711;0.00435986;0.00499236;0.118561;-0.00145708;0.0895012;0;0.107393;7.78506;7.44668
791000;792;30.0945;4.34172;0.168592;-2.70123;29.9717;-0.282032;-0.36716;4.33784;-1.09613;0.0280754;0.766814;-0.94427;1.21673;-7.94705;-0.0182043;-0.00261366;0.0897649;0.0898281;-0.0182675;0.0540478;0.2028;4.93097;0.0668123;0.0720637;4.91737;0.203361;89.8386;134.839;-0.00307615;-0.0182011;-0.00472186;-0.000714323;0.0897578;0.000546248;-0.035521;0;0.0697025;-0.322656;-3.5196;-2.01681;4.0693;-8.19386;-0.0177151;0.00407251;0.117638;0.117761;-0.0178375;0.0677992;0.150589;6.64057;0.0850787;0.0903989;6.60186;0.151473;88.1106;133.111;-0.00554704;-0.0177163;0.00374585;0.00435961;0.11764;-0.00351469;0.0854009;0;0.103925;7.77933;7.45234
792000;793;30.1083;4.35552;0.169128;-2.69999;29.9855;-0.302291;-0.365917;4.3516;-1.11639;0.0284914;0.772481;-0.942383;1.21886;-7.94516;-0.0181968;-0.00260604;0.0901663;0.0902289;-0.0182594;0.0542442;0.201814;4.95507;0.0670727;0.0723256;4.9415;0.202368;89.4939;134.494;-0.000893408;-0.0181934;-0.00518835;-0.000280402;0.0901571;0.00192361;-0.0356211;0;0.0699458;-0.323581;-3.52891;-2.01824;4.07814;-8.19504;-0.0174747;0.0046869;0.117678;0.11784;-0.0176371;0.0677385;0.148497;6.73416;0.0850508;0.090318;6.68138;0.14967;87.6056;132.606;-0.00405629;-0.0174784;0.00388424;0.0053925;0.117681;-0.00665;0.0886337;0;0.0908597;7.77526;7.45996
793000;794;30.1358;4.38293;0.170192;-2.69705;30.013;-0.32989;-0.362975;4.3791;-1.14399;0.0287272;0.786756;-0.94686;1.2314;-7.95278;-0.0181315;-0.00196913;0.0897485;0.0897844;-0.0181675;0.0539759;0.202026;4.94986;0.0667415;0.0719679;4.94205;0.202345;88.6968;133.697;-0.000280069;-0.01813;-0.00517569;0.000920014;0.089738;0.00734389;-0.0324876;0;0.0666254;-0.326264;-3.55687;-2.02373;4.10527;-8.20196;-0.0176576;0.00445603;0.118041;0.118187;-0.0178038;0.0679955;0.149589;6.68499;0.0853473;0.0906606;6.63831;0.150641;87.8862;132.886;-0.00542138;-0.0176595;0.00399555;0.00486063;0.118043;2.03878e-05;0.0931004;0;0.11177;7.71546;7.47422
794000;795;;;;;;;;;;;;;;;;;;;;;;;;;;;;;;;;;;;;;;-0.648487;-6.66562;-1.51465;6.86623;-7.69009;-0.0174091;0.00450794;0.11176;0.111917;-0.0175662;0.0647415;0.155773;6.41961;0.0811032;0.086322;6.37113;0.156958;85.7472;130.747;0.00128166;-0.0174327;0.000367654;0.00816713;0.111769;-0.00615943;0.0931862;0;0.0923551;-0.00909025;7.50934
795000;796;;;;;;;;;;;;;;;;;;;;;;;;;;;;;;;;;;;;;;-0.617336;-6.727;-1.49105;6.91787;-7.66674;-0.0169677;0.00477059;0.111676;0.111852;-0.0171444;0.0644983;0.151938;6.58164;0.0808908;0.0859977;6.52412;0.153277;85.8887;130.889;-0.00264935;-0.0169888;0.00110668;0.00801046;0.111685;-0.0127311;0.0983718;0;0.0952884;-0.0101016;7.49404
