Time;Image index (Image index);Distance L(t) (Extensometer 1);Change in distance (Extensometer 1);Strain - RC (Extensometer 1);Distance x L(t) (Extensometer 1);Distance y L(t) (Extensometer 1);Distance z L(t) (Extensometer 1);Change in distance x (Extensometer 1);Change in distance y (Extensometer 1);Change in distance z (Extensometer 1);X-displacement (Strain Gauge 1);Y-displacement (Strain Gauge 1);Z-displacement (Strain Gauge 1);Displacement (Strain Gauge 1);Height (Strain Gauge 1);Exx - RC (Strain Gauge 1);Exy - RC (Strain Gauge 1);Eyy - RC (Strain Gauge 1);Max. principal strain - RC (Strain Gauge 1);Min. principal strain - RC (Strain Gauge 1);Max. shear strain - RC (Strain Gauge 1);Poisson ratio -Exx/Eyy (Strain Gauge 1);Poisson ratio -Eyy/Exx (Strain Gauge 1);Von Mises - RC (Strain Gauge 1);Tresca - RC (Strain Gauge 1);Poisson ratio -strain max/min (Strain Gauge 1);Poisson ratio -strain min/max (Strain Gauge 1);Max. strain angle (Strain Gauge 1);Max. shear angle (Strain Gauge 1);Vorticity-z (Strain Gauge 1);du/dx (Strain Gauge 1);du/dy (Strain Gauge 1);dv/dx (Strain Gauge 1);dv/dy (Strain Gauge 1);dw/dx (Strain Gauge 1);dw/dy (Strain Gauge 1);Ezz plane stress state (Strain Gauge 1);Stereo reconstruction error (Strain Gauge 1);X-displacement (Strain Gauge 2);Y-displacement (Strain Gauge 2);Z-displacement (Strain Gauge 2);Displacement (Strain Gauge 2);Height (Strain Gauge 2);Exx - RC (Strain Gauge 2);Exy - RC (Strain Gauge 2);Eyy - RC (Strain Gauge 2);Max. principal strain - RC (Strain Gauge 2);Min. principal strain - RC (Strain Gauge 2);Max. shear strain - RC (Strain Gauge 2);Poisson ratio -Exx/Eyy (Strain Gauge 2);Poisson ratio -Eyy/Exx (Strain Gauge 2);Von Mises - RC (Strain Gauge 2);Tresca - RC (Strain Gauge 2);Poisson ratio -strain max/min (Strain Gauge 2);Poisson ratio -strain min/max (Strain Gauge 2);Max. strain angle (Strain Gauge 2);Max. shear angle (Strain Gauge 2);Vorticity-z (Strain Gauge 2);du/dx (Strain Gauge 2);du/dy (Strain Gauge 2);dv/dx (Strain Gauge 2);dv/dy (Strain Gauge 2);dw/dx (Strain Gauge 2);dw/dy (Strain Gauge 2);Ezz plane stress state (Strain Gauge 2);Stereo reconstruction error (Strain Gauge 2);Load ADC 1 channel 1;Position ADC 1 channel 2
ms;;mm;mm;S;mm;mm;mm;mm;mm;mm;mm;mm;mm;mm;mm;S;S;S;S;S;S;;;S;S;;;°;°;S;S;S;S;S;S;S;S;pixel;mm;mm;mm;mm;mm;S;S;S;S;S;S;;;S;S;;;°;°;S;S;S;S;S;S;S;S;pixel;kN;mm
0.02515;1;25.755;0;0;-2.00885;25.6737;0.381615;0;0;0;0;0;0;0;-6.91916;-1.11022e-16;2.08167e-17;-3.33067e-16;-1.09088e-16;-3.35002e-16;1.12957e-16;;;1.97295e-16;1.50609e-16;;;0;45;0;-1.11022e-16;-2.77556e-17;6.93889e-17;-3.33067e-16;0;0;0;0;0;0;0;0;-6.51364;2.22045e-16;-3.46945e-17;2.22045e-16;2.56739e-16;1.8735e-16;3.46945e-17;;;1.53355e-16;4.62593e-17;;;0;45;0;2.22045e-16;-6.93889e-17;-3.97748e-27;2.22045e-16;0;0;0;0;-0.0108305;2.18863
1000.03;2;25.7548;-0.000202798;-7.87412e-06;-2.01012;25.6735;0.375307;-0.00126517;-0.000209488;-0.00630736;0.00211456;0.000348413;-0.00643635;0.00678375;-6.92559;-7.60157e-06;0.000132714;0.000508499;0.000540626;-3.97288e-05;0.000290178;;;0.000374364;0.000386903;13.6079;0.0734866;80.2532;125.253;2.65903e-05;-7.59764e-06;0.000166696;9.87501e-05;0.000508494;0.000625156;-0.000273531;0;0.015247;0.00208818;-0.000397006;-0.00715568;0.00746471;-6.5208;-0.000480132;7.14703e-05;-5.82219e-05;-4.64439e-05;-0.00049191;0.000222733;-8.24659;-0.121262;0.000313607;0.000296978;-0.0944154;-10.5915;175.636;40.6359;-0.00117312;-0.000480137;2.40692e-05;0.000118851;-5.82197e-05;0.00296557;0.00224032;0;0.0234287;-0.0106771;2.19399
2000.03;3;25.7567;0.00167382;6.49901e-05;-2.0101;25.6753;0.380177;-0.00124504;0.00160301;-0.00143781;0.00482362;-0.00156252;-0.00766136;0.00918723;-6.92682;-5.55911e-05;-7.8275e-05;0.000267041;0.000285029;-7.35788e-05;0.000179304;0.208175;4.80366;0.000218711;0.000239072;3.87378;0.258146;107.402;152.402;0.000147859;-5.55925e-05;-6.16772e-05;-9.48675e-05;0.000267042;0.000683373;0.000237302;0;0.0129365;0.00531922;-0.00267192;-0.00891253;0.0107176;-6.52256;-0.000507229;5.69476e-05;-8.44737e-05;-7.69369e-05;-0.000514766;0.000218914;-6.00458;-0.16654;0.000320623;0.000291886;-0.14946;-6.69075;158.154;23.1539;-0.00179977;-0.000507233;0.000218324;-0.000104361;-8.44959e-05;0.00633082;0.00102185;0;0.0190269;-0.0108181;2.19637
3000.03;4;25.7559;0.000851985;3.30804e-05;-2.00861;25.6747;0.373537;0.000246733;0.00099278;-0.00807778;0.00952689;-0.00378133;-0.00617046;0.0119639;-6.92533;2.98961e-05;0.000195572;0.000639369;0.000696728;-2.74622e-05;0.000362095;-0.0467588;-21.3864;0.000473905;0.000482793;25.3704;0.039416;60.4779;105.478;0.00159959;2.985e-05;2.96889e-05;0.000361354;0.000639388;-0.00178997;0.00240569;0;0.0145766;0.0111648;-0.00487215;-0.00940752;0.0153913;-6.52305;-0.000585399;4.62732e-06;-6.81747e-05;-6.81333e-05;-0.000585441;0.000258654;-8.58676;-0.116458;0.000369682;0.000344872;-0.116379;-8.59258;165.655;30.6555;-0.00100303;-0.000585413;0.000175913;-0.00016657;-6.81902e-05;0.00559539;0.00196331;0;0.0196096;-0.0106601;2.20385
4000.03;5;25.756;0.00104225;4.0468e-05;-2.00917;25.6749;0.371592;-0.000316172;0.00116783;-0.0100228;0.0156245;-0.00419585;-0.00993908;0.0189873;-6.9291;0.000102097;0.000244931;0.000389611;0.000529857;-3.81484e-05;0.000284002;-0.262049;-3.81608;0.000366616;0.00037867;13.8894;0.0719976;47.7743;92.7743;0.00146518;0.000102063;0.000130965;0.000358865;0.000389632;-0.00277857;0.000403079;0;0.0181814;0.0183488;-0.00614801;-0.0128118;0.0232082;-6.52646;-0.000450669;0.000138745;2.4092e-05;6.16655e-05;-0.000488242;0.000274954;18.7062;0.0534583;0.000347877;0.000366605;0.126301;7.91759;132.676;177.676;-0.000501917;-0.000450706;0.000582566;-0.000304865;2.39319e-05;0.00509396;0.000245475;0;0.0235784;-0.0107347;2.21102
5000.03;6;25.7568;0.00180251;6.9987e-05;-2.00758;25.6758;0.371428;0.00127614;0.00205741;-0.0101864;0.0211167;-0.00586498;-0.0101248;0.0241417;-6.92928;0.000297913;0.000289745;0.000532985;0.000728126;0.000102772;0.000312677;-0.558953;-1.78906;0.000455045;0.000416903;-7.08488;-0.141146;38.2491;83.2491;0.0022087;0.000297783;-7.6764e-06;0.000587097;0.000533027;-0.00468531;0.000107018;0;0.0161289;0.0256089;-0.00814896;-0.0141018;0.0303493;-6.52775;-0.000379765;0.000227136;-3.29454e-05;7.94097e-05;-0.00049212;0.000285765;-11.5271;-0.0867521;0.000357502;0.00038102;0.161362;6.19723;122.606;167.606;-0.000321207;-0.000379753;0.000617501;-0.000163094;-3.31103e-05;0.0047898;0.00088473;0;0.0225681;-0.0106797;2.21763
6000.03;7;25.756;0.00103731;4.02759e-05;-2.00554;25.6752;0.367882;0.00330807;0.00149964;-0.0137323;0.0246205;-0.00819876;-0.00551139;0.0265286;-6.92467;0.000247676;0.00015174;0.000255548;0.000403403;9.98212e-05;0.000151791;-0.969196;-1.03178;0.000242606;0.000202388;-4.04126;-0.247448;19.0642;64.0642;0.00209188;0.000247568;-0.000186695;0.000490173;0.000255542;-0.00255898;-0.000561187;0;0.0149516;0.0309364;-0.0098056;-0.0134969;0.035148;-6.52714;-0.000285406;0.000275828;0.000175913;0.000304815;-0.000414308;0.000359562;1.62243;0.616361;0.000416787;0.000479416;0.735721;1.35921;115.225;160.225;0.000313662;-0.000285368;0.000569692;-1.79006e-05;0.000175789;0.00261627;0.00150996;0;0.023927;-0.0107016;2.22481
7000.03;8;25.7565;0.00145203;5.63786e-05;-2.00366;25.6758;0.36519;0.00519153;0.00210115;-0.0164243;0.0280904;-0.00853347;-0.0106218;0.0312204;-6.92978;0.00021506;0.000460715;-7.78467e-05;0.000552039;-0.000414826;0.000483433;2.76261;0.361977;0.000560091;0.000644577;1.33077;0.751443;175.497;40.4969;0.00181898;0.000214749;7.94637e-06;0.000913617;-7.77406e-05;-0.00308851;0.000514907;0;0.0159907;0.0362249;-0.0108407;-0.0201576;0.0428497;-6.5338;-0.000190583;0.000319302;0.000252381;0.000419496;-0.000357698;0.000388597;0.75514;1.32426;0.000449186;0.00051813;1.17277;0.852685;58.7037;103.704;0.000214069;-0.000190584;0.000315321;0.000323281;0.000252382;0.00252715;0.00123611;0;0.0229033;-0.0106804;2.23273
8000.03;9;25.7552;0.000171196;6.6471e-06;-2.00187;25.6746;0.370045;0.00698308;0.000886532;-0.0115696;0.0313668;-0.0157981;-0.000464037;0.0351237;-6.91962;0.000352286;0.000264332;0.000281886;0.000583751;5.04207e-05;0.000266665;-1.24974;-0.800163;0.000373497;0.000355554;-11.5776;-0.0863736;13.0328;58.0328;0.0027068;0.000352046;-0.00021231;0.000741007;0.000281898;-0.00391168;-0.000137734;0;0.0186104;0.040546;-0.0172391;-0.0083788;0.0448483;-6.52202;-0.000279441;0.000260976;0.000279909;0.000382761;-0.000382293;0.000382527;0.998328;1.00168;0.000441704;0.000510036;1.00122;0.998777;23.6413;68.6413;0.000318772;-0.000279454;0.000216349;0.000305579;0.00027992;0.00150843;0.00124202;0;0.0290167;-0.0105751;2.24026
9000.03;10;25.7558;0.000840945;3.26517e-05;-2.00001;25.6754;0.368437;0.00884275;0.00172644;-0.0131781;0.0338456;-0.0144916;-0.0108363;0.0383792;-6.92999;0.000469059;0.000217842;0.000425607;0.000666255;0.00022841;0.000218922;-1.1021;-0.907362;0.000390946;0.000291897;-2.91692;-0.342827;17.2059;62.2059;0.00232913;0.000468802;-0.000313638;0.000749345;0.000425581;-0.00368625;-0.00130188;0;0.0309721;0.0452787;-0.0171763;-0.0201231;0.0524416;-6.53377;-0.000231777;0.000197162;0.000169088;0.000249807;-0.000312495;0.000281151;1.37074;0.729531;0.000325317;0.000374868;0.799394;1.25095;13.6398;58.6398;-0.000143579;-0.0002318;0.000101779;0.000292506;0.000169102;0.00226894;0.00175275;0;0.0353601;-0.0106417;2.24794
10000;11;25.7546;-0.000427392;-1.65945e-05;-1.99845;25.6744;0.361578;0.0103973;0.000672701;-0.0200371;0.0347379;-0.0137456;-0.0154587;0.0404306;-6.93462;0.000382145;0.000292681;0.000116939;0.000570861;-7.17772e-05;0.000321319;-3.26791;-0.306006;0.000406617;0.000428426;7.95324;0.125735;3.73341;48.7334;0.002474;0.000381947;-0.000109333;0.000694803;0.000116976;-0.00407193;-0.000173984;0;0.0156259;0.0470317;-0.0157894;-0.0293873;0.0576619;-6.54303;-8.31761e-05;0.000200628;0.000235056;0.000332005;-0.000180125;0.000256065;0.353857;2.826;0.000299982;0.00034142;1.84319;0.542538;29.4025;74.4025;0.000447404;-8.3238e-05;-3.80931e-06;0.000405;0.000235076;0.00154789;0.00197909;0;0.0227675;-0.0103832;2.25463
11000;12;25.7542;-0.000785767;-3.05093e-05;-1.99824;25.674;0.361168;0.0106096;0.000335495;-0.0204466;0.0373489;-0.0164912;-0.0109844;0.0422795;-6.93014;0.000503663;6.93224e-05;2.0441e-05;0.000513411;1.06927e-05;0.000251359;-24.6399;-0.0405846;0.000338766;0.000335145;-48.0151;-0.0208268;155.876;20.8759;0.00232117;0.000503477;-0.000474463;0.000613371;2.03308e-05;-0.00334573;-0.00119547;0;0.0156856;0.0508977;-0.017647;-0.0276525;0.0605529;-6.5413;-5.54326e-05;9.72248e-05;0.000280757;0.000306849;-8.15246e-05;0.000194187;0.19744;5.06484;0.000236473;0.000258916;3.76388;0.265683;36.4183;81.4183;0.000173954;-5.56021e-05;-0.00039609;0.000590374;0.000280684;0.00215489;0.00176802;0;0.0218738;-0.0105921;2.26195
12000;13;25.7537;-0.00129608;-5.03235e-05;-1.99572;25.6738;0.35856;0.0131316;5.63096e-05;-0.0230545;0.0369359;-0.0163957;-0.0143328;0.0428779;-6.93349;0.000473138;0.000124263;0.000122953;0.000512752;8.33397e-05;0.000214706;-3.84812;-0.259867;0.000317719;0.000286275;-6.15255;-0.162534;166.192;31.1915;0.00247168;0.000472895;-0.00046059;0.00070932;0.000122855;-0.00295088;-0.000834907;0;0.0152546;0.0516014;-0.0180875;-0.0321364;0.0634241;-6.54578;-0.000113589;0.000130417;0.000204616;0.000251237;-0.00016021;0.000205724;0.555133;1.80137;0.000239479;0.000274298;1.56817;0.637685;27.9079;72.9079;3.60486e-05;-0.000113783;-0.000375359;0.000636033;0.000204554;0.00190618;0.00305279;0;0.0229134;-0.0105106;2.26924
13000;14;25.7548;-0.000187819;-7.29251e-06;-1.99528;25.6748;0.363219;0.0135734;0.00113688;-0.018396;0.0385305;-0.0178061;-0.0140021;0.0446958;-6.93316;0.000310365;0.00012464;0.000201605;0.000391972;0.000119998;0.000135987;-1.53947;-0.649574;0.000231906;0.000181316;-3.26648;-0.30614;0.409427;45.4094;0.00229709;0.000310135;-0.000440397;0.00068974;0.000201516;-0.00291813;-0.00111365;0;0.0196607;0.0541554;-0.0188744;-0.0354304;0.067412;-6.54907;-7.81743e-05;9.79092e-05;0.000218778;0.000248154;-0.00010755;0.000177852;0.357323;2.79859;0.000210646;0.000237136;2.30733;0.433402;32.147;77.147;0.000322256;-7.83611e-05;-0.000423451;0.000619114;0.000218693;0.00208862;0.00176035;0;0.0241487;-0.0105384;2.27447
14000;15;25.754;-0.00098711;-3.83269e-05;-1.99452;25.6741;0.361777;0.014337;0.000414782;-0.0198376;0.0400065;-0.0186154;-0.0151888;0.0466664;-6.93435;0.000254764;2.22811e-05;0.000328538;0.000334745;0.000248557;4.30941e-05;-0.775447;-1.28958;0.000200701;5.74588e-05;-1.34675;-0.742526;45.7725;90.7725;0.00192758;0.00025465;-0.000432697;0.000477226;0.000328445;-0.00277611;-0.000767348;0;0.0150062;0.0556256;-0.0199978;-0.033789;0.0680868;-6.54743;-0.000213386;8.30003e-05;0.000309182;0.000322049;-0.000226252;0.000274151;0.690163;1.44893;0.000318168;0.000365534;1.4234;0.702541;39.3074;84.3074;0.000204436;-0.000213519;-0.000356226;0.000521997;0.000309122;0.0018539;0.0028048;0;0.0216873;-0.0107363;2.27851
15000;16;25.7541;-0.000913259;-3.54595e-05;-1.99362;25.6742;0.362966;0.0152338;0.000541741;-0.0186488;0.0411102;-0.0220749;-0.00700396;0.0471849;-6.92616;0.000343321;2.41844e-05;0.000489667;0.00049356;0.000339428;7.70658e-05;-0.701133;-1.42626;0.000291574;0.000102754;-1.45409;-0.687715;55.9713;100.971;0.00195;0.000343188;-0.000468498;0.000516795;0.000489557;-0.00254174;-0.00153177;0;0.0142729;0.0576258;-0.0229807;-0.0257897;0.067186;-6.53943;-0.000145032;0.000174511;0.000189706;0.000264136;-0.000219462;0.000241799;0.764508;1.30803;0.000279602;0.000322399;1.20356;0.830866;23.7152;68.7152;-0.00093255;-0.000145156;-0.000178904;0.000527809;0.000189706;0.00427837;0.00439199;0;0.0214754;-0.0107199;2.2846
16000;17;25.7542;-0.000782515;-3.0383e-05;-1.99154;25.6745;0.364467;0.0173156;0.000813192;-0.0171478;0.0434793;-0.0219808;-0.0101727;0.0497703;-6.92933;0.000321912;0.000116918;2.79374e-06;0.000360163;-3.54574e-05;0.00019781;;;0.000252758;0.000263747;10.1576;0.0984483;162.289;27.2888;0.00214832;0.000321734;-0.000373059;0.000607051;2.73099e-06;-0.00259856;-0.000848874;0;0.0148852;0.0609321;-0.0230055;-0.0280241;0.0709036;-6.54167;-4.01105e-05;6.06908e-05;0.000181022;0.000196583;-5.56723e-05;0.000126128;0.221578;4.51308;0.000153027;0.00016817;3.53108;0.283199;35.0272;80.0272;-0.000647174;-4.02416e-05;-0.00039427;0.000515551;0.000180946;0.00536933;0.00177073;0;0.0205129;-0.0105612;2.2914
17000;18;25.7541;-0.000944661;-3.66787e-05;-1.99016;25.6745;0.361892;0.0186924;0.000793734;-0.019723;0.0445285;-0.022011;-0.0110737;0.050891;-6.93023;0.000415529;0.000285388;0.000249304;0.00062966;3.51727e-05;0.000297244;-1.66676;-0.599967;0.000408554;0.000396325;-17.9019;-0.0558599;4.68513;49.6851;0.00248379;0.00041509;-0.000408869;0.000979759;0.000249261;-0.00321574;-0.000941884;0;0.0144747;0.0632443;-0.0237601;-0.0288557;0.0734645;-6.5425;-0.000265241;6.53659e-05;0.000243161;0.000251431;-0.000273511;0.000262471;1.09081;0.916753;0.000303165;0.000349961;0.91927;1.08782;37.0325;82.0325;-3.6526e-05;-0.000265354;-0.000349115;0.000479636;0.000243102;0.00305763;0.0013432;0;0.0205999;-0.0106386;2.29839
18000;19;25.7543;-0.000728057;-2.82686e-05;-1.99027;25.6747;0.36167;0.0185817;0.00100554;-0.0199441;0.0467124;-0.0228372;-0.00805231;0.0526159;-6.92721;0.000295511;0.000148548;0.000126328;0.000381865;3.99741e-05;0.000170945;-2.33924;-0.427488;0.000242353;0.000227927;-9.5528;-0.104681;176.412;41.4117;0.00226231;0.000295305;-0.000361461;0.000658643;0.000126273;-0.00333851;-0.000610202;0;0.013435;0.065319;-0.0239074;-0.0279886;0.0749766;-6.54163;-0.000362853;5.06371e-05;0.00015737;0.000162253;-0.000367736;0.000264995;2.30573;0.433703;0.000313562;0.000353327;0.441222;2.26643;33.8373;78.8373;0.000316269;-0.000363011;-0.000462531;0.000563539;0.000157265;0.0029754;0.00102972;0;0.0214649;-0.0107455;2.30628
19000;20;25.7569;0.00184589;7.16711e-05;-1.98957;25.6773;0.368368;0.0192861;0.00354684;-0.0132461;0.0477232;-0.0239449;-0.00671845;0.0538145;-6.92588;0.00025631;0.000207206;-6.43255e-05;0.000357977;-0.000165993;0.000261985;3.98457;0.250968;0.000309209;0.000349313;2.15658;0.463697;165.316;30.3156;0.00280651;0.00025596;-0.000447368;0.000861991;-6.44041e-05;-0.00387918;-0.000280147;0;0.0163847;0.0671917;-0.0255617;-0.0271095;0.0768313;-6.54075;-0.000230129;1.67186e-05;0.000220427;0.000221047;-0.000230748;0.000225898;1.04401;0.957843;0.000260864;0.000301197;0.957956;1.04389;42.2798;87.2798;9.63087e-05;-0.000230159;-0.000214404;0.000247737;0.000220404;0.00349329;0.00102516;0;0.0225582;-0.0106658;2.3132
20000;21;25.7556;0.000625921;2.43029e-05;-1.98829;25.6762;0.364904;0.0205597;0.00247121;-0.0167105;0.0487138;-0.0254011;-0.0036657;0.0550607;-6.92282;0.000249943;0.000288314;0.000128648;0.000483919;-0.000105328;0.000294623;-1.94284;-0.514711;0.000362854;0.000392831;4.59442;0.217655;1.38934;46.3893;0.00325954;0.000249471;-0.000436509;0.00101322;0.000128595;-0.00494491;-0.000547218;0;0.0138695;0.0692394;-0.0263802;-0.0241048;0.0779169;-6.53775;-0.000217141;-5.75034e-06;0.000173592;0.000173676;-0.000217226;0.000195451;1.25087;0.799442;0.000226154;0.000260602;0.79952;1.25075;42.4722;87.4722;8.28164e-05;-0.000217157;-0.000189848;0.000178275;0.000173574;0.00353499;0.00131719;0;0.0220072;-0.0106801;2.3209
21000;22;25.7554;0.000359783;1.39694e-05;-1.98838;25.676;0.360013;0.0204731;0.00226659;-0.021602;0.0507521;-0.0259433;-0.00422918;0.0571551;-6.92339;0.000325739;9.95934e-05;0.000206474;0.000382188;0.000150025;0.000116081;-1.57763;-0.633864;0.000222348;0.000154775;-2.54749;-0.392543;175.115;40.1147;0.00249102;0.000325433;-0.00058933;0.000788599;0.000206305;-0.00240543;-0.00103292;0;0.0133864;0.0711104;-0.0273795;-0.0249243;0.080172;-6.53857;-0.000215988;5.07507e-05;0.000166534;0.000173153;-0.000222607;0.00019788;1.29696;0.771032;0.000229086;0.00026384;0.777839;1.28561;29.3529;74.3529;-0.000559557;-0.000215996;-3.30869e-05;0.000134556;0.000166535;0.00471533;0.00258673;0;0.0228471;-0.010725;2.32798
22000;23;25.7562;0.00118415;4.59773e-05;-1.98823;25.6768;0.360827;0.0206217;0.00309358;-0.0207877;0.051974;-0.0248919;-0.00926481;0.0583673;-6.92842;4.98738e-05;0.000103632;0.000202473;0.000254864;-2.5172e-06;0.00012869;-0.246324;-4.0597;0.000170754;0.000171587;;;22.5599;67.5599;0.00263073;4.94515e-05;-0.000717784;0.000924923;0.000202221;-0.00408163;-0.000976423;0;0.0132896;0.0726751;-0.0271739;-0.0277031;0.0823866;-6.54135;-0.000294067;8.68754e-05;0.000120086;0.000137571;-0.000311552;0.000224562;2.44881;0.408362;0.000265707;0.000299415;0.441566;2.26466;8.03173;53.0317;1.85411e-05;-0.000294075;1.68689e-05;0.000156853;0.000120089;0.00374728;0.00188377;0;0.0210807;-0.0104777;2.336
23000;24;25.7563;0.00132514;5.14518e-05;-1.98767;25.677;0.36146;0.0211818;0.00326948;-0.0201546;0.0522607;-0.026285;-0.00993479;0.0593362;-6.92909;0.000241481;0.000176409;9.04009e-05;0.000357843;-2.5961e-05;0.000191902;-2.67123;-0.37436;0.00024767;0.00025587;13.7839;0.0725486;175.17;40.1699;0.00280589;0.000241121;-0.000514733;0.000867655;9.0284e-05;-0.00434737;-0.000635536;0;0.0130888;0.0730431;-0.0283634;-0.0300496;0.0839211;-6.54369;-0.000178817;8.39628e-06;0.000176069;0.000176267;-0.000179015;0.000177641;1.01561;0.984631;0.000205125;0.000236855;0.984648;1.01559;134.713;179.713;-0.000273271;-0.000178817;4.52306e-05;-2.8425e-05;0.000176068;0.0034551;0.00211158;0;0.0224422;-0.0106464;2.34269
24000;25;25.7557;0.000708334;2.75028e-05;-1.98816;25.6763;0.360541;0.0206905;0.00262565;-0.0210736;0.053584;-0.0276603;-0.00561107;0.0605626;-6.92477;0.00021522;0.000209613;0.000309782;0.00047738;4.76215e-05;0.000214879;-0.694747;-1.43937;0.000303627;0.000286506;-10.0245;-0.099756;16.6638;61.6638;0.00283832;0.00021483;-0.000489012;0.000908171;0.000309684;-0.00377621;-0.00034321;0;0.0137658;0.0741743;-0.0291564;-0.026709;0.0840553;-6.54035;-0.000330179;9.48312e-05;6.7835e-05;8.92747e-05;-0.000351619;0.000220447;4.86739;0.205449;0.000269152;0.000293929;0.253896;3.93862;176.944;41.9443;-0.000373535;-0.000330184;4.87192e-05;0.000140925;6.78383e-05;0.0037891;0.00186117;0;0.0223035;-0.0107406;2.35012
25000;26;25.7567;0.00166897;6.48017e-05;-1.9875;25.6773;0.36286;0.0213545;0.00360799;-0.018755;0.0545861;-0.0278332;-0.0073622;0.0617133;-6.92652;-6.02013e-05;-6.41915e-05;-0.00032416;-4.54186e-05;-0.000338943;0.000146762;-0.185715;-5.38461;0.000212447;0.000195683;-0.134001;-7.46264;115.525;160.525;0.00330864;-6.04925e-05;-0.000894053;0.000765889;-0.000324558;-0.00438158;0.00089672;0;0.0150331;0.0752467;-0.0296516;-0.0279468;0.0855705;-6.54159;-0.0002346;0.000144073;0.0001551;0.000202579;-0.00028208;0.000242329;1.51257;0.661124;0.00028107;0.000323106;0.718164;1.39244;173.912;38.912;8.4522e-05;-0.000234603;0.00012612;0.00016202;0.000155102;0.00301368;0.00215466;0;0.0233636;-0.0106647;2.3541
26000;27;25.7543;-0.000666079;-2.58621e-05;-1.98738;25.6751;0.355251;0.0214725;0.00138126;-0.0263632;0.0556148;-0.0278227;-0.00706344;0.0625859;-6.92622;0.000117403;-0.000164262;0.000184126;0.00031838;-1.68505e-05;0.000167615;-0.637624;-1.56832;0.000218087;0.000223487;18.8944;0.0529259;89.0757;134.076;0.00296328;0.000117153;-0.00105511;0.000726528;0.000183583;-0.00399242;-0.00149226;0;0.0132154;0.0763156;-0.0297085;-0.0267562;0.0861543;-6.5404;-0.000139685;6.14621e-05;0.000143406;0.000156174;-0.000152454;0.000154314;0.974056;1.02664;0.000178191;0.000205752;1.0244;0.976177;122.733;167.733;7.0722e-05;-0.000139684;0.000162066;-3.91133e-05;0.000143395;0.00367591;0.00109207;0;0.0219521;-0.0104894;2.36004
27000;28;25.7567;0.00171218;6.64796e-05;-1.98709;25.6774;0.362363;0.0217637;0.00369003;-0.0192519;0.0559262;-0.0284482;-0.00494046;0.0629401;-6.9241;1.46383e-05;1.45693e-05;0.000281195;0.000281989;1.38444e-05;0.000134072;-0.0520576;-19.2095;0.000183552;0.000178763;-20.3685;-0.0490954;46.3087;91.3087;0.00379394;1.4171e-05;-0.00093797;0.000966855;0.000280755;-0.00520071;-0.000685682;0;0.0131321;0.0770104;-0.0302729;-0.0259151;0.0867101;-6.53956;-0.000251589;0.000132283;0.000139074;0.000179651;-0.000292167;0.000235909;1.80904;0.55278;0.000274974;0.000314546;0.614893;1.6263;6.96586;51.9659;0.000641257;-0.000251599;6.97113e-05;0.00019483;0.00013908;0.00180315;0.00136968;0;0.0222545;-0.0106333;2.36566
28000;29;25.756;0.000997065;3.87134e-05;-1.98699;25.6767;0.360514;0.021865;0.00300657;-0.0211011;0.0585253;-0.0254893;-0.0118039;0.0649173;-6.93096;3.22314e-05;0.000150492;0.000263281;0.000337477;-4.19637e-05;0.00018972;-0.122422;-8.16848;0.000240197;0.00025296;8.0421;0.124346;23.9527;68.9527;0.00351082;3.1784e-05;-0.000657059;0.000957855;0.000263077;-0.00470203;-0.000789701;0;0.0124402;0.0794779;-0.028484;-0.0289236;0.0892449;-6.54257;-0.000155546;0.000118205;0.000129463;0.000172108;-0.00019819;0.000185149;1.20147;0.832314;0.000213968;0.000246865;0.868395;1.15155;20.3154;65.3154;0.000163765;-0.000155558;4.18692e-05;0.00019452;0.00012947;0.00308081;0.00134647;0;0.0243997;-0.0104794;2.37384
29000;30;25.7574;0.00240148;9.32431e-05;-1.988;25.678;0.361966;0.02085;0.00431631;-0.0196482;0.0603495;-0.026405;-0.0102288;0.0666627;-6.92939;0.000103695;9.73801e-05;-0.00016994;0.000134811;-0.000201057;0.000167934;0.610183;1.63885;0.000195167;0.000223912;0.670513;1.4914;151.705;16.7047;0.00298015;0.00010318;-0.000824034;0.00101905;-0.000170275;-0.00281479;-0.000189048;0;0.0153193;0.0810132;-0.0286686;-0.0286809;0.0905959;-6.54233;-0.000190361;0.000236972;0.000118416;0.000246855;-0.000318801;0.000282828;1.60757;0.622059;0.000327461;0.000377104;0.774325;1.29145;174.847;39.8475;0.000418114;-0.000190371;0.000198915;0.000275018;0.000118424;0.00195586;0.00112334;0;0.0232117;-0.010797;2.38197
30000;31;25.7575;0.00253647;9.84844e-05;-1.98787;25.6782;0.36304;0.0209788;0.00444655;-0.018575;0.0614853;-0.0263201;-0.0106564;0.0677255;-6.92982;0.000208501;0.000470397;0.000534559;0.000869378;-0.000126317;0.000497847;-0.390043;-2.56382;0.000625954;0.000663797;6.88249;0.145296;21.2018;66.2018;0.00371935;0.000207721;-0.000394091;0.0013346;0.000534592;-0.00453651;-0.000175485;0;0.0132949;0.0820753;-0.0292026;-0.0270379;0.0912151;-6.54068;-0.000160883;0.000194973;0.000114397;0.000215418;-0.000261904;0.000238661;1.40636;0.711056;0.000276018;0.000318215;0.822507;1.2158;127.106;172.106;0.000170221;-0.000160878;0.000223686;0.000166267;0.000114391;0.00332505;0.000657143;0;0.0229636;-0.0105695;2.38787
31000;32;25.7543;-0.00069326;-2.69175e-05;-1.98591;25.6752;0.353769;0.0229423;0.00148819;-0.0278452;0.0608044;-0.0285569;-0.00250325;0.0672231;-6.92166;-3.88701e-05;0.000171972;-0.000514755;1.67706e-05;-0.000570395;0.000293583;-0.0755118;-13.243;0.000385975;0.000391444;0.0294016;34.0117;145.234;10.2337;0.00324546;-3.95465e-05;-0.000831334;0.00117576;-0.000515086;-0.00447902;-0.00182791;0;0.0121144;0.0823541;-0.0300458;-0.0239578;0.0908786;-6.5376;-0.000231594;0.000194203;0.000185306;0.000261753;-0.000308041;0.000284897;1.24979;0.800132;0.000329332;0.000379862;0.849734;1.17684;16.272;61.272;0.000290311;-0.000231615;0.000104597;0.000283772;0.000185319;0.00244255;0.000467368;0;0.0226232;-0.0106991;2.39546
32000;33;25.7559;0.000873062;3.38987e-05;-1.98809;25.6765;0.357628;0.0207618;0.00283715;-0.023987;0.062945;-0.0263439;-0.00974242;0.0689274;-6.9289;0.00014483;0.000329909;-0.000188205;0.000347864;-0.000391239;0.000369551;0.769534;1.29949;0.000426966;0.000492735;0.889135;1.12469;166.011;31.0105;0.00365785;0.000143982;-0.000683125;0.00134328;-0.000188384;-0.00497219;-0.00045076;0;0.015152;0.0838211;-0.0291631;-0.0269697;0.0927568;-6.54061;-0.00015226;0.000159299;0.000147694;0.000216508;-0.000221073;0.00021879;1.03091;0.970015;0.000252642;0.000291721;0.979348;1.02109;18.9072;63.9072;0.000556542;-0.000152264;0.000135413;0.000183179;0.000147698;0.00183592;0.000409634;0;0.0234051;-0.0104792;2.40175
33000;34;25.7561;0.00105993;4.11545e-05;-1.98781;25.6767;0.358583;0.021038;0.00303265;-0.0230317;0.0635815;-0.026028;-0.00992159;0.0694154;-6.92908;0.000248216;3.86762e-05;-5.7722e-05;0.000253029;-6.25356e-05;0.000157782;4.30019;0.232548;0.00019294;0.000210377;4.04616;0.247148;145.035;10.0349;0.00340356;0.000247748;-0.000890182;0.000967818;-5.81175e-05;-0.00442623;-0.000720741;0;0.0140205;0.0853093;-0.0285495;-0.0281342;0.0942565;-6.54178;1.9319e-05;0.000154715;8.98893e-05;0.000213292;-0.000104084;0.000158688;-0.21492;-4.65289;0.000186818;0.000211584;2.04924;0.487987;62.0389;107.039;0.00017219;1.93221e-05;0.00017593;0.000133502;8.98858e-05;0.0028522;0.0015109;0;0.0231388;-0.0105846;2.409
34000;35;25.757;0.002006;7.7888e-05;-1.98763;25.6776;0.362954;0.021219;0.00393425;-0.0186609;0.065131;-0.0268388;-0.00867756;0.0709766;-6.92784;0.000254086;0.000256182;0.000271116;0.000518924;6.27807e-06;0.000256323;-0.937185;-1.06703;0.000343876;0.000341764;;;8.61227;53.6123;0.00313971;0.000253379;-0.000704302;0.00121665;0.000270901;-0.00445381;-0.00188253;0;0.0147851;0.087078;-0.0291706;-0.0259194;0.0954218;-6.53956;-9.6822e-05;0.000287167;0.000227218;0.000394918;-0.000264522;0.00032972;0.426119;2.34676;0.000383201;0.000439627;1.49295;0.669814;30.0685;75.0685;0.000686858;-9.68596e-05;0.000177348;0.00039695;0.000227244;0.0020528;0.00141507;0;0.0236574;-0.0104064;2.41683
35000;36;25.7562;0.00116484;4.52278e-05;-1.98705;25.6769;0.361216;0.0218051;0.00316036;-0.0203987;0.0664558;-0.0252219;-0.00862518;0.0716025;-6.92778;4.00998e-05;0.000675866;7.42703e-05;0.000733267;-0.000618897;0.000676082;-0.539917;-1.85214;0.000781602;0.000901442;1.1848;0.844027;2.37035;47.3703;0.00457205;3.89193e-05;-0.000326944;0.00167864;7.44452e-05;-0.00763028;-0.000511976;0;0.017333;0.0889274;-0.0279669;-0.0256603;0.0966885;-6.5393;-2.90756e-05;0.000173263;0.000221748;0.000310224;-0.000117552;0.000213888;0.13112;7.6266;0.00025519;0.000285184;2.63904;0.378926;27.6416;72.6416;0.000381989;-2.91605e-05;-0.000100691;0.000447148;0.000221758;0.00250333;-5.25387e-05;0;0.0236567;-0.010335;2.42345
36000;37;25.757;0.0020235;7.85672e-05;-1.98717;25.6776;0.36607;0.0216822;0.00394341;-0.0155442;0.0676576;-0.025452;-0.00653444;0.0725814;-6.92569;6.54793e-05;6.36672e-05;0.000455361;0.000465495;5.53459e-05;0.000205074;-0.143796;-6.95428;0.000293625;0.000273432;-8.41064;-0.118897;43.2181;88.2181;0.00397347;6.49079e-05;-0.000944052;0.00107099;0.000454918;-0.00558815;0.000121068;0;0.0138983;0.0899067;-0.0282822;-0.0210132;0.0965642;-6.53466;-1.51698e-05;0.000227112;0.000133701;0.000298265;-0.000179733;0.000238999;0.113461;8.81362;0.000278786;0.000318665;1.65948;0.602597;16.2536;61.2536;0.000609686;-1.52493e-05;-4.50636e-06;0.000458696;0.000133727;0.00173471;-0.000359336;0;0.0229592;-0.0107385;2.42978
37000;38;25.7558;0.000833702;3.23705e-05;-1.98632;25.6766;0.36045;0.0225274;0.00289485;-0.021165;0.067;-0.0240375;-0.00951108;0.071814;-6.92867;7.73287e-05;0.000318212;-3.27368e-05;0.000345231;-0.000300639;0.000322935;2.36213;0.423346;0.00037319;0.000430581;1.14832;0.870835;175.781;40.7805;0.00410228;7.65763e-05;-0.000630836;0.00126736;-3.28852e-05;-0.00598739;-8.47366e-05;0;0.0141437;0.0900529;-0.0267569;-0.0246213;0.0971168;-6.53827;2.39598e-05;0.000198152;0.000120851;0.000276394;-0.000131583;0.000203988;-0.198259;-5.0439;0.000240441;0.000271984;2.10053;0.476071;16.7534;61.7534;0.000540171;2.38995e-05;-3.39173e-06;0.000399676;0.00012087;0.00215098;0.000630806;0;0.0234998;-0.0104523;2.43131
38000;39;25.7554;0.000391889;1.5216e-05;-1.98672;25.6761;0.360637;0.0221298;0.00241828;-0.0209778;0.0682208;-0.0255514;-0.00573256;0.073074;-6.92489;7.06027e-05;0.000270243;0.000612685;0.00072439;-4.11024e-05;0.000382746;-0.115235;-8.67792;0.000497194;0.000510329;17.624;0.0567407;32.8791;77.8791;0.00435555;6.99469e-05;-0.000636794;0.00117679;0.000612519;-0.00573916;0.000214778;0;0.0138101;0.0912977;-0.028217;-0.0201769;0.0976656;-6.53382;3.21666e-06;0.000207586;0.000176727;0.000314957;-0.000135014;0.000224986;;;0.000266626;0.000299981;2.33278;0.428674;17.8266;62.8266;0.000676927;3.05911e-06;-0.000183395;0.0005985;0.000176732;0.00187647;2.95148e-05;0;0.0237529;-0.0103428;2.43825
39000;40;25.7553;0.000311168;1.20819e-05;-1.98617;25.6761;0.360713;0.0226816;0.00237893;-0.0209011;0.0696369;-0.0234651;-0.0101957;0.074188;-6.92935;9.52634e-05;0.000318352;1.80549e-05;0.000377343;-0.000264025;0.000320684;-5.27632;-0.189526;0.000372215;0.000427579;1.4292;0.699694;178.209;43.2085;0.0040658;9.44689e-05;-0.000663386;0.00130017;1.78855e-05;-0.00505018;0.000271767;0;0.0153864;0.0927744;-0.0259839;-0.0227009;0.0989827;-6.53635;-0.000105803;0.000159245;0.000173346;0.000245526;-0.000177983;0.000211754;0.61036;1.63838;0.000245547;0.000282339;1.37949;0.724907;24.3062;69.3062;0.000487776;-0.000105879;-0.000101854;0.000420271;0.000173353;0.0024284;-0.000536932;0;0.0234077;-0.0103821;2.44492
40000;41;25.7557;0.00073619;2.85843e-05;-1.9869;25.6764;0.362304;0.0219538;0.00272656;-0.0193106;0.0705826;-0.0232829;-0.00591994;0.0745589;-6.92508;0.000122117;0.00020444;-0.00010551;0.000242289;-0.000225682;0.000233985;1.1574;0.864007;0.00027024;0.000311981;1.07359;0.931458;165.683;30.6828;0.00416974;0.00012131;-0.000877423;0.00128655;-0.000105874;-0.0047192;0.000749782;0;0.0197478;0.0933959;-0.0253333;-0.0199798;0.0988117;-6.53362;-0.000106762;0.000253519;0.000211755;0.000351887;-0.000246894;0.000299391;0.504176;1.98343;0.000347474;0.000399188;1.42525;0.701629;18.9678;63.9678;0.00107203;-0.000107027;-0.000264819;0.000771692;0.000211752;0.000866669;0.00192071;0;0.0255629;-0.0101096;2.45319
41000;42;25.7581;0.00307597;0.000119432;-1.98567;25.6788;0.365488;0.0231806;0.00512333;-0.0161264;0.0694791;-0.0204528;-0.00922693;0.0730123;-6.92839;0.000214585;0.000312354;-0.000131613;0.000398597;-0.000315625;0.000357111;1.63043;0.613337;0.000413283;0.000476148;1.26288;0.79184;166.559;31.5591;0.00432311;0.000213575;-0.000829957;0.00145506;-0.000131909;-0.00549193;0.00101608;0;0.0166966;0.0941565;-0.024192;-0.0235035;0.100016;-6.53715;5.76402e-05;0.00012898;0.00018526;0.000265351;-2.24511e-05;0.000143901;-0.311132;-3.21407;0.000184839;0.000191868;11.8191;0.0846089;33.4068;78.4068;0.000564963;5.76117e-05;-1.33044e-05;0.000271246;0.000185268;0.00357821;0.00145666;0;0.029394;-0.00988771;2.46029
42000;43;25.7551;7.18726e-05;2.79063e-06;-1.98542;25.6758;0.367292;0.023436;0.00210397;-0.0143225;0.0686497;-0.0248053;0.00345983;0.0730757;-6.9157;2.91698e-05;0.000254459;0.000237484;0.000408279;-0.000141624;0.000274952;-0.122828;-8.14145;0.000329694;0.000366602;2.88283;0.346882;14.6495;59.6495;0.00422164;2.83056e-05;-0.000830452;0.00133914;0.000237172;-0.00558631;-0.000758091;0;0.0129638;0.0932389;-0.0262799;-0.00586929;0.0970493;-6.51951;-8.03732e-06;0.000136319;0.000229723;0.000291717;-7.00312e-05;0.000180874;;;0.000221542;0.000241165;4.16553;0.240065;26.955;71.955;0.000925528;-8.2227e-06;-0.000351436;0.000623958;0.000229671;0.00245003;0.000140387;0;0.0252953;-0.00974587;2.46795
43000;44;25.7604;0.00536662;0.000208372;-1.98767;25.6808;0.375366;0.0211813;0.00712391;-0.00624878;0.0687966;-0.0158851;-0.0203126;0.0734705;-6.93947;0.000110784;0.000507523;0.000733978;0.00101792;-0.000173163;0.000595544;-0.150936;-6.62534;0.000743094;0.000794059;5.87842;0.170114;27.1587;72.1587;0.00391556;0.000109765;-0.000500745;0.00151516;0.000733982;-0.00475527;-0.000943642;0;0.0161164;0.0920147;-0.0213658;-0.0240447;0.0974749;-6.53769;-0.000142824;0.000337225;0.000338331;0.000511997;-0.000316491;0.000414244;0.422143;2.36886;0.000482747;0.000552326;1.61773;0.618149;31.1009;76.1009;0.00106196;-0.000142909;0.000142741;0.000531615;0.000338377;0.00155007;0.000391915;0;0.0235461;-0.0098358;2.47528
44000;45;25.7569;0.00186803;7.25306e-05;-1.98558;25.6776;0.370667;0.023275;0.00384473;-0.0109474;0.0686845;-0.0159102;-0.015337;0.0721521;-6.9345;0.000120635;0.000510055;0.00030413;0.000730624;-0.000305859;0.000518241;-0.396654;-2.52109;0.000614936;0.000690988;2.38876;0.418627;10.8335;55.8335;0.00401983;0.000119549;-0.000539698;0.00155962;0.000304115;-0.00514885;-0.00033017;0;0.0170961;0.0924329;-0.0194772;-0.0215205;0.0968831;-6.53516;-0.000143936;0.000289134;0.000314006;0.000453852;-0.000283782;0.000368817;0.458386;2.18157;0.00042963;0.000491756;1.5993;0.625275;23.1553;68.1553;0.00104682;-0.0001443;-0.000322535;0.000900523;0.000313995;0.00165634;-0.000163688;0;0.0243713;-0.00952672;2.48341
45000;46;25.7562;0.00120149;4.66507e-05;-1.98536;25.677;0.364329;0.023489;0.00328339;-0.0172854;0.0665808;-0.0158895;-0.0123143;0.0695494;-6.93147;0.000134135;0.00015339;-0.000113751;0.000207398;-0.000187014;0.000197206;1.1792;0.848033;0.000227815;0.000262942;1.109;0.901715;160.792;25.7924;0.00357451;0.000133242;-0.00103861;0.00134569;-0.000114279;-0.00413062;-0.00126741;0;0.0163296;0.0911945;-0.0194404;-0.0204251;0.0954544;-6.53407;-0.000199872;0.000341673;0.000164387;0.000369441;-0.000404927;0.000387184;1.21587;0.822459;0.000447238;0.000516245;0.912365;1.09605;13.3591;58.3591;0.00143393;-0.000200405;-0.000404071;0.00108715;0.000164363;0.00045457;0.00084653;0;0.0287974;-0.00953403;2.48989
46000;47;25.7569;0.00191598;7.43926e-05;-1.98553;25.6776;0.367897;0.0233226;0.00393635;-0.0137176;0.0663658;-0.0157818;-0.00671397;0.0685461;-6.92587;5.24882e-05;0.000365619;-0.00031517;0.00027789;-0.000540573;0.000409232;0.166539;6.0046;0.000480584;0.000545642;0.514067;1.94527;163.433;28.4327;0.00363594;5.13953e-05;-0.00079134;0.001523;-0.000315417;-0.00454837;0.000583024;0;0.012002;0.0907496;-0.0190415;-0.0156583;0.0940386;-6.5293;-0.0002022;0.000298815;0.000105355;0.00028764;-0.000384484;0.000336062;1.91922;0.521044;0.000389391;0.000448083;0.748118;1.33669;11.0834;56.0834;0.00112421;-0.000202511;-0.000245925;0.000843386;0.000105369;0.00239904;0.000699101;0;0.0230058;-0.00952928;2.49678
47000;48;25.7572;0.00220168;8.54855e-05;-1.98617;25.6779;0.369841;0.0226815;0.00414543;-0.011774;0.0671038;-0.0127777;-0.0147183;0.0698772;-6.93388;-5.57048e-05;0.000381226;0.000276063;0.000525932;-0.000305574;0.000415753;0.201783;4.95582;0.000485657;0.000554337;1.72113;0.581014;14.5089;59.5089;0.00415199;-5.68054e-05;-0.000769712;0.00153178;0.000275839;-0.00461395;-2.25453e-05;0;0.0262156;0.0913579;-0.0162418;-0.0218042;0.0953178;-6.53545;-0.000322477;0.000330604;0.000120166;0.000296691;-0.000499002;0.000397847;2.68359;0.372635;0.000464317;0.000530462;0.594569;1.68189;12.1342;57.1342;0.00142106;-0.000322856;-0.000270825;0.000931766;0.000120184;0.00105178;0.000964028;0;0.0301495;-0.00946439;2.50195
48000;49;25.7582;0.00324499;0.000125994;-1.98666;25.6788;0.372011;0.0221909;0.00512266;-0.00960385;0.0682041;-0.0117778;-0.0152675;0.0708774;-6.93443;0.000200111;0.000351828;0.00109695;0.0012185;7.85633e-05;0.000569966;-0.182426;-5.48169;0.00078745;0.000759955;-15.5097;-0.0644756;40.8361;85.8361;0.00385799;0.000199069;-0.000783404;0.00148604;0.0010967;-0.00389793;-0.00133986;0;0.0156232;0.0921222;-0.0159416;-0.0197297;0.0955505;-6.53337;-0.000299627;0.000311871;0.000258382;0.000397835;-0.000439081;0.000418458;1.15963;0.862344;0.000483389;0.000557944;0.906064;1.10367;19.9458;64.9458;0.00096275;-0.000300002;-0.000296465;0.000919868;0.000258386;0.00246956;0.00158475;0;0.0301563;-0.00888243;2.50797
49000;50;25.7578;0.00281712;0.000109381;-1.98791;25.6783;0.372657;0.0209461;0.00458776;-0.00895718;0.0712203;-0.00943285;-0.0255939;0.0762651;-6.94475;0.000157749;0.000519106;0.00084838;0.00112653;-0.000120405;0.000623469;-0.185941;-5.37804;0.000794206;0.000831293;9.35618;0.106881;28.1041;73.1041;0.00420284;0.000156386;-0.000693659;0.00173103;0.000848274;-0.00537812;0.000384513;0;0.0476628;0.0944815;-0.0143677;-0.0262011;0.0990943;-6.53985;-0.000226795;0.000371186;0.000236735;0.000442571;-0.00043263;0.000437601;0.95801;1.04383;0.000505309;0.000583468;1.02298;0.977539;16.1891;61.1891;0.00126367;-0.000227362;-0.000385731;0.00112775;0.00023673;0.0019457;9.805e-05;0;0.0289155;-0.00877313;2.51186
50000;51;25.7568;0.00181114;7.03219e-05;-1.98566;25.6775;0.367602;0.0231905;0.00382519;-0.0140125;0.0717108;-0.0105193;-0.0168502;0.0744112;-6.93601;0.000175061;0.000591379;0.000291686;0.00082762;-0.000360873;0.000594247;-0.600169;-1.6662;0.000703594;0.000792329;2.29338;0.436037;7.90043;52.9004;0.00457176;0.000173436;-0.00071477;0.00189737;0.000291605;-0.00623856;2.48852e-05;0;0.0141913;0.0973468;-0.0139778;-0.0256041;0.101624;-6.53925;-0.000104578;0.000349754;0.000332634;0.00052648;-0.000298424;0.000412452;0.314395;3.18071;0.000482287;0.000549936;1.7642;0.56683;19.5989;64.5989;0.00161931;-0.000105307;-0.000557523;0.00125663;0.00033254;0.000872377;0.000960387;0;0.0231911;-0.00807565;2.51882
51000;52;25.7555;0.000498437;1.9353e-05;-1.98524;25.6763;0.36231;0.023616;0.00261655;-0.0193042;0.0738709;-0.0108232;-0.0143729;0.0760304;-6.93353;0.000108058;0.000187414;0.00022216;0.000361014;-3.07958e-05;0.000195905;-0.486394;-2.05595;0.00025157;0.000261206;11.7228;0.0853037;12.2178;57.2178;0.00406863;0.000107028;-0.00107224;0.00144692;0.000221603;-0.00395498;0.0017258;0;0.018147;0.0999111;-0.0144081;-0.0263903;0.104337;-6.54003;-0.000227847;0.000307481;0.000450837;0.000569423;-0.000346432;0.000457927;0.505386;1.97869;0.000533968;0.00061057;1.64368;0.608392;26.9232;71.9232;0.00127522;-0.000228736;-0.000754465;0.00136871;0.0004506;0.00126946;0.000610069;0;0.026416;-0.00786929;2.52625
52000;53;25.7477;-0.00729081;-0.000283083;-1.97942;25.6692;0.342704;0.0294273;-0.00447868;-0.0389108;0.0759478;-0.0142011;-0.00880835;0.0777645;-6.92797;-0.000192742;-1.12042e-05;-7.55947e-05;-7.45327e-05;-0.000193804;5.96356e-05;-2.54967;-0.392207;0.000112882;7.95141e-05;-0.384578;-2.60025;47.4826;92.4826;0.00349497;-0.00019357;-0.00130929;0.00128673;-7.64518e-05;-0.00213307;0.00178404;0;0.0239057;0.108048;-0.011164;-0.0365108;0.114595;-6.55016;-0.000406813;2.60022e-05;0.000155059;0.00015626;-0.000408014;0.000282137;2.62359;0.381157;0.000336418;0.000376182;0.382978;2.61112;39.2716;84.2716;0.00157655;-0.000407514;-0.00113258;0.00118393;0.000154419;0.00128066;0.00153249;0;0.0254419;-0.00785503;2.53364
53000;54;25.7492;-0.00580204;-0.000225278;-1.98229;25.6704;0.351742;0.0265642;-0.00332855;-0.0298725;0.0792363;-0.0131486;-0.0105248;0.0810064;-6.92968;0.000260848;0.000528707;0.000548401;0.000952532;-0.000143282;0.000547907;-0.475652;-2.10238;0.000687775;0.000730543;6.64793;0.150423;16.0308;61.0308;0.00419802;0.000259243;-0.000811078;0.00186811;0.000548212;-0.00507345;0.00102386;0;0.0148671;0.108468;-0.0124751;-0.0290109;0.112971;-6.54266;-0.000116299;0.000233827;0.000347473;0.000444898;-0.000213724;0.000329311;0.334699;2.98776;0.000387985;0.000439082;2.08164;0.480389;25.1948;70.1948;0.00157168;-0.000117271;-0.000946514;0.00141362;0.000347052;0.00274086;0.000657206;0;0.0217091;-0.00741856;2.54148
54000;55;25.7526;-0.00242629;-9.42066e-05;-1.97958;25.6739;0.354626;0.0292715;0.000226791;-0.0269889;0.0816682;-0.0120922;-0.0212028;0.0852377;-6.94036;0.000351285;0.000320808;0.000696657;0.000888303;0.000159638;0.000364333;-0.504244;-1.98317;0.000546813;0.000485777;-5.56448;-0.179711;24.9278;69.9278;0.00437391;0.000349976;-0.00100826;0.00164942;0.0006962;-0.00486054;0.00104532;0;0.0166158;0.11352;-0.0138355;-0.0419293;0.121805;-6.55557;-0.00016946;9.78339e-05;0.000315417;0.000334413;-0.000188456;0.000261434;0.537257;1.86131;0.000305774;0.000348579;1.77449;0.563542;35.616;80.616;0.00143795;-0.000170457;-0.00122008;0.00141511;0.000314678;0.0017855;2.61214e-05;0;0.0216159;-0.0071952;2.54802
55000;56;25.7524;-0.00263405;-0.000102273;-1.97838;25.6739;0.351148;0.030473;0.000158813;-0.0304669;0.0841848;-0.0122663;-0.0198494;0.0873587;-6.93901;0.000296711;0.000616062;0.000645912;0.00111164;-0.000169015;0.000640326;-0.459367;-2.17691;0.000803378;0.000853768;6.57716;0.152041;17.1795;62.1795;0.00428469;0.00029485;-0.000793508;0.00202514;0.000645787;-0.00466356;0.000379407;0;0.0208804;0.117429;-0.0145455;-0.0410026;0.125229;-6.55465;-0.000223244;5.47228e-05;0.000332224;0.000337564;-0.000228584;0.000283074;0.671969;1.48816;0.000328878;0.000377432;1.47676;0.677158;40.4169;85.4169;0.00179158;-0.000224634;-0.00155953;0.00166808;0.00033101;0.00171764;0.000363838;0;0.0228179;-0.00720014;2.55558
56000;57;25.7525;-0.00250687;-9.73351e-05;-1.97595;25.6741;0.354163;0.0328984;0.000431756;-0.0274515;0.0857489;-0.0118799;-0.0228383;0.0895299;-6.942;0.000259751;0.000519712;0.00040167;0.000855244;-0.000193824;0.000524534;-0.646678;-1.54636;0.000644559;0.000699378;4.41249;0.22663;10.6885;55.6885;0.00471975;0.000258099;-0.000851486;0.00189071;0.000401442;-0.00555753;0.000345566;0;0.0158128;0.121084;-0.0131767;-0.0480474;0.130934;-6.56169;-0.000401548;3.74535e-05;0.000246806;0.000248962;-0.000403704;0.000326333;1.62698;0.614636;0.000380331;0.000435111;0.616695;1.62155;40.1537;85.1537;0.00124957;-0.000402593;-0.0013722;0.0014462;0.000245865;0.00273958;4.44381e-05;0;0.0230748;-0.00708755;2.56279
57000;58;25.7538;-0.00119059;-4.62274e-05;-1.97473;25.6755;0.35586;0.0341212;0.00182265;-0.0257543;0.088989;-0.0114276;-0.0272161;0.0937568;-6.94637;0.000435333;0.00039716;0.000692396;0.000981305;0.000146425;0.00041744;-0.628734;-1.5905;0.000611269;0.000556587;-6.70178;-0.149214;20.1997;65.1997;0.00414176;0.000433857;-0.000969588;0.00176356;0.000692005;-0.00425302;-4.14289e-05;0;0.0167653;0.125959;-0.0137912;-0.0512197;0.136673;-6.56486;-0.000464998;-4.33204e-06;-9.95393e-05;-9.9488e-05;-0.00046505;0.000182781;-4.6715;-0.214064;0.000282766;0.000243708;-0.21393;-4.67443;40.3649;85.3649;0.00149889;-0.000466114;-0.00150238;0.00149316;-0.000100668;0.00239079;0.000405516;0;0.0218066;-0.00701645;2.57003
58000;59;25.7528;-0.0021983;-8.53544e-05;-1.97372;25.6746;0.356317;0.0351342;0.000883427;-0.0252973;0.0901719;-0.0137636;-0.0245962;0.0944743;-6.94375;0.000557974;0.00038756;0.000326194;0.000846599;3.7568e-05;0.000404516;-1.71056;-0.584604;0.000552303;0.000539354;-22.5351;-0.0443752;0.648836;45.6488;0.00420442;0.000556508;-0.000980772;0.00175621;0.000325788;-0.00446088;0.00131913;0;0.0227856;0.12821;-0.0152959;-0.0477812;0.137677;-6.56143;-0.000453249;7.20626e-05;0.000150917;0.000159393;-0.000461726;0.00031056;3.0033;0.332967;0.000372495;0.000414079;0.345212;2.89677;35.4417;80.4417;0.00156135;-0.000454487;-0.00143153;0.00157474;0.000149895;0.00250654;-0.00205998;0;0.0218903;-0.00694937;2.57422
59000;60;25.7513;-0.00373761;-0.000145122;-1.97132;25.6733;0.349951;0.0375294;-0.000388972;-0.0316639;0.0908342;-0.013058;-0.0256186;0.0952768;-6.94478;0.000484477;0.000378805;0.000674719;0.000970163;0.000189032;0.000390565;-0.718043;-1.39268;0.000593879;0.000520754;-5.13226;-0.194846;18.1507;63.1507;0.00416307;0.000482926;-0.00104451;0.00180185;0.000674245;-0.00382583;-0.000136698;0;0.0194872;0.130339;-0.0144211;-0.0490116;0.139994;-6.56266;-0.000509826;6.15561e-05;5.18311e-05;5.84983e-05;-0.000516494;0.000287496;9.83631;0.101664;0.000365393;0.000383328;0.11326;8.82921;33.9226;78.9226;0.00194571;-0.000510781;-0.00126038;0.00138275;5.10387e-05;0.00175423;-0.000809793;0;0.0195466;-0.00692926;2.58097
60000;61;25.7556;0.000584978;2.27132e-05;-1.97347;25.6773;0.359965;0.0353811;0.00364329;-0.02165;0.0924691;-0.0104646;-0.0310346;0.0980979;-6.95019;0.000395609;0.000479695;0.000167826;0.000774747;-0.000211313;0.00049303;-2.35726;-0.424221;0.000599481;0.000657373;3.66636;0.27275;178.76;43.7604;0.00474133;0.000393819;-0.000992309;0.00195203;0.000167448;-0.00523543;0.00114048;0;0.0155872;0.130165;-0.0135832;-0.0525348;0.141023;-6.56618;-0.000479596;4.8772e-05;0.000145595;0.000149377;-0.000483378;0.000316377;3.29405;0.303578;0.000381909;0.000421836;0.309027;3.23597;37.4648;82.4648;0.00204148;-0.000480834;-0.00147739;0.00157398;0.000144505;0.00175081;-0.00166805;0;0.0218752;-0.00699671;2.58572
61000;62;25.7538;-0.00120892;-4.69393e-05;-1.97213;25.6758;0.35201;0.0367186;0.00205697;-0.0296045;0.0935966;-0.0099713;-0.0296549;0.0986872;-6.94881;0.000259057;0.00028428;0.000604133;0.000764137;9.9052e-05;0.000332543;-0.428808;-2.33205;0.000479828;0.00044339;-7.71451;-0.129626;23.6982;68.6982;0.00451743;0.000257514;-0.00121172;0.00177977;0.000603439;-0.00480361;-0.000129484;0;0.0173151;0.132735;-0.0130985;-0.0519554;0.143142;-6.5656;-0.000596664;6.9794e-05;0.000201977;0.00020803;-0.000602718;0.000405374;2.95412;0.33851;0.000486223;0.000540499;0.345154;2.89726;35.9046;80.9046;0.00156676;-0.000597669;-0.00128083;0.00141934;0.000201159;0.00213556;-0.0014012;0;0.0202507;-0.00686821;2.59329
62000;63;25.7546;-0.000423848;-1.64569e-05;-1.97223;25.6766;0.350865;0.0366228;0.00285276;-0.03075;0.0947726;-0.0088143;-0.029175;0.0995526;-6.94833;0.00037631;0.000267084;5.80015e-05;0.000528064;-9.37529e-05;0.000310909;-6.48793;-0.154132;0.000387097;0.000414545;5.63252;0.177541;168.48;33.4805;0.00392224;0.000374593;-0.0013378;0.00187248;5.71424e-05;-0.00349509;0.000316443;0;0.027459;0.133995;-0.0136664;-0.0497428;0.143582;-6.56339;-0.000485361;9.16312e-05;7.40552e-05;8.86818e-05;-0.000499988;0.000294335;6.55404;0.152578;0.00036648;0.000392446;0.177368;5.638;31.4229;76.4229;0.00197407;-0.000486312;-0.00119938;0.00138192;7.33402e-05;0.00210514;-0.00123408;0;0.0249061;-0.0067335;2.60075
63000;64;25.7532;-0.00176593;-6.85666e-05;-1.97144;25.6753;0.350178;0.0374143;0.00157675;-0.0314365;0.0938397;-0.00847297;-0.0330984;0.0998658;-6.95226;0.0004363;0.000265613;0.000401148;0.000684918;0.00015253;0.000266194;-1.08763;-0.919432;0.000415215;0.000354926;-4.4904;-0.222698;5.75926;50.7593;0.00413394;0.000434714;-0.00126945;0.00180073;0.000400378;-0.00326279;0.000349338;0;0.017766;0.133761;-0.0125748;-0.0527242;0.144326;-6.56637;-0.00053799;0.000152516;8.92142e-05;0.000124335;-0.000573111;0.000348723;6.03032;0.165829;0.000429559;0.000464964;0.216947;4.60942;27.2447;72.2447;0.00151564;-0.000539069;-0.00117257;0.00147677;8.85384e-05;0.00289552;-0.00173101;0;0.0242196;-0.00678651;2.60768
64000;65;25.7553;0.000252903;9.81957e-06;-1.97166;25.6772;0.358578;0.0371927;0.00346877;-0.0230368;0.0942035;-0.00686153;-0.0347536;0.100644;-6.95391;0.000388323;0.000329815;0.00055516;0.000811943;0.00013154;0.000340201;-0.699479;-1.42964;0.000503212;0.000453602;-6.17257;-0.162007;15.589;60.589;0.00440065;0.000386613;-0.0012195;0.00187887;0.000554471;-0.00545171;-0.000166749;0;0.0158689;0.134235;-0.0111595;-0.0543436;0.145248;-6.56799;-0.000538419;0.000139983;0.000131804;0.000159866;-0.000566481;0.000363173;4.08501;0.244797;0.000440716;0.000484231;0.282208;3.54349;29.6324;74.6324;0.00202999;-0.000539638;-0.00128801;0.00156702;0.000130984;0.00139193;-0.000111132;0;0.0204573;-0.00681996;2.61504
65000;66;25.7557;0.000721762;2.80242e-05;-1.97227;25.6776;0.356613;0.036581;0.00391945;-0.0250017;0.0951094;-0.00564713;-0.0340836;0.10119;-6.95324;0.000573216;0.000623971;0.000605949;0.00121377;-3.46026e-05;0.000624185;-0.94598;-1.0571;0.000820956;0.000832247;35.0773;0.0285084;10.1613;55.1613;0.00408461;0.000570629;-0.00111139;0.00235927;0.000605527;-0.00360787;0.00169997;0;0.0169329;0.135681;-0.0104276;-0.0544547;0.146572;-6.5681;-0.000429629;0.000136551;4.94532e-05;8.56403e-05;-0.000465817;0.000275728;8.6876;0.115107;0.000342677;0.000367638;0.18385;5.43922;26.6583;71.6583;0.00215428;-0.000431023;-0.00140246;0.00167483;4.84791e-05;0.00260477;-0.00120112;0;0.0235935;-0.00651527;2.62172
66000;67;25.7553;0.000265305;1.03011e-05;-1.97175;25.6772;0.356216;0.037102;0.00350712;-0.0253981;0.0957453;-0.00516795;-0.0314825;0.100921;-6.95064;0.000422483;0.000496934;0.000181718;0.000813408;-0.000209207;0.000511307;-2.32493;-0.43012;0.000623813;0.000681743;3.88806;0.257198;178.568;43.5681;0.00499119;0.000420413;-0.00110072;0.00209497;0.000181236;-0.00497385;0.0016712;0;0.0173189;0.136718;-0.00811225;-0.0536048;0.147075;-6.56725;-0.000535029;0.000227473;0.000103563;0.000176305;-0.000607771;0.000392038;5.16621;0.193565;0.000474984;0.000522718;0.290085;3.44727;23.3915;68.3915;0.00206778;-0.000536629;-0.00134872;0.00180266;0.00010268;0.00247187;-0.000930788;0;0.0259363;-0.00658417;2.62944
67000;68;25.755;2.50515e-05;9.72683e-07;-1.97191;25.677;0.354417;0.03694;0.00327859;-0.0271971;0.0963338;-0.00218435;-0.0362686;0.102958;-6.95543;0.000452155;0.000430721;0.000649253;0.000992556;0.000108853;0.000441852;-0.696424;-1.43591;0.000628569;0.000589135;-9.11835;-0.109669;15.2059;60.2059;0.0044736;0.000449872;-0.00131927;0.00218037;0.000648476;-0.00434052;0.00119268;0;0.0233324;0.137329;-0.00620019;-0.0555739;0.148278;-6.56922;-0.000576149;0.000199525;4.71147e-05;0.000105516;-0.000634551;0.000370033;12.2286;0.0817752;0.000462238;0.000493378;0.166285;6.01377;23.2579;68.2579;0.00152896;-0.000577367;-0.00117514;0.00157333;4.64442e-05;0.00310008;-0.00153712;0;0.0269424;-0.00649425;2.63594
68000;69;25.757;0.0019669;7.63695e-05;-1.97213;25.6788;0.362389;0.0367238;0.00509847;-0.0192256;0.0966843;0.00137084;-0.0384724;0.104067;-6.95763;0.000368444;0.000257965;0.000850175;0.000962243;0.000256376;0.000352934;-0.433374;-2.30748;0.000575401;0.000470578;-3.75325;-0.266435;31.069;76.069;0.00487148;0.000366432;-0.00150749;0.00202257;0.000849073;-0.00446594;9.16534e-05;0;0.0202769;0.137951;-0.003095;-0.0570735;0.149323;-6.57072;-0.000601524;0.000243017;0.000146564;0.000218577;-0.000673537;0.000446057;4.10417;0.243654;0.000536924;0.000594742;0.324521;3.08147;24.2682;69.2682;0.0014968;-0.000603054;-0.00128032;0.00176522;0.000145774;0.00337374;-0.000131682;0;0.0309741;-0.00609433;2.64355
69000;70;25.7562;0.00123518;4.79589e-05;-1.97183;25.6781;0.36034;0.037026;0.00441657;-0.0212748;0.0976627;0.00274057;-0.0380764;0.104859;-6.95724;0.000375923;0.000398717;7.55552e-05;0.000651803;-0.000200325;0.000426064;-4.97548;-0.200986;0.000514479;0.000568086;3.25373;0.30734;173.327;38.3265;0.004729;0.000373637;-0.00137768;0.00217565;7.46857e-05;-0.00452235;0.00300734;0;0.0186304;0.138984;-0.00208711;-0.0557649;0.149769;-6.56941;-0.000497881;0.000223872;0.00013226;0.000203697;-0.000569318;0.000386508;3.76441;0.265646;0.000462642;0.000515343;0.357791;2.79493;23.9797;68.9797;0.00151588;-0.000499444;-0.0013351;0.00178186;0.000131394;0.00354856;-0.00253657;0;0.0268503;-0.00563702;2.65032
70000;71;25.7564;0.00136597;5.30373e-05;-1.97152;25.6782;0.362665;0.0373293;0.00453832;-0.0189493;0.0974388;0.00438652;-0.0407743;0.105717;-6.95993;0.000360817;0.000364394;0.00049836;0.000800415;5.87619e-05;0.000370826;-0.724009;-1.3812;0.000515141;0.000494435;-13.6213;-0.0734143;12.0287;57.0287;0.00432003;0.000358509;-0.0014509;0.00217943;0.000497374;-0.00337348;0.00037147;0;0.0212771;0.13917;-0.000285503;-0.0581525;0.150831;-6.5718;-0.000631645;0.000108395;6.8534e-05;8.49308e-05;-0.000648042;0.000366486;9.21652;0.108501;0.000462942;0.000488648;0.131058;7.63024;31.0415;76.0415;0.00101222;-0.000632904;-0.00137409;0.00158985;6.75958e-05;0.00377384;-0.00184447;0;0.0322362;-0.00569733;2.6528
71000;72;25.7603;0.00525422;0.000204008;-1.97272;25.6819;0.371506;0.0361315;0.00822004;-0.0101083;0.0979902;0.00620502;-0.0408691;0.106353;-6.96003;0.000415614;0.000411517;0.000178866;0.000725443;-0.000130963;0.000428203;-2.3236;-0.430367;0.000532677;0.000570938;5.53928;0.180529;176.947;41.9474;0.0038616;0.00041346;-0.0012927;0.00211614;0.000178116;-0.00300674;0.00245923;0;0.0210151;0.139732;0.000818025;-0.058811;0.151607;-6.57246;-0.000621009;0.000186887;-8.29287e-05;-2.43877e-05;-0.00067955;0.000327581;-7.48847;-0.133539;0.000445127;0.000436775;-0.035888;-27.8645;20.9736;65.9736;0.0011202;-0.000622394;-0.00130104;0.00167402;-8.37577e-05;0.00416844;-0.00204743;0;0.0350709;-0.00509179;2.65986
72000;73;25.7578;0.00284199;0.000110347;-1.97211;25.6797;0.364318;0.0367388;0.00595009;-0.0172965;0.0983411;0.00533211;-0.0448334;0.10821;-6.96399;0.000401685;0.000555899;0.000725941;0.00114287;-1.52465e-05;0.000579059;-0.553329;-1.80724;0.000767048;0.000772079;74.9595;0.0133405;17.1682;62.1682;0.00426871;0.000399221;-0.00117729;0.00228852;0.000725403;-0.00432028;0.00103039;0;0.0173692;0.140331;-1.33162e-05;-0.0604143;0.152783;-6.57406;-0.000556835;0.000197514;8.4717e-05;0.000140649;-0.000612767;0.000376708;6.57289;0.15214;0.000462578;0.000502277;0.229531;4.35671;24.7155;69.7155;0.00127888;-0.000558243;-0.00129497;0.00168904;8.38981e-05;0.00403574;-0.000533269;0;0.0246886;-0.00455991;2.66715
73000;74;25.7581;0.00308271;0.000119694;-1.97124;25.68;0.360909;0.0376074;0.00630636;-0.0207052;0.0985456;0.0060783;-0.0481943;0.109867;-6.96735;0.000513204;0.0006062;0.000537465;0.00113166;-8.09869e-05;0.000606322;-0.95486;-1.04727;0.000782831;0.000808429;13.9733;0.0715649;8.45429;53.4543;0.00468726;0.000510328;-0.00126216;0.00247451;0.000536853;-0.00412523;0.00257309;0;0.0180459;0.140903;0.000907033;-0.0691796;0.156972;-6.58282;-0.00059529;0.000298626;0.000199087;0.000298825;-0.000695028;0.000496927;2.99009;0.334438;0.000588804;0.000662569;0.429947;2.32587;23.2246;68.2246;0.00156075;-0.000597235;-0.00139801;0.00199391;0.000198155;0.00362113;-0.00109654;0;0.0277229;-0.00438809;2.6727
74000;75;25.7562;0.00119874;4.65441e-05;-1.9703;25.6783;0.353068;0.0385512;0.00459811;-0.0285464;0.0989893;0.0039219;-0.0490314;0.110537;-6.96819;0.000322239;0.000236036;0.000101538;0.000472446;-4.86688e-05;0.000260557;-3.17359;-0.315101;0.000332377;0.00034741;9.70738;0.103014;170.92;35.9201;0.00474711;0.000320266;-0.0015287;0.00200116;0.000100397;-0.00395034;0.00340663;0;0.0242436;0.141499;-0.00133344;-0.0698125;0.157789;-6.58346;-0.000580285;0.000223933;0.000108486;0.000174889;-0.000646688;0.000410789;5.34894;0.186953;0.000499729;0.000547718;0.270438;3.6977;24.6401;69.6401;0.00122183;-0.000582181;-0.00151297;0.00195964;0.000107367;0.00376407;-0.00156114;0;0.0311574;-0.00434532;2.67999
75000;76;25.7586;0.00364478;0.000141517;-1.97074;25.6807;0.355053;0.0381074;0.00699015;-0.0265617;0.0992728;0.00458414;-0.0513447;0.111859;-6.9705;0.000359389;0.000289919;0.000257773;0.000602918;1.42442e-05;0.000294337;-1.3942;-0.717255;0.000397282;0.000392449;-42.3273;-0.0236254;179.392;44.3918;0.00425234;0.000356752;-0.00173499;0.00231503;0.000256311;-0.00294842;0.00222516;0;0.0234848;0.14213;-0.00187259;-0.0712845;0.159016;-6.58493;-0.00045262;0.000285414;0.000131464;0.000247772;-0.000568928;0.00040835;3.44292;0.290451;0.000483521;0.000544466;0.435507;2.29618;20.3831;65.3831;0.00194296;-0.000454871;-0.00157104;0.00214078;0.000130271;0.00218984;-0.000548199;0;0.027769;-0.0039125;2.68732
76000;77;25.7569;0.00189824;7.37038e-05;-1.96939;25.6791;0.350239;0.0394599;0.00540818;-0.0313757;0.0998782;0.00435138;-0.0558274;0.114505;-6.97499;0.000369505;0.000383555;0.000336304;0.000736819;-3.101e-05;0.000383915;-1.09872;-0.910148;0.000501869;0.000511886;23.7607;0.0420864;3.80451;48.8045;0.00437257;0.000366749;-0.00161205;0.00237922;0.000335079;-0.00386063;0.00220173;0;0.0160306;0.142827;-0.00168404;-0.0786694;0.163069;-6.59231;-0.000441942;0.000153592;0.000105053;0.00014523;-0.000482118;0.000313674;4.20684;0.237708;0.000379208;0.000418232;0.301232;3.3197;27.4773;72.4773;0.0017187;-0.000443584;-0.00151216;0.00181843;0.000103922;0.00242556;-0.00155071;0;0.0234794;-0.00367544;2.69463
77000;78;25.7575;0.00245583;9.53533e-05;-1.97022;25.6796;0.351773;0.0386345;0.00588318;-0.0298416;0.100516;0.00254427;-0.0551496;0.11468;-6.97431;0.000386626;0.000225955;0.000385459;0.000611999;0.000160087;0.000225956;-1.00303;-0.996982;0.000366483;0.000301275;-3.82292;-0.26158;5.89056;50.8906;0.00406126;0.000384527;-0.00161003;0.00206195;0.000384189;-0.00201313;0.00293539;0;0.0223493;0.143659;-0.00349458;-0.0794652;0.16421;-6.59311;-0.00055793;0.000196046;7.60996e-05;0.000131821;-0.000613651;0.000372736;7.33157;0.136396;0.00045939;0.000496982;0.214815;4.65517;25.202;70.202;0.00214721;-0.000559771;-0.00153773;0.00192873;7.49366e-05;0.000416689;-0.000900311;0;0.0250276;-0.00360635;2.70229
78000;79;25.7575;0.00245818;9.54449e-05;-1.96866;25.6797;0.352532;0.040189;0.00599435;-0.0290824;0.101194;0.00152647;-0.0566619;0.115988;-6.97582;0.000240391;0.000112877;0.000306074;0.00039079;0.000155675;0.000117558;-0.785401;-1.27323;0.000227171;0.000156744;-2.5103;-0.398359;12.365;57.365;0.00444272;0.000238494;-0.00172552;0.00195116;0.000304592;-0.00286787;0.0041599;0;0.0159038;0.144848;-0.00451724;-0.0815277;0.166277;-6.59517;-0.000316995;0.000228756;2.01504e-05;0.000135736;-0.00043258;0.000284158;15.7314;0.063567;0.000342713;0.000378878;0.313782;3.18693;15.7933;60.7933;0.00183041;-0.000318924;-0.00152045;0.00197737;1.90207e-05;0.00236365;0.00120796;0;0.0230333;-0.00340328;2.70967
79000;80;25.7556;0.00056962;2.21168e-05;-1.96729;25.678;0.343937;0.0415596;0.00432167;-0.0376776;0.102187;0.00116179;-0.0627003;0.119895;-6.98186;0.000150268;-0.000216408;-0.000335265;0.000232722;-0.000417719;0.00032522;0.448207;2.23111;0.000380561;0.000433627;0.557125;1.79493;112.762;157.762;0.0042285;0.000148906;-0.0020969;0.001665;-0.000337441;-0.00203862;0.00217232;0;0.0179586;0.146021;-0.00508754;-0.0899982;0.171603;-6.60364;-0.000312932;0.000155516;-4.31001e-05;2.78661e-05;-0.000383898;0.000205882;-7.26058;-0.13773;0.000265708;0.000274509;0.0725873;13.7765;17.5126;62.5126;0.00200652;-0.000314647;-0.00154783;0.0018584;-4.42859e-05;1.56367e-05;0.000834551;0;0.0243521;-0.00336764;2.7167
80000;81;25.7578;0.00277301;0.000107669;-1.96772;25.6802;0.346952;0.0411313;0.00645835;-0.034663;0.103174;0.000190842;-0.0645149;0.121684;-6.98367;0.00014091;0.000102239;-0.000292016;0.00016384;-0.000314946;0.000239393;0.482543;2.07235;0.000280979;0.000319191;0.520217;1.92227;146.54;11.5404;0.00469967;0.000138875;-0.00181496;0.00202026;-0.000293658;-0.00323339;0.00213327;0;0.0161465;0.147099;-0.00651832;-0.0921314;0.173692;-6.60578;-0.000223844;0.000225132;9.99835e-05;0.000215379;-0.00033924;0.00027731;2.23881;0.446665;0.00032286;0.000369746;0.634887;1.57508;16.8161;61.8161;0.00193713;-0.000225592;-0.00143334;0.00188307;9.89817e-05;0.00144858;0.000565244;0;0.0217482;-0.00335558;2.72112
81000;82;25.7574;0.00241706;9.38482e-05;-1.96653;25.6799;0.345847;0.0423218;0.00620742;-0.0357676;0.103768;0.000304286;-0.0686657;0.12443;-6.98782;0.000304976;-7.94561e-05;-0.000507183;0.000312677;-0.000514883;0.00041378;0.601315;1.66302;0.000482523;0.000551706;0.607277;1.64669;128.015;173.015;0.00479881;0.000303213;-0.00203699;0.00187967;-0.000509255;-0.00327459;0.00287242;0;0.0169792;0.148184;-0.00668032;-0.0986282;0.178131;-6.61227;-0.000195045;0.000127734;0.000130066;0.000174248;-0.000239227;0.000206737;1.49958;0.666851;0.0002397;0.00027565;0.728379;1.37291;25.3613;70.3613;0.00208187;-0.000196529;-0.00147235;0.0017273;0.000128991;0.0009529;0.00135742;0;0.0226517;-0.00326711;2.72781
82000;83;25.7559;0.000885837;3.43947e-05;-1.96506;25.6786;0.3404;0.0437923;0.00485693;-0.0412142;0.10567;-0.00315149;-0.0685361;0.125989;-6.98769;0.000425446;-3.56918e-05;-0.000896515;0.000426409;-0.000897478;0.000661944;0.474555;2.10724;0.000780309;0.000882592;0.475119;2.10474;129.926;174.926;0.00482785;0.000423731;-0.00192194;0.00185305;-0.000898363;-0.00282781;0.00230693;0;0.0180896;0.150588;-0.0093921;-0.101615;0.181908;-6.61526;-5.03706e-05;0.00014086;5.0279e-05;0.000149534;-0.000149626;0.00014958;1.00182;0.998182;0.00017272;0.00019944;0.999388;1.00061;9.85094;54.8509;0.00209735;-5.17335e-05;-0.00137542;0.00165699;4.93431e-05;0.000928683;0.000371906;0;0.0233443;-0.00281748;2.73897
83000;84;25.7555;0.000458489;1.78019e-05;-1.96465;25.6782;0.336449;0.0442064;0.00451206;-0.0451654;0.106448;-0.00243462;-0.0712072;0.128092;-6.99037;0.000429749;0.000212534;-0.000601168;0.000471846;-0.000643265;0.000557556;0.714856;1.39888;0.00064634;0.000743407;0.733517;1.3633;145.027;10.0269;0.00511174;0.000427245;-0.00182127;0.00224843;-0.000602805;-0.00433742;0.00250869;0;0.0153107;0.151726;-0.00912791;-0.103387;0.183829;-6.61703;-8.14695e-06;3.69092e-05;2.06669e-05;4.58812e-05;-3.33613e-05;3.96213e-05;;;4.59407e-05;5.28284e-05;1.37528;0.727123;10.822;55.822;0.00217486;-8.98164e-06;-0.00121879;0.00129257;1.99249e-05;0.000772966;0.00230756;0;0.0231098;-0.00303188;2.74078
84000;85;25.7568;0.00180787;7.01949e-05;-1.96519;25.6795;0.340234;0.0436647;0.00577418;-0.0413805;0.107623;-0.00290303;-0.0711683;0.129059;-6.99033;0.000426549;1.06926e-05;-0.000599227;0.000426661;-0.000599338;0.000513;0.711833;1.40482;0.000595151;0.000683999;0.711887;1.40472;134.454;179.454;0.00508218;0.000424307;-0.00209467;0.00211822;-0.000601422;-0.00350851;0.00344083;0;0.0156105;0.153094;-0.00984856;-0.104494;0.185617;-6.61814;-8.59016e-05;4.74243e-05;5.98638e-05;7.39348e-05;-9.99727e-05;8.69537e-05;1.43495;0.696888;0.00010078;0.000115938;0.739551;1.35217;28.2468;73.2468;0.00221706;-8.70961e-05;-0.00145165;0.00154628;5.88114e-05;-7.48222e-05;0.0020352;0;0.0223391;-0.00316001;2.74653
85000;86;25.7565;0.00149475;5.80371e-05;-1.96362;25.6793;0.337197;0.0452331;0.00562015;-0.0444176;0.107264;-0.00501337;-0.0735863;0.130176;-6.99274;0.00037961;5.12085e-05;-0.000993359;0.000381517;-0.000995266;0.000688391;0.382148;2.61679;0.000820791;0.000917855;0.383332;2.60871;133.007;178.007;0.0052342;0.000377295;-0.00204719;0.00215249;-0.000995455;-0.00397772;0.00244444;0;0.0152544;0.153626;-0.0117507;-0.110224;0.189442;-6.62387;2.64821e-05;6.67013e-05;0.000117307;0.000152587;-8.79842e-06;8.06929e-05;-0.225751;-4.42966;0.000104781;0.00010759;;;18.611;63.611;0.00192602;2.54044e-05;-0.00133638;0.00146966;0.000116416;-7.05227e-06;0.000936194;0;0.0255358;-0.00281839;2.7534
86000;87;25.7549;-8.4372e-05;-3.27594e-06;-1.96306;25.6779;0.331758;0.0457962;0.00415019;-0.0498568;0.108294;-0.00415461;-0.0789646;0.134091;-6.99812;0.000369904;-9.8845e-05;-0.000692498;0.000379022;-0.000701616;0.000540319;0.534159;1.8721;0.000633105;0.000720425;0.540213;1.85112;127.524;172.524;0.00515082;0.000367978;-0.00216079;0.00196529;-0.000694829;-0.00370837;0.0030749;0;0.0147572;0.154781;-0.0109375;-0.11798;0.194926;-6.63162;0.000165678;-6.26507e-05;6.0895e-05;0.000194957;3.16166e-05;8.167e-05;-2.72072;-0.36755;0.000120819;0.000108893;-6.16627;-0.162173;112.296;157.296;0.00160931;0.000164795;-0.00145605;0.00133089;5.9837e-05;0.0012472;0.00135631;0;0.0229572;-0.00254331;2.7608
87000;88;25.7541;-0.000911118;-3.53764e-05;-1.96175;25.6772;0.327384;0.0471053;0.00347715;-0.0542306;0.109237;-0.00514694;-0.0848088;0.13839;-7.00397;0.000243864;-3.03863e-05;-0.000584619;0.000244977;-0.000585732;0.000415354;0.417133;2.39731;0.000492876;0.000553806;0.418241;2.39097;130.39;175.39;0.00434002;0.000242085;-0.00194593;0.00188675;-0.000586513;-0.00293125;0.00245352;0;0.0150667;0.15681;-0.0122567;-0.125352;0.201128;-6.639;-6.55302e-05;-6.19465e-06;0.000210138;0.000210277;-6.56694e-05;0.000137973;0.311844;3.20674;0.00016645;0.000183964;3.20206;0.312299;47.7773;92.7773;0.00211;-6.65118e-05;-0.00141383;0.00140105;0.000209139;-4.18425e-05;0.000407097;0;0.0244644;-0.00219384;2.76835
88000;89;25.7559;0.000908619;3.52793e-05;-1.96194;25.6789;0.332046;0.0469105;0.00522759;-0.0495682;0.111657;-0.00830516;-0.0778149;0.13635;-6.99697;0.000266525;-6.01746e-05;-0.000431081;0.000271677;-0.000436233;0.000353955;0.618271;1.61741;0.000412377;0.00047194;0.62278;1.6057;128.838;173.838;0.00520298;0.000264977;-0.0018798;0.00176072;-0.000432846;-0.00336288;0.00280403;0;0.0258918;0.159688;-0.0147706;-0.119616;0.200066;-6.63326;0.000138301;4.69711e-05;8.1915e-05;0.00016489;5.53253e-05;5.47825e-05;-1.68834;-0.592296;9.69011e-05;7.30434e-05;-2.98038;-0.335528;166.738;31.7378;0.00217983;0.000137213;-0.00138162;0.00147564;8.09617e-05;0.000274905;0.0030374;0;0.0235881;-0.00154443;2.77621
89000;90;25.7566;0.00156913;6.09253e-05;-1.96166;25.6797;0.329326;0.0471877;0.0059463;-0.0522888;0.112687;-0.00418882;-0.0911991;0.145028;-7.01036;0.000374224;0.000133654;3.01523e-05;0.000420041;-1.56642e-05;0.000217853;-12.4111;-0.0805728;0.000285392;0.00029047;26.8153;0.0372921;157.153;22.153;0.00567658;0.000372365;-0.00166566;0.00193359;2.87741e-05;-0.00500887;0.00221407;0;0.0151607;0.160733;-0.0124301;-0.134973;0.210255;-6.64862;8.44039e-05;3.58704e-05;0.000155915;0.000170807;6.95121e-05;5.06472e-05;-0.541346;-1.84725;9.91826e-05;6.75296e-05;-2.45722;-0.406964;25.3234;70.3234;0.00137853;8.36373e-05;-0.00116715;0.0012388;0.000155234;0.00131488;0.000928709;0;0.024252;-0.00149672;2.78297
90000;91;25.7566;0.00158911;6.17011e-05;-1.96074;25.6798;0.328386;0.0481155;0.00604923;-0.0532282;0.112841;-0.00667276;-0.0949805;0.147644;-7.01414;0.000410358;3.6436e-05;-2.15914e-05;0.00041341;-2.46433e-05;0.000219026;19.0056;0.052616;0.000284177;0.000292035;16.7757;0.0596099;142.779;7.77866;0.00596081;0.000408537;-0.00183547;0.00190915;-2.32752e-05;-0.00523937;0.00286326;0;0.0242613;0.161782;-0.0137419;-0.142759;0.2162;-6.6564;1.16515e-06;0.000122473;0.000100725;0.000183149;-8.12581e-05;0.000132203;;;0.000156388;0.000176271;2.25391;0.443673;12.2621;57.2621;0.00148002;2.56303e-07;-0.00110895;0.00135377;0.000100118;0.00218292;0.0013694;0;0.027046;-0.00119477;2.79002
91000;92;25.7557;0.000719873;2.79508e-05;-1.96016;25.679;0.321788;0.0486951;0.00530516;-0.0598263;0.113715;-0.00662542;-0.0969129;0.149557;-7.01607;0.000112315;4.61495e-07;0.000133718;0.000133727;0.000112305;1.07113e-05;-0.839941;-1.19056;8.29382e-05;1.42817e-05;-1.19075;-0.839804;45.7646;90.7646;0.0055691;0.000110725;-0.00178232;0.00178321;0.000132129;-0.00481147;0.00408898;0;0.0152401;0.163294;-0.0134712;-0.147875;0.220711;-6.66152;4.00919e-05;5.51648e-05;0.000166262;0.000186979;1.93742e-05;8.38026e-05;-0.241137;-4.14702;0.000118723;0.000111737;-9.65092;-0.103617;27.0447;72.0447;0.00154829;3.93932e-05;-0.00107318;0.00118336;0.000165688;0.00236829;-0.000567443;0;0.0238442;-0.000892094;2.79681
92000;93;25.7542;-0.000840626;-3.26393e-05;-1.96072;25.6775;0.315662;0.0481294;0.00377285;-0.0659527;0.115075;-0.00995212;-0.0887718;0.145677;-7.00793;0.000350172;0.0001039;-0.000256973;0.00036746;-0.000274261;0.00032086;1.36268;0.733847;0.000371798;0.000427814;1.33982;0.746369;145.159;10.1587;0.00538638;0.000348064;-0.00184741;0.0020564;-0.000258674;-0.00372876;0.00250528;0;0.0144267;0.164528;-0.0159179;-0.14365;0.218993;-6.65729;-4.36746e-05;0.000126856;1.6796e-05;0.00011697;-0.000143849;0.000130409;2.6003;0.384571;0.00015085;0.000173879;0.813146;1.22979;6.39589;51.3959;0.00175848;-4.45308e-05;-0.00106103;0.00131467;1.62411e-05;0.0015504;0.00205292;0;0.02648;-0.00044118;2.80046
93000;94;25.7554;0.000416662;1.61779e-05;-1.95964;25.6788;0.319592;0.049208;0.00506762;-0.0620225;0.115189;-0.0112158;-0.0909965;0.147223;-7.01016;0.000226864;4.25642e-05;7.18796e-05;0.000237784;6.09594e-05;8.84122e-05;-3.15616;-0.316841;0.000142614;0.000117883;-3.90069;-0.256365;151.81;16.8102;0.00548911;0.000225199;-0.00173975;0.00182516;7.03672e-05;-0.00369903;0.00240044;0;0.0156148;0.165582;-0.0181196;-0.146287;0.221688;-6.65993;-7.28307e-05;0.000102965;8.26723e-05;0.000133944;-0.000124103;0.000129023;0.880957;1.13513;0.000149019;0.000172031;1.0793;0.926525;18.6881;63.6881;0.00165201;-7.33998e-05;-0.000866;0.00107178;8.23027e-05;0.00233721;0.00084977;0;0.0241831;0.000207865;2.80571
94000;95;25.7537;-0.00125823;-4.88538e-05;-1.95841;25.6773;0.313602;0.05044;0.00355557;-0.0680121;0.116523;-0.0125415;-0.0915764;0.148732;-7.01073;0.000221414;6.64199e-05;8.02334e-05;0.000247749;5.3898e-05;9.69256e-05;-2.75962;-0.362369;0.000150453;0.000129234;-4.59663;-0.217551;158.802;23.8023;0.00590901;0.000219259;-0.00194394;0.00207706;7.83463e-05;-0.00516585;0.00283014;0;0.0155019;0.167619;-0.0182285;-0.151562;0.226714;-6.66521;-9.78745e-05;0.000145834;-8.64644e-06;9.9245e-05;-0.000205766;0.000152505;;;0.000179642;0.000203341;0.48232;2.07331;6.90225;51.9023;0.0015856;-9.84567e-05;-0.000797179;0.00108876;-8.95356e-06;0.00157996;-6.53746e-05;0;0.0238596;0.000231992;2.81262
95000;96;25.7562;0.00120371;4.6737e-05;-1.95919;25.6796;0.318834;0.0496574;0.00590074;-0.062781;0.118092;-0.0100186;-0.105495;0.158667;-7.02465;0.000141487;-2.04399e-06;0.00104098;0.00104098;0.000141482;0.00044975;-0.135917;-7.35742;0.000651965;0.000599667;-7.3577;-0.135912;54.3881;99.3881;0.00572608;0.000139923;-0.00177396;0.00176828;0.00103941;-0.00507783;0.00235;0;0.0159524;0.169089;-0.0170896;-0.164565;0.236569;-6.67821;-0.000149416;0.000192756;5.00604e-05;0.000167354;-0.000266709;0.000217031;2.98471;0.335041;0.000252785;0.000289375;0.627477;1.59368;12.2678;57.2678;0.00162641;-0.000150105;-0.000804725;0.00119004;4.97552e-05;0.00143185;-0.000691912;0;0.0237232;0.000487333;2.82014
96000;97;25.7547;-0.000315742;-1.22595e-05;-1.95793;25.6783;0.309447;0.0509225;0.00458809;-0.072168;0.117605;-0.0131754;-0.0997335;0.154762;-7.01889;0.000234202;0.000193685;0.000759361;0.000823066;0.000170496;0.000326285;-0.308419;-3.24234;0.000501632;0.000435047;-4.82748;-0.207147;34.3903;79.3903;0.00554969;0.000232161;-0.00164311;0.00202952;0.00075803;-0.00400076;0.00190859;0;0.0160725;0.169482;-0.0194574;-0.164198;0.236778;-6.67784;-0.000245306;0.000183638;-5.08236e-05;5.97304e-05;-0.00035586;0.000207795;-4.82662;-0.207184;0.000259452;0.00027706;0.167848;5.95778;9.72868;54.7287;0.00163692;-0.000245983;-0.000810253;0.00117734;-5.1135e-05;0.00176474;0.00014806;0;0.0242725;0.000555693;2.82756
97000;98;25.7549;-0.000153974;-5.97841e-06;-1.9581;25.6784;0.310009;0.0507551;0.00473079;-0.0716058;0.117835;-0.0152776;-0.098874;0.154579;-7.01803;0.000286938;0.00011837;0.000206341;0.000371681;0.000121598;0.000125042;-1.3906;-0.719113;0.000218822;0.000166722;-3.05664;-0.327157;174.346;39.346;0.00624407;0.00028493;-0.00177077;0.00200766;0.000204781;-0.0061957;0.00400029;0;0.0142439;0.170243;-0.0217111;-0.1639;0.237313;-6.67754;-0.000248833;0.000238646;1.49471e-05;0.000155724;-0.00038961;0.000272667;16.6476;0.0600689;0.000324357;0.000363556;0.399691;2.50193;11.2209;56.2209;0.00195956;-0.000249602;-0.000785411;0.00126243;1.46672e-05;0.00125589;-0.00145405;0;0.024699;0.000510181;2.83506
98000;99;25.757;0.00196101;7.6141e-05;-1.95854;25.6805;0.310649;0.0503108;0.00681045;-0.0709654;0.121101;-0.0136019;-0.109968;0.164144;-7.02913;0.000309449;-0.00015032;0.00102227;0.00105268;0.000279046;0.000386815;-0.302706;-3.30353;0.000629726;0.000515754;-3.77241;-0.265082;66.3631;111.363;0.00580324;0.000308018;-0.00200056;0.0016986;0.00102029;-0.0054118;0.00240892;0;0.0163803;0.17333;-0.0214765;-0.17604;0.247981;-6.68968;-0.000304602;0.00030549;6.37816e-05;0.000236312;-0.000477132;0.000356722;4.7757;0.209393;0.000419656;0.00047563;0.495275;2.01908;11.8369;56.8369;0.00163444;-0.000305309;-0.000616681;0.00122732;6.36382e-05;0.00233525;-0.000743024;0;0.0257977;0.000684186;2.8412
99000;100;25.7566;0.00159294;6.18499e-05;-1.95791;25.6802;0.306392;0.0509396;0.00654038;-0.0752226;0.120755;-0.0139963;-0.112824;0.165852;-7.03198;0.000358844;3.58319e-06;0.000841834;0.00084186;0.000358818;0.000241521;-0.426265;-2.34596;0.000487809;0.000322028;-2.3462;-0.42622;53.354;98.354;0.00616436;0.000357026;-0.00190108;0.00190732;0.000840028;-0.00546374;0.00246326;0;0.0163086;0.173626;-0.022025;-0.181766;0.252329;-6.69541;-0.000338438;0.000293291;4.95543e-05;0.000207203;-0.000496086;0.000351644;6.82963;0.146421;0.000417306;0.000468859;0.417675;2.39421;12.3085;57.3085;0.00140633;-0.000339135;-0.000630064;0.00121629;4.93989e-05;0.00307075;-0.000438179;0;0.0238423;0.000642512;2.84834
100000;101;25.757;0.00195999;7.61012e-05;-1.95838;25.6806;0.307956;0.050472;0.00685414;-0.0736584;0.121905;-0.0168905;-0.106579;0.162804;-7.02574;0.000175101;0.000212837;0.000864882;0.000925268;0.000114715;0.000405276;-0.202457;-4.93932;0.000582385;0.000540369;-8.06579;-0.12398;36.7283;81.7283;0.00586198;0.000172829;-0.00171809;0.00214243;0.00086343;-0.00511188;0.00318021;0;0.016887;0.174806;-0.0251144;-0.177789;0.250593;-6.69143;-0.000249396;0.000307681;-0.000204028;8.18041e-05;-0.000535228;0.000308516;-1.22236;-0.818089;0.00038698;0.000411355;0.15284;6.54281;176.338;41.3376;0.0018588;-0.000250349;-0.000799314;0.00141463;-0.0002043;0.00186008;-0.000258523;0;0.0283389;0.00082328;2.85518
101000;102;25.7575;0.00253083;9.82657e-05;-1.95864;25.6812;0.303969;0.0502136;0.00745448;-0.0776453;0.123074;-0.0164059;-0.112963;0.16786;-7.03212;0.000321378;5.88604e-05;0.00115076;0.00115492;0.000317222;0.000418847;-0.279275;-3.5807;0.000688991;0.000558463;-3.64072;-0.274671;50.9914;95.9914;0.00631875;0.000319216;-0.00196467;0.00208071;0.00114883;-0.00603136;0.00272395;0;0.0156646;0.176138;-0.0252292;-0.185839;0.257288;-6.69948;-0.000316135;0.000380432;-6.07688e-05;0.000212835;-0.00058974;0.000401287;-5.20227;-0.192224;0.000480097;0.00053505;0.360897;2.77087;4.86504;49.865;0.00192881;-0.000317327;-0.000828875;0.00158943;-6.10399e-05;0.00199533;-0.000493993;0;0.02826;0.00120858;2.86272
102000;103;25.7598;0.00483552;0.000187751;-1.95884;25.6834;0.305131;0.0500127;0.00973693;-0.0764832;0.12353;-0.0179573;-0.113892;0.168978;-7.03305;0.000260353;0.000335561;0.00128064;0.00138111;0.000159884;0.000610612;-0.203299;-4.91886;0.000872342;0.00081415;-8.63817;-0.115765;38.9521;83.9521;0.00638276;0.000257711;-0.0016544;0.00232349;0.00127933;-0.00642593;0.00293503;0;0.0156708;0.177151;-0.0275047;-0.188611;0.260218;-6.70226;-0.000368762;0.000474624;-8.96801e-05;0.000265491;-0.000723933;0.000494712;-4.11198;-0.243192;0.000591331;0.000659616;0.366734;2.72678;3.59847;48.5985;0.00215844;-0.000370428;-0.000936452;0.00188531;-9.0006e-05;0.00286478;-0.00177874;0;0.0313075;0.000985587;2.86599
103000;104;25.7612;0.006234;0.00024205;-1.95725;25.685;0.305343;0.0515981;0.0112579;-0.0762718;0.125493;-0.0192046;-0.117795;0.173185;-7.03695;0.000314436;0.000348707;0.00127994;0.00139271;0.000201666;0.000595522;-0.245664;-4.0706;0.000869086;0.000794029;-6.90602;-0.144801;37.6529;82.6529;0.00629686;0.000311579;-0.00172033;0.00241574;0.00127852;-0.00592327;0.00174085;0;0.0158629;0.179628;-0.0300469;-0.195088;0.266886;-6.70873;-0.000296637;0.000541029;-4.8108e-05;0.000382744;-0.000727489;0.000555117;-6.16606;-0.162178;0.000651213;0.000740156;0.526117;1.90072;3.31564;48.3156;0.00226404;-0.000298675;-0.00100833;0.00209;-4.847e-05;0.00260285;-0.00254038;0;0.026795;0.0018505;2.87598
104000;105;25.7622;0.00714828;0.000277549;-1.95809;25.6858;0.303758;0.0507616;0.0121299;-0.0778566;0.125215;-0.020156;-0.119835;0.174486;-7.03899;0.000213823;0.000182876;0.0015332;0.00155808;0.000188944;0.000684567;-0.139462;-7.17041;0.000981817;0.000912756;-8.24623;-0.121267;48.5263;93.5263;0.00643859;0.000211212;-0.00192969;0.00229266;0.00153136;-0.00590184;0.00327846;0;0.0152646;0.179594;-0.0311735;-0.19985;0.270492;-6.71349;-0.000359936;0.000503761;4.42711e-05;0.000384957;-0.000700622;0.000542789;8.13027;0.122997;0.00063553;0.000723719;0.549451;1.82;8.18425;53.1842;0.0025122;-0.00036208;-0.00112419;0.00213105;4.37661e-05;0.00176677;-0.00109717;0;0.0302876;0.0025615;2.87866
105000;106;25.7608;0.00580693;0.000225468;-1.95852;25.6845;0.296581;0.0503287;0.0108355;-0.0850334;0.126951;-0.0209789;-0.119521;0.175618;-7.03868;0.000314399;0.000257482;0.00148039;0.00153472;0.000260071;0.000637323;-0.212375;-4.70864;0.000948416;0.000849765;-5.90115;-0.169459;45.1374;90.1374;0.00585451;0.00031186;-0.00175581;0.00226843;0.00147888;-0.00432595;0.00110668;0;0.015142;0.181719;-0.0317608;-0.203883;0.274953;-6.71753;-0.00027368;0.000470947;-0.000169956;0.000251975;-0.000695612;0.000473793;-1.6103;-0.621003;0.000566723;0.000631725;0.362235;2.76064;179.764;44.7642;0.00247237;-0.000276281;-0.00138668;0.00232838;-0.000170807;0.00189248;0.000589135;0;0.0313554;0.00276676;2.8841
106000;107;25.763;0.00804257;0.000312272;-1.95752;25.6869;0.295225;0.0513355;0.0131701;-0.0863892;0.12819;-0.0199201;-0.128472;0.182578;-7.04763;0.00041328;0.000251406;0.00149515;0.00155072;0.000357712;0.000596504;-0.276413;-3.61777;0.000937605;0.000795339;-4.33511;-0.230675;44.4196;89.4196;0.00623819;0.000410374;-0.00192415;0.00242461;0.00149334;-0.00610461;0.00254525;0;0.0159998;0.183286;-0.0323971;-0.214854;0.284263;-6.7285;-0.000198013;0.000437128;3.17601e-05;0.000368847;-0.0005351;0.000451973;6.23465;0.160394;0.000524828;0.000602631;0.689305;1.45074;6.10851;51.1085;0.00289154;-0.000200551;-0.00142098;0.00229481;3.08461e-05;0.000630024;0.000224434;0;0.0264051;0.00354924;2.89209
107000;108;25.7615;0.00651543;0.000252977;-1.95748;25.6854;0.293653;0.0513771;0.0116596;-0.0879614;0.129918;-0.0255316;-0.114096;0.174781;-7.03325;2.6817e-05;0.000441246;0.00147619;0.00159996;-9.6947e-05;0.000848453;-0.0181663;-55.047;0.00110038;0.00113127;16.5034;0.0605934;38.5717;83.5717;0.00597011;2.32759e-05;-0.00181837;0.00269759;0.00147464;-0.00440723;0.00282982;0;0.0161121;0.185092;-0.0356756;-0.20611;0.279309;-6.71975;-0.000283852;0.000438975;0.000148447;0.000421603;-0.000557008;0.000489305;1.91214;0.522973;0.000566801;0.000652407;0.756907;1.32117;12.1215;57.1215;0.00289854;-0.00028652;-0.00147415;0.00235128;0.000147457;-0.000206865;0.000517794;0;0.0252845;0.00347759;2.89838
108000;109;25.7644;0.00938375;0.000364346;-1.95777;25.6882;0.295918;0.0510802;0.0144878;-0.0856965;0.130364;-0.0260778;-0.121638;0.180196;-7.0408;0.000201865;0.000466336;0.00159511;0.00173679;6.01842e-05;0.000838302;-0.126553;-7.90185;0.00113833;0.00111774;-28.8579;-0.0346526;38.7776;83.7776;0.00604132;0.000198133;-0.00184217;0.00277163;0.00159352;-0.00472042;0.00206534;0;0.015537;0.186296;-0.0374098;-0.215236;0.287111;-6.72888;-0.000117138;0.000477391;0.000168834;0.000524192;-0.000472497;0.000498345;0.693809;1.44132;0.000575697;0.00066446;1.10941;0.901381;8.72389;53.7239;0.00293027;-0.000120274;-0.00159511;0.0025493;0.000167676;-0.000754565;0.00151942;0;0.0234588;0.00410598;2.90585
109000;110;25.7635;0.00847935;0.000329231;-1.95743;25.6874;0.286924;0.0514203;0.0137087;-0.094691;0.130311;-0.0257919;-0.126589;0.183497;-7.04575;0.000200867;0.000661541;0.00197027;0.00219026;-1.91179e-05;0.00110469;-0.101949;-9.80883;0.00146659;0.00147292;114.566;0.00872859;39.0559;84.0559;0.00605085;0.000196567;-0.00168774;0.00300667;0.00196907;-0.00457;0.00108446;0;0.0181138;0.186811;-0.037171;-0.225289;0.295017;-6.73893;-6.47154e-05;0.000343911;9.78163e-05;0.000369933;-0.000336832;0.000353382;0.661601;1.51149;0.0004082;0.000471176;1.09827;0.910522;6.92179;51.9218;0.00299454;-6.72223e-05;-0.00157785;0.00226536;9.66308e-05;0.000506226;0.00207423;0;0.026455;0.0041535;2.91277
110000;111;25.7632;0.00823137;0.000319603;-1.95629;25.6872;0.288381;0.0525577;0.0135303;-0.0932341;0.131546;-0.0280435;-0.12505;0.183653;-7.04421;0.000259675;0.000669243;0.0021237;0.00233909;4.42848e-05;0.0011474;-0.122275;-8.17829;0.00154484;0.00152987;-52.8192;-0.0189325;40.1388;85.1388;0.00636853;0.000255021;-0.00179;0.00312391;0.00212232;-0.00582244;0.00265252;0;0.0167052;0.188854;-0.0386116;-0.227462;0.298154;-6.74111;5.79627e-05;0.000195392;0.00018259;0.000325364;-8.48111e-05;0.000205088;-0.317447;-3.15014;0.000250022;0.00027345;3.83634;0.260665;10.3399;55.3399;0.00326248;5.47303e-05;-0.00215969;0.00255017;0.000180278;-0.00195638;0.00201463;0;0.0240681;0.00428273;2.92037
111000;112;25.7627;0.00771974;0.000299738;-1.95539;25.6869;0.281211;0.0534585;0.0131653;-0.100403;0.131542;-0.0282196;-0.129756;0.186912;-7.04891;0.000290724;0.000627067;0.00207949;0.00227741;9.28011e-05;0.00109231;-0.139806;-7.15279;0.00148831;0.00145641;-24.5408;-0.0407484;39.9018;84.9018;0.00673216;0.000285818;-0.00194569;0.00319523;0.0020778;-0.00545673;0.00208389;0;0.017695;0.189474;-0.0387733;-0.234928;0.304295;-6.74857;0.000148205;0.000177408;0.000124065;0.000313954;-4.16832e-05;0.000177818;-1.19457;-0.837121;0.00022449;0.000237091;7.5319;0.132769;0.0101584;45.0102;0.00312333;0.000145805;-0.00184326;0.00219813;0.000122383;-0.00173919;0.00232289;0;0.0232376;0.00421784;2.92725
112000;113;25.7623;0.00728912;0.000283018;-1.95457;25.6865;0.279776;0.0542793;0.0128115;-0.101839;0.132716;-0.0300058;-0.131124;0.188964;-7.05028;0.000193734;0.000563284;0.00217226;0.00232139;4.46077e-05;0.00113839;-0.0891855;-11.2126;0.00153294;0.00151785;-52.04;-0.019216;42.7622;87.7622;0.00598478;0.00018913;-0.00196506;0.00308664;0.00217049;-0.00428646;0.00291805;0;0.0210641;0.191713;-0.0398461;-0.241391;0.310824;-6.75504;0.000145469;0.000172661;8.5913e-05;0.000290901;-5.95195e-05;0.00017521;-1.69321;-0.590595;0.000216518;0.000233614;4.88749;0.204604;176.603;41.6027;0.00346984;0.000142516;-0.00209098;0.00243644;8.37419e-05;-0.00189677;0.00379149;0;0.0265801;0.00426993;2.93531
113000;114;25.7623;0.00724779;0.000281413;-1.95476;25.6865;0.276641;0.0540886;0.0127895;-0.104974;0.134837;-0.0334187;-0.124207;0.186347;-7.04337;0.000135551;0.000750965;0.00223726;0.00247801;-0.000105199;0.0012916;-0.060588;-16.5049;0.00168817;0.00172214;23.5554;0.0424531;39.3862;84.3862;0.00656732;0.000130109;-0.00188739;0.00338378;0.00223576;-0.00580332;0.00192694;0;0.0197454;0.193995;-0.042263;-0.24071;0.312028;-6.75435;0.000188546;0.000130138;0.000135834;0.00029497;2.94106e-05;0.00013278;-1.38806;-0.720432;0.000187613;0.000177039;-10.0294;-0.0997072;176.6;41.6;0.00273045;0.000186243;-0.00188981;0.00215019;0.000134057;-0.000980625;0.00335903;0;0.0255584;0.00446368;2.9422
114000;115;25.7599;0.00488781;0.000189781;-1.95264;25.6844;0.266291;0.0562145;0.0106937;-0.115324;0.13607;-0.0341909;-0.125651;0.188341;-7.04481;0.000197179;0.000499758;0.00269896;0.00279509;0.000101041;0.00134703;-0.0730573;-13.6879;0.00183065;0.00179604;-27.6631;-0.0361493;48.2609;93.2609;0.0065782;0.000192196;-0.00220366;0.00319643;0.00269666;-0.00453381;0.00377561;0;0.0193791;0.196647;-0.0421099;-0.247818;0.31915;-6.76146;0.000194453;5.80646e-06;0.00021502;0.000216546;0.000192927;1.18094e-05;-0.90435;-1.10577;0.000137171;1.57459e-05;-1.12242;-0.890929;32.9551;77.9551;0.00278402;0.000192003;-0.00220222;0.00221379;0.000212596;-0.000120683;0.00389172;0;0.0238492;0.00459345;2.94829
115000;116;25.7573;0.00229774;8.92153e-05;-1.94941;25.6821;0.262926;0.0594391;0.00837563;-0.118688;0.135843;-0.0352605;-0.130946;0.191947;-7.05011;0.000188295;0.000570411;0.00300508;0.0031162;7.7168e-05;0.00151952;-0.0626589;-15.9594;0.00205223;0.00202602;-40.3821;-0.0247635;48.8836;93.8836;0.0059285;0.0001828;-0.00223099;0.00336394;0.00300276;-0.00280416;0.00313875;0;0.0188066;0.197643;-0.0419575;-0.257162;0.32704;-6.77081;0.000234344;1.486e-05;7.32139e-05;0.000235703;7.18549e-05;8.19241e-05;-3.20081;-0.312421;0.000139495;0.000109232;-3.28026;-0.304854;142.456;7.45644;0.00286648;0.000232322;-0.00198133;0.00201137;7.12513e-05;0.000130179;0.00355271;0;0.0252204;0.00502024;2.95163
116000;117;25.7577;0.00271985;0.000105605;-1.94981;25.6825;0.258061;0.05904;0.00881802;-0.123554;0.137506;-0.0357469;-0.13504;0.196014;-7.0542;-2.26408e-05;0.000539523;0.00274546;0.0028469;-0.00012408;0.00148549;0.00824663;121.262;0.00194061;0.00198065;22.944;0.0435844;47.7641;92.7641;0.00672842;-2.77406e-05;-0.00216734;0.00323891;0.00274326;-0.00543934;0.00352538;0;0.018525;0.200076;-0.0418078;-0.265585;0.335132;-6.77923;0.000189055;3.75577e-05;8.54024e-05;0.000201233;7.32245e-05;6.40044e-05;-2.2137;-0.451732;0.000117608;8.53392e-05;-2.74817;-0.363879;154.827;19.827;0.00261408;0.000186677;-0.00210636;0.0021817;8.31849e-05;0.000211317;0.00315325;0;0.0241769;0.00489156;2.95695
117000;118;25.757;0.00199491;7.74571e-05;-1.94986;25.6818;0.253429;0.0589925;0.00813348;-0.128185;0.138651;-0.0355694;-0.14138;0.201191;-7.06054;8.8987e-05;0.000816639;0.0016505;0.00199956;-0.000260071;0.00112981;-0.0539152;-18.5476;0.00142765;0.00150642;7.68851;0.130064;30.148;75.148;0.00722296;8.22821e-05;-0.00212335;0.00375204;0.00164858;-0.00519307;0.00515526;0;0.0181029;0.20098;-0.0431629;-0.270507;0.33975;-6.78415;-0.000121378;1.98862e-05;-5.1125e-07;2.67653e-06;-0.000124566;6.36213e-05;;;8.39504e-05;8.48284e-05;;;34.9709;79.9709;0.00247775;-0.000123108;-0.0018206;0.00186015;-2.16835e-06;0.000295749;0.00161354;0;0.02442;0.00636037;2.96428
118000;119;25.7541;-0.00092239;-3.5814e-05;-1.94595;25.6793;0.241876;0.0628991;0.0056154;-0.139738;0.139947;-0.0362883;-0.139942;0.201211;-7.0591;-4.6116e-05;0.000710898;0.002011;0.00223277;-0.000267881;0.00125032;0.0229318;43.6075;0.00158537;0.0016671;8.33492;0.119977;37.4747;82.4747;0.00713535;-5.19207e-05;-0.00206446;0.00348055;0.00200913;-0.00673505;0.00322758;0;0.0485982;0.203962;-0.0418884;-0.278747;0.347929;-6.79239;3.59218e-05;2.99442e-05;0.000169111;0.000175533;2.94993e-05;7.30169e-05;-0.212416;-4.70774;0.000108534;9.73558e-05;-5.95042;-0.168055;34.4737;79.4737;0.00239541;3.4079e-05;-0.00186044;0.00192008;0.000167381;0.00122698;0.00213868;0;0.0254588;0.00686612;2.97123
119000;120;25.7523;-0.00271608;-0.000105458;-1.94825;25.6774;0.238572;0.0606028;0.00367327;-0.143042;0.142026;-0.039678;-0.134969;0.199906;-7.05413;0.00014887;0.000724592;0.00172714;0.00200934;-0.000133334;0.00107134;-0.0861945;-11.6017;0.00138615;0.00142845;15.07;0.0663569;33.2179;78.2179;0.00731238;0.000143144;-0.00201605;0.00346091;0.00172537;-0.00794777;0.00574948;0;0.0177699;0.205863;-0.0436979;-0.277924;0.348613;-6.79157;-3.60833e-05;7.33572e-06;0.00019502;0.000195253;-3.6316e-05;0.000115785;0.185023;5.40472;0.000143811;0.000154379;5.37651;0.185994;44.4274;89.4274;0.00226331;-3.78447e-05;-0.00186265;0.00187689;0.000193286;0.000849749;0.00146927;0;0.0244586;0.00755391;2.97889
120000;121;25.7504;-0.00465456;-0.000180724;-1.94552;25.6757;0.233714;0.0633297;0.0019806;-0.147901;0.14309;-0.0396871;-0.140717;0.204575;-7.05988;0.000316576;0.000570079;0.00117027;0.00145559;3.1251e-05;0.000712171;-0.270516;-3.69664;0.000960147;0.000949561;-46.5774;-0.0214696;25.636;70.636;0.00735547;0.00031071;-0.00233506;0.00347274;0.00116771;-0.0072191;0.00528623;0;0.0179101;0.207831;-0.0432839;-0.286568;0.356635;-6.80021;-4.98512e-05;3.96171e-05;2.79968e-05;4.46119e-05;-6.64663e-05;5.55391e-05;1.7806;0.561607;6.45435e-05;7.40521e-05;0.671196;1.48988;22.1063;67.1063;0.00229904;-5.16684e-05;-0.00182764;0.00190673;2.63275e-05;0.000528151;0.00215486;0;0.024579;0.0078703;2.9856
121000;122;25.7496;-0.00540658;-0.000209923;-1.94463;25.6751;0.225818;0.0642262;0.00136496;-0.155797;0.144191;-0.0406525;-0.143591;0.207514;-7.06275;6.59163e-05;0.000358732;0.000979343;0.00110338;-5.81246e-05;0.000580754;-0.0673066;-14.8574;0.000755709;0.000774339;18.9831;0.0526785;31.0096;76.0096;0.00761311;6.05455e-05;-0.00258232;0.00329709;0.000976076;-0.00669604;0.00539196;0;0.0175513;0.209229;-0.0441211;-0.292178;0.362066;-6.80582;-0.000126434;3.95732e-05;0.000137988;0.000143784;-0.00013223;0.000138007;0.916266;1.09139;0.000159403;0.000184009;1.08738;0.919641;36.7913;81.7913;0.00193374;-0.000127897;-0.00163237;0.00171107;0.000136657;0.00154792;0.00112955;0;0.0240456;0.00808013;2.9934
122000;123;25.7496;-0.00541826;-0.000210377;-1.94442;25.6751;0.227457;0.0644358;0.00135465;-0.154158;0.145643;-0.0429071;-0.143821;0.209135;-7.06298;2.67734e-05;0.000287275;0.000278041;0.000465953;-0.000161138;0.000313545;-0.0962931;-10.385;0.000376038;0.000418061;2.89163;0.345826;13.2893;58.2893;0.00741512;2.12814e-05;-0.0027529;0.00332668;0.000274294;-0.00591217;0.0077229;0;0.0154386;0.211263;-0.0457732;-0.294673;0.365458;-6.80832;-0.000146234;0.000150842;0.000143637;0.00020789;-0.000210486;0.000209188;1.01808;0.982243;0.000241551;0.000278917;0.987664;1.01249;21.9318;66.9318;0.00206896;-0.000148025;-0.0015973;0.00189848;0.000142373;0.000920993;0.00192487;0;0.0246764;0.00824299;3.00092
123000;124;25.7497;-0.0053005;-0.000205805;-1.94443;25.6752;0.223268;0.0644202;0.00150834;-0.158347;0.146538;-0.0425007;-0.148842;0.213152;-7.068;-1.29131e-05;-5.10039e-06;3.12365e-05;3.18181e-05;-1.34947e-05;2.26564e-05;0.413399;2.41897;2.68649e-05;3.02085e-05;2.35782;0.424121;51.6356;96.6356;0.00819426;-1.73617e-05;-0.00299313;0.00298279;2.67572e-05;-0.00728507;0.0066111;0;0.0153591;0.212542;-0.045848;-0.299997;0.370505;-6.81364;-0.000197657;2.25058e-05;9.32627e-05;9.49934e-05;-0.000199388;0.000147191;2.11936;0.47184;0.000173487;0.000196254;0.476425;2.09897;39.8984;84.8984;0.00200311;-0.000199781;-0.00201655;0.00206097;9.12299e-05;0.000757621;0.000430226;0;0.0233588;0.00823513;3.00854
124000;125;25.7474;-0.00765044;-0.000297047;-1.94217;25.6731;0.217208;0.0666794;-0.00062542;-0.164407;0.147828;-0.0449248;-0.147763;0.213788;-7.06692;-2.1264e-06;2.383e-05;8.1134e-06;2.73673e-05;-2.13803e-05;2.43738e-05;;;2.82151e-05;3.24984e-05;1.28002;0.781235;6.1341;51.1341;0.00816525;-6.4937e-06;-0.0029079;0.00295553;3.88578e-06;-0.00793645;0.00605263;0;0.014894;0.214593;-0.0478842;-0.301775;0.373378;-6.81542;-0.000237736;0.000142729;7.1538e-05;0.000127339;-0.000293537;0.000210438;3.32321;0.300914;0.000249228;0.000280584;0.433809;2.30516;22.4475;67.4475;0.00197224;-0.000239893;-0.00179668;0.00208154;6.99343e-05;0.00133395;0.000116031;0;0.0242673;0.00834534;3.01421
125000;126;25.7501;-0.00493818;-0.000191737;-1.94199;25.6758;0.222493;0.0668623;0.00206326;-0.159121;0.149531;-0.0454788;-0.151126;0.21741;-7.07029;0.000113641;0.000140378;-0.00104272;0.000130438;-0.00105952;0.000594977;0.108985;9.1756;0.000753596;0.000793303;0.123111;8.12277;137.527;2.52681;0.00753355;0.000108582;-0.00289985;0.00318412;-0.00104692;-0.00599067;0.00795513;0;0.0153251;0.216489;-0.0492198;-0.30436;0.37673;-6.818;-0.00022729;7.29285e-05;6.55996e-05;8.27538e-05;-0.000244444;0.000163599;3.46481;0.288616;0.000196446;0.000218132;0.338539;2.95387;30.5738;75.5738;0.00160829;-0.000229237;-0.00182923;0.00197453;6.39293e-05;0.0020329;0.00153033;0;0.0233999;0.00860726;3.01843
126000;127;25.7474;-0.00762426;-0.00029603;-1.9412;25.6732;0.213747;0.0676518;-0.000496565;-0.167868;0.150341;-0.0452988;-0.155785;0.221186;-7.07494;0.000125196;-8.77542e-05;-0.00115376;0.000131189;-0.00115976;0.000645473;0.108511;9.21569;0.000820404;0.00086063;0.113117;8.84038;126.487;171.487;0.00865706;0.000120539;-0.00322476;0.00305327;-0.00115897;-0.00789578;0.009966;0;0.0149553;0.217366;-0.0493933;-0.311179;0.382779;-6.82482;-0.000169918;5.50189e-05;0.000131929;0.000141645;-0.000179634;0.000160639;1.28795;0.776428;0.000185922;0.000214186;0.788521;1.2682;34.7422;79.7422;0.00172275;-0.000172031;-0.00194671;0.00205614;0.000130036;0.00234555;-0.000193714;0;0.0238597;0.00888015;3.02523
127000;128;25.7482;-0.00675781;-0.000262388;-1.94099;25.6741;0.214161;0.0678667;0.000385179;-0.167454;0.151936;-0.046742;-0.158929;0.224784;-7.07809;0.000176137;0.000112375;-0.00102027;0.0001866;-0.00103073;0.000608665;0.172638;5.79247;0.000757059;0.000811554;0.181037;5.52373;136.432;1.4324;0.00761916;0.000171119;-0.00294168;0.00317009;-0.00102459;-0.00545008;0.00954703;0;0.0159523;0.219427;-0.0511953;-0.315542;0.387732;-6.82919;-0.000290492;0.00015317;5.0789e-05;0.00010945;-0.000349153;0.000229302;5.71958;0.174838;0.000276568;0.000305736;0.313474;3.19006;22.5147;67.5147;0.00210539;-0.000293243;-0.0020446;0.00235019;4.87106e-05;0.00137786;0.0007048;0;0.023938;0.00923639;3.03037
128000;129;25.7489;-0.00610866;-0.000237183;-1.94079;25.6748;0.212731;0.0680586;0.0010626;-0.168883;0.151903;-0.047104;-0.16057;0.226;-7.07973;0.00020461;5.15418e-05;-0.00128894;0.000206387;-0.00129072;0.000748553;0.158742;6.29951;0.000936883;0.00099807;0.1599;6.25389;132.184;177.184;0.00867075;0.000199382;-0.00312651;0.00323435;-0.00129384;-0.00639299;0.0116393;0;0.0151577;0.220091;-0.0518955;-0.319051;0.391058;-6.8327;-0.000334226;0.000131981;-1.2816e-05;3.44334e-05;-0.000381475;0.000207954;-26.0788;-0.0383453;0.000266537;0.000277272;0.0902638;11.0786;23.3321;68.3321;0.00189662;-0.000337612;-0.00234237;0.00260554;-1.55507e-05;0.0011275;0.0011367;0;0.0240742;0.0100781;3.03806
129000;130;25.7502;-0.00479517;-0.000186184;-1.94063;25.6761;0.213217;0.0682268;0.00238857;-0.168398;0.154007;-0.0486286;-0.162465;0.22908;-7.08162;4.60398e-05;-3.61645e-05;-0.00142391;4.6929e-05;-0.0014248;0.000735863;0.0323334;30.9278;0.000965888;0.000981151;0.0329373;30.3607;127.293;172.293;0.00873854;4.14624e-05;-0.00309378;0.00302595;-0.0014287;-0.00685202;0.0100577;0;0.0139418;0.222612;-0.0539976;-0.32338;0.396291;-6.83702;-0.000463782;0.000142041;-2.528e-05;1.67093e-05;-0.000505772;0.00026124;-18.3458;-0.0545084;0.000342887;0.000348321;0.0330372;30.2689;25.8556;70.8556;0.00261607;-0.000467461;-0.00243275;0.0027157;-2.82292e-05;0.000591859;0.0016459;0;0.0230453;0.0107642;3.04552
130000;131;25.75;-0.00504169;-0.000195756;-1.93969;25.6759;0.210528;0.0691622;0.0022342;-0.171086;0.155273;-0.0481106;-0.167414;0.233349;-7.08657;0.000266211;0.000142429;-0.00148352;0.000277729;-0.00149504;0.000886383;0.179446;5.57271;0.00110101;0.00118184;0.185767;5.38307;134.227;179.227;0.00823067;0.000260746;-0.00301928;0.00330968;-0.00148807;-0.00640068;0.00833454;0;0.0166203;0.223842;-0.0538664;-0.330229;0.402564;-6.84387;-0.000286515;8.66506e-05;-0.000157517;-0.000113995;-0.000330037;0.000108021;-1.81895;-0.549768;0.000193559;0.000144028;-0.345402;-2.89518;15.981;60.981;0.00213329;-0.000290275;-0.00257009;0.00274305;-0.000160816;0.00340239;0.00113537;0;0.0241343;0.0111963;3.05305
131000;132;25.7523;-0.00274082;-0.000106419;-1.94038;25.6782;0.213638;0.0684708;0.00446378;-0.167977;0.156248;-0.0483606;-0.168841;0.235073;-7.088;0.00021347;4.42952e-05;-0.00115171;0.000214906;-0.00115315;0.000684028;0.18535;5.3952;0.000849511;0.000912037;0.186364;5.36584;132.505;177.505;0.00815749;0.000208729;-0.00298702;0.00307975;-0.00115618;-0.00549336;0.0103963;0;0.0157871;0.225656;-0.0549725;-0.331979;0.405157;-6.84562;-0.000375977;0.00015887;-0.00026294;-0.000150835;-0.000488082;0.000168624;-1.4299;-0.699352;0.000288564;0.000224831;-0.309037;-3.23586;6.52257;51.5226;0.00247539;-0.000380207;-0.0025947;0.00291213;-0.000266295;0.00260332;0.00166967;0;0.0262095;0.0113826;3.0607
132000;133;25.7509;-0.00412768;-0.000160267;-1.93879;25.6769;0.207704;0.0700656;0.00324208;-0.173911;0.156876;-0.0497748;-0.171012;0.237345;-7.09017;0.000194094;-0.000106871;-0.000599462;0.000208235;-0.000613602;0.000410918;0.32378;3.08851;0.000493353;0.000547891;0.339364;2.94669;125.567;170.567;0.00815287;0.000189939;-0.0030964;0.00288503;-0.000604253;-0.0054455;0.00910493;0;0.0180692;0.227335;-0.0562681;-0.338469;0.411593;-6.85211;-0.000530773;0.000148488;-0.000334155;-0.000254382;-0.000610546;0.000178082;-1.5884;-0.629563;0.000354128;0.000237443;-0.416646;-2.40012;13.0165;58.0165;0.00335469;-0.000536554;-0.00310643;0.00340277;-0.000338971;-4.71375e-05;0.00136726;0;0.0310799;0.0114109;3.06793
133000;134;25.7533;-0.00168355;-6.5368e-05;-1.9382;25.6794;0.208461;0.0706512;0.00573131;-0.173154;0.159738;-0.0489899;-0.175181;0.242084;-7.09434;-3.27138e-05;-2.87964e-05;-0.000182304;-2.73619e-05;-0.000187656;8.01469e-05;-0.179446;-5.57269;0.000117054;0.000106863;-0.145809;-6.85828;123.45;168.45;0.00840471;-3.68264e-05;-0.00292523;0.00286807;-0.000186583;-0.00631876;0.00922868;0;0.01505;0.230605;-0.0576284;-0.341643;0.416197;-6.85529;-0.000410657;0.000100303;-0.000229868;-0.000185237;-0.000455288;0.000135025;-1.78649;-0.559757;0.000264377;0.000180034;-0.406857;-2.45787;18.4077;63.4077;0.00323885;-0.000416941;-0.00334587;0.00354585;-0.000235462;-0.000438921;0.0043453;0;0.0284008;0.0114617;3.07521
134000;135;25.7519;-0.00307369;-0.000119343;-1.93712;25.6782;0.205192;0.0717321;0.00444507;-0.176423;0.160122;-0.0506432;-0.172595;0.240817;-7.09175;0.000214714;3.52855e-05;-0.000727947;0.000216033;-0.000729266;0.00047265;0.294959;3.3903;0.000571954;0.000630199;0.296234;3.37571;134.719;179.719;0.00812797;0.000210178;-0.00293915;0.00301253;-0.000732269;-0.00586554;0.0100281;0;0.014244;0.232527;-0.0583784;-0.343831;0.419162;-6.85748;-0.000495417;0.000156061;-0.000346627;-0.000248136;-0.000593908;0.000172886;-1.42925;-0.699667;0.000344434;0.000230515;-0.417802;-2.39348;9.27827;54.2783;0.00318262;-0.00050178;-0.00325829;0.0035699;-0.000351925;0.00137703;0.00409886;0;0.0247525;0.0116937;3.08206
135000;136;25.753;-0.00197257;-7.65899e-05;-1.93653;25.6794;0.198305;0.0723196;0.00564777;-0.18331;0.161679;-0.0501827;-0.176419;0.244504;-7.09558;0.000269124;0.000221877;-0.000424762;0.000334005;-0.000489643;0.000411824;0.633589;1.57831;0.000478355;0.000549099;0.682141;1.46597;150.55;15.5498;0.00858797;0.000264523;-0.00259644;0.00304215;-0.00042811;-0.00643838;0.0110532;0;0.014626;0.234598;-0.059358;-0.349481;0.425084;-6.86313;-0.000697402;4.04979e-05;-0.000263926;-0.000260175;-0.000701153;0.000220489;-2.64241;-0.378442;0.000409272;0.000293985;-0.371068;-2.69493;36.0234;81.0234;0.00368655;-0.00070426;-0.0036231;0.00370251;-0.000270491;-0.0016097;0.00436174;0;0.0321984;0.0123977;3.08918
136000;137;25.7525;-0.00250816;-9.73855e-05;-1.93521;25.679;0.193496;0.0736373;0.00524667;-0.188118;0.161913;-0.0512722;-0.177159;0.245418;-7.09632;0.000308994;0.000127448;-0.000226193;0.000337794;-0.000254993;0.000296394;1.36606;0.732032;0.000343357;0.000395192;1.32472;0.754879;148.179;13.1792;0.00837228;0.000304299;-0.00281108;0.00306755;-0.000230137;-0.00699467;0.00872888;0;0.0158353;0.23607;-0.060092;-0.355943;0.431319;-6.86959;-0.000608058;9.1726e-06;-0.000242312;-0.000242082;-0.000608288;0.000183103;-2.5094;-0.398502;0.000353624;0.000244137;-0.397973;-2.51273;40.313;85.313;0.00388257;-0.000614826;-0.00366116;0.00367817;-0.000249016;-0.000989884;0.00418103;0;0.0282249;0.0133529;3.09334
137000;138;25.7541;-0.000868894;-3.37369e-05;-1.93443;25.6807;0.191912;0.0744237;0.00696176;-0.189702;0.163571;-0.0510938;-0.181787;0.249825;-7.10095;8.74352e-05;-1.81828e-05;-5.86961e-05;8.96636e-05;-6.09246e-05;7.52941e-05;1.48963;0.67131;8.74683e-05;0.000100392;1.47172;0.679479;128.201;173.201;0.00812751;8.3664e-05;-0.00278247;0.00274651;-6.25672e-05;-0.00581466;0.00908334;0;0.0166939;0.238831;-0.0609528;-0.365088;0.440505;-6.87873;-0.000483002;7.29682e-05;-0.000272891;-0.000250037;-0.000505857;0.00012791;-1.76994;-0.56499;0.000292063;0.000170547;-0.494284;-2.02313;24.7412;69.7412;0.00445491;-0.000490096;-0.00362132;0.00376648;-0.000279448;-0.00143436;0.00504404;0;0.0227449;0.0140617;3.09799
138000;139;25.7554;0.000370959;1.44034e-05;-1.93397;25.682;0.190097;0.0748847;0.00825338;-0.191518;0.164135;-0.0522604;-0.182076;0.250646;-7.10124;0.000195662;0.000100068;-0.000450605;0.000210802;-0.000465745;0.000338273;0.43422;2.30298;0.000399742;0.000451031;0.452612;2.2094;142.371;7.37082;0.00820149;0.000191268;-0.00276425;0.00296624;-0.000454422;-0.00553371;0.00973697;0;0.0153896;0.24041;-0.0622674;-0.369894;0.445529;-6.88354;-0.000453777;5.12187e-05;-0.000262803;-0.000249934;-0.000466646;0.000108356;-1.72668;-0.579146;0.000269646;0.000144475;-0.535595;-1.86708;27.9592;72.9592;0.00385411;-0.000459819;-0.00337412;0.0034759;-0.000268496;0.00168971;0.00436917;0;0.0225548;0.0147473;3.10496
139000;140;25.7561;0.0011285;4.38169e-05;-1.93343;25.6828;0.186152;0.0754227;0.0090825;-0.195462;0.165795;-0.0522896;-0.184184;0.253271;-7.10334;0.000241473;0.000162621;4.5516e-05;0.00033335;-4.63619e-05;0.000189856;-5.30522;-0.188494;0.00023919;0.000253142;7.19018;0.139079;165.918;30.9185;0.00860506;0.000236763;-0.00274802;0.00307383;4.17536e-05;-0.0074127;0.00860745;0;0.0159964;0.242954;-0.0625733;-0.375586;0.451671;-6.88923;-0.000472654;0.000171012;-0.000341915;-0.000224204;-0.000590365;0.00018308;-1.38237;-0.723393;0.000344116;0.000244107;-0.379772;-2.63316;7.06385;52.0638;0.00449837;-0.000478913;-0.00319989;0.00354147;-0.000347021;-0.000762974;0.0025444;0;0.029263;0.0148574;3.11124
140000;141;25.7579;0.00292244;0.000113471;-1.93385;25.6845;0.186933;0.0750059;0.0108445;-0.194681;0.166696;-0.0527068;-0.187529;0.256384;-7.10669;0.000302294;0.000162335;0.000212934;0.000425986;8.92424e-05;0.000168372;-1.41966;-0.704395;0.000259412;0.000224496;-4.77336;-0.209496;174.853;39.8529;0.00877499;0.0002975;-0.00277644;0.00310137;0.000209094;-0.00738319;0.00832068;0;0.01506;0.244605;-0.0639618;-0.381743;0.457876;-6.89539;-0.000449329;0.000178682;-0.000136111;-5.51196e-05;-0.00053032;0.0002376;-3.3012;-0.30292;0.000336681;0.0003168;-0.103937;-9.62125;18.0691;63.0691;0.00430612;-0.000455102;-0.00304544;0.00340179;-0.000140733;0.000831685;0.00382002;0;0.0198041;0.0150319;3.11873
141000;142;25.7579;0.00290007;0.000112602;-1.9335;25.6846;0.181084;0.0753504;0.0108899;-0.20053;0.16738;-0.0530726;-0.189492;0.25834;-7.10865;0.000294363;0.000260381;0.000546993;0.00071008;0.000131275;0.000289402;-0.538148;-1.85823;0.000436262;0.00038587;-5.40908;-0.184874;17.2104;62.2104;0.00863135;0.000289628;-0.00256857;0.00308861;0.00054373;-0.0073928;0.0081257;0;0.0144103;0.245976;-0.0649221;-0.387133;0.46324;-6.90078;-0.000509721;0.000139696;-0.000159819;-0.000110888;-0.000558652;0.000223882;-3.18937;-0.313542;0.000341526;0.000298509;-0.198493;-5.03796;22.8941;67.8941;0.0043302;-0.000515812;-0.00321378;0.003492;-0.000164974;-2.65578e-05;0.00344554;0;0.0219855;0.0151337;3.12652
142000;143;25.7576;0.0026084;0.000101277;-1.93225;25.6845;0.173087;0.0765984;0.0107465;-0.208528;0.168345;-0.0523402;-0.193516;0.261778;-7.11267;0.000362804;0.000253179;0.000772974;0.00089371;0.000242067;0.000325821;-0.469361;-2.13056;0.00053374;0.000434429;-3.69199;-0.270857;25.0806;70.0806;0.00889674;0.000357857;-0.00265106;0.00315622;0.000769494;-0.00774819;0.00817321;0;0.0156872;0.247599;-0.0645672;-0.395428;0.470996;-6.90907;-0.000464301;0.000184395;-0.000116881;-3.72602e-05;-0.000543922;0.000253331;-3.97242;-0.251736;0.000350855;0.000337774;-0.0685028;-14.5979;19.1522;64.1522;0.00450633;-0.000470245;-0.00308437;0.00345202;-0.000121621;-0.000920957;0.0027974;0;0.0234629;0.0156303;3.13344
143000;144;25.7594;0.00437704;0.000169949;-1.93283;25.6861;0.179055;0.0760182;0.0124356;-0.20256;0.169056;-0.0542636;-0.191749;0.261327;-7.11091;0.000341731;0.000225738;0.000680529;0.00079336;0.0002289;0.00028223;-0.502155;-1.99142;0.000471506;0.000376307;-3.46597;-0.288519;23.5009;68.5009;0.0083661;0.000336907;-0.00266432;0.00311481;0.000677008;-0.00772433;0.00795808;0;0.0154878;0.248931;-0.0666507;-0.39517;0.471771;-6.90881;-0.000360074;0.000179309;-2.36792e-05;5.39731e-05;-0.000437727;0.00024585;-15.2064;-0.0657619;0.000311372;0.0003278;0.123303;8.11008;19.7828;64.7828;0.0043586;-0.000365037;-0.00279755;0.00315516;-2.75763e-05;-0.000971955;0.00321547;0;0.0213504;0.0167054;3.14099
144000;145;25.7575;0.00251306;9.75755e-05;-1.93137;25.6845;0.168682;0.0774812;0.0107466;-0.212933;0.169755;-0.0543612;-0.194071;0.263506;-7.11323;0.000344041;0.000124846;0.000672529;0.000714592;0.000301978;0.000206307;-0.511564;-1.95479;0.000414215;0.000275076;-2.36637;-0.422588;31.4799;76.4799;0.00827774;0.00033963;-0.00272473;0.00297349;0.000668827;-0.00582782;0.00939025;0;0.0157533;0.250144;-0.0666771;-0.401419;0.477656;-6.91506;-0.00033135;0.000150393;-0.000126914;-4.729e-05;-0.000410974;0.000181842;-2.61082;-0.383022;0.000259659;0.000242456;-0.115068;-8.6905;14.9622;59.9622;0.004221;-0.000336308;-0.0028518;0.00315197;-0.00013097;-0.00096625;0.00248216;0;0.0214118;0.0175407;3.1481
145000;146;25.759;0.00395483;0.000153556;-1.93133;25.6859;0.169427;0.0775175;0.0121903;-0.212187;0.171048;-0.0554775;-0.194426;0.264833;-7.11358;0.000258843;0.000176156;0.000418363;0.000531975;0.000145231;0.000193372;-0.618704;-1.61628;0.000317511;0.000257829;-3.66295;-0.273004;15.4594;60.4594;0.00864918;0.000253865;-0.00280883;0.00316067;0.000414436;-0.00692375;0.00893093;0;0.0154142;0.252275;-0.0684348;-0.404188;0.481346;-6.91783;-0.000259091;0.000168412;-9.76829e-05;8.36351e-06;-0.000365138;0.000186751;-2.65237;-0.377021;0.00024626;0.000249001;;;10.9401;55.9401;0.00422044;-0.000263148;-0.0025168;0.00285319;-0.000100836;-0.00108996;0.00322274;0;0.0221816;0.0181635;3.15588
146000;147;25.7588;0.00378288;0.00014688;-1.93018;25.6858;0.165677;0.0786762;0.0121294;-0.215938;0.17181;-0.0554706;-0.197169;0.267341;-7.11633;0.000249731;0.000293194;0.000236771;0.000536516;-5.00145e-05;0.000293265;-1.05474;-0.948102;0.000375461;0.00039102;10.7272;0.0932208;1.76252;46.7625;0.00840283;0.0002445;-0.00266171;0.00324813;0.000233272;-0.00640639;0.00840557;0;0.0168307;0.253501;-0.068351;-0.409919;0.486794;-6.92356;-0.000195541;0.000129632;-3.3058e-05;3.86865e-05;-0.000267286;0.000152986;-5.9151;-0.169059;0.000192387;0.000203981;0.144738;6.90902;14.8915;59.8915;0.00422058;-0.000199706;-0.00262995;0.00288877;-3.6508e-05;-0.00120067;0.00316988;0;0.0224017;0.0183943;3.16226
147000;148;25.7594;0.00434924;0.00016887;-1.9304;25.6864;0.164328;0.0784492;0.012689;-0.217287;0.17363;-0.0548039;-0.19999;0.270457;-7.11915;0.000332377;0.000295162;0.000768806;0.000917659;0.000183524;0.000367067;-0.432329;-2.31305;0.0005607;0.000489423;-5.0002;-0.199992;23.5021;68.5021;0.00866174;0.000327035;-0.00269358;0.00328259;0.000765224;-0.00689421;0.00811079;0;0.0153937;0.25586;-0.0684384;-0.414453;0.491853;-6.9281;-0.000233081;0.000220514;-9.15588e-06;0.000126191;-0.000368428;0.000247309;;;0.000296764;0.000329746;0.342512;2.9196;12.2095;57.2095;0.0040832;-0.000237296;-0.00247117;0.00291159;-1.21849e-05;-0.000880199;0.00349164;0;0.0226722;0.0185926;3.16657
148000;149;25.7622;0.00718594;0.000279012;-1.93018;25.6892;0.166505;0.0786681;0.0155361;-0.215109;0.1746;-0.0542154;-0.206459;0.275771;-7.12562;0.000424087;0.000354809;0.000648359;0.00090833;0.000164116;0.000372107;-0.654093;-1.52883;0.000558938;0.000496143;-5.5347;-0.180678;13.9059;58.9059;0.00882053;0.000418577;-0.00263027;0.00333921;0.000644965;-0.00797366;0.00860587;0;0.0163604;0.257226;-0.0685369;-0.423668;0.500357;-6.93731;-0.000285454;9.20149e-05;-3.89813e-05;-8.41936e-06;-0.000316016;0.000153799;-7.32285;-0.136559;0.000207928;0.000205065;;;24.9157;69.9157;0.00420149;-0.00028922;-0.00256215;0.00274553;-4.22595e-05;-0.00220932;0.00273373;0;0.0226304;0.0195502;3.1757
149000;150;25.7594;0.00437811;0.000169991;-1.929;25.6866;0.157293;0.0798559;0.0128676;-0.224322;0.174732;-0.0554819;-0.205544;0.275423;-7.1247;0.000362599;0.000214229;0.00120264;0.00125412;0.00031112;0.0004715;-0.301502;-3.31673;0.000754079;0.000628666;-4.03098;-0.248078;38.8714;83.8714;0.00833346;0.000357499;-0.00277544;0.00320139;0.00119882;-0.00600565;0.00783557;0;0.0165087;0.25814;-0.0696728;-0.426925;0.503741;-6.94057;-0.000182313;0.000146856;-9.45388e-05;1.4848e-05;-0.0002917;0.000153274;-1.92845;-0.518551;0.0001996;0.000204365;0.0509015;19.6458;6.87562;51.8756;0.00385704;-0.00018628;-0.00252669;0.00282016;-9.77204e-05;-0.00127511;0.00330393;0;0.0234928;0.0212709;3.1846
150000;151;25.7593;0.00430107;0.000167;-1.92896;25.6865;0.155329;0.079894;0.0128052;-0.226286;0.174838;-0.056803;-0.204947;0.275315;-7.12411;0.000408093;0.000260755;0.000986472;0.00108667;0.000307894;0.000389389;-0.41369;-2.41727;0.000646726;0.000519185;-3.52937;-0.283336;30.4509;75.4509;0.00824042;0.00040263;-0.00279683;0.00331657;0.000982598;-0.00588577;0.00964894;0;0.015439;0.258973;-0.0706154;-0.428698;0.505802;-6.94234;-0.000141999;0.000171733;-1.21182e-05;0.000106542;-0.00026066;0.000183601;-11.7179;-0.0853396;0.00021814;0.000244801;0.408741;2.44654;9.57915;54.5792;0.00378438;-0.000146115;-0.00253097;0.00287408;-1.53064e-05;-0.00169912;0.00444831;0;0.0234496;0.0213899;3.18601
151000;152;25.7596;0.00463069;0.000179798;-1.92766;25.687;0.152564;0.0811935;0.0132499;-0.22905;0.175947;-0.0569884;-0.203607;0.275065;-7.12277;0.00035516;0.000485941;0.000872815;0.00116456;6.34144e-05;0.000550573;-0.406913;-2.45753;0.000756122;0.000734097;-18.3643;-0.0544536;19.6611;64.6611;0.00893083;0.000348839;-0.00261892;0.00358919;0.000869506;-0.00738125;0.00967763;0;0.0169029;0.260843;-0.0708728;-0.431259;0.508966;-6.9449;-0.000222784;0.00014855;-6.5106e-05;2.42297e-05;-0.00031212;0.000168175;-3.42186;-0.292239;0.000216608;0.000224233;0.0776296;12.8817;12.4972;57.4972;0.0037935;-0.000226862;-0.00256269;0.00285936;-6.83789e-05;-0.0015967;0.0046216;0;0.0235559;0.0221884;3.19268
152000;153;25.7592;0.00417049;0.000161929;-1.92726;25.6866;0.147699;0.0815898;0.0128465;-0.233916;0.177019;-0.0577788;-0.20524;0.277124;-7.1244;0.000242595;0.000223297;0.000940639;0.00100596;0.000177276;0.00041434;-0.257904;-3.87741;0.000620052;0.000552454;-5.67451;-0.176227;33.9777;78.9777;0.00881952;0.000236761;-0.00297897;0.00342333;0.000936231;-0.00713696;0.00944915;0;0.0155323;0.262511;-0.0716392;-0.43557;0.513581;-6.94921;2.46669e-06;0.000132613;-6.01725e-06;0.000130905;-0.000134456;0.000132681;;;0.000153211;0.000176907;0.973593;1.02712;179.106;44.106;0.00403053;-1.8392e-06;-0.00267233;0.00293758;-9.57915e-06;-0.0021749;0.00324928;0;0.0251609;0.0222155;3.19981
153000;154;25.7581;0.00305914;0.000118778;-1.92647;25.6855;0.144209;0.0823869;0.0118117;-0.237405;0.176931;-0.0586725;-0.206012;0.277827;-7.12517;0.000350655;0.000305358;0.000819536;0.000970071;0.000200121;0.000384975;-0.427871;-2.33715;0.000591403;0.0005133;-4.84743;-0.206295;24.0362;69.0362;0.00869401;0.000344674;-0.00286359;0.00347281;0.000815486;-0.00656157;0.00945448;0;0.0156368;0.262952;-0.0723537;-0.438957;0.516781;-6.9526;0.000132872;0.000137745;1.26285e-05;0.000223044;-7.75435e-05;0.000150294;-10.5216;-0.0950428;0.000180194;0.000200392;2.87637;0.347661;168.993;33.9931;0.00386569;0.000128552;-0.00266695;0.00294278;9.08171e-06;-0.0019432;0.00431056;0;0.0269285;0.0226317;3.20687
154000;155;25.7579;0.00291655;0.000113242;-1.92529;25.6855;0.137706;0.0835604;0.0117923;-0.243909;0.178632;-0.0575167;-0.211011;0.282388;-7.13017;0.000284309;0.000227214;0.000920293;0.000993127;0.000211475;0.000390826;-0.308933;-3.23695;0.000604061;0.000521102;-4.6962;-0.212938;32.5041;77.5041;0.00885089;0.000278249;-0.00303672;0.00348908;0.000915712;-0.00634984;0.00940346;0;0.0162105;0.265875;-0.0711084;-0.451484;0.528757;-6.96513;-5.81436e-05;0.000127486;-5.31553e-05;7.18614e-05;-0.00018316;0.000127511;-1.09384;-0.914208;0.000151839;0.000170014;0.392342;2.5488;0.00734838;45.0073;0.00391086;-6.21165e-05;-0.00256668;0.00282163;-5.64413e-05;-0.00129404;0.00392362;0;0.0240103;0.023537;3.21457
155000;156;25.7583;0.00332842;0.000129234;-1.92502;25.686;0.134082;0.0838291;0.0122447;-0.247532;0.179866;-0.0576526;-0.211979;0.283921;-7.13114;0.000469552;-9.1199e-05;0.00104832;0.00106235;0.000455521;0.000303413;-0.44791;-2.23259;0.000615417;0.000404551;-2.33216;-0.428788;60.3796;105.38;0.00844777;0.000464593;-0.0033357;0.00315142;0.00104276;-0.0056114;0.00944985;0;0.0174264;0.26784;-0.0714142;-0.455285;0.533032;-6.96893;0.000357388;5.62796e-05;9.62285e-05;0.000369;8.46166e-05;0.000142192;-3.71395;-0.269255;0.000223206;0.000189589;-4.36084;-0.229314;149.083;14.0827;0.00392391;0.000353543;-0.00266076;0.00277403;9.26906e-05;-0.000314649;0.00500815;0;0.0273379;0.0248745;3.2216
156000;157;25.7561;0.00105924;4.11275e-05;-1.92499;25.6837;0.128166;0.0838665;0.0100021;-0.253449;0.181287;-0.0611707;-0.202791;0.278802;-7.12195;0.000453557;0.000259498;0.00086735;0.000992335;0.000328572;0.000331882;-0.522923;-1.91233;0.000583718;0.000442509;-3.02015;-0.331109;25.1092;70.1092;0.00838758;0.000447508;-0.00297095;0.00348861;0.000862974;-0.00519966;0.00891017;0;0.0152578;0.269406;-0.072946;-0.452115;0.531327;-6.96576;0.00014482;0.000120313;-6.80666e-05;0.000199017;-0.000122264;0.00016064;2.12761;0.47001;0.000187248;0.000214187;1.62776;0.61434;159.708;24.7082;0.00392314;0.00014109;-0.00249262;0.0027338;-7.11662e-05;-0.000874922;0.00561308;0;0.0244174;0.0255183;3.22875
157000;158;25.7584;0.00341726;0.000132683;-1.92401;25.6861;0.130915;0.0848391;0.0124258;-0.250699;0.180672;-0.0591426;-0.209148;0.282636;-7.12831;0.0003183;2.35809e-05;0.000857936;0.000858964;0.000317272;0.000270846;-0.371007;-2.69537;0.000501534;0.000361128;-2.70735;-0.369365;47.5291;92.5291;0.00848753;0.000312611;-0.00332839;0.00337374;0.000852402;-0.00519418;0.0103038;0;0.0156353;0.269572;-0.0721083;-0.457706;0.536063;-6.97135;2.95536e-05;5.2244e-05;-0.000107673;4.71796e-05;-0.000125299;8.62395e-05;0.274474;3.64333;0.000102929;0.000114986;0.376534;2.6558;153.245;18.245;0.00378782;2.61119e-05;-0.00251933;0.00262417;-0.000110846;-0.00105423;0.00536321;0;0.0244388;0.0256702;3.23538
158000;159;25.7555;0.00045203;1.75512e-05;-1.9228;25.6833;0.114443;0.086057;0.0096221;-0.267172;0.181126;-0.0592277;-0.210445;0.283904;-7.1296;0.000342405;0.000318653;0.000882404;0.00103006;0.000194746;0.000417659;-0.388037;-2.57707;0.000631878;0.000556879;-5.28928;-0.189062;25.3897;70.3897;0.00854669;0.000335788;-0.00301712;0.00365262;0.000877908;-0.0046254;0.0110935;0;0.0158267;0.270506;-0.0708585;-0.473109;0.54957;-6.98675;0.000104125;1.54401e-05;2.307e-05;0.000106967;2.02284e-05;4.33692e-05;-4.51346;-0.22156;6.56162e-05;5.78256e-05;-5.28795;-0.189109;146.133;11.1332;0.00400829;0.000100344;-0.00271901;0.00275012;1.93737e-05;-0.000837764;0.00781222;0;0.0257125;0.0268621;3.24329
159000;160;25.7557;0.000656993;2.55093e-05;-1.92029;25.6837;0.114576;0.0885585;0.0100142;-0.267038;0.181504;-0.0593746;-0.214685;0.28733;-7.13384;0.000172917;0.000139371;0.000967978;0.000991702;0.000149194;0.000421254;-0.178637;-5.59794;0.000617441;0.000561672;-6.64708;-0.150442;40.0987;85.0987;0.00905966;0.000166528;-0.00330164;0.00357764;0.000962543;-0.00627609;0.012074;0;0.0148663;0.273209;-0.0713464;-0.478144;0.555298;-6.99179;-7.48696e-05;-0.000127339;-5.91949e-05;6.05473e-05;-0.000194612;0.00012758;-1.2648;-0.79064;0.000153945;0.000170106;0.311118;3.21421;87.5657;132.566;0.00407191;-7.81627e-05;-0.00282415;0.00256943;-6.3175e-05;-0.00203196;0.00742214;0;0.0264742;0.0283007;3.24859
160000;161;25.7562;0.00121549;4.71943e-05;-1.9212;25.6842;0.108213;0.0876474;0.0105337;-0.273401;0.183051;-0.0601672;-0.215676;0.289213;-7.13484;0.000352185;0.000160898;0.000547045;0.000637714;0.000261517;0.000188098;-0.643796;-1.55329;0.000370163;0.000250798;-2.43851;-0.410086;19.2514;64.2514;0.00905171;0.000345288;-0.00339709;0.00371819;0.000541291;-0.00535621;0.0114696;0;0.0172337;0.274824;-0.0717499;-0.486161;0.563053;-6.99981;0.000201014;-0.000126401;-5.9772e-07;0.000261883;-6.14675e-05;0.000161675;;;0.00019828;0.000215567;4.26052;0.234713;110.323;155.323;0.00400566;0.000197225;-0.00300811;0.00275589;-5.11409e-06;-0.00137166;0.00653797;0;0.027456;0.0289973;3.25135
161000;162;25.7546;-0.00039934;-1.55053e-05;-1.91876;25.6828;0.100353;0.0900941;0.00912919;-0.281262;0.182486;-0.0597545;-0.217513;0.290144;-7.13667;0.000151629;0.000328129;0.000963667;0.00107968;3.56132e-05;0.000522035;-0.157346;-6.35544;0.000708216;0.000696046;-30.3169;-0.0329849;30.0608;75.0608;0.00921838;0.000144223;-0.00320945;0.00386283;0.000958575;-0.00599881;0.0116938;0;0.0222228;0.275937;-0.0712747;-0.492634;0.56913;-7.00628;-0.000155453;-8.35857e-06;-4.47765e-05;-4.41488e-05;-0.000156081;5.59661e-05;-3.47176;-0.288038;9.29028e-05;7.46215e-05;-0.282858;-3.53534;48.3947;93.3947;0.00416934;-0.000160045;-0.00304715;0.0030301;-4.94192e-05;-0.00137885;0.00698061;0;0.0271177;0.0294142;3.25864
162000;163;25.7544;-0.000605436;-2.35075e-05;-1.91856;25.6827;0.0956753;0.0902914;0.00895511;-0.285939;0.183909;-0.0600788;-0.218262;0.291668;-7.13742;0.000307607;4.24917e-05;0.000778811;0.000782612;0.000303805;0.000239403;-0.39497;-2.53184;0.000455591;0.000319204;-2.57603;-0.388194;44.1446;89.1446;0.00842675;0.000300698;-0.00363458;0.00371783;0.000772212;-0.00461931;0.0114197;0;0.0151877;0.277837;-0.0710688;-0.498403;0.575022;-7.01205;-0.00011853;9.13851e-06;-0.000111224;-0.000105035;-0.000124718;9.84165e-06;-1.06569;-0.938359;7.7423e-05;1.31222e-05;-0.842178;-1.1874;9.75073;54.7507;0.00388603;-0.000122415;-0.00276921;0.00278747;-0.000115058;0.000123466;0.00633213;0;0.0244876;0.0305836;3.26599
163000;164;25.7563;0.00126863;4.92576e-05;-1.91736;25.6846;0.0964233;0.0914912;0.0109212;-0.285191;0.184954;-0.0590215;-0.222985;0.295658;-7.14214;0.000350422;0.000161074;0.000482821;0.000590768;0.000242475;0.000174147;-0.725781;-1.37783;0.000342899;0.000232196;-2.43641;-0.41044;14.4186;59.4186;0.00910181;0.000342901;-0.00356085;0.0038825;0.000476497;-0.00532028;0.0131616;0;0.0150768;0.279866;-0.0705624;-0.506316;0.582803;-7.01996;-0.000146911;5.40953e-05;-0.000240618;-0.0001222;-0.00026533;7.1565e-05;-0.610557;-1.63785;0.000153347;9.542e-05;-0.460558;-2.17128;157.639;22.6393;0.0043509;-0.000151092;-0.00278345;0.0028919;-0.000244491;-0.000908831;0.00700316;0;0.0255842;0.0324063;3.2735
164000;165;25.7549;-0.000154244;-5.98889e-06;-1.91632;25.6833;0.0867953;0.0925334;0.00960649;-0.294819;0.184852;-0.0601044;-0.223138;0.295927;-7.1423;9.43806e-05;3.83631e-07;0.000987726;0.000987727;9.43804e-05;0.000446673;-0.0955534;-10.4654;0.000629388;0.000595564;-10.4654;-0.0955532;49.2301;94.2301;0.00881432;8.76772e-05;-0.0036642;0.0036617;0.00098102;-0.00347287;0.0123651;0;0.0153792;0.280458;-0.0712673;-0.513349;0.58929;-7.02699;-0.000270129;9.29887e-05;-0.000317997;-0.000198044;-0.000390082;9.60194e-05;-0.849471;-1.1772;0.000225223;0.000128026;-0.507697;-1.96968;169.79;34.7896;0.00433958;-0.000274215;-0.00267355;0.00285966;-0.000321568;0.000478811;0.00530372;0;0.0263949;0.0330729;3.28072
165000;166;25.7552;0.000225932;8.77236e-06;-1.91656;25.6837;0.0834612;0.092289;0.00998054;-0.298153;0.185814;-0.0602858;-0.224349;0.297479;-7.14351;0.00039216;1.31509e-05;0.000166038;0.000392922;0.000165275;0.000113823;-2.36187;-0.423393;0.000227804;0.000151764;-2.37738;-0.420632;140.501;5.50129;0.00884524;0.000385092;-0.00373327;0.00376042;0.00015907;-0.0043358;0.0134668;0;0.0176053;0.28182;-0.0711791;-0.518044;0.594019;-7.03169;-0.000383222;0.000132109;-0.000324286;-0.000218399;-0.00048911;0.000135356;-1.18174;-0.84621;0.000282926;0.000180474;-0.446523;-2.23953;2.57243;47.5724;0.00427422;-0.000387181;-0.00255217;0.00281623;-0.000327535;0.000171989;0.00608064;0;0.0250492;0.0333516;3.28825
166000;167;25.7559;0.000855476;3.32159e-05;-1.91517;25.6844;0.0797363;0.0936808;0.0107275;-0.301878;0.185375;-0.0609648;-0.225832;0.298464;-7.14499;0.000286022;0.000180964;0.000568472;0.000656795;0.000197698;0.000229549;-0.503141;-1.98751;0.000389083;0.000306065;-3.32222;-0.301004;22.1837;67.1837;0.00900513;0.000277804;-0.00369789;0.00405872;0.000561655;-0.00456413;0.0130217;0;0.0149485;0.282005;-0.0725697;-0.524045;0.599514;-7.03769;-0.000219076;0.000199077;-0.000408726;-9.33938e-05;-0.000534408;0.000220507;-0.535997;-1.86568;0.000329581;0.000294009;-0.174761;-5.72209;164.233;29.233;0.00422401;-0.000223903;-0.00271439;0.00311309;-0.000412391;-0.000221331;0.00585364;0;0.0248329;0.0358277;3.29568
167000;168;25.7555;0.000531265;2.06276e-05;-1.9152;25.6841;0.0744556;0.0936509;0.010416;-0.307159;0.186973;-0.0608294;-0.229205;0.301984;-7.14836;0.000289615;0.000245829;0.000421191;0.000609883;0.000100924;0.000254479;-0.68761;-1.45431;0.000377472;0.000339306;-6.04301;-0.165481;10.1265;55.1265;0.00908813;0.000280897;-0.00369228;0.00418341;0.000414408;-0.00489209;0.0141015;0;0.0150452;0.283915;-0.072655;-0.530561;0.60612;-7.04421;-0.000365301;0.000429221;-0.000444207;2.62761e-05;-0.000835784;0.00043103;-0.822367;-1.216;0.000566151;0.000574707;0.0314389;31.8077;173.454;38.4537;0.00413917;-0.000370777;-0.00247793;0.0033366;-0.000447186;0.000387306;0.00522142;0;0.0264999;0.0368712;3.30334
168000;169;25.755;1.76162e-05;6.8399e-07;-1.91493;25.6836;0.0677849;0.0939181;0.00993931;-0.31383;0.187669;-0.0601687;-0.23117;0.303776;-7.15033;0.000279297;0.000218012;0.000316969;0.000516958;7.93084e-05;0.000218825;-0.881149;-1.13488;0.00032148;0.000291766;-6.51832;-0.153414;4.5835;49.5835;0.00928599;0.000269786;-0.00393156;0.00436742;0.000309267;-0.00472353;0.0142327;0;0.0139363;0.285036;-0.072432;-0.536621;0.611927;-7.05027;-0.00034242;0.000442824;-0.000501624;2.79001e-05;-0.000871944;0.000449922;-0.682623;-1.46494;0.000590816;0.000599896;0.0319976;31.2524;170.741;35.7409;0.00446815;-0.000347759;-0.00241106;0.00329716;-0.000504434;0.000159765;0.00500577;0;0.0288076;0.0375624;3.31013
169000;170;25.7548;-0.000236553;-9.18474e-06;-1.91417;25.6835;0.063863;0.0946862;0.00975175;-0.317752;0.188354;-0.0608115;-0.230273;0.303646;-7.14943;0.000204324;-0.000125112;0.000313206;0.000395209;0.000122322;0.000136443;-0.652365;-1.53288;0.000233628;0.000181925;-3.2309;-0.309511;80.1283;125.128;0.00963205;0.000196631;-0.0041756;0.00392493;0.000304498;-0.00501832;0.015611;0;0.0147048;0.286151;-0.0734017;-0.540279;0.615769;-7.05392;-0.000266997;0.000480359;-0.000590349;7.81639e-05;-0.00093551;0.000506837;-0.45227;-2.21107;0.000651293;0.000675783;0.0835522;11.9686;166.592;31.5915;0.00431343;-0.000272728;-0.00245723;0.0034189;-0.000593255;0.00154697;0.00423708;0;0.0279656;0.0398028;3.31703
170000;171;25.7559;0.000880311;3.41802e-05;-1.91321;25.6847;0.0623505;0.0956441;0.0109468;-0.319264;0.188721;-0.0611915;-0.231401;0.304805;-7.15056;0.000324437;-9.1713e-06;0.00071925;0.000719463;0.000324224;0.000197619;-0.451077;-2.21692;0.000416056;0.000263492;-2.21903;-0.450648;49.9538;94.9538;0.00936945;0.00031577;-0.00418403;0.00416404;0.000710503;-0.00331676;0.01545;0;0.0147718;0.286784;-0.0739509;-0.544046;0.619435;-7.05769;-0.000198973;0.000646758;-0.000460334;0.000330175;-0.000989482;0.000659828;-0.432237;-2.31355;0.000792967;0.000879771;0.333684;2.99685;171.193;36.1928;0.00447144;-0.000205403;-0.00234924;0.00364353;-0.000462886;0.00123119;0.00548346;0;0.0317722;0.0401648;3.3186
171000;172;25.7568;0.00183119;7.11005e-05;-1.91432;25.6855;0.0577873;0.0945313;0.0118281;-0.323827;0.189196;-0.0621649;-0.230009;0.304243;-7.14917;0.000270864;-0.000234099;0.000708099;0.000809788;0.000169175;0.000320306;-0.382522;-2.61423;0.000493234;0.000427075;-4.78668;-0.208913;71.9343;116.934;0.00876939;0.000263383;-0.00434553;0.00387554;0.000698691;-0.00244272;0.0145757;0;0.0146491;0.287791;-0.0752773;-0.547344;0.622957;-7.06099;-0.000195857;0.000629351;-0.000706819;0.000227892;-0.00113057;0.00067923;-0.277097;-3.60884;0.000840044;0.00090564;0.201573;4.96098;164.853;29.8528;0.00470816;-0.000202608;-0.0024672;0.00372748;-0.000709666;0.000598438;0.00516948;0;0.0275934;0.0415664;3.32652
172000;173;25.7564;0.00138737;5.38679e-05;-1.91279;25.6852;0.0531033;0.0960669;0.0115075;-0.328511;0.189211;-0.0615919;-0.231319;0.305127;-7.15048;0.000173799;0.000138086;-2.9379e-05;0.000243639;-9.92196e-05;0.000171429;5.91574;0.169041;0.000203719;0.000228573;2.45555;0.40724;162.374;27.3737;0.00983458;0.000164042;-0.00414284;0.00441988;-3.79513e-05;-0.00496319;0.0166671;0;0.0174374;0.288312;-0.0750181;-0.552106;0.627354;-7.06575;-0.000251139;0.000619677;-0.00068602;0.00018814;-0.0011253;0.000656719;-0.366081;-2.73164;0.000820138;0.000875626;0.167191;5.98117;166.164;31.164;0.00478867;-0.000258102;-0.00254176;0.00378248;-0.00068906;0.000336875;0.00512554;0;0.0252214;0.0438018;3.33165
173000;174;25.7592;0.00416732;0.000161806;-1.91341;25.688;0.0537028;0.0954384;0.0142471;-0.327912;0.19043;-0.062796;-0.230552;0.30555;-7.14971;7.39899e-05;-0.000102962;0.000493317;0.000517234;5.00726e-05;0.000233581;-0.149985;-6.66736;0.000329403;0.000311441;-10.3297;-0.0968085;60.0331;105.033;0.00983722;6.52587e-05;-0.00438792;0.00418021;0.0004837;-0.00456066;0.0156681;0;0.0135047;0.289617;-0.0772774;-0.554117;0.629997;-7.06776;-0.000211767;0.000594297;-0.000636874;0.000206844;-0.00105548;0.000631164;-0.33251;-3.00742;0.000781779;0.000841552;0.19597;5.10282;166.295;31.2952;0.00495825;-0.00021838;-0.00249464;0.00368454;-0.000639811;-0.00032077;0.00614163;0;0.0361752;0.0447462;3.33806
174000;175;25.7575;0.00248125;9.63403e-05;-1.91233;25.6864;0.0427337;0.0965205;0.0126576;-0.338881;0.191426;-0.0618169;-0.232135;0.307168;-7.15129;0.000186246;-2.47817e-05;-7.36193e-06;0.000189367;-1.04837e-05;9.99254e-05;;;0.00012988;0.000133234;18.0631;0.0553615;128.459;173.459;0.0102316;0.000176418;-0.00448256;0.00443386;-1.74084e-05;-0.00446916;0.0179673;0;0.0140296;0.291173;-0.0758353;-0.560952;0.636553;-7.0746;-0.00010177;0.000616126;-0.000614148;0.000309307;-0.00102522;0.000667266;-0.165709;-6.03468;0.000806602;0.000889688;0.301697;3.31458;165.689;30.6894;0.00531254;-0.000109361;-0.00271064;0.00394459;-0.000617634;-0.000234976;0.00536677;0;0.0351739;0.0468624;3.34606
175000;176;25.7599;0.00489757;0.00019016;-1.91257;25.6888;0.0461235;0.0962867;0.0150573;-0.335491;0.192063;-0.0590961;-0.238582;0.311932;-7.15774;0.000207377;-0.000168354;-0.000358036;0.000253708;-0.000404367;0.000329038;0.579207;1.7265;0.000383245;0.000438717;0.62742;1.59383;119.202;164.202;0.0103899;0.000197856;-0.00470146;0.00436732;-0.000369078;-0.00463473;0.017568;0;0.0174737;0.292012;-0.0750962;-0.567017;0.642198;-7.08066;-7.79273e-05;0.000568457;-0.000614388;0.000282405;-0.00097472;0.000628562;-0.126837;-7.88411;0.000761606;0.000838083;0.289729;3.4515;164.48;29.4802;0.00481212;-8.54991e-05;-0.00279391;0.00393263;-0.000618131;-0.000590432;0.00455414;0;0.0386985;0.0474586;3.35298
176000;177;25.7607;0.00572567;0.000222313;-1.91159;25.6897;0.0443769;0.0972615;0.0159633;-0.337238;0.192044;-0.0611503;-0.235167;0.309716;-7.15433;5.03299e-05;-8.51071e-05;-0.000207053;7.59262e-05;-0.000232649;0.000154288;0.243078;4.11391;0.000185657;0.000205717;0.326355;3.06415;117.831;162.831;0.00925441;4.04185e-05;-0.00462226;0.00445321;-0.000217734;-0.00113868;0.0173551;0;0.0148815;0.292564;-0.0765905;-0.570165;0.645406;-7.08381;-8.25461e-05;0.000597155;-0.000779524;0.000260369;-0.00112244;0.000691404;-0.105893;-9.44349;0.000848504;0.000921872;0.231967;4.31096;161.318;26.3178;0.00511741;-9.0416e-05;-0.00281518;0.00401186;-0.000783311;0.00024841;0.00638961;0;0.0310651;0.0512875;3.36091
177000;178;25.7591;0.00405843;0.000157578;-1.91097;25.6881;0.0317055;0.0978867;0.0143568;-0.349909;0.192336;-0.0630098;-0.231891;0.307793;-7.15105;1.96989e-05;-6.47056e-05;0.000132338;0.000161801;-9.76445e-06;8.57828e-05;-0.148854;-6.71801;0.000111265;0.000114377;;;70.0227;115.023;0.0103023;9.49582e-06;-0.00464775;0.00451782;0.00012154;-0.00478605;0.0169568;0;0.0138706;0.293464;-0.0782209;-0.574032;0.649425;-7.08768;-8.05839e-05;0.000620189;-0.00066779;0.000311989;-0.00106036;0.000686176;-0.120673;-8.28688;0.00083067;0.000914901;0.294229;3.39872;164.366;29.3664;0.00511456;-8.90438e-05;-0.00291723;0.00415968;-0.000671855;0.000279326;0.0056222;0;0.0285737;0.0535488;3.36727
178000;179;25.7619;0.00686538;0.000266565;-1.91135;25.6908;0.0389741;0.0974997;0.0171327;-0.34264;0.193312;-0.0624152;-0.238399;0.313208;-7.15756;0.000147389;-1.38656e-05;-0.000127539;0.000148087;-0.000128236;0.000138161;1.15564;0.865319;0.000159672;0.000184215;1.1548;0.865953;132.248;177.248;0.0100605;0.000136349;-0.00472583;0.0046994;-0.000138707;-0.0024749;0.0167455;0;0.0151027;0.294737;-0.0783969;-0.580335;0.655595;-7.09398;-6.31422e-05;0.00055202;-0.000575033;0.000289381;-0.000927556;0.000608469;-0.109806;-9.10695;0.000734096;0.000811292;0.311982;3.20531;165.038;30.0382;0.00520807;-7.13653e-05;-0.00298681;0.00409265;-0.000579343;0.000290903;0.00566663;0;0.0266065;0.0546451;3.37464
179000;180;25.7607;0.00567344;0.000220285;-1.91091;25.6897;0.0280766;0.097939;0.0159843;-0.353538;0.19452;-0.06115;-0.238743;0.313968;-7.1579;0.000130931;-0.000362711;-5.51965e-05;0.000412327;-0.000336593;0.00037446;2.37208;0.421571;0.000433125;0.00049928;1.225;0.816325;97.4911;142.491;0.00989895;0.000121308;-0.00512666;0.00440213;-6.82729e-05;-0.00251739;0.0178594;0;0.0132696;0.296434;-0.0776607;-0.585171;0.660552;-7.09882;3.7878e-05;0.000484421;-0.000619163;0.000294669;-0.000875954;0.000585311;0.061176;16.3463;0.000703086;0.000780415;0.336397;2.97267;160.662;25.6623;0.00547409;2.97102e-05;-0.00309953;0.00407072;-0.000623853;-0.000927809;0.00652788;0;0.0296251;0.0553713;3.3806
180000;181;25.7622;0.0071611;0.000278047;-1.90998;25.6913;0.0251947;0.098877;0.0175489;-0.35642;0.194819;-0.0595124;-0.243142;0.317197;-7.1623;1.22227e-06;-0.000257842;-0.000583843;9.86359e-05;-0.000681257;0.000389946;;;0.000490368;0.000519928;0.144785;6.90679;112.582;157.582;0.009762;-8.44208e-06;-0.00491694;0.00440399;-0.000595905;-0.0031976;0.0180424;0;0.0142407;0.297058;-0.0772079;-0.592582;0.667352;-7.10623;7.37342e-05;0.000473238;-0.000553105;0.000327929;-0.0008073;0.000567614;0.13331;7.50133;0.000674622;0.000756819;0.406205;2.46181;161.47;26.4695;0.00555614;6.49056e-05;-0.00327992;0.00422874;-0.000558375;-0.000817246;0.0069222;0;0.0256885;0.0588134;3.38712
181000;182;25.7627;0.00772065;0.000299773;-1.91021;25.6918;0.0227309;0.0986418;0.0180948;-0.358884;0.196161;-0.0591466;-0.245658;0.319883;-7.16482;0.000183983;-0.000352219;-0.000965918;0.000283293;-0.00106523;0.00067426;0.190475;5.25003;0.000821039;0.000899013;0.265946;3.76017;117.017;162.017;0.0101998;0.000173948;-0.00519305;0.0044942;-0.000979353;-0.00287946;0.0189672;0;0.0134603;0.298818;-0.0769178;-0.599561;0.674301;-7.11321;0.000174468;0.000317684;-0.000490796;0.000301801;-0.000618128;0.000459964;0.35548;2.8131;0.000541487;0.000613286;0.488249;2.04814;155.682;20.6816;0.00537933;0.000166317;-0.00341258;0.00405042;-0.000496572;0.000279602;0.0072806;0;0.0240929;0.0626146;3.39503
182000;183;25.7627;0.00767332;0.000297935;-1.90978;25.6918;0.0206664;0.0990758;0.0180813;-0.360948;0.196053;-0.06041;-0.240597;0.316185;-7.15976;1.13364e-05;-0.000405844;-0.000611656;0.000211445;-0.000811765;0.000511605;0.018534;53.9549;0.000623722;0.00068214;0.260476;3.83913;107.068;152.068;0.0100312;1.34985e-06;-0.00529617;0.00448754;-0.000625607;-0.00154034;0.0174168;0;0.0135086;0.299078;-0.0775418;-0.599617;0.674538;-7.11326;0.000189429;0.000441165;-0.000651299;0.000378435;-0.000840306;0.000609371;0.290847;3.43823;0.000720287;0.000812494;0.450354;2.22047;156.483;21.4827;0.00550476;0.000180745;-0.0033056;0.00419108;-0.000656669;-8.53681e-05;0.00752846;0;0.0241187;0.0634492;3.39884
183000;184;25.7618;0.00680093;0.000264062;-1.90849;25.691;0.0122769;0.100366;0.0173078;-0.369338;0.196827;-0.0600242;-0.239231;0.315556;-7.15839;-2.97257e-05;-0.000253095;-0.000590934;6.75535e-05;-0.000688213;0.000377883;-0.0503028;-19.8796;0.000482904;0.000503845;0.0981578;10.1877;112.28;157.28;0.0103288;-4.10747e-05;-0.00527425;0.00477088;-0.000604819;-0.00178896;0.0190181;0;0.0140412;0.300311;-0.0783362;-0.599525;0.675095;-7.11317;0.000149304;0.000294456;-0.000491001;0.000264125;-0.000605822;0.000434973;0.30408;3.2886;0.000515017;0.000579965;0.435977;2.2937;155.072;20.072;0.00531349;0.000140942;-0.00350909;0.00410043;-0.000497118;-8.1142e-05;0.0074678;0;0.0240159;0.0665409;3.40422
184000;185;25.7628;0.00777896;0.000302037;-1.90851;25.692;0.0101629;0.100338;0.0182873;-0.371452;0.197003;-0.059592;-0.24254;0.318099;-7.1617;0.00012249;-0.000452903;-0.000309859;0.000408165;-0.000595533;0.000501849;0.39531;2.52966;0.000582841;0.000669132;0.685377;1.45905;102.279;147.279;0.0106175;0.000112765;-0.00533753;0.00443384;-0.000324005;-0.00263743;0.0189501;0;0.0149792;0.30195;-0.0767107;-0.612321;0.687019;-7.12597;0.000265641;0.000290781;-0.00043156;0.000370997;-0.000536915;0.000453956;0.615537;1.6246;0.000527093;0.000605275;0.690978;1.44722;154.386;19.3863;0.00601866;0.000256296;-0.00374916;0.00433354;-0.000438549;-0.00106465;0.0097762;0;0.0251455;0.0700813;3.41181
185000;186;25.7608;0.00578348;0.000224558;-1.90567;25.6902;-0.00236145;0.103181;0.0164993;-0.383976;0.196771;-0.0598059;-0.240464;0.316415;-7.15962;-1.437e-05;-0.000370351;-0.000434596;0.000201319;-0.000650285;0.000425802;-0.0330653;-30.2432;0.000513946;0.000567736;0.309586;3.23012;103.585;148.585;0.011233;-2.52869e-05;-0.00542584;0.00468727;-0.000449254;-0.00293654;0.0200708;0;0.0135451;0.303473;-0.0765164;-0.617052;0.691884;-7.1307;0.000428661;9.4489e-05;-0.000352975;0.000439921;-0.000364235;0.000402078;1.21442;0.823436;0.000464965;0.000536104;1.20779;0.827956;142.122;7.12183;0.006142;0.000420096;-0.00394859;0.00414073;-0.000360769;-0.00148215;0.010649;0;0.024555;0.073453;3.4194
186000;187;25.7615;0.00645042;0.000250453;-1.90622;25.6908;-0.00276283;0.102635;0.0171276;-0.384377;0.197612;-0.058983;-0.242779;0.318545;-7.16194;2.58233e-05;-0.000255049;-0.000453912;0.000136079;-0.000564168;0.000350124;0.0568906;17.5776;0.000428732;0.000466831;0.241203;4.14588;110.484;155.484;0.0109146;1.42788e-05;-0.00531959;0.00481193;-0.000468035;-0.00245216;0.0181071;0;0.0131342;0.303704;-0.0763937;-0.619868;0.694484;-7.13351;0.000303741;0.000133704;-0.000410936;0.000327935;-0.000435131;0.000381533;0.739143;1.35292;0.000442003;0.000508711;0.753648;1.32688;144.915;9.91531;0.00613;0.000295749;-0.00373061;0.00400078;-0.000417889;-0.00163272;0.0099608;0;0.0235859;0.07395;3.42568
187000;188;25.7616;0.00663552;0.00025764;-1.9052;25.6911;-0.00854994;0.103657;0.0173877;-0.390165;0.198482;-0.058944;-0.241872;0.318389;-7.16103;-0.000147086;-0.000202475;-0.000339231;-1.90469e-05;-0.00046727;0.000224111;-0.433586;-2.30635;0.000305362;0.000298815;-0.040762;-24.5326;101.392;146.392;0.0114065;-0.000158915;-0.0052719;0.00486793;-0.000353112;-0.00430235;0.0198642;0;0.0152905;0.305554;-0.0761056;-0.625767;0.700529;-7.13941;0.000172296;3.34263e-05;-0.000311815;0.000174593;-0.000314112;0.000244352;0.552558;1.80976;0.000285961;0.000325803;0.55583;1.79911;138.496;3.49608;0.00617632;0.00016395;-0.00401721;0.00408602;-0.000319886;-0.00112178;0.0118548;0;0.0241126;0.0783916;3.43276
188000;189;25.7605;0.00553591;0.000214945;-1.90476;25.69;-0.0196903;0.104094;0.0163113;-0.401305;0.1981;-0.058702;-0.243839;0.319604;-7.163;-8.43417e-07;-0.000400304;-0.000916932;0.000149428;-0.0010672;0.000608316;;;0.000766151;0.000811088;0.140018;7.14192;111.945;156.945;0.0103903;-1.19872e-05;-0.00553379;0.0047379;-0.000932177;-0.00153899;0.019567;0;0.014007;0.305888;-0.076005;-0.632599;0.706772;-7.14624;0.000169394;-6.68966e-05;-0.000378301;0.000177447;-0.000386353;0.0002819;0.447777;2.23325;0.000332875;0.000375867;0.459287;2.17729;127.435;172.435;0.00628397;0.000161865;-0.00401316;0.00388153;-0.000386355;-0.00216403;0.0135917;0;0.0236322;0.0825058;3.43964
189000;190;25.7605;0.00553882;0.000215058;-1.9029;25.6902;-0.0195416;0.105956;0.0164524;-0.401156;0.19883;-0.0582198;-0.242488;0.318941;-7.16165;-0.000117986;-0.000406479;-0.000493626;0.000141969;-0.00075358;0.000447774;-0.239018;-4.18378;0.000555787;0.000597032;0.188392;5.30808;100.735;145.735;0.0104862;-0.000128631;-0.00544292;0.00463186;-0.000508363;-0.00226851;0.0161407;0;0.0139839;0.307859;-0.0747983;-0.63819;0.712502;-7.15183;0.000247602;-7.76766e-05;-0.000221602;0.000260127;-0.000234127;0.000247127;1.11733;0.894992;0.000285489;0.000329502;1.11105;0.900048;125.99;170.99;0.00589466;0.000239408;-0.00420282;0.00404941;-0.000230432;-0.000252713;0.0118441;0;0.0241569;0.0861517;3.44733
190000;191;25.7614;0.00640223;0.000248582;-1.90315;25.691;-0.0212585;0.105703;0.017298;-0.402873;0.198942;-0.0573417;-0.243292;0.319464;-7.16245;0.000108613;-0.000186187;-0.00121594;0.000134287;-0.00124161;0.00068795;0.0893241;11.1952;0.000875942;0.000917266;0.108155;9.24599;124.17;169.17;0.0111298;9.61752e-05;-0.00535671;0.00499119;-0.00123029;-0.0035611;0.0191234;0;0.0143405;0.308494;-0.0743621;-0.641362;0.715572;-7.15501;0.00023948;1.74932e-05;-0.000240994;0.000240116;-0.00024163;0.000240873;0.993718;1.00632;0.000278137;0.000321164;0.993734;1.00631;137.136;2.1359;0.00594627;0.000230974;-0.00408809;0.00412505;-0.000249352;4.80011e-05;0.0124374;0;0.0247764;0.0913534;3.45449
191000;192;25.761;0.00603125;0.000234178;-1.90285;25.6907;-0.0247116;0.106003;0.0169451;-0.406326;0.198833;-0.0578315;-0.243097;0.319335;-7.16226;-5.26089e-05;-0.00035321;-0.00110398;5.50323e-05;-0.00121162;0.000633327;-0.0476539;-20.9846;0.000826702;0.000844436;0.0454204;22.0165;114.964;159.964;0.0112002;-6.43832e-05;-0.00556631;0.00486539;-0.00111943;-0.0027077;0.0184383;0;0.0161317;0.309174;-0.074547;-0.646785;0.720747;-7.16043;0.000343627;-6.44716e-05;-0.000241381;0.000350648;-0.000248402;0.000299525;1.42359;0.70245;0.000347537;0.000399367;1.41162;0.708408;129.185;174.185;0.00633968;0.00033449;-0.00440243;0.00427602;-0.000251072;0.000265463;0.0137373;0;0.0237626;0.0953679;3.46167
192000;193;25.7614;0.00642284;0.000249382;-1.9009;25.6912;-0.0305011;0.107951;0.0174758;-0.412116;0.198991;-0.0573152;-0.239008;0.316239;-7.15817;-3.9739e-05;-0.000224973;-0.000564424;4.35139e-05;-0.000647677;0.000345596;-0.0704063;-14.2033;0.000446996;0.000460794;0.0671845;14.8844;113.099;158.099;0.0119725;-5.20037e-05;-0.00540492;0.0049577;-0.000579014;-0.00470055;0.0180531;0;0.0268198;0.31039;-0.0736566;-0.648003;0.72227;-7.16165;0.000159048;-1.1729e-05;-0.00026239;0.000159374;-0.000262717;0.000211045;0.606148;1.64976;0.000246117;0.000281394;0.606637;1.64843;133.106;178.106;0.00614866;0.000150644;-0.00412176;0.00410003;-0.000270887;0.000690045;0.0117149;0;0.0304015;0.0987053;3.46479
193000;194;25.7608;0.00580878;0.00022554;-1.90012;25.6906;-0.0378605;0.108731;0.016908;-0.419475;0.200301;-0.0566657;-0.246392;0.322553;-7.16555;-5.0216e-06;-0.00030235;-0.000452765;0.000147317;-0.000605103;0.00037621;;;0.000460432;0.000501613;0.243457;4.1075;107.099;152.099;0.0112377;-1.74815e-05;-0.00560342;0.0050011;-0.000468425;-0.00390078;0.0182003;0;0.0144556;0.312485;-0.0736325;-0.660469;0.734362;-7.17411;0.000313402;1.556e-05;-0.0002465;0.000313834;-0.000246933;0.000280383;1.27141;0.786531;0.000324526;0.000373844;1.27093;0.786825;136.899;1.8989;0.00582391;0.00030624;-0.00375213;0.00378536;-0.000253541;0.000965104;0.0108172;0;0.0245176;0.108215;3.47674
194000;195;25.7607;0.00573745;0.00022277;-1.89869;25.6906;-0.0413384;0.11016;0.0169368;-0.422953;0.200134;-0.0573081;-0.241839;0.319099;-7.161;-5.29163e-05;-0.000282797;-0.000641468;6.09406e-05;-0.000755325;0.000408133;-0.0824924;-12.1223;0.000525044;0.000544177;0.0806812;12.3945;111.281;156.281;0.011249;-6.5599e-05;-0.00560664;0.00504419;-0.000657156;-0.002875;0.0160895;0;0.0132124;0.312987;-0.0736554;-0.660705;0.734791;-7.17435;0.000272314;5.94361e-05;-0.000341358;0.000278017;-0.000347062;0.00031254;0.797736;1.25355;0.000361623;0.00041672;0.80106;1.24835;140.283;5.28295;0.00601617;0.000264511;-0.00383014;0.0039514;-0.000348694;0.00059128;0.0118826;0;0.0236392;0.109651;3.4773
195000;196;25.7594;0.00437617;0.000169916;-1.89803;25.6893;-0.0507273;0.110822;0.0156039;-0.432342;0.200451;-0.0565156;-0.242678;0.319792;-7.16184;-0.000192768;-0.000306817;-0.000992875;-8.86593e-05;-0.00109698;0.000504162;-0.194151;-5.15063;0.000703634;0.000672216;-0.0808209;-12.373;113.135;158.135;0.0113883;-0.000205136;-0.0055919;0.0049825;-0.00100848;-0.00379558;0.0171665;0;0.0140699;0.314177;-0.0730305;-0.665178;0.739258;-7.17882;0.000219567;0.000108894;-0.000357478;0.000239432;-0.000377343;0.000308388;0.614211;1.6281;0.000359051;0.000411184;0.634521;1.57599;144.872;9.8718;0.00577947;0.000211971;-0.00367955;0.00389953;-0.000364244;0.000880474;0.0108155;0;0.0228736;0.114195;3.48397
196000;197;25.7597;0.00470856;0.000182821;-1.89703;25.6897;-0.0520613;0.111824;0.0160085;-0.433676;0.201091;-0.0577345;-0.241084;0.319206;-7.16024;-0.000104345;-1.20771e-05;-0.000616287;-0.00010406;-0.000616572;0.000256256;-0.169312;-5.90626;0.000381126;0.000341675;-0.168772;-5.92516;131.808;176.808;0.0117226;-0.000118712;-0.00538163;0.00536023;-0.000630777;-0.00374759;0.0180802;0;0.0172264;0.316099;-0.0730752;-0.670175;0.744576;-7.18382;0.000182599;0.000175534;-0.000325028;0.000237384;-0.000379814;0.000308599;0.561794;1.78001;0.000359488;0.000411465;0.625002;1.59999;151.859;16.8586;0.00609154;0.000174518;-0.00367121;0.00402423;-0.000331754;-5.80732e-05;0.0100717;0;0.0232566;0.120887;3.49097
197000;198;25.7616;0.00660468;0.000256443;-1.89612;25.6917;-0.0512959;0.112734;0.0179785;-0.43291;0.200843;-0.0569555;-0.241018;0.318859;-7.16018;-0.000184893;-0.000385473;-0.00031291;0.000141849;-0.000639653;0.000390751;-0.590883;-1.69238;0.000480745;0.000521001;0.22176;4.50938;93.4438;138.444;0.0108154;-0.000196863;-0.00567771;0.00490746;-0.000328959;-0.0012056;0.016669;0;0.0125185;0.31653;-0.0732167;-0.673536;0.747798;-7.18718;0.000341158;0.000113391;-0.000277903;0.000361274;-0.000298019;0.000329646;1.22761;0.814588;0.000381226;0.000439528;1.21225;0.824912;145.351;10.3512;0.00594271;0.000333392;-0.00371405;0.00394321;-0.000284796;0.00049035;0.00969871;0;0.0233846;0.128393;3.49868
198000;199;25.7618;0.00677405;0.000263019;-1.8965;25.6918;-0.0572522;0.112352;0.0181075;-0.438867;0.201311;-0.0559899;-0.24333;0.320735;-7.16249;-0.000120721;-0.00017298;-0.000456371;-4.75332e-05;-0.000529559;0.000241013;-0.264524;-3.78037;0.00033831;0.000321351;-0.0897599;-11.1408;110.628;155.628;0.0116294;-0.000134607;-0.00561659;0.00527247;-0.000472137;-0.00295419;0.0156505;0;0.0144118;0.317232;-0.0726123;-0.678493;0.752503;-7.19214;0.000197194;0.000176998;-0.000301192;0.000253656;-0.000357655;0.000305656;0.65471;1.52739;0.000354639;0.000407541;0.709221;1.41;152.335;17.3353;0.00594658;0.000189935;-0.00345891;0.00381471;-0.00030716;0.000340738;0.0102187;0;0.023594;0.135128;3.50689
199000;200;25.7609;0.00587464;0.000228097;-1.8953;25.691;-0.06398;0.11355;0.0172782;-0.445595;0.201474;-0.056281;-0.241555;0.319544;-7.16071;-4.52085e-05;-0.000126191;-0.000681199;-2.10852e-05;-0.000705323;0.000342119;-0.066366;-15.068;0.000463347;0.000456158;-0.0298944;-33.4511;122.328;167.328;0.0119434;-5.90705e-05;-0.00551568;0.00526673;-0.000696413;-0.00419083;0.0161605;0;0.013202;0.318217;-0.0728477;-0.68156;0.755707;-7.1952;0.000253427;0.00022545;-0.000235012;0.000341579;-0.000323165;0.000332372;1.07836;0.927337;0.000383839;0.000443163;1.05698;0.946089;156.48;21.4798;0.00596446;0.000245572;-0.0035177;0.00397042;-0.000241175;-0.000974537;0.0118196;0;0.022604;0.142404;3.51396
200000;201;25.7605;0.00548711;0.00021305;-1.89566;25.6906;-0.0651835;0.113193;0.0168603;-0.446798;0.20194;-0.0558269;-0.244591;0.322058;-7.16375;-7.5426e-05;-0.000238183;-0.000407128;4.89606e-05;-0.000531514;0.000290238;-0.185264;-5.39771;0.000371739;0.000386983;0.0921152;10.856;106.212;151.212;0.0115318;-8.84961e-05;-0.00559267;0.00511809;-0.000422745;-0.00170458;0.017483;0;0.0123312;0.319564;-0.0717237;-0.689793;0.763596;-7.20344;0.000281902;0.000242475;-0.000245181;0.000376479;-0.000339757;0.000358118;1.14977;0.869736;0.0004137;0.00047749;1.10808;0.90246;156.502;21.5018;0.00611313;0.00027393;-0.00351408;0.00400101;-0.000251327;-0.000504999;0.0107387;0;0.0259222;0.150724;3.52145
201000;202;25.7601;0.005097;0.000197903;-1.89318;25.6903;-0.0727862;0.115675;0.0166317;-0.454401;0.201393;-0.0575518;-0.235524;0.315188;-7.15468;-0.000242278;-0.000236996;-0.000521464;-0.000106819;-0.000656922;0.000275052;-0.464611;-2.15234;0.000407041;0.000366735;-0.162606;-6.14985;103.349;148.349;0.0115813;-0.000256198;-0.00575356;0.00528112;-0.000537996;-0.00378675;0.0171819;0;0.01217;0.319671;-0.0731254;-0.686849;0.761117;-7.20049;0.000253641;0.000234277;-0.000401704;0.000328777;-0.00047684;0.000402809;0.631412;1.58375;0.000467735;0.000537078;0.689491;1.45035;152.262;17.2616;0.00607444;0.000245931;-0.00346322;0.00393419;-0.000407676;-0.00160742;0.0112677;0;0.023073;0.158539;3.52891
202000;203;25.7604;0.00542836;0.000210769;-1.89332;25.6907;-0.0745155;0.115533;0.0169485;-0.45613;0.201591;-0.0563439;-0.240795;0.319055;-7.15995;-0.000208312;-0.000330694;-0.000459076;1.99712e-05;-0.000687359;0.000353665;-0.453764;-2.20379;0.000465039;0.000471554;0.0290549;34.4176;98.7317;143.732;0.011816;-0.000221728;-0.00584999;0.00519;-0.00047614;-0.00191671;0.0179244;0;0.0123473;0.320446;-0.0726353;-0.69383;0.767699;-7.20747;0.000202186;0.0002145;-0.000310796;0.000280057;-0.000388667;0.000334362;0.650543;1.53718;0.000387781;0.000445816;0.720558;1.38781;154.583;19.5826;0.00584815;0.000194625;-0.003464;0.00389488;-0.000316774;-0.000932731;0.0113185;0;0.0251087;0.168546;3.53635
203000;204;25.7604;0.00540099;0.000209706;-1.8934;25.6906;-0.0776816;0.115454;0.0169059;-0.459296;0.201971;-0.0552097;-0.24315;0.320877;-7.16231;-0.000262972;-0.00023263;-0.000589967;-0.000142131;-0.000710807;0.000284338;-0.44574;-2.24346;0.000434317;0.000379118;-0.199957;-5.00108;105.441;150.441;0.0117075;-0.000277196;-0.00580149;0.00533806;-0.000606778;-0.00251111;0.0169977;0;0.0130406;0.321369;-0.0722547;-0.698698;0.772449;-7.21234;0.000216987;0.000260316;-0.000338611;0.000319893;-0.000441517;0.000380705;0.640813;1.56052;0.000441466;0.000507607;0.72453;1.3802;156.131;21.1312;0.00580434;0.000209721;-0.00329864;0.00382125;-0.00034402;-0.000832066;0.0119469;0;0.0260634;0.175954;3.53904
204000;205;25.7589;0.00392665;0.000152462;-1.89126;25.6893;-0.0874044;0.117594;0.015554;-0.469019;0.20223;-0.0579796;-0.234527;0.315058;-7.15369;-0.000272987;-0.000122547;-4.45569e-05;8.74751e-06;-0.000326291;0.000167519;-6.12669;-0.16322;0.000220501;0.000223359;;;67.7845;112.784;0.0125272;-0.000288276;-0.00577676;0.00553038;-6.12358e-05;-0.00420155;0.0169451;0;0.0136383;0.322252;-0.0737261;-0.69703;0.771448;-7.21067;0.00020773;0.000288104;-0.00019187;0.000358535;-0.000342676;0.000350605;1.08266;0.923655;0.000404879;0.000467474;1.04628;0.955767;162.744;27.744;0.00550963;0.000200157;-0.00332501;0.00390266;-0.000197358;-0.000124849;0.0116393;0;0.024668;0.187384;3.54453
205000;206;25.762;0.0070416;0.000273407;-1.8924;25.6923;-0.0800603;0.116451;0.0186171;-0.461675;0.202296;-0.0572785;-0.239422;0.318634;-7.15858;-4.10459e-05;-0.000268721;-0.000314668;0.000123686;-0.0004794;0.000301543;-0.130442;-7.66625;0.000367827;0.000402057;0.258002;3.87594;102.681;147.681;0.011815;-5.58318e-05;-0.00598037;0.0054445;-0.00033252;-0.00286543;0.0178534;0;0.0166093;0.322625;-0.0737106;-0.70285;0.776864;-7.21649;0.000121392;0.000280554;-0.000246196;0.000272995;-0.000397799;0.000335397;0.49307;2.02811;0.000389511;0.000447196;0.686263;1.45717;162.939;27.9393;0.00595502;0.000113929;-0.00331135;0.00387378;-0.000251641;-0.00135334;0.0108884;0;0.0240114;0.197907;3.55155
206000;207;25.762;0.00697493;0.000270818;-1.89176;25.6923;-0.0865406;0.117092;0.0185765;-0.468155;0.202315;-0.055648;-0.244455;0.322159;-7.16361;6.11548e-05;-8.18131e-05;-0.000283501;7.95893e-05;-0.000301935;0.000190762;0.215713;4.63579;0.000232408;0.00025435;0.263597;3.79367;121.816;166.816;0.0119576;4.58133e-05;-0.00570166;0.00553998;-0.000299756;-0.00313915;0.0164308;0;0.0142477;0.323393;-0.072864;-0.71179;0.785199;-7.22543;0.000273843;0.000302265;-0.000270606;0.000408399;-0.000405162;0.000406781;1.01196;0.988176;0.000469711;0.000542374;1.00799;0.992072;159.062;24.0618;0.00550252;0.00026604;-0.00335598;0.0039625;-0.000276193;0.000344216;0.0131162;0;0.0269942;0.206337;3.55802
207000;208;25.7609;0.00587589;0.000228145;-1.89088;25.6912;-0.0935002;0.117968;0.0175146;-0.475115;0.202106;-0.056539;-0.242522;0.320719;-7.16168;-0.000162912;-9.6952e-05;-0.000605696;-0.000142614;-0.000625994;0.00024169;-0.268966;-3.71794;0.000378847;0.000322254;-0.22782;-4.38944;121.345;166.345;0.0122667;-0.000178884;-0.00584367;0.00565231;-0.000622776;-0.00345779;0.0158089;0;0.0141985;0.323574;-0.0734333;-0.713852;0.787195;-7.2275;0.000238322;0.000292213;-0.000339817;0.000360288;-0.000461782;0.000411035;0.701327;1.42587;0.000475826;0.000548046;0.780212;1.2817;157.294;22.2941;0.00528189;0.000231045;-0.00324014;0.0038266;-0.000345025;2.6989e-05;0.0106201;0;0.023286;0.221443;3.56596
208000;209;25.7585;0.00346528;0.000134548;-1.88929;25.6889;-0.102807;0.119566;0.0151794;-0.484422;0.203011;-0.0596168;-0.230902;0.313183;-7.15006;-0.000407479;-0.000219066;-6.36078e-05;4.29375e-05;-0.000514025;0.000278481;-6.40612;-0.156101;0.000357855;0.000371308;0.083532;11.9715;69.849;114.849;0.0122997;-0.000422824;-0.00598317;0.00554306;-8.14842e-05;-0.00311738;0.0165375;0;0.0130964;0.324879;-0.0745668;-0.711752;0.785938;-7.2254;0.000258805;0.000258789;-0.000273957;0.000363814;-0.000378966;0.00037139;0.944695;1.05854;0.000428874;0.000495187;0.960019;1.04165;157.08;22.0797;0.00559052;0.000251066;-0.00342369;0.00394323;-0.000279786;-0.000741899;0.013016;0;0.0243169;0.23038;3.57267
209000;210;25.7612;0.0062244;0.000241677;-1.88959;25.6916;-0.100993;0.119263;0.0179309;-0.482608;0.202645;-0.0586159;-0.2377;0.317808;-7.15686;-0.000290332;-0.000175526;-4.01242e-05;5.03185e-05;-0.000380774;0.000215546;-7.23581;-0.138201;0.000272177;0.000287395;0.132148;7.56729;71.5475;116.548;0.0121858;-0.000306872;-0.006106;0.00575347;-5.87514e-05;-0.00276301;0.0171452;0;0.0120914;0.325012;-0.0750155;-0.718394;0.792055;-7.23204;0.000194759;0.000211881;-0.000213046;0.000284914;-0.000303201;0.000294057;0.914165;1.09389;0.000339603;0.000392076;0.939687;1.06418;158.037;23.0369;0.00565212;0.000186515;-0.00364101;0.00406634;-0.000219653;-0.000111643;0.0122393;0;0.0251033;0.244933;3.57988
210000;211;25.7605;0.00545361;0.00021175;-1.88794;25.691;-0.102746;0.120916;0.0172726;-0.48436;0.201749;-0.0619625;-0.230066;0.312206;-7.14922;-6.24319e-05;6.15382e-05;0.000275467;0.000286325;-7.32903e-05;0.000179808;0.22664;4.41228;0.000219432;0.000239744;3.90673;0.255969;35.5907;80.5907;0.0125602;-8.05376e-05;-0.00589663;0.00601769;0.000258088;-0.00297108;0.0166293;0;0.0228408;0.325649;-0.0774162;-0.717496;0.791733;-7.23114;0.000101856;0.000269128;-0.000273776;0.000242224;-0.000414144;0.000328184;0.372041;2.68788;0.000383262;0.000437578;0.584878;1.70976;161.926;26.9259;0.00561796;9.41482e-05;-0.00339607;0.0039357;-0.000279508;-0.000257134;0.0122805;0;0.0260243;0.261469;3.58743
211000;212;25.7605;0.00545632;0.000211855;-1.88946;25.6909;-0.107261;0.119397;0.0171452;-0.488875;0.202549;-0.0594246;-0.238919;0.31881;-7.15808;-0.000334074;-0.000125225;-0.000293626;-0.000187002;-0.000440698;0.000126848;-1.13775;-0.878927;0.000255406;0.00016913;-0.424333;-2.35664;83.9798;128.98;0.0120832;-0.000350841;-0.00604197;0.00579128;-0.000311877;-0.00247957;0.0158728;0;0.0132328;0.325836;-0.0752307;-0.726529;0.799796;-7.24017;0.000161606;0.000237132;-0.000353414;0.000254157;-0.000445965;0.000350061;0.45727;2.18689;0.000409241;0.000466748;0.569903;1.75468;155.605;20.6046;0.00572558;0.000154344;-0.00334244;0.00381855;-0.000358974;0.000339602;0.0123988;0;0.028775;0.27423;3.59522
212000;213;25.7604;0.00535725;0.000208008;-1.8877;25.6909;-0.110239;0.121153;0.0171624;-0.491854;0.201832;-0.0611813;-0.233003;0.314277;-7.15216;-0.000186286;-6.51352e-05;-2.73485e-05;-4.0657e-06;-0.000209569;0.000102752;-6.81156;-0.146809;0.000138377;0.000137002;;;64.2534;109.253;0.012806;-0.000204367;-0.00614444;0.0060132;-4.62241e-05;-0.00339358;0.0153212;0;0.0127478;0.326495;-0.0769848;-0.725776;0.799548;-7.23942;0.000158929;0.0002244;-0.000286339;0.000252398;-0.000379808;0.000316103;0.555038;1.80168;0.000367467;0.000421471;0.664541;1.5048;157.177;22.1774;0.00568506;0.000151135;-0.00350448;0.00395493;-0.000292456;0.000102291;0.0139257;0;0.0274615;0.286061;3.60091
213000;214;25.7619;0.006887;0.000267404;-1.88752;25.6924;-0.111443;0.121336;0.0187045;-0.493058;0.201337;-0.060592;-0.239494;0.318694;-7.15865;-0.000341663;8.27447e-05;-7.61784e-05;-5.25007e-05;-0.000365341;0.00015642;-4.48504;-0.222963;0.000228083;0.00020856;-0.143703;-6.95878;28.1292;73.1292;0.0130879;-0.000360463;-0.00596756;0.00613144;-9.39823e-05;-0.00388567;0.0154234;0;0.0124839;0.326265;-0.0773808;-0.731706;0.804879;-7.24535;0.000256336;0.000307207;-0.000404702;0.000377059;-0.000525425;0.000451242;0.633394;1.57879;0.000523391;0.000601656;0.717626;1.39348;155.932;20.9324;0.00562935;0.00024834;-0.00339444;0.0040113;-0.000410419;0.000540251;0.013885;0;0.0255307;0.305687;3.60753
214000;215;25.7612;0.00619303;0.000240459;-1.88734;25.6917;-0.114247;0.121511;0.0180091;-0.495862;0.201826;-0.0614086;-0.239698;0.319312;-7.15886;-0.000135748;-1.78174e-05;0.000283074;0.000283831;-0.000136504;0.000210168;0.479548;2.0853;0.0002476;0.000280223;2.07928;0.480936;47.8643;92.8643;0.0127598;-0.000154327;-0.00613351;0.00609531;0.000264269;-0.00276573;0.0154646;0;0.0115177;0.326603;-0.0778765;-0.736431;0.809361;-7.25008;0.000121109;0.000310031;-0.000420806;0.0002619;-0.000561598;0.000411749;0.287801;3.47462;0.000485828;0.000548998;0.466348;2.14432;158.284;23.2842;0.0055142;0.000113504;-0.00329048;0.00391249;-0.000426174;0.000750979;0.0138309;0;0.0252903;0.323814;3.61435
215000;216;25.7585;0.00345928;0.000134315;-1.88661;25.689;-0.126505;0.122242;0.0152643;-0.508119;0.2007;-0.0666229;-0.231053;0.313217;-7.15021;-0.000195188;6.49491e-05;0.000452245;0.000458696;-0.000201639;0.000330167;0.431597;2.31697;0.000390755;0.000440223;2.27484;0.439592;39.9998;84.9998;0.013086;-0.000215624;-0.00626708;0.00639288;0.000432617;-0.00261917;0.0168044;0;0.0117776;0.326323;-0.081243;-0.73867;0.811616;-7.25231;0.000194567;0.000269581;-0.000570316;0.000280031;-0.00065578;0.000467905;0.341155;2.93121;0.000554618;0.000623874;0.427019;2.34182;151.231;16.231;0.00598893;0.0001863;-0.0035334;0.00407547;-0.000576526;0.000492328;0.0144203;0;0.0241542;0.360194;3.62415
216000;217;25.7605;0.005475;0.00021258;-1.88676;25.691;-0.127845;0.122088;0.0172675;-0.50946;0.200983;-0.0639172;-0.235651;0.316245;-7.15481;-0.000314318;6.75241e-06;0.000322655;0.000322727;-0.00031439;0.000318558;0.974162;1.02652;0.00036785;0.000424744;1.02652;0.974167;44.5009;89.5009;0.0125824;-0.000333636;-0.00620524;0.00621479;0.000303409;-0.00261984;0.0160208;0;0.013464;0.326644;-0.0807197;-0.7422;0.814906;-7.25584;1.95803e-05;0.000266464;-0.000529075;0.000127691;-0.000637186;0.000382438;0.0370086;27.0208;0.000473133;0.000509918;0.200398;4.99007;155.308;20.3083;0.00621571;1.06062e-05;-0.00370984;0.00424495;-0.000535925;-0.000186696;0.0143955;0;0.0266618;0.365951;3.63088
217000;218;25.7596;0.00462754;0.000179675;-1.8858;25.6902;-0.130894;0.123053;0.0164733;-0.512508;0.200614;-0.0674696;-0.233145;0.314889;-7.1523;-0.000221119;0.000244391;0.000914766;0.000965116;-0.000271469;0.000618292;0.241722;4.13699;0.00075045;0.00082439;3.55516;0.281281;35.0298;80.0298;0.0127554;-0.000242344;-0.00603759;0.00651923;0.000896586;-0.00246827;0.0160354;0;0.0157985;0.327177;-0.0826467;-0.744766;0.81765;-7.25841;-2.5305e-06;0.000325711;-0.000624648;0.000136794;-0.000763973;0.000450384;;;0.000560506;0.000600512;0.179056;5.58483;155.985;20.9851;0.00630878;-1.19122e-05;-0.00368997;0.00434388;-0.000631408;0.00102331;0.0160989;0;0.0273592;0.376725;3.63109
218000;219;25.7613;0.00634447;0.000246339;-1.88722;25.6918;-0.128713;0.12163;0.0181014;-0.510328;0.20136;-0.0658041;-0.239545;0.319778;-7.1587;-5.8332e-05;3.64078e-05;0.000332354;0.000335718;-6.16959e-05;0.000198707;0.175512;5.69762;0.00024696;0.000264943;5.44149;0.183773;40.4227;85.4227;0.014118;-7.93134e-05;-0.00640745;0.00647775;0.000311834;-0.00474294;0.0166073;0;0.0116905;0.328082;-0.0819109;-0.751181;0.823784;-7.26483;0.000105094;0.000275659;-0.000681126;0.000192113;-0.000768145;0.000480129;0.154295;6.48111;0.000586714;0.000640172;0.2501;3.99841;150.601;15.6013;0.00648795;9.52695e-05;-0.00388692;0.00444151;-0.000688647;0.00074459;0.0169781;0;0.0276507;0.391502;3.63846
219000;220;25.7623;0.00724588;0.000281339;-1.88535;25.6928;-0.134653;0.123507;0.0191126;-0.516268;0.200976;-0.0681115;-0.238864;0.31951;-7.15802;-4.67277e-05;0.000117437;0.000603197;0.000623766;-6.72968e-05;0.000345531;0.0774667;12.9088;0.000439995;0.000460708;9.26888;0.107888;36.3993;81.3993;0.012893;-6.80413e-05;-0.00629912;0.00652982;0.000583376;-0.00283139;0.016627;0;0.012688;0.327741;-0.0847918;-0.75475;0.827194;-7.26839;5.96382e-06;0.000357031;-0.0007158;0.00015273;-0.000862567;0.000507649;;;0.000632135;0.000676865;0.177065;5.64764;154.988;19.9882;0.00640262;-4.33435e-06;-0.00383526;0.00455234;-0.000723096;0.00134729;0.0179183;0;0.0264098;0.417155;3.64629
220000;221;25.7604;0.00538156;0.000208952;-1.88513;25.6909;-0.144233;0.123723;0.0172071;-0.525848;0.199728;-0.0708463;-0.235427;0.316759;-7.15459;-0.00013202;0.000261153;0.000431082;0.000533552;-0.000234489;0.00038402;0.306252;3.26528;0.000454496;0.000512027;2.27538;0.439488;24.3191;69.3191;0.0131707;-0.00015557;-0.00634886;0.00686744;0.00041097;-0.00220409;0.0175744;0;0.0124223;0.326972;-0.0876304;-0.755588;0.827951;-7.26923;-0.000179689;0.000419212;-0.000921804;9.09489e-06;-0.00111059;0.000559841;-0.194932;-5.13;0.000743442;0.000746455;;;155.779;20.7795;0.00676247;-0.000191459;-0.00402773;0.00486945;-0.000929835;0.00197785;0.0170917;0;0.0297448;0.447988;3.65349
221000;222;25.7615;0.00644978;0.000250428;-1.88457;25.692;-0.1483;0.124284;0.0182962;-0.529915;0.199342;-0.0717632;-0.235087;0.316469;-7.15425;-0.000135226;9.58813e-05;0.000622513;0.000634457;-0.00014717;0.000390814;0.217226;4.6035;0.000479615;0.000521085;4.31104;0.231962;39.0605;84.0605;0.0135161;-0.000157189;-0.00644104;0.00662785;0.000601787;-0.00204212;0.0165473;0;0.0246587;0.32696;-0.08914;-0.759989;0.832125;-7.27363;3.77752e-05;0.000451316;-0.000875541;0.000223163;-0.00106093;0.000642046;0.0431449;23.1777;0.000792221;0.000856061;0.210347;4.75406;154.816;19.8163;0.00701932;2.4932e-05;-0.00418145;0.00508831;-0.000884189;0.00161745;0.0203963;0;0.0428922;0.470524;3.66035
222000;223;25.7622;0.00721049;0.000279964;-1.88315;25.6929;-0.150583;0.125706;0.01915;-0.532197;0.197609;-0.0746167;-0.229485;0.311898;-7.14864;-0.00018831;0.000231734;0.000313799;0.000404401;-0.000278912;0.000341657;0.600098;1.66639;0.000396723;0.000455542;1.44992;0.689692;24.015;69.015;0.0126597;-0.000211057;-0.00628795;0.00674814;0.000294063;-0.00137587;0.0170683;0;0.0142818;0.326207;-0.0920892;-0.759124;0.831361;-7.27277;3.5725e-05;0.000508896;-0.00102745;0.000240045;-0.00123177;0.000735907;0.0347706;28.76;0.000911789;0.00098121;0.194878;5.1314;153.896;18.8956;0.00705763;2.25637e-05;-0.00413309;0.00515581;-0.00103587;0.00113489;0.0194812;0;0.0349305;0.494484;3.66726
223000;224;25.7612;0.00624073;0.000242311;-1.88311;25.6918;-0.157746;0.125742;0.0181372;-0.539361;0.197344;-0.0769717;-0.230198;0.312826;-7.14936;-0.000327627;0.000126249;0.00049864;0.000517499;-0.000346487;0.000431993;0.657041;1.52197;0.000502069;0.000575991;1.49356;0.66954;36.9756;81.9756;0.0133793;-0.000349275;-0.00633291;0.00658007;0.000478605;-0.00244826;0.0173495;0;0.0150516;0.325796;-0.094552;-0.763874;0.835815;-7.27752;2.33449e-05;0.000388031;-0.000922569;0.000162153;-0.00106138;0.000611765;0.0253043;39.519;0.000767368;0.000815686;0.152776;6.54553;152.005;17.0049;0.00713375;1.05863e-05;-0.00428591;0.00506639;-0.000931687;0.00198813;0.0192603;0;0.0333604;0.528451;3.67485
224000;225;25.7605;0.0054935;0.000213298;-1.88235;25.6911;-0.159401;0.126503;0.0174335;-0.541015;0.19679;-0.0792077;-0.2301;0.312964;-7.14926;-5.31601e-05;0.000326562;0.000383209;0.000557767;-0.000227719;0.000392743;0.138724;7.20857;0.000466654;0.000523657;2.44937;0.408268;17.6999;62.6999;0.0134237;-7.6013e-05;-0.00611796;0.00676826;0.000364554;-0.00399249;0.0160351;0;0.0136322;0.325403;-0.0970038;-0.765228;0.83718;-7.27887;-2.88394e-05;0.000438749;-0.00108014;0.000130206;-0.00123919;0.000684697;-0.0266996;-37.4537;0.000872772;0.00091293;0.105073;9.51716;151.647;16.6468;0.00703565;-4.20834e-05;-0.00428276;0.00516522;-0.00108923;0.00151399;0.0195053;0;0.0298421;0.535192;3.67507
225000;226;25.7618;0.00675494;0.000262277;-1.88286;25.6923;-0.164441;0.125993;0.0186292;-0.546055;0.196513;-0.0795721;-0.231467;0.313889;-7.15063;-0.000125375;0.000331636;0.000448863;0.000600401;-0.000276912;0.000438657;0.279316;3.58018;0.000517868;0.000584876;2.1682;0.461212;21.2481;66.2481;0.0132005;-0.000148662;-0.00617269;0.00683222;0.000429876;-0.00304047;0.0172486;0;0.0133044;0.325504;-0.0984868;-0.770853;0.842536;-7.2845;0.000160537;0.000321971;-0.00075997;0.000261976;-0.000861409;0.000561693;0.211242;4.73391;0.000678667;0.000748924;0.304126;3.28812;150.769;15.7695;0.00692801;0.000147469;-0.00447456;0.00512291;-0.000769936;0.00265614;0.020765;0;0.0268964;0.571058;3.6831
226000;227;25.7625;0.00747058;0.000290063;-1.88235;25.6931;-0.166004;0.126499;0.0193739;-0.547619;0.195578;-0.0820556;-0.229998;0.312863;-7.14916;-5.76306e-05;0.00029924;0.000359902;0.000516002;-0.000213731;0.000364867;0.160128;6.24499;0.000433192;0.000486489;2.41426;0.414205;18.2113;63.2113;0.0134479;-8.05923e-05;-0.0061873;0.00678306;0.000340812;-0.00431964;0.0149043;0;0.0142396;0.32491;-0.101076;-0.772515;0.844134;-7.28616;0.000103892;0.000241575;-0.000473959;0.000191578;-0.000561645;0.000376611;0.2192;4.56203;0.00045203;0.000502149;0.341102;2.93168;153.856;18.8556;0.00699784;9.23479e-05;-0.00432552;0.0048113;-0.000483289;0.00262833;0.0212398;0;0.0266127;0.60171;3.68962
227000;228;25.7628;0.00775551;0.000301126;-1.88155;25.6934;-0.166598;0.127301;0.0197145;-0.548213;0.194735;-0.0845433;-0.231889;0.314391;-7.15105;-0.000216818;-5.17011e-06;-0.000227812;-0.000214769;-0.000229861;7.54618e-06;-0.951743;-1.0507;0.000148466;1.00616e-05;-0.934341;-1.07027;112.478;157.478;0.0141341;-0.0002374;-0.00642548;0.00641521;-0.00024846;-0.00372604;0.0171745;0;0.0142697;0.324224;-0.103995;-0.777873;0.84913;-7.29152;0.000106924;7.77144e-05;-0.000186314;0.000126247;-0.000205637;0.000165942;0.573891;1.74249;0.000193432;0.000221256;0.613931;1.62885;148.776;13.7756;0.00681688;9.63776e-05;-0.00443683;0.00459359;-0.000196156;0.00217129;0.0231444;0;0.023754;0.640331;3.69689
228000;229;25.7627;0.00769342;0.000298715;-1.88033;25.6934;-0.168098;0.128522;0.0197318;-0.549713;0.194138;-0.0854309;-0.235386;0.316851;-7.15454;7.5672e-05;9.65324e-06;-0.000384826;7.58742e-05;-0.000385029;0.000230451;0.196639;5.08546;0.00028536;0.000307269;0.197061;5.07456;135.595;0.595001;0.0131659;5.53985e-05;-0.00634564;0.00636787;-0.000404968;-0.00245709;0.0156181;0;0.0141255;0.32362;-0.106149;-0.779543;0.850696;-7.29319;9.33412e-05;7.09417e-06;-9.87354e-05;9.36029e-05;-9.89971e-05;9.63e-05;0.945367;1.05779;0.000111212;0.0001284;0.945511;1.05763;137.159;2.15921;0.00699571;8.32851e-05;-0.00446981;0.00448485;-0.000108726;0.00188545;0.0238594;0;0.024132;0.66311;3.7045
229000;230;25.7617;0.00669715;0.000260033;-1.87945;25.6924;-0.176746;0.129404;0.0187393;-0.558361;0.192309;-0.088871;-0.229441;0.312289;-7.1486;-1.15065e-05;0.000217422;7.76248e-05;0.000255001;-0.000188883;0.000221942;0.148232;6.74618;0.000257222;0.000295923;1.35005;0.740714;6.03328;51.0333;0.0142778;-3.21453e-05;-0.0059941;0.00642838;5.9685e-05;-0.00538529;0.0158748;0;0.0145981;0.322798;-0.10878;-0.781793;0.852779;-7.29544;0.000121794;6.63974e-05;-5.36621e-05;0.000144088;-7.5956e-05;0.000110022;2.26965;0.440596;0.000129057;0.000146696;1.897;0.527149;153.845;18.8455;0.00635581;0.00011188;-0.00432021;0.00445377;-6.29926e-05;0.0015417;0.0235963;0;0.0245298;0.706914;3.71218
230000;231;25.7633;0.00830681;0.000322532;-1.88028;25.694;-0.174223;0.128576;0.02031;-0.555837;0.191793;-0.0905179;-0.23073;0.313392;-7.14989;-1.63214e-05;0.000131928;-0.000412387;2.35996e-05;-0.000452308;0.000237954;-0.0395778;-25.2667;0.000309705;0.000317272;0.0521759;19.1659;150.959;15.9588;0.0139803;-3.7283e-05;-0.00620971;0.00647607;-0.000431666;-0.00519445;0.0165306;0;0.0152846;0.322605;-0.110662;-0.783631;0.854633;-7.29728;0.000125935;-6.0862e-05;5.38172e-05;0.000160618;1.9134e-05;7.07419e-05;-2.34004;-0.427343;0.000101305;9.43225e-05;-8.39435;-0.119128;105.982;150.982;0.00638622;0.00011693;-0.00436577;0.00424435;4.42896e-05;0.00111918;0.0245926;0;0.023127;0.73207;3.71937
231000;232;25.7645;0.0095284;0.000369963;-1.87989;25.6953;-0.174079;0.128957;0.0215637;-0.555693;0.191365;-0.0927281;-0.233041;0.315479;-7.1522;-9.46719e-05;-9.3743e-05;-0.000479864;-7.30695e-05;-0.000501466;0.000214198;-0.197289;-5.0687;0.000312812;0.000285598;-0.145712;-6.86287;120.783;165.783;0.0132806;-0.000113235;-0.00627864;0.00609354;-0.00049958;-0.00292127;0.0138357;0;0.0174432;0.321919;-0.114734;-0.784629;0.855826;-7.29827;-7.17067e-05;-9.12716e-05;7.34664e-05;0.000117496;-0.000115736;0.000116616;0.976049;1.02454;0.000134658;0.000155488;1.0152;0.985024;70.8138;115.814;0.00593195;-7.85939e-05;-0.00389547;0.00371237;6.58837e-05;0.00340386;0.0239115;0;0.0239586;0.771464;3.72637
232000;233;25.7625;0.00747178;0.00029011;-1.87904;25.6932;-0.181454;0.129815;0.0195133;-0.563068;0.190257;-0.0954168;-0.229988;0.313363;-7.14915;-7.02203e-05;-1.27695e-05;-0.00036791;-6.96736e-05;-0.000368457;0.000149392;-0.190863;-5.23937;0.000226022;0.000199189;-0.189096;-5.28833;131.601;176.601;0.0139761;-8.85333e-05;-0.00607545;0.00605172;-0.000386373;-0.00529492;0.0148658;0;0.0149475;0.321498;-0.116021;-0.787751;0.858705;-7.3014;0.000100747;-0.000156955;0.000158778;0.000289377;-2.98515e-05;0.000159614;-0.634514;-1.57601;0.000203599;0.000212819;9.69387;0.103158;85.7297;130.73;0.00601742;9.30142e-05;-0.00425009;0.00393595;0.00014976;0.00212826;0.0252104;0;0.0251014;0.800648;3.73376
233000;234;25.7629;0.00791555;0.00030734;-1.88037;25.6936;-0.181346;0.128481;0.0198614;-0.562961;0.189275;-0.0986203;-0.226669;0.311335;-7.14583;8.33307e-05;0.000284537;-0.000123306;0.000282727;-0.000322702;0.000302715;0.675805;1.47972;0.000349799;0.00040362;0.876124;1.14139;170.013;35.0125;0.014182;6.35765e-05;-0.00572193;0.00629224;-0.000139638;-0.00652341;0.0142032;0;0.0149896;0.320174;-0.120091;-0.783875;0.855216;-7.29752;2.22609e-05;-4.22627e-05;0.000243808;0.000251596;1.44726e-05;0.000118562;-0.0913051;-10.9523;0.000163121;0.000158083;-17.3843;-0.0575232;56.4554;101.455;0.00563883;1.45035e-05;-0.00402455;0.00393915;0.000235712;0.00295033;0.0245334;0;0.0253917;0.841985;3.74147
234000;235;25.7635;0.00850722;0.000330313;-1.8795;25.6942;-0.183963;0.12935;0.0204997;-0.565577;0.18949;-0.0987108;-0.23377;0.3167;-7.15293;-0.000203446;-0.000322363;-0.000215627;0.000112884;-0.000531957;0.00032242;-0.943509;-1.05987;0.000397643;0.000429894;0.212205;4.71243;89.6122;134.612;0.0130665;-0.000219054;-0.00624049;0.00559585;-0.000235052;-0.00257219;0.0147085;0;0.0140452;0.320916;-0.120926;-0.793257;0.864214;-7.3069;-8.24157e-05;-0.000114963;0.000226938;0.000264983;-0.00012046;0.000192721;0.363163;2.75358;0.00022769;0.000256962;2.19976;0.454595;63.8769;108.877;0.00528705;-9.02519e-05;-0.00419154;0.00396035;0.000218163;0.00355756;0.0249965;0;0.0248684;0.876264;3.74848
235000;236;25.7632;0.00818225;0.000317696;-1.87864;25.6939;-0.190053;0.130217;0.0201929;-0.571667;0.188683;-0.101137;-0.231978;0.315664;-7.15114;-6.13646e-05;-0.000337501;-0.000530342;0.000115111;-0.000706818;0.000410964;-0.115708;-8.64247;0.000513898;0.000547952;0.162858;6.14031;106.068;151.068;0.0137982;-7.72903e-05;-0.00632576;0.00565358;-0.000550303;-0.00523008;0.0148428;0;0.0167189;0.320372;-0.123451;-0.795971;0.866861;-7.30962;-0.000154584;-0.000105286;0.000317628;0.00034004;-0.000176995;0.000258517;0.486682;2.05473;0.000303417;0.00034469;1.92118;0.520513;57.6542;102.654;0.00542259;-0.000162267;-0.00413361;0.00392114;0.000309093;0.0035226;0.0248952;0;0.0267877;0.91143;3.75458
236000;237;25.7638;0.00879232;0.000341383;-1.87873;25.6945;-0.192411;0.130124;0.0207803;-0.574026;0.187019;-0.104303;-0.230341;0.314503;-7.1495;0.000181567;0.000148306;-2.45915e-05;0.000259098;-0.000102122;0.00018061;7.38333;0.13544;0.000215015;0.000240814;2.53713;0.394146;163.068;28.0676;0.0137013;0.00016358;-0.00570233;0.00600014;-4.08393e-05;-0.00437686;0.0150987;0;0.0152252;0.319296;-0.127095;-0.7969;0.867844;-7.31054;-0.000292332;-1.90188e-05;7.12797e-05;7.22717e-05;-0.000293324;0.000182798;4.10119;0.243832;0.000223568;0.00024373;0.246389;4.05862;47.2798;92.2798;0.00562624;-0.000300803;-0.00415504;0.00411549;6.26483e-05;0.00320098;0.0251484;0;0.0246916;0.954416;3.75964
237000;238;25.7652;0.010166;0.00039472;-1.87998;25.6958;-0.191283;0.128868;0.0220743;-0.572897;0.186069;-0.106348;-0.231784;0.315682;-7.15094;-3.26259e-05;-0.000132865;0.000307777;0.000353497;-7.83451e-05;0.000215921;0.106005;9.43353;0.000265659;0.000287894;4.51204;0.221629;64.7425;109.742;0.0133857;-4.91476e-05;-0.00601749;0.00574976;0.000289687;-0.00436666;0.0141699;0;0.0168997;0.317692;-0.13015;-0.798281;0.868976;-7.31193;-0.000349078;9.12935e-05;-2.49845e-05;-1.03759e-06;-0.000373025;0.000185994;-13.9718;-0.0715728;0.000248338;0.000247992;;;29.0501;74.0501;0.0057451;-0.000357797;-0.0039949;0.00417616;-3.29602e-05;0.00427689;0.023631;0;0.0254828;0.999058;3.76562
238000;239;25.7658;0.0108225;0.00042021;-1.87884;25.6965;-0.195672;0.130012;0.0227831;-0.577286;0.185156;-0.108414;-0.231279;0.315478;-7.15044;-7.71688e-05;0.000197489;0.000512129;0.000572191;-0.000137231;0.000354711;0.150682;6.63648;0.000434489;0.000472948;4.16956;0.239834;29.2254;74.2254;0.0134186;-9.56836e-05;-0.00569665;0.00608815;0.000495931;-0.00441294;0.0140501;0;0.0143338;0.316924;-0.133306;-0.800095;0.870841;-7.31374;-0.00038139;0.000192278;-4.06211e-05;4.59028e-05;-0.000467914;0.000256908;-9.38897;-0.106508;0.000328315;0.000342544;0.0981009;10.1936;19.4547;64.4547;0.00609173;-0.0003918;-0.00418312;0.00456619;-4.93522e-05;0.00434748;0.025793;0;0.0259082;1.03752;3.77077
239000;240;25.7684;0.0134054;0.000520498;-1.88095;25.6989;-0.197021;0.127904;0.0252085;-0.578636;0.183995;-0.111964;-0.22823;0.313813;-7.14739;-8.25646e-05;8.01533e-05;0.000771596;0.000779052;-9.0021e-05;0.000434537;0.107005;9.34536;0.000551828;0.000579382;8.65412;0.115552;41.4518;86.4518;0.0130253;-0.00010019;-0.00578226;0.00593756;0.000754894;-0.00360202;0.0132607;0;0.0188999;0.315713;-0.137901;-0.800458;0.87145;-7.3141;-0.000454764;0.00035443;-0.000191042;5.52607e-05;-0.000701066;0.000378163;-2.38044;-0.420091;0.000486844;0.000504218;0.0788238;12.6865;8.2452;53.2452;0.00640642;-0.000466792;-0.00420888;0.00491653;-0.000199838;0.00440209;0.0239235;0;0.0254757;1.08331;3.7769
240000;241;25.7724;0.0173538;0.000673805;-1.88181;25.7028;-0.193816;0.127047;0.0291293;-0.57543;0.183325;-0.112362;-0.231389;0.315871;-7.15055;8.79001e-05;0.000210877;0.00127521;0.00131155;5.15589e-05;0.000629998;-0.0689297;-14.5075;0.0008577;0.000839997;-25.438;-0.0393112;38.5935;83.5935;0.0134593;6.91735e-05;-0.00570903;0.00612376;0.00125896;-0.00436412;0.0147961;0;0.0154626;0.314743;-0.140466;-0.804692;0.875399;-7.31834;-0.000628262;0.000488572;-0.000273517;6.88831e-05;-0.000970662;0.000519773;-2.29697;-0.435355;0.000671248;0.00069303;0.0709651;14.0914;7.38987;52.3899;0.00649719;-0.000642387;-0.00436034;0.00533575;-0.000282907;0.00507741;0.0265752;0;0.0244137;1.12737;3.78376
241000;242;25.7732;0.0181577;0.000705017;-1.88282;25.7035;-0.196103;0.126035;0.0298438;-0.577718;0.182337;-0.11486;-0.236125;0.319679;-7.15528;8.39263e-05;0.000124907;0.00100843;0.00102501;6.73478e-05;0.000478833;-0.0832243;-12.0157;0.000662036;0.000638443;-15.2197;-0.0657044;40.1333;85.1333;0.0130919;6.52903e-05;-0.0058623;0.00610658;0.000991276;-0.00378671;0.0152486;0;0.015418;0.313427;-0.144278;-0.811973;0.882243;-7.32562;-0.000567189;0.000464295;6.71912e-05;0.000312299;-0.000812297;0.000562298;8.44142;0.118463;0.000670336;0.000749731;0.384464;2.60102;15.7794;60.7794;0.00648783;-0.000581462;-0.00443605;0.00536152;5.74603e-05;0.00448087;0.0281781;0;0.0252774;1.1709;3.79054
242000;243;25.7758;0.0207951;0.000807421;-1.88457;25.7061;-0.196542;0.124282;0.0323566;-0.578156;0.181549;-0.117359;-0.236443;0.320373;-7.1556;-3.51898e-06;0.000217701;0.00156933;0.00159891;-3.30951e-05;0.000816002;;;0.00107714;0.001088;48.3125;0.0206986;40.9452;85.9452;0.0132019;-2.41344e-05;-0.00599914;0.00642477;0.00155139;-0.00279585;0.0148499;0;0.0146456;0.312481;-0.148243;-0.813656;0.884113;-7.3273;-0.000445692;0.00026085;0.000264502;0.000350014;-0.000531204;0.000440609;1.68502;0.593463;0.000512344;0.000587479;0.658907;1.51767;26.3739;71.3739;0.00638479;-0.000458306;-0.00451006;0.00502837;0.000254368;0.0034571;0.0306462;0;0.0218356;1.21783;3.7983
243000;244;25.7742;0.0192248;0.00074645;-1.88326;25.7045;-0.202758;0.125597;0.0308301;-0.584373;0.180226;-0.121717;-0.233348;0.318979;-7.15251;2.89697e-05;0.000429149;0.00217691;0.00225948;-5.35985e-05;0.00115654;-0.0133077;-75.1442;0.0015245;0.00154205;42.1556;0.0237217;39.1831;84.1831;0.0125303;6.60712e-06;-0.0058567;0.0067015;0.00215989;-0.00188438;0.0144537;0;0.0192871;0.311152;-0.152819;-0.815288;0.885925;-7.32893;-0.000566465;0.000213436;0.000463921;0.000506382;-0.000608926;0.000557654;1.22104;0.818975;0.00064483;0.000743539;0.831598;1.2025;33.5041;78.5041;0.00627673;-0.000578568;-0.00450113;0.00492314;0.000453818;0.00325772;0.0295262;0;0.0220676;1.26958;3.80497
244000;245;25.777;0.0220365;0.000855618;-1.88365;25.7074;-0.196587;0.125206;0.0336686;-0.578202;0.179095;-0.125103;-0.234393;0.320416;-7.15355;0.000193815;0.000669062;0.00253066;0.00270866;1.58142e-05;0.00134642;-0.0765867;-13.0571;0.00180052;0.00179523;-171.28;-0.00583839;36.202;81.202;0.0137345;0.000169084;-0.00574215;0.0070653;0.00251444;-0.00434305;0.0148883;0;0.0196832;0.310177;-0.156238;-0.817349;0.888076;-7.33099;-0.00049227;8.04416e-05;0.00083906;0.000843903;-0.000497113;0.000670508;0.586692;1.70447;0.000782818;0.000894011;1.69761;0.589064;42.7417;87.7417;0.00596168;-0.00050238;-0.00434127;0.00449627;0.000829648;0.00412299;0.0285512;0;0.0220667;1.31925;3.81263
245000;246;25.7775;0.0225254;0.000874604;-1.88432;25.7078;-0.198353;0.124533;0.034096;-0.579967;0.178437;-0.127676;-0.233586;0.320474;-7.15274;3.59896e-05;0.000736817;0.00266395;0.00285644;-0.000156497;0.00150647;-0.0135098;-74.0202;0.00195855;0.00200863;18.2523;0.0547875;36.3555;81.3555;0.0133736;1.04118e-05;-0.0057336;0.00719024;0.00264783;-0.00327454;0.0155395;0;0.0201517;0.309148;-0.159127;-0.818895;0.889653;-7.33254;-0.00036471;6.42881e-05;0.000783965;0.000787552;-0.000368297;0.000577924;0.465213;2.14955;0.000681806;0.000770566;2.13836;0.467648;43.2649;88.2649;0.00538171;-0.00037421;-0.00423484;0.00435849;0.000775007;0.0026223;0.0298028;0;0.0236623;1.36156;3.82004
246000;247;25.7767;0.0216674;0.00084129;-1.8838;25.707;-0.201469;0.125051;0.0332495;-0.583083;0.177702;-0.130031;-0.236276;0.322974;-7.15543;3.62555e-06;0.000581455;0.00279116;0.00290759;-0.000112798;0.00151019;;;0.00197706;0.00201359;25.7769;0.0387944;39.9596;84.9596;0.0136424;-2.03028e-05;-0.00579706;0.00694222;0.00277458;-0.00420314;0.0146002;0;0.0183442;0.308461;-0.161581;-0.824176;0.89472;-7.33782;-0.000397908;5.28176e-05;0.00102497;0.00102693;-0.000399866;0.000713399;0.388212;2.57591;0.000849867;0.000951198;2.56819;0.389379;45.061;90.061;0.00482916;-0.000407038;-0.00417306;0.00427269;0.00101628;0.00266145;0.0328703;0;0.0231348;1.41284;3.82681
247000;248;25.7749;0.0199015;0.000772724;-1.88369;25.7052;-0.205159;0.125159;0.0314575;-0.586774;0.176577;-0.133198;-0.236829;0.324051;-7.15599;-6.32979e-05;0.000938945;0.00290079;0.00317319;-0.000335697;0.00175444;0.0218209;45.8276;0.00223577;0.00233926;9.45252;0.105792;35.0719;80.0719;0.0138761;-9.04856e-05;-0.00557463;0.00743323;0.00288573;-0.00406296;0.0144058;0;0.0164194;0.306878;-0.164226;-0.827031;0.897287;-7.34067;-0.000625775;0.000167962;0.0010315;0.00104835;-0.000642626;0.00084549;0.606664;1.64836;0.00098561;0.00112732;1.63136;0.612986;40.7855;85.7855;0.00492991;-0.000634371;-0.00381919;0.00414851;0.00102423;0.00157139;0.0313639;0;0.0238999;1.45647;3.83139
248000;249;25.773;0.0179834;0.000698248;-1.88226;25.7033;-0.211404;0.126589;0.0295883;-0.593019;0.175249;-0.136216;-0.23692;0.324651;-7.15608;6.63564e-05;0.000937558;0.00305927;0.00332871;-0.000203086;0.0017659;-0.0216903;-46.1036;0.00228984;0.00235453;16.3907;0.0610103;36.0466;81.0466;0.013578;4.08066e-05;-0.00535349;0.0072098;0.00304542;-0.00343376;0.0139378;0;0.0174188;0.305701;-0.166903;-0.83058;0.900651;-7.34422;-0.000579107;0.000160346;0.00112996;0.00114488;-0.000594021;0.000869449;0.512501;1.95122;0.00102061;0.00115926;1.92733;0.518851;41.6084;86.6084;0.00477367;-0.000588736;-0.00407651;0.00438997;0.00112168;0.00266739;0.0318897;0;0.023943;1.51241;3.83569
249000;250;25.7731;0.0180729;0.000701723;-1.88189;25.7034;-0.211937;0.126961;0.0297009;-0.593552;0.173892;-0.138562;-0.238479;0.326053;-7.15764;2.56983e-05;0.000776708;0.00294068;0.00313472;-0.000168342;0.00165153;-0.0087389;-114.431;0.00214813;0.00220204;18.6212;0.0537023;37.6516;82.6516;0.013633;7.38607e-07;-0.00557305;0.00710798;0.0029255;-0.00395076;0.0125314;0;0.0195943;0.304296;-0.169503;-0.832734;0.902649;-7.34638;-0.000620122;0.000103363;0.00119374;0.00119961;-0.000625994;0.000912804;0.519478;1.92501;0.00107122;0.00121707;1.91634;0.521829;43.8822;88.8822;0.00421083;-0.000628324;-0.00385053;0.00405009;0.00118634;0.00353952;0.0286513;0;0.0263487;1.56224;3.84142
250000;251;25.7717;0.0166579;0.000646784;-1.88178;25.702;-0.21664;0.127071;0.028251;-0.598254;0.173821;-0.141216;-0.240815;0.328858;-7.15997;0.000107238;0.000769695;0.00273153;0.00294062;-0.000101851;0.00152124;-0.0392594;-25.4716;0.00199523;0.00202831;28.8716;0.0346361;36.2914;81.2914;0.0139212;8.29421e-05;-0.00549053;0.0070135;0.00271679;-0.00511615;0.0137918;0;0.0177686;0.303711;-0.172293;-0.8359;0.905899;-7.34954;-0.000697698;0.000179432;0.00107791;0.00109586;-0.000715648;0.000905754;0.647269;1.54495;0.00105353;0.00120767;1.53128;0.653047;40.7079;85.7079;0.00426559;-0.000706368;-0.00381499;0.00416676;0.00107066;0.0040898;0.0311471;0;0.0250053;1.61018;3.84871
251000;252;25.7728;0.0178378;0.000692597;-1.88136;25.7032;-0.218179;0.127489;0.0294516;-0.599793;0.172701;-0.144283;-0.238669;0.328034;-7.15783;0.00013377;0.000832731;0.00271521;0.00296052;-0.000111544;0.00153603;-0.0492668;-20.2976;0.00201189;0.00204804;26.5414;0.037677;35.1793;80.1793;0.0137415;0.000109662;-0.0053444;0.00699393;0.00270131;-0.00557347;0.0131555;0;0.0195553;0.302605;-0.175786;-0.83506;0.905426;-7.3487;-0.000696848;0.000200259;0.00107614;0.00109847;-0.000719186;0.00090883;0.647547;1.54429;0.00105702;0.00121177;1.52738;0.654714;40.0182;85.0182;0.00461356;-0.000706065;-0.00390335;0.0042966;0.00106855;0.00429113;0.0295801;0;0.0235765;1.6644;3.85662
252000;253;25.7719;0.0168902;0.000655803;-1.88264;25.7021;-0.225198;0.126214;0.0283476;-0.606812;0.170732;-0.147028;-0.240111;0.329272;-7.15927;0.00024804;0.000698664;0.0026012;0.002793;5.62373e-05;0.00136838;-0.0953562;-10.487;0.00184354;0.00182451;-49.6645;-0.0201351;36.3344;81.3344;0.0141245;0.000225366;-0.00538806;0.00677108;0.00258696;-0.00568665;0.0128939;0;0.0168515;0.300231;-0.178469;-0.840873;0.910525;-7.35452;-0.00086309;0.000425264;0.00100057;0.00109303;-0.000955543;0.00102429;0.862594;1.15929;0.00118363;0.00136571;1.14388;0.874217;33.2758;78.2758;0.00486074;-0.000873137;-0.00365801;0.00450093;0.000993981;0.00481357;0.0312454;0;0.0241752;1.71945;3.86324
253000;254;25.7718;0.0168265;0.000653331;-1.88341;25.7019;-0.229886;0.125447;0.028186;-0.611501;0.169026;-0.149122;-0.241643;0.330452;-7.1608;6.41749e-05;0.000635881;0.00203327;0.00222076;-0.000123318;0.00117204;-0.0315625;-31.6832;0.00152328;0.00156272;18.0084;0.0555298;33.7156;78.7156;0.0136794;4.31963e-05;-0.00524858;0.00650876;0.00201972;-0.00597446;0.0125159;0;0.0168187;0.297873;-0.181855;-0.842362;0.911797;-7.35601;-0.000874204;0.000569463;0.000941463;0.00110529;-0.00103803;0.00107166;0.92856;1.07694;0.00123765;0.00142888;1.06479;0.939148;29.2326;74.2326;0.00558242;-0.000886357;-0.00382979;0.00496072;0.000934298;0.00344331;0.0303649;0;0.0252271;1.76034;3.87114
254000;255;25.7746;0.0195575;0.000759366;-1.88309;25.7046;-0.231671;0.125764;0.0309315;-0.613286;0.167641;-0.152498;-0.242787;0.332121;-7.16195;6.23189e-06;0.00041075;0.00185464;0.00194181;-8.09337e-05;0.00101137;;;0.00132234;0.0013485;23.9926;0.0416795;37.6802;82.6802;0.0134531;-1.27806e-05;-0.00536927;0.0061801;0.00184034;-0.00484605;0.0126566;0;0.0166904;0.296209;-0.185728;-0.847215;0.916519;-7.36086;-0.000801465;0.000822504;0.00105865;0.00137017;-0.00111299;0.00124158;0.757063;1.32089;0.00143621;0.00165544;1.23108;0.812297;25.1325;70.1325;0.00706056;-0.000815483;-0.00371977;0.00535632;0.00105208;0.00259008;0.0278351;0;0.0236535;1.82724;3.87865
255000;256;25.7762;0.0211714;0.000822031;-1.88411;25.7061;-0.239023;0.124738;0.0324074;-0.620638;0.16717;-0.154936;-0.242853;0.33306;-7.16201;5.50817e-05;0.000369987;0.00204214;0.0021088;-1.15732e-05;0.00106018;-0.0269725;-37.0748;0.00140974;0.00141358;182.214;0.00548804;40.0946;85.0946;0.0139748;3.6838e-05;-0.00532327;0.00605194;0.00202807;-0.00614458;0.0132579;0;0.0187492;0.29543;-0.190685;-0.849998;0.919857;-7.36364;-0.000756519;0.000840067;0.00119871;0.00151007;-0.00106787;0.00128897;0.631109;1.58451;0.00149566;0.00171863;1.41409;0.707169;26.1159;71.1159;0.00660677;-0.000770757;-0.0037288;0.0054;0.00119212;0.00302457;0.0292654;0;0.0249948;1.87477;3.88667
256000;257;25.7795;0.0244918;0.000950954;-1.8855;25.7094;-0.235745;0.123357;0.0356659;-0.61736;0.16584;-0.157427;-0.243587;0.334097;-7.16275;-1.63964e-05;0.000466275;0.00216137;0.00225701;-0.000112029;0.00118452;0.00758611;131.82;0.00154337;0.00157936;20.1465;0.0496363;38.7642;83.7642;0.0134922;-3.5661e-05;-0.0053046;0.0062246;0.00214744;-0.00538173;0.0129738;0;0.0178787;0.293786;-0.194445;-0.853189;0.923066;-7.36683;-0.000648119;0.000734291;0.00147725;0.00170626;-0.000877132;0.0012917;0.438734;2.27928;0.00151691;0.00172226;1.94527;0.514067;30.4189;75.4189;0.00667749;-0.000661136;-0.00369417;0.00515334;0.0014707;0.00306134;0.0292329;0;0.0228067;1.92897;3.893
257000;258;25.7807;0.0257047;0.000998048;-1.88554;25.7106;-0.238419;0.123313;0.0368542;-0.620033;0.165275;-0.15986;-0.24147;0.333435;-7.16063;0.00010747;0.000515789;0.0019681;0.00210152;-2.59461e-05;0.00106373;-0.0546061;-18.313;0.00140974;0.00141831;80.9954;0.0123464;35.7128;80.7128;0.0134;8.81178e-05;-0.00522208;0.00624298;0.00195462;-0.00527864;0.0126349;0;0.0161727;0.292641;-0.198224;-0.854846;0.925037;-7.36849;-0.000686453;0.000517265;0.00155383;0.00166749;-0.000800119;0.00123381;0.441782;2.26356;0.00145372;0.00164508;2.08406;0.479833;35.4942;80.4942;0.00618729;-0.000698319;-0.0038725;0.0048972;0.00154648;0.00312166;0.0302924;0;0.0209065;1.98684;3.89998
258000;259;25.7819;0.0268935;0.00104421;-1.88514;25.7118;-0.237998;0.123708;0.0380791;-0.619612;0.163556;-0.163926;-0.237238;0.331518;-7.1564;6.14053e-05;0.000396868;0.00207166;0.00214717;-1.41087e-05;0.00108064;-0.0296407;-33.7375;0.00143617;0.00144085;152.188;0.00657082;39.6237;84.6237;0.0132543;4.30255e-05;-0.0052938;0.00607611;0.00205775;-0.00466265;0.0130697;0;0.0160636;0.291089;-0.203096;-0.850588;0.921673;-7.36423;-0.000540396;0.000489406;0.00179342;0.00189189;-0.000638871;0.00126538;0.301322;3.31871;0.00151966;0.00168718;2.96131;0.337689;38.1217;83.1217;0.00581127;-0.000550385;-0.00352559;0.00449504;0.00178733;0.00354948;0.0312084;0;0.0216161;2.03777;3.90312
259000;260;25.7819;0.0269372;0.0010459;-1.88631;25.7117;-0.243701;0.122542;0.037984;-0.625316;0.162813;-0.164316;-0.243435;0.33581;-7.16259;-0.000250978;0.000292864;0.00182874;0.00186919;-0.000291432;0.00108031;0.137241;7.28644;0.00135377;0.00144042;6.41382;0.155913;41.1391;86.1391;0.0135701;-0.000269035;-0.00544195;0.00601576;0.001814;-0.00488999;0.0141788;0;0.015594;0.28989;-0.203651;-0.862338;0.932274;-7.37598;-0.000456184;0.000329145;0.00171696;0.00176571;-0.000504942;0.00113533;0.265694;3.76373;0.00137668;0.00151377;3.49686;0.285971;41.192;86.192;0.00609466;-0.00046517;-0.00360131;0.00425106;0.00171054;0.00174118;0.0303126;0;0.0222828;2.10176;3.91024
260000;261;25.7838;0.028783;0.00111757;-1.88676;25.7135;-0.239629;0.122088;0.0398398;-0.621244;0.160351;-0.167864;-0.239572;0.333594;-7.15873;1.29184e-05;0.000406952;0.00245242;0.00251852;-5.31777e-05;0.00128585;-0.00526759;-189.84;0.00169701;0.00171446;47.3604;0.0211147;41.7785;86.7785;0.0134384;-6.74134e-06;-0.00548417;0.00628372;0.0024375;-0.00413194;0.012932;0;0.0250723;0.287126;-0.208441;-0.855815;0.926449;-7.36946;-0.000534549;0.00015947;0.00170013;0.00171145;-0.000545871;0.00112866;0.314416;3.1805;0.00135995;0.00150488;3.13527;0.318952;45.6747;90.6747;0.00557466;-0.000541341;-0.003377;0.00368805;0.00169445;0.00286689;0.030589;0;0.0284259;2.15143;3.91503
261000;262;25.7847;0.029724;0.00115411;-1.88682;25.7145;-0.238151;0.122028;0.0407927;-0.619765;0.160612;-0.169568;-0.245887;0.339131;-7.16505;-0.000181519;0.000392715;0.00241026;0.00246846;-0.000239718;0.00135409;0.0753112;13.2782;0.00173109;0.00180545;10.2973;0.0971125;41.9176;86.9176;0.0134955;-0.000201847;-0.00561772;0.0063876;0.00239459;-0.00395894;0.0133027;0;0.0184549;0.287174;-0.210554;-0.864101;0.934597;-7.37775;-0.000367177;8.1933e-05;0.00190717;0.00191012;-0.000370125;0.00114012;0.192524;5.19415;0.00141304;0.00152016;5.16075;0.19377;49.1458;94.1458;0.00546013;-0.000373682;-0.0034515;0.00360735;0.00190123;0.0034066;0.0303739;0;0.0250087;2.21414;3.92193
262000;263;25.7852;0.0302098;0.00117297;-1.88707;25.7149;-0.241194;0.12178;0.0412332;-0.622809;0.159689;-0.172669;-0.243331;0.338416;-7.16249;-0.000195041;0.000224894;0.00299755;0.00301332;-0.000210805;0.00161206;0.0650667;15.3688;0.00208271;0.00214942;14.2943;0.0699578;47.5705;92.5705;0.0132864;-0.000214837;-0.00586513;0.00629552;0.00298043;-0.00306324;0.0147379;0;0.0168747;0.286201;-0.214589;-0.859582;0.931043;-7.37323;-0.00038805;5.13201e-05;0.00182658;0.00182777;-0.000389239;0.0011085;0.212446;4.70707;0.00136686;0.001478;4.69575;0.212959;50.1244;95.1244;0.00462297;-0.000393209;-0.00311614;0.00321178;0.00182173;0.00346555;0.0340314;0;0.0250926;2.26582;3.92998
263000;264;25.7855;0.0304888;0.0011838;-1.88793;25.7151;-0.246531;0.12092;0.0413993;-0.628146;0.158624;-0.173736;-0.248381;0.34211;-7.16754;-0.000166552;0.000391214;0.00314458;0.00319018;-0.000212147;0.00170116;0.0529648;18.8805;0.00220091;0.00226822;15.0376;0.0665;45.2192;90.2192;0.0133067;-0.000188001;-0.00579873;0.00656071;0.0031279;-0.00401605;0.0144137;0;0.0170846;0.285088;-0.215401;-0.871176;0.941605;-7.38482;-0.00038279;7.47263e-05;0.00196476;0.00196713;-0.000385167;0.00117615;0.194828;5.13272;0.00145688;0.0015682;5.10722;0.195801;50.3616;95.3616;0.00478837;-0.000387848;-0.00303855;0.0031807;0.00196015;0.00471213;0.0290442;0;0.0264334;2.32881;3.93677
264000;265;25.7867;0.0316872;0.00123033;-1.88811;25.7163;-0.244813;0.120743;0.0426044;-0.626428;0.157006;-0.176158;-0.249631;0.343508;-7.16879;-0.000118748;0.000719737;0.00357526;0.00371054;-0.000254027;0.00198229;0.0332138;30.108;0.00256257;0.00264305;14.6069;0.0684608;41.9647;86.9647;0.0138168;-0.000144036;-0.00573188;0.00714757;0.00355915;-0.00392207;0.0147018;0;0.0168083;0.282504;-0.218248;-0.873477;0.943612;-7.38712;-0.000367905;4.59412e-05;0.00202323;0.00202412;-0.000368787;0.00119645;0.18184;5.49934;0.00148766;0.00159527;5.48857;0.182197;51.3424;96.3424;0.00488008;-0.000372953;-0.00309265;0.00317705;0.00201846;0.00489186;0.0301536;0;0.0258004;2.38494;3.94475
265000;266;25.7857;0.0307245;0.00119295;-1.8888;25.7153;-0.247415;0.120053;0.0415634;-0.62903;0.155949;-0.181012;-0.244873;0.342124;-7.16403;-0.000228744;0.000643324;0.00341578;0.00352601;-0.000338968;0.00193249;0.0669667;14.9328;0.00247142;0.00257665;10.4022;0.0961338;42.26;87.26;0.0137754;-0.000253994;-0.00587158;0.00713454;0.00339881;-0.00265685;0.0156278;0;0.0162731;0.280979;-0.223032;-0.868749;0.939902;-7.38239;-0.000471943;0.000137806;0.00209617;0.00210355;-0.000479317;0.00129143;0.225145;4.44158;0.00158646;0.00172191;4.38863;0.227861;49.5045;94.5045;0.00506731;-0.000476916;-0.002888;0.00315586;0.00209202;0.00487531;0.0309765;0;0.0250982;2.45197;3.95185
266000;267;25.7882;0.0332081;0.00128939;-1.8888;25.7178;-0.243707;0.120055;0.0440895;-0.625321;0.15439;-0.179297;-0.257742;0.349878;-7.1769;-6.88718e-05;0.000784027;0.00399772;0.00414364;-0.000214794;0.00217922;0.0172278;58.0458;0.00283674;0.00290562;19.2913;0.0518369;42.867;87.867;0.0146162;-9.56005e-05;-0.00581178;0.00735308;0.0039812;-0.00536018;0.0153661;0;0.0204042;0.279749;-0.223995;-0.876693;0.947114;-7.39034;-0.000372648;0.000188702;0.00209255;0.00210691;-0.000387009;0.00124696;0.178083;5.61535;0.0015498;0.00166261;5.44409;0.183686;48.5451;93.5451;0.00534785;-0.000377895;-0.00287438;0.00324424;0.00208844;0.00523904;0.0313597;0;0.026287;2.49671;3.95935
267000;268;25.7889;0.0339405;0.00131782;-1.88898;25.7185;-0.247515;0.119874;0.0447742;-0.629129;0.153387;-0.184204;-0.252411;0.348095;-7.17157;-0.000351365;0.000994475;0.00372356;0.0039533;-0.000581111;0.00226721;0.0943626;10.5974;0.00284906;0.00302294;6.80301;0.146994;39.2332;84.2332;0.0143003;-0.000379794;-0.00564238;0.00760434;0.00370819;-0.00517402;0.0150595;0;0.0224484;0.277848;-0.22793;-0.878308;0.948987;-7.39195;-0.000580104;0.000261647;0.00218732;0.00221184;-0.000604624;0.00140823;0.265212;3.77057;0.00171207;0.00187765;3.65821;0.273358;47.098;92.098;0.00544388;-0.000585507;-0.00278172;0.00329661;0.0021835;0.00580535;0.0316319;0;0.028284;2.56314;3.96713
268000;269;25.7874;0.0323692;0.00125681;-1.88963;25.7168;-0.251608;0.119226;0.0431113;-0.633222;0.152487;-0.189012;-0.249282;0.348022;-7.16844;-0.000338496;0.00105037;0.00353685;0.00380323;-0.000604877;0.00220406;0.0957055;10.4487;0.0027593;0.00293874;6.28761;0.159043;37.5988;82.5988;0.0150248;-0.000367757;-0.00564552;0.00772036;0.00352152;-0.00593614;0.015346;0;0.0194762;0.277092;-0.231728;-0.87862;0.949975;-7.39226;-0.000729618;0.000321817;0.00207122;0.00210772;-0.00076612;0.00143692;0.352266;2.83877;0.00171842;0.00191589;2.75116;0.363483;44.2515;89.2515;0.00555147;-0.00073627;-0.00302604;0.00366032;0.0020667;0.00559592;0.0299514;0;0.0258283;2.61581;3.97392
269000;270;25.7873;0.0322944;0.00125391;-1.88736;25.7169;-0.254749;0.121495;0.0431719;-0.636364;0.149813;-0.190381;-0.251197;0.348982;-7.17036;-0.000425226;0.000696111;0.0032472;0.00337472;-0.000552746;0.00196373;0.130952;7.6364;0.00245489;0.00261831;6.10536;0.163791;40.5739;85.5739;0.0154553;-0.000453068;-0.00612564;0.00749286;0.00322874;-0.00574472;0.0156634;0;0.0172638;0.27416;-0.235896;-0.877157;0.948796;-7.3908;-0.000844432;0.000493324;0.00210991;0.00219011;-0.000924632;0.00155737;0.400223;2.49861;0.00184711;0.00207649;2.36862;0.422186;41.0996;86.0996;0.00611378;-0.000851845;-0.00290365;0.00388028;0.00210582;0.00658091;0.0318489;0;0.0254154;2.67834;3.97887
270000;271;25.7906;0.0355634;0.00138083;-1.887;25.7202;-0.253958;0.121852;0.0464839;-0.635572;0.147623;-0.193639;-0.247823;0.347426;-7.16698;-0.000497293;0.000555394;0.00267476;0.00276919;-0.000591726;0.00168046;0.185921;5.37863;0.00207173;0.00224061;4.67985;0.213682;39.9102;84.9102;0.0160115;-0.000525158;-0.00639512;0.00748389;0.00265452;-0.00596746;0.0171927;0;0.0180244;0.272524;-0.24083;-0.875757;0.948271;-7.3894;-0.000662632;0.000458201;0.00241585;0.0024826;-0.000729384;0.00160599;0.274285;3.64584;0.00194435;0.00214132;3.4037;0.293798;43.2515;88.2515;0.00655579;-0.000671606;-0.00335508;0.00425976;0.00241034;0.00491201;0.0337467;0;0.029832;2.73753;3.98316
271000;272;25.7901;0.035054;0.00136106;-1.88795;25.7196;-0.253847;0.120899;0.0459042;-0.635461;0.147138;-0.193876;-0.25757;0.354372;-7.17673;-0.000213633;0.000770902;0.0031582;0.00332609;-0.000381524;0.00185381;0.0676439;14.7833;0.00235489;0.00247175;8.71791;0.114706;38.9117;83.9117;0.0158365;-0.000242019;-0.00605443;0.00757325;0.00314023;-0.00679516;0.014808;0;0.0155603;0.270984;-0.240869;-0.887284;0.9585;-7.40093;-0.000815172;0.000350799;0.00250855;0.00254518;-0.000851793;0.00169848;0.324957;3.07733;0.00204085;0.00226465;2.98802;0.33467;46.2472;91.2472;0.00601116;-0.000821827;-0.00297324;0.00366381;0.00250421;0.00634213;0.0319131;0;0.0401538;2.79584;3.98984
272000;273;25.7937;0.0386604;0.00150108;-1.8876;25.7232;-0.256238;0.121255;0.0495229;-0.637853;0.1472;-0.198134;-0.253954;0.354144;-7.17311;-0.000285332;0.000760582;0.00287066;0.00304439;-0.000459066;0.00175173;0.099396;10.0608;0.00219865;0.00233564;6.63172;0.15079;37.7099;82.7099;0.0151433;-0.000312637;-0.00592773;0.00742782;0.00285343;-0.00601856;0.015813;0;0.0145262;0.271058;-0.247607;-0.885054;0.958176;-7.3987;-0.000638596;0.000213208;0.00252133;0.00253565;-0.000652917;0.00159428;0.253278;3.94823;0.00194495;0.00212571;3.88357;0.257495;48.7632;93.7632;0.00602917;-0.000645406;-0.00327989;0.0036953;0.00251598;0.00636853;0.0333693;0;0.02321;2.85497;3.99709
273000;274;25.7941;0.0390889;0.00151772;-1.88648;25.7238;-0.253221;0.122371;0.0500644;-0.634835;0.144342;-0.19887;-0.261718;0.358999;-7.18088;-0.000383492;0.000714573;0.00249917;0.00266658;-0.000550903;0.00160874;0.153448;6.51687;0.00198698;0.00214499;4.84037;0.206596;36.3496;81.3496;0.0162431;-0.000411237;-0.00607225;0.00748185;0.00248103;-0.00747361;0.01469;0;0.0137981;0.268808;-0.249157;-0.89341;0.96567;-7.40705;-0.000422109;9.38338e-05;0.00257882;0.00258175;-0.00042504;0.0015034;0.163683;6.10936;0.00187894;0.00200453;6.07413;0.164633;52.3081;97.3081;0.00612541;-0.000427853;-0.0032121;0.00338987;0.00257368;0.0065547;0.0365419;0;0.024503;2.91187;4.00463
274000;275;25.7956;0.0406201;0.00157717;-1.8875;25.7252;-0.254617;0.121351;0.0515111;-0.636232;0.142559;-0.202061;-0.258156;0.357486;-7.17731;-0.000509633;0.000282016;0.00187557;0.00190846;-0.000542523;0.00122549;0.271722;3.68023;0.00148652;0.00163399;3.51774;0.284273;41.391;86.391;0.0159494;-0.000533332;-0.0063404;0.00688865;0.00185554;-0.0069119;0.0151618;0;0.0152119;0.265411;-0.253947;-0.88978;0.962622;-7.40342;-0.000460795;-0.00020567;0.00268923;0.0027026;-0.000474166;0.00158839;0.171348;5.83608;0.00197882;0.00211785;5.6997;0.175448;57.6411;102.641;0.00615114;-0.000466133;-0.00369541;0.00327311;0.00268244;0.00451493;0.0387341;0;0.0305032;2.98703;4.01159
275000;276;25.7986;0.0435529;0.00169105;-1.88646;25.7283;-0.248952;0.122394;0.0545839;-0.630566;0.140168;-0.204716;-0.258487;0.35829;-7.17765;-0.000476984;0.000190591;0.00123203;0.00125302;-0.000497981;0.000875502;0.387155;2.58295;0.0010418;0.00116734;2.5162;0.397424;40.3553;85.3553;0.016764;-0.000502855;-0.00682479;0.00719399;0.00120878;-0.00845691;0.0161278;0;0.0201655;0.264153;-0.258288;-0.888478;0.962228;-7.40212;-0.000576316;-0.000368007;0.00267353;0.00271468;-0.000617467;0.00166608;0.215563;4.63901;0.0020469;0.00222143;4.39648;0.227454;60.22;105.22;0.00572103;-0.000580564;-0.00368386;0.00293711;0.00266683;0.00416226;0.037571;0;0.0272565;3.03529;4.01876
276000;277;25.8004;0.0454386;0.00176426;-1.8863;25.7302;-0.244349;0.122548;0.0565302;-0.625964;0.137876;-0.203716;-0.269011;0.364523;-7.18817;-0.000789622;0.000131107;0.00190744;0.0019138;-0.00079598;0.00135489;0.413969;2.41564;0.00160825;0.00180652;2.40433;0.415916;44.6063;89.6063;0.0162447;-0.000815007;-0.00688031;0.00712364;0.00188383;-0.0062661;0.0144674;0;0.0189513;0.261767;-0.258648;-0.898029;0.970503;-7.41167;-0.000608798;-0.000459276;0.00283286;0.00289309;-0.000669032;0.00178106;0.214906;4.6532;0.00218613;0.00237475;4.32429;0.231252;61.2702;106.27;0.00542804;-0.00061339;-0.00399508;0.0030644;0.002825;0.0050084;0.0383013;0;0.0264057;3.09894;4.02563
277000;278;25.8014;0.0464242;0.00180253;-1.88776;25.7311;-0.245733;0.121089;0.0573983;-0.627348;0.140437;-0.207865;-0.26238;0.363007;-7.18154;-0.00032343;0.000204759;0.00172701;0.00174726;-0.000343678;0.00104547;0.187278;5.33967;0.00129469;0.00139396;5.084;0.196696;42.4339;87.4339;0.0158587;-0.000347296;-0.00651492;0.00691067;0.00170584;-0.00560869;0.0144784;0;0.0180204;0.262674;-0.264839;-0.887763;0.962944;-7.40141;-0.000517092;-0.000348734;0.00282796;0.00286393;-0.000553062;0.00170849;0.18285;5.46896;0.00211785;0.00227799;5.17831;0.193113;60.5303;105.53;0.00574243;-0.000521438;-0.00367645;0.00296789;0.00282128;0.00349504;0.0382056;0;0.0245335;3.15387;4.03345
278000;279;25.8014;0.0463594;0.00180002;-1.88756;25.731;-0.249709;0.121297;0.0573103;-0.631323;0.13744;-0.206995;-0.272283;0.368612;-7.19144;-0.000578857;0.000357506;0.00190315;0.00195362;-0.000629325;0.00129147;0.304157;3.28778;0.00155523;0.00172196;3.10431;0.322133;39.8282;84.8282;0.0159173;-0.000604649;-0.00649096;0.00718899;0.00188219;-0.00643587;0.0137308;0;0.024863;0.260136;-0.263827;-0.903343;0.976373;-7.41699;-0.000833805;-0.000462454;0.00292089;0.00297701;-0.000889925;0.00193347;0.285463;3.50308;0.00233846;0.00257795;3.34523;0.298933;60.3144;105.314;0.0053326;-0.000838241;-0.00395112;0.00301316;0.00291321;0.00404415;0.038977;0;0.0258392;3.22428;4.04013
279000;280;25.8011;0.0460999;0.00178994;-1.88637;25.7309;-0.247872;0.122478;0.0571544;-0.629487;0.135169;-0.211688;-0.267536;0.366958;-7.18669;-0.000592589;3.19898e-05;0.00150003;0.00150052;-0.000593078;0.0010468;0.395052;2.53131;0.00124601;0.00139573;2.53005;0.395249;46.0964;91.0964;0.0160511;-0.000616803;-0.00690757;0.00695704;0.00147621;-0.00541613;0.0158157;0;0.0153806;0.258112;-0.269741;-0.893816;0.968653;-7.40746;-0.000686274;-0.000488025;0.00304055;0.00310339;-0.000749121;0.00192626;0.225707;4.43052;0.00235863;0.00256834;4.14272;0.241388;61.8312;106.831;0.0047679;-0.000690503;-0.00393697;0.00294811;0.00303294;0.0064158;0.0389728;0;0.0247651;3.28885;4.04754
280000;281;25.8012;0.0462146;0.00179439;-1.88619;25.7309;-0.251865;0.12266;0.057244;-0.63348;0.13338;-0.214111;-0.264652;0.365614;-7.18381;-0.000818798;0.000149866;0.000986811;0.000999165;-0.000831152;0.000915159;0.829742;1.20519;0.00105822;0.00122021;1.20214;0.831847;40.7268;85.7268;0.0159734;-0.000845321;-0.006995;0.00728184;0.000962381;-0.00480098;0.0171219;0;0.0150145;0.256589;-0.271824;-0.894435;0.969402;-7.40808;-0.000908407;-0.000515687;0.00295901;0.00302659;-0.000975988;0.00200129;0.306997;3.25736;0.00240986;0.00266839;3.10105;0.322471;60.9791;105.979;0.00522223;-0.000912333;-0.00389234;0.00284795;0.00295159;0.0050128;0.0367446;0;0.0243955;3.34304;4.05325
281000;282;25.8037;0.0487033;0.00189102;-1.88774;25.7334;-0.249036;0.121117;0.059654;-0.630651;0.131596;-0.217536;-0.262478;0.365423;-7.18164;-0.000784279;-0.000449907;0.00141822;0.00150658;-0.000872637;0.00118961;0.553004;1.80831;0.0013898;0.00158614;1.72646;0.579219;57.4823;102.482;0.0155681;-0.000806607;-0.00761055;0.00669501;0.0013894;-0.00423431;0.017125;0;0.0149696;0.254631;-0.276586;-0.891942;0.967934;-7.40559;-0.000909407;-0.000390804;0.00278375;0.00282465;-0.000950309;0.00188748;0.326684;3.06106;0.00226726;0.00251664;2.97235;0.336434;58.6252;103.625;0.00437849;-0.000913996;-0.00384764;0.0030533;0.00277644;0.00649633;0.0370477;0;0.0236507;3.40894;4.05865
282000;283;25.8049;0.0498515;0.0019356;-1.88637;25.7346;-0.246441;0.122482;0.0609303;-0.628056;0.130114;-0.218441;-0.267968;0.369396;-7.18713;-0.000859565;-0.000538543;0.00159462;0.0017076;-0.000972541;0.00134007;0.53904;1.85515;0.00156666;0.00178676;1.75581;0.569537;58.4152;103.415;0.015113;-0.000881461;-0.00773126;0.00663657;0.00156493;-0.00313628;0.0158549;0;0.0191409;0.252979;-0.27953;-0.894626;0.970819;-7.40827;-0.00106365;-0.000253759;0.0027768;0.00279349;-0.00108035;0.00193692;0.38305;2.61062;0.00230831;0.00258256;2.58574;0.386737;55.8519;100.852;0.00476915;-0.00106861;-0.00367748;0.00315686;0.00277008;0.0054524;0.0366041;0;0.0268518;3.46958;4.06322
283000;284;25.8048;0.0498334;0.0019349;-1.88772;25.7345;-0.250673;0.121129;0.0607721;-0.632288;0.128352;-0.220558;-0.26784;0.369944;-7.187;-0.000701747;-2.38335e-05;0.0016355;0.00163574;-0.00070199;0.00116886;0.429072;2.33061;0.00138511;0.00155849;2.33015;0.429157;47.5391;92.5391;0.0154342;-0.000727559;-0.00724704;0.00718252;0.00160928;-0.00384636;0.015826;0;0.0132045;0.250843;-0.281922;-0.897477;0.973585;-7.41112;-0.00116671;-0.00014819;0.00274274;0.00274835;-0.00117232;0.00196034;0.42538;2.35084;0.00232376;0.00261378;2.34437;0.426553;53.3076;98.3076;0.00468587;-0.00117283;-0.00380914;0.00349849;0.00273552;0.0060534;0.0377856;0;0.0245404;3.53468;4.06972
284000;285;25.8057;0.0506888;0.00196812;-1.88865;25.7352;-0.25311;0.120204;0.0615382;-0.634725;0.126605;-0.223327;-0.267009;0.370402;-7.18617;-0.000881979;-0.000402925;0.00226522;0.00231598;-0.000932746;0.00162436;0.389358;2.56833;0.0019315;0.00216582;2.48297;0.402743;54.9855;99.9855;0.015177;-0.000905764;-0.00773456;0.00690571;0.00223545;-0.00249076;0.0149916;0;0.0153037;0.248849;-0.285701;-0.897542;0.974235;-7.41119;-0.00135146;1.63814e-05;0.00288772;0.00288779;-0.00135152;0.00211965;0.468002;2.13674;0.00250056;0.00282621;2.13669;0.468014;50.6466;95.6466;0.00551201;-0.00135847;-0.00372538;0.00374233;0.0028808;0.00427015;0.0370992;0;0.0222964;3.59125;4.07707
285000;286;25.8084;0.0534448;0.00207512;-1.88892;25.738;-0.255755;0.119929;0.0642553;-0.63737;0.126077;-0.224261;-0.271266;0.373863;-7.19042;-0.00068364;0.000143886;0.00195571;0.00196353;-0.000691461;0.0013275;0.349561;2.86073;0.00159043;0.00177;2.83969;0.352152;44.4529;89.4529;0.0152004;-0.000712002;-0.007262;0.00753026;0.0019294;-0.00254163;0.0170017;0;0.0131773;0.24761;-0.289073;-0.902634;0.979603;-7.41628;-0.00138564;0.000222059;0.00281915;0.00283085;-0.00139733;0.00211409;0.491508;2.03456;0.00248747;0.00281878;2.0259;0.493609;46.94;91.94;0.00559807;-0.00139517;-0.00394189;0.00436854;0.00281143;0.00448393;0.0398192;0;0.0231654;3.6534;4.08453
286000;287;25.812;0.0569981;0.00221309;-1.88921;25.7416;-0.249773;0.119638;0.0678557;-0.631388;0.12372;-0.228772;-0.268823;0.374044;-7.18798;-0.000845163;-9.05193e-05;0.00214186;0.0021446;-0.000847904;0.00149625;0.394593;2.53426;0.00178097;0.001995;2.5293;0.395367;49.2914;94.2914;0.0148948;-0.000873058;-0.00767027;0.00746664;0.00211251;-0.002345;0.0189951;0;0.0166794;0.245258;-0.294918;-0.900556;0.97884;-7.4142;-0.00137966;0.000386349;0.00284198;0.00287705;-0.00141473;0.00214589;0.485457;2.05992;0.00252535;0.00286118;2.03364;0.491728;44.8479;89.8479;0.00537424;-0.00138994;-0.00379243;0.00454753;0.00283489;0.00555269;0.0389984;0;0.0234973;3.71872;4.09229
287000;288;25.8125;0.0575245;0.00223353;-1.8901;25.742;-0.255575;0.11875;0.0682615;-0.63719;0.121582;-0.229952;-0.270593;0.375341;-7.18975;-0.000695017;6.38884e-05;0.00262829;0.00262951;-0.000696245;0.00166288;0.264437;3.78161;0.00202538;0.00221717;3.77671;0.264781;47.6857;92.6857;0.0141751;-0.000723458;-0.00743672;0.00753963;0.00260071;-0.000699191;0.0164416;0;0.0143899;0.243293;-0.297298;-0.9061;0.984172;-7.41974;-0.00136101;0.000376187;0.00283293;0.00286641;-0.00139449;0.00213045;0.480426;2.08149;0.00250848;0.0028406;2.05552;0.486494;44.9428;89.9428;0.00491427;-0.0013714;-0.00383558;0.00457033;0.00282567;0.00608775;0.0420024;0;0.0214574;3.78006;4.09898
288000;289;25.813;0.0580203;0.00225278;-1.89086;25.7424;-0.255935;0.117996;0.0686997;-0.63755;0.120963;-0.231714;-0.273146;0.378064;-7.1923;-0.000592624;0.000132973;0.00263721;0.00264267;-0.000598089;0.00162038;0.224716;4.45006;0.00199131;0.00216051;4.41853;0.22632;46.6215;91.6215;0.0144743;-0.000621904;-0.00740963;0.00765127;0.00260984;-0.00153902;0.0172326;0;0.0145706;0.241936;-0.299734;-0.908562;0.986843;-7.42221;-0.00121226;0.000360174;0.00316395;0.00319339;-0.0012417;0.00221755;0.383147;2.60996;0.00264196;0.00295673;2.57179;0.388835;47.11;92.11;0.0050371;-0.00122203;-0.00373094;0.00443344;0.00315708;0.00545158;0.0430867;0;0.0240281;3.83852;4.10683
289000;290;25.8157;0.0606886;0.00235638;-1.89155;25.7451;-0.246788;0.117307;0.071414;-0.628403;0.1194;-0.235173;-0.274622;0.380763;-7.19378;-0.000463292;0.000344268;0.00285684;0.00289216;-0.000498613;0.00169539;0.162169;6.1664;0.00211401;0.00226052;5.80041;0.172402;43.7546;88.7546;0.0145738;-0.00049433;-0.00722103;0.0078845;0.0028309;-0.00096637;0.0185417;0;0.0316977;0.240375;-0.304929;-0.907222;0.98682;-7.42087;-0.00130518;0.000206685;0.0032917;0.00330097;-0.00131446;0.00230771;0.396508;2.52202;0.00274576;0.00307695;2.51128;0.398203;49.4956;94.4956;0.00466596;-0.0013139;-0.00378353;0.00417862;0.00328458;0.00577874;0.0406516;0;0.0234674;3.90519;4.11449
290000;291;25.8162;0.0612445;0.00237797;-1.89261;25.7455;-0.252159;0.116241;0.071841;-0.633774;0.117053;-0.235288;-0.278606;0.382992;-7.19776;-0.000449663;0.000226838;0.00289696;0.00291226;-0.000464968;0.00168862;0.155219;6.44252;0.00211362;0.00225149;6.26336;0.159659;46.0509;91.0509;0.0147374;-0.000477343;-0.0070127;0.00744221;0.00287247;-0.00319804;0.0203907;0;0.0165022;0.23793;-0.305615;-0.915682;0.994226;-7.42933;-0.00113626;0.000224004;0.00321774;0.00322924;-0.00114775;0.0021885;0.353123;2.83187;0.00262058;0.002918;2.81353;0.355426;49.2457;94.2457;0.00528721;-0.00114556;-0.00388527;0.00431544;0.00321025;0.00290986;0.0398599;0;0.0216942;3.96323;4.12162
291000;292;25.8162;0.0612216;0.00237708;-1.89229;25.7455;-0.2562;0.11656;0.0718016;-0.637815;0.116858;-0.237887;-0.273146;0.380597;-7.1923;-0.000573263;0.000260784;0.00298896;0.00300795;-0.000592254;0.0018001;0.191793;5.21394;0.0022291;0.00240014;5.07882;0.196896;45.624;90.624;0.0154657;-0.000601924;-0.00707786;0.00757335;0.00296402;-0.00377767;0.0173761;0;0.0151704;0.237984;-0.308624;-0.913895;0.993523;-7.42754;-0.00117391;0.000226744;0.00329251;0.003304;-0.00118539;0.00224469;0.356539;2.80475;0.00268643;0.00299292;2.78727;0.358775;49.7046;94.7046;0.00412796;-0.00118249;-0.00371157;0.00414753;0.00328567;0.00401677;0.042267;0;0.0230142;4.02422;4.12702
292000;293;25.8145;0.0594763;0.00230931;-1.8919;25.7438;-0.256945;0.116952;0.0700729;-0.63856;0.114629;-0.240241;-0.276392;0.383729;-7.19555;-0.000388865;0.000442586;0.00341543;0.00346624;-0.000439676;0.00195296;0.113856;8.78306;0.00247046;0.00260394;7.88361;0.126845;44.633;89.633;0.0144594;-0.000416569;-0.00659686;0.00745532;0.00339384;-0.00271815;0.0176977;0;0.0155196;0.235467;-0.310869;-0.917918;0.997325;-7.43156;-0.00120503;0.000153832;0.00322119;0.00322653;-0.00121037;0.00221845;0.374094;2.67313;0.00264833;0.00295793;2.66574;0.37513;50.7411;95.7411;0.00437708;-0.00121232;-0.00352762;0.00381904;0.003215;0.0034951;0.0409718;0;0.0237872;4.08134;4.12939
293000;294;25.8135;0.0585025;0.0022715;-1.89101;25.7428;-0.259749;0.117843;0.0691338;-0.641364;0.113991;-0.243362;-0.273611;0.383513;-7.19277;-0.000530176;0.000966845;0.00281114;0.00307074;-0.000789774;0.00193026;0.188598;5.30228;0.00235498;0.00257368;3.88813;0.257193;34.6673;79.6673;0.0156746;-0.000561782;-0.00609694;0.00800705;0.00279307;-0.00546976;0.0193703;0;0.0187957;0.234563;-0.313548;-0.91748;0.997548;-7.43112;-0.00117837;0.000233975;0.00337469;0.00338668;-0.00119036;0.00228852;0.349178;2.86387;0.00274209;0.00305136;2.84509;0.351482;50.8055;95.8055;0.0041951;-0.00118533;-0.00328473;0.00373671;0.00336934;0.00376524;0.0381385;0;0.0306065;4.15385;4.13781
294000;295;25.814;0.0589951;0.00229063;-1.89204;25.7432;-0.262997;0.116808;0.0695186;-0.644612;0.112433;-0.244155;-0.28049;0.388494;-7.19965;-0.000215333;0.000423007;0.00313136;0.003184;-0.000267971;0.00172598;0.0687667;14.5419;0.00221739;0.00230131;11.8819;0.084162;43.9258;88.9258;0.015072;-0.000242421;-0.00654895;0.00737169;0.00311007;-0.00387851;0.0168132;0;0.0185834;0.232596;-0.315151;-0.924877;1.0044;-7.43852;-0.00100775;0.000221802;0.00327033;0.0032818;-0.00101922;0.00215051;0.30815;3.24517;0.0025952;0.00286735;3.21991;0.310568;51.2217;96.2217;0.00350787;-0.00101437;-0.00321513;0.00364408;0.0032652;0.00476689;0.034288;0;0.0238772;4.21197;4.14307
295000;296;25.8131;0.0580739;0.00225486;-1.8905;25.7423;-0.270955;0.118351;0.0686258;-0.65257;0.110349;-0.245255;-0.282624;0.390132;-7.20178;-0.000321049;0.000550233;0.00351033;0.00358779;-0.000398503;0.00199314;0.0914583;10.9339;0.00253515;0.00265753;9.00315;0.111072;43.7359;88.7359;0.014478;-0.000347451;-0.00621166;0.00728628;0.00349126;-0.00372031;0.0169234;0;0.0163584;0.231013;-0.317232;-0.92992;1.00933;-7.44356;-0.00108534;0.000188886;0.00330846;0.00331657;-0.00109345;0.00220501;0.32805;3.04832;0.00265177;0.00294001;3.03313;0.329692;51.8778;96.8778;0.00427607;-0.00109142;-0.00312791;0.00349115;0.00330361;0.00352307;0.0346028;0;0.026113;4.2791;4.1511
296000;297;25.8125;0.0574588;0.00223098;-1.89041;25.7417;-0.272092;0.118438;0.0680033;-0.653707;0.109215;-0.248739;-0.279751;0.389949;-7.19891;-0.00031853;0.000613698;0.00367263;0.00376486;-0.000410764;0.00208781;0.0867309;11.5299;0.00265743;0.00278375;9.16551;0.109105;43.612;88.612;0.0144033;-0.00034477;-0.00606823;0.00726903;0.00365447;-0.00451028;0.015078;0;0.0178016;0.229386;-0.320602;-0.927274;1.00759;-7.44092;-0.000845502;0.00027234;0.00311516;0.0031338;-0.000864141;0.00199897;0.271416;3.68439;0.00242903;0.00266529;3.62649;0.275749;51.2245;96.2245;0.00373778;-0.000851094;-0.00282138;0.00335384;0.00311123;0.00427704;0.0349189;0;0.0242994;4.33366;4.15818
297000;298;25.8121;0.0570762;0.00221612;-1.89097;25.7412;-0.276107;0.117883;0.0675362;-0.657721;0.108177;-0.251319;-0.278597;0.390487;-7.19776;-0.000492622;0.000542449;0.00411979;0.00418273;-0.000555559;0.00236914;0.119574;8.36299;0.00299092;0.00315886;7.52887;0.132822;46.3414;91.3414;0.0150853;-0.000516781;-0.00591521;0.00697042;0.00410252;-0.00613416;0.014545;0;0.0198485;0.228618;-0.323035;-0.929244;1.01001;-7.44289;-0.00108773;0.000225766;0.00322133;0.00323313;-0.00109952;0.00216633;0.337664;2.96152;0.0026006;0.00288844;2.94048;0.34008;51.5567;96.5567;0.00385189;-0.00109321;-0.0028796;0.00331779;0.00321723;0.00498219;0.0339018;0;0.0256608;4.40071;4.16564
298000;299;25.8128;0.0577779;0.00224337;-1.89157;25.7419;-0.277482;0.117278;0.0681807;-0.659096;0.106875;-0.253888;-0.279751;0.392609;-7.19891;-0.000335707;0.000409516;0.00350398;0.00354717;-0.000378897;0.00196303;0.0958074;10.4376;0.00250066;0.00261738;9.36181;0.106817;46.0201;91.0201;0.0142838;-0.00035878;-0.00600986;0.00680432;0.00348606;-0.00527634;0.0140898;0;0.0198065;0.226885;-0.326508;-0.929693;1.01114;-7.44334;-0.000916337;0.00040096;0.00337462;0.00341176;-0.000953482;0.00218262;0.271538;3.68273;0.00265014;0.00291016;3.57821;0.279469;50.5749;95.5749;0.00373448;-0.000922363;-0.00270464;0.00349328;0.00337105;0.00492852;0.0331464;0;0.0270037;4.46311;4.17321
299000;300;25.8122;0.0572064;0.00222118;-1.89047;25.7413;-0.283767;0.118386;0.0676204;-0.665382;0.105613;-0.255254;-0.279209;0.392768;-7.19837;-0.000350809;0.000289016;0.00354215;0.00356349;-0.000372149;0.00196782;0.0990385;10.0971;0.00250892;0.00262376;9.57544;0.104434;47.9792;92.9792;0.0138973;-0.000372401;-0.00602315;0.00657668;0.00352411;-0.00370072;0.0145529;0;0.0184161;0.226099;-0.328066;-0.93439;1.01579;-7.44803;-0.000884442;0.000326481;0.00348654;0.00351079;-0.000908693;0.00220974;0.253673;3.94208;0.00269498;0.00294632;3.86356;0.258829;51.6622;96.6622;0.0042383;-0.000890825;-0.00294763;0.00358633;0.00348226;0.00365686;0.0321222;0;0.0270565;4.52593;4.18104
300000;301;25.8146;0.0596383;0.0023156;-1.89164;25.7437;-0.282505;0.117209;0.0699865;-0.66412;0.104175;-0.257504;-0.280021;0.394427;-7.19918;-0.000321444;0.000520687;0.00271499;0.0028018;-0.000408249;0.00160502;0.118396;8.44625;0.00201776;0.00214003;6.86296;0.14571;40.9634;85.9634;0.0142054;-0.000344871;-0.00584167;0.00686376;0.00269811;-0.00471943;0.0153263;0;0.0170084;0.223651;-0.33194;-0.934542;1.01665;-7.44819;-0.00109932;0.000624517;0.0036219;0.00370311;-0.00118054;0.00244182;0.303521;3.29467;0.00294229;0.00325576;3.13681;0.318795;48.3142;93.3142;0.00458887;-0.00110653;-0.00261107;0.00384488;0.0036187;0.00413562;0.0302358;0;0.0258322;4.59027;4.18819
301000;302;25.8181;0.0631218;0.00245085;-1.89183;25.7472;-0.283206;0.117018;0.0734578;-0.66482;0.101848;-0.258512;-0.285197;0.398169;-7.20436;-0.000168673;7.55535e-05;0.00329233;0.00329398;-0.000170321;0.00173215;0.051232;19.5191;0.00225491;0.00230954;19.3398;0.0517068;50.9329;95.9329;0.0135142;-0.000188186;-0.00611721;0.00624695;0.00327369;-0.00410245;0.0139599;0;0.0210671;0.221362;-0.335533;-0.937879;1.02039;-7.45152;-0.000991556;0.000829874;0.00374488;0.00388607;-0.00113275;0.00250941;0.264776;3.77677;0.00303949;0.00334588;3.43066;0.29149;46.3074;91.3074;0.00525004;-0.0010003;-0.00261767;0.00426114;0.00374181;0.0045162;0.030534;0;0.0282103;4.65063;4.19521
302000;303;25.8188;0.0637855;0.00247662;-1.89352;25.7477;-0.287508;0.11533;0.0739515;-0.669122;0.101865;-0.261354;-0.28375;0.398994;-7.20291;-0.000355042;0.000415419;0.00348998;0.00353435;-0.000399412;0.00196688;0.101732;9.82975;0.00250003;0.00262251;8.84887;0.113009;46.1428;91.1428;0.0139263;-0.000376458;-0.00574934;0.00655654;0.00347359;-0.00449089;0.0141194;0;0.0167995;0.220234;-0.33857;-0.941345;1.02434;-7.45499;-0.00101138;0.00104751;0.00384737;0.00406358;-0.00122759;0.00264559;0.262875;3.80409;0.00319778;0.00352745;3.31021;0.302096;44.8675;89.8675;0.00541408;-0.00102046;-0.00230937;0.00438813;0.00384526;0.00512564;0.0308011;0;0.0249048;4.71208;4.19976
303000;304;25.8201;0.0650961;0.00252751;-1.89245;25.7491;-0.287449;0.116403;0.0753453;-0.669064;0.10005;-0.263153;-0.286062;0.401361;-7.20522;-0.000275392;0.000276508;0.00333836;0.0033594;-0.000296426;0.00182791;0.082493;12.1222;0.00234466;0.00243722;11.333;0.0882379;47.6943;92.6943;0.0137707;-0.000296179;-0.00592221;0.00645288;0.00332092;-0.00514991;0.0152932;0;0.0182322;0.218567;-0.341306;-0.946588;1.0297;-7.46023;-0.00109372;0.00102084;0.00402786;0.00422383;-0.0012897;0.00275677;0.27154;3.6827;0.0033301;0.00367569;3.27505;0.305339;45.4956;90.4956;0.00553845;-0.00110349;-0.00251084;0.0045345;0.00402524;0.00467919;0.0313748;0;0.0307865;4.786;4.21026
304000;305;25.8232;0.0682094;0.00264839;-1.89403;25.7521;-0.285502;0.114822;0.0783726;-0.667116;0.0990663;-0.265567;-0.282185;0.39996;-7.20134;-0.000294392;0.000480387;0.00317831;0.00324354;-0.00035962;0.00180158;0.0926254;10.7962;0.00229166;0.0024021;9.01934;0.110873;44.0711;89.0711;0.0136304;-0.000315479;-0.00557106;0.00651087;0.00316295;-0.00408919;0.0157268;0;0.0155544;0.217187;-0.345913;-0.941727;1.02649;-7.45537;-0.00111445;0.000917576;0.00407115;0.00422872;-0.00127203;0.00275038;0.273744;3.65304;0.00332527;0.00366717;3.3244;0.300807;47.8747;92.8747;0.00544484;-0.00112229;-0.00224199;0.00406081;0.00406907;0.00558754;0.0325666;0;0.0256498;4.83502;4.2113
305000;306;25.8266;0.0716406;0.00278162;-1.89446;25.7555;-0.284627;0.114392;0.0817914;-0.666241;0.0969552;-0.269169;-0.280598;0.400734;-7.19976;-0.000327875;0.000430444;0.0038217;0.00386588;-0.000372055;0.00211897;0.085793;11.656;0.0027098;0.00282529;10.3906;0.0962409;47.3225;92.3225;0.0138102;-0.000348518;-0.00560276;0.00643869;0.00380615;-0.00536819;0.0150685;0;0.0187718;0.215042;-0.351114;-0.941849;1.02791;-7.45549;-0.00105477;0.000688024;0.00376115;0.00385752;-0.00115114;0.00250433;0.280439;3.56583;0.0030292;0.00333911;3.35104;0.298415;49.944;94.944;0.00516166;-0.00106063;-0.00212558;0.00348813;0.00375914;0.00381851;0.0332514;0;0.0270273;4.90089;4.21777
306000;307;25.825;0.070016;0.00271854;-1.8923;25.7539;-0.29731;0.11655;0.0801776;-0.678925;0.094581;-0.271038;-0.279927;0.400957;-7.19909;-0.000223274;0.000517847;0.00393793;0.0040014;-0.00028675;0.00214408;0.0566983;17.6372;0.00276814;0.00285877;13.9543;0.0716623;46.5294;91.5294;0.0137607;-0.000245185;-0.00562914;0.00663934;0.00392228;-0.00476621;0.0151662;0;0.017273;0.215033;-0.351718;-0.953918;1.03918;-7.46756;-0.000715058;0.000363026;0.00393302;0.00396121;-0.00074324;0.00235222;0.181809;5.50029;0.00292025;0.0031363;5.32964;0.18763;54.7693;99.7693;0.00512775;-0.000720583;-0.0026306;0.00334279;0.00392964;0.0039589;0.0344807;0;0.0240876;4.95703;4.22526
307000;308;25.8298;0.0748343;0.00290562;-1.89473;25.7587;-0.285481;0.114125;0.0849648;-0.667096;0.0945734;-0.271295;-0.284342;0.404222;-7.2035;-0.000350271;0.000604402;0.00390644;0.00399059;-0.000434425;0.00221251;0.089665;11.1526;0.00281639;0.00295001;9.18592;0.108862;45.2573;90.2573;0.0138582;-0.000372675;-0.00553716;0.0067199;0.00389135;-0.00559127;0.0161447;0;0.0218934;0.212797;-0.355669;-0.948645;1.03523;-7.46229;-0.000785582;0.000450959;0.003708;0.00375281;-0.000830392;0.0022916;0.211861;4.72007;0.00281973;0.00305547;4.51932;0.221272;54.1165;99.1165;0.00439176;-0.000790071;-0.00213853;0.00302886;0.00370582;0.0046643;0.0332889;0;0.0251468;5.02226;4.23279
308000;309;25.8287;0.07365;0.00285964;-1.89442;25.7575;-0.28953;0.114428;0.0837543;-0.671144;0.0934856;-0.275249;-0.284083;0.406454;-7.20324;-0.000395571;0.00054055;0.0039756;0.00404145;-0.000461424;0.00225144;0.0994997;10.0503;0.00286054;0.00300192;8.75864;0.114173;46.069;91.069;0.0135026;-0.000418808;-0.00578377;0.00683731;0.00395908;-0.00424835;0.014869;0;0.0179472;0.211879;-0.35941;-0.950386;1.03793;-7.46403;-0.000831028;0.000399884;0.00356443;0.00360052;-0.000867112;0.00223381;0.233145;4.28918;0.00273558;0.00297842;4.15231;0.24083;55.4865;100.487;0.00407441;-0.000834466;-0.00186145;0.00265131;0.00356279;0.006316;0.0326168;0;0.0252194;5.0819;4.24015
309000;310;25.8293;0.0742702;0.00288372;-1.89459;25.758;-0.291639;0.114259;0.08434;-0.673253;0.0930551;-0.277997;-0.282791;0.407323;-7.20195;-0.000504159;0.000635863;0.00423117;0.00431507;-0.000588057;0.00245156;0.119154;8.39253;0.00309143;0.00326875;7.33784;0.13628;45.8597;90.8597;0.0132116;-0.000527696;-0.00564656;0.00688864;0.0042155;-0.00385194;0.0148112;0;0.0183151;0.211936;-0.361492;-0.953546;1.04156;-7.46719;-0.000893658;0.000391047;0.0035339;0.00356817;-0.000927931;0.00224805;0.252882;3.95442;0.00274096;0.0029974;3.8453;0.260058;54.9848;99.9848;0.00372408;-0.000897179;-0.00190931;0.00268126;0.00353216;0.0059159;0.0332803;0;0.0262298;5.13948;4.24863
310000;311;25.8319;0.0768907;0.00298547;-1.89478;25.7607;-0.290589;0.114074;0.0869661;-0.672204;0.0934832;-0.277166;-0.286826;0.40967;-7.20598;-0.000222162;0.000555571;0.00472696;0.00478856;-0.000283762;0.00253616;0.0469989;21.2771;0.00329104;0.00338155;16.8753;0.0592582;48.6139;93.6139;0.0138813;-0.000245386;-0.00575713;0.00683716;0.00471062;-0.00424604;0.0159975;0;0.0217817;0.212043;-0.363263;-0.956518;1.04492;-7.47016;-0.000712059;0.000392404;0.00373819;0.00377253;-0.000746395;0.00225946;0.190482;5.24983;0.00279721;0.00301261;5.05433;0.19785;56.0496;101.05;0.00400891;-0.000715925;-0.00203327;0.00280732;0.00373621;0.00428783;0.0319986;0;0.0297547;5.21361;4.2556
311000;312;25.8314;0.0764043;0.00296658;-1.89611;25.7601;-0.290497;0.112739;0.0863811;-0.672112;0.0907929;-0.279712;-0.286773;0.410757;-7.20593;-0.000441314;0.000778039;0.00468592;0.00480139;-0.000556779;0.00267908;0.0941788;10.6181;0.00340174;0.00357211;8.62351;0.115962;45.7314;90.7314;0.0139389;-0.000467221;-0.00571549;0.0072384;0.00466997;-0.00429784;0.0160291;0;0.0237109;0.208175;-0.365089;-0.956905;1.04513;-7.47055;-0.000725243;0.000354392;0.00372563;0.00375367;-0.000753284;0.00225347;0.194663;5.13707;0.00278767;0.00300463;4.98307;0.200679;56.2874;101.287;0.00444331;-0.000729085;-0.00209587;0.00279379;0.0037235;0.00447115;0.0312208;0;0.0245711;5.26595;4.26235
312000;313;25.8322;0.0772289;0.0029986;-1.89573;25.7609;-0.29407;0.113123;0.0871957;-0.675684;0.090129;-0.281276;-0.293341;0.416279;-7.2125;-0.000454516;0.000740005;0.00513425;0.00523057;-0.000550839;0.00289071;0.0885263;11.2961;0.00368441;0.00385427;9.49564;0.105311;47.6082;92.6082;0.0138248;-0.000480218;-0.00576224;0.00720606;0.00511801;-0.0040694;0.0159527;0;0.0177334;0.208101;-0.367726;-0.965313;1.05374;-7.47896;-0.000901376;0.000367514;0.00375854;0.00378735;-0.000930183;0.00235876;0.239821;4.16978;0.00288538;0.00314502;4.07161;0.245603;56.2308;101.231;0.00392312;-0.000904978;-0.00198385;0.00270796;0.00375665;0.00579553;0.0306758;0;0.0263309;5.33267;4.27002
313000;314;25.8369;0.0818839;0.00317934;-1.89666;25.7656;-0.280676;0.112191;0.0919444;-0.662291;0.088075;-0.282664;-0.29032;0.414658;-7.20948;-0.000481123;0.000913156;0.00533742;0.00547737;-0.000621067;0.00304922;0.0901415;11.0937;0.00387523;0.00406562;8.81928;0.113388;46.537;91.537;0.0142185;-0.000508559;-0.00567367;0.00746182;0.00532183;-0.0040407;0.0155187;0;0.0217257;0.205122;-0.373227;-0.951169;1.04216;-7.46481;-0.000981406;0.000318024;0.00389586;0.00391651;-0.00100206;0.00245928;0.25191;3.96967;0.00300131;0.00327904;3.90847;0.255854;56.5375;101.538;0.00434663;-0.000985263;-0.00217022;0.00279418;0.00389356;0.00541311;0.0329775;0;0.0258526;5.38927;4.27492
314000;315;25.8334;0.0783741;0.00304306;-1.89597;25.7621;-0.291126;0.112886;0.0883601;-0.67274;0.0869191;-0.287452;-0.284473;0.413653;-7.20363;-0.000478938;0.000684708;0.00503191;0.00511571;-0.000562737;0.00283922;0.0951801;10.5064;0.00361269;0.00378563;9.09077;0.110002;47.6705;92.6705;0.0140004;-0.000504962;-0.00591195;0.00724517;0.00501476;-0.00320125;0.0185078;0;0.0236113;0.20489;-0.375398;-0.954793;1.0462;-7.46844;-0.000936184;0.00031802;0.00386055;0.00388154;-0.000957177;0.00241936;0.2425;4.12371;0.00295882;0.00322581;4.0552;0.246597;56.3442;101.344;0.00427643;-0.00094014;-0.00220519;0.00282917;0.00385818;0.0058535;0.0325772;0;0.0253071;5.45964;4.28016
315000;316;25.8348;0.0797527;0.00309659;-1.89721;25.7634;-0.291181;0.111639;0.0896501;-0.672795;0.0856226;-0.288908;-0.290281;0.418405;-7.20944;-0.000597089;0.000767766;0.0052986;0.00539694;-0.000695431;0.00304619;0.112688;8.87406;0.00385076;0.00406158;7.76057;0.128856;47.4185;92.4185;0.0149806;-0.000624861;-0.00599419;0.00749004;0.00528102;-0.00513068;0.0180274;0;0.0165027;0.202943;-0.377956;-0.959765;1.05128;-7.47341;-0.00107425;0.000352048;0.00400893;0.0040332;-0.00109851;0.00256586;0.267963;3.73186;0.00312011;0.00342114;3.67151;0.272367;55.921;100.921;0.00438049;-0.00107847;-0.00223368;0.00292468;0.00400651;0.00584097;0.0338835;0;0.0254596;5.51281;4.28492
316000;317;25.8349;0.0799428;0.00310397;-1.89713;25.7636;-0.290598;0.111727;0.0898537;-0.672213;0.0862533;-0.290785;-0.291919;0.420966;-7.21108;-0.000673954;0.000819112;0.00531413;0.00542415;-0.00078398;0.00310407;0.126823;7.88499;0.00390376;0.00413875;6.91874;0.144535;47.0745;92.0745;0.0142389;-0.000701367;-0.00584852;0.00744699;0.00529745;-0.00389448;0.016852;0;0.0227149;0.202504;-0.380246;-0.960725;1.05289;-7.47437;-0.00121595;0.000444067;0.00420901;0.00424512;-0.00125206;0.00274859;0.288893;3.46149;0.00332692;0.00366479;3.3905;0.294941;56.4078;101.408;0.00427816;-0.00121986;-0.00195498;0.00283016;0.00420721;0.00678679;0.0328958;0;0.0273152;5.58033;4.29197
317000;318;25.8375;0.0825116;0.00320371;-1.89706;25.7661;-0.289769;0.111788;0.0924435;-0.671383;0.0822632;-0.292781;-0.288201;0.418984;-7.20736;-0.000864993;0.000496543;0.00492593;0.0049682;-0.00090726;0.00293773;0.1756;5.69477;0.00365231;0.00391697;5.47605;0.182614;48.6196;93.6196;0.0151104;-0.000890947;-0.00626455;0.00721865;0.00490653;-0.00461869;0.0184148;0;0.0263575;0.198896;-0.383688;-0.957069;1.05012;-7.47071;-0.00143471;0.000335059;0.00423301;0.00425275;-0.00145445;0.0028536;0.338935;2.95042;0.00342453;0.0038048;2.92395;0.342004;55.0847;100.085;0.00446989;-0.00143946;-0.00244055;0.003095;0.0042301;0.00686763;0.035236;0;0.0415918;5.63219;4.29987
318000;319;25.8364;0.0814381;0.00316203;-1.89562;25.7652;-0.291974;0.113229;0.0914482;-0.673588;0.0820951;-0.297822;-0.288531;0.422715;-7.20769;-0.000706182;0.000824625;0.00516597;0.00527957;-0.000819786;0.00304968;0.136699;7.31535;0.00382239;0.00406624;6.44018;0.155275;46.5403;91.5403;0.0152961;-0.000733588;-0.00583635;0.00744665;0.00514936;-0.00566366;0.0167968;0;0.0308805;0.198959;-0.389414;-0.958335;1.05339;-7.47198;-0.00136311;0.000572979;0.00435302;0.00440989;-0.00141998;0.00291494;0.313142;3.19344;0.00351033;0.00388658;3.10559;0.322;53.1727;98.1727;0.00488429;-0.00136883;-0.00229694;0.00342656;0.00435056;0.00600297;0.0348682;0;0.0509553;5.708;4.30605
319000;320;25.8408;0.0857519;0.00332952;-1.89506;25.7695;-0.292814;0.113792;0.0958057;-0.674429;0.0819374;-0.294303;-0.303322;0.430503;-7.22248;-0.000832568;0.000942348;0.00556007;0.00569609;-0.000968586;0.00333234;0.14974;6.67823;0.00415803;0.00444312;5.88083;0.170044;46.5149;91.5149;0.0159851;-0.000861735;-0.00585102;0.00769249;0.00554349;-0.00677475;0.0154704;0;0.0172059;0.198846;-0.390147;-0.974049;1.06795;-7.48769;-0.00134718;0.000829673;0.00454851;0.00466304;-0.00146171;0.00306238;0.296181;3.37631;0.00369363;0.00408317;3.19012;0.313468;51.5528;96.5528;0.00562502;-0.00135385;-0.00209993;0.00374207;0.00454666;0.00574074;0.0334433;0;0.0287226;5.76034;4.31321
320000;321;25.84;0.0849785;0.00329949;-1.89388;25.7688;-0.294825;0.114976;0.0950944;-0.676439;0.0797595;-0.301521;-0.292745;0.427757;-7.2119;-0.000683064;0.000665068;0.00476251;0.00484255;-0.000763112;0.00280283;0.143425;6.97227;0.0035105;0.00373711;6.3458;0.157585;46.7581;91.7581;0.0156889;-0.000709532;-0.00600965;0.00730358;0.00474475;-0.00635596;0.0176597;0;0.0178971;0.19622;-0.396171;-0.965718;1.0621;-7.47936;-0.00164839;0.00062791;0.00453054;0.0045937;-0.00171156;0.00315263;0.36384;2.74846;0.00376498;0.0042035;2.68393;0.372588;52.9222;97.9222;0.0051255;-0.00165405;-0.00218043;0.00341897;0.00452837;0.00737186;0.0382044;0;0.0262346;5.82351;4.3204
321000;322;25.8397;0.0847335;0.00328998;-1.89231;25.7686;-0.303332;0.116539;0.0948648;-0.684947;0.0782586;-0.302064;-0.29953;0.432533;-7.21869;-0.00080823;0.000784401;0.00535875;0.00545695;-0.000906437;0.0031817;0.150824;6.63023;0.00397472;0.00424226;6.02023;0.166107;47.3233;92.3233;0.016253;-0.000835941;-0.00595535;0.00748277;0.00534141;-0.00716326;0.01724;0;0.0187842;0.195905;-0.397908;-0.97733;1.07326;-7.49097;-0.00162092;0.000532833;0.00454687;0.00459256;-0.00166661;0.00312959;0.356491;2.80512;0.00374304;0.00417278;2.75563;0.362893;53.6384;98.6384;0.00516273;-0.00162656;-0.00234968;0.00339764;0.00454426;0.00659299;0.0370205;0;0.0293816;5.88363;4.32844
322000;323;25.8416;0.0866096;0.00336283;-1.89326;25.7704;-0.300209;0.11559;0.096713;-0.681823;0.0777128;-0.305894;-0.296731;0.433197;-7.21589;-0.000779148;0.000874966;0.00468576;0.00482243;-0.000915817;0.00286912;0.16628;6.01396;0.00355971;0.0038255;5.26571;0.189908;44.458;89.458;0.0162276;-0.000806649;-0.00575099;0.00746484;0.00466968;-0.00780638;0.017882;0;0.0209085;0.194457;-0.403406;-0.971215;1.06949;-7.48486;-0.00129801;0.000333678;0.00440749;0.00442694;-0.00131746;0.0028722;0.294502;3.39557;0.00347472;0.0038296;3.3602;0.297601;56.9833;101.983;0.00499181;-0.00130235;-0.00230871;0.00296105;0.00440489;0.00666086;0.0374565;0;0.0276271;5.95076;4.33535
323000;324;25.8442;0.0891741;0.0034624;-1.89324;25.773;-0.295305;0.115609;0.0993426;-0.676919;0.0767479;-0.308334;-0.294674;0.433351;-7.21383;-0.000735466;0.000503384;0.00402502;0.00407767;-0.000788113;0.00243289;0.182724;5.47274;0.00301567;0.00324385;5.17396;0.193275;46.0363;91.0363;0.0155475;-0.00076112;-0.00620297;0.00717792;0.00400598;-0.00661335;0.0164606;0;0.0216622;0.19357;-0.407035;-0.969789;1.06941;-7.48343;-0.00127352;0.00028481;0.00440637;0.00442061;-0.00128776;0.00285419;0.289017;3.46;0.00345722;0.00380558;3.43278;0.291309;56.7036;101.704;0.00554413;-0.00127828;-0.00254509;0.00309871;0.00440318;0.00521543;0.0399536;0;0.0243474;6;4.34344
324000;325;25.8441;0.0890833;0.00345887;-1.89273;25.7729;-0.3001;0.116125;0.099234;-0.681715;0.0758688;-0.308871;-0.298376;0.436103;-7.21753;-0.000866094;0.000578929;0.00380078;0.00387153;-0.000936838;0.00240418;0.227873;4.38842;0.00294342;0.00320558;4.13255;0.241982;44.3006;89.3006;0.0161672;-0.000892404;-0.00614723;0.00727379;0.00378213;-0.00735718;0.0159255;0;0.0204779;0.193744;-0.407894;-0.9785;1.07767;-7.49214;-0.00127458;0.000233083;0.00430404;0.00431376;-0.0012843;0.00279903;0.296135;3.37683;0.00338613;0.00373204;3.35884;0.297722;57.4531;102.453;0.0048802;-0.00127874;-0.00244206;0.00289337;0.0043011;0.00563123;0.0389258;0;0.0234769;6.06235;4.35049
325000;326;25.8459;0.0909196;0.00353017;-1.89362;25.7748;-0.293985;0.115232;0.10108;-0.675599;0.0764553;-0.311388;-0.304085;0.4419;-7.22324;-0.000718119;0.000296728;0.0042115;0.0042293;-0.000735916;0.00248261;0.170514;5.86463;0.00309415;0.00331014;5.74699;0.174004;49.1747;94.1747;0.0158675;-0.00074116;-0.00623101;0.00679241;0.00419222;-0.00722634;0.0149828;0;0.0164133;0.193749;-0.412871;-0.97609;1.07738;-7.48973;-0.00124022;0.000148159;0.00426891;0.0042729;-0.0012442;0.00275855;0.290523;3.44207;0.00334146;0.00367806;3.43426;0.291184;58.6761;103.676;0.00442493;-0.00124393;-0.00244651;0.00272859;0.00426595;0.00603632;0.0378509;0;0.0247858;6.11343;4.35359
326000;327;25.8456;0.0905992;0.00351773;-1.89351;25.7744;-0.301431;0.115338;0.100681;-0.683045;0.0765738;-0.315569;-0.298567;0.441123;-7.21773;-0.000930102;0.000265362;0.00411767;0.00413158;-0.000944014;0.0025378;0.225881;4.42712;0.00311708;0.00338373;4.37661;0.228487;49.0699;94.0699;0.0155998;-0.000952309;-0.0061681;0.00666647;0.00409876;-0.00645209;0.0158025;0;0.0152306;0.193819;-0.41641;-0.977226;1.07978;-7.49087;-0.00122697;5.60796e-05;0.00431475;0.00431531;-0.00122754;0.00277142;0.284366;3.51659;0.00336161;0.00369523;3.51543;0.28446;59.5728;104.573;0.00395438;-0.00123062;-0.00260286;0.00270034;0.00431137;0.00641693;0.0379138;0;0.0251168;6.17148;4.3614
327000;328;25.8473;0.0923227;0.00358465;-1.89323;25.7762;-0.297319;0.115624;0.102478;-0.678934;0.0769608;-0.316912;-0.301613;0.444214;-7.22077;-0.000848453;0.000212326;0.0039864;0.0039957;-0.00085776;0.00242673;0.212837;4.69843;0.00299101;0.00323564;4.6583;0.214671;49.4119;94.4119;0.0155383;-0.000870616;-0.00626475;0.0066582;0.00396687;-0.0068559;0.0167295;0;0.0160364;0.194156;-0.418995;-0.979567;1.08296;-7.49321;-0.00123378;0.000110358;0.0044172;0.00441935;-0.00123593;0.00282764;0.279312;3.58022;0.00343319;0.00377019;3.57572;0.279664;60.2104;105.21;0.00421809;-0.00123714;-0.00238885;0.0025955;0.00441437;0.00672599;0.0354478;0;0.0251561;6.22269;4.36478
328000;329;25.845;0.0900015;0.00349453;-1.893;25.7738;-0.306889;0.115855;0.100055;-0.688504;0.0763075;-0.31893;-0.299388;0.444041;-7.21855;-0.00091195;0.000482743;0.00373155;0.00378121;-0.000961606;0.00237141;0.244389;4.09184;0.00289507;0.00316188;3.93218;0.254312;45.3562;90.3562;0.0150653;-0.000936028;-0.00601762;0.00695302;0.00371363;-0.00543224;0.0163825;0;0.0161712;0.193633;-0.420953;-0.980214;1.08421;-7.49386;-0.00128364;0.000110151;0.00425094;0.00425313;-0.00128584;0.00276948;0.301967;3.31162;0.00334739;0.00369265;3.30768;0.302327;58.4961;103.496;0.00443724;-0.00128745;-0.0025543;0.00275992;0.0042477;0.00552682;0.0367256;0;0.0254417;6.26697;4.37204
329000;330;25.8466;0.0916144;0.00355715;-1.89357;25.7753;-0.305822;0.11528;0.101643;-0.687437;0.0755514;-0.322608;-0.298301;0.445833;-7.21746;-0.000806833;7.25327e-05;0.00371255;0.00371372;-0.000807997;0.00226086;0.217326;4.60139;0.0027845;0.00301448;4.5962;0.217571;50.3574;95.3574;0.0153857;-0.000829229;-0.00657527;0.0066904;0.00369102;-0.00570003;0.0178203;0;0.0165043;0.19332;-0.42421;-0.981846;1.0869;-7.49549;-0.00158743;0.000145471;0.00435497;0.00435853;-0.00159099;0.00297476;0.36451;2.74341;0.00355668;0.00396634;2.73951;0.365029;57.9793;102.979;0.00424956;-0.00159098;-0.00239242;0.00266835;0.00435213;0.00685907;0.0356189;0;0.0257926;6.31871;4.37896
330000;331;25.8478;0.092824;0.00360411;-1.8939;25.7765;-0.305271;0.114953;0.102838;-0.686886;0.077537;-0.324858;-0.301047;0.449638;-7.22021;-0.000640409;0.000528274;0.00391153;0.00397203;-0.000700914;0.00233647;0.163724;6.10785;0.00290993;0.0031153;5.66693;0.176462;45.5721;90.5721;0.0152442;-0.000665255;-0.00603998;0.00706672;0.0038935;-0.0065808;0.0179119;0;0.0158814;0.194587;-0.428041;-0.981831;1.08861;-7.49548;-0.00135166;0.000113552;0.0045285;0.00453069;-0.00135386;0.00294227;0.298479;3.35031;0.00355865;0.00392303;3.34651;0.298819;58.944;103.944;0.00418161;-0.00135574;-0.00264558;0.00285654;0.00452502;0.00570991;0.0347987;0;0.024763;6.36293;4.38637
331000;332;25.8497;0.0946691;0.00367576;-1.8947;25.7784;-0.301713;0.114151;0.104671;-0.683328;0.0785294;-0.32575;-0.307938;0.455089;-7.2271;-0.000910834;0.00061045;0.00490077;0.0049642;-0.000974263;0.00296923;0.185855;5.38054;0.00367749;0.00395898;5.09534;0.196258;47.6963;92.6963;0.0148218;-0.000935836;-0.00591137;0.00709452;0.00488357;-0.00575919;0.0164974;0;0.0211451;0.195719;-0.43014;-0.989106;1.0962;-7.50275;-0.00150504;0.000307568;0.00456566;0.0045812;-0.00152058;0.00305089;0.329643;3.03359;0.00366762;0.00406785;3.0128;0.331917;57.8219;102.822;0.00393974;-0.00150895;-0.00221316;0.00281307;0.00456327;0.00537449;0.0355883;0;0.0255468;6.40529;4.39346
332000;333;25.8499;0.0949154;0.00368532;-1.89489;25.7786;-0.306503;0.113965;0.104848;-0.688117;0.0792002;-0.329996;-0.304793;0.456146;-7.22395;-0.000747069;0.000538061;0.00520289;0.00525116;-0.000795335;0.00302325;0.143587;6.96441;0.00379377;0.00403099;6.60245;0.151459;49.2934;94.2934;0.0145976;-0.000772339;-0.00608999;0.00712686;0.00518459;-0.00529068;0.0162591;0;0.0191446;0.196219;-0.434763;-0.988262;1.09735;-7.50191;-0.0014728;0.000379725;0.00464975;0.00467321;-0.00149626;0.00308474;0.316748;3.15708;0.00371603;0.00411298;3.12326;0.320179;56.5998;101.6;0.00414769;-0.00147755;-0.00236089;0.00310363;0.00464705;0.00579798;0.03405;0;0.0258551;6.45249;4.40092
333000;334;25.8507;0.0956457;0.00371367;-1.89603;25.7791;-0.311206;0.112822;0.10544;-0.692821;0.0809011;-0.332214;-0.306026;0.458872;-7.22518;-0.000754527;0.00053087;0.00517219;0.00521937;-0.000801703;0.00301053;0.145882;6.85487;0.00377529;0.00401405;6.51035;0.153602;49.2751;94.2751;0.0144606;-0.000779704;-0.00609049;0.00711317;0.00515388;-0.00408741;0.0164183;0;0.0199569;0.197127;-0.438041;-0.992546;1.10267;-7.50619;-0.00147617;0.000652468;0.00488071;0.00494698;-0.00154245;0.00324472;0.30245;3.30633;0.00391477;0.00432629;3.20723;0.311796;54.9684;99.9684;0.00451553;-0.00148184;-0.0021412;0.00342846;0.00487864;0.00647328;0.0332221;0;0.0252912;6.49491;4.40886
334000;335;25.8537;0.0986643;0.00383088;-1.89724;25.7821;-0.312609;0.111614;0.108361;-0.694224;0.0822597;-0.333875;-0.313366;0.465228;-7.23252;-0.000805569;0.000844552;0.00570561;0.00581337;-0.000913331;0.00336335;0.141189;7.0827;0.00421315;0.00448447;6.36502;0.157109;47.9955;92.9955;0.0142873;-0.0008329;-0.00579233;0.00743843;0.00568928;-0.0040859;0.0170615;0;0.0272583;0.197965;-0.442312;-0.997855;1.1093;-7.5115;-0.00141862;0.00089193;0.00529274;0.00540926;-0.00153513;0.00347219;0.268031;3.73091;0.00421218;0.00462959;3.52364;0.283797;55.6445;100.645;0.00485606;-0.0014245;-0.00177612;0.00354216;0.00529157;0.00657567;0.0325111;0;0.0326467;6.53694;4.41654
335000;336;25.8554;0.100379;0.00389744;-1.89741;25.7838;-0.310905;0.111442;0.110088;-0.69252;0.0833456;-0.337836;-0.30757;0.464412;-7.22673;-0.000831753;0.00052686;0.00579188;0.00583353;-0.000873398;0.00335346;0.143607;6.96347;0.00421046;0.00447128;6.67911;0.14972;50.8937;95.8937;0.0136754;-0.000856825;-0.00608781;0.00709795;0.0057736;-0.00252833;0.0172606;0;0.0201658;0.198852;-0.446782;-0.995323;1.10897;-7.50897;-0.00147135;0.000992016;0.00518364;0.00532837;-0.00161608;0.00347222;0.283846;3.52304;0.00419599;0.00462963;3.29709;0.303297;54.2618;99.2618;0.00477671;-0.00147747;-0.0016653;0.00363173;0.00518275;0.00640691;0.0331818;0;0.0259189;6.57057;4.42283
336000;337;25.8563;0.101313;0.00393374;-1.89774;25.7847;-0.311734;0.111109;0.110991;-0.693349;0.0830609;-0.342084;-0.304901;0.46571;-7.22406;-0.00081884;0.000841611;0.00641765;0.00651424;-0.000915431;0.00371484;0.127592;7.83749;0.00467793;0.00495312;7.11604;0.140528;49.8041;94.8041;0.014718;-0.000847252;-0.00594748;0.00758185;0.00640043;-0.00415099;0.016939;0;0.0186215;0.198943;-0.451597;-0.994799;1.11047;-7.50844;-0.00154296;0.000858476;0.00518771;0.00529548;-0.00165073;0.00347311;0.297427;3.36217;0.00419038;0.00463081;3.20796;0.311725;55.6972;100.697;0.00470369;-0.00154836;-0.00169483;0.00339468;0.00518665;0.00684611;0.0338081;0;0.0278312;6.60775;4.42905
337000;338;25.8612;0.106181;0.00412274;-1.89943;25.7895;-0.303866;0.109418;0.115842;-0.685481;0.0839994;-0.338851;-0.326566;0.478039;-7.24572;-0.000759117;0.00109901;0.00594018;0.00611587;-0.000934802;0.00352533;0.127794;7.82512;0.00442191;0.00470045;6.54242;0.152849;46.4291;91.4291;0.0149673;-0.000789699;-0.00574214;0.00789456;0.00592439;-0.00445365;0.0179024;0;0.0265688;0.198548;-0.4515;-1.01315;1.12683;-7.52679;-0.00141663;0.000785359;0.00499695;0.00509171;-0.0015114;0.00330156;0.2835;3.52733;0.00399475;0.00440208;3.36886;0.296836;56.222;101.222;0.00478382;-0.00142155;-0.00167646;0.00323146;0.00499585;0.00605788;0.0347315;0;0.0281922;6.6413;4.43236
338000;339;25.859;0.103992;0.00403773;-1.89805;25.7874;-0.308596;0.110803;0.113692;-0.69021;0.0827311;-0.345871;-0.31936;0.477977;-7.23852;-0.000707883;0.000878638;0.00675682;0.00685885;-0.00080991;0.00383438;0.104766;9.54511;0.00486506;0.00511251;8.46866;0.118082;50.6234;95.6234;0.0147461;-0.000736106;-0.0058542;0.00756152;0.00674019;-0.00536885;0.0160492;0;0.0170945;0.198317;-0.457826;-1.00901;1.12563;-7.52266;-0.00132187;0.000607726;0.00480842;0.00486809;-0.00138154;0.00312481;0.274907;3.63759;0.00379077;0.00416642;3.52368;0.283794;58.3306;103.331;0.00436109;-0.00132575;-0.0016476;0.00284929;0.00480725;0.00526677;0.0342967;0;0.02451;6.67761;4.43927
339000;340;25.8599;0.104873;0.00407193;-1.8981;25.7883;-0.304461;0.110752;0.114621;-0.686076;0.082812;-0.348529;-0.318871;0.479593;-7.23803;-0.000642114;0.000798503;0.00629252;0.00638328;-0.000732871;0.00355807;0.102044;9.79969;0.00451966;0.0047441;8.70996;0.114811;50.0272;95.0272;0.0151183;-0.000669903;-0.00594478;0.00749528;0.00627528;-0.00543114;0.0173518;0;0.0304935;0.198301;-0.461745;-1.00776;1.1261;-7.5214;-0.00132274;0.000555521;0.00464751;0.00469876;-0.00137399;0.00303638;0.284611;3.51356;0.00367709;0.0040485;3.4198;0.292414;57.8326;102.833;0.00425231;-0.00132658;-0.00172936;0.00282682;0.00464618;0.00504996;0.0346125;0;0.0275632;6.71335;4.44602
340000;341;25.8604;0.105443;0.00409408;-1.89762;25.7889;-0.30601;0.111233;0.11521;-0.687625;0.082274;-0.350689;-0.322798;0.483684;-7.24196;-0.000645016;0.000855201;0.00684555;0.00694195;-0.000741414;0.00384168;0.0942241;10.613;0.00489386;0.00512224;9.36312;0.106802;51.1973;96.1973;0.0151111;-0.000672559;-0.00580797;0.00746877;0.00682916;-0.00531102;0.0167064;0;0.0183965;0.197331;-0.464137;-1.01329;1.13186;-7.52693;-0.00110571;0.000457252;0.00475678;0.00479223;-0.00114116;0.00296669;0.232448;4.30203;0.0036354;0.00395559;4.19945;0.238126;60.562;105.562;0.00409738;-0.00110907;-0.00173229;0.00263402;0.00475539;0.0050785;0.0350813;0;0.0243353;6.74417;4.45305
341000;342;25.8599;0.104912;0.00407348;-1.89677;25.7885;-0.304155;0.112081;0.114762;-0.68577;0.0822253;-0.353481;-0.321892;0.485102;-7.24105;-0.000742017;0.000830858;0.00628102;0.00637797;-0.000838973;0.00360847;0.118136;8.46479;0.00455745;0.0048113;7.60212;0.131542;49.7131;94.7131;0.0151831;-0.000769722;-0.00587228;0.00748718;0.00626423;-0.0060595;0.0165005;0;0.0306049;0.197578;-0.467374;-1.01013;1.13042;-7.52377;-0.00111988;0.000339483;0.00465725;0.00467713;-0.00113976;0.00290845;0.24046;4.1587;0.00355937;0.00387793;4.1036;0.243688;61.6853;106.685;0.0036311;-0.00112281;-0.00177531;0.00244211;0.00465574;0.00580903;0.0329422;0;0.0246093;6.772;4.46081
342000;343;25.8566;0.101557;0.0039432;-1.89607;25.785;-0.313194;0.112787;0.111341;-0.694808;0.0828239;-0.356986;-0.326445;0.49078;-7.2456;-0.000718486;0.000996145;0.0062357;0.00637558;-0.000858364;0.00361697;0.115221;8.67895;0.00456349;0.00482263;7.42759;0.134633;48.4012;93.4012;0.0152601;-0.000746963;-0.00566337;0.00760959;0.00622025;-0.00649429;0.0160647;0;0.0186706;0.197956;-0.469141;-1.01917;1.13929;-7.53281;-0.000986497;0.000336071;0.00457234;0.00459258;-0.00100674;0.00279966;0.215753;4.63492;0.00344666;0.00373288;4.56183;0.21921;62.0917;107.092;0.0032859;-0.000989308;-0.00173264;0.00239334;0.0045709;0.00672149;0.033898;0;0.0252713;6.80487;4.46813
343000;344;25.8581;0.103047;0.00400106;-1.89613;25.7866;-0.308238;0.112725;0.112891;-0.689853;0.0813086;-0.360928;-0.323645;0.491555;-7.2428;-0.000722684;0.00120635;0.00559509;0.0058176;-0.000945195;0.0033814;0.129164;7.7421;0.00422883;0.00450853;6.15492;0.162472;44.8148;89.8148;0.0149028;-0.00075212;-0.00539311;0.0077643;0.00558136;-0.00544625;0.0158494;0;0.0199108;0.196264;-0.474098;-1.01234;1.13495;-7.52598;-0.00114934;0.000273475;0.00455544;0.00456851;-0.00116242;0.00286547;0.252301;3.96353;0.00349813;0.00382062;3.93018;0.254441;60.5514;105.551;0.00365519;-0.00115261;-0.00203544;0.00256928;0.00455341;0.0059768;0.0332944;0;0.0264794;6.83584;4.47604
344000;345;25.8577;0.10265;0.00398562;-1.89705;25.7861;-0.3139;0.111804;0.112356;-0.695514;0.0814293;-0.363169;-0.323877;0.493374;-7.24304;-0.000626419;0.000906009;0.00538133;0.00551498;-0.000760077;0.00313753;0.116406;8.59062;0.00395444;0.00418337;7.25582;0.13782;46.6196;91.6196;0.0148204;-0.000654039;-0.00571266;0.00748508;0.0053655;-0.00582805;0.0148788;0;0.0230687;0.196095;-0.476735;-1.01497;1.13837;-7.52861;-0.00132431;0.000278411;0.00474223;0.00475498;-0.00133706;0.00304602;0.279259;3.58091;0.00369716;0.00406136;3.5563;0.281191;61.9935;106.993;0.00345905;-0.00132709;-0.00182729;0.00237139;0.00474061;0.00572787;0.0334815;0;0.0251568;6.86685;4.4832
345000;346;25.8574;0.102401;0.00397597;-1.89679;25.7858;-0.318665;0.11206;0.112067;-0.70028;0.0826922;-0.365796;-0.326375;0.497157;-7.24553;-0.000733133;0.000855097;0.00584852;0.0059578;-0.000842413;0.00340011;0.125353;7.97744;0.0042804;0.00453348;7.07231;0.141397;48.5682;93.5682;0.0154425;-0.000759648;-0.00566204;0.00732955;0.00583295;-0.00703588;0.0146298;0;0.0202256;0.196844;-0.480644;-1.01788;1.14273;-7.53152;-0.00133205;0.000396876;0.00469666;0.00472267;-0.00135806;0.00304037;0.283616;3.52589;0.0036855;0.00405382;3.47751;0.287562;59.3099;104.31;0.00355109;-0.00133563;-0.00192293;0.00270275;0.00469489;0.00501994;0.0339921;0;0.0255944;6.90008;4.49025
346000;347;25.8588;0.103766;0.00402897;-1.89705;25.7871;-0.317495;0.111802;0.113431;-0.699109;0.0826727;-0.366729;-0.332296;0.501743;-7.25145;-0.00072008;0.0006201;0.00520273;0.00526695;-0.000784306;0.00302563;0.138404;7.22521;0.00379981;0.00403417;6.71543;0.148911;48.6866;93.6866;0.0151044;-0.000745198;-0.00591061;0.00711231;0.00518554;-0.00616158;0.0156546;0;0.0178348;0.196675;-0.482106;-1.02503;1.14969;-7.53867;-0.00137914;0.000434804;0.00490241;0.00493236;-0.00140909;0.00317073;0.281318;3.55469;0.00384499;0.00422763;3.50039;0.285683;58.7062;103.706;0.00340609;-0.00138332;-0.00207039;0.00292434;0.00490037;0.00403761;0.0339531;0;0.0243738;6.92716;4.49688
347000;348;25.8598;0.104765;0.00406777;-1.89788;25.7881;-0.318038;0.110975;0.114366;-0.699652;0.0829478;-0.370642;-0.329941;0.503107;-7.2491;-0.000724329;0.000753333;0.00529934;0.00539213;-0.000817113;0.00310462;0.136683;7.31621;0.00389579;0.00413949;6.599;0.151538;47.8086;92.8086;0.0149809;-0.000750055;-0.00574211;0.00720982;0.00528322;-0.00581681;0.0165267;0;0.0186762;0.196287;-0.485849;-1.02454;1.15076;-7.53818;-0.0014486;0.000534051;0.00509875;0.00514203;-0.00149187;0.00331695;0.284108;3.51979;0.0040187;0.0044226;3.4467;0.290133;58.9083;103.908;0.00368248;-0.00145281;-0.00189692;0.00294918;0.00509711;0.00475484;0.0336954;0;0.0285967;6.95736;4.50065
348000;349;25.8604;0.105354;0.00409064;-1.89761;25.7887;-0.319883;0.111242;0.114953;-0.701498;0.0829053;-0.373036;-0.329732;0.50473;-7.24889;-0.000766282;0.000522276;0.00540534;0.00544923;-0.000810168;0.0031297;0.141764;7.05398;0.0039308;0.00417293;6.72605;0.148676;50.1291;95.1291;0.0146388;-0.000790633;-0.0059909;0.00699545;0.00538763;-0.0058181;0.0160021;0;0.0233183;0.196488;-0.489771;-1.02192;1.15013;-7.53557;-0.00149936;0.000634736;0.00530269;0.00536142;-0.00155809;0.00345975;0.282755;3.53663;0.00419131;0.004613;3.44102;0.290611;57.8565;102.857;0.0038933;-0.00150437;-0.00197387;0.00322569;0.00530095;0.00504944;0.0326332;0;0.0314012;6.99045;4.50866
349000;350;25.8625;0.10752;0.00417473;-1.89792;25.7908;-0.320847;0.110934;0.117091;-0.702462;0.083444;-0.377853;-0.33014;0.508653;-7.2493;-0.00079747;0.000658091;0.00543646;0.00550517;-0.000866185;0.00318568;0.146689;6.81713;0.00399031;0.00424757;6.35566;0.15734;48.9081;93.9081;0.0142428;-0.000823027;-0.00590124;0.00717673;0.00541936;-0.00398033;0.0161803;0;0.0178771;0.196572;-0.495795;-1.02489;1.15536;-7.53853;-0.00163406;0.00073566;0.00550489;0.00557991;-0.00170908;0.00364449;0.296838;3.36884;0.00440166;0.00485933;3.26486;0.306292;58.4727;103.473;0.0040995;-0.00163879;-0.00170665;0.00316063;0.00550371;0.00633415;0.0312768;0;0.0383067;7.01691;4.51157
350000;351;25.8636;0.10856;0.0042151;-1.89851;25.7917;-0.332246;0.110344;0.117946;-0.713861;0.0825179;-0.379161;-0.327737;0.507921;-7.2469;-0.000720255;0.000580545;0.00495817;0.00501692;-0.000779;0.00289796;0.145266;6.88392;0.00363223;0.00386395;6.4402;0.155275;48.2959;93.2959;0.0145661;-0.000745349;-0.00598151;0.0071055;0.00494054;-0.00532555;0.0169248;0;0.0174051;0.195286;-0.498923;-1.02946;1.16053;-7.5431;-0.00159268;0.000761304;0.00552383;0.00560437;-0.00167322;0.00363879;0.28833;3.46825;0.00440131;0.00485172;3.34946;0.298556;58.9808;103.981;0.00362009;-0.00159721;-0.00159422;0.00310015;0.00552286;0.00716276;0.033887;0;0.0246833;7.04688;4.5189
351000;352;25.8678;0.112758;0.00437811;-1.90044;25.7959;-0.317571;0.108412;0.122198;-0.699186;0.086064;-0.382655;-0.328488;0.511602;-7.24765;-0.000614166;0.00053783;0.00549925;0.00554621;-0.000661121;0.00310366;0.111682;8.95402;0.00393639;0.00413822;8.3891;0.119202;50.1816;95.1816;0.0137643;-0.000639824;-0.00614643;0.00718143;0.00548061;-0.00257675;0.0171896;0;0.0241091;0.197981;-0.505668;-1.02127;1.15667;-7.53491;-0.00142339;0.000832441;0.00556996;0.00566768;-0.00152111;0.0035944;0.255547;3.91317;0.00437455;0.00479253;3.72602;0.268383;58.1007;103.101;0.00409658;-0.00142862;-0.00169222;0.00333953;0.00556888;0.00560812;0.0325317;0;0.0366959;7.07627;4.52629
352000;353;25.8699;0.114903;0.0044614;-1.90072;25.798;-0.318501;0.108137;0.124317;-0.700115;0.0842691;-0.383978;-0.331849;0.514456;-7.25101;-0.000872848;0.000781581;0.00575402;0.00584495;-0.000963781;0.00340437;0.151694;6.59224;0.00425444;0.00453916;6.06461;0.164891;48.4717;93.4717;0.0142714;-0.000900424;-0.00594535;0.00746416;0.00573675;-0.00393896;0.0170574;0;0.020851;0.19606;-0.506923;-1.02931;1.164;-7.54296;-0.00154508;0.000714625;0.00540507;0.00547779;-0.0016178;0.00354779;0.285858;3.49824;0.00429394;0.00473039;3.38595;0.295338;59.9204;104.92;0.00373179;-0.00154903;-0.00148434;0.00289839;0.00540423;0.00661393;0.0342699;0;0.0242834;7.10306;4.5341
353000;354;25.873;0.118033;0.00458291;-1.90122;25.8012;-0.315597;0.10763;0.127454;-0.697211;0.083535;-0.38649;-0.334389;0.51785;-7.25355;-0.000807969;0.000842368;0.00629001;0.00638861;-0.000906569;0.00364759;0.128453;7.78496;0.0045912;0.00486345;7.04702;0.141904;49.3256;94.3256;0.0144395;-0.000837113;-0.00604167;0.00767781;0.00627223;-0.00410133;0.0161399;0;0.0181368;0.194859;-0.512566;-1.02995;1.16683;-7.54359;-0.00150308;0.000633879;0.00520041;0.00525982;-0.00156249;0.00341116;0.28903;3.45984;0.00412717;0.00454821;3.36631;0.297061;60.0012;105.001;0.00387708;-0.00150675;-0.00152838;0.00278172;0.00519945;0.00496182;0.0343187;0;0.0260568;7.13411;4.5409
354000;355;25.874;0.119041;0.00462204;-1.90243;25.8021;-0.314621;0.106419;0.128387;-0.696235;0.0842087;-0.386408;-0.338802;0.520758;-7.25796;-0.000766926;0.00107296;0.00623754;0.00639821;-0.0009276;0.0036629;0.122953;8.13316;0.00460591;0.00488387;6.89759;0.144978;47.4355;92.4355;0.0144508;-0.000797809;-0.0058312;0.00792902;0.00622121;-0.00447731;0.0154211;0;0.0192878;0.195336;-0.512982;-1.03544;1.17194;-7.54909;-0.00120031;0.000571956;0.00515265;0.00520373;-0.00125139;0.00322756;0.23295;4.29277;0.00395287;0.00430341;4.15836;0.24048;60.784;105.784;0.00430602;-0.00120403;-0.00165435;0.00278419;0.00515145;0.00393189;0.0343635;0;0.0244518;7.15341;4.54812
355000;356;25.8739;0.118927;0.00461762;-1.90251;25.8019;-0.316639;0.10634;0.128243;-0.698254;0.0852301;-0.390276;-0.337914;0.523227;-7.25707;-0.000922116;0.000710551;0.00606481;0.00613634;-0.000993645;0.00356499;0.152044;6.57706;0.00445916;0.00475332;6.17559;0.161928;49.3859;94.3859;0.0142683;-0.000951799;-0.00636201;0.00773396;0.00604495;-0.00183651;0.0178282;0;0.018359;0.19611;-0.517376;-1.03572;1.17425;-7.54936;-0.00146339;0.000486361;0.00512215;0.00515787;-0.00149911;0.00332849;0.285698;3.5002;0.00403227;0.00443799;3.44061;0.290646;64.6005;109.6;0.00283358;-0.0014656;-0.00119375;0.00215546;0.00512156;0.00659325;0.0340673;0;0.0248377;7.18783;4.5553
356000;357;25.8748;0.119763;0.0046501;-1.90351;25.8027;-0.317853;0.105344;0.128993;-0.699468;0.0840787;-0.392788;-0.335248;0.523204;-7.25441;-0.000721244;0.000811073;0.00687922;0.00696481;-0.000806832;0.00388582;0.104844;9.538;0.00493419;0.0051811;8.63229;0.115844;51.0703;96.0703;0.0143788;-0.000750689;-0.00614437;0.00771397;0.0068608;-0.00251268;0.01644;0;0.0217706;0.193968;-0.520554;-1.03303;1.17292;-7.54667;-0.00122857;0.000329729;0.00508506;0.00510223;-0.00124574;0.00317399;0.241603;4.13902;0.00388391;0.00423198;4.09575;0.244156;65.9894;110.989;0.00298602;-0.00123065;-0.00142025;0.00206871;0.00508411;0.0061217;0.0343922;0;0.024751;7.20864;4.5631
357000;358;25.8788;0.123774;0.00480584;-1.90473;25.8068;-0.305724;0.104117;0.133071;-0.687339;0.0880563;-0.393651;-0.345158;0.530895;-7.26432;-0.000812247;0.000947416;0.0064067;0.00652897;-0.000934515;0.00373174;0.126781;7.88763;0.00469526;0.00497566;6.98648;0.143134;48.447;93.447;0.0153954;-0.000844389;-0.006227;0.00807032;0.00638788;-0.00413836;0.0178705;0;0.0173617;0.197469;-0.524168;-1.03672;1.17836;-7.55037;-0.00113277;0.000370702;0.0050954;0.00511738;-0.00115476;0.00313607;0.222313;4.49816;0.0038546;0.00418143;4.43156;0.225654;65.8184;110.818;0.00254034;-0.00113497;-0.00139716;0.00212761;0.00509449;0.00554097;0.0347948;0;0.0246231;7.24327;4.56974
358000;359;25.8763;0.121337;0.0047112;-1.90372;25.8042;-0.322276;0.105132;0.130501;-0.703891;0.0857029;-0.396666;-0.34029;0.529609;-7.25945;-0.000744362;0.000703622;0.00667694;0.00674306;-0.000810484;0.00377677;0.111482;8.97002;0.00478846;0.0050357;8.3198;0.120195;51.1113;96.1113;0.0148959;-0.000774238;-0.00640421;0.00775902;0.00665682;-0.00268223;0.0180833;0;0.0201322;0.196379;-0.527002;-1.04073;1.18297;-7.55437;-0.00131145;0.000233074;0.00515188;0.00516027;-0.00131985;0.00324006;0.254558;3.92838;0.00395425;0.00432008;3.90975;0.255771;65.171;110.171;0.00293961;-0.00131382;-0.00173523;0.00218872;0.00515041;0.00485601;0.0344418;0;0.024981;7.26813;4.57629
359000;360;25.8788;0.123809;0.00480717;-1.90366;25.8067;-0.318172;0.105197;0.133035;-0.699786;0.0859245;-0.397145;-0.344868;0.532955;-7.26403;-0.000901439;0.000773408;0.00664569;0.00672413;-0.00097988;0.003852;0.135643;7.37231;0.00484254;0.00513601;6.86219;0.145726;50.2343;95.2343;0.0152179;-0.000932537;-0.00642783;0.00792062;0.00662546;-0.00378337;0.0176176;0;0.0218377;0.195456;-0.529608;-1.04472;1.18749;-7.55837;-0.00121121;0.00026686;0.00532705;0.00533793;-0.00122208;0.00328;0.227369;4.39814;0.00402825;0.00437334;4.36791;0.228943;65.8163;110.816;0.00261007;-0.00121367;-0.00171212;0.00223297;0.00532563;0.0052302;0.0338237;0;0.0250057;7.28909;4.58008
360000;361;25.8804;0.12539;0.00486855;-1.90402;25.8084;-0.312995;0.104831;0.134656;-0.694609;0.0861946;-0.400691;-0.343866;0.535001;-7.26302;-0.000814197;0.00119202;0.00635388;0.00654691;-0.00100723;0.00377707;0.128142;7.80385;0.00473618;0.00503609;6.49993;0.153848;46.462;91.462;0.0152771;-0.000848364;-0.00601592;0.00834856;0.0063366;-0.00412352;0.019124;0;0.0196254;0.195453;-0.533984;-1.04258;1.18757;-7.55622;-0.00125891;0.000292834;0.00555823;0.00557079;-0.00127147;0.00342113;0.226495;4.41512;0.00420229;0.0045615;4.38139;0.228238;65.4743;110.474;0.00266048;-0.0012617;-0.00180705;0.00237848;0.00555665;0.00487046;0.0330655;0;0.0249196;7.32223;4.58797
361000;362;25.8823;0.12726;0.00494118;-1.90454;25.8102;-0.315319;0.104316;0.136466;-0.696934;0.0866666;-0.402304;-0.349028;0.539611;-7.26819;-0.000797069;0.000749343;0.00731447;0.00738311;-0.000865713;0.00412441;0.108972;9.1767;0.00523456;0.00549921;8.52836;0.117256;52.1781;97.1781;0.015976;-0.000827569;-0.00640178;0.00784284;0.0072944;-0.0048672;0.0166605;0;0.0232151;0.195023;-0.537196;-1.05107;1.19639;-7.56471;-0.00142722;0.000466799;0.0056533;0.00568395;-0.00145786;0.0035709;0.252457;3.96106;0.00435732;0.0047612;3.89883;0.256487;65.0873;110.087;0.00223646;-0.00142997;-0.00146944;0.0023894;0.00565234;0.00566162;0.0343927;0;0.0238171;7.34309;4.59306
362000;363;25.8827;0.127682;0.00495757;-1.90464;25.8106;-0.317734;0.104217;0.136852;-0.699349;0.0880122;-0.40281;-0.351739;0.541962;-7.2709;-0.00084711;0.000711647;0.00689572;0.00696059;-0.000911974;0.00393628;0.122846;8.1403;0.00497234;0.00524837;7.63244;0.13102;51.3645;96.3645;0.0153449;-0.000877616;-0.00647211;0.00784013;0.00687517;-0.00370147;0.0163901;0;0.0204541;0.195599;-0.539686;-1.05089;1.19745;-7.56454;-0.0014356;0.000450632;0.00589621;0.0059238;-0.0014632;0.0036935;0.243479;4.10713;0.00451664;0.00492466;4.04854;0.247003;64.959;109.959;0.00279092;-0.00143872;-0.0016489;0.00253486;0.00589496;0.00449775;0.0330877;0;0.0254603;7.36233;4.59927
363000;364;25.8845;0.129538;0.00502963;-1.90293;25.8125;-0.324652;0.105918;0.138753;-0.706266;0.0866564;-0.406619;-0.34902;0.542829;-7.26818;-0.000884024;0.00100496;0.00685184;0.00698026;-0.00101245;0.00399635;0.12902;7.75074;0.0050251;0.00532847;6.89446;0.145044;48.9404;93.9404;0.0160563;-0.00091788;-0.00633265;0.00828613;0.00683243;-0.00470225;0.0172124;0;0.019155;0.194653;-0.546059;-1.05198;1.20114;-7.56563;-0.00167993;0.000635917;0.00635255;0.00640258;-0.00172996;0.00406627;0.26445;3.78144;0.00494692;0.00542169;3.701;0.270197;64.9875;109.987;0.0024584;-0.00168329;-0.00141172;0.00266721;0.00635176;0.00649942;0.0326461;0;0.0248615;7.39295;4.60637
364000;365;25.8883;0.133285;0.00517511;-1.90471;25.8161;-0.319909;0.104147;0.142439;-0.701524;0.0875504;-0.405966;-0.354312;0.545903;-7.27347;-0.00101531;0.000573154;0.00600791;0.00605438;-0.00106178;0.00355808;0.168995;5.91733;0.00443277;0.0047441;5.70213;0.175373;49.9833;94.9833;0.0157594;-0.00104555;-0.00669886;0.00779437;0.00598577;-0.00445214;0.0179625;0;0.0263415;0.193786;-0.549638;-1.05116;1.20191;-7.5648;-0.00163162;0.000724453;0.00648727;0.00655141;-0.00169576;0.00412358;0.251511;3.97597;0.00502908;0.00549811;3.86342;0.258838;64.7281;109.728;0.00299115;-0.00163526;-0.00135889;0.00279099;0.00648662;0.00628708;0.0321175;0;0.0336627;7.40866;4.61337
365000;366;25.8856;0.130588;0.00507041;-1.903;25.8134;-0.331886;0.105849;0.139709;-0.7135;0.086793;-0.411913;-0.34546;0.544563;-7.26462;-0.000906154;0.000752271;0.00676511;0.00683819;-0.000979228;0.00390871;0.133945;7.46574;0.00491781;0.00521161;6.98324;0.1432;50.6931;95.6931;0.0152147;-0.000936993;-0.00643614;0.00788587;0.00674482;-0.0034234;0.0150545;0;0.0231268;0.194368;-0.554231;-1.05042;1.20346;-7.56406;-0.00160981;0.000606374;0.00653106;0.00657597;-0.00165472;0.00411535;0.246485;4.05704;0.00502717;0.00548713;3.97406;0.251632;65.1464;110.146;0.00293074;-0.00161344;-0.00156648;0.00276165;0.00653002;0.00646583;0.0326452;0;0.0405386;7.43522;4.62137
366000;367;25.8914;0.136432;0.00529729;-1.9046;25.8192;-0.329947;0.104255;0.145476;-0.711562;0.0872136;-0.413221;-0.344513;0.545021;-7.26367;-0.000965169;0.000672971;0.00647963;0.00653997;-0.00102551;0.00378274;0.148954;6.71347;0.00473895;0.00504366;6.37727;0.156807;50.4073;95.4073;0.015652;-0.000996125;-0.00660121;0.00789331;0.00645821;-0.00361668;0.0175134;0;0.0196311;0.193704;-0.560832;-1.0497;1.20578;-7.56334;-0.00159343;0.000599551;0.00651882;0.00656289;-0.00163751;0.0041002;0.244436;4.09105;0.00501109;0.00546693;4.00786;0.24951;65.8049;110.805;0.00305979;-0.00159681;-0.00148083;0.00266317;0.00651791;0.00610839;0.034735;0;0.0277554;7.45771;4.62807
367000;368;25.8961;0.141127;0.00547959;-1.90575;25.8238;-0.326742;0.103099;0.15014;-0.708356;0.0897201;-0.412465;-0.351121;0.549057;-7.27028;-0.000753607;0.000950394;0.00625469;0.00638129;-0.000880203;0.00363075;0.120487;8.29967;0.0045759;0.00484099;7.24979;0.137935;47.8849;92.8849;0.0159103;-0.0007868;-0.00634996;0.00819985;0.00623511;-0.00527191;0.0167609;0;0.0199092;0.194535;-0.564008;-1.05523;1.21221;-7.56888;-0.0016383;0.000512133;0.0061478;0.00618134;-0.00167184;0.00392659;0.266486;3.75254;0.00477671;0.00523545;3.69732;0.270466;65.9428;110.943;0.00263635;-0.00164116;-0.0014353;0.00244449;0.0061469;0.00571889;0.0376392;0;0.024396;7.47295;4.63568
368000;369;25.8987;0.143725;0.00558047;-1.90538;25.8265;-0.328359;0.103476;0.152752;-0.709974;0.0886144;-0.414575;-0.351449;0.550673;-7.27061;-0.000906709;0.000892868;0.00685012;0.00695157;-0.00100816;0.00397986;0.132364;7.55493;0.0050044;0.00530649;6.89532;0.145026;49.8342;94.8342;0.0154304;-0.00093895;-0.00634596;0.00807588;0.00683052;-0.00378449;0.0180027;0;0.0208567;0.193598;-0.569459;-1.05436;1.21386;-7.56801;-0.00155131;0.000338567;0.00626519;0.00627983;-0.00156595;0.00392289;0.247608;4.03865;0.00479455;0.00523051;4.01024;0.249361;69.0878;114.088;0.00303182;-0.00155347;-0.00144161;0.00210492;0.00626421;0.00598081;0.035561;0;0.0260897;7.50167;4.64342
369000;370;25.9033;0.148318;0.0057588;-1.90808;25.8309;-0.326208;0.100771;0.157186;-0.707822;0.088765;-0.413471;-0.355955;0.552758;-7.27511;-0.000770875;0.00103744;0.00685154;0.00699022;-0.000909551;0.00394988;0.112511;8.888;0.00499103;0.00526651;7.68534;0.130118;48.9764;93.9764;0.016171;-0.000803919;-0.00617192;0.00819217;0.00683316;-0.00559854;0.0180374;0;0.0220818;0.19228;-0.572438;-1.05854;1.21868;-7.57219;-0.00145273;0.000386999;0.00595137;0.00597155;-0.00147291;0.00372223;0.244101;4.09667;0.00455214;0.00496297;4.05426;0.246654;69.3419;114.342;0.00257147;-0.00145462;-0.00121887;0.00198105;0.00595071;0.00538989;0.0346257;0;0.0270065;7.51207;4.65086
370000;371;25.906;0.150982;0.00586226;-1.90761;25.8336;-0.327959;0.101242;0.15987;-0.709574;0.0869441;-0.416287;-0.34807;0.549551;-7.26723;-0.000992149;0.0010072;0.00675615;0.00688494;-0.00112093;0.00400294;0.146851;6.80962;0.00500562;0.00533725;6.14215;0.162809;48.8362;93.8362;0.015419;-0.00102454;-0.00614873;0.008108;0.00673788;-0.00476253;0.0163917;0;0.0260288;0.1909;-0.577907;-1.05272;1.21599;-7.56636;-0.00142079;0.000275217;0.00604368;0.00605381;-0.00143092;0.00374237;0.235087;4.25374;0.00458785;0.00498982;4.2307;0.236367;67.5756;112.576;0.00282821;-0.0014233;-0.00172181;0.00225743;0.00604224;0.00387449;0.035671;0;0.0296814;7.53341;4.6537
371000;372;25.9077;0.152696;0.0059288;-1.90705;25.8353;-0.331861;0.101807;0.161581;-0.713476;0.087722;-0.417819;-0.351143;0.552783;-7.2703;-0.00106467;0.000761663;0.00673861;0.00681226;-0.00113832;0.00397529;0.157996;6.32928;0.00496464;0.00530039;5.98448;0.167099;50.4629;95.4629;0.0145824;-0.00109521;-0.00638022;0.00784816;0.00671868;-0.00371862;0.0163253;0;0.0208038;0.191047;-0.582024;-1.05749;1.2221;-7.57113;-0.00155236;0.00017277;0.0061104;0.0061143;-0.00155625;0.00383528;0.254052;3.9362;0.00468197;0.0051137;3.92886;0.254527;69.8756;114.876;0.00269804;-0.00155421;-0.00159851;0.00193056;0.00610915;0.00535768;0.0357832;0;0.025294;7.54914;4.65979
372000;373;25.9103;0.155294;0.00602965;-1.90736;25.8379;-0.333164;0.101494;0.164146;-0.714779;0.0874118;-0.417984;-0.353544;0.554387;-7.2727;-0.0010892;0.000717921;0.00674067;0.00680595;-0.00115448;0.00398021;0.161586;6.18866;0.00496705;0.00530695;5.89526;0.169628;50.6968;95.6968;0.0155613;-0.00111974;-0.00646401;0.00784396;0.00672017;-0.00535287;0.0157989;0;0.0208655;0.190711;-0.585478;-1.05876;1.2248;-7.57241;-0.00151891;0.000267707;0.00636787;0.00637695;-0.00152798;0.00395247;0.238527;4.1924;0.00484168;0.00526996;4.17344;0.239611;70.3198;115.32;0.00226643;-0.00152086;-0.00147225;0.00199402;0.00636683;0.00494774;0.034316;0;0.0244192;7.5663;4.66546
373000;374;25.915;0.16001;0.00621279;-1.90801;25.8425;-0.333086;0.100847;0.168829;-0.714701;0.0877055;-0.418395;-0.355441;0.555955;-7.2746;-0.00111935;0.000844152;0.00672875;0.00681852;-0.00120912;0.00401382;0.166353;6.0113;0.00499771;0.00535176;5.63924;0.177329;49.8608;94.8608;0.0149985;-0.00115014;-0.00625555;0.00788846;0.00670967;-0.00480461;0.0175353;0;0.0255303;0.189579;-0.589999;-1.06126;1.22895;-7.5749;-0.00164525;0.000327335;0.00675072;0.00676346;-0.00165799;0.00421072;0.243714;4.10316;0.00515136;0.0056143;4.07931;0.245139;68.3855;113.386;0.00215057;-0.00164802;-0.00173849;0.00237593;0.00674927;0.00531786;0.0350313;0;0.0284381;7.58522;4.67226
374000;375;25.9181;0.163095;0.00633256;-1.90917;25.8455;-0.336751;0.0996788;0.171788;-0.718365;0.087399;-0.419067;-0.356978;0.557395;-7.27614;-0.00121968;0.000684993;0.00706264;0.00711891;-0.00127595;0.00419743;0.172694;5.79057;0.00522346;0.00559657;5.57931;0.179234;51.6709;96.6709;0.0153004;-0.00124919;-0.00639606;0.00770777;0.00704256;-0.0043363;0.0167249;0;0.0187602;0.188842;-0.594787;-1.0652;1.23454;-7.57884;-0.00169358;0.000495201;0.00715508;0.00718271;-0.00172121;0.00445196;0.236696;4.22482;0.00545352;0.00593595;4.17306;0.239632;68.6037;113.604;0.0024197;-0.00169661;-0.00153445;0.00250702;0.00715404;0.00494678;0.0353326;0;0.0249393;7.6035;4.68031
375000;376;25.9234;0.168405;0.00653873;-1.90946;25.8507;-0.341135;0.099388;0.177034;-0.72275;0.0868418;-0.418698;-0.359289;0.558514;-7.27845;-0.00116976;0.000813657;0.00696042;0.00704105;-0.00125039;0.00414572;0.168059;5.95031;0.00516156;0.00552762;5.63109;0.177585;50.6651;95.6651;0.0156377;-0.00119991;-0.00623269;0.00780307;0.00694146;-0.00623233;0.0170453;0;0.0269293;0.18764;-0.599364;-1.06836;1.23929;-7.582;-0.00182244;0.0006136;0.00764045;0.00768007;-0.00186206;0.00477106;0.238525;4.19244;0.00584053;0.00636142;4.12451;0.242453;67.7935;112.793;0.00283025;-0.00182619;-0.00159899;0.00280541;0.00763936;0.0053116;0.0338768;0;0.0400908;7.6064;4.68748
376000;377;25.9281;0.173091;0.00672069;-1.91004;25.8554;-0.343721;0.0988102;0.181657;-0.725335;0.0881927;-0.418279;-0.364088;0.561512;-7.28325;-0.00102745;0.000536884;0.00676261;0.00679944;-0.00106428;0.00393186;0.151931;6.58193;0.00492619;0.00524248;6.38878;0.156524;52.1994;97.1994;0.0155694;-0.00105623;-0.00658247;0.00760113;0.00674124;-0.00669793;0.0171646;0;0.0211671;0.187957;-0.603848;-1.0754;1.24758;-7.58904;-0.00182451;0.000730689;0.00796043;0.00801469;-0.00187878;0.00494673;0.229198;4.36304;0.00606714;0.00659565;4.26591;0.234417;67.4787;112.479;0.00302684;-0.00182876;-0.00156353;0.00300263;0.00795948;0.00558134;0.0340014;0;0.0370175;7.62509;4.69484
377000;378;25.936;0.181039;0.00702927;-1.91173;25.8633;-0.337923;0.0971236;0.189578;-0.719537;0.0871695;-0.419011;-0.363952;0.561809;-7.28311;-0.00111759;0.00079454;0.00735129;0.00742519;-0.00119149;0.00430834;0.152026;6.57783;0.00539136;0.00574445;6.23188;0.160465;51.6909;96.6909;0.015702;-0.00114804;-0.00631074;0.00784005;0.00733184;-0.00601452;0.0178592;0;0.019385;0.186181;-0.611652;-1.07297;1.24902;-7.58662;-0.0017959;0.000637235;0.00789968;0.00794139;-0.0018376;0.00488949;0.227338;4.39874;0.00600131;0.00651932;4.32161;0.231395;68.7658;113.766;0.00281207;-0.00179954;-0.0015166;0.00277035;0.00789874;0.0072634;0.0347717;0;0.0298694;7.64854;4.70209
378000;379;25.9405;0.185461;0.00720099;-1.91244;25.8676;-0.341067;0.0964173;0.19392;-0.722681;0.0874143;-0.420676;-0.359657;0.560324;-7.27882;-0.00145584;0.000544197;0.00731407;0.00734771;-0.00148948;0.0044186;0.199047;5.02394;0.00546308;0.00589146;4.93306;0.202714;53.0715;98.0715;0.0149235;-0.00148325;-0.00638975;0.00741775;0.00729395;-0.00416162;0.0163834;0;0.0241734;0.185166;-0.618091;-1.0715;1.25077;-7.58514;-0.00188197;0.000539661;0.00782631;0.00785622;-0.00191188;0.00488405;0.240467;4.15857;0.00597757;0.00651206;4.10917;0.243358;69.588;114.588;0.00357154;-0.00188515;-0.00151896;0.00257844;0.00782531;0.0051651;0.0363141;0;0.0334024;7.64725;4.70977
379000;380;25.9479;0.192869;0.0074886;-1.91306;25.8751;-0.336453;0.0957959;0.201363;-0.718067;0.0867621;-0.42191;-0.358788;0.560593;-7.27795;-0.00144607;0.00074599;0.00813856;0.00819628;-0.00150379;0.00485003;0.177682;5.62804;0.0060283;0.00646671;5.45042;0.183472;53.5796;98.5796;0.0154246;-0.00147505;-0.00621783;0.00764357;0.00811967;-0.00555965;0.0173803;0;0.0247222;0.184289;-0.624991;-1.07112;1.25374;-7.58476;-0.0017558;0.000399702;0.00746924;0.00748652;-0.00177309;0.00462981;0.235071;4.25403;0.00567514;0.00617308;4.22231;0.236837;68.9211;113.921;0.00316563;-0.00175902;-0.00178708;0.00256645;0.00746773;0.00527843;0.0367544;0;0.0269821;7.6657;4.71639
380000;381;25.9519;0.196858;0.00764348;-1.91296;25.879;-0.343614;0.0958909;0.205276;-0.725229;0.0876525;-0.421277;-0.362661;0.562744;-7.28182;-0.00155536;0.000608648;0.00761894;0.00765915;-0.00159556;0.00462736;0.204144;4.89851;0.00571272;0.00616981;4.80028;0.208321;53.2706;98.2706;0.0150476;-0.00158281;-0.00627343;0.00742804;0.0075996;-0.00534985;0.0167876;0;0.0192058;0.185125;-0.630003;-1.07646;1.26093;-7.59011;-0.00176994;0.000221333;0.00735147;0.00735684;-0.0017753;0.00456607;0.240759;4.15352;0.00559108;0.0060881;4.14399;0.241313;71.1234;116.123;0.00339165;-0.00177227;-0.00174666;0.0021715;0.00734998;0.00414682;0.036696;0;0.0267686;7.67681;4.72305
381000;382;25.9601;0.20506;0.00796196;-1.91554;25.8871;-0.338052;0.0933166;0.213384;-0.719666;0.0872668;-0.419437;-0.361855;0.560786;-7.28101;-0.00152496;0.000751541;0.00813433;0.00819246;-0.00158308;0.00488777;0.187472;5.33413;0.00605867;0.00651703;5.175;0.193237;53.4986;98.4986;0.0147615;-0.0015537;-0.00617644;0.00761311;0.00811569;-0.00470468;0.0166845;0;0.0294611;0.18258;-0.635157;-1.07318;1.26035;-7.58683;-0.00178703;0.000199142;0.00725753;0.00726191;-0.00179141;0.00452666;0.246231;4.06122;0.00553588;0.00603555;4.05373;0.246686;71.0897;116.09;0.00307179;-0.00178929;-0.00175286;0.00213361;0.00725602;0.0047877;0.036415;0;0.0243674;7.68062;4.72477
382000;383;25.9629;0.207868;0.00807097;-1.91478;25.8899;-0.343928;0.0940738;0.216178;-0.725543;0.0859897;-0.421435;-0.359661;0.560676;-7.27882;-0.00163959;0.00085843;0.00796699;0.0080431;-0.0017157;0.0048794;0.205798;4.85912;0.00601608;0.00650587;4.68794;0.213313;52.2269;97.2269;0.0151138;-0.00166981;-0.00616458;0.00781446;0.00794851;-0.00591951;0.0174422;0;0.0188894;0.181634;-0.640809;-1.07585;1.26534;-7.5895;-0.00191866;0.000274737;0.00757857;0.00758651;-0.0019266;0.00475655;0.253169;3.94994;0.00580739;0.00634207;3.93778;0.25395;71.0156;116.016;0.00344399;-0.00192111;-0.00169789;0.00222877;0.00757718;0.0049491;0.0368705;0;0.0248956;7.69872;4.7314
383000;384;25.9686;0.21364;0.00829507;-1.91571;25.8956;-0.347235;0.0931447;0.221854;-0.72885;0.085625;-0.421179;-0.358614;0.559756;-7.27777;-0.00158378;0.000927655;0.00857143;0.00865547;-0.00166782;0.00516165;0.184774;5.412;0.00639912;0.0068822;5.18968;0.19269;53.5484;98.5484;0.0151528;-0.00161294;-0.0059003;0.00768681;0.00855459;-0.00548168;0.0172302;0;0.018097;0.180115;-0.646982;-1.07662;1.26891;-7.59026;-0.00209025;0.000391909;0.00826016;0.00827498;-0.00210507;0.00519003;0.253052;3.95175;0.006336;0.00692004;3.93097;0.25439;70.6106;115.611;0.00307404;-0.00209332;-0.00174324;0.00250514;0.00825873;0.00612683;0.0368443;0;0.0269002;7.70279;4.73813
384000;385;25.9758;0.220754;0.0085713;-1.91682;25.9026;-0.347244;0.0920294;0.228905;-0.728859;0.0857327;-0.419272;-0.361555;0.560233;-7.28071;-0.00161022;0.00108856;0.00875125;0.00886438;-0.00172334;0.00529386;0.183998;5.43483;0.00655993;0.00705848;5.14371;0.194412;52.9892;97.9892;0.015061;-0.00164073;-0.00577414;0.00788072;0.00873532;-0.00515313;0.0175458;0;0.0253129;0.179176;-0.652357;-1.07997;1.27437;-7.59362;-0.00232138;0.000522853;0.00898307;0.0090072;-0.00234552;0.00567636;0.258418;3.8697;0.00692042;0.00756848;3.84018;0.260405;69.5859;114.586;0.00379384;-0.00232546;-0.00188023;0.00289901;0.00898145;0.00362806;0.0377419;0;0.0349626;7.71523;4.74447
385000;386;25.9854;0.230375;0.00894486;-1.91825;25.9121;-0.350238;0.0905982;0.238407;-0.731853;0.0849833;-0.417993;-0.36189;0.559378;-7.28105;-0.00181341;0.00086586;0.00905189;0.00912046;-0.00188198;0.00550122;0.200335;4.99163;0.00679507;0.00733496;4.8462;0.206347;54.6435;99.6435;0.0151362;-0.00184201;-0.00594724;0.00760556;0.00903473;-0.00530429;0.0163831;0;0.028111;0.177395;-0.658662;-1.08278;1.27973;-7.59642;-0.00218588;0.000598735;0.00927957;0.00931075;-0.00221706;0.00576391;0.235558;4.24524;0.00706314;0.00768521;4.1996;0.238118;71.0223;116.022;0.0037896;-0.00218966;-0.00163909;0.00281113;0.00927842;0.00700492;0.0350841;0;0.0444437;7.7153;4.752
386000;387;25.9922;0.237203;0.00920997;-1.91771;25.919;-0.353608;0.0911377;0.245249;-0.735222;0.0851549;-0.417571;-0.360967;0.558492;-7.28013;-0.00172999;0.000959673;0.00922785;0.00931126;-0.0018134;0.00556233;0.187475;5.33405;0.00689196;0.00741644;5.1347;0.194753;54.6034;99.6034;0.015059;-0.00175932;-0.00586779;0.00771297;0.00921125;-0.00487886;0.017031;0;0.0242873;0.176459;-0.666781;-1.08336;1.28429;-7.597;-0.00234659;0.000653431;0.00946941;0.00950544;-0.00238262;0.00594403;0.247807;4.03539;0.00726263;0.00792537;3.9895;0.250658;70.4702;115.47;0.00371904;-0.00235071;-0.0016606;0.00294037;0.00946826;0.0071466;0.0352979;0;0.0360706;7.72335;4.75934
387000;388;26.0018;0.246772;0.00958153;-1.91951;25.9284;-0.351461;0.0893389;0.254741;-0.733075;0.0852986;-0.415897;-0.364601;0.559625;-7.28376;-0.00166475;0.0011902;0.00930611;0.00943375;-0.00179239;0.00561307;0.178888;5.5901;0.00696394;0.00748409;5.26323;0.189997;53.4381;98.4381;0.0156886;-0.00169674;-0.0057761;0.00808073;0.00929028;-0.00599036;0.0167009;0;0.0269773;0.175478;-0.67372;-1.08644;1.29037;-7.60008;-0.00241141;0.000611897;0.00928325;0.00931518;-0.00244334;0.00587926;0.259759;3.84972;0.00716481;0.00783901;3.81248;0.262296;70.5296;115.53;0.0036942;-0.00241525;-0.00163891;0.00283662;0.00928211;0.00733864;0.0361017;0;0.0328132;7.73147;4.7672
388000;389;26.0089;0.253882;0.00985758;-1.92066;25.9355;-0.349349;0.0881925;0.261815;-0.730964;0.0842807;-0.41619;-0.364071;0.559344;-7.28323;-0.00180708;0.00101543;0.00969441;0.00978337;-0.00189604;0.0058397;0.186405;5.36467;0.00723752;0.00778627;5.15988;0.193803;54.9873;99.9873;0.0153256;-0.00183765;-0.00592602;0.00787776;0.00967753;-0.00436366;0.0176141;0;0.0298731;0.17426;-0.679873;-1.08787;1.29463;-7.60152;-0.00238967;0.000377168;0.00886466;0.00887729;-0.0024023;0.00563979;0.269573;3.70957;0.00686062;0.00751973;3.69533;0.270612;71.2407;116.241;0.00343979;-0.00239281;-0.00180137;0.0025314;0.00886312;0.00629786;0.0403835;0;0.0288042;7.73972;4.77366
389000;390;26.0168;0.261834;0.0101663;-1.92072;25.9435;-0.350358;0.0881367;0.269771;-0.731973;0.0848737;-0.414677;-0.363861;0.558171;-7.28302;-0.00172923;0.00108226;0.00995728;0.0100567;-0.00182861;0.00594263;0.173665;5.75821;0.00738978;0.00792351;5.49961;0.181831;55.4615;100.461;0.0152756;-0.00175946;-0.00575836;0.00784367;0.00994144;-0.00475034;0.0171194;0;0.0207994;0.174042;-0.686737;-1.0898;1.29983;-7.60344;-0.00230203;0.000288793;0.00884501;0.00885249;-0.00230951;0.005581;0.260263;3.84227;0.00680344;0.00744133;3.83307;0.260888;71.8737;116.874;0.00364008;-0.00230495;-0.0018796;0.00243322;0.00884331;0.00595871;0.0382829;0;0.0263158;7.74991;4.78121
390000;391;26.0232;0.268223;0.0104144;-1.92127;25.9498;-0.35208;0.0875826;0.276114;-0.733695;0.0834033;-0.414207;-0.360899;0.555673;-7.28006;-0.00197708;0.00119252;0.0104864;0.0105995;-0.00209015;0.00634482;0.188537;5.30399;0.00785627;0.00845976;5.07115;0.197194;55.9326;100.933;0.0151767;-0.00200717;-0.00553964;0.00784158;0.0104719;-0.0050602;0.0169741;0;0.0212539;0.171361;-0.694069;-1.08486;1.29923;-7.5985;-0.00243911;0.000134504;0.00888103;0.00888263;-0.00244071;0.00566167;0.274642;3.6411;0.00688115;0.00754889;3.63937;0.274773;71.6805;116.681;0.00400151;-0.00244201;-0.00216627;0.00240946;0.00887872;0.00515525;0.0384883;0;0.0244176;7.74561;4.78831
391000;392;26.0296;0.274624;0.0106629;-1.92178;25.9562;-0.353906;0.0870697;0.28247;-0.73552;0.0824323;-0.412404;-0.36326;0.555725;-7.28242;-0.00222732;0.00131146;0.0106337;0.0107661;-0.00235969;0.0065629;0.209458;4.77423;0.00807965;0.00875053;4.56251;0.219178;55.4958;100.496;0.0153257;-0.00225793;-0.00538652;0.00792414;0.0106202;-0.00678058;0.0158693;0;0.0220946;0.169645;-0.698869;-1.08843;1.30456;-7.60207;-0.00253863;0.000123666;0.00926143;0.00926273;-0.00253992;0.00590133;0.274108;3.6482;0.00717328;0.00786844;3.64685;0.274209;69.8578;114.858;0.00435508;-0.00254269;-0.00263483;0.00284991;0.009258;0.00419862;0.0390595;0;0.0244092;7.7496;4.79257
392000;393;26.0393;0.284345;0.0110404;-1.92361;25.9658;-0.356;0.0852445;0.292055;-0.737615;0.0830153;-0.411615;-0.365303;0.556565;-7.28446;-0.00229532;0.00137764;0.0109594;0.0111011;-0.00243699;0.00676905;0.209438;4.77468;0.00833271;0.0090254;4.55524;0.219527;55.7549;100.755;0.0154349;-0.00232647;-0.00533558;0.00800277;0.0109463;-0.00623528;0.0168111;0;0.0295803;0.169218;-0.706854;-1.0926;1.31227;-7.60625;-0.00264285;0.000430929;0.0102572;0.0102716;-0.00265723;0.0064644;0.257658;3.88111;0.00788416;0.0086192;3.86552;0.258697;70.0487;115.049;0.00365549;-0.00264789;-0.0023746;0.00320063;0.0102545;0.00494518;0.0379038;0;0.0296614;7.76437;4.8015
393000;394;26.0469;0.291903;0.0113338;-1.92372;25.9733;-0.358586;0.0851337;0.299591;-0.740201;0.0827837;-0.408895;-0.370094;0.55769;-7.28925;-0.00252465;0.00138556;0.0112332;0.0113714;-0.0026628;0.0070171;0.224748;4.44943;0.00860694;0.00935613;4.27047;0.234166;56.0525;101.052;0.0149882;-0.00255562;-0.00530216;0.00798223;0.0112203;-0.00615574;0.0170488;0;0.0271124;0.168159;-0.712753;-1.09674;1.31876;-7.61039;-0.00267406;0.000518308;0.0107884;0.0108083;-0.00269399;0.00675114;0.247866;4.03445;0.00825144;0.00900152;4.012;0.249252;70.4784;115.478;0.00420213;-0.00267944;-0.00231771;0.00331655;0.0107858;0.00510166;0.0373654;0;0.0342392;7.76477;4.8071
394000;395;26.0558;0.300796;0.0116791;-1.92516;25.9821;-0.358125;0.083697;0.308409;-0.73974;0.0815367;-0.409213;-0.363907;0.553654;-7.28307;-0.00259217;0.00109262;0.0112785;0.011364;-0.00267771;0.00702088;0.229833;4.35098;0.00860855;0.00936117;4.24394;0.23563;57.3367;102.337;0.0145785;-0.00262082;-0.00554423;0.0076384;0.0112639;-0.00661713;0.0173179;0;0.0354392;0.165841;-0.719847;-1.09463;1.32056;-7.60827;-0.00284179;0.000630457;0.0111135;0.0111419;-0.00287021;0.00700605;0.255707;3.91073;0.00854684;0.0093414;3.88191;0.257605;70.8904;115.89;0.00385668;-0.0028471;-0.00209348;0.0033168;0.0111115;0.0066384;0.0377082;0;0.0441924;7.76538;4.81093
395000;396;26.0622;0.307174;0.0119268;-1.92576;25.9884;-0.364018;0.0830956;0.314679;-0.745633;0.0827571;-0.408373;-0.364844;0.553831;-7.284;-0.00277147;0.00123291;0.0117485;0.0118525;-0.00287541;0.00736394;0.235899;4.2391;0.0090143;0.00981859;4.122;0.2426;57.4458;102.446;0.0144239;-0.00280097;-0.00539891;0.00776951;0.0117349;-0.00642338;0.0170585;0;0.0277937;0.166189;-0.727249;-1.09642;1.32614;-7.61007;-0.00295892;0.000569645;0.0111382;0.0111612;-0.0029819;0.00707153;0.265655;3.76427;0.00860864;0.0094287;3.74297;0.267167;71.2577;116.258;0.00391989;-0.00296391;-0.00210414;0.00320615;0.0111361;0.00538721;0.0375516;0;0.0410824;7.77513;4.81842
396000;397;26.0742;0.319146;0.0123916;-1.92637;26.0004;-0.357699;0.0824776;0.326726;-0.739313;0.0803837;-0.40719;-0.365168;0.552822;-7.28433;-0.00287804;0.00142407;0.012518;0.0126487;-0.00300865;0.00782865;0.229911;4.3495;0.00959388;0.0104382;4.20409;0.237863;58.3228;103.323;0.0148182;-0.00290753;-0.00505013;0.00779976;0.0125064;-0.00800703;0.0163114;0;0.0242367;0.16331;-0.736462;-1.09568;1.33025;-7.60933;-0.00290015;0.000256036;0.0106903;0.0106951;-0.00290497;0.00680003;0.271288;3.68611;0.00827024;0.00906671;3.68166;0.271617;71.9078;116.908;0.00461872;-0.00290428;-0.00240432;0.00288062;0.0106874;0.00360404;0.0421483;0;0.0304897;7.78339;4.82652
397000;398;26.0819;0.326912;0.0126932;-1.92838;26.008;-0.36082;0.0804722;0.334323;-0.742435;0.0807941;-0.405946;-0.364865;0.551766;-7.28402;-0.00253629;0.00147905;0.0126181;0.0127611;-0.00267929;0.0077202;0.201004;4.97502;0.00952692;0.0102936;4.76286;0.209958;58.7277;103.728;0.0142106;-0.00256589;-0.00496389;0.0078255;0.012607;-0.00614239;0.0161473;0;0.0220682;0.16287;-0.742599;-1.09925;1.33654;-7.61289;-0.0027196;0.000121234;0.0104637;0.0104648;-0.00272072;0.00659275;0.259909;3.8475;0.0080384;0.00879033;3.84633;0.259988;73.5697;118.57;0.00423556;-0.00272277;-0.00230711;0.0025179;0.010461;0.00436649;0.0416812;0;0.0270808;7.78236;4.83285
398000;399;26.0903;0.335299;0.0130188;-1.92832;26.0165;-0.359165;0.0805333;0.342761;-0.74078;0.0802702;-0.404806;-0.362828;0.549505;-7.28199;-0.00273637;0.00136764;0.0131291;0.0132462;-0.0028534;0.00804978;0.208419;4.79802;0.00991967;0.010733;4.64224;0.215413;59.7488;104.749;0.0144368;-0.00276538;-0.00509436;0.00772839;0.0131173;-0.00613898;0.0159066;0;0.0264262;0.16133;-0.749771;-1.09572;1.33746;-7.60937;-0.00288831;-3.37111e-05;0.0105913;0.0105914;-0.00288839;0.00673987;0.272706;3.66695;0.00819516;0.0089865;3.66687;0.272712;71.4853;116.485;0.00447714;-0.00289251;-0.00300386;0.00289683;0.0105868;0.00387204;0.0451045;0;0.024105;7.78725;4.84021
399000;400;26.099;0.34402;0.0133574;-1.92999;26.0251;-0.356304;0.0788605;0.351422;-0.737918;0.0800488;-0.401576;-0.371489;0.552879;-7.29065;-0.00300469;0.00147858;0.0136352;0.0137655;-0.00313505;0.00845028;0.220363;4.53796;0.010381;0.011267;4.39085;0.227747;59.5661;104.566;0.0147961;-0.00303569;-0.00515183;0.00800007;0.0136231;-0.00710432;0.0160132;0;0.0245747;0.159535;-0.755089;-1.10287;1.34608;-7.61651;-0.00321957;0.000126498;0.0111812;0.0111823;-0.00322068;0.00720149;0.287945;3.47289;0.00872879;0.00960199;3.47203;0.288016;71.0365;116.036;0.00437002;-0.00322442;-0.00290146;0.00311133;0.011177;0.00386061;0.0426649;0;0.0240786;7.79004;4.84706
400000;401;26.1073;0.352299;0.0136789;-1.93065;26.0333;-0.360549;0.0782058;0.359618;-0.742164;0.0789033;-0.396399;-0.374425;0.550956;-7.29358;-0.00323853;0.00162247;0.0139501;0.0141019;-0.00339033;0.00874611;0.232151;4.30754;0.0107117;0.0116615;4.15944;0.240417;59.114;104.114;0.0152248;-0.00327144;-0.005131;0.00826139;0.0139384;-0.0082786;0.0157483;0;0.0253296;0.158121;-0.758206;-1.10699;1.35104;-7.62064;-0.00340518;7.46121e-05;0.0116966;0.0116969;-0.00340555;0.00755125;0.291127;3.43493;0.00914696;0.0100683;3.43467;0.291149;70.0263;115.026;0.00476085;-0.00341123;-0.00337305;0.00347081;0.0116909;0.00183257;0.0436726;0;0.024023;7.79371;4.85503
401000;402;26.1147;0.359689;0.0139658;-1.931;26.0406;-0.366599;0.0778545;0.366918;-0.748214;0.0767796;-0.399257;-0.370486;0.550055;-7.28964;-0.00324344;0.00177747;0.0141412;0.0143211;-0.00342332;0.00887222;0.22936;4.35995;0.0108697;0.0118296;4.18341;0.23904;59.1298;104.13;0.0153024;-0.00327657;-0.00487733;0.00831812;0.0141311;-0.00862294;0.0155434;0;0.0200335;0.154272;-0.769628;-1.10579;1.35606;-7.61944;-0.0036913;0.000300194;0.0129182;0.0129236;-0.00369672;0.00831016;0.285744;3.49963;0.0100766;0.0110802;3.49596;0.286044;70.8322;115.832;0.0050266;-0.00369804;-0.00313243;0.00367653;0.0129134;0.00294712;0.043348;0;0.0273709;7.80446;4.86171
402000;403;26.1254;0.37038;0.0143809;-1.93347;26.0512;-0.36135;0.07538;0.377529;-0.742965;0.0777061;-0.397672;-0.371496;0.549718;-7.29065;-0.00331315;0.0019891;0.0151826;0.0153941;-0.00352465;0.00945938;0.21822;4.58253;0.0116172;0.0126125;4.36756;0.228961;60.0277;105.028;0.0156813;-0.00334773;-0.00468095;0.00853754;0.0151738;-0.00962736;0.0148537;0;0.0225816;0.154189;-0.776133;-1.10908;1.36243;-7.62273;-0.00360581;0.000415465;0.0130164;0.0130267;-0.00361619;0.00832147;0.277022;3.60983;0.0101079;0.0110953;3.60234;0.277598;69.9283;114.928;0.00502121;-0.00361372;-0.00321819;0.00398949;0.0130113;0.00373771;0.0419501;0;0.0357323;7.80813;4.86954
403000;404;26.1361;0.381073;0.0147961;-1.93358;26.062;-0.359458;0.0752747;0.388272;-0.741073;0.0769674;-0.394918;-0.37364;0.549082;-7.2928;-0.00339804;0.00213338;0.0154118;0.0156507;-0.00363697;0.00964383;0.220484;4.53549;0.0118339;0.0128584;4.30322;0.232384;60.0328;105.033;0.0157208;-0.00343295;-0.00446594;0.00861036;0.0154042;-0.0103268;0.0143944;0;0.019374;0.152917;-0.782922;-1.11094;1.36768;-7.62459;-0.00401497;0.000218659;0.0131216;0.0131244;-0.00401776;0.00857108;0.305981;3.26817;0.0103521;0.0114281;3.2666;0.306129;70.7642;115.764;0.00515043;-0.0040216;-0.00326329;0.00364171;0.0131164;0.00487273;0.0443444;0;0.0291484;7.80408;4.87378
404000;405;26.1454;0.390363;0.0151568;-1.93585;26.0712;-0.354143;0.0730003;0.397492;-0.735758;0.0759722;-0.393825;-0.37706;0.550495;-7.29622;-0.00337897;0.00182309;0.0159239;0.0160946;-0.00354965;0.0098221;0.212195;4.71264;0.0120879;0.0130961;4.53412;0.22055;61.7978;106.798;0.0150985;-0.00341147;-0.00473035;0.00825194;0.0159145;-0.00850487;0.0144146;0;0.0256795;0.150893;-0.789513;-1.11513;1.37463;-7.62877;-0.00391378;2.19539e-05;0.0127772;0.0127772;-0.00391381;0.00834553;0.306309;3.26467;0.0100793;0.0111274;3.26466;0.306311;71.33;116.33;0.00511382;-0.0039195;-0.00338791;0.00337562;0.0127715;0.00426122;0.0461589;0;0.0319533;7.80815;4.87813
405000;406;26.1544;0.399379;0.0155068;-1.93716;26.0802;-0.350527;0.071689;0.406485;-0.732141;0.0757894;-0.392598;-0.37836;0.550485;-7.29752;-0.00363071;0.00214959;0.0162299;0.0164599;-0.00386071;0.0101603;0.223705;4.47017;0.0124611;0.0135471;4.26344;0.234552;61.147;106.147;0.0154214;-0.00366513;-0.0043845;0.00855588;0.0162227;-0.0101098;0.0145497;0;0.0256449;0.148905;-0.798188;-1.11266;1.37742;-7.6263;-0.00401017;-7.07211e-05;0.0124857;0.012486;-0.00401048;0.00824822;0.321182;3.11349;0.0099344;0.0109976;3.11334;0.321199;70.8036;115.804;0.00504987;-0.00401576;-0.00353564;0.00333775;0.0124795;0.00341006;0.0473705;0;0.0258811;7.81566;4.88475
406000;407;26.161;0.406023;0.0157648;-1.938;26.0868;-0.3523;0.0708547;0.413062;-0.733915;0.0760469;-0.392241;-0.378474;0.550344;-7.29763;-0.00375987;0.00201496;0.0166969;0.0168935;-0.00395645;0.010425;0.225183;4.44083;0.0127868;0.0139;4.26986;0.234199;62.0325;107.033;0.0148408;-0.00379352;-0.00453464;0.00843269;0.0166888;-0.00926141;0.014358;0;0.0224021;0.148554;-0.804304;-1.11543;1.38317;-7.62908;-0.00401614;-0.000199655;0.0127412;0.0127436;-0.00401852;0.00838106;0.315208;3.17251;0.0101052;0.0111747;3.17122;0.315336;71.733;116.733;0.00465925;-0.00402122;-0.0036435;0.00318721;0.0127347;0.00355585;0.0487174;0;0.0231841;7.82647;4.89282
407000;408;26.1711;0.416059;0.0161545;-1.93915;26.0968;-0.350115;0.0697061;0.423071;-0.731729;0.0746076;-0.390279;-0.379584;0.549516;-7.29874;-0.00377035;0.00222725;0.01662;0.0168604;-0.0040108;0.0104356;0.226856;4.40808;0.0127886;0.0139141;4.20376;0.237882;61.4264;106.426;0.0153968;-0.00380506;-0.0042851;0.00860889;0.0166134;-0.00965918;0.0144635;0;0.0399143;0.146053;-0.811342;-1.11679;1.38811;-7.63044;-0.00413451;-0.000155528;0.0133477;0.0133491;-0.0041359;0.0087425;0.309755;3.22836;0.0105518;0.0116567;3.22762;0.309826;70.2318;115.232;0.00403049;-0.00414166;-0.00415706;0.00377697;0.0133392;0.00321036;0.0518095;0;0.0326632;7.82296;4.90008
408000;409;26.1773;0.422252;0.016395;-1.94001;26.1028;-0.358518;0.0688417;0.429103;-0.740132;0.0738753;-0.388701;-0.37872;0.5477;-7.29788;-0.00400181;0.00222878;0.0175973;0.0178249;-0.00422939;0.0110272;0.22741;4.39735;0.0135155;0.0147029;4.21453;0.237274;62.4178;107.418;0.0154188;-0.00403709;-0.00435665;0.00867435;0.0175904;-0.00969393;0.014017;0;0.0224615;0.144114;-0.818705;-1.1141;1.39006;-7.62774;-0.00418407;-3.96088e-05;0.0140755;0.0140756;-0.00418416;0.00912987;0.297259;3.36407;0.0110458;0.0121732;3.36402;0.297263;70.7292;115.729;0.00493564;-0.00419181;-0.00407708;0.00392516;0.0140673;0.00135492;0.0510428;0;0.0282327;7.82519;4.90634
409000;410;26.187;0.431965;0.0167721;-1.94202;26.1124;-0.357976;0.0668291;0.438701;-0.739591;0.0741532;-0.388829;-0.377307;0.546852;-7.29647;-0.00403537;0.0023192;0.0177709;0.0180148;-0.0042793;0.0111471;0.227078;4.40378;0.0136616;0.0148627;4.20975;0.237544;62.5152;107.515;0.0151273;-0.00407074;-0.00420961;0.00870803;0.0177648;-0.0095517;0.0135627;0;0.0194405;0.143438;-0.82636;-1.11795;1.39759;-7.63159;-0.00439986;0.000138047;0.0147576;0.0147586;-0.00440085;0.00957975;0.298141;3.35412;0.011588;0.012773;3.35359;0.298188;71.2341;116.234;0.00467971;-0.00440784;-0.00378567;0.00398768;0.0147506;0.00335464;0.0492257;0;0.0283621;7.83596;4.91423
410000;411;26.1966;0.441618;0.0171469;-1.94198;26.1221;-0.358997;0.0668719;0.448371;-0.740611;0.0740139;-0.388568;-0.379535;0.548187;-7.29869;-0.00395397;0.00238618;0.0179858;0.0182424;-0.0042105;0.0112264;0.219838;4.5488;0.0137812;0.0149686;4.33259;0.230809;62.6452;107.645;0.0151481;-0.00398994;-0.00416342;0.00879453;0.0179801;-0.0100861;0.014124;0;0.0287459;0.142146;-0.835905;-1.11965;1.40448;-7.63329;-0.00462319;0.00016057;0.0149384;0.0149397;-0.00462451;0.00978209;0.309485;3.23118;0.0118071;0.0130428;3.23054;0.309546;70.672;115.672;0.00421477;-0.00463178;-0.00389373;0.00413673;0.0149309;0.0067447;0.0462017;0;0.0406971;7.84414;4.92125
411000;412;26.2065;0.451529;0.0175317;-1.94273;26.132;-0.357952;0.0661242;0.458269;-0.739567;0.0734075;-0.385456;-0.382821;0.548194;-7.30198;-0.00429057;0.00237013;0.0184852;0.0187292;-0.0045346;0.0116319;0.232109;4.30832;0.0142404;0.0155092;4.13028;0.242114;63.1093;108.109;0.0148685;-0.00432626;-0.00416294;0.00875701;0.0184794;-0.0105714;0.0142738;0;0.0192641;0.140458;-0.841934;-1.12483;1.41203;-7.63847;-0.00467301;-3.67532e-07;0.014855;0.014855;-0.00467301;0.00976403;0.314574;3.1789;0.0117743;0.0130187;3.1789;0.314574;70.7805;115.78;0.004721;-0.00468116;-0.00410806;0.00402828;0.0148467;0.00562045;0.0482186;0;0.0314;7.83616;4.92894
412000;413;26.2145;0.459453;0.0178394;-1.94452;26.1398;-0.356695;0.0643342;0.466099;-0.73831;0.0734283;-0.383476;-0.381777;0.546077;-7.30094;-0.00425809;0.0025444;0.0186218;0.0189013;-0.00453763;0.0117195;0.228662;4.37327;0.0143545;0.015626;4.16546;0.240069;62.9089;107.909;0.0155175;-0.00429481;-0.0039791;0.00892128;0.0186172;-0.0109758;0.0132067;0;0.0181899;0.139436;-0.847648;-1.12502;1.41549;-7.63866;-0.00470889;-0.000202991;0.0147182;0.0147203;-0.00471101;0.00971567;0.319936;3.12562;0.0117043;0.0129542;3.12467;0.320034;70.8463;115.846;0.00482974;-0.00471655;-0.00439705;0.00391077;0.0147087;0.00502808;0.0487056;0;0.0312099;7.84101;4.93616
413000;414;26.2222;0.467185;0.0181396;-1.94533;26.1474;-0.360859;0.0635231;0.473736;-0.742473;0.0719742;-0.382541;-0.382001;0.545383;-7.30116;-0.0043489;0.00269841;0.0190666;0.0193736;-0.00465585;0.0120147;0.22809;4.38424;0.0147153;0.0160196;4.16113;0.240319;62.9854;107.985;0.0149721;-0.0043868;-0.00385046;0.00909669;0.0190629;-0.010663;0.013297;0;0.0239928;0.137053;-0.85559;-1.12319;1.41858;-7.63684;-0.00498049;-0.000280585;0.01461;0.0146141;-0.00498451;0.00979928;0.340895;2.93345;0.0117617;0.0130657;2.93189;0.341077;70.6909;115.691;0.00429206;-0.00498765;-0.00442461;0.00378343;0.0146004;0.005246;0.0495019;0;0.026794;7.8513;4.94379
414000;415;26.2298;0.474796;0.0184351;-1.94561;26.155;-0.363281;0.0632466;0.481315;-0.744895;0.0721058;-0.380748;-0.38258;0.544551;-7.30174;-0.00450195;0.00271354;0.0191796;0.0194866;-0.0048089;0.0121477;0.234726;4.26029;0.0148558;0.016197;4.05219;0.24678;63.1414;108.141;0.0149663;-0.00453929;-0.0037627;0.00903919;0.0191763;-0.0106039;0.0140756;0;0.027014;0.137043;-0.861808;-1.12287;1.42208;-7.63651;-0.00492124;-0.000298255;0.0148215;0.014826;-0.00492574;0.00987588;0.332033;3.01175;0.0118716;0.0131678;3.00991;0.332236;70.5108;115.511;0.0045752;-0.00492903;-0.00462847;0.00394772;0.014811;0.00260064;0.0514807;0;0.0247566;7.84881;4.94917
415000;416;26.2403;0.48529;0.0188425;-1.94673;26.1655;-0.359224;0.0621265;0.491812;-0.740838;0.0702679;-0.378958;-0.386417;0.54577;-7.30558;-0.00474366;0.00257784;0.019284;0.0195575;-0.00501712;0.0122873;0.245989;4.06522;0.0149932;0.0163831;3.89816;0.256532;63.0786;108.079;0.0147192;-0.00478148;-0.00405137;0.00905067;0.0192792;-0.0103288;0.0144192;0;0.024313;0.1338;-0.868653;-1.12811;1.43007;-7.64176;-0.00512193;-6.44666e-05;0.0155091;0.0155093;-0.00512213;0.0103157;0.330254;3.02797;0.0124046;0.0137543;3.02789;0.330263;70.7962;115.796;0.00464403;-0.00513034;-0.00430687;0.00409175;0.0154999;0.00107741;0.0526234;0;0.0325022;7.85741;4.95286
416000;417;26.2467;0.491654;0.0190897;-1.94832;26.1717;-0.362134;0.0605337;0.498035;-0.743749;0.0713722;-0.376695;-0.389191;0.546317;-7.30835;-0.0046011;0.00300171;0.0201107;0.0204701;-0.00496049;0.0127153;0.228788;4.37085;0.015566;0.0169537;4.12663;0.242328;63.5521;108.552;0.0151007;-0.00464024;-0.00347646;0.00932284;0.0201092;-0.012428;0.0126413;0;0.0233812;0.133119;-0.874234;-1.13186;1.43635;-7.6455;-0.00539887;7.40199e-05;0.0161714;0.0161716;-0.00539913;0.0107854;0.333854;2.99532;0.0129612;0.0143805;2.99523;0.333864;70.3249;115.325;0.00560331;-0.00540866;-0.00435923;0.00441317;0.016162;0.000630493;0.0519728;0;0.0390159;7.86061;4.95949
417000;418;26.2573;0.502261;0.0195015;-1.94852;26.1824;-0.358198;0.0603336;0.508712;-0.739813;0.0706182;-0.374534;-0.392971;0.547438;-7.31213;-0.00478205;0.00259954;0.0200155;0.0202851;-0.00505163;0.0126684;0.238918;4.18554;0.0154844;0.0168911;4.01555;0.249032;63.9937;108.994;0.0144133;-0.0048195;-0.00397726;0.00901634;0.0200111;-0.00913012;0.0123943;0;0.0192803;0.131856;-0.881413;-1.13501;1.44309;-7.64865;-0.0052213;0.000110882;0.0168705;0.016871;-0.00522186;0.0110465;0.309493;3.23109;0.0133333;0.0147286;3.23085;0.309516;70.6965;115.696;0.00458344;-0.00523217;-0.00453016;0.0046511;0.0168604;0.00336254;0.0521101;0;0.0293391;7.86707;4.96535
418000;419;26.2641;0.509132;0.0197683;-1.94851;26.1892;-0.363709;0.0603473;0.515527;-0.745323;0.0701348;-0.372763;-0.397117;0.549157;-7.31628;-0.00493204;0.00297003;0.0205037;0.0208459;-0.00527424;0.01306;0.240544;4.15724;0.0159487;0.0174134;3.95239;0.253011;63.7019;108.702;0.0147872;-0.00497165;-0.00358577;0.00936231;0.0205017;-0.0110015;0.0120152;0;0.0309866;0.130174;-0.886658;-1.14453;1.45363;-7.65817;-0.00551171;0.000131276;0.0170871;0.0170878;-0.00551247;0.0113002;0.322566;3.10014;0.0136068;0.0150669;3.09985;0.322596;69.3871;114.387;0.00419315;-0.00552461;-0.00491775;0.00506812;0.0170752;0.00493616;0.0510694;0;0.0383384;7.86401;4.97293
419000;420;26.2735;0.518494;0.0201318;-1.94971;26.1985;-0.362523;0.0591416;0.524843;-0.744137;0.0688715;-0.372779;-0.39266;0.545793;-7.31182;-0.0051118;0.0026621;0.0206668;0.0209389;-0.00538384;0.0131614;0.247343;4.04297;0.0160576;0.0175485;3.88921;0.257122;64.5546;109.555;0.0147281;-0.0051489;-0.00383404;0.00899407;0.0206631;-0.0113425;0.0119565;0;0.0252069;0.128384;-0.894856;-1.14181;1.45636;-7.65545;-0.00569554;0.000105484;0.0171784;0.0171789;-0.00569603;0.0114375;0.331552;3.01612;0.0137503;0.01525;3.01595;0.331571;70.4689;115.469;0.00473311;-0.00570646;-0.00455405;0.00466023;0.0171682;0.00491014;0.0491458;0;0.0372881;7.87214;4.97932
420000;421;26.283;0.528035;0.0205022;-1.94993;26.2082;-0.357048;0.058921;0.53447;-0.738663;0.0690108;-0.371603;-0.394114;0.546056;-7.31327;-0.00511316;0.00275062;0.020683;0.020973;-0.00540319;0.0131881;0.247216;4.04505;0.0160884;0.0175841;3.8816;0.257626;64.4472;109.447;0.0147622;-0.00515055;-0.003716;0.00905369;0.0206799;-0.0106728;0.0132103;0;0.0364081;0.12732;-0.903022;-1.13981;1.45973;-7.65345;-0.00561623;-0.000122934;0.0168865;0.0168871;-0.0056169;0.011252;0.332587;3.00673;0.0135249;0.0150027;3.00649;0.332614;69.8454;114.845;0.00507762;-0.00562755;-0.00510339;0.00474731;0.0168737;0.00241861;0.0524551;0;0.0357579;7.8777;4.98694
421000;422;26.2926;0.537596;0.0208734;-1.95114;26.2177;-0.351641;0.057709;0.544041;-0.733256;0.0673169;-0.370521;-0.394028;0.545046;-7.31319;-0.00529628;0.00265461;0.0212759;0.0215385;-0.00555888;0.0135487;0.248934;4.01714;0.0165266;0.0180649;3.8746;0.258091;65.134;110.134;0.0145349;-0.00533324;-0.00383681;0.00897701;0.0212721;-0.00971192;0.0112981;0;0.0421858;0.125433;-0.909804;-1.14023;1.4641;-7.65387;-0.00559212;-0.000143116;0.0170072;0.0170081;-0.00559302;0.0113005;0.328809;3.04128;0.0135922;0.0150674;3.04095;0.328845;70.4847;115.485;0.00505643;-0.00560269;-0.00498139;0.00458765;0.016995;0.00157723;0.0498939;0;0.0300852;7.88446;4.99433
422000;423;26.2932;0.538233;0.0208982;-1.95495;26.2178;-0.374263;0.0539027;0.544083;-0.755878;0.0689822;-0.372274;-0.387181;0.541531;-7.30634;-0.00531956;0.00297342;0.0213782;0.0217053;-0.00564671;0.013676;0.248831;4.01879;0.0166743;0.0182347;3.84389;0.260153;64.8344;109.834;0.0148553;-0.00535745;-0.00339734;0.00917754;0.0213769;-0.0112556;0.0132191;0;0.0501258;0.124549;-0.915486;-1.14611;1.47214;-7.65975;-0.00585821;-7.44264e-05;0.016968;0.0169682;-0.00585846;0.0114133;0.345251;2.89644;0.0136894;0.0152178;2.89636;0.34526;69.111;114.111;0.00533846;-0.00587046;-0.00519978;0.00493589;0.0169547;-0.000408499;0.0545758;0;0.0257162;7.88497;5.00219
423000;424;26.3064;0.551404;0.0214096;-1.95356;26.2313;-0.363418;0.0552931;0.557548;-0.745033;0.0670664;-0.36726;-0.39458;0.543204;-7.31374;-0.00512048;0.00237122;0.0223673;0.0225703;-0.00532354;0.0139469;0.228927;4.3682;0.0170999;0.0185959;4.23973;0.235864;67.1548;112.155;0.0141735;-0.00515479;-0.00402559;0.00859595;0.0223621;-0.00962145;0.0112431;0;0.0214341;0.122615;-0.923948;-1.14308;1.4749;-7.65672;-0.00571195;8.33609e-05;0.0177816;0.0177819;-0.00571225;0.0117471;0.321227;3.11306;0.0141485;0.0156628;3.11295;0.321239;70.3329;115.333;0.00513426;-0.00572421;-0.00488742;0.0049394;0.0177699;-0.00152425;0.0550367;0;0.0335615;7.88884;5.00892
424000;425;26.3145;0.559487;0.0217234;-1.95356;26.2393;-0.364985;0.0552894;0.565633;-0.7466;0.066273;-0.365543;-0.39643;0.543296;-7.31559;-0.0052054;0.00232156;0.0217611;0.0219595;-0.0054038;0.0136816;0.239207;4.18048;0.0167343;0.0182422;4.06371;0.246081;66.5445;111.545;0.0141478;-0.00523964;-0.00410012;0.00857367;0.0217555;-0.00836038;0.0126385;0;0.0224658;0.121062;-0.92935;-1.14777;1.4818;-7.66142;-0.0056503;0.000317252;0.0184278;0.018432;-0.00565448;0.0120432;0.306617;3.26139;0.014544;0.0160577;3.25972;0.306775;71.4091;116.409;0.00510263;-0.00566225;-0.00436111;0.004885;0.0184186;-0.000470832;0.0539019;0;0.0307252;7.88891;5.01584
425000;426;26.3227;0.567666;0.022041;-1.95454;26.2474;-0.368063;0.0543163;0.573719;-0.749678;0.0669635;-0.362525;-0.402318;0.545682;-7.32148;-0.00529807;0.00264757;0.021998;0.0222524;-0.0055525;0.0139024;0.240844;4.15207;0.0169909;0.0185366;4.00764;0.249524;66.0071;111.007;0.0145094;-0.00533456;-0.0038001;0.00892293;0.0219943;-0.0108707;0.0126297;0;0.0264453;0.120261;-0.934791;-1.1525;1.48881;-7.66615;-0.00571232;0.000378588;0.0189616;0.0189674;-0.00571812;0.0123428;0.301257;3.31942;0.0149208;0.016457;3.31707;0.301471;71.3161;116.316;0.0050722;-0.00572534;-0.00446417;0.00510407;0.0189519;0.00193095;0.0522086;0;0.034354;7.89627;5.02212
426000;427;26.332;0.576965;0.022402;-1.9568;26.2566;-0.366866;0.0520528;0.582893;-0.74848;0.0648298;-0.363265;-0.398638;0.543209;-7.3178;-0.00530909;0.00227688;0.0221616;0.022349;-0.00549653;0.0139228;0.239562;4.17428;0.0170298;0.0185637;4.06603;0.24594;67.0998;112.1;0.0139428;-0.00534253;-0.00408505;0.00846774;0.022156;-0.00842923;0.0121457;0;0.0211957;0.117165;-0.944611;-1.147;1.49051;-7.66064;-0.00570436;0.000532008;0.0191803;0.0191916;-0.00571573;0.0124537;0.297408;3.36238;0.0150655;0.0166049;3.35768;0.297824;71.118;116.118;0.00481794;-0.00571828;-0.00434131;0.00528633;0.0191712;0.00248989;0.0472625;0;0.0331015;7.89992;5.02852
427000;428;26.3405;0.585464;0.0227321;-1.95583;26.2652;-0.364565;0.0530197;0.591521;-0.746179;0.0663949;-0.361974;-0.399721;0.543332;-7.31888;-0.00541685;0.00229107;0.0230927;0.0232757;-0.00559979;0.0144377;0.23457;4.26312;0.0176818;0.0192503;4.15652;0.240586;68.1438;113.144;0.0138003;-0.00544938;-0.00395556;0.00836355;0.0230876;-0.00871984;0.0115334;0;0.0213316;0.118304;-0.951181;-1.15183;1.49849;-7.66548;-0.0060033;0.000155311;0.0193477;0.0193487;-0.00600425;0.0126765;0.310284;3.22285;0.0152985;0.016902;3.2225;0.310318;71.2061;116.206;0.00509458;-0.00601658;-0.00495827;0.00514171;0.0193357;0.00229937;0.0530472;0;0.0346964;7.90368;5.03235
428000;429;26.3496;0.594586;0.0230862;-1.95711;26.2743;-0.363326;0.0517395;0.600591;-0.744941;0.0662565;-0.360068;-0.398857;0.541411;-7.31802;-0.00535698;0.00255101;0.0229987;0.0232264;-0.00558465;0.0144055;0.232925;4.29323;0.017643;0.0192074;4.15897;0.240444;67.4326;112.433;0.0143367;-0.00539169;-0.00376586;0.0086927;0.022995;-0.0104931;0.011552;0;0.0174177;0.117197;-0.957885;-1.15184;1.50267;-7.66548;-0.00592996;0.00011107;0.0192666;0.019267;-0.00593045;0.0125987;0.307785;3.24902;0.0152119;0.0167983;3.24883;0.307803;71.9573;116.957;0.00520511;-0.00594184;-0.00475975;0.00486148;0.0192554;0.0023149;0.0494294;0;0.0351276;7.91099;5.03871
429000;430;26.3569;0.601917;0.0233709;-1.95762;26.2816;-0.365893;0.05123;0.607869;-0.747507;0.0659074;-0.358395;-0.40259;0.543019;-7.32175;-0.00539749;0.00244198;0.0230186;0.0232269;-0.00560582;0.0144164;0.234484;4.26469;0.0176525;0.0192218;4.14336;0.24135;67.7063;112.706;0.0144739;-0.00543127;-0.00384416;0.00855343;0.0230143;-0.0105876;0.0128396;0;0.0255673;0.115944;-0.963991;-1.15645;1.51;-7.67009;-0.0060879;9.92868e-05;0.0193082;0.0193086;-0.00608829;0.0126985;0.315301;3.17157;0.0153108;0.0169313;3.17144;0.315315;71.483;116.483;0.00559414;-0.0061004;-0.00491125;0.00498498;0.0192964;-0.00059914;0.0510295;0;0.0316749;7.91107;5.04605
430000;431;26.3636;0.608623;0.0236313;-1.95914;26.2881;-0.371529;0.0497137;0.614402;-0.753143;0.0643397;-0.357623;-0.401916;0.541821;-7.32107;-0.0055734;0.00231829;0.0235919;0.023775;-0.00575652;0.0147658;0.236242;4.23295;0.018077;0.0196877;4.1301;0.242125;68.511;113.511;0.0140819;-0.00560585;-0.00390179;0.00836105;0.0235871;-0.00956569;0.0119244;0;0.0246129;0.113708;-0.972443;-1.15399;1.51337;-7.66764;-0.00590718;0.000263761;0.0197048;0.0197075;-0.0059099;0.0128087;0.299784;3.33574;0.0154888;0.0170783;3.33466;0.29988;72.1685;117.169;0.00517655;-0.00591963;-0.00457591;0.00498186;0.0196946;-0.000324698;0.0521615;0;0.0355566;7.91864;5.05365
431000;432;26.37;0.61501;0.0238793;-1.96117;26.2943;-0.377841;0.0476782;0.620566;-0.759455;0.0641747;-0.35629;-0.403539;0.542129;-7.3227;-0.0054197;0.00214858;0.0240112;0.0241673;-0.00557573;0.0148715;0.225715;4.43036;0.0182561;0.0198287;4.33437;0.230714;69.5651;114.565;0.0134462;-0.00545007;-0.00394194;0.00806398;0.0240059;-0.00865639;0.0134334;0;0.026697;0.111839;-0.977394;-1.16071;1.52153;-7.67435;-0.00578312;0.000415103;0.0200663;0.020073;-0.00578979;0.0129314;0.288201;3.4698;0.0156725;0.0172418;3.46696;0.288437;72.6319;117.632;0.00486477;-0.00579569;-0.00430417;0.00501477;0.0200573;0.000162145;0.0536122;0;0.0307916;7.92153;5.0612
432000;433;26.3779;0.622866;0.0241843;-1.96079;26.302;-0.386979;0.0480638;0.628341;-0.768594;0.0655188;-0.351457;-0.414365;0.547278;-7.33352;-0.00557138;0.0024615;0.0243293;0.0245306;-0.00577266;0.0151516;0.228998;4.36684;0.0185793;0.0202022;4.24945;0.235325;69.2437;114.244;0.0137773;-0.00560328;-0.0035911;0.00833734;0.024326;-0.00935132;0.0119753;0;0.0286982;0.113462;-0.980929;-1.17771;1.53692;-7.69136;-0.0058053;0.000272947;0.0206556;0.0206584;-0.00580812;0.0132332;0.281053;3.55805;0.0160622;0.0176443;3.55681;0.281151;73.7481;118.748;0.00516142;-0.00581672;-0.00434519;0.00477135;0.0206463;0.000789033;0.052469;0;0.0351531;7.92638;5.06778
433000;434;26.3866;0.631576;0.0245225;-1.96353;26.3107;-0.381651;0.0453193;0.636949;-0.763265;0.065308;-0.355304;-0.395969;0.536001;-7.31513;-0.00577348;0.00232151;0.0249396;0.0251141;-0.00594796;0.015531;0.231498;4.31969;0.0190377;0.0207081;4.22231;0.236837;69.4504;114.45;0.014694;-0.00580628;-0.00394872;0.00840377;0.0249347;-0.0108122;0.012997;0;0.0327434;0.109606;-0.991519;-1.16043;1.53027;-7.67407;-0.00565974;0.000601996;0.0208955;0.0209091;-0.00567338;0.0132912;0.27086;3.69195;0.0161659;0.0177217;3.68548;0.271335;72.267;117.267;0.00552849;-0.00567479;-0.00443148;0.00550453;0.020886;0.00116066;0.0520143;0;0.0368552;7.93314;5.07529
434000;435;26.3937;0.638683;0.0247984;-1.96341;26.3178;-0.383809;0.0454401;0.644053;-0.765423;0.0638736;-0.351439;-0.410985;0.544516;-7.33014;-0.00566631;0.00204081;0.0249563;0.0250918;-0.00580172;0.0154467;0.227049;4.40434;0.01896;0.0205956;4.32488;0.23122;70.5476;115.548;0.0139142;-0.00569548;-0.0039836;0.00788516;0.0249506;-0.00957313;0.0112024;0;0.0228383;0.108419;-0.996873;-1.17099;1.54167;-7.68464;-0.00580342;0.000646124;0.0216098;0.021625;-0.00581864;0.0137218;0.268555;3.72363;0.0166977;0.0182958;3.71651;0.26907;73.2508;118.251;0.00498354;-0.00581754;-0.00417363;0.00533654;0.0216015;0.0024945;0.0508034;0;0.031824;7.93333;5.08197
435000;436;26.403;0.647945;0.025158;-1.96427;26.327;-0.385632;0.04458;0.653252;-0.767246;0.0633596;-0.350685;-0.403295;0.538183;-7.32245;-0.00559277;0.00220605;0.0249965;0.0251548;-0.00575105;0.0154529;0.223742;4.46943;0.0189796;0.0206039;4.37395;0.228626;70.1257;115.126;0.0142554;-0.00562363;-0.00390894;0.00813846;0.0249914;-0.00932156;0.0133401;0;0.0285536;0.107448;-1.00485;-1.16719;1.54389;-7.68083;-0.00603677;0.000378358;0.0214809;0.0214861;-0.00604197;0.0137641;0.281029;3.55835;0.0167063;0.0183521;3.55615;0.281203;73.643;118.643;0.00470035;-0.00604938;-0.00439399;0.00502214;0.0214716;0.00203403;0.0505758;0;0.0369278;7.94126;5.08984
436000;437;26.4118;0.656834;0.0255031;-1.9641;26.3359;-0.38421;0.0447556;0.6622;-0.765825;0.0644248;-0.346816;-0.418893;0.547634;-7.33805;-0.00560541;0.00213278;0.0253027;0.0254492;-0.00575188;0.0156005;0.221534;4.51399;0.0191732;0.0208007;4.4245;0.226014;70.6892;115.689;0.0136343;-0.00563508;-0.00388872;0.00797269;0.0252976;-0.0092904;0.0119273;0;0.0172947;0.107937;-1.01005;-1.1818;1.55836;-7.69544;-0.00608714;0.000160895;0.0216839;0.0216848;-0.00608808;0.0138865;0.280722;3.56225;0.0168565;0.0185153;3.56185;0.280753;74.8513;119.851;0.00541709;-0.00609766;-0.00437718;0.00457561;0.0216745;0.00245176;0.051152;0;0.0354136;7.94102;5.09668
437000;438;26.4174;0.662424;0.0257202;-1.96597;26.3413;-0.387653;0.0428866;0.667616;-0.769268;0.0628229;-0.349584;-0.401936;0.536384;-7.32109;-0.00578093;0.00202288;0.0257957;0.0259248;-0.00590999;0.0159174;0.224104;4.46221;0.0195532;0.0212232;4.38661;0.227967;70.8882;115.888;0.014098;-0.00581101;-0.00413748;0.00799353;0.0257894;-0.00984557;0.0122242;0;0.0204915;0.104745;-1.01842;-1.16844;1.55351;-7.68208;-0.00608591;0.000266463;0.0219275;0.02193;-0.00608845;0.0140092;0.277547;3.60299;0.0170165;0.018679;3.6019;0.277631;73.619;118.619;0.00471439;-0.00609912;-0.00473489;0.00513071;0.0219165;0.00132205;0.0498179;0;0.033992;7.93929;5.0996
438000;439;26.4252;0.670241;0.0260237;-1.96713;26.349;-0.394703;0.0417205;0.675264;-0.776318;0.0611259;-0.34827;-0.405367;0.537913;-7.32453;-0.00585694;0.00198155;0.0253744;0.0254996;-0.00598216;0.0157409;0.230821;4.33236;0.0193052;0.0209878;4.26261;0.234598;70.8225;115.822;0.0140634;-0.00588595;-0.00407099;0.00784968;0.0253682;-0.00876438;0.0136908;0;0.0282312;0.102131;-1.02561;-1.17715;1.56461;-7.6908;-0.00587733;0.000444715;0.0224208;0.0224278;-0.00588432;0.0141561;0.262138;3.81479;0.0172511;0.0188747;3.81145;0.262367;74.6456;119.646;0.00556192;-0.00588976;-0.00423144;0.00499144;0.0224121;-0.00220263;0.0522337;0;0.0380143;7.94412;5.1046
439000;440;26.4336;0.678554;0.0263465;-1.9675;26.3574;-0.385931;0.0413497;0.683703;-0.767545;0.0610696;-0.346275;-0.410738;0.540686;-7.3299;-0.00598071;0.00181844;0.0260315;0.0261345;-0.00608367;0.0161091;0.229749;4.35259;0.0197655;0.0214788;4.29584;0.232783;71.7342;116.734;0.0132305;-0.00600805;-0.00414244;0.00759327;0.0260248;-0.00776756;0.0131911;0;0.0304518;0.102132;-1.03213;-1.17529;1.56749;-7.68894;-0.00577803;0.000630232;0.0222628;0.022277;-0.00579218;0.0140346;0.259537;3.85302;0.017112;0.0187128;3.84604;0.260008;74.8763;119.876;0.00478265;-0.00579006;-0.00379355;0.00493265;0.022256;0.00180909;0.053731;0;0.0339535;7.9569;5.11218
440000;441;26.4417;0.68671;0.0266632;-1.96833;26.3654;-0.392537;0.0405179;0.691724;-0.774151;0.0602518;-0.344683;-0.40941;0.538566;-7.32857;-0.00606115;0.00168143;0.0263363;0.0264233;-0.00614819;0.0162857;0.230145;4.34509;0.0199827;0.0217143;4.29774;0.232681;72.078;117.078;0.0135588;-0.00608795;-0.0043159;0.00748939;0.0263286;-0.0078797;0.0126608;0;0.0213393;0.0999927;-1.03931;-1.17456;1.57154;-7.6882;-0.00584089;0.000645901;0.0227907;0.0228052;-0.00585545;0.0143303;0.256284;3.90192;0.0174852;0.0191071;3.8947;0.256759;74.8488;119.849;0.004799;-0.00585365;-0.00391395;0.00507809;0.0227834;0.00163674;0.052664;0;0.0332742;7.96231;5.11959
441000;442;26.4475;0.692499;0.0268879;-1.96893;26.371;-0.403614;0.0399188;0.697318;-0.785228;0.058687;-0.343962;-0.405581;0.535023;-7.32474;-0.0063774;0.00128417;0.0258468;0.0258979;-0.00642849;0.0161632;0.246738;4.05287;0.0197598;0.0215509;4.02861;0.248225;72.3753;117.375;0.0133804;-0.00640148;-0.00465368;0.00703546;0.025837;-0.0066386;0.0147873;0;0.0217765;0.0973681;-1.04486;-1.17732;1.57712;-7.69096;-0.00563686;0.000688062;0.0233612;0.0233775;-0.00565318;0.0145153;0.241292;4.14436;0.0177717;0.0193538;4.13528;0.241821;75.0561;120.056;0.00506676;-0.00565031;-0.0039725;0.00521655;0.0233537;0.00032025;0.0497297;0;0.0337723;7.96663;5.1266
442000;443;26.4602;0.705181;0.0273803;-1.97143;26.3837;-0.394876;0.0374269;0.709982;-0.776491;0.0617844;-0.341308;-0.41217;0.538695;-7.33133;-0.00620259;0.00176376;0.0267354;0.0268296;-0.00629676;0.0165632;0.231999;4.31037;0.0203133;0.0220843;4.26086;0.234694;72.2735;117.274;0.0134427;-0.00622938;-0.0041709;0.00750797;0.0267285;-0.00804266;0.0126222;0;0.0369212;0.0973907;-1.05466;-1.1788;1.58473;-7.69245;-0.00594346;0.000624473;0.0236619;0.023675;-0.00595662;0.0148158;0.251183;3.98116;0.0180986;0.0197544;3.97457;0.2516;74.6267;119.627;0.00525656;-0.00595781;-0.00427123;0.00537857;0.0236531;0.000192195;0.0531647;0;0.0345931;7.96638;5.13412
443000;444;26.4657;0.710711;0.0275951;-1.97256;26.3891;-0.4014;0.0362906;0.715345;-0.783015;0.0649306;-0.339525;-0.42181;0.545359;-7.34097;-0.00609777;0.00222552;0.0273965;0.0275437;-0.006245;0.0168943;0.222575;4.49286;0.0207596;0.0225258;4.41052;0.226731;72.0571;117.057;0.0137269;-0.00612697;-0.0036788;0.00793728;0.0273923;-0.0101392;0.0140343;0;0.0190743;0.100297;-1.05724;-1.20028;1.60265;-7.71392;-0.00622884;0.000351898;0.0240412;0.0240453;-0.00623293;0.0151391;0.25909;3.85966;0.018462;0.0201855;3.85778;0.259216;75.4532;120.453;0.00488009;-0.00624144;-0.00445486;0.00501656;0.0240316;0.00344955;0.0486085;0;0.0373508;7.97318;5.14138
444000;445;26.4735;0.718462;0.027896;-1.97043;26.3969;-0.403957;0.0384221;0.723239;-0.785572;0.0583973;-0.339215;-0.41046;0.535681;-7.32962;-0.00652552;0.00142768;0.0267306;0.0267918;-0.0065867;0.0166892;0.244122;4.09632;0.0204141;0.0222523;4.06756;0.245848;72.914;117.914;0.013112;-0.00654958;-0.00439401;0.00706077;0.0267222;-0.00656901;0.015698;0;0.0210663;0.0951089;-1.06481;-1.18866;1.59868;-7.7023;-0.00600324;0.000492057;0.0242066;0.0242146;-0.00601125;0.0151129;0.248001;4.03225;0.0184757;0.0201505;4.02821;0.248249;76.9147;121.915;0.00555953;-0.00601368;-0.00372184;0.00458165;0.0241999;0.00172143;0.0473001;0;0.0385905;7.97026;5.14882
445000;446;26.4827;0.72768;0.0282539;-1.97272;26.4061;-0.399967;0.0361353;0.732373;-0.781582;0.0575025;-0.335073;-0.423749;0.543272;-7.34291;-0.00618516;0.00144236;0.0273349;0.0273969;-0.00624711;0.016822;0.226273;4.41944;0.0206641;0.0224293;4.38553;0.228023;73.83;118.83;0.0129768;-0.00620808;-0.00420217;0.00690267;0.0273273;-0.00855802;0.0148207;0;0.0241609;0.0925356;-1.07121;-1.19485;1.6074;-7.7085;-0.00618879;0.000441517;0.0242012;0.0242076;-0.00619521;0.0152014;0.255722;3.91049;0.0185516;0.0202686;3.90748;0.25592;77.0351;122.035;0.00604026;-0.00619879;-0.00372049;0.00448002;0.0241945;-0.00121597;0.0476542;0;0.0372181;7.97334;5.15612
446000;447;26.4896;0.734636;0.028524;-1.97384;26.4129;-0.403689;0.0350154;0.739209;-0.785303;0.0584288;-0.338222;-0.415838;0.539193;-7.335;-0.00630586;0.00160811;0.0274271;0.0275035;-0.00638235;0.0169429;0.229914;4.34946;0.0207923;0.0225906;4.30932;0.232055;73.29;118.29;0.0132878;-0.00633057;-0.00416333;0.00719;0.0274199;-0.00771011;0.014959;0;0.0202908;0.0922703;-1.08155;-1.19141;1.61174;-7.70505;-0.00618998;0.000547609;0.0244859;0.0244957;-0.00619975;0.0153477;0.252798;3.95573;0.018742;0.0204636;3.95107;0.253096;76.3594;121.359;0.00608996;-0.0062016;-0.0038743;0.0048371;0.0244787;-0.00312849;0.0502894;0;0.0364574;7.98673;5.1637
447000;448;26.4962;0.741238;0.0287804;-1.97476;26.4194;-0.408199;0.0340893;0.745692;-0.789813;0.0581307;-0.334572;-0.417865;0.53845;-7.33702;-0.00659017;0.00124704;0.027706;0.0277513;-0.00663545;0.0171934;0.23786;4.20415;0.021064;0.0229245;4.18228;0.239104;74.1363;119.136;0.0129874;-0.00661219;-0.00442594;0.00673066;0.0276973;-0.00705041;0.0152307;0;0.0267164;0.091152;-1.0851;-1.19702;1.61821;-7.71067;-0.00617727;0.000572447;0.0249079;0.0249184;-0.00618781;0.0155531;0.248005;4.03218;0.0190135;0.0207375;4.02701;0.248323;77.4352;122.435;0.00552451;-0.00618743;-0.00350936;0.00453045;0.024902;-0.00161058;0.052199;0;0.0372881;7.98431;5.17098
448000;449;26.5045;0.749536;0.0291025;-1.975;26.4276;-0.414432;0.0338571;0.7539;-0.796047;0.0582991;-0.33434;-0.415397;0.536411;-7.33456;-0.00670265;0.00139593;0.0282322;0.0282879;-0.00675834;0.0175231;0.237412;4.21209;0.0214689;0.0233641;4.18562;0.238913;74.2003;119.2;0.0127019;-0.00672535;-0.00425914;0.00685882;0.0282243;-0.00704698;0.015116;0;0.0247225;0.0908437;-1.09254;-1.19815;1.62403;-7.7118;-0.00616763;0.000670594;0.0251502;0.0251646;-0.00618198;0.0156733;0.245231;4.07778;0.0191722;0.0208977;4.07064;0.245662;77.3339;122.334;0.00520715;-0.0061783;-0.00343902;0.00465465;0.0251447;0.000141334;0.0515288;0;0.0394137;7.98418;5.17346
449000;450;26.5148;0.759788;0.0295006;-1.97631;26.4378;-0.410958;0.0325409;0.764138;-0.792573;0.057618;-0.33305;-0.417349;0.53705;-7.33651;-0.00666066;0.00134074;0.0285129;0.0285639;-0.00671169;0.0176378;0.233601;4.2808;0.0216298;0.0235171;4.25585;0.234971;74.4768;119.477;0.0129426;-0.00668305;-0.0043158;0.0068038;0.0285047;-0.00679864;0.0156484;0;0.0224886;0.0889019;-1.09977;-1.2004;1.63045;-7.71405;-0.0060939;0.000664357;0.0256695;0.0256834;-0.00610779;0.0158956;0.237399;4.21232;0.01948;0.0211941;4.20502;0.237811;77.3622;122.362;0.00507247;-0.00610514;-0.00357592;0.00477331;0.0256635;0.00153742;0.0480642;0;0.0358564;7.99134;5.1803
450000;451;26.5209;0.765883;0.0297372;-1.97735;26.4438;-0.413196;0.0315035;0.770138;-0.794811;0.0584854;-0.330451;-0.420796;0.538226;-7.33995;-0.00667851;0.00141663;0.0292135;0.0292693;-0.00673434;0.0180018;0.22861;4.37425;0.0221023;0.0240024;4.34628;0.230082;74.8243;119.824;0.0128037;-0.00670107;-0.00420636;0.00684349;0.0292059;-0.00729122;0.0145644;0;0.0291903;0.0881095;-1.1051;-1.20369;1.63642;-7.71734;-0.0061592;0.000621093;0.0259478;0.0259599;-0.00617121;0.0160655;0.237369;4.21286;0.0196887;0.0214207;4.20661;0.237721;76.7133;121.713;0.0055986;-0.00617198;-0.00397929;0.00507749;0.0259403;-0.00066415;0.0518177;0;0.0388308;7.99843;5.18573
451000;452;26.5291;0.774106;0.0300565;-1.97831;26.4519;-0.418407;0.0305375;0.778231;-0.800021;0.0566801;-0.330958;-0.419003;0.536944;-7.33816;-0.00668586;0.00105074;0.0287861;0.0288172;-0.00671695;0.0177671;0.23226;4.30553;0.0217982;0.0236895;4.29022;0.233088;75.4184;120.418;0.0123157;-0.00670565;-0.00444532;0.00635727;0.0287771;-0.00560398;0.015886;0;0.0257361;0.0857887;-1.11281;-1.20732;1.64418;-7.72097;-0.00636355;0.000593664;0.0264678;0.0264785;-0.00637428;0.0164264;0.240426;4.15928;0.0201166;0.0219019;4.15396;0.240734;77.8431;122.843;0.00508117;-0.00637441;-0.00362963;0.00468186;0.0264615;0.000873993;0.0499762;0;0.0396792;7.99901;5.19253
452000;453;26.5347;0.779739;0.0302752;-1.9781;26.4576;-0.420618;0.0307568;0.783861;-0.802233;0.0563457;-0.330863;-0.414292;0.533182;-7.33345;-0.00713613;0.00109022;0.0292621;0.0292947;-0.00716876;0.0182317;0.24387;4.10055;0.0223067;0.024309;4.08644;0.244712;75.3892;120.389;0.0118795;-0.00715619;-0.00441983;0.00640539;0.0292532;-0.00586586;0.0153641;0;0.0213505;0.0853138;-1.11999;-1.20109;1.64447;-7.71473;-0.00642059;0.000486813;0.0267624;0.0267695;-0.00642773;0.0165986;0.239911;4.16821;0.0203305;0.0221315;4.16469;0.240114;77.973;122.973;0.0058079;-0.00643135;-0.00381553;0.0046501;0.0267554;3.53739e-06;0.0512755;0;0.0403094;8.00362;5.19896
453000;454;26.5444;0.789432;0.0306516;-1.97946;26.4672;-0.419405;0.0293924;0.7935;-0.80102;0.0567351;-0.329797;-0.416078;0.533953;-7.33524;-0.00723528;0.00116175;0.0294311;0.0294678;-0.00727205;0.01837;0.245838;4.06772;0.0224651;0.0244933;4.0522;0.246779;75.418;120.418;0.0116418;-0.00725544;-0.00430374;0.00643254;0.0294227;-0.00531615;0.0174037;0;0.0282506;0.0846721;-1.12734;-1.20557;1.65271;-7.71921;-0.00651036;0.000496605;0.0271349;0.0271422;-0.00651769;0.0168299;0.239926;4.16795;0.0206137;0.0224399;4.16439;0.240131;78.1374;123.137;0.00653394;-0.0065211;-0.00379386;0.00464652;0.027128;-0.00311271;0.0508243;0;0.0391006;8.01337;5.20683
454000;455;26.5522;0.797186;0.0309527;-1.98071;26.4748;-0.421977;0.0281397;0.801142;-0.803592;0.0563476;-0.329146;-0.41537;0.532958;-7.33453;-0.00728002;0.000919611;0.0299138;0.0299365;-0.00730275;0.0186196;0.243367;4.10902;0.0227854;0.0248262;4.09935;0.243941;76.1153;121.115;0.0117069;-0.00729865;-0.00450684;0.00615007;0.0299043;-0.00471102;0.0181609;0;0.0307057;0.0829406;-1.1351;-1.20737;1.65924;-7.72102;-0.00650889;0.000651696;0.027365;0.0273775;-0.00652143;0.0169495;0.237855;4.20425;0.0207696;0.0225993;4.19809;0.238204;78.574;123.574;0.00559893;-0.00651914;-0.00338855;0.00455871;0.0273596;-0.00363735;0.0538656;0;0.0381851;8.01389;5.21319
455000;456;26.5591;0.804131;0.0312223;-1.98109;26.4817;-0.424497;0.027762;0.808039;-0.806111;0.0555295;-0.327061;-0.417396;0.533172;-7.33655;-0.00735693;0.0010924;0.0298259;0.0298579;-0.00738899;0.0186235;0.246663;4.05412;0.0227715;0.0248313;4.04086;0.247472;75.9628;120.963;0.0116115;-0.00737588;-0.00423821;0.00623052;0.0298177;-0.005797;0.0153578;0;0.0267283;0.0813978;-1.14053;-1.21033;1.66503;-7.72397;-0.00644318;0.000642105;0.0271533;0.0271656;-0.00645545;0.0168105;0.237289;4.21427;0.0206021;0.022414;4.20816;0.237633;79.2136;124.214;0.00549137;-0.00645212;-0.00310253;0.00426426;0.0271488;-0.00217044;0.0527045;0;0.0403407;8.01324;5.22065
456000;457;26.5685;0.813508;0.0315864;-1.98284;26.491;-0.426186;0.0260158;0.817285;-0.807801;0.056709;-0.326538;-0.419666;0.534755;-7.33882;-0.00731222;0.00123061;0.0308759;0.0309155;-0.00735183;0.0191337;0.236826;4.22251;0.0234483;0.0255116;4.20514;0.237804;76.3117;121.312;0.0119012;-0.00733188;-0.00410423;0.00636778;0.0308685;-0.00846229;0.0153698;0;0.0299855;0.0812568;-1.14823;-1.21309;1.67231;-7.72673;-0.0064243;0.000778241;0.0275738;0.0275916;-0.00644211;0.0170168;0.232986;4.2921;0.0208758;0.0226891;4.283;0.233481;78.8468;123.847;0.00529758;-0.00643437;-0.00311191;0.00453967;0.0275693;-0.000338672;0.052163;0;0.0425397;8.0177;5.22799
457000;458;26.5756;0.820576;0.0318608;-1.98298;26.498;-0.42823;0.0258719;0.82433;-0.809845;0.0551536;-0.325728;-0.416474;0.531593;-7.33563;-0.00744799;0.000870597;0.0306273;0.0306472;-0.00746788;0.0190576;0.243181;4.11216;0.0233228;0.0254101;4.10387;0.243672;76.7217;121.722;0.0125548;-0.00746564;-0.00443814;0.00598319;0.0306182;-0.0079183;0.0185919;0;0.0262223;0.0790307;-1.15479;-1.21017;1.67461;-7.72382;-0.00629215;0.000677416;0.0280504;0.0280638;-0.00630551;0.0171846;0.224316;4.458;0.021127;0.0229129;4.45068;0.224685;79.0324;124.032;0.00532537;-0.00630232;-0.00332468;0.00454581;0.0280453;0.000883989;0.052884;0;0.0381758;8.02128;5.23602
458000;459;26.5843;0.829277;0.0321987;-1.98309;26.5068;-0.425354;0.0257629;0.833094;-0.806969;0.0550342;-0.32311;-0.421675;0.534077;-7.34083;-0.00723124;0.00100253;0.0313459;0.0313719;-0.00725727;0.0193146;0.230692;4.33479;0.0237069;0.0257528;4.32283;0.23133;77.2147;122.215;0.0121246;-0.0072488;-0.00417799;0.00598926;0.0313379;-0.00741269;0.0178705;0;0.02543;0.078994;-1.16035;-1.21815;1.68421;-7.7318;-0.00631681;0.000498385;0.0285418;0.028549;-0.00632394;0.0174364;0.221318;4.51839;0.0214536;0.0232486;4.51443;0.221512;79.5815;124.581;0.00532553;-0.00632619;-0.00348434;0.00434612;0.0285361;0.000423228;0.0526371;0;0.0390566;8.03214;5.24233
459000;460;26.5921;0.837131;0.0325036;-1.98418;26.5146;-0.427631;0.0246691;0.840853;-0.809246;0.0550697;-0.32174;-0.42263;0.534009;-7.34179;-0.00766857;0.000774634;0.0314368;0.0314522;-0.00768391;0.019568;0.243936;4.09944;0.023944;0.0260907;4.09326;0.244304;77.4561;122.456;0.0116142;-0.00768488;-0.00438827;0.00574177;0.0314278;-0.0060165;0.0174213;0;0.0274393;0.0772136;-1.16705;-1.22017;1.6902;-7.73381;-0.00650783;0.000461076;0.029041;0.029047;-0.00651381;0.0177804;0.224091;4.46248;0.0218618;0.0237072;4.4593;0.224251;79.9518;124.952;0.00523744;-0.00651674;-0.00344554;0.00423273;0.0290354;0.00112755;0.0532542;0;0.0389578;8.02911;5.24651
460000;461;26.5998;0.844755;0.0327997;-1.98458;26.5221;-0.430488;0.0242741;0.848424;-0.812102;0.0536516;-0.319702;-0.423931;0.533671;-7.34309;-0.0078588;0.00064367;0.0317204;0.0317308;-0.00786926;0.0198;0.247753;4.03628;0.0242071;0.0264001;4.03225;0.248001;77.7393;122.739;0.0111905;-0.00787434;-0.00450026;0.00559025;0.0317107;-0.00368019;0.0183094;0;0.0292815;0.0753827;-1.17309;-1.22264;1.69608;-7.73628;-0.00654108;0.00041187;0.029319;0.0293237;-0.00654581;0.0179348;0.223101;4.48228;0.0220573;0.023913;4.47977;0.223226;80.3835;125.383;0.00546355;-0.00654934;-0.00338064;0.00407225;0.0293135;0.00398398;0.0512699;0;0.0406144;8.03532;5.25067
461000;462;26.6112;0.856243;0.0332457;-1.98626;26.5336;-0.425086;0.0225927;0.859907;-0.8067;0.0543463;-0.318446;-0.42424;0.533237;-7.3434;-0.00776344;0.0010282;0.0315464;0.0315733;-0.00779032;0.0196818;0.246096;4.06345;0.0240696;0.0262424;4.05288;0.246738;77.2675;122.267;0.0122247;-0.00778053;-0.00405058;0.00591341;0.031539;-0.00516433;0.0196142;0;0.0254686;0.0754489;-1.18045;-1.22802;1.70505;-7.74167;-0.00668318;0.000392438;0.0298594;0.0298636;-0.0066874;0.0182755;0.223822;4.46783;0.0224723;0.0243673;4.46565;0.223932;80.8269;125.827;0.00608388;-0.00669092;-0.00328458;0.00393898;0.0298542;-0.000707174;0.053567;0;0.0380364;8.0428;5.25748
462000;463;26.621;0.866034;0.0336259;-1.98838;26.5433;-0.420952;0.0204738;0.869634;-0.802567;0.0543544;-0.316803;-0.428006;0.535264;-7.34716;-0.00786896;0.00120486;0.0321116;0.0321479;-0.00790524;0.0200266;0.24505;4.0808;0.024496;0.0267021;4.06666;0.245902;77.4319;122.432;0.0119027;-0.00788632;-0.00377521;0.00599199;0.0321054;-0.00564732;0.0181834;0;0.0331069;0.0737505;-1.18844;-1.22647;1.70941;-7.74012;-0.00675348;0.000501609;0.0299795;0.0299863;-0.00676033;0.0183733;0.22527;4.43911;0.0225842;0.0244978;4.43563;0.225447;80.7427;125.743;0.0063863;-0.00676149;-0.00314587;0.00401899;0.0299748;-0.000341246;0.0516496;0;0.0401959;8.0432;5.26522
463000;464;26.6243;0.869262;0.0337512;-1.98805;26.5464;-0.431456;0.0207981;0.872727;-0.813071;0.0524996;-0.318315;-0.421296;0.530633;-7.34045;-0.00818283;0.000816506;0.032515;0.0325313;-0.0081992;0.0203653;0.251663;3.97356;0.0248752;0.0271537;3.96762;0.25204;78.0167;123.017;0.0121949;-0.00819839;-0.00417929;0.00561537;0.0325068;-0.00761421;0.0212782;0;0.0270321;0.0712781;-1.19491;-1.22486;1.71265;-7.7385;-0.00669181;0.000519458;0.0300187;0.030026;-0.00669916;0.0183626;0.222921;4.48588;0.0225841;0.0244835;4.48206;0.223112;81.1615;126.162;0.0058727;-0.00669916;-0.00293973;0.00385536;0.0300146;0.00123794;0.0516955;0;0.0407308;8.04262;5.27166
464000;465;26.6352;0.880192;0.0341756;-1.9888;26.5573;-0.436611;0.0200487;0.883548;-0.818226;0.053522;-0.316224;-0.426063;0.533284;-7.34522;-0.00803051;0.000708252;0.0328463;0.0328586;-0.00804277;0.0204507;0.244487;4.09019;0.0250213;0.0272676;4.08548;0.244769;78.5145;123.514;0.0123223;-0.00804514;-0.00421214;0.00543389;0.032838;-0.00771134;0.0182904;0;0.0258957;0.0714407;-1.20275;-1.23424;1.72484;-7.74789;-0.00669192;0.000569675;0.0303679;0.0303767;-0.00670067;0.0185387;0.220362;4.538;0.022815;0.0247182;4.53337;0.220586;81.0129;126.013;0.00569529;-0.00669977;-0.00297887;0.00399058;0.0303638;0.00214216;0.0505516;0;0.0403035;8.04974;5.27963
465000;466;26.6417;0.886729;0.0344294;-1.99123;26.5636;-0.436762;0.0176253;0.88992;-0.818376;0.0535536;-0.31464;-0.427666;0.533634;-7.34682;-0.00808447;0.000962621;0.0331094;0.0331319;-0.00810695;0.0206194;0.244174;4.09543;0.0252282;0.0274926;4.08685;0.244687;78.1653;123.165;0.0122018;-0.00810055;-0.00400242;0.00572967;0.0331021;-0.0103581;0.0174456;0;0.0239722;0.0704636;-1.20838;-1.2333;1.72806;-7.74695;-0.0064987;0.000513748;0.0304886;0.0304957;-0.00650583;0.0185008;0.213152;4.69149;0.0228105;0.0246677;4.68745;0.213336;81.0557;126.056;0.00563867;-0.00650662;-0.003102;0.00399971;0.0304841;0.00203439;0.0534468;0;0.0400699;8.05339;5.28707
466000;467;26.6509;0.895916;0.0347861;-1.99271;26.5728;-0.432048;0.016141;0.8991;-0.813662;0.0535076;-0.31308;-0.427406;0.532501;-7.34656;-0.0082771;0.000977731;0.0331503;0.0331734;-0.00830016;0.0207368;0.249684;4.00507;0.0253396;0.027649;3.99672;0.250205;77.8159;122.816;0.0126889;-0.00829406;-0.00413158;0.00588215;0.0331425;-0.00890163;0.0167987;0;0.0276895;0.0692889;-1.21501;-1.23293;1.73239;-7.74657;-0.00676864;0.000305701;0.0311183;0.0311207;-0.00677111;0.0189459;0.217513;4.59742;0.023334;0.0252612;4.59611;0.217575;81.3031;126.303;0.00582292;-0.00677618;-0.00340754;0.0038825;0.0311127;0.00168925;0.0522904;0;0.0406061;8.05317;5.29463
467000;468;26.6599;0.904918;0.0351356;-1.99356;26.5818;-0.429309;0.0152928;0.90811;-0.810924;0.0534515;-0.312464;-0.427951;0.532571;-7.34711;-0.00843954;0.000948131;0.0335043;0.0335258;-0.00846097;0.0209934;0.251894;3.96992;0.0256405;0.0279912;3.9624;0.252372;78.0902;123.09;0.0126985;-0.00845594;-0.00408857;0.0057804;0.0334967;-0.00881626;0.0177026;0;0.0288723;0.0684616;-1.22263;-1.23687;1.74051;-7.75051;-0.00676561;0.000251464;0.0315811;0.0315827;-0.00676726;0.019175;0.21423;4.66789;0.0236361;0.0255667;4.66699;0.214271;81.2608;126.261;0.00643379;-0.00677346;-0.00359732;0.00395717;0.0315749;0.00183027;0.0520854;0;0.0419926;8.06062;5.30105
468000;469;26.6702;0.915225;0.0355358;-1.99506;26.5921;-0.42502;0.0137942;0.918403;-0.806634;0.053035;-0.310226;-0.430018;0.532887;-7.34918;-0.00851267;0.000895969;0.0335885;0.0336076;-0.00853173;0.0210696;0.25344;3.94571;0.0257249;0.0280929;3.93913;0.253863;78.4462;123.446;0.011619;-0.00852803;-0.00399759;0.00559018;0.0335812;-0.00787101;0.0146889;0;0.023646;0.0669681;-1.22826;-1.2402;1.74677;-7.75384;-0.00699375;0.000219077;0.0319652;0.0319664;-0.00699498;0.0194807;0.218793;4.57054;0.0239851;0.0259743;4.56991;0.218823;81.7901;126.79;0.00560497;-0.00700071;-0.00342281;0.00372348;0.0319595;0.00360152;0.050603;0;0.0408645;8.06052;5.30833
469000;470;26.6788;0.923804;0.0358689;-1.9959;26.6006;-0.426063;0.0129481;0.926928;-0.807677;0.0532781;-0.308133;-0.433627;0.534618;-7.35279;-0.00837922;0.0012293;0.0341815;0.034217;-0.00841469;0.0213159;0.245139;4.07932;0.0260729;0.0284211;4.06634;0.245921;78.0417;123.042;0.0126672;-0.00839688;-0.00379307;0.00604495;0.0341753;-0.010259;0.0160684;0;0.0244692;0.0663066;-1.23473;-1.24387;1.7539;-7.75751;-0.00704787;0.000336144;0.0324603;0.0324631;-0.00705073;0.0197569;0.217123;4.60568;0.0243352;0.0263426;4.60422;0.217192;82.0978;127.098;0.00649633;-0.00705463;-0.00313874;0.00367805;0.0324555;0.000107143;0.0504114;0;0.0427562;8.0686;5.31502
470000;471;26.686;0.930997;0.0361482;-1.99641;26.6077;-0.434694;0.0124459;0.933965;-0.816309;0.0523495;-0.308079;-0.429759;0.531362;-7.34892;-0.00859119;0.00099656;0.0345391;0.0345621;-0.0086142;0.0215882;0.248738;4.0203;0.0263858;0.0287842;4.01223;0.249238;78.5706;123.571;0.0126769;-0.00860728;-0.00394963;0.00573652;0.0345321;-0.0105861;0.0170131;0;0.0304443;0.064958;-1.24201;-1.24496;1.75975;-7.7586;-0.00713945;0.000387412;0.0323917;0.0323955;-0.00714324;0.0197694;0.22041;4.537;0.0243302;0.0263591;4.53512;0.220501;82.7349;127.735;0.00618979;-0.00714511;-0.00272086;0.00337666;0.0323882;0.00074505;0.0516716;0;0.0416265;8.06863;5.32061
471000;472;26.6922;0.937164;0.0363876;-1.99738;26.6138;-0.435597;0.0114764;0.940062;-0.817212;0.0524308;-0.307231;-0.429248;0.530466;-7.34841;-0.00882588;0.000987804;0.0345991;0.0346215;-0.00884834;0.0217349;0.25509;3.92018;0.026527;0.0289799;3.91277;0.255573;78.4868;123.487;0.0123566;-0.00884205;-0.00398068;0.00574772;0.0345919;-0.00905175;0.0158433;0;0.0265154;0.0638021;-1.2488;-1.24288;1.76304;-7.75653;-0.00715989;0.000338974;0.0326224;0.0326253;-0.00716277;0.019894;0.219478;4.55627;0.0244895;0.0265254;4.55484;0.219547;82.6221;127.622;0.00603874;-0.00716579;-0.00288637;0.00344006;0.0326184;0.00105186;0.0523526;0;0.0420412;8.07138;5.32365
472000;473;26.701;0.945986;0.0367302;-1.99865;26.6224;-0.442791;0.0102065;0.948696;-0.824405;0.0527826;-0.305224;-0.43138;0.531071;-7.35054;-0.00877364;0.000930504;0.03487;0.0348898;-0.00879347;0.0218416;0.25161;3.9744;0.0266785;0.0291222;3.96769;0.252036;78.8068;123.807;0.0120377;-0.00878918;-0.0039737;0.00562787;0.0348628;-0.00938557;0.017397;0;0.0305438;0.0625653;-1.25563;-1.24703;1.77076;-7.76067;-0.00714113;0.000381334;0.0328367;0.0328404;-0.00714477;0.0199926;0.217474;4.59825;0.0246231;0.0266567;4.59642;0.217561;82.7937;127.794;0.00634949;-0.00714689;-0.00276142;0.00340244;0.0328331;0.000441385;0.0517421;0;0.0435629;8.08264;5.3327
473000;474;26.7101;0.955062;0.0370826;-1.99987;26.6315;-0.43962;0.00898042;0.957759;-0.821234;0.0526851;-0.303063;-0.43337;0.531443;-7.35253;-0.00873003;0.00146589;0.0354307;0.0354793;-0.00877864;0.022129;0.246397;4.05849;0.027058;0.0295053;4.04155;0.24743;78.2123;123.212;0.0123977;-0.00874851;-0.00350892;0.0062285;0.0354258;-0.00959673;0.0169665;0;0.0250971;0.0623807;-1.26127;-1.24836;1.7757;-7.76201;-0.00722477;0.000224041;0.0332297;0.0332309;-0.00722601;0.0202285;0.217419;4.59941;0.0249144;0.0269713;4.59879;0.217449;82.1539;127.154;0.00639549;-0.00723163;-0.00339191;0.00369842;0.0332241;0.000543393;0.050662;0;0.0424684;8.0732;5.33712
474000;475;26.7155;0.960515;0.0372943;-1.9996;26.6368;-0.447188;0.00924982;0.963123;-0.828803;0.0533679;-0.304539;-0.428806;0.528646;-7.34796;-0.00885482;0.00105802;0.0362569;0.0362817;-0.00887962;0.0225806;0.244225;4.09459;0.0276275;0.0301075;4.08595;0.244741;79.4197;124.42;0.0112368;-0.00887007;-0.00368927;0.00559862;0.0362508;-0.00977246;0.0165593;0;0.0607494;0.0619845;-1.26996;-1.24652;1.78057;-7.76016;-0.00729356;0.00025841;0.0335955;0.0335971;-0.0072952;0.0204461;0.2171;4.60618;0.0251845;0.0272615;4.60537;0.217138;82.3346;127.335;0.00652288;-0.00730029;-0.00328551;0.00366213;0.0335903;0.00262924;0.0532105;0;0.0560174;8.07846;5.34479
475000;476;26.7245;0.969479;0.0376424;-2.00055;26.6458;-0.445618;0.00829993;0.972068;-0.827232;0.0523366;-0.300332;-0.434706;0.53095;-7.35386;-0.00883787;0.00120048;0.0359753;0.0360074;-0.00887001;0.0224387;0.245665;4.07058;0.0274437;0.0299183;4.05946;0.246338;78.6876;123.688;0.0124775;-0.0088552;-0.00379765;0.00598238;0.035969;-0.0102496;0.0176653;0;0.0324743;0.0604534;-1.27477;-1.25173;1.7876;-7.76537;-0.00734229;0.000254655;0.0342136;0.0342152;-0.00734385;0.0207795;0.214601;4.6598;0.0256115;0.027706;4.65902;0.214637;82.1502;127.15;0.00650482;-0.00734964;-0.00346969;0.00382935;0.0342078;0.00322185;0.0544719;0;0.0418518;8.09096;5.35234
476000;477;26.7317;0.976677;0.0379218;-2.00032;26.6529;-0.449627;0.00853158;0.979237;-0.831241;0.0512691;-0.301227;-0.430275;0.527734;-7.34943;-0.00929382;0.00086514;0.0363779;0.0363943;-0.00931021;0.0228522;0.25548;3.9142;0.0278891;0.0304696;3.90907;0.255815;79.0782;124.078;0.0123568;-0.00930965;-0.00415718;0.00566611;0.0363699;-0.00922477;0.0180315;0;0.0301101;0.0582069;-1.28319;-1.25118;1.79316;-7.76483;-0.00750699;-3.56845e-05;0.0346999;0.0346999;-0.00750703;0.0211035;0.216341;4.62234;0.0259994;0.028138;4.62233;0.216341;83.378;128.378;0.00618118;-0.00751204;-0.00337316;0.00316565;0.0346944;0.0045641;0.0525953;0;0.0404042;8.09184;5.35936
477000;478;26.7395;0.98449;0.0382252;-2.00259;26.6606;-0.45245;0.00625802;0.986855;-0.834064;0.0518718;-0.29695;-0.435043;0.529276;-7.3542;-0.009121;0.00142444;0.0369178;0.0369619;-0.00916503;0.0230634;0.247062;4.04756;0.0281972;0.0307513;4.03292;0.247959;79.1494;124.149;0.0124889;-0.00913781;-0.00330629;0.0059451;0.0369135;-0.0114934;0.0162297;0;0.0282576;0.057805;-1.2862;-1.25919;1.80089;-7.77283;-0.00751209;4.39728e-05;0.0350651;0.0350651;-0.00751214;0.0212886;0.214233;4.66782;0.0262417;0.0283848;4.66779;0.214234;83.2074;128.207;0.00664566;-0.00751764;-0.00337206;0.00331948;0.0350596;0.00111364;0.0516676;0;0.039659;8.0867;5.36656
478000;479;26.7491;0.994091;0.038598;-2.00346;26.6702;-0.450286;0.00538937;0.996456;-0.8319;0.0506958;-0.296684;-0.435512;0.529398;-7.35467;-0.00943472;0.00114973;0.0369571;0.0369856;-0.0094632;0.0232244;0.255289;3.91714;0.028343;0.0309658;3.90836;0.255862;79.2973;124.297;0.0121846;-0.00945064;-0.00364739;0.00573221;0.0369513;-0.00693153;0.0175047;0;0.0368912;0.0559832;-1.29503;-1.25724;1.8058;-7.77088;-0.00750706;6.73037e-05;0.0350789;0.035079;-0.00750716;0.0212931;0.214005;4.67278;0.0262487;0.0283908;4.67273;0.214008;83.8813;128.881;0.00639982;-0.00751156;-0.00298139;0.00299057;0.0350746;0.0026679;0.0514223;0;0.0495948;8.101;5.37382
479000;480;26.7572;1.00223;0.0389139;-2.00394;26.6782;-0.454412;0.00491179;1.00451;-0.836027;0.0512764;-0.295137;-0.437344;0.530099;-7.3565;-0.00955248;0.00118007;0.0378669;0.0378963;-0.00958182;0.023739;0.252264;3.96409;0.0289908;0.0316521;3.95502;0.252844;79.4981;124.498;0.0129966;-0.00956865;-0.00364159;0.0057814;0.0378612;-0.00988275;0.016805;0;0.0430096;0.0554417;-1.30184;-1.26;1.81258;-7.77364;-0.0076933;5.39881e-05;0.0352572;0.0352573;-0.00769336;0.0214753;0.218205;4.58285;0.026445;0.0286338;4.58282;0.218206;83.7773;128.777;0.006238;-0.00769794;-0.00305827;0.00303713;0.0352527;0.00284997;0.050578;0;0.0515756;8.10098;5.38148
480000;481;26.7656;1.01059;0.0392386;-2.00406;26.6865;-0.457617;0.00478788;1.01284;-0.839232;0.0501913;-0.29232;-0.440354;0.530926;-7.35951;-0.00961638;0.00158883;0.0380785;0.0381314;-0.00966925;0.0239003;0.252541;3.95975;0.0291829;0.0318671;3.94357;0.253577;78.8315;123.832;0.0141494;-0.00963525;-0.00336537;0.00631537;0.0380743;-0.01238;0.0195583;0;0.0321852;0.0538686;-1.3065;-1.26443;1.81897;-7.77808;-0.00774747;0.000118108;0.0355603;0.0355606;-0.00774779;0.0216542;0.217868;4.58993;0.0266675;0.0288723;4.58978;0.217875;84.2338;129.234;0.00584762;-0.00775157;-0.00273931;0.00285603;0.0355567;0.0039635;0.0512108;0;0.0463381;8.10305;5.38873
481000;482;26.7744;1.01939;0.0395802;-2.00542;26.6953;-0.45603;0.00343263;1.02158;-0.837645;0.050794;-0.291951;-0.439375;0.529968;-7.35853;-0.00964563;0.00163137;0.0387779;0.0388328;-0.00970053;0.0242667;0.24874;4.02026;0.0296557;0.0323556;4.00317;0.249802;79.2554;124.255;0.012867;-0.00966382;-0.00318203;0.00622035;0.0387743;-0.0101001;0.0159754;0;0.0321661;0.0534777;-1.31468;-1.26369;1.82432;-7.77734;-0.00776863;0.00014056;0.0357081;0.0357086;-0.00776909;0.0217388;0.217559;4.59645;0.0267738;0.0289851;4.59624;0.217569;83.873;128.873;0.00601695;-0.00777334;-0.00290507;0.00305834;0.035704;0.00291269;0.0520488;0;0.042903;8.10613;5.39388
482000;483;26.7832;1.02819;0.039922;-2.00614;26.7041;-0.453606;0.00270796;1.0304;-0.835221;0.0497153;-0.29077;-0.439972;0.529711;-7.35913;-0.00990767;0.0016306;0.0392232;0.0392773;-0.00996173;0.0246195;0.252597;3.95887;0.0300608;0.032826;3.94282;0.253626;79.3189;124.319;0.0128813;-0.00992591;-0.00319469;0.00622772;0.0392196;-0.00984906;0.0174991;0;0.0246277;0.0517993;-1.32135;-1.26645;1.83099;-7.78009;-0.00786448;-5.3342e-05;0.0364695;0.0364695;-0.00786454;0.022167;0.215646;4.63724;0.0273146;0.029556;4.63721;0.215647;83.8741;128.874;0.0061218;-0.00786921;-0.00331094;0.00306492;0.0364642;0.00311492;0.0529684;0;0.0446216;8.10806;5.39845
483000;484;26.7901;1.03512;0.0401912;-2.0068;26.7109;-0.457783;0.00205346;1.03723;-0.839397;0.0498551;-0.289778;-0.440858;0.529918;-7.36002;-0.0100203;0.00157234;0.0390018;0.0390521;-0.0100707;0.0245614;0.25692;3.89226;0.0299613;0.0327486;3.87779;0.257879;79.4405;124.44;0.0131527;-0.0100378;-0.00316333;0.00608455;0.0389981;-0.0101234;0.0183656;0;0.0302432;0.0508867;-1.32873;-1.26903;1.83808;-7.78267;-0.00785662;-0.000227406;0.0371533;0.0371545;-0.00785777;0.0225061;0.211465;4.72892;0.0277621;0.0300082;4.72838;0.211489;84.05;129.05;0.00658833;-0.0078611;-0.00359085;0.00299008;0.0371472;0.0028457;0.0551117;0;0.0422813;8.12166;5.40578
484000;485;26.7972;1.04217;0.0404648;-2.00635;26.718;-0.462826;0.0025021;1.04425;-0.844441;0.0503694;-0.288112;-0.439392;0.527836;-7.35855;-0.0100536;0.00157727;0.0402364;0.0402858;-0.010103;0.0251944;0.249864;4.00218;0.0307826;0.0335926;3.9875;0.250784;80.1018;125.102;0.0121214;-0.0100701;-0.00298866;0.00592244;0.0402333;-0.00940715;0.01534;0;0.0363779;0.050303;-1.3358;-1.26824;1.84264;-7.78188;-0.00809625;-0.000273475;0.037411;0.0374126;-0.00809789;0.0227553;0.216414;4.62078;0.0280336;0.0303403;4.62004;0.216448;84.1324;129.132;0.00651099;-0.00810054;-0.00362446;0.00293052;0.0374047;0.00340572;0.0552372;0;0.0433087;8.11578;5.41214
485000;486;26.8049;1.04988;0.0407641;-2.00824;26.7255;-0.463593;0.0006091;1.05182;-0.845208;0.0497215;-0.285814;-0.439932;0.526974;-7.35909;-0.0101417;0.00160421;0.0405289;0.0405796;-0.0101924;0.025386;0.250233;3.99627;0.031014;0.033848;3.98136;0.251171;80.155;125.155;0.0124949;-0.0101582;-0.00295192;0.00593843;0.040526;-0.00960083;0.0168439;0;0.0265037;0.0483449;-1.3406;-1.27217;1.84878;-7.78582;-0.00809904;-0.000216122;0.0377437;0.0377447;-0.00810006;0.0229224;0.21458;4.66027;0.0282529;0.0305632;4.65981;0.214601;84.755;129.755;0.00653005;-0.00810256;-0.00321532;0.00265058;0.0377387;0.00347232;0.0548855;0;0.0405201;8.11246;5.41877
486000;487;26.8137;1.0587;0.0411067;-2.01018;26.7344;-0.456204;-0.00133017;1.06065;-0.837819;0.0493922;-0.285171;-0.441626;0.528011;-7.36078;-0.0102273;0.00158772;0.0406518;0.0407013;-0.0102768;0.025489;0.251584;3.97482;0.0311304;0.0339854;3.96049;0.252494;79.894;124.894;0.0141108;-0.0102448;-0.00314709;0.00609101;0.0406482;-0.011569;0.0169045;0;0.0427142;0.047017;-1.34589;-1.27714;1.856;-7.79079;-0.00819543;-0.000215346;0.0377762;0.0377772;-0.00819644;0.0229868;0.216947;4.60942;0.0283152;0.0306491;4.60898;0.216968;84.9805;129.981;0.0061798;-0.00819862;-0.00308186;0.00252419;0.0377716;0.00402084;0.0547307;0;0.0446966;8.12267;5.42606
487000;488;26.8234;1.06841;0.0414837;-2.01014;26.7441;-0.456914;-0.00129256;1.07038;-0.838529;0.0494465;-0.282264;-0.442925;0.527542;-7.36208;-0.0101538;0.0017471;0.0411032;0.0411627;-0.0102133;0.025688;0.247032;4.04806;0.0314048;0.0342507;4.0303;0.24812;79.8554;124.855;0.0126551;-0.010172;-0.0029945;0.00625523;0.0411004;-0.0106324;0.0168291;0;0.0307118;0.0466323;-1.35403;-1.27437;1.86;-7.78802;-0.00831681;-0.00013168;0.037787;0.0377874;-0.00831719;0.0230523;0.220097;4.54345;0.0283733;0.0307364;4.54329;0.220105;84.8558;129.856;0.00575111;-0.00832023;-0.00299857;0.00260784;0.0377827;0.00557618;0.0544486;0;0.0416952;8.12274;5.43297
488000;489;26.8315;1.07647;0.0417965;-2.01176;26.752;-0.459306;-0.00290698;1.0783;-0.840921;0.050496;-0.280759;-0.444112;0.527836;-7.36327;-0.0102231;0.00177578;0.0417463;0.0418069;-0.0102837;0.0260453;0.244887;4.08351;0.0318573;0.0347271;4.06534;0.245982;80.0833;125.083;0.0129053;-0.0102411;-0.00291191;0.00622958;0.0417437;-0.0114852;0.0163152;0;0.032711;0.0466673;-1.35948;-1.27797;1.86644;-7.79162;-0.00837885;4.14717e-05;0.0381564;0.0381564;-0.00837888;0.0232676;0.219592;4.55389;0.028642;0.0310235;4.55388;0.219593;84.7637;129.764;0.0063103;-0.00838264;-0.00278786;0.00274398;0.0381526;0.00377068;0.0542037;0;0.0429402;8.12924;5.44044
489000;490;26.84;1.08502;0.0421285;-2.01328;26.7605;-0.459125;-0.00442933;1.08676;-0.840739;0.0499757;-0.282227;-0.441429;0.526316;-7.36059;-0.0104157;0.00129344;0.0418437;0.0418756;-0.0104477;0.0261617;0.24892;4.01736;0.0319738;0.0348822;4.00812;0.249493;80.7677;125.768;0.014062;-0.010431;-0.00328984;0.0056468;0.0418393;-0.0122616;0.0152137;0;0.0360551;0.0450814;-1.36908;-1.27531;1.87158;-7.78895;-0.00851998;-0.000135265;0.0382054;0.0382058;-0.00852037;0.0233631;0.223005;4.48421;0.0287348;0.0311508;4.48405;0.223013;84.6593;129.659;0.00472374;-0.00852372;-0.00313512;0.00272958;0.0382006;0.00861361;0.057596;0;0.0431642;8.13493;5.44722
490000;491;26.8482;1.0932;0.042446;-2.01498;26.7684;-0.46597;-0.00612335;1.09472;-0.847585;0.050491;-0.277967;-0.441653;0.524283;-7.36081;-0.0103958;0.00136977;0.042859;0.0428942;-0.010431;0.0266626;0.242558;4.12273;0.0326336;0.0355501;4.11219;0.24318;81.2456;126.246;0.0123398;-0.0104104;-0.00303049;0.00554531;0.0428555;-0.00866974;0.0143518;0;0.0281005;0.0436632;-1.37494;-1.27635;1.87655;-7.78999;-0.00831704;-0.000129744;0.0387909;0.0387912;-0.0083174;0.0235543;0.214407;4.66402;0.0290332;0.0314058;4.66387;0.214414;84.7651;129.765;0.00609961;-0.00832084;-0.00314575;0.00274949;0.0387861;0.00535231;0.0562665;0;0.0458146;8.14029;5.45463
491000;492;26.8577;1.10272;0.0428159;-2.01404;26.7782;-0.457858;-0.0051851;1.10449;-0.839473;0.0487702;-0.276145;-0.450961;0.531037;-7.37012;-0.0109031;0.00175037;0.0430503;0.043107;-0.0109598;0.0270334;0.253264;3.94844;0.0330036;0.0360446;3.93318;0.254247;80.332;125.332;0.0141795;-0.010921;-0.00294108;0.00619912;0.0430476;-0.0115072;0.0166423;0;0.0304792;0.0425238;-1.38215;-1.28335;1.88657;-7.79699;-0.00865405;-0.000262952;0.0394645;0.039466;-0.00865549;0.0240607;0.219287;4.56024;0.0296204;0.032081;4.55965;0.219315;84.2485;129.248;0.00632469;-0.00865862;-0.00370564;0.00302037;0.039458;0.00609503;0.0548388;0;0.0468385;8.14765;5.46206
492000;493;26.8669;1.11186;0.0431707;-2.01562;26.7872;-0.458648;-0.00676296;1.11352;-0.840263;0.0488535;-0.274347;-0.448826;0.528297;-7.36798;-0.0108163;0.0015819;0.0439609;0.0440066;-0.010862;0.0274343;0.246044;4.06432;0.0335497;0.036579;4.05144;0.246826;80.5465;125.546;0.0145698;-0.0108342;-0.00325218;0.00616231;0.0439571;-0.0103883;0.0154561;0;0.0302598;0.0409853;-1.38889;-1.28584;1.89317;-7.79948;-0.00863805;-0.000350078;0.0396209;0.0396234;-0.00864059;0.024132;0.218018;4.58679;0.0297175;0.032176;4.58573;0.218068;84.55;129.55;0.00662394;-0.00864205;-0.00369555;0.0028401;0.0396144;0.00444859;0.057523;0;0.0409291;8.14281;5.46984
493000;494;26.8718;1.11679;0.0433621;-2.01451;26.7922;-0.459288;-0.00565704;1.11854;-0.840903;0.0482652;-0.271905;-0.449108;0.527219;-7.36827;-0.0110522;0.00190105;0.0443004;0.0443656;-0.0111174;0.0277415;0.249483;4.00828;0.0338961;0.0369887;3.99064;0.250587;80.3909;125.391;0.0127349;-0.0110711;-0.00284758;0.00639795;0.0442982;-0.0103716;0.0145824;0;0.027835;0.0407019;-1.39334;-1.28764;1.89764;-7.80128;-0.00848723;-0.000414484;0.0401326;0.0401361;-0.00849076;0.0243134;0.21148;4.72858;0.029991;0.0324179;4.72703;0.211549;84.6508;129.651;0.00684333;-0.00849118;-0.00381645;0.00282847;0.0401256;0.00433998;0.0568757;0;0.0466634;8.14204;5.47342
494000;495;26.8811;1.12614;0.0437251;-2.01569;26.8015;-0.462706;-0.00683526;1.12777;-0.844321;0.0475798;-0.272997;-0.445487;0.524643;-7.36465;-0.0112411;0.00158543;0.0456262;0.0456704;-0.0112853;0.0284778;0.246374;4.05886;0.0348237;0.0379705;4.04689;0.247103;81.2043;126.204;0.0134022;-0.0112578;-0.00303287;0.00595254;0.045623;-0.00982675;0.0139912;0;0.0309273;0.0392233;-1.40142;-1.28654;1.90282;-7.80019;-0.00870629;-0.00035875;0.0404032;0.0404058;-0.00870891;0.0245574;0.215485;4.64069;0.0302608;0.0327431;4.63959;0.215536;85.1612;130.161;0.00597067;-0.00870953;-0.00341995;0.00255796;0.0403976;0.00614288;0.0592074;0;0.0401774;8.14143;5.47753
495000;496;26.8892;1.13424;0.0440396;-2.01535;26.8096;-0.461259;-0.00649357;1.13594;-0.842874;0.0479775;-0.268385;-0.45195;0.527817;-7.37111;-0.0112088;0.00196047;0.0458497;0.0459169;-0.0112761;0.0285965;0.244469;4.0905;0.0349811;0.0381287;4.07206;0.245576;80.7464;125.746;0.0130879;-0.0112277;-0.00275274;0.00641651;0.0458479;-0.0130632;0.0138298;0;0.0310896;0.0386502;-1.40677;-1.28846;1.90804;-7.8021;-0.00895195;-0.00037934;0.040208;0.0402109;-0.00895487;0.0245829;0.222641;4.49154;0.0302375;0.0327772;4.4904;0.222697;85.0776;130.078;0.00633505;-0.00895517;-0.00346039;0.0025561;0.0402023;0.00614555;0.056646;0;0.0416163;8.14138;5.48387
496000;497;26.898;1.14302;0.0443806;-2.01804;26.8182;-0.462073;-0.00918891;1.14453;-0.843688;0.0481292;-0.267821;-0.452316;0.527859;-7.37147;-0.0113637;0.00183865;0.0456221;0.0456813;-0.0114229;0.0285521;0.249083;4.01472;0.0348908;0.0380695;3.99908;0.250057;80.6881;125.688;0.0132731;-0.0113824;-0.00294055;0.00635735;0.0456195;-0.00951272;0.0169631;0;0.0375987;0.0370761;-1.41307;-1.2925;1.91538;-7.80615;-0.0090018;-0.000423505;0.0405451;0.0405488;-0.00900541;0.0247771;0.222019;4.50412;0.030481;0.0330361;4.50271;0.222089;85.0793;130.079;0.00646152;-0.00900502;-0.00356118;0.00256477;0.0405391;0.00764128;0.0565859;0;0.0445218;8.14965;5.49097
497000;498;26.9068;1.15179;0.0447211;-2.01825;26.827;-0.462339;-0.00939877;1.15331;-0.843954;0.0473107;-0.265654;-0.453429;0.527644;-7.37259;-0.0114606;0.00167434;0.0459686;0.0460174;-0.0115094;0.0287634;0.249314;4.01101;0.0351485;0.0383512;3.99825;0.25011;80.7331;125.733;0.0148694;-0.0114793;-0.00323097;0.00631029;0.0459649;-0.0120688;0.019161;0;0.0307247;0.0365723;-1.41994;-1.29151;1.91979;-7.80515;-0.0090541;-0.000398188;0.0408877;0.0408909;-0.00905728;0.0249741;0.221438;4.51593;0.0307279;0.0332988;4.5147;0.221499;85.5475;130.547;0.00562692;-0.00905677;-0.00326615;0.00233217;0.0408827;0.0093788;0.059445;0;0.0431056;8.16018;5.49855
498000;499;26.9125;1.15747;0.0449415;-2.01803;26.8326;-0.471768;-0.00918203;1.15885;-0.853382;0.0460899;-0.265248;-0.450092;0.524465;-7.36925;-0.0119236;0.00151271;0.0458876;0.0459272;-0.0119631;0.0289451;0.259843;3.84848;0.0352884;0.0385935;3.83907;0.26048;80.8268;125.827;0.0142802;-0.0119414;-0.00336625;0.00612194;0.0458833;-0.00744707;0.0192625;0;0.0376921;0.0347885;-1.4269;-1.2911;1.92463;-7.80474;-0.00902;-0.000464725;0.041207;0.0412113;-0.00902429;0.0251178;0.218895;4.56841;0.0309244;0.0334904;4.56671;0.218976;84.907;129.907;0.00543952;-0.00902358;-0.00379772;0.0027075;0.0412002;0.00735893;0.0609945;0;0.0502434;8.16036;5.50554
499000;500;26.9229;1.16788;0.0453458;-2.02049;26.8429;-0.467275;-0.0116414;1.16919;-0.84889;0.0463311;-0.26152;-0.458067;0.529495;-7.37723;-0.0117634;0.0018363;0.0474755;0.0475324;-0.0118203;0.0296763;0.247779;4.03585;0.0362761;0.0395685;4.02125;0.248679;81.0137;126.014;0.0160051;-0.0117823;-0.00297758;0.0063779;0.0474729;-0.0137119;0.0207549;0;0.035349;0.0332603;-1.43293;-1.29774;1.93353;-7.81139;-0.00913886;-0.000617753;0.0418409;0.0418484;-0.00914634;0.0254974;0.218419;4.57836;0.031395;0.0339965;4.57543;0.218559;84.8511;129.851;0.00581442;-0.00914244;-0.00414248;0.00273451;0.0418329;0.00780045;0.0603492;0;0.0482342;8.16325;5.51337
500000;501;26.9268;1.17181;0.0454985;-2.02247;26.8465;-0.477106;-0.0136176;1.17281;-0.858721;0.0472681;-0.265453;-0.444294;0.519709;-7.36345;-0.0115967;0.00158131;0.0462133;0.0462565;-0.0116399;0.0289482;0.250938;3.98504;0.0353621;0.0385976;3.97396;0.251638;80.9324;125.932;0.0143774;-0.0116147;-0.00327507;0.00616932;0.0462094;-0.0116058;0.0202126;0;0.0286109;0.0320797;-1.44186;-1.29299;1.93695;-7.80663;-0.00937643;-0.00071407;0.0423541;0.0423639;-0.00938629;0.0258751;0.221382;4.51708;0.031836;0.0345001;4.51338;0.221563;84.8851;129.885;0.00671085;-0.00937986;-0.00430947;0.00270291;0.0423454;0.00549765;0.0623345;0;0.0455121;8.16585;5.52086
501000;502;26.9375;1.18249;0.0459131;-2.02105;26.8576;-0.464834;-0.012202;1.18385;-0.846449;0.0462976;-0.25772;-0.46378;0.532593;-7.38294;-0.0119925;0.00203543;0.0479647;0.0480338;-0.0120615;0.0300476;0.250027;3.99957;0.0367096;0.0400635;3.98241;0.251104;80.7306;125.731;0.0148505;-0.012013;-0.0028966;0.00668524;0.0479627;-0.0122229;0.0240491;0;0.03351;0.0315285;-1.44531;-1.30349;1.94654;-7.81713;-0.00947896;-0.000689384;0.0426475;0.0426566;-0.00948808;0.0260723;0.222263;4.49917;0.0320717;0.0347631;4.49581;0.222429;84.9989;129.999;0.00714424;-0.00948229;-0.00421405;0.00265908;0.0426392;0.00474204;0.0611299;0;0.0424127;8.16602;5.52824
502000;503;26.9447;1.18974;0.0461946;-2.02014;26.8648;-0.470644;-0.0112896;1.19108;-0.852258;0.0453455;-0.257879;-0.462358;0.53135;-7.38152;-0.0121271;0.00213131;0.0478261;0.0479018;-0.0122027;0.0300523;0.253566;3.94375;0.036685;0.0400697;3.9255;0.254745;80.7085;125.708;0.015647;-0.0121475;-0.00271424;0.00669958;0.0478248;-0.0128197;0.0215667;0;0.0339496;0.0305481;-1.45323;-1.30641;1.95435;-7.82005;-0.00937355;-0.000618913;0.0427658;0.0427732;-0.0093809;0.026077;0.219183;4.56239;0.0321026;0.0347694;4.55961;0.219317;85.4997;130.5;0.0062765;-0.00937628;-0.00380281;0.00240579;0.0427591;0.0063469;0.0614611;0;0.0425055;8.17274;5.53509
503000;504;26.9523;1.19727;0.046487;-2.02171;26.8722;-0.472633;-0.01286;1.19848;-0.854248;0.0458285;-0.258664;-0.454113;0.524619;-7.37327;-0.0123301;0.00166518;0.0486079;0.0486533;-0.0123756;0.0305145;0.253665;3.94221;0.0372524;0.0406859;3.9314;0.254362;81.3933;126.393;0.0150863;-0.0123479;-0.00310995;0.00616277;0.0486046;-0.00825616;0.0236938;0;0.033924;0.0300856;-1.45953;-1.30584;1.95866;-7.81949;-0.00970276;-0.000427139;0.0426787;0.0426822;-0.00970624;0.0261942;0.227344;4.39862;0.0321819;0.0349256;4.3974;0.227407;85.1612;130.161;0.00709915;-0.00970616;-0.00364911;0.00263297;0.0426724;0.00657434;0.0590746;0;0.0549012;8.18025;5.54259
504000;505;26.9646;1.20958;0.0469648;-2.02448;26.8844;-0.468727;-0.0156254;1.21069;-0.850341;0.0452833;-0.257308;-0.453652;0.523505;-7.37281;-0.0126434;0.00156652;0.0490567;0.0490965;-0.0126831;0.0308898;0.25773;3.88003;0.0376771;0.0411864;3.871;0.258331;81.6222;126.622;0.014583;-0.0126604;-0.00314469;0.00600061;0.0490532;-0.00834619;0.0237912;0;0.0310177;0.028671;-1.4678;-1.30342;1.96321;-7.81706;-0.00975603;-0.000545374;0.0429987;0.0430043;-0.00976167;0.026383;0.226891;4.4074;0.0324171;0.0351773;4.40543;0.226993;86.0741;131.074;0.00629571;-0.00975805;-0.00330298;0.00207276;0.0429936;0.0105433;0.0578907;0;0.0499904;8.17767;5.54745
505000;506;26.974;1.21904;0.0473321;-2.02369;26.894;-0.466361;-0.0148363;1.22027;-0.847976;0.0449848;-0.254508;-0.456554;0.524633;-7.37571;-0.0127204;0.00179868;0.0493896;0.0494416;-0.0127725;0.031107;0.257553;3.8827;0.0379421;0.041476;3.87096;0.258334;81.6792;126.679;0.0148002;-0.0127375;-0.00276131;0.00608875;0.0493875;-0.00886979;0.0242663;0;0.0304525;0.0274337;-1.47455;-1.30537;1.96953;-7.81901;-0.00961722;-0.000604671;0.043573;0.0435799;-0.00962409;0.026602;0.220715;4.53073;0.0327363;0.0354693;4.52821;0.220838;85.9889;130.989;0.00586324;-0.00961938;-0.00351454;0.00215689;0.0435673;0.00934761;0.0596687;0;0.0455091;8.18043;5.55218
506000;507;26.9829;1.22794;0.0476778;-2.02326;26.9029;-0.469902;-0.0144109;1.22918;-0.851516;0.0445942;-0.250038;-0.462357;0.527524;-7.38152;-0.0125401;0.00173582;0.0498545;0.0499028;-0.0125884;0.0312456;0.251534;3.9756;0.0381631;0.0416608;3.9642;0.252258;81.9165;126.917;0.0144067;-0.0125567;-0.00278214;0.00598524;0.0498523;-0.00776717;0.0184618;0;0.0343743;0.0269607;-1.47991;-1.31213;1.97801;-7.82577;-0.00969552;-0.000651812;0.0438931;0.0439011;-0.00970345;0.0268023;0.220889;4.52716;0.0329812;0.0357363;4.52427;0.22103;85.4225;130.423;0.00598411;-0.00969847;-0.0039766;0.00250231;0.0438858;0.00696321;0.0621921;0;0.0477761;8.18137;5.55758
507000;508;26.9882;1.2332;0.0478819;-2.02605;26.9079;-0.475141;-0.0171991;1.23415;-0.856756;0.0439664;-0.250627;-0.455367;0.521637;-7.37453;-0.0133061;0.00164608;0.0493967;0.0494399;-0.0133493;0.0313946;0.269373;3.71232;0.0381954;0.0418595;3.70355;0.270011;81.77;126.77;0.0138598;-0.0133225;-0.00288668;0.00590798;0.049394;-0.00604151;0.019998;0;0.0389601;0.0253273;-1.48723;-1.30826;1.98092;-7.8219;-0.00994096;-0.000634064;0.0444781;0.0444855;-0.00994834;0.0272169;0.223502;4.47423;0.0334696;0.0362892;4.47165;0.223631;85.502;130.502;0.00600256;-0.00994387;-0.00392289;0.00248342;0.0444709;0.00640705;0.0642899;0;0.0524697;8.17946;5.56435
508000;509;26.9986;1.2436;0.0482856;-2.02803;26.9183;-0.464099;-0.0191744;1.24462;-0.845713;0.0431753;-0.248988;-0.461994;0.526591;-7.38115;-0.0130321;0.00178964;0.0503036;0.0503541;-0.0130827;0.0317184;0.25907;3.85996;0.038675;0.0422912;3.84892;0.259813;82.0493;127.049;0.0161506;-0.0130483;-0.00261156;0.0059254;0.0503018;-0.0115028;0.0212477;0;0.0380752;0.0231062;-1.49505;-1.31069;1.98837;-7.82433;-0.0100446;-0.000759518;0.04495;0.0449605;-0.0100551;0.0275078;0.223461;4.47505;0.0338272;0.036677;4.47142;0.223643;85.0856;130.086;0.00630519;-0.0100481;-0.00444174;0.00272892;0.0449408;0.00593095;0.063125;0;0.0465524;8.18745;5.57215
509000;510;27.0066;1.2516;0.0485964;-2.02896;26.9262;-0.466691;-0.0201086;1.25253;-0.848305;0.0432568;-0.243865;-0.470135;0.531383;-7.38929;-0.0130556;0.00157826;0.0515862;0.0516247;-0.0130941;0.0323594;0.253083;3.95127;0.0395111;0.0431458;3.94259;0.25364;82.479;127.479;0.014065;-0.0130708;-0.00282113;0.00570719;0.0515836;-0.00855749;0.0181875;0;0.0340024;0.0225247;-1.4994;-1.3209;1.99837;-7.83454;-0.0100954;-0.000775064;0.0451369;0.0451478;-0.0101062;0.027627;0.223661;4.47106;0.0339721;0.036836;4.46732;0.223848;85.0009;130.001;0.00669952;-0.010099;-0.0045372;0.00278827;0.0451274;0.0055658;0.0655841;0;0.0426307;8.19202;5.57956
510000;511;27.0141;1.25911;0.048888;-2.02894;26.9337;-0.46915;-0.0200906;1.26002;-0.850765;0.0418309;-0.244548;-0.464241;0.526377;-7.3834;-0.0132465;0.00107435;0.051818;0.0518357;-0.0132642;0.03255;0.255634;3.91184;0.0397237;0.0434;3.90794;0.255889;83.0659;128.066;0.0136609;-0.0132591;-0.00323064;0.00511302;0.0518136;-0.00804125;0.0169752;0;0.0370359;0.0208546;-1.50646;-1.32028;2.00325;-7.83392;-0.0103081;-0.000802481;0.0452239;0.0452354;-0.0103197;0.0277776;0.227936;4.3872;0.0341211;0.0370368;4.38339;0.228134;84.8427;129.843;0.00668737;-0.010312;-0.00467266;0.00286209;0.0452137;0.00559663;0.0633314;0;0.0434601;8.19154;5.58736
511000;512;27.0259;1.27094;0.0493475;-2.03411;26.9454;-0.458228;-0.0252592;1.27169;-0.839843;0.0424387;-0.242379;-0.462574;0.52395;-7.38173;-0.0132772;0.00107979;0.0518132;0.0518311;-0.0132951;0.0325631;0.256251;3.90243;0.0397342;0.0434174;3.89852;0.256508;83.1224;128.122;0.014846;-0.0132896;-0.00317621;0.00507239;0.0518089;-0.0084445;0.0193744;0;0.0395103;0.0198743;-1.51351;-1.31474;2.00491;-7.82838;-0.0105244;-0.000778749;0.0452728;0.0452836;-0.0105352;0.0279094;0.232466;4.3017;0.0342453;0.0372126;4.2983;0.23265;85.1259;130.126;0.00711783;-0.0105277;-0.00442443;0.00267233;0.0452637;0.00562684;0.0614878;0;0.047223;8.19248;5.59413
512000;513;27.0384;1.28336;0.0498295;-2.03448;26.9579;-0.454085;-0.0256229;1.28418;-0.8357;0.0427098;-0.239532;-0.469383;0.528696;-7.38854;-0.0134352;0.00149587;0.0521556;0.0521897;-0.0134693;0.0328295;0.257599;3.882;0.0400453;0.0437727;3.8747;0.258084;82.9856;127.986;0.0144321;-0.0134486;-0.00261946;0.00535464;0.0521534;-0.0125288;0.0211816;0;0.034925;0.0193683;-1.51982;-1.32052;2.01346;-7.83416;-0.0106778;-0.000767817;0.0453045;0.045315;-0.0106884;0.0280017;0.235691;4.24285;0.0343319;0.0373356;4.23965;0.235868;85.3894;130.389;0.00663591;-0.0106807;-0.00421878;0.00249833;0.0452962;0.00736079;0.0586734;0;0.0457157;8.19973;5.60177
513000;514;27.0445;1.28945;0.0500661;-2.03605;26.9637;-0.463256;-0.0271969;1.29002;-0.844871;0.0422646;-0.237297;-0.468666;0.527014;-7.38782;-0.0134486;0.000941064;0.0531413;0.0531546;-0.0134619;0.0333083;0.253073;3.95142;0.0406732;0.044411;3.94851;0.25326;83.7951;128.795;0.0133311;-0.0134593;-0.00304398;0.00467412;0.0531373;-0.0077543;0.0160884;0;0.0389176;0.0185418;-1.52508;-1.32438;2.01994;-7.83802;-0.0107452;-0.000718356;0.0455442;0.0455533;-0.0107543;0.0281538;0.235928;4.23857;0.0345167;0.0375384;4.23581;0.236082;85.5013;130.501;0.006021;-0.010748;-0.00407775;0.00246018;0.0455364;0.00732457;0.0639037;0;0.0464394;8.19998;5.60818
514000;515;27.0528;1.29784;0.0503919;-2.0364;26.9721;-0.46424;-0.0275526;1.29839;-0.845855;0.0415233;-0.23597;-0.468852;0.526525;-7.38801;-0.0135747;0.00111793;0.0526557;0.0526745;-0.0135936;0.033134;0.257801;3.87896;0.0404169;0.0441787;3.87496;0.258067;83.2828;128.283;0.0155404;-0.0135869;-0.00306901;0.00504143;0.0526518;-0.0106545;0.0204664;0;0.0321969;0.0171875;-1.53199;-1.32411;2.02498;-7.83775;-0.0105662;-0.000856638;0.0461355;0.0461485;-0.0105791;0.0283638;0.229024;4.36635;0.0348317;0.0378184;4.36223;0.22924;85.2278;130.228;0.00539734;-0.0105693;-0.00456719;0.00265281;0.0461259;0.00590212;0.0661118;0;0.0461227;8.20209;5.61405
515000;516;27.0613;1.30626;0.0507187;-2.0387;26.9803;-0.468804;-0.0298443;1.30658;-0.850419;0.042782;-0.234672;-0.467615;0.524943;-7.38677;-0.0134036;0.00122906;0.053282;0.0533047;-0.0134262;0.0333655;0.251559;3.97521;0.0407558;0.0444873;3.97019;0.251877;83.4069;128.407;0.0142056;-0.0134159;-0.00288344;0.00508117;0.0532788;-0.00921477;0.0183177;0;0.0385019;0.0173591;-1.53939;-1.32506;2.03121;-7.8387;-0.0105418;-0.000796868;0.0468122;0.0468233;-0.0105529;0.0286881;0.225194;4.44062;0.0352635;0.0382508;4.43702;0.225377;85.2505;130.251;0.00570605;-0.0105452;-0.0045195;0.00272181;0.0468028;0.00592616;0.0649128;0;0.0484912;8.21056;5.62251
516000;517;27.0682;1.31323;0.0509893;-2.03851;26.9873;-0.468238;-0.0296591;1.3136;-0.849852;0.0407072;-0.235121;-0.465013;0.522662;-7.38417;-0.0140093;0.000981747;0.05408;0.0540941;-0.0140234;0.0340588;0.259047;3.8603;0.041534;0.0454117;3.85742;0.259241;83.7715;128.772;0.0126638;-0.0140202;-0.00305035;0.00475338;0.054076;-0.00604207;0.017099;0;0.0437138;0.0151595;-1.54828;-1.32292;2.03654;-7.83657;-0.0107794;-0.000793401;0.0472951;0.0473059;-0.0107902;0.0290481;0.227917;4.38756;0.035682;0.0387307;4.38416;0.228094;85.1167;130.117;0.0069697;-0.0107831;-0.00462664;0.00282729;0.0472852;0.00356276;0.0666972;0;0.048808;8.21066;5.6248
517000;518;27.0793;1.32428;0.0514185;-2.04037;26.9983;-0.466799;-0.0315187;1.32457;-0.848413;0.0419142;-0.22806;-0.478408;0.531641;-7.39757;-0.0135578;0.00159684;0.0540184;0.0540561;-0.0135955;0.0338258;0.250985;3.98431;0.0413216;0.045101;3.97603;0.251507;83.4567;128.457;0.0157646;-0.0135705;-0.00231063;0.00525377;0.054017;-0.0140569;0.0186954;0;0.0418425;0.0144816;-1.55202;-1.33543;2.04753;-7.84908;-0.0108743;-0.000792581;0.0475905;0.0476012;-0.0108851;0.0292431;0.228498;4.3764;0.0359166;0.0389909;4.37307;0.228672;85.1135;130.114;0.0062272;-0.0108781;-0.00464595;0.00284574;0.0475805;0.00659772;0.0665816;0;0.046824;8.2097;5.63173
518000;519;27.0864;1.3314;0.0516947;-2.04108;27.0054;-0.465132;-0.0322246;1.33168;-0.846746;0.0413748;-0.226787;-0.478904;0.531501;-7.39806;-0.0135869;0.00117702;0.0544004;0.0544207;-0.0136073;0.034014;0.249758;4.00388;0.0415654;0.045352;3.99938;0.250038;83.6027;128.603;0.015166;-0.013599;-0.00293353;0.00502251;0.0543969;-0.0105026;0.0158229;0;0.0421977;0.0127506;-1.55905;-1.33629;2.05341;-7.84993;-0.0111557;-0.000711518;0.0476512;0.0476598;-0.0111643;0.0294121;0.234111;4.27148;0.0360752;0.0392161;4.26896;0.234249;84.7862;129.786;0.0070943;-0.0111602;-0.00471173;0.00306416;0.0476409;0.00579706;0.0614878;0;0.0474473;8.21054;5.63873
519000;520;27.0927;1.33768;0.0519387;-2.04058;27.0116;-0.47059;-0.0317298;1.33793;-0.852204;0.0398484;-0.227292;-0.475355;0.528405;-7.39451;-0.013812;0.0009925;0.0547945;0.0548088;-0.0138264;0.0343176;0.252069;3.96716;0.0419152;0.0457568;3.96408;0.252265;83.9804;128.98;0.0149152;-0.0138227;-0.00296877;0.00469611;0.0547908;-0.0128397;0.0130507;0;0.0455267;0.0115867;-1.56592;-1.33706;2.05912;-7.8507;-0.0114651;-0.000784464;0.0469862;0.0469967;-0.0114756;0.0292361;0.24401;4.09819;0.0357752;0.0389815;4.09535;0.244179;83.9249;128.925;0.00679033;-0.011471;-0.00531559;0.00349371;0.046973;0.00546777;0.0608683;0;0.0500696;8.21652;5.64639
520000;521;27.1065;1.35153;0.0524764;-2.04342;27.0253;-0.471632;-0.0345645;1.35158;-0.853247;0.0414757;-0.223265;-0.474837;0.526344;-7.394;-0.0139891;0.00123693;0.0552509;0.055273;-0.0140112;0.0346421;0.253193;3.94956;0.0422998;0.0461894;3.94491;0.253492;84.0939;129.094;0.0148608;-0.0139997;-0.00251136;0.00473926;0.0552486;-0.00807083;0.0142893;0;0.0309326;0.0111172;-1.57162;-1.33694;2.06337;-7.85058;-0.0114076;-0.000792293;0.0475652;0.0475758;-0.0114183;0.029497;0.239832;4.16959;0.0361298;0.0393294;4.16663;0.240002;84.7881;129.788;0.00533845;-0.0114119;-0.00480668;0.00299611;0.0475544;0.00796998;0.0656602;0;0.0453254;8.21448;5.65204
521000;522;27.1163;1.36128;0.052855;-2.046;27.0348;-0.473575;-0.0371506;1.36113;-0.85519;0.0407224;-0.223097;-0.474981;0.526344;-7.39414;-0.0141706;0.00101943;0.0560911;0.0561059;-0.0141854;0.0351456;0.252635;3.95828;0.042921;0.0468608;3.95519;0.252832;84.7096;129.71;0.013582;-0.0141793;-0.00245528;0.00426295;0.0560887;-0.0104809;0.0106898;0;0.046131;0.00947259;-1.57854;-1.34077;2.07113;-7.85442;-0.0114217;-0.000652139;0.0478939;0.047901;-0.0114289;0.029665;0.23848;4.19322;0.0363476;0.0395533;4.19122;0.238594;85.1665;130.167;0.00537409;-0.0114256;-0.0043425;0.00282934;0.0478851;0.00847111;0.0664129;0;0.0490258;8.22087;5.65928
522000;523;27.1247;1.3697;0.0531818;-2.04652;27.0432;-0.474638;-0.0376675;1.36952;-0.856253;0.0411041;-0.221424;-0.474563;0.525289;-7.39372;-0.014093;0.000923838;0.0554344;0.0554466;-0.0141052;0.0347759;0.254228;3.93348;0.0424546;0.0463679;3.93092;0.254393;84.4955;129.495;0.0132972;-0.014102;-0.00272291;0.00433034;0.0554312;-0.00874652;0.0130552;0;0.0393259;0.00912788;-1.58594;-1.33895;2.0756;-7.8526;-0.0115486;-0.000745906;0.0484289;0.0484382;-0.0115579;0.0299981;0.238465;4.19349;0.0367556;0.0399974;4.19092;0.238611;84.9694;129.969;0.00597151;-0.0115528;-0.0046759;0.00295927;0.0484188;0.00547657;0.065636;0;0.0472254;8.22464;5.6659
523000;524;27.1309;1.37586;0.0534211;-2.04576;27.0493;-0.484718;-0.0369097;1.37558;-0.866332;0.0402861;-0.218702;-0.476283;0.525642;-7.39544;-0.0143104;0.000946911;0.0563098;0.0563225;-0.0143231;0.0353228;0.254137;3.93488;0.043123;0.047097;3.93228;0.254305;84.6694;129.669;0.0133737;-0.0143192;-0.00261703;0.00427257;0.0563069;-0.00952439;0.010664;0;0.0359259;0.00792125;-1.59258;-1.34233;2.08284;-7.85597;-0.0114684;-0.000870527;0.0493837;0.0493962;-0.0114809;0.0304385;0.232231;4.30605;0.0373506;0.0405847;4.30246;0.232425;84.8948;129.895;0.00615333;-0.0114728;-0.00504619;0.003063;0.0493719;0.00549008;0.0637981;0;0.0492858;8.22533;5.67355
524000;525;27.1405;1.38554;0.053797;-2.04722;27.0589;-0.483377;-0.0383707;1.3852;-0.864992;0.0407903;-0.217458;-0.474029;0.523121;-7.39319;-0.0142389;0.00140528;0.0571046;0.0571323;-0.0142665;0.0356994;0.249347;4.01048;0.0436283;0.0475992;4.00464;0.249711;84.4887;129.489;0.0138293;-0.0142489;-0.00208956;0.00466423;0.0571035;-0.00886499;0.0127777;0;0.0398619;0.00691829;-1.60006;-1.34123;2.08785;-7.85487;-0.011567;-0.000716467;0.0494879;0.0494963;-0.0115754;0.0305358;0.233734;4.27837;0.037457;0.0407144;4.27598;0.233864;85.1894;130.189;0.0057585;-0.011571;-0.00457337;0.00291607;0.0494781;0.0036662;0.069187;0;0.0460466;8.22896;5.68005
525000;526;27.1462;1.39124;0.0540181;-2.04544;27.0646;-0.489443;-0.0365835;1.39094;-0.871057;0.0385201;-0.215146;-0.473711;0.521702;-7.39287;-0.0143579;0.000304858;0.058;0.0580013;-0.0143591;0.0361802;0.247549;4.0396;0.0442376;0.0482403;4.03932;0.247566;85.7781;130.778;0.013794;-0.0143634;-0.00292442;0.00331328;0.057996;-0.00882391;0.0109163;0;0.0344974;0.00551622;-1.60572;-1.34306;2.09337;-7.85671;-0.011643;-0.000748812;0.0497667;0.0497758;-0.0116522;0.030714;0.233953;4.27437;0.0376734;0.040952;4.27181;0.234093;85.2303;130.23;0.00540203;-0.011647;-0.00461676;0.00289288;0.0497568;0.00407432;0.0703041;0;0.044436;8.22597;5.68784
526000;527;27.1533;1.39831;0.0542927;-2.048;27.0715;-0.489796;-0.0391518;1.39783;-0.87141;0.0420271;-0.213568;-0.475935;0.523347;-7.3978;-0.0143994;0.00144322;0.0573359;0.0573649;-0.0144285;0.0358967;0.251142;3.98182;0.0438513;0.0478623;3.97582;0.25152;84.4621;129.462;0.0139812;-0.0144096;-0.00206017;0.0047089;0.0573349;-0.0109879;0.0083442;0;0.0373574;0.00675368;-1.61226;-1.35067;2.10327;-7.86431;-0.0114786;-0.000545413;0.0496102;0.0496151;-0.0114835;0.0305493;0.231375;4.32198;0.0374954;0.0407324;4.32057;0.231451;85.133;130.133;0.00552784;-0.0114831;-0.00434861;0.00303644;0.0496014;0.00824083;0.0640693;0;0.0465243;8.23302;5.69221
527000;528;27.1661;1.41109;0.0547891;-2.04735;27.0845;-0.483193;-0.0384976;1.41083;-0.864808;0.039594;-0.209198;-0.480275;0.525352;-7.39943;-0.0142492;0.000966441;0.0584417;0.0584546;-0.0142621;0.0363583;0.243819;4.1014;0.0444923;0.0484778;4.09861;0.243985;85.2159;130.216;0.0151186;-0.014257;-0.00233993;0.00404573;0.0584396;-0.0135276;0.0114532;0;0.0355406;0.00389648;-1.61713;-1.35334;2.10871;-7.86698;-0.0121173;-0.000730378;0.0501212;0.0501298;-0.0121259;0.0311278;0.24176;4.13634;0.0381103;0.0415037;4.13412;0.241889;84.9525;129.953;0.00569579;-0.0121218;-0.00476975;0.0030696;0.0501106;0.00970581;0.0638571;0;0.0458289;8.2292;5.69574
528000;529;27.1718;1.41679;0.0550102;-2.04836;27.09;-0.490623;-0.039509;1.41633;-0.872238;0.0400827;-0.207271;-0.481158;0.525434;-7.40302;-0.0142461;0.000927424;0.0573997;0.0574117;-0.0142581;0.0358349;0.24819;4.02917;0.0438076;0.0477799;4.02662;0.248347;84.9544;129.954;0.0124716;-0.0142543;-0.00252728;0.00414804;0.0573971;-0.00665272;0.0153935;0;0.0344436;0.00284442;-1.62327;-1.35317;2.11331;-7.86681;-0.0122478;-0.000813554;0.0498751;0.0498857;-0.0122584;0.0310721;0.245569;4.07218;0.0380081;0.0414294;4.06951;0.24573;84.3012;129.301;0.00655626;-0.0122534;-0.00533888;0.00344401;0.0498618;0.00506968;0.0651855;0;0.0448268;8.23422;5.70294
529000;530;27.1837;1.42866;0.055471;-2.05117;27.1018;-0.486933;-0.0423151;1.42808;-0.868547;0.0410997;-0.208052;-0.478391;0.52329;-7.39755;-0.0144986;0.000557802;0.0590974;0.0591016;-0.0145029;0.0368022;0.245335;4.07607;0.0450209;0.0490696;4.07517;0.245389;85.6045;130.605;0.0122885;-0.0145051;-0.00272952;0.00361668;0.059094;-0.00747748;0.00988411;0;0.0350136;0.00307148;-1.63204;-1.35008;2.11809;-7.86373;-0.0119693;-0.000899814;0.0502229;0.050236;-0.0119823;0.0311092;0.238324;4.19597;0.0381178;0.0414789;4.1925;0.238521;85.7014;130.701;0.00519105;-0.0119721;-0.00453504;0.00252015;0.0502135;0.00681432;0.0655977;0;0.0461325;8.23646;5.70935
530000;531;27.1956;1.44058;0.0559341;-2.0522;27.1137;-0.483272;-0.043344;1.44003;-0.864886;0.0403057;-0.202496;-0.483351;0.525602;-7.40522;-0.0144299;0.000345124;0.05795;0.0579516;-0.0144315;0.0361916;0.249005;4.01598;0.0442367;0.0482554;4.01563;0.249027;85.8878;130.888;0.0104271;-0.0144351;-0.00275907;0.00323695;0.0579464;-0.00599713;0.0123545;0;0.0446896;0.00135512;-1.63756;-1.35311;2.12427;-7.86675;-0.0121663;-0.000655068;0.0497441;0.0497511;-0.0121732;0.0309621;0.244577;4.08868;0.0378828;0.0412829;4.08693;0.244683;85.2203;130.22;0.00439888;-0.0121703;-0.00440868;0.00287718;0.0497351;0.00952016;0.0663029;0;0.0477197;8.24;5.71671
531000;532;27.2007;1.44575;0.0561345;-2.05177;27.1188;-0.492308;-0.0429198;1.44508;-0.873923;0.0394123;-0.201923;-0.483396;0.525355;-7.40526;-0.0144298;0.000538103;0.0583056;0.0583096;-0.0144338;0.0363717;0.247485;4.04065;0.0444721;0.0484956;4.03981;0.247536;85.7546;130.755;0.0129726;-0.0144356;-0.00257808;0.00344011;0.0583026;-0.0064387;0.0149589;0;0.0311726;-2.77584e-05;-1.6443;-1.35724;2.13209;-7.87088;-0.012191;-0.000756595;0.0509525;0.0509615;-0.0122;0.0315808;0.239262;4.17952;0.0386876;0.0421077;4.17716;0.239397;84.4994;129.499;0.00512913;-0.0121967;-0.00522726;0.00344548;0.0509397;0.00740057;0.0613735;0;0.0490878;8.24344;5.72353
532000;533;27.2095;1.45446;0.0564727;-2.0523;27.1275;-0.489311;-0.0434427;1.45383;-0.870925;0.0391583;-0.201149;-0.483262;0.524916;-7.40513;-0.0146928;0.00017002;0.0593289;0.0593293;-0.0146932;0.0370112;0.24765;4.03796;0.0452528;0.0493483;4.03788;0.247655;86.3184;131.318;0.0125986;-0.0146971;-0.00277527;0.00290951;0.0593253;-0.00857016;0.0119392;0;0.0299486;-0.00114824;-1.65299;-1.3575;2.13896;-7.87114;-0.0123279;-0.000682704;0.0512496;0.0512569;-0.0123352;0.0317961;0.240546;4.15722;0.0389398;0.0423948;4.15534;0.240654;84.7546;129.755;0.00632694;-0.0123332;-0.004929;0.0033068;0.0512383;0.00374336;0.065749;0;0.0483778;8.25107;5.7316
533000;534;27.2158;1.46081;0.0567196;-2.05332;27.1337;-0.49466;-0.0444683;1.46004;-0.876275;0.0393366;-0.196729;-0.487189;0.52688;-7.40905;-0.0147666;0.000494005;0.0590533;0.0590566;-0.0147699;0.0369133;0.250056;3.9991;0.0451078;0.0492177;3.99843;0.250098;85.9244;130.924;0.010979;-0.0147721;-0.00254582;0.00332194;0.0590504;-0.00626395;0.0161057;0;0.0310396;-0.00190084;-1.65645;-1.36349;2.14545;-7.87714;-0.0123172;-0.00101037;0.0521886;0.0522044;-0.0123331;0.0322687;0.236014;4.23703;0.03956;0.043025;4.23288;0.236246;85.0562;130.056;0.00634908;-0.0123215;-0.00534924;0.00306252;0.0521755;0.00237004;0.0674424;0;0.0449325;8.24798;5.73845
534000;535;27.2207;1.46574;0.0569107;-2.05198;27.1386;-0.503964;-0.0431292;1.4649;-0.885578;0.0388073;-0.196041;-0.484326;0.523937;-7.40757;-0.0151054;8.90355e-05;0.0593472;0.0593473;-0.0151055;0.0372264;0.254525;3.92888;0.0454447;0.0496352;3.92886;0.254527;86.4753;131.475;0.0101611;-0.0151091;-0.00275234;0.00273072;0.0593436;-0.00205855;0.0178901;0;0.0332307;-0.00313955;-1.66415;-1.3654;2.15261;-7.87905;-0.0125563;-0.000699925;0.0518842;0.0518918;-0.0125639;0.0322279;0.242007;4.13211;0.0394551;0.0429705;4.13022;0.242118;84.6998;129.7;0.00677484;-0.0125619;-0.00503984;0.00337413;0.0518724;0.00382733;0.0650157;0;0.0451394;8.25081;5.74604
535000;536;27.23;1.47495;0.0572683;-2.05253;27.1479;-0.500583;-0.0436817;1.47416;-0.882198;0.0380096;-0.192181;-0.489178;0.526947;-7.41242;-0.0150857;0.000224838;0.0595113;0.059512;-0.0150864;0.0372992;0.253493;3.94488;0.0455441;0.0497323;3.94475;0.253502;86.3957;131.396;0.0103952;-0.0150898;-0.00260833;0.00285853;0.0595081;-0.00402731;0.0171385;0;0.0322715;-0.00440732;-1.66911;-1.36933;2.15894;-7.88297;-0.0127152;-0.000681705;0.0519663;0.0519735;-0.0127224;0.032348;0.244682;4.08693;0.0395774;0.0431306;4.08519;0.244787;84.0739;129.074;0.00661156;-0.0127224;-0.00547329;0.00381528;0.0519523;0.0037036;0.0649079;0;0.0478844;8.24785;5.75374
536000;537;27.2406;1.48563;0.0576831;-2.05469;27.1585;-0.497758;-0.0458394;1.48477;-0.879372;0.0384712;-0.190279;-0.490075;0.527124;-7.41332;-0.0149006;-4.84596e-05;0.0592211;0.0592212;-0.0149007;0.0370609;0.25161;3.9744;0.0452726;0.0494146;3.97439;0.251611;86.8158;131.816;0.00869551;-0.0149036;-0.00269969;0.00241724;0.0592177;-0.0035903;0.013698;0;0.0359791;-0.00540243;-1.67625;-1.36962;2.16465;-7.88326;-0.0128422;-0.000929318;0.051796;0.0518094;-0.0128555;0.0323324;0.247937;4.03328;0.0395278;0.0431099;4.03013;0.248131;83.8267;128.827;0.00596353;-0.0128493;-0.00603769;0.00386514;0.0517791;0.00322407;0.069249;0;0.0451816;8.24905;5.7579
537000;538;27.2497;1.49472;0.0580361;-2.05539;27.1675;-0.498133;-0.0465334;1.49383;-0.879748;0.037255;-0.191398;-0.481861;0.519818;-7.40511;-0.0151888;-0.000378882;0.0597735;0.0597754;-0.0151907;0.0374831;0.254107;3.93536;0.0457621;0.0499774;3.93499;0.25413;87.0591;132.059;0.0115411;-0.015191;-0.00305471;0.00210767;0.0597691;-0.00325783;0.0159407;0;0.0323008;-0.00702224;-1.68475;-1.36188;2.16637;-7.87552;-0.0126251;-0.000863381;0.0522139;0.0522254;-0.0126366;0.032431;0.241796;4.13571;0.0397052;0.0432413;4.13286;0.241963;84.6127;129.613;0.00570574;-0.0126306;-0.00540675;0.00340004;0.0522003;0.0051821;0.0709383;0;0.0438951;8.25502;5.7635
538000;539;27.2596;1.50463;0.0584211;-2.05818;27.1772;-0.50231;-0.0493258;1.50348;-0.883924;0.0377264;-0.189286;-0.486509;0.523396;-7.40975;-0.0151614;6.81209e-05;0.0596339;0.059634;-0.0151614;0.0373977;0.254241;3.93328;0.0456568;0.0498636;3.93327;0.254241;86.5461;131.546;0.00980162;-0.015165;-0.00274341;0.00268119;0.0596304;-0.00206778;0.0157259;0;0.0359179;-0.00793086;-1.69127;-1.3678;2.17516;-7.88144;-0.0126362;-0.000889529;0.0526324;0.0526445;-0.0126483;0.0326464;0.240084;4.16521;0.0399849;0.0435285;4.16218;0.240259;84.7519;129.752;0.00557445;-0.0126414;-0.00538811;0.00333013;0.052619;0.00630847;0.0679651;0;0.0452658;8.26301;5.77006
539000;540;27.2685;1.51349;0.0587649;-2.05924;27.186;-0.503269;-0.0503828;1.51227;-0.884884;0.0384232;-0.18416;-0.493286;0.527941;-7.41653;-0.0148912;-8.4548e-05;0.0597816;0.0597817;-0.0148913;0.0373365;0.249093;4.01457;0.0456354;0.049782;4.01455;0.249094;86.7516;131.752;0.0101709;-0.0148943;-0.00284838;0.00248455;0.0597778;-0.00225806;0.0136771;0;0.0449172;-0.00779594;-1.69575;-1.37844;2.18535;-7.89208;-0.0127909;-0.000734903;0.053008;0.0530162;-0.0127991;0.0329077;0.241301;4.1442;0.0402939;0.0438769;4.14218;0.241419;84.5424;129.542;0.0052858;-0.012797;-0.00531314;0.00355727;0.0529949;0.00645056;0.0687652;0;0.0484912;8.26274;5.77577
540000;541;27.2755;1.52046;0.0590354;-2.06019;27.1928;-0.505935;-0.0513349;1.51913;-0.88755;0.0372618;-0.182641;-0.49113;0.525314;-7.41437;-0.0152017;-0.000129574;0.0613131;0.0613133;-0.0152019;0.0382576;0.247935;4.03331;0.0467737;0.0510102;4.03327;0.247938;87.2794;132.279;0.0106942;-0.0152039;-0.00254426;0.00211102;0.0613101;-0.00631184;0.0137296;0;0.041596;-0.00962945;-1.70159;-1.38078;2.19136;-7.89442;-0.0129107;-0.000888299;0.0535215;0.0535333;-0.0129225;0.0332279;0.241224;4.14552;0.0406863;0.0443039;4.14263;0.241392;84.2471;129.247;0.0055621;-0.0129174;-0.00584458;0.00375547;0.0535056;0.00408224;0.0702234;0;0.0507035;8.26623;5.78246
541000;542;27.2836;1.52862;0.0593522;-2.06069;27.201;-0.50526;-0.05184;1.52729;-0.886875;0.036954;-0.179821;-0.492929;0.526004;-7.41617;-0.0153734;-0.000416616;0.0602388;0.0602411;-0.0153757;0.0378084;0.255207;3.91839;0.0461478;0.0504112;3.91795;0.255235;87.0968;132.097;0.011282;-0.0153755;-0.0031007;0.00207605;0.0602343;-0.0046115;0.0156349;0;0.0373353;-0.010833;-1.70901;-1.37809;2.19544;-7.89174;-0.0131902;-0.000850132;0.0541413;0.054152;-0.0132009;0.0336765;0.243626;4.10465;0.0412125;0.044902;4.10213;0.243776;84.4014;129.401;0.00639918;-0.0131967;-0.0056945;0.00368483;0.0541262;0.00340263;0.0660041;0;0.0451417;8.26631;5.79002
542000;543;27.291;1.53597;0.0596376;-2.06169;27.2084;-0.5021;-0.0528392;1.53465;-0.883715;0.0374369;-0.177365;-0.497321;0.529328;-7.42057;-0.0149951;-0.00021385;0.0610966;0.0610972;-0.0149957;0.0380465;0.245433;4.07443;0.0465424;0.0507287;4.0743;0.245441;87.4069;132.407;0.00934503;-0.0149971;-0.00257278;0.00197592;0.0610935;-0.00164703;0.0186673;0;0.0336841;-0.0110249;-1.71487;-1.38389;2.20365;-7.89754;-0.013383;-0.000691896;0.0542831;0.0542901;-0.0133901;0.0338401;0.246541;4.05612;0.0413852;0.0451201;4.05451;0.246639;84.3449;129.345;0.00732949;-0.01339;-0.00546686;0.00377661;0.0542691;0.00158823;0.0680632;0;0.0437363;8.26259;5.7967
543000;544;27.2976;1.54262;0.0598959;-2.06113;27.215;-0.505041;-0.052278;1.54131;-0.886656;0.0357973;-0.178746;-0.486504;0.519536;-7.40975;-0.0155581;-0.000295361;0.0609904;0.0609915;-0.0155592;0.0382754;0.255091;3.92017;0.0467192;0.0510339;3.91995;0.255105;87.2647;132.265;0.0103869;-0.0155601;-0.00279172;0.00202089;0.0609868;0.00124842;0.019531;0;0.0418519;-0.0130421;-1.72384;-1.37498;2.20507;-7.88862;-0.0131511;-0.000729905;0.0547099;0.0547178;-0.013159;0.0339384;0.240379;4.1601;0.041565;0.0452511;4.15821;0.240488;85.4136;130.414;0.00644119;-0.0131555;-0.00475574;0.00303691;0.0546994;0.00413591;0.0669199;0;0.0455077;8.26613;5.80434
544000;545;27.3075;1.55251;0.0602798;-2.06257;27.2247;-0.509786;-0.0537142;1.55103;-0.8914;0.0358778;-0.176125;-0.488626;0.520636;-7.41187;-0.015391;-0.000101749;0.0616656;0.0616657;-0.0153911;0.0385284;0.249588;4.00661;0.0470869;0.0513712;4.00658;0.249589;87.3699;132.37;0.0108937;-0.0153931;-0.00242896;0.00205655;0.0616628;-0.00135775;0.015899;0;0.0386432;-0.0134399;-1.72878;-1.3858;2.2157;-7.89945;-0.0133779;-0.000667527;0.0541179;0.0541245;-0.0133845;0.0337545;0.247199;4.04532;0.0412743;0.045006;4.04382;0.247291;84.4597;129.46;0.00497821;-0.0133846;-0.00531766;0.00368487;0.0541047;0.0082243;0.0663045;0;0.0470167;8.26979;5.812
545000;546;27.3206;1.5656;0.0607881;-2.06736;27.2377;-0.498463;-0.0585052;1.56401;-0.880077;0.0383388;-0.169924;-0.498416;0.52798;-7.42166;-0.0153738;-0.000410132;0.0633063;0.0633084;-0.015376;0.0393422;0.242848;4.1178;0.0481562;0.0524562;4.11737;0.242874;87.9999;133;0.00889017;-0.0153749;-0.00245949;0.00148758;0.0633035;0.00154813;0.0168121;0;0.0413211;-0.0131347;-1.73332;-1.39146;2.22278;-7.90511;-0.0134542;-0.000939627;0.054419;0.054432;-0.0134672;0.0339496;0.247234;4.04476;0.0415117;0.0452661;4.04182;0.247413;84.7546;129.755;0.00477359;-0.0134596;-0.00556264;0.00338582;0.0544048;0.00708379;0.07418;0;0.0460351;8.26978;5.81958
546000;547;27.328;1.57304;0.0610771;-2.0681;27.2449;-0.507833;-0.0592454;1.57124;-0.889448;0.0362686;-0.168555;-0.49769;0.526708;-7.42093;-0.0154151;-0.000778593;0.0622887;0.0622965;-0.0154229;0.0388597;0.247478;4.04076;0.0475138;0.051813;4.03922;0.247573;88.2319;133.232;0.0105706;-0.0154154;-0.00281878;0.00111237;0.0622853;-0.00122102;0.0161698;0;0.0414479;-0.0154632;-1.73919;-1.39472;2.22941;-7.90836;-0.0134658;-0.00100732;0.0547969;0.0548117;-0.0134806;0.0341462;0.24574;4.06934;0.0417663;0.0455283;4.06596;0.245945;84.1728;129.173;0.00542891;-0.0134727;-0.00618118;0.00383172;0.0547792;0.00590671;0.0753148;0;0.0452211;8.27501;5.82671
547000;548;27.3396;1.58459;0.0615254;-2.06921;27.2566;-0.501335;-0.0603585;1.58286;-0.882949;0.0362405;-0.166839;-0.498833;0.527241;-7.42208;-0.0152596;-0.000399221;0.0622679;0.06227;-0.0152617;0.0387658;0.245064;4.08056;0.0474263;0.0516878;4.08015;0.245089;87.7284;132.728;0.0123745;-0.015261;-0.00264233;0.00168018;0.0622647;-0.00883981;0.0184957;0;0.0532571;-0.0172553;-1.74765;-1.3922;2.23445;-7.90584;-0.0133606;-0.000884804;0.0554288;0.0554402;-0.013372;0.0344061;0.241041;4.14868;0.0421309;0.0458748;4.146;0.241197;84.5038;129.504;0.00576169;-0.0133672;-0.00579511;0.00370548;0.0554133;0.00482779;0.0759242;0;0.046776;8.27695;5.834
548000;549;27.3485;1.59352;0.0618722;-2.07104;27.2653;-0.503713;-0.0621867;1.59164;-0.885327;0.0357137;-0.162786;-0.505362;0.532132;-7.42861;-0.0152877;-0.0009168;0.0632096;0.0632204;-0.0152984;0.0392594;0.241857;4.13467;0.0480649;0.0523459;4.13247;0.241986;88.2547;133.255;0.0122492;-0.0152879;-0.00306907;0.00107657;0.0632056;-0.00668843;0.0190858;0;0.04661;-0.0183327;-1.75331;-1.39909;2.24318;-7.91274;-0.0135779;-0.000932165;0.0559415;0.055954;-0.0135904;0.0347722;0.242716;4.12003;0.0425623;0.0463629;4.11717;0.242886;84.2855;129.286;0.00569717;-0.0135851;-0.00608448;0.00388096;0.0559244;0.00386527;0.0722825;0;0.0479543;8.27421;5.84017
549000;550;27.3559;1.60091;0.0621593;-2.07197;27.2727;-0.501643;-0.0631156;1.59902;-0.883258;0.0346631;-0.163409;-0.496101;0.52347;-7.41935;-0.0157808;-0.000834313;0.0635044;0.0635132;-0.0157895;0.0396514;0.248499;4.02417;0.0484703;0.0528685;4.02249;0.248602;88.2097;133.21;0.0119356;-0.0157811;-0.0029593;0.00113226;0.0635006;-0.00545408;0.0158259;0;0.0476005;-0.0202384;-1.76262;-1.39024;2.245;-7.90388;-0.0139271;-0.000860199;0.0560309;0.0560415;-0.0139377;0.0349896;0.248562;4.02314;0.0427707;0.0466528;4.02085;0.248704;84.187;129.187;0.00637461;-0.0139347;-0.00600985;0.00394833;0.0560141;0.00351589;0.0686921;0;0.0462573;8.27777;5.84298
550000;551;27.363;1.60795;0.0624327;-2.07296;27.2795;-0.510765;-0.0641038;1.60584;-0.89238;0.0355151;-0.158975;-0.502679;0.528413;-7.42592;-0.0159223;-0.000915545;0.0640412;0.0640517;-0.0159328;0.0399923;0.248626;4.0221;0.0488854;0.053323;4.02011;0.248749;88.3849;133.385;0.0134886;-0.0159224;-0.00294936;0.000965433;0.0640376;-0.00963335;0.0130743;0;0.0437357;-0.0200656;-1.76645;-1.40222;2.25543;-7.91587;-0.0139738;-0.00087405;0.0569798;0.0569906;-0.0139845;0.0354875;0.245241;4.07763;0.0434126;0.0473167;4.07526;0.245383;84.4185;129.419;0.00707136;-0.0139809;-0.0059464;0.00385782;0.0569634;0.00394296;0.0691201;0;0.0449253;8.27757;5.84931
551000;552;27.3704;1.61536;0.0627202;-2.07304;27.2869;-0.51301;-0.0641912;1.61322;-0.894624;0.0349325;-0.157132;-0.502889;0.528023;-7.42613;-0.015832;-0.000831431;0.0643179;0.0643265;-0.0158407;0.0400836;0.246153;4.06252;0.0490252;0.0534448;4.06085;0.246254;88.4184;133.418;0.0112056;-0.0158322;-0.00279507;0.000984339;0.0643146;-0.00255921;0.0180534;0;0.0429313;-0.0215563;-1.77333;-1.40264;2.2611;-7.91629;-0.0141738;-0.000640802;0.0568764;0.0568821;-0.0141796;0.0355309;0.249204;4.01278;0.0434266;0.0473745;4.01155;0.24928;84.2479;129.248;0.00606123;-0.0141819;-0.00566169;0.00404256;0.0568614;0.00628081;0.0643956;0;0.047606;8.27983;5.85617
552000;553;27.3793;1.62426;0.0630657;-2.07482;27.2957;-0.514328;-0.065964;1.62198;-0.895943;0.035105;-0.154833;-0.503819;0.528241;-7.42706;-0.015846;-0.000935187;0.0646773;0.0646882;-0.0158569;0.0402726;0.245002;4.08161;0.0492691;0.0536967;4.0795;0.245128;88.3139;133.314;0.0114609;-0.0158462;-0.00307385;0.00104173;0.0646733;-0.00226622;0.0181349;0;0.0453314;-0.0223499;-1.77955;-1.40501;2.26746;-7.91866;-0.0139596;-0.000640342;0.0568243;0.0568301;-0.0139654;0.0353977;0.245662;4.07063;0.0432992;0.047197;4.06936;0.245739;84.5119;129.512;0.00415339;-0.0139669;-0.00546243;0.00385879;0.0568104;0.00815931;0.0751769;0;0.046662;8.2841;5.86399
553000;554;27.3869;1.63194;0.0633638;-2.07544;27.3032;-0.523901;-0.0665847;1.62946;-0.905516;0.0348253;-0.151899;-0.507736;0.531114;-7.43098;-0.0158224;-0.000917734;0.0650233;0.0650337;-0.0158328;0.0404332;0.243334;4.10958;0.049485;0.053911;4.10753;0.243455;88.4089;133.409;0.012499;-0.0158224;-0.00297191;0.000980517;0.0650195;-0.0136484;0.015459;0;0.0446994;-0.0230453;-1.78613;-1.40994;2.27568;-7.92359;-0.0139755;-0.000816572;0.0565902;0.0565997;-0.013985;0.0352923;0.24696;4.04924;0.0431568;0.0470564;4.04718;0.247085;84.2772;129.277;0.00421201;-0.0139831;-0.0059224;0.00394827;0.056574;0.00973341;0.072863;0;0.0466823;8.29172;5.87138
554000;555;27.3993;1.64428;0.0638431;-2.07672;27.3154;-0.525045;-0.0678687;1.64172;-0.906659;0.0341328;-0.150184;-0.506183;0.529095;-7.42943;-0.0160071;-0.00046546;0.0658929;0.0658956;-0.0160098;0.0409527;0.242926;4.11648;0.0501266;0.0546036;4.11596;0.242957;87.9458;132.946;0.0145891;-0.0160083;-0.00267929;0.00157827;0.0658897;-0.0139395;0.0169869;0;0.0467065;-0.0248241;-1.79358;-1.41024;2.28173;-7.92388;-0.0141061;-0.00090471;0.0569007;0.0569122;-0.0141176;0.0355149;0.247907;4.03376;0.0434193;0.0473532;4.03129;0.24806;83.8887;128.889;0.00466258;-0.0141148;-0.00641367;0.00423416;0.0568816;0.00627526;0.0794459;0;0.0472094;8.29136;5.87912
555000;556;27.4091;1.65414;0.0642258;-2.07724;27.3253;-0.523115;-0.0683891;1.6516;-0.90473;0.0345716;-0.147351;-0.508045;0.530111;-7.43129;-0.0161758;-0.00058675;0.0662631;0.0662673;-0.01618;0.0412236;0.244114;4.09644;0.050444;0.0549649;4.09564;0.244162;88.1442;133.144;0.0151287;-0.0161766;-0.00270125;0.00136426;0.0662599;-0.015368;0.012968;0;0.0482611;-0.0251402;-1.79988;-1.41115;2.28725;-7.92479;-0.0141568;-0.000832956;0.0574761;0.0574857;-0.0141665;0.0358261;0.246308;4.05995;0.0438162;0.0477682;4.05786;0.246435;84.1302;129.13;0.00559773;-0.0141651;-0.00615421;0.00412785;0.0574585;0.00536119;0.0771061;0;0.0481017;8.28432;5.88632
556000;557;27.4201;1.66507;0.0646502;-2.0786;27.3363;-0.51836;-0.0697482;1.66255;-0.899975;0.034598;-0.142335;-0.509407;0.530049;-7.43861;-0.0160715;-0.000528995;0.0649106;0.064914;-0.0160749;0.0404945;0.247594;4.03887;0.0495119;0.0539926;4.03822;0.247634;87.4173;132.417;0.0123251;-0.0160733;-0.00322305;0.00196019;0.0649058;-0.0057622;0.00929077;0;0.0423686;-0.0263842;-1.80547;-1.41365;2.29321;-7.92729;-0.0141434;-0.000939514;0.0581765;0.0581887;-0.0141556;0.0361721;0.243111;4.11335;0.0442719;0.0482295;4.11066;0.24327;84.0089;129.009;0.00573574;-0.0141521;-0.00652357;0.00426294;0.0581568;0.00471634;0.0761158;0;0.0462404;8.28779;5.89362
557000;558;27.4274;1.67239;0.0649346;-2.07774;27.3436;-0.523109;-0.0688924;1.66988;-0.904723;0.0340444;-0.142162;-0.510929;0.53143;-7.43417;-0.0164536;-0.000502419;0.0661974;0.0662005;-0.0164567;0.0413286;0.248554;4.02328;0.0505207;0.0551048;4.02272;0.248588;87.9432;132.943;0.0132735;-0.0164547;-0.00273413;0.00155629;0.066194;-0.00673007;0.0142871;0;0.0437598;-0.0277081;-1.81186;-1.41695;2.30029;-7.9306;-0.0143588;-0.0009763;0.0586228;0.0586358;-0.0143718;0.0365038;0.244935;4.08272;0.0446588;0.0486718;4.07992;0.245103;84.2857;129.286;0.00531815;-0.0143666;-0.00637188;0.00404733;0.0586041;0.00594301;0.0734643;0;0.0466978;8.29212;5.90062
558000;559;27.4341;1.6791;0.065195;-2.07654;27.3503;-0.527254;-0.0676882;1.67661;-0.908868;0.033531;-0.138453;-0.51227;0.531709;-7.43551;-0.0164552;-0.000225912;0.0665634;0.066564;-0.0164558;0.0415099;0.247211;4.04513;0.0507583;0.0553465;4.04502;0.247218;87.475;132.475;0.0126458;-0.0164574;-0.00273418;0.00208712;0.0665599;-0.0109758;0.00894094;0;0.0435306;-0.028742;-1.81776;-1.41864;2.306;-7.93229;-0.0144967;-0.000970368;0.059337;0.0593498;-0.0145094;0.0369296;0.244311;4.09315;0.0451863;0.0492395;4.09043;0.244473;84.2552;129.255;0.0057412;-0.0145048;-0.00645482;0.00413186;0.0593178;0.00605338;0.0744692;0;0.0457118;8.29209;5.90795
559000;560;27.4438;1.68879;0.0655715;-2.07784;27.36;-0.523225;-0.0689896;1.68632;-0.90484;0.0340916;-0.13583;-0.516852;0.535489;-7.4401;-0.0164794;-3.88793e-05;0.0660449;0.0660449;-0.0164795;0.0412622;0.249519;4.00771;0.0504288;0.0550163;4.00771;0.249519;87.2507;132.251;0.0137916;-0.0164822;-0.00260753;0.00233092;0.0660417;-0.0147385;0.0112716;0;0.044042;-0.029149;-1.82439;-1.42233;2.31349;-7.93597;-0.0147852;-0.000838798;0.0594208;0.0594303;-0.0147947;0.0371125;0.248822;4.01895;0.0453632;0.0494833;4.01701;0.248941;84.3528;129.353;0.00599834;-0.0147933;-0.0061222;0.00407456;0.0594035;0.00331371;0.0723527;0;0.0457379;8.29701;5.91245
560000;561;27.4508;1.69578;0.0658427;-2.07791;27.3669;-0.530179;-0.069057;1.69318;-0.911794;0.0346626;-0.134005;-0.512728;0.531083;-7.4387;-0.0164993;2.08754e-06;0.067062;0.067062;-0.0164993;0.0417806;0.24603;4.06454;0.0511034;0.0557075;4.06454;0.24603;87.2654;132.265;0.0131289;-0.0165022;-0.00257982;0.00238181;0.0670589;-0.0161711;0.0104531;0;0.0417871;-0.0295433;-1.83195;-1.42053;2.31836;-7.93417;-0.0146667;-0.000648575;0.0591578;0.0591635;-0.0146724;0.0369179;0.247924;4.03349;0.0451352;0.0492239;4.03231;0.247997;84.1729;129.173;0.00522949;-0.0146757;-0.00594444;0.00427818;0.0591413;0.00396361;0.0746087;0;0.0498039;8.29764;5.91836
561000;562;27.4596;1.70459;0.0661848;-2.07825;27.3756;-0.533192;-0.0694021;1.70194;-0.914806;0.0336658;-0.131752;-0.515822;0.533446;-7.43907;-0.0169292;-0.000281686;0.0679424;0.0679433;-0.0169302;0.0424368;0.249171;4.01331;0.0518683;0.0565823;4.01315;0.249181;87.6722;132.672;0.0115686;-0.0169311;-0.00268227;0.00192812;0.0679391;-0.0141701;0.00411311;0;0.0400288;-0.031143;-1.8379;-1.42494;2.32579;-7.93858;-0.014464;-0.00076195;0.0591772;0.0591851;-0.0144719;0.0368285;0.244419;4.09134;0.0450621;0.0491047;4.08966;0.244519;84.8899;129.89;0.00360104;-0.0144706;-0.00554123;0.00368506;0.059163;0.00909579;0.0748461;0;0.0491544;8.29864;5.9225
562000;563;27.4694;1.71442;0.0665666;-2.07971;27.3854;-0.534372;-0.0708587;1.71167;-0.915986;0.0333741;-0.129337;-0.516778;0.533762;-7.44002;-0.0170397;-0.000143958;0.0680864;0.0680866;-0.0170399;0.0425633;0.250265;3.99576;0.05201;0.056751;3.99571;0.250268;87.6018;132.602;0.012876;-0.0170418;-0.00252456;0.00204691;0.0680834;-0.0153802;0.00574745;0;0.0427237;-0.0321553;-1.84372;-1.42854;2.33261;-7.94218;-0.0147185;-0.000932305;0.0592476;0.0592594;-0.0147302;0.0369948;0.248423;4.02539;0.0452232;0.0493264;4.02297;0.248572;84.2073;129.207;0.00552369;-0.0147268;-0.00639307;0.00414717;0.0592288;0.0049114;0.0766243;0;0.0487621;8.29867;5.92996
563000;564;27.4797;1.72472;0.0669663;-2.08182;27.3955;-0.53858;-0.072969;1.72175;-0.920195;0.0335474;-0.126265;-0.518056;0.534276;-7.4413;-0.0170579;-0.00032497;0.0686028;0.0686041;-0.0170592;0.0428316;0.248648;4.02176;0.0523572;0.0571088;4.02154;0.248661;87.7747;132.775;0.0115106;-0.0170596;-0.00267914;0.00184049;0.0685995;-0.00615715;0.0103424;0;0.042512;-0.0329955;-1.85003;-1.43107;2.33916;-7.94471;-0.0148321;-0.000944394;0.0597027;0.0597147;-0.014844;0.0372794;0.248432;4.02525;0.0455709;0.0497058;4.02281;0.248583;84.0674;129.067;0.005213;-0.014841;-0.00657539;0.00429057;0.0596827;0.00511077;0.0792287;0;0.0487847;8.30345;5.93771
564000;565;27.4902;1.73516;0.0673719;-2.08095;27.4061;-0.533766;-0.0720995;1.73239;-0.91538;0.0329096;-0.125289;-0.516961;0.532944;-7.44021;-0.0170206;0.00021101;0.0679508;0.0679513;-0.0170211;0.0424862;0.250484;3.99227;0.0519132;0.0566483;3.99218;0.25049;87.2419;132.242;0.0117511;-0.0170238;-0.00227942;0.00250329;0.0679484;-0.0123374;0.00975857;0;0.0488562;-0.0339942;-1.85857;-1.42969;2.3451;-7.94334;-0.0147714;-0.000894284;0.0603667;0.0603774;-0.014782;0.0375797;0.244694;4.08673;0.0459779;0.0501063;4.08451;0.244828;84.2693;129.269;0.0061053;-0.01478;-0.0064008;0.00422206;0.0603478;0.00475269;0.0747329;0;0.0503546;8.30681;5.9447
565000;566;27.4974;1.74235;0.067651;-2.08254;27.413;-0.541763;-0.0736904;1.73932;-0.923377;0.0329823;-0.123835;-0.515786;0.531468;-7.43903;-0.0172242;-0.000103447;0.0687728;0.068773;-0.0172243;0.0429986;0.250451;3.9928;0.0525398;0.0573315;3.99278;0.250452;87.7616;132.762;0.0129323;-0.0172261;-0.00232705;0.00194124;0.0687703;-0.0129722;0.0112848;0;0.0447649;-0.0351245;-1.86572;-1.43071;2.3514;-7.94436;-0.0150172;-0.00108945;0.0609642;0.0609798;-0.0150329;0.0380063;0.246329;4.05962;0.0464817;0.0506751;4.05644;0.246522;84.3524;129.352;0.00618836;-0.0150252;-0.00669217;0.00411206;0.0609437;0.00632609;0.0783414;0;0.0470916;8.30446;5.95182
566000;567;27.5054;1.75038;0.0679628;-2.08274;27.4211;-0.537696;-0.0738842;1.74744;-0.91931;0.032583;-0.120666;-0.518071;0.532935;-7.44391;-0.0174095;0.000213109;0.0692865;0.069287;-0.01741;0.0433485;0.251268;3.97981;0.0529574;0.057798;3.97972;0.251274;87.5288;132.529;0.0147404;-0.0174121;-0.00204823;0.0022911;0.0692845;-0.0142606;0.00971138;0;0.0462029;-0.0367576;-1.87249;-1.43139;2.35721;-7.94503;-0.0152511;-0.00105488;0.0613751;0.0613897;-0.0152656;0.0383276;0.248489;4.02432;0.0468514;0.0511035;4.02144;0.248667;84.6138;129.614;0.00603381;-0.0152583;-0.00641693;0.00392008;0.0613563;0.00613647;0.0745722;0;0.0457611;8.30632;5.95907
567000;568;27.5171;1.76211;0.0684182;-2.0841;27.433;-0.529495;-0.0752454;1.75926;-0.91111;0.0339846;-0.115246;-0.52459;0.538174;-7.44645;-0.0173961;-6.0351e-05;0.0694025;0.0694025;-0.0173961;0.0433993;0.250655;3.98955;0.0530269;0.0578657;3.98955;0.250655;88.0616;133.062;0.0091189;-0.0173975;-0.00198374;0.00170692;0.0694006;-0.00654487;0.00994042;0;0.0541596;-0.0362078;-1.87603;-1.43835;2.36424;-7.952;-0.0155677;-0.000913648;0.061689;0.0616998;-0.0155786;0.0386392;0.252359;3.96261;0.0471911;0.0515189;3.96056;0.25249;84.1041;129.104;0.00622666;-0.0155771;-0.00663574;0.00439209;0.0616686;0.0031133;0.0741047;0;0.0519626;8.30556;5.96665
568000;569;27.5228;1.76781;0.0686393;-2.08336;27.4386;-0.53714;-0.0745044;1.76488;-0.918754;0.0337193;-0.112957;-0.526002;0.539049;-7.44787;-0.0175883;-9.57894e-05;0.0708354;0.0708355;-0.0175884;0.044212;0.248298;4.02741;0.054049;0.0589493;4.02739;0.248299;88.3582;133.358;0.0105131;-0.0175894;-0.00179348;0.00146171;0.0708339;-0.0105243;0.00361515;0;0.0511544;-0.0366843;-1.88196;-1.44171;2.371;-7.95535;-0.0152515;-0.000812709;0.0615765;0.0615851;-0.0152601;0.0384226;0.247684;4.03741;0.046977;0.0512301;4.0357;0.247789;84.9015;129.902;0.00494576;-0.0152584;-0.00577702;0.00379234;0.0615611;0.00936818;0.0734748;0;0.0549052;8.30586;5.97351
569000;570;27.5306;1.77558;0.0689411;-2.08401;27.4463;-0.538018;-0.0751567;1.77261;-0.919633;0.0323386;-0.110892;-0.523938;0.53652;-7.44718;-0.0175821;-0.000227052;0.070703;0.0707036;-0.0175827;0.0441431;0.248675;4.02131;0.0539601;0.0588575;4.02121;0.248681;88.4913;133.491;0.00886773;-0.0175829;-0.00187289;0.00128307;0.0707014;-0.00514289;0.00661511;0;0.0461869;-0.0383991;-1.88934;-1.44241;2.37732;-7.95606;-0.0153318;-0.000674608;0.060924;0.06093;-0.0153378;0.0381339;0.251655;3.97369;0.046582;0.0508452;3.97253;0.251728;84.4139;129.414;0.00389953;-0.0153405;-0.00590006;0.00417527;0.0609078;0.00975455;0.074222;0;0.0533218;8.30931;5.97963
570000;571;27.5401;1.78511;0.069311;-2.08434;27.4559;-0.535185;-0.0754926;1.7822;-0.916799;0.0319714;-0.109665;-0.523681;0.535994;-7.44554;-0.0177632;-0.000324618;0.0712032;0.0712044;-0.0177644;0.0444844;0.249471;4.00847;0.0543672;0.0593125;4.00827;0.249484;88.4479;133.448;0.0103065;-0.017764;-0.00208648;0.00129091;0.0712012;-0.00619731;0.00149079;0;0.0485631;-0.0397442;-1.89551;-1.44485;2.38372;-7.9585;-0.0155303;-0.00109001;0.0615561;0.0615715;-0.0155457;0.0385586;0.252296;3.9636;0.0470928;0.0514115;3.96067;0.252483;84.8888;129.889;0.00520269;-0.0155365;-0.00621502;0.00366287;0.0615384;0.00656819;0.0780633;0;0.0531743;8.31036;5.98795
571000;572;27.5508;1.79583;0.0697275;-2.08628;27.4665;-0.536785;-0.0774288;1.79278;-0.918399;0.0322182;-0.106982;-0.524978;0.536735;-7.44684;-0.0179302;-0.000484716;0.0717492;0.0717518;-0.0179329;0.0448424;0.249902;4.00158;0.0547992;0.0597898;4.00114;0.249929;88.8536;133.854;0.00870268;-0.0179305;-0.00195189;0.000859693;0.0717476;-0.00597353;0.00736624;0;0.0491028;-0.0402617;-1.90237;-1.44536;2.3895;-7.959;-0.0155787;-0.00119901;0.0617149;0.0617335;-0.0155973;0.0386654;0.25243;3.9615;0.0472214;0.0515539;3.95797;0.252655;84.5527;129.553;0.00525878;-0.0155857;-0.00670893;0.00390981;0.0616944;0.00640355;0.0803801;0;0.0541424;8.31042;5.9908
572000;573;27.563;1.80796;0.0701985;-2.08948;27.4784;-0.537281;-0.0806325;1.8047;-0.918896;0.0306403;-0.105248;-0.52826;0.539513;-7.45012;-0.0181285;-0.000381701;0.0720842;0.0720858;-0.0181301;0.045108;0.251491;3.97628;0.0551039;0.0601439;3.97602;0.251508;88.7402;133.74;0.0102881;-0.018129;-0.00189976;0.00100862;0.0720825;-0.0070636;0.00933946;0;0.0512571;-0.0424647;-1.91028;-1.44842;2.39769;-7.96206;-0.0154893;-0.000976395;0.062297;0.0623092;-0.0155015;0.0389054;0.248636;4.02194;0.0475564;0.0518738;4.01955;0.248784;84.5466;129.547;0.00552698;-0.0154972;-0.00642059;0.00406917;0.062278;0.00648581;0.0813219;0;0.0528292;8.31448;5.99701
573000;574;27.572;1.817;0.0705494;-2.0898;27.4875;-0.531987;-0.0809487;1.81384;-0.913601;0.0312239;-0.101883;-0.528864;0.539493;-7.45073;-0.0182748;-0.000237586;0.0725096;0.0725102;-0.0182755;0.0453928;0.252033;3.96773;0.0554452;0.0605238;3.96763;0.25204;88.8906;133.891;0.00894236;-0.0182753;-0.00151691;0.000933452;0.0725085;-0.00575171;0.00703421;0;0.0448642;-0.0424607;-1.91635;-1.44769;2.40208;-7.96134;-0.0156221;-0.00120988;0.0628085;0.0628271;-0.0156408;0.0392339;0.248726;4.02049;0.0479562;0.0523119;4.01689;0.248949;84.4433;129.443;0.00600336;-0.0156299;-0.00694739;0.00410425;0.0627865;0.00564477;0.0795204;0;0.0507849;8.31586;6.00379
574000;575;27.5825;1.82748;0.0709562;-2.09108;27.498;-0.527949;-0.082229;1.82433;-0.909563;0.0314429;-0.0958484;-0.53689;0.546285;-7.46013;-0.0183236;-0.000235397;0.0738896;0.0738902;-0.0183242;0.0461072;0.247985;4.03249;0.0563699;0.0614763;4.03239;0.247992;88.8815;133.881;0.0100934;-0.018324;-0.00155354;0.000969564;0.0738885;-0.00695401;0.00935725;0;0.0470314;-0.043191;-1.92032;-1.45751;2.41119;-7.97116;-0.0157193;-0.00113732;0.0634382;0.0634546;-0.0157356;0.0395951;0.247789;4.0357;0.0484084;0.0527934;4.03254;0.247982;84.7645;129.764;0.00659656;-0.0157264;-0.00658771;0.00390739;0.0634184;0.00850024;0.076206;0;0.0479769;8.31446;6.0105
575000;576;27.5932;1.83824;0.0713742;-2.09369;27.5089;-0.516208;-0.0848359;1.83515;-0.897823;0.0333754;-0.0930612;-0.542896;0.551824;-7.46476;-0.017735;0.000104342;0.0742425;0.0742426;-0.0177351;0.0459889;0.238879;4.18621;0.056345;0.0613185;4.18619;0.238881;88.8354;133.835;0.0096285;-0.0177357;-0.00106122;0.00117011;0.074242;-0.0107795;0.00613121;0;0.0546013;-0.042758;-1.92678;-1.46246;2.41932;-7.9761;-0.0159434;-0.00103642;0.0637694;0.0637829;-0.0159568;0.0398699;0.250016;3.99975;0.0487198;0.0531598;3.99722;0.250174;84.5196;129.52;0.00620982;-0.0159516;-0.00665602;0.0041621;0.0637491;0.0051017;0.0798163;0;0.0500791;8.3211;6.01764
576000;577;27.6017;1.84674;0.0717042;-2.09413;27.5172;-0.52467;-0.0852786;1.84348;-0.906285;0.0309507;-0.0883188;-0.540432;0.548475;-7.46915;-0.0181566;-0.00067199;0.0746166;0.0746214;-0.0181615;0.0463915;0.243332;4.10961;0.0567781;0.0618553;4.10878;0.243381;88.9551;133.955;0.010843;-0.0181567;-0.00221931;0.000741749;0.0746145;-0.0065388;0.000783732;0;0.0523539;-0.0460786;-1.93371;-1.46177;2.42449;-7.97541;-0.0158452;-0.000904311;0.0637949;0.0638052;-0.0158554;0.0398303;0.248376;4.02615;0.0486902;0.0531071;4.02419;0.248497;84.9714;129.971;0.00618346;-0.0158522;-0.00602995;0.00383762;0.0637782;0.00451657;0.0813468;0;0.0504444;8.32097;6.0251
577000;578;27.6071;1.85208;0.0719115;-2.09527;27.5223;-0.532779;-0.086418;1.8486;-0.914393;0.0314301;-0.0906322;-0.529244;0.537867;-7.45249;-0.0182423;-0.000866293;0.0752341;0.0752421;-0.0182503;0.0467462;0.242474;4.12416;0.0572233;0.0623283;4.12279;0.242554;89.3219;134.322;0.0111474;-0.018242;-0.00216023;0.000315153;0.0752323;-0.00740597;0.0030524;0;0.0487367;-0.04543;-1.94209;-1.45456;2.42683;-7.96821;-0.0159928;-0.00081576;0.0632565;0.0632649;-0.0160012;0.0396331;0.252825;3.9553;0.0484002;0.0528441;3.95375;0.252924;84.7365;129.737;0.00513482;-0.0160007;-0.0060248;0.00400504;0.0632397;0.00689303;0.0766226;0;0.0546717;8.31461;6.03196
578000;579;27.6178;1.86275;0.0723258;-2.09579;27.5329;-0.538539;-0.0869339;1.85915;-0.920153;0.0307275;-0.0852078;-0.534831;0.542447;-7.465;-0.0183884;-0.000647173;0.0752697;0.0752741;-0.0183928;0.0468335;0.2443;4.09333;0.0573062;0.0624446;4.09258;0.244345;88.8463;133.846;0.0107566;-0.0183885;-0.00230305;0.000864476;0.0752674;-0.00400832;-0.00051197;0;0.0489811;-0.0476249;-1.94916;-1.46156;2.43673;-7.97521;-0.0161565;-0.000884781;0.0636083;0.0636181;-0.0161663;0.0398922;0.254;3.93701;0.0487035;0.0531896;3.93523;0.254115;85.0803;130.08;0.00486575;-0.016163;-0.00584263;0.00370128;0.0635926;0.00805839;0.0819922;0;0.0560061;8.32821;6.04
579000;580;27.6269;1.87192;0.0726819;-2.09763;27.5419;-0.541724;-0.0887735;1.86815;-0.923338;0.0306417;-0.0868354;-0.528205;0.536171;-7.45145;-0.0185466;-0.000993926;0.0764068;0.0764172;-0.018557;0.0474871;0.242735;4.11971;0.0581264;0.0633162;4.11796;0.242838;89.234;134.234;0.0127843;-0.0185462;-0.00247954;0.00036064;0.0764044;-0.00978736;0.00877519;0;0.0665246;-0.0479028;-1.95728;-1.45202;2.43754;-7.96567;-0.016416;-0.00122364;0.0641355;0.0641541;-0.0164346;0.0402944;0.255958;3.90689;0.0491718;0.0537258;3.9036;0.256174;84.9468;129.947;0.00469783;-0.0164222;-0.00655222;0.00370162;0.0641161;0.00663735;0.0812415;0;0.0559263;8.31359;6.04694
580000;581;27.6398;1.88478;0.0731811;-2.10016;27.5547;-0.536808;-0.091308;1.88095;-0.918423;0.0302695;-0.0749964;-0.554531;0.560397;-7.4764;-0.0186752;5.83563e-05;0.0765264;0.0765264;-0.0186753;0.0476008;0.244036;4.09775;0.0582493;0.0634678;4.09774;0.244037;88.2688;133.269;0.0109961;-0.0186768;-0.00178747;0.00174095;0.0765249;-0.00675275;0.00509894;0;0.0471351;-0.0498582;-1.95485;-1.48136;2.45323;-7.995;-0.0161021;-0.00115184;0.0646707;0.0646871;-0.0161185;0.0404028;0.248985;4.0163;0.0493824;0.0538704;4.01323;0.249176;85.5206;130.521;0.00397633;-0.016107;-0.00598893;0.00331831;0.0646545;0.0084841;0.0871345;0;0.05451;8.29543;6.04757
581000;582;27.6489;1.89394;0.0735367;-2.09888;27.5639;-0.539774;-0.0900282;1.89017;-0.921388;0.031547;-0.077906;-0.54333;0.549792;-7.46519;-0.0183903;0.000262452;0.0763307;0.0763314;-0.018391;0.0473612;0.240929;4.1506;0.0579982;0.0631483;4.15047;0.240936;88.2882;133.288;0.012702;-0.0183919;-0.00142967;0.00180566;0.0763298;-0.0123806;0.0131467;0;0.0456902;-0.0487509;-1.96747;-1.47091;2.45701;-7.98456;-0.0161509;-0.00109324;0.0651433;0.065158;-0.0161656;0.0406618;0.247928;4.03343;0.0497112;0.0542157;4.03067;0.248098;84.7928;129.793;0.00592405;-0.0161584;-0.0066209;0.00401257;0.0651233;0.00513913;0.0832522;0;0.0515079;8.33556;6.0619
582000;583;27.658;1.90299;0.0738881;-2.0982;27.5728;-0.548998;-0.0893467;1.89912;-0.930613;0.0302733;-0.0719147;-0.540763;0.546363;-7.46997;-0.0183737;0.000356206;0.0760496;0.076051;-0.018375;0.047213;0.241601;4.13905;0.0578075;0.0629507;4.13883;0.241614;87.916;132.916;0.012364;-0.0183761;-0.00167009;0.00220469;0.0760484;-0.00547524;-0.00201199;0;0.0517758;-0.0518258;-1.97405;-1.4696;2.46156;-7.98324;-0.0162844;-0.000905455;0.0656326;0.0656426;-0.0162945;0.0409685;0.248115;4.03038;0.0500847;0.0546247;4.02852;0.24823;84.854;129.854;0.00650991;-0.0162924;-0.0062856;0.00406113;0.0656144;0.00838065;0.078879;0;0.049414;8.32753;6.06743
583000;584;27.6662;1.9112;0.0742069;-2.09757;27.5812;-0.545059;-0.0887197;1.90748;-0.926674;0.0292482;-0.0677898;-0.543103;0.548099;-7.47231;-0.0187455;0.00092199;0.0754043;0.0754133;-0.0187545;0.0470839;0.2486;4.02253;0.0575547;0.0627785;4.02107;0.24869;87.3078;132.308;0.0125582;-0.0187496;-0.00134876;0.00299394;0.0754038;-0.00356343;-0.00190065;0;0.0474835;-0.0534218;-1.97875;-1.4725;2.4671;-7.98615;-0.0163623;-0.00108384;0.0658551;0.0658694;-0.0163765;0.041123;0.248458;4.02482;0.050269;0.0548306;4.02218;0.248621;85.1033;130.103;0.00595381;-0.0163689;-0.00635864;0.0037841;0.0658367;0.00646222;0.0844472;0;0.0480646;8.32161;6.06978
584000;585;27.6753;1.92027;0.0745589;-2.09608;27.5905;-0.5419;-0.0872236;1.91675;-0.923515;0.0290316;-0.0657381;-0.542374;0.547115;-7.47158;-0.0190887;0.00110217;0.0753413;0.0753542;-0.0191015;0.0472279;0.253362;3.94692;0.0576676;0.0629705;3.94493;0.25349;87.4145;132.414;0.0120755;-0.0190925;-0.000924793;0.00295114;0.0753415;-0.00651756;0.00822681;0;0.0540559;-0.0538222;-1.98639;-1.47215;2.47303;-7.9858;-0.0165815;-0.000901698;0.0655504;0.0655603;-0.0165914;0.0410758;0.252958;3.95322;0.0501605;0.0547678;3.95146;0.253071;84.8697;129.87;0.00622261;-0.0165893;-0.00622112;0.00400773;0.0655326;0.00479484;0.0833243;0;0.0511684;8.33214;6.0769
585000;586;27.6833;1.92825;0.0748688;-2.09602;27.5984;-0.543382;-0.0871712;1.92473;-0.924996;0.0295951;-0.062489;-0.548067;0.552411;-7.47131;-0.0188762;0.000794782;0.0763595;0.0763661;-0.0188828;0.0476245;0.247201;4.04529;0.0582346;0.0634993;4.04422;0.247267;87.4823;132.482;0.0138148;-0.0188799;-0.00141162;0.00280596;0.0763589;-0.0123723;0.00676453;0;0.0548276;-0.0546646;-1.99126;-1.4772;2.47996;-7.99085;-0.0166025;-0.000951459;0.0656371;0.0656481;-0.0166135;0.0411308;0.252943;3.95345;0.0502276;0.0548411;3.9515;0.253069;85.3605;130.361;0.0057258;-0.0166085;-0.00584512;0.00356456;0.0656215;0.00643425;0.0826951;0;0.0532474;8.32797;6.0846
586000;587;27.6912;1.93619;0.0751773;-2.09711;27.6063;-0.546847;-0.0882566;1.93255;-0.928462;0.029348;-0.0609769;-0.543181;0.547381;-7.46643;-0.0191219;0.000246955;0.0764338;0.0764344;-0.0191225;0.0477785;0.250176;3.99719;0.0583838;0.0637046;3.99709;0.250182;87.76;132.76;0.0117797;-0.0191246;-0.0020097;0.00230328;0.0764319;-0.0027943;0.00872138;0;0.0546898;-0.0553679;-1.9981;-1.47416;2.48367;-7.9878;-0.0164338;-0.000767712;0.0659307;0.0659379;-0.016441;0.0411894;0.249258;4.0119;0.0503419;0.0549192;4.01059;0.24934;85.219;130.219;0.00488325;-0.0164409;-0.0057211;0.00380294;0.0659157;0.00928102;0.0803537;0;0.0575628;8.3281;6.09167
587000;588;27.7024;1.94735;0.0756106;-2.09807;27.6174;-0.545344;-0.0892207;1.9437;-0.926958;0.0288975;-0.0569854;-0.545618;0.549346;-7.46886;-0.019214;0.000596393;0.0759876;0.0759913;-0.0192177;0.0476045;0.252857;3.95481;0.0581354;0.0634727;3.95423;0.252893;87.6069;132.607;0.0113347;-0.0192172;-0.00157623;0.00257679;0.0759866;-0.00746707;0.0047832;0;0.05317;-0.0564189;-2.00353;-1.47797;2.49033;-7.99162;-0.0166255;-0.000737757;0.0663307;0.0663373;-0.0166321;0.0414847;0.250646;3.98969;0.0506868;0.0553129;3.98851;0.25072;85.6682;130.668;0.00455077;-0.0166312;-0.00526104;0.00343365;0.066318;0.0095483;0.0840971;0;0.0590146;8.33161;6.09916
588000;589;27.7143;1.95932;0.0760752;-2.09909;27.6293;-0.544563;-0.0902351;1.95564;-0.926178;0.0291513;-0.0538577;-0.547089;0.550506;-7.47033;-0.01948;0.000403634;0.0779582;0.0779599;-0.0194817;0.0487208;0.249878;4.00196;0.0595392;0.0649611;4.0017;0.249894;87.8138;132.814;0.0105943;-0.0194828;-0.00174399;0.00235713;0.0779569;-0.0030254;0.00161421;0;0.0565842;-0.056957;-2.00978;-1.48112;2.49723;-7.99476;-0.016762;-0.000789436;0.0664626;0.0664701;-0.0167695;0.0416198;0.252202;3.96508;0.0508338;0.0554931;3.96376;0.252286;85.5563;130.556;0.00428071;-0.0167679;-0.00545192;0.00350921;0.066449;0.0109647;0.0831316;0;0.0557916;8.33151;6.10634
589000;590;27.725;1.97001;0.0764902;-2.10032;27.64;-0.542884;-0.0914661;1.9663;-0.924352;0.0291809;-0.0492035;-0.550967;0.553929;-7.47764;-0.0194886;0.00044289;0.0781156;0.0781176;-0.0194907;0.0488042;0.249485;4.00826;0.0596464;0.0650722;4.00795;0.249504;87.916;132.916;0.0128064;-0.0194912;-0.0015721;0.00227546;0.0781146;-0.0030593;0.00889427;0;0.0531715;-0.0579346;-2.01601;-1.48457;2.50431;-7.99821;-0.0164725;-0.000877213;0.0668775;0.0668867;-0.0164817;0.0416842;0.246308;4.05996;0.050981;0.0555789;4.05824;0.246412;85.0485;130.049;0.0057134;-0.0164802;-0.00615928;0.00399222;0.06686;0.00660159;0.0875983;0;0.0555576;8.33161;6.1139
590000;591;27.7347;1.97972;0.0768673;-2.09948;27.6499;-0.539254;-0.0906255;1.97618;-0.920721;0.0290953;-0.0459881;-0.551995;0.554671;-7.47867;-0.0196369;0.000531915;0.0780045;0.0780074;-0.0196397;0.0488236;0.25174;3.97235;0.0596394;0.0650981;3.97192;0.251768;87.985;132.985;0.0139255;-0.0196393;-0.0013405;0.00223474;0.0780038;-0.00403211;0.00686567;0;0.0570273;-0.0586145;-2.02203;-1.48683;2.51052;-8.00048;-0.0167085;-0.000790517;0.0680799;0.0680872;-0.0167159;0.0424016;0.245425;4.07456;0.0518692;0.0565354;4.0732;0.245507;84.7064;129.706;0.00707587;-0.0167182;-0.00645278;0.00442227;0.0680607;0.00783955;0.0798983;0;0.0533733;8.3342;6.12273
591000;592;27.7436;1.98857;0.077211;-2.09904;27.6588;-0.540654;-0.090189;1.98507;-0.922269;0.0286429;-0.0436234;-0.552581;0.55504;-7.47583;-0.0199043;0.000377891;0.0794467;0.0794482;-0.0199057;0.0496769;0.250536;3.99144;0.0606986;0.0662359;3.99123;0.25055;88.4713;133.471;0.0104479;-0.0199057;-0.00109358;0.00171393;0.0794462;-0.00629007;0.000209759;0;0.0627371;-0.059507;-2.02819;-1.48849;2.51648;-8.00213;-0.0167733;-0.00072047;0.0685183;0.0685244;-0.0167794;0.0426519;0.2448;4.08497;0.0521832;0.0568692;4.08385;0.244867;85.1876;130.188;0.00650314;-0.0167813;-0.00589279;0.004039;0.0685023;0.00942483;0.0798087;0;0.052606;8.33121;6.12952
592000;593;27.7519;1.99687;0.0775334;-2.1004;27.667;-0.538971;-0.0915506;1.99332;-0.920585;0.0281258;-0.041082;-0.553365;0.5556;-7.47661;-0.0196901;0.000529194;0.0798059;0.0798087;-0.0196929;0.0497508;0.246725;4.0531;0.0608419;0.0663344;4.05267;0.246751;88.4502;133.45;0.0105401;-0.0196916;-0.00088233;0.00181066;0.0798056;-0.00763025;-0.00159065;0;0.0634436;-0.0605896;-2.03408;-1.48967;2.52196;-8.00331;-0.0168906;-0.000777562;0.0684772;0.0684843;-0.0168977;0.042691;0.246661;4.05415;0.0522084;0.0569213;4.05287;0.246739;85.6571;130.657;0.00603273;-0.0168968;-0.00550476;0.00357196;0.0684633;0.0103289;0.0778555;0;0.051622;8.33466;6.13266
593000;594;27.7587;2.0037;0.0777984;-2.10014;27.6738;-0.543603;-0.0912927;2.0001;-0.925217;0.0271946;-0.0382813;-0.552764;0.554755;-7.47601;-0.0200393;2.87575e-05;0.0808667;0.0808667;-0.0200393;0.050453;0.247807;4.0354;0.0616856;0.0672707;4.0354;0.247807;89.0389;134.039;0.0108966;-0.0200398;-0.00105575;0.00101202;0.0808662;-0.00774319;-0.00185253;0;0.0560718;-0.0625254;-2.0406;-1.49128;2.52822;-8.00492;-0.0169486;-0.000742239;0.0681808;0.0681873;-0.0169551;0.0425712;0.248584;4.02279;0.0520389;0.0567616;4.02164;0.248655;85.4372;130.437;0.00564719;-0.0169555;-0.00563039;0.00375636;0.0681662;0.00833146;0.0827201;0;0.0521084;8.33743;6.13951
594000;595;27.7676;2.01257;0.0781429;-2.10074;27.6828;-0.537346;-0.0918858;2.00908;-0.918961;0.026902;-0.0349665;-0.552716;0.554474;-7.47596;-0.019803;-2.29689e-05;0.0807143;0.0807143;-0.019803;0.0502586;0.245347;4.07586;0.0614829;0.0670115;4.07586;0.245347;89.2101;134.21;0.010551;-0.0198033;-0.000945783;0.000814015;0.0807138;-0.00655014;-0.00267164;0;0.0548773;-0.063323;-2.04637;-1.48994;2.53211;-8.00358;-0.0168352;-0.000809396;0.0682695;0.0682772;-0.0168429;0.0425601;0.246599;4.05517;0.0520489;0.0567467;4.05377;0.246684;85.5612;130.561;0.00500977;-0.0168416;-0.00563938;0.00363582;0.0682549;0.0102995;0.0781381;0;0.0547668;8.33794;6.14468
595000;596;27.7756;2.02062;0.0784555;-2.10029;27.6908;-0.542308;-0.0914386;2.01709;-0.923922;0.0270361;-0.0327799;-0.55516;0.556783;-7.4784;-0.0200366;-0.000288832;0.0816187;0.0816195;-0.0200374;0.0508285;0.24549;4.07348;0.0621778;0.0677713;4.07335;0.245498;89.6968;134.697;0.00912591;-0.0200366;-0.000830666;0.000202079;0.0816184;-0.00619865;0.000449227;0;0.0554257;-0.0635836;-2.05335;-1.49347;2.53983;-8.00712;-0.0170591;-0.000778569;0.0687972;0.0688042;-0.0170661;0.0429352;0.247962;4.03288;0.0524913;0.0572469;4.03162;0.248039;85.6433;130.643;0.00523536;-0.0170653;-0.00553252;0.00359351;0.0687831;0.00899602;0.0833754;0;0.0595891;8.33586;6.15082
596000;597;27.7855;2.03046;0.0788375;-2.10201;27.7004;-0.547335;-0.0931608;2.02673;-0.928949;0.0270995;-0.0298629;-0.555992;0.557452;-7.47924;-0.0196838;-0.000391524;0.0816294;0.0816309;-0.0196853;0.0506581;0.241136;4.14704;0.0620324;0.0675441;4.1468;0.24115;89.5321;134.532;0.0100452;-0.0196837;-0.00119772;0.000339161;0.0816288;-0.00255966;0.000934996;0;0.0593351;-0.0642634;-2.06025;-1.49675;2.54735;-8.01039;-0.0171835;-0.000629397;0.0690578;0.0690624;-0.0171881;0.0431253;0.248828;4.01884;0.0527135;0.0575003;4.01804;0.248878;85.8257;130.826;0.00447109;-0.0171895;-0.0051144;0.00349381;0.0690458;0.0111228;0.082308;0;0.0611313;8.33674;6.15803
597000;598;27.7978;2.04283;0.0793179;-2.10481;27.7127;-0.541696;-0.0959574;2.03904;-0.923311;0.0268654;-0.024929;-0.563853;0.565043;-7.48572;-0.0200709;-0.00073826;0.0826684;0.0826737;-0.0200762;0.0513749;0.242788;4.11882;0.0628853;0.0684999;4.118;0.242837;89.959;134.959;0.00983514;-0.0200706;-0.00127379;-0.00025355;0.0826679;-0.00639115;0.00202507;0;0.0570611;-0.0656034;-2.06397;-1.50366;2.55446;-8.01731;-0.0171408;-0.00064691;0.0693575;0.0693624;-0.0171456;0.043254;0.247136;4.04635;0.0528914;0.057672;4.04549;0.247189;86.062;131.062;0.00462086;-0.0171461;-0.00493685;0.00329604;0.0693463;0.01104;0.0858168;0;0.0591344;8.33887;6.16547
598000;599;27.8089;2.05386;0.0797461;-2.10632;27.7237;-0.541592;-0.0974698;2.04999;-0.923207;0.0276012;-0.0238252;-0.561432;0.562615;-7.48468;-0.0200129;-0.000556802;0.0832003;0.0832033;-0.0200159;0.0516096;0.240539;4.15733;0.0632063;0.0688129;4.15685;0.240567;89.7373;134.737;0.0107049;-0.0200128;-0.00123993;6.12324e-05;0.0831998;-0.00648381;0.0020504;0;0.0620415;-0.0655159;-2.07381;-1.50184;2.56134;-8.01548;-0.0173794;-0.000642425;0.0697099;0.0697146;-0.0173842;0.0435494;0.249311;4.01106;0.053226;0.0580659;4.01024;0.249362;85.105;130.105;0.00598995;-0.0173881;-0.00590073;0.0041878;0.0696938;0.0109523;0.0854168;0;0.0568478;8.34264;6.1733
599000;600;27.8192;2.0642;0.0801476;-2.1083;27.734;-0.539317;-0.099446;2.06025;-0.920932;0.0270926;-0.0212486;-0.560715;0.561771;-7.48258;-0.0200065;-0.000234296;0.0833352;0.0833357;-0.020007;0.0516713;0.240072;4.16541;0.0632892;0.0688951;4.16533;0.240077;89.5937;134.594;0.0107138;-0.0200065;-0.00087637;0.00034653;0.0833348;-0.00434504;0.0037849;0;0.0624187;-0.0671335;-2.07895;-1.50408;2.56687;-8.01773;-0.0170518;-0.000687551;0.0708881;0.0708935;-0.0170572;0.0439754;0.240546;4.15721;0.0538561;0.0586338;4.15622;0.240603;85.983;130.983;0.00640116;-0.0170577;-0.00521854;0.00347137;0.0708756;0.0112271;0.0817763;0;0.0528454;8.34121;6.17953
600000;601;27.8275;2.07253;0.080471;-2.10944;27.7422;-0.539595;-0.100591;2.06851;-0.921209;0.0272892;-0.013554;-0.563957;0.56478;-7.49961;-0.0192628;-0.00101218;0.083166;0.083176;-0.0192728;0.0512244;0.231619;4.31744;0.0628675;0.0682992;4.31572;0.231711;89.4609;134.461;0.0158698;-0.0192623;-0.0023481;0.000197409;0.0831639;-0.00993914;0.0171972;0;0.0552158;-0.0690656;-2.08577;-1.50619;2.57368;-8.01984;-0.017253;-0.000850087;0.0710805;0.0710886;-0.0172612;0.0441749;0.242725;4.11989;0.0540724;0.0588999;4.11841;0.242812;85.9896;130.99;0.00740936;-0.0172585;-0.00548112;0.00339904;0.0710668;0.0111446;0.0762284;0;0.0525309;8.34471;6.18717
601000;602;27.8367;2.08172;0.0808279;-2.11073;27.7512;-0.544905;-0.101882;2.07753;-0.92652;0.025558;-0.0128674;-0.566651;0.567373;-7.48851;-0.0199212;-0.000619542;0.0835599;0.0835636;-0.0199249;0.0517443;0.238406;4.19453;0.063403;0.0689923;4.19393;0.23844;89.3964;134.396;0.0105792;-0.0199211;-0.00175927;0.00041134;0.0835587;-0.00832747;0.00184497;0;0.0651682;-0.0703425;-2.09118;-1.51065;2.5807;-8.02429;-0.0173049;-0.000740441;0.0703994;0.0704056;-0.0173112;0.0438584;0.245811;4.06817;0.0536467;0.0584778;4.06707;0.245877;85.9031;130.903;0.00698194;-0.0173107;-0.00532462;0.00346815;0.0703864;0.00982699;0.0810287;0;0.0544324;8.34461;6.1943
602000;603;27.8446;2.08956;0.081132;-2.11189;27.7589;-0.551122;-0.103041;2.08518;-0.932736;0.0258809;-0.0116943;-0.565679;0.566392;-7.48754;-0.0201908;-0.000817505;0.0829764;0.0829829;-0.0201973;0.0515901;0.243332;4.10962;0.0631405;0.0687868;4.10862;0.243391;89.5326;134.533;0.00773118;-0.0201905;-0.00191134;0.000172126;0.082975;-0.0041075;0.0041975;0;0.0675091;-0.0709929;-2.09894;-1.51127;2.58738;-8.02491;-0.0172683;-0.000731332;0.0704085;0.0704146;-0.0172744;0.0438445;0.245258;4.07733;0.0536366;0.0584593;4.07625;0.245324;85.7797;130.78;0.00572245;-0.0172746;-0.0054395;0.00359121;0.0703949;0.0104645;0.0801029;0;0.0573489;8.34677;6.20211
603000;604;27.8554;2.10037;0.081552;-2.11396;27.7695;-0.553446;-0.105105;2.09583;-0.935061;0.0250542;-0.00657568;-0.568087;0.568677;-7.48995;-0.0202211;-0.000198217;0.0839448;0.0839452;-0.0202214;0.0520833;0.240885;4.15136;0.0637816;0.0694444;4.1513;0.240889;88.9233;133.923;0.0100565;-0.0202217;-0.00162847;0.00109459;0.0839436;-0.00779414;0.00222513;0;0.065396;-0.072898;-2.10378;-1.51565;2.59392;-8.02929;-0.0172877;-0.000729708;0.0709009;0.0709069;-0.0172938;0.0441004;0.24383;4.10122;0.0539676;0.0588005;4.10014;0.243894;86.0622;131.062;0.00552809;-0.0172932;-0.00518739;0.00336089;0.0708886;0.0101756;0.0824441;0;0.0600071;8.34392;6.2091
604000;605;27.8665;2.11148;0.0819831;-2.11347;27.7808;-0.551186;-0.104619;2.10705;-0.932801;0.0257554;-0.00462649;-0.56704;0.567643;-7.4889;-0.0203773;-0.000369128;0.0837462;0.0837475;-0.0203786;0.052063;0.243322;4.10978;0.0637202;0.0694174;4.10958;0.243334;88.8502;133.85;0.012111;-0.0203778;-0.00199198;0.0010978;0.0837444;-0.00558786;-0.00345446;0;0.0611497;-0.0729567;-2.11043;-1.51462;2.59871;-8.02826;-0.0173574;-0.000621449;0.0714227;0.071427;-0.0173618;0.0443944;0.243024;4.11483;0.0543378;0.0591925;4.11405;0.24307;86.0862;131.086;0.0062837;-0.0173631;-0.00501843;0.0034112;0.0714111;0.0105044;0.0850176;0;0.0628891;8.34333;6.21425
605000;606;27.8743;2.11934;0.0822885;-2.11309;27.7884;-0.565389;-0.104234;2.11468;-0.947004;0.0264197;-2.63825e-05;-0.569601;0.570214;-7.49147;-0.0200109;-0.000267781;0.0840102;0.0840109;-0.0200116;0.0520112;0.238196;4.19822;0.0637338;0.0693483;4.19811;0.238203;88.8498;133.85;0.0122701;-0.0200116;-0.00184021;0.00115376;0.0840087;-0.00621732;0.000828366;0;0.0623461;-0.073154;-2.11727;-1.5161;2.60514;-8.02974;-0.0176805;-0.000649792;0.0715547;0.0715594;-0.0176852;0.0446223;0.247091;4.04709;0.0545652;0.0594964;4.04628;0.247141;86.1921;131.192;0.00536365;-0.0176858;-0.00493921;0.00328243;0.0715435;0.0104423;0.0873716;0;0.0623174;8.34217;6.21781
606000;607;27.8817;2.12666;0.0825727;-2.11362;27.7955;-0.573193;-0.104769;2.12182;-0.954807;0.0262672;0.0046862;-0.576148;0.576766;-7.49939;-0.0200338;2.93171e-05;0.084934;0.084934;-0.0200338;0.0524839;0.235875;4.23953;0.0643487;0.0699785;4.23953;0.235875;88.8444;133.844;0.0130649;-0.0200347;-0.001372;0.00129505;0.0849331;-0.0145094;0.00381148;0;0.0619519;-0.074668;-2.12246;-1.52372;2.61384;-8.03736;-0.0174659;-0.000620469;0.0719658;0.0719701;-0.0174702;0.0447202;0.242698;4.12035;0.0547408;0.0596269;4.11958;0.242743;86.596;131.596;0.00613304;-0.0174702;-0.00452057;0.00295426;0.0719564;0.0123016;0.0823242;0;0.062056;8.34293;6.22442
607000;608;27.8952;2.14017;0.0830971;-2.11548;27.8091;-0.566538;-0.106628;2.13536;-0.948152;0.0253571;0.00677806;-0.575889;0.576486;-7.49913;-0.0204345;-0.000471122;0.0850367;0.0850388;-0.0204366;0.0527377;0.240302;4.16143;0.0645915;0.0703169;4.1611;0.240321;88.8807;133.881;0.010489;-0.0204349;-0.00215489;0.00104898;0.0850346;-0.00339338;0.00153028;0;0.0635187;-0.0761181;-2.12973;-1.52544;2.62078;-8.03909;-0.0173438;-0.000538183;0.072625;0.0726282;-0.017347;0.0449876;0.238813;4.18738;0.0551187;0.0599835;4.18679;0.238846;86.0858;131.086;0.00598893;-0.01735;-0.00497784;0.0035291;0.0726136;0.0131654;0.0854071;0;0.0583503;8.34645;6.23221
608000;609;27.9054;2.15041;0.0834947;-2.11589;27.8193;-0.567018;-0.107035;2.14559;-0.948633;0.0249089;0.0113747;-0.575876;0.576526;-7.49912;-0.0207084;-0.000471646;0.0857761;0.0857782;-0.0207105;0.0532444;0.241424;4.14208;0.0651949;0.0709925;4.14177;0.241443;88.954;133.954;0.0105272;-0.0207088;-0.00207553;0.000974947;0.0857742;-0.00652848;-0.000627494;0;0.0628867;-0.0771626;-2.13451;-1.5282;2.6263;-8.04184;-0.0172397;-0.00054005;0.0728328;0.072836;-0.0172429;0.0450395;0.236702;4.22472;0.0552099;0.0600526;4.22411;0.236736;86.5349;131.535;0.00653054;-0.0172445;-0.00452917;0.00311416;0.0728233;0.0139836;0.0812776;0;0.0557863;8.34366;6.23836
609000;610;27.9127;2.15767;0.0837767;-2.11605;27.8266;-0.566183;-0.107193;2.15289;-0.947797;0.024074;0.0145403;-0.576046;0.576732;-7.49929;-0.0207344;-0.000466629;0.0845816;0.0845837;-0.0207365;0.0526601;0.245141;4.07929;0.0644235;0.0702134;4.07898;0.245159;88.818;133.818;0.0106317;-0.0207349;-0.0022035;0.00110158;0.0845795;-0.00382626;0.0072032;0;0.0671691;-0.0788402;-2.14101;-1.529;2.63211;-8.04265;-0.0175869;-0.000546182;0.0728432;0.0728465;-0.0175902;0.0452184;0.241435;4.1419;0.0553671;0.0602912;4.14131;0.24147;86.6517;131.652;0.00770693;-0.0175913;-0.00439077;0.00297435;0.0728344;0.0126241;0.0766596;0;0.0592611;8.34799;6.24571
610000;611;27.921;2.16604;0.0841019;-2.11587;27.835;-0.565862;-0.107022;2.16131;-0.947476;0.0241138;0.0157709;-0.574079;0.574802;-7.49594;-0.0207346;-0.00114896;0.0863422;0.0863545;-0.0207469;0.0535507;0.240144;4.16417;0.0655884;0.0714009;4.16229;0.240253;89.3433;134.343;0.00962248;-0.0207339;-0.00273164;0.00027772;0.0863394;-0.00390911;0.00233902;0;0.0643511;-0.0793508;-2.14777;-1.52746;2.63673;-8.0411;-0.0178424;-0.000634002;0.0727005;0.072705;-0.0178469;0.0452759;0.245424;4.07459;0.0553858;0.0603679;4.07382;0.24547;86.5337;131.534;0.00774547;-0.0178469;-0.00463147;0.00302606;0.0726907;0.00788749;0.0812386;0;0.0576287;8.3466;6.25271
611000;612;27.9287;2.17374;0.0844008;-2.115;27.8428;-0.565328;-0.106151;2.16911;-0.946942;0.0246586;0.0202221;-0.577461;0.578341;-7.50071;-0.0208291;-0.00035053;0.0862478;0.0862489;-0.0208302;0.0535396;0.241503;4.14074;0.0655553;0.0713861;4.14057;0.241513;88.8614;133.861;0.0107826;-0.0208297;-0.00199652;0.00113321;0.086246;-0.00824137;0.00658006;0;0.0638874;-0.079404;-2.1534;-1.53085;2.64328;-8.04449;-0.0177848;-0.0006521;0.0729474;0.0729521;-0.0177895;0.0453708;0.243803;4.10167;0.0555228;0.0604944;4.10086;0.243852;86.6363;131.636;0.00683783;-0.017789;-0.00457582;0.00293983;0.0729379;0.00841177;0.0828561;0;0.0591314;8.34648;6.26024
612000;613;27.9382;2.18315;0.0847661;-2.11688;27.852;-0.568286;-0.10803;2.17834;-0.949901;0.0247265;0.0222395;-0.576238;0.577197;-7.49948;-0.0211353;-0.000857591;0.0869002;0.0869071;-0.0211421;0.0540246;0.243213;4.11162;0.0661218;0.0720328;4.11062;0.243273;89.49;134.49;0.00982512;-0.0211349;-0.00206173;0.000226859;0.0868986;-0.00523584;0.00562911;0;0.0661534;-0.0803195;-2.16114;-1.5316;2.65006;-8.04525;-0.0175202;-0.000773008;0.0734307;0.0734372;-0.0175267;0.045482;0.238595;4.19121;0.0557268;0.0606426;4.19001;0.238663;86.4712;131.471;0.00525083;-0.0175248;-0.00500834;0.00310348;0.0734192;0.0123791;0.0828876;0;0.0631008;8.3525;6.26684
613000;614;27.9431;2.18809;0.0849579;-2.11412;27.8569;-0.583098;-0.105264;2.1832;-0.964712;0.0242407;0.0264086;-0.579983;0.581089;-7.50185;-0.0210878;-0.000983925;0.0868939;0.0869029;-0.0210968;0.0539999;0.242685;4.12057;0.0660995;0.0719998;4.11924;0.242763;89.5801;134.58;0.00976311;-0.0210874;-0.00216026;7.55436e-05;0.0868922;-0.00790507;0.00727368;0;0.0693672;-0.0817522;-2.16671;-1.53627;2.65734;-8.04992;-0.0177573;-0.000771185;0.0738611;0.0738676;-0.0177638;0.0458157;0.240415;4.15947;0.0561116;0.0610876;4.15831;0.240482;86.7007;131.701;0.00528801;-0.0177613;-0.00477179;0.00288811;0.0738508;0.0135713;0.0812948;0;0.0654363;8.35175;6.27458
614000;615;27.9536;2.1986;0.0853658;-2.11523;27.8674;-0.582635;-0.106373;2.19366;-0.96425;0.0243807;0.0308244;-0.582936;0.584259;-7.50618;-0.0209935;-0.000823642;0.0877766;0.0877829;-0.0209998;0.0543913;0.23917;4.18113;0.0666341;0.0725218;4.18018;0.239224;89.8849;134.885;0.0112873;-0.0209932;-0.00151976;-0.000197126;0.0877759;-0.0120673;0.00502265;0;0.0640789;-0.0822995;-2.17208;-1.54095;2.66443;-8.05459;-0.0177203;-0.000786173;0.0740475;0.0740542;-0.0177271;0.0458906;0.23931;4.17867;0.056218;0.0611875;4.17747;0.23938;86.8465;131.847;0.00578627;-0.0177239;-0.00465588;0.00275291;0.0740377;0.0141487;0.0826691;0;0.0678815;8.35037;6.28097
615000;616;27.9668;2.21177;0.0858772;-2.1196;27.8804;-0.576468;-0.11075;2.20667;-0.958083;0.0244305;0.0348852;-0.579377;0.580941;-7.5062;-0.0207928;-0.00103673;0.0883078;0.0883177;-0.0208027;0.0545602;0.235459;4.24703;0.0668996;0.0727469;4.24549;0.235544;89.8043;134.804;0.0112067;-0.0207923;-0.00198605;-0.000182582;0.0883065;-0.00761457;0.00187875;0;0.058177;-0.0836441;-2.17892;-1.53912;2.669;-8.05277;-0.018001;-0.000564155;0.0744591;0.0744626;-0.0180044;0.0462335;0.241756;4.13639;0.0566058;0.0616446;4.1358;0.241791;86.7462;131.746;0.00715823;-0.0180052;-0.00440031;0.0029419;0.0744503;0.0120954;0.0796371;0;0.0636109;8.35079;6.2884
616000;617;27.9777;2.2227;0.0863015;-2.12025;27.8914;-0.56963;-0.111399;2.21772;-0.951245;0.0236426;0.0371983;-0.582649;0.584314;-7.50589;-0.0209165;-0.00188945;0.0887091;0.0887417;-0.0209491;0.0548454;0.235788;4.2411;0.0672409;0.0731272;4.23607;0.236068;90.7982;135.798;0.00989066;-0.0209161;-0.0021328;-0.00167061;0.0887087;-0.00459478;0.00436223;0;0.0639499;-0.0843241;-2.18506;-1.5421;2.67576;-8.05575;-0.0178729;-0.000699829;0.0748516;0.0748569;-0.0178782;0.0463675;0.238778;4.18798;0.0568096;0.0618234;4.18704;0.238832;86.5173;131.517;0.00633354;-0.0178777;-0.00491203;0.00314901;0.0748406;0.0127349;0.0833478;0;0.0591133;8.35025;6.29046
617000;618;27.987;2.23198;0.0866618;-2.12232;27.9006;-0.570534;-0.113469;2.22686;-0.952149;0.0235056;0.0424613;-0.588712;0.59071;-7.51468;-0.0202979;-0.0013462;0.0888476;0.0888642;-0.0203145;0.0545893;0.228457;4.37718;0.0670481;0.0727858;4.37442;0.228602;90.1207;135.121;0.010965;-0.0202972;-0.00210955;-0.000659367;0.0888464;-0.0127496;0.00279353;0;0.0666897;-0.0855909;-2.19066;-1.54912;2.68441;-8.06276;-0.0178135;-0.000587423;0.0750281;0.0750319;-0.0178173;0.0464246;0.237425;4.21186;0.0568979;0.0618994;4.21119;0.237463;86.5303;131.53;0.00782212;-0.0178186;-0.00472713;0.00319478;0.0750179;0.0122166;0.0787998;0;0.0600744;8.35019;6.29641
618000;619;27.9955;2.24045;0.086991;-2.1227;27.909;-0.570071;-0.11385;2.23534;-0.951685;0.023439;0.0457692;-0.591676;0.593906;-7.51786;-0.0206979;-0.00102526;0.0899627;0.0899722;-0.0207074;0.0553398;0.230072;4.34646;0.067944;0.0737864;4.34492;0.230154;90.198;135.198;0.0151996;-0.0206976;-0.00146377;-0.000631274;0.0899622;-0.0099783;0.00793973;0;0.0614791;-0.0864016;-2.19687;-1.5501;2.69008;-8.06375;-0.0179908;-0.000669224;0.0748265;0.0748313;-0.0179956;0.0464135;0.240433;4.15916;0.0568437;0.0618846;4.15831;0.240482;86.9143;131.914;0.00753818;-0.0179944;-0.00441903;0.00275678;0.0748176;0.0123565;0.0796124;0;0.0596971;8.35028;6.30396
619000;620;28.0034;2.24844;0.087301;-2.1233;27.917;-0.571898;-0.114447;2.24327;-0.953513;0.0237283;0.0483982;-0.592842;0.595288;-7.51761;-0.021158;-0.000890985;0.090314;0.0903211;-0.0211651;0.0557431;0.234272;4.26855;0.06837;0.0743242;4.26745;0.234332;89.9216;134.922;0.0150836;-0.0211576;-0.00159693;-0.000257218;0.0903132;-0.00942388;0.00222994;0;0.0628391;-0.0866099;-2.20289;-1.55247;2.69637;-8.06612;-0.0180716;-0.000674898;0.0749499;0.0749548;-0.0180765;0.0465156;0.241116;4.14738;0.0569596;0.0620209;4.14653;0.241165;86.8578;131.858;0.00704334;-0.0180754;-0.00449206;0.00281195;0.0749407;0.0124015;0.0798343;0;0.0587784;8.35284;6.31077
620000;621;28.0143;2.25927;0.0877217;-2.12575;27.9278;-0.56693;-0.116897;2.25405;-0.948545;0.0225241;0.0538758;-0.592713;0.595582;-7.52157;-0.0209187;-0.00085977;0.0904307;0.0904373;-0.0209253;0.0556813;0.231323;4.32296;0.0683429;0.0742418;4.32191;0.231379;89.9465;134.947;0.0126692;-0.0209183;-0.00151581;-0.000270724;0.09043;-0.00525755;-0.00636735;0;0.0636349;-0.0887627;-2.20882;-1.55493;2.7027;-8.06858;-0.017966;-0.00065902;0.0756753;0.0756799;-0.0179706;0.0468252;0.237409;4.21214;0.0573891;0.0624337;4.21132;0.237456;87.2785;132.279;0.00674253;-0.0179688;-0.00405846;0.0024445;0.0756678;0.0113702;0.0839117;0;0.0615159;8.35089;6.31868
621000;622;28.0227;2.26773;0.08805;-2.12612;27.9361;-0.572973;-0.117272;2.26238;-0.954588;0.0225142;0.0580761;-0.597745;0.600981;-7.52661;-0.0210343;-0.00125493;0.0900118;0.090026;-0.0210484;0.0555372;0.233683;4.2793;0.0681261;0.0740496;4.27709;0.233804;90.2362;135.236;0.0108074;-0.0210338;-0.0017945;-0.000770316;0.090011;-0.00180202;-0.00878845;0;0.0613329;-0.0892309;-2.21385;-1.56079;2.7102;-8.07444;-0.0177556;-0.000604325;0.0758437;0.0758476;-0.0177595;0.0468035;0.234108;4.27154;0.0574079;0.0624047;4.27082;0.234147;87.4467;132.447;0.0059909;-0.0177581;-0.00380437;0.00231732;0.0758371;0.0137228;0.0866722;0;0.0649374;8.35363;6.32603
622000;623;28.0301;2.27511;0.0883365;-2.12672;27.9432;-0.585854;-0.117864;2.26947;-0.967468;0.0227127;0.0600686;-0.597414;0.600855;-7.52194;-0.0209272;-0.00098877;0.0898986;0.0899075;-0.020936;0.0554218;0.232787;4.29578;0.0679999;0.0738957;4.29439;0.232862;89.8114;134.811;0.0130569;-0.0209267;-0.00190703;-0.000163885;0.0898974;-0.00654811;0.0016327;0;0.0740127;-0.0904982;-2.2211;-1.56021;2.71583;-8.07385;-0.0179547;-0.000751292;0.0759318;0.0759378;-0.0179607;0.0469493;0.236458;4.22908;0.057554;0.062599;4.228;0.236518;87.3667;132.367;0.00639539;-0.0179572;-0.00413111;0.00233361;0.0759242;0.0128694;0.0838858;0;0.0665811;8.35295;6.33373
623000;624;28.0437;2.28871;0.0888647;-2.1285;27.9567;-0.584492;-0.119651;2.28301;-0.966106;0.0221657;0.0628617;-0.595442;0.599162;-7.52152;-0.0210324;-0.00134936;0.0910036;0.0910199;-0.0210487;0.0560343;0.231116;4.32683;0.0687782;0.0747123;4.32426;0.231253;89.9839;134.984;0.0169343;-0.0210316;-0.00229024;-0.000505109;0.091002;-0.00855716;0.00389515;0;0.0606384;-0.0920443;-2.22807;-1.5598;2.72135;-8.07345;-0.0180661;-0.000621511;0.0762906;0.0762947;-0.0180702;0.0471825;0.236807;4.22285;0.0578353;0.06291;4.22212;0.236848;87.1634;132.163;0.00655893;-0.0180694;-0.00415228;0.00259972;0.0762828;0.0135957;0.0843098;0;0.0698058;8.35384;6.34096
624000;625;28.0546;2.29962;0.0892883;-2.12913;27.9676;-0.584282;-0.120277;2.29391;-0.965896;0.0233359;0.0673218;-0.599386;0.603606;-7.52546;-0.0214114;-0.00109467;0.0917898;0.0918004;-0.021422;0.0566112;0.233265;4.28696;0.069451;0.0754816;4.28534;0.233354;89.865;134.865;0.018849;-0.0214108;-0.00201888;-0.000266296;0.0917885;-0.0152143;0.00974827;0;0.0657972;-0.0921892;-2.23404;-1.56303;2.72809;-8.07667;-0.0180869;-0.000753037;0.0770934;0.0770994;-0.0180928;0.0475961;0.23461;4.2624;0.0583728;0.0634615;4.26133;0.234669;87.0905;132.09;0.00673339;-0.0180902;-0.00450124;0.00266395;0.0770843;0.013005;0.0852316;0;0.0662909;8.35397;6.34877
625000;626;28.0688;2.31375;0.0898369;-2.13229;27.9817;-0.575834;-0.123439;2.30802;-0.957449;0.0232536;0.0698519;-0.599566;0.604069;-7.5227;-0.0214379;-9.48476e-05;0.0910569;0.091057;-0.021438;0.0562475;0.235434;4.24748;0.0689704;0.0749967;4.24746;0.235435;88.7595;133.76;0.0151979;-0.021439;-0.00180461;0.00143863;0.0910555;-0.0244986;0.00126977;0;0.0724579;-0.0929662;-2.24126;-1.5639;2.73454;-8.07754;-0.0181594;-0.000778087;0.0772028;0.0772091;-0.0181657;0.0476874;0.235217;4.2514;0.0584762;0.0635832;4.25027;0.235279;86.8004;131.8;0.00729028;-0.0181635;-0.00487215;0.00295355;0.077192;0.0120551;0.0816937;0;0.0607109;8.35728;6.35545
626000;627;28.0764;2.32135;0.0901322;-2.13079;27.9893;-0.583507;-0.121934;2.3156;-0.965122;0.022613;0.0721462;-0.599699;0.604446;-7.52283;-0.021456;-0.000155696;0.0916312;0.0916314;-0.0214562;0.0565438;0.234156;4.27066;0.069355;0.0753918;4.27063;0.234158;88.7893;133.789;0.0157687;-0.021457;-0.00188108;0.00139095;0.0916296;-0.0229706;0.00240637;0;0.0700712;-0.0941318;-2.24906;-1.56396;2.74101;-8.07761;-0.0183995;-0.000709996;0.0771304;0.0771357;-0.0184048;0.0477702;0.238551;4.19197;0.0585313;0.0636937;4.19106;0.238603;86.7575;131.757;0.00835803;-0.0184039;-0.00478351;0.00300225;0.07712;0.0108123;0.0813537;0;0.061093;8.35857;6.36281
627000;628;28.0859;2.3309;0.090503;-2.13156;27.9989;-0.580959;-0.122706;2.32517;-0.962574;0.0231972;0.0739249;-0.595559;0.600578;-7.51742;-0.0220076;-0.000682176;0.0938235;0.0938275;-0.0220116;0.0579196;0.234564;4.26323;0.0710349;0.0772261;4.26263;0.234597;89.3016;134.302;0.0118489;-0.0220075;-0.00210303;0.000588214;0.0938217;-0.00872256;-0.00134445;0;0.0647135;-0.0942875;-2.25523;-1.56358;2.74585;-8.07722;-0.0185584;-0.000711635;0.0769054;0.0769107;-0.0185637;0.0477372;0.241315;4.14396;0.0584527;0.0636496;4.14306;0.241367;86.9635;131.964;0.00762093;-0.0185621;-0.00452943;0.00276774;0.0768961;0.0125521;0.0852619;0;0.0606563;8.35695;6.36537
628000;629;28.0942;2.3392;0.090825;-2.13081;28.0071;-0.586056;-0.121961;2.33344;-0.967671;0.0232858;0.0805809;-0.60393;0.609727;-7.53001;-0.0219058;-0.000190915;0.0932771;0.0932774;-0.0219062;0.0575918;0.234847;4.25809;0.0706286;0.076789;4.25804;0.23485;88.6273;133.627;0.0193772;-0.0219071;-0.00219152;0.00159891;0.0932749;-0.0180507;0.00430595;0;0.0625581;-0.0953952;-2.2601;-1.57279;2.75514;-8.08644;-0.0183478;-0.000753729;0.0773027;0.0773086;-0.0183537;0.0478312;0.23735;4.21319;0.0586226;0.0637749;4.21215;0.237408;87.5827;132.583;0.00618924;-0.0183498;-0.0039449;0.00215411;0.0772957;0.0144901;0.0850224;0;0.0602915;8.35756;6.37161
629000;630;28.105;2.34999;0.0912441;-2.13088;28.018;-0.586978;-0.122023;2.34425;-0.968592;0.0238534;0.0861173;-0.612416;0.618901;-7.53428;-0.0219576;-0.000456869;0.0935024;0.0935042;-0.0219594;0.0577318;0.234834;4.25832;0.0708003;0.0769757;4.25806;0.234849;88.8914;133.891;0.0130808;-0.0219582;-0.0022816;0.0011752;0.0935001;-0.0120323;0.000716795;0;0.0729558;-0.0956763;-2.26543;-1.57776;2.76237;-8.09141;-0.018255;-0.000737449;0.0778851;0.0778908;-0.0182607;0.0480757;0.234384;4.26651;0.0589643;0.064101;4.2655;0.234439;87.9333;132.933;0.00476488;-0.0182564;-0.00355631;0.00183;0.0778795;0.0167271;0.0864068;0;0.0657289;8.35384;6.37753
630000;631;28.1161;2.3611;0.0916755;-2.13141;28.029;-0.587705;-0.122555;2.35534;-0.96932;0.022025;0.0886683;-0.610497;0.617296;-7.53236;-0.0222602;-0.0007264;0.0936062;0.0936108;-0.0222648;0.0579378;0.237807;4.20509;0.0710021;0.0772504;4.20443;0.237844;89.2008;134.201;0.0131782;-0.0222602;-0.00230482;0.000684787;0.093604;-0.00999657;-8.28454e-06;0;0.0693281;-0.0978473;-2.27271;-1.57745;2.76824;-8.09109;-0.0183537;-0.000767977;0.077907;0.0779131;-0.0183598;0.0481365;0.235584;4.24477;0.0590217;0.0641819;4.24368;0.235644;87.9486;132.949;0.00600981;-0.018355;-0.0035859;0.0017983;0.0779013;0.0152057;0.0851704;0;0.0678726;8.35511;6.3842
631000;632;28.1223;2.36733;0.0919173;-2.13048;28.0352;-0.595726;-0.12163;2.36148;-0.97734;0.0250678;0.0972546;-0.611396;0.61959;-7.54878;-0.0210336;-0.000893685;0.0936988;0.0937057;-0.0210406;0.0573731;0.224481;4.45471;0.0705379;0.0764975;4.45357;0.224539;88.5345;133.534;0.0135932;-0.0210343;-0.00354963;0.00148365;0.0936934;-0.0217922;-0.0088837;0;0.0648945;-0.0972846;-2.27983;-1.57714;2.77389;-8.09078;-0.0185397;-0.000733272;0.0781443;0.0781498;-0.0185453;0.0483476;0.23725;4.21496;0.059257;0.0644634;4.214;0.237304;87.387;132.387;0.00603064;-0.0185424;-0.00416482;0.00239055;0.0781365;0.0144935;0.0851428;0;0.0681458;8.35511;6.39166
632000;633;28.1317;2.37673;0.0922821;-2.13033;28.0446;-0.595658;-0.12148;2.37092;-0.977273;0.0233064;0.0931734;-0.611362;0.61886;-7.53323;-0.0223895;-0.000824072;0.0949476;0.0949534;-0.0223953;0.0586743;0.235809;4.24072;0.0719389;0.0782325;4.23988;0.235856;89.5215;134.522;0.0110033;-0.0223892;-0.00204586;0.000266787;0.094946;-0.00844333;0.00192599;0;0.0704527;-0.0989014;-2.28676;-1.58132;2.78202;-8.09496;-0.0185869;-0.000685505;0.079206;0.0792108;-0.0185917;0.0489013;0.234666;4.26138;0.0599729;0.0652017;4.26054;0.234712;87.4785;132.479;0.00571915;-0.0185895;-0.00403522;0.00236068;0.0791987;0.0167191;0.08467;0;0.0672345;8.35226;6.39932
633000;634;28.1428;2.38783;0.0927132;-2.13285;28.0557;-0.591842;-0.123993;2.38195;-0.973457;0.0225846;0.0977486;-0.606611;0.614851;-7.52848;-0.022677;-0.000914957;0.0946463;0.0946534;-0.0226842;0.0586688;0.239598;4.17366;0.0718671;0.078225;4.17266;0.239655;89.656;134.656;0.0130048;-0.0226766;-0.00200251;5.60352e-05;0.0946448;-0.0130987;-0.000777675;0;0.0736324;-0.100077;-2.29286;-1.57611;2.78412;-8.08975;-0.0184629;-0.000735916;0.0790806;0.0790862;-0.0184685;0.0487773;0.233469;4.28321;0.059838;0.0650364;4.28223;0.233523;87.1002;132.1;0.00668449;-0.0184665;-0.00455795;0.00274063;0.0790713;0.0147134;0.0823838;0;0.0642486;8.35749;6.4069
634000;635;28.1534;2.39843;0.0931249;-2.13399;28.0662;-0.589808;-0.125142;2.39254;-0.971422;0.0225119;0.105281;-0.615791;0.625132;-7.54118;-0.0224984;-0.000298241;0.0942921;0.0942928;-0.0224992;0.058396;0.238603;4.19106;0.0715506;0.0778613;4.19095;0.23861;89.3178;134.318;0.0125915;-0.0224986;-0.00143463;0.000716862;0.0942912;-0.0114458;-0.00501953;0;0.0625476;-0.101011;-2.2973;-1.58639;2.79364;-8.10003;-0.0183921;-0.000836453;0.0793352;0.0793424;-0.0183993;0.0488708;0.231828;4.31354;0.0599763;0.0651611;4.31226;0.231897;87.2703;132.27;0.00631513;-0.0183951;-0.00454961;0.00254051;0.079326;0.0154406;0.0814629;0;0.0614817;8.35393;6.41338
635000;636;28.1621;2.4071;0.0934614;-2.13466;28.0749;-0.587594;-0.125812;2.40123;-0.969209;0.022046;0.10744;-0.611993;0.621744;-7.53739;-0.0226756;-0.00043073;0.0940637;0.0940653;-0.0226772;0.0583713;0.241066;4.14823;0.0714786;0.0778284;4.14801;0.241079;89.3983;134.398;0.0126245;-0.0226757;-0.00153948;0.000559716;0.0940627;-0.0112955;0.00120502;0;0.0637601;-0.101898;-2.30372;-1.58428;2.79776;-8.09792;-0.018811;-0.000742976;0.0792369;0.0792425;-0.0188166;0.0490296;0.237402;4.21227;0.0600907;0.0653727;4.21131;0.237456;87.7149;132.715;0.00670532;-0.0188129;-0.00384773;0.00207972;0.0792303;0.0167306;0.0835021;0;0.0627352;8.35714;6.42071
636000;637;28.1701;2.41506;0.0937707;-2.13497;28.0828;-0.594049;-0.126115;2.40906;-0.975664;0.0209546;0.109063;-0.604414;0.614533;-7.52981;-0.0219864;-0.000132201;0.0931993;0.0931994;-0.0219866;0.057593;0.235908;4.23895;0.0706122;0.0767907;4.23893;0.235909;89.1539;134.154;0.0134793;-0.0219869;-0.00137158;0.000976589;0.0931984;-0.0153443;-0.000140431;0;0.0713062;-0.104134;-2.31173;-1.58097;2.80257;-8.09461;-0.0186788;-0.000798756;0.0792243;0.0792308;-0.0186853;0.0489581;0.235771;4.2414;0.0600264;0.0652775;4.24027;0.235834;87.8421;132.842;0.00573703;-0.0186804;-0.00380152;0.00193161;0.0792179;0.0175225;0.0884207;0;0.0637715;8.36011;6.42772
637000;638;28.1803;2.42528;0.0941674;-2.13634;28.093;-0.591134;-0.127491;2.41927;-0.972748;0.0215517;0.115465;-0.616226;0.627321;-7.54162;-0.022505;-0.000379955;0.0942659;0.0942671;-0.0225063;0.0583867;0.23874;4.18866;0.0715368;0.0778489;4.18848;0.23875;89.5895;134.589;0.0141521;-0.022505;-0.00119819;0.000350964;0.0942653;-0.0143929;-0.00261897;0;0.0676293;-0.103661;-2.3157;-1.59331;2.8128;-8.10695;-0.0187524;-0.000610411;0.0792644;0.0792682;-0.0187562;0.0490122;0.236581;4.22688;0.0600815;0.0653496;4.22623;0.236618;87.5514;132.551;0.00643197;-0.018755;-0.0038189;0.0023067;0.0792578;0.016384;0.0857438;0;0.0613556;8.3605;6.43451
638000;639;28.1858;2.43082;0.0943826;-2.13448;28.0985;-0.600543;-0.125624;2.42477;-0.982158;0.0215743;0.120231;-0.615584;0.627586;-7.54364;-0.0225242;-0.000282887;0.0948546;0.0948553;-0.0225248;0.0586901;0.23746;4.21124;0.0719305;0.0782534;4.21114;0.237465;89.3591;134.359;0.0122574;-0.0225243;-0.00135982;0.000678587;0.0948538;-0.00957899;-0.0114794;0;0.0664362;-0.10497;-2.32307;-1.59118;2.81771;-8.10482;-0.0185217;-0.000846557;0.0799426;0.0799498;-0.018529;0.0492394;0.231688;4.31615;0.0604307;0.0656526;4.31485;0.231758;87.7996;132.8;0.00611897;-0.0185234;-0.0039738;0.00199556;0.0799356;0.0176392;0.0837;0;0.0651334;8.35546;6.43955
639000;640;28.2013;2.44626;0.0949819;-2.13877;28.1137;-0.596388;-0.129918;2.44001;-0.978003;0.0207868;0.124261;-0.620727;0.633384;-7.54925;-0.0220534;-0.000404796;0.0949045;0.0949059;-0.0220548;0.0584803;0.232374;4.3034;0.0717609;0.0779738;4.30319;0.232386;89.9012;134.901;0.00956184;-0.0220533;-0.000818355;-3.54137e-05;0.0949042;-0.0183712;-0.00273766;0;0.0712717;-0.106406;-2.32934;-1.59531;2.82527;-8.10895;-0.0186731;-0.000711173;0.0798141;0.0798193;-0.0186782;0.0492488;0.233957;4.27429;0.0604093;0.065665;4.27339;0.234006;87.6407;132.641;0.00746044;-0.0186753;-0.00391688;0.00220216;0.0798073;0.0147576;0.0843643;0;0.0685034;8.35765;6.44401
640000;641;28.2148;2.4598;0.0955076;-2.14006;28.1273;-0.589449;-0.131212;2.45364;-0.971064;0.0207565;0.127943;-0.619576;0.632989;-7.54401;-0.0226719;-0.000118934;0.0953756;0.0953758;-0.022672;0.0590239;0.237712;4.20678;0.0723354;0.0786985;4.20676;0.237713;89.4058;134.406;0.00726108;-0.0226721;-0.0010253;0.000689751;0.0953752;4.96802e-05;-0.00664932;0;0.0799849;-0.107306;-2.33499;-1.59455;2.82954;-8.1082;-0.0188545;-0.000721614;0.080345;0.0803502;-0.0188597;0.049605;0.234669;4.26132;0.0608358;0.06614;4.26041;0.234719;87.5488;132.549;0.00649015;-0.0188569;-0.00405846;0.00230884;0.0803376;0.0136869;0.0867558;0;0.0700749;8.35807;6.45068
641000;642;28.2221;2.46713;0.0957924;-2.14099;28.1345;-0.597884;-0.132137;2.46076;-0.979499;0.0203755;0.131416;-0.616516;0.630696;-7.54942;-0.0226963;-0.000251825;0.0973023;0.0973028;-0.0226968;0.0599998;0.233255;4.28715;0.0736099;0.0799997;4.28707;0.233259;89.3516;134.352;0.00856468;-0.0226965;-0.00135039;0.000726605;0.0973015;0.00116636;-0.0141386;0;0.0880216;-0.108502;-2.34347;-1.59562;2.83718;-8.10927;-0.0186771;-0.000891374;0.0811603;0.0811683;-0.0186851;0.0499267;0.230126;4.34544;0.0612973;0.0665689;4.34401;0.230202;87.9038;132.904;0.00747639;-0.0186786;-0.00397486;0.00190738;0.0811534;0.0139821;0.0822488;0;0.0734408;8.3546;6.45817
642000;643;28.2311;2.47607;0.0961392;-2.14094;28.1433;-0.604396;-0.13209;2.46958;-0.986011;0.0214843;0.13891;-0.628626;0.644149;-7.5595;-0.0228541;-0.000302632;0.0971776;0.0971783;-0.0228548;0.0600166;0.235178;4.25209;0.0735964;0.0800221;4.25198;0.235184;89.4028;134.403;0.0111327;-0.0228542;-0.00135846;0.000637687;0.0971768;-0.00413594;-0.00292438;0;0.0741453;-0.108052;-2.34597;-1.60651;2.84537;-8.12016;-0.0186779;-0.000863681;0.0812752;0.0812826;-0.0186854;0.049984;0.229811;4.3514;0.0613725;0.0666453;4.35006;0.229882;87.424;132.424;0.00621899;-0.0186806;-0.00450622;0.00244215;0.0812661;0.0177845;0.0812775;0;0.065948;8.35494;6.46583
643000;644;28.2489;2.49387;0.0968305;-2.14512;28.1612;-0.588891;-0.136266;2.48745;-0.970506;0.0217995;0.139934;-0.624699;0.640551;-7.55411;-0.022693;-0.000148792;0.0982021;0.0982023;-0.0226932;0.0604477;0.231085;4.32742;0.0741985;0.080597;4.32739;0.231086;89.3577;134.358;0.0180316;-0.0226933;-0.00118073;0.000769547;0.0982015;-0.0207582;-0.00381987;0;0.0674886;-0.109095;-2.35525;-1.59978;2.84928;-8.11342;-0.0189062;-0.000933708;0.0810184;0.0810271;-0.0189149;0.049971;0.233357;4.28528;0.0613036;0.066628;4.28376;0.23344;87.46;132.46;0.00752027;-0.0189086;-0.00455214;0.00235026;0.0810092;0.0182264;0.0778513;0;0.0633445;8.35778;6.47257
644000;645;28.2595;2.50451;0.0972437;-2.14491;28.1719;-0.586874;-0.136055;2.49818;-0.968341;0.0226843;0.148498;-0.632429;0.650025;-7.57273;-0.0216441;-6.58901e-05;0.0970171;0.0970171;-0.0216441;0.0593306;0.223096;4.48238;0.0729707;0.0791075;4.48237;0.223096;88.0898;133.09;0.0175835;-0.0216471;-0.00287306;0.00243764;0.0970133;-0.00790783;0.0041733;0;0.0666688;-0.110453;-2.36234;-1.6055;2.8584;-8.11914;-0.0190401;-0.000869519;0.0808297;0.0808373;-0.0190476;0.0499425;0.235558;4.24524;0.0612363;0.06659;4.24395;0.235629;87.8841;132.884;0.00773517;-0.0190415;-0.00392612;0.00190466;0.0808229;0.0157258;0.0843583;0;0.0652518;8.35585;6.47967
645000;646;28.2691;2.51412;0.0976169;-2.14121;28.1818;-0.5883;-0.132357;2.50807;-0.969768;0.0200259;0.14774;-0.630355;0.647746;-7.55893;-0.0230005;0.000377467;0.0983628;0.098364;-0.0230017;0.0606828;0.233833;4.27655;0.0744374;0.0809104;4.27639;0.233842;88.8558;133.856;0.020122;-0.0230018;-0.00101862;0.00161929;0.0983624;-0.0209238;0.00296451;0;0.0703274;-0.112476;-2.36702;-1.60749;2.86347;-8.12113;-0.0188875;-0.000644033;0.0811206;0.0811247;-0.0188916;0.0500082;0.232832;4.29494;0.0613576;0.0666775;4.29422;0.232871;88.1983;133.198;0.00750379;-0.0188887;-0.00319813;0.00167381;0.081116;0.0201372;0.0857717;0;0.0648405;8.35385;6.48674
646000;647;28.277;2.52196;0.0979213;-2.14184;28.1895;-0.593176;-0.132991;2.51579;-0.974643;0.019977;0.152138;-0.630554;0.648956;-7.56187;-0.0229959;0.000318602;0.0973922;0.097393;-0.0229967;0.0601949;0.236116;4.2352;0.0737984;0.0802598;4.23508;0.236123;88.6471;133.647;0.0179517;-0.0229976;-0.00139418;0.00184349;0.0973913;-0.00979312;0.00281142;0;0.0689008;-0.113275;-2.37313;-1.60947;2.86967;-8.12312;-0.0189686;-0.000738634;0.0812565;0.0812619;-0.018974;0.050118;0.233441;4.28374;0.0614831;0.066824;4.2828;0.233492;88.494;133.494;0.00663675;-0.0189692;-0.00300877;0.00132108;0.0812526;0.0194711;0.0895443;0;0.0641776;8.36053;6.49461
647000;648;28.2898;2.53484;0.0984214;-2.14212;28.2024;-0.59238;-0.133271;2.5287;-0.973995;0.0208713;0.154734;-0.630017;0.649076;-7.55819;-0.0233281;0.000183858;0.098871;0.0988713;-0.0233283;0.0610998;0.235944;4.23829;0.0749111;0.0814664;4.23825;0.235946;88.9848;133.985;0.0151539;-0.023329;-0.00116254;0.00138053;0.0988704;-0.0145359;0.000590352;0;0.0703642;-0.113339;-2.38088;-1.60716;2.87478;-8.1208;-0.0187809;-0.000845398;0.0816306;0.0816377;-0.018788;0.0502129;0.230072;4.34647;0.0616496;0.0669505;4.34521;0.230139;87.7763;132.776;0.00727621;-0.0187827;-0.00406613;0.00207635;0.0816233;0.0155334;0.0868913;0;0.0665007;8.35779;6.50101
648000;649;28.3016;2.54663;0.0988791;-2.14293;28.2141;-0.593506;-0.134081;2.54044;-0.97512;0.0193478;0.158098;-0.632561;0.652306;-7.5557;-0.0236555;-0.00045659;0.0989426;0.0989443;-0.0236572;0.0613007;0.239083;4.18265;0.0751011;0.0817343;4.18243;0.239096;89.3984;134.398;0.0114233;-0.0236555;-0.00163383;0.000589315;0.0989415;-0.0127405;0.00670634;0;0.0791224;-0.115167;-2.38601;-1.61258;2.88214;-8.12622;-0.019063;-0.000889757;0.0819134;0.0819212;-0.0190708;0.050496;0.232721;4.29698;0.0619573;0.067328;4.29563;0.232795;88.0304;133.03;0.00705978;-0.0190642;-0.00383411;0.0017798;0.0819069;0.0126745;0.0864558;0;0.0696265;8.35426;6.50681
649000;650;28.3067;2.55174;0.0990776;-2.13967;28.2193;-0.602933;-0.130818;2.54562;-0.984547;0.0215623;0.16953;-0.63694;0.659468;-7.57762;-0.022195;-0.000998216;0.0988235;0.0988318;-0.0222032;0.0605175;0.224592;4.45251;0.0744016;0.08069;4.45123;0.224657;88.6787;133.679;0.00823229;-0.0221954;-0.00363811;0.00135094;0.098818;-0.00517147;0.00579617;0;0.0711789;-0.115655;-2.39173;-1.61878;2.89037;-8.13243;-0.018902;-0.000999963;0.0824543;0.0824641;-0.0189119;0.050688;0.229243;4.36219;0.0622452;0.067584;4.36044;0.229335;87.8222;132.822;0.00802271;-0.0189035;-0.00430394;0.00199466;0.0824462;0.0112187;0.0832965;0;0.0718841;8.35758;6.51229
650000;651;28.3175;2.5625;0.0994953;-2.14013;28.2302;-0.597375;-0.131282;2.55649;-0.97899;0.0193361;0.16571;-0.636767;0.65826;-7.5599;-0.0236697;-0.00108376;0.0996203;0.0996298;-0.0236792;0.0616545;0.237599;4.20877;0.07556;0.082206;4.20748;0.237672;90.0512;135.051;0.0111183;-0.0236692;-0.0017433;-0.000498164;0.0996195;-0.0135119;0.00536923;0;0.0750717;-0.116715;-2.39875;-1.61999;2.8969;-8.13364;-0.0190056;-0.000970164;0.0829099;0.0829192;-0.0190148;0.050967;0.229231;4.3624;0.062588;0.067956;4.36077;0.229317;87.7813;132.781;0.00761623;-0.0190073;-0.00431951;0.00206397;0.0829017;0.0124093;0.0778993;0;0.0707328;8.3566;6.51711
651000;652;28.3342;2.57921;0.100144;-2.14411;28.2471;-0.578615;-0.135261;2.57335;-0.96023;0.0201629;0.171976;-0.638066;0.661143;-7.56792;-0.0235003;-0.00121447;0.100147;0.100159;-0.0235122;0.0618356;0.234657;4.26153;0.0758349;0.0824475;4.25988;0.234748;90.0465;135.046;0.00841111;-0.0234996;-0.00197429;-0.000540045;0.100146;-0.0166761;-0.0022504;0;0.0754158;-0.116751;-2.40648;-1.61763;2.90199;-8.13128;-0.0192984;-0.000875478;0.0826972;0.0827047;-0.0193059;0.0510053;0.233362;4.28519;0.0625725;0.0680071;4.28391;0.233432;87.4897;132.49;0.00820217;-0.0193009;-0.00448588;0.00239482;0.0826883;0.0126161;0.0785821;0;0.0662755;8.35746;6.5243
652000;653;28.3415;2.5865;0.100427;-2.14426;28.2542;-0.588052;-0.135406;2.58045;-0.969666;0.0185635;0.17662;-0.639097;0.663313;-7.56896;-0.0234173;-0.00190252;0.0999515;0.0999808;-0.0234467;0.0617138;0.234287;4.26827;0.0756898;0.082285;4.26418;0.234512;90.5334;135.533;0.00718661;-0.0234166;-0.00241668;-0.00144602;0.0999505;-0.0163829;-0.00547701;0;0.0731551;-0.119131;-2.41107;-1.62454;2.90973;-8.13818;-0.019294;-0.000945602;0.082592;0.0826007;-0.0193027;0.0509517;0.233606;4.28072;0.062503;0.0679356;4.27923;0.233687;87.8221;132.822;0.00818015;-0.0192955;-0.00419641;0.00199927;0.0825842;0.0151859;0.0793257;0;0.0669649;8.35515;6.53129
653000;654;28.3539;2.59894;0.10091;-2.14632;28.2667;-0.575827;-0.137472;2.59303;-0.957442;0.0209384;0.18167;-0.638922;0.664578;-7.5726;-0.0227156;-0.000556472;0.0986745;0.0986771;-0.0227181;0.0606976;0.230207;4.34391;0.0745208;0.0809301;4.34354;0.230227;89.2562;134.256;0.0152526;-0.0227157;-0.00202309;0.000748105;0.0986728;-0.0246877;-1.52817e-05;0;0.0734908;-0.118494;-2.41903;-1.62096;2.91432;-8.1346;-0.0192442;-0.000847129;0.082728;0.082735;-0.0192513;0.0509931;0.23262;4.29885;0.0625689;0.0679909;4.29764;0.232686;88.1328;133.133;0.007382;-0.0192453;-0.00366474;0.00170513;0.0827221;0.0185983;0.0881877;0;0.0665139;8.35382;6.53887
654000;655;28.364;2.60904;0.101302;-2.14647;28.2769;-0.575061;-0.137614;2.60316;-0.956676;0.0185264;0.185527;-0.640942;0.667511;-7.57462;-0.0228427;-0.00118928;0.0985991;0.0986107;-0.0228544;0.0607325;0.231673;4.31643;0.0745358;0.0809767;4.31474;0.231764;89.6462;134.646;0.0145371;-0.022842;-0.00251861;-6.88655e-06;0.0985968;-0.0157834;-0.00385318;0;0.0649994;-0.121097;-2.42434;-1.62532;2.92126;-8.13896;-0.0192516;-0.000735994;0.0827649;0.0827702;-0.0192569;0.0510135;0.232605;4.29912;0.0625944;0.068018;4.29821;0.232655;88.1858;133.186;0.00825265;-0.0192527;-0.00341531;0.00169089;0.0827597;0.0166914;0.0886572;0;0.0662071;8.35635;6.54618
655000;656;28.3723;2.61726;0.101621;-2.14711;28.2849;-0.582098;-0.138261;2.61121;-0.963713;0.0201744;0.193491;-0.65021;0.678689;-7.58846;-0.0227236;-0.000911503;0.101876;0.101883;-0.0227302;0.0623066;0.22305;4.48329;0.0766308;0.0830755;4.48227;0.223101;89.7196;134.72;0.0157465;-0.0227231;-0.00197657;3.31252e-05;0.101875;-0.0206255;-0.00626929;0;0.0634824;-0.12053;-2.42863;-1.63492;2.93014;-8.14856;-0.0194549;-0.000726044;0.0830494;0.0830546;-0.0194601;0.0512573;0.234257;4.26881;0.0628685;0.0683431;4.26794;0.234305;88.2478;133.248;0.00755574;-0.019456;-0.00332536;0.00162726;0.0830446;0.0165977;0.0925264;0;0.0679046;8.35511;6.55375
656000;657;28.3842;2.62921;0.102086;-2.14883;28.2968;-0.582207;-0.139978;2.62307;-0.963822;0.0188938;0.196132;-0.645476;0.674881;-7.58557;-0.0228197;-0.00110013;0.101653;0.101663;-0.0228294;0.0622462;0.224485;4.45464;0.0765288;0.082995;4.45317;0.224559;89.7757;134.776;0.0163059;-0.0228191;-0.00220786;-0.000117558;0.101652;-0.00586177;-0.00570907;0;0.0735444;-0.123018;-2.43596;-1.63231;2.93487;-8.14596;-0.0191976;-0.000941851;0.083145;0.0831537;-0.0192063;0.05118;0.230893;4.33101;0.0628242;0.06824;4.32951;0.230973;88.3081;133.308;0.00683863;-0.0191983;-0.00363012;0.00149242;0.0831394;0.0147633;0.0888308;0;0.0712235;8.35393;6.56108
657000;658;28.3965;2.64154;0.102564;-2.15106;28.3089;-0.584452;-0.142211;2.63521;-0.966066;0.0190386;0.2013;-0.654001;0.684544;-7.58954;-0.0226264;0.000435063;0.101606;0.101607;-0.0226279;0.0621175;0.222688;4.49058;0.0764058;0.0828233;4.49035;0.2227;88.9123;133.912;0.0191028;-0.0226276;-0.000912416;0.00163058;0.101605;-0.0259726;-0.00384111;0;0.0637217;-0.12371;-2.44043;-1.64307;2.9446;-8.15671;-0.0193796;-0.00101355;0.0839593;0.0839692;-0.0193896;0.0516794;0.230822;4.33235;0.0634382;0.0689059;4.33064;0.230913;87.9893;132.989;0.00734785;-0.0193808;-0.0041655;0.00183791;0.0839518;0.0112719;0.0902372;0;0.0738758;8.35699;6.56845
658000;659;28.4029;2.64789;0.102811;-2.15118;28.3151;-0.595104;-0.142325;2.64135;-0.976718;0.0188314;0.201403;-0.642725;0.673805;-7.57879;-0.0231094;-7.65952e-05;0.102565;0.102565;-0.0231094;0.0628371;0.225315;4.43824;0.0772408;0.0837828;4.43823;0.225315;89.2402;134.24;0.0118917;-0.0231099;-0.00129203;0.0010003;0.102564;-0.0124728;-0.00409242;0;0.0758776;-0.123996;-2.45023;-1.63048;2.94576;-8.14412;-0.0191854;-0.00108504;0.084435;0.0844463;-0.0191968;0.0518216;0.227221;4.401;0.0636686;0.0690954;4.39898;0.227325;88.0553;133.055;0.00714149;-0.0191864;-0.00423624;0.00176506;0.0844272;0.0123921;0.0878424;0;0.0732571;8.35734;6.57582
659000;660;28.4204;2.66544;0.103492;-2.15608;28.3326;-0.581713;-0.147223;2.65886;-0.963327;0.0174123;0.205751;-0.651661;0.683592;-7.58267;-0.0239707;0.000356284;0.104999;0.105;-0.0239717;0.0644861;0.228294;4.38032;0.0792094;0.0859814;4.38018;0.228301;89.3958;134.396;0.0135412;-0.0239711;-0.000340599;0.00097183;0.104999;-0.0138209;0.00664884;0;0.0833865;-0.126365;-2.45531;-1.64101;2.95591;-8.15465;-0.019757;-0.00100591;0.0846187;0.0846284;-0.0197666;0.0521975;0.233482;4.28299;0.064033;0.0695967;4.28138;0.23357;87.3411;132.341;0.00837796;-0.0197598;-0.0049659;0.00257302;0.0846078;0.00795066;0.083801;0;0.0711179;8.35365;6.58134
660000;661;28.4316;2.67664;0.103927;-2.15795;28.3438;-0.577274;-0.149102;2.67005;-0.958888;0.0185212;0.214628;-0.65813;0.69249;-7.60005;-0.0234172;0.000420788;0.10312;0.103121;-0.0234186;0.0632698;0.227088;4.40358;0.0777384;0.0843597;4.40338;0.227098;88.506;133.506;0.0145042;-0.0234196;-0.00158085;0.00219282;0.103119;-0.00723645;0.00728187;0;0.0720854;-0.127271;-2.4605;-1.64785;2.96406;-8.1615;-0.0198696;-0.00104883;0.0842479;0.0842585;-0.0198801;0.0520693;0.235846;4.24005;0.0638393;0.0694258;4.23833;0.235942;87.6029;132.603;0.0077684;-0.0198716;-0.00468598;0.00223906;0.0842383;0.0128983;0.0842441;0;0.0697303;8.35362;6.58465
661000;662;28.4407;2.68565;0.104277;-2.15608;28.3527;-0.590572;-0.147231;2.67895;-0.972187;0.0184335;0.216991;-0.661811;0.69672;-7.59395;-0.0240424;0.000449337;0.104973;0.104974;-0.024044;0.0645091;0.229035;4.36615;0.0792232;0.0860121;4.36593;0.229046;89.1122;134.112;0.013214;-0.0240433;-0.000625096;0.00139832;0.104973;-0.0151268;0.00032308;0;0.0806766;-0.127396;-2.46676;-1.64775;2.96921;-8.16139;-0.0196686;-0.000958435;0.0841435;0.0841523;-0.0196774;0.0519149;0.233751;4.27806;0.0636823;0.0692198;4.27659;0.233831;87.7854;132.785;0.00791647;-0.0196703;-0.00431628;0.00207789;0.0841353;0.0126009;0.0880037;0;0.0703308;8.35541;6.59022
662000;663;28.4513;2.69634;0.104692;-2.15556;28.3633;-0.597794;-0.146711;2.68957;-0.979409;0.0181003;0.218496;-0.658576;0.694111;-7.58531;-0.023998;-0.000156849;0.105656;0.105656;-0.0239982;0.0648273;0.227133;4.40271;0.0796513;0.0864364;4.40268;0.227134;89.3776;134.378;0.0185547;-0.0239983;-0.00124701;0.000805472;0.105655;-0.0246937;-0.00829558;0;0.0777032;-0.128251;-2.4737;-1.65072;2.97666;-8.16437;-0.0197171;-0.000932771;0.0843206;0.0843289;-0.0197255;0.0520272;0.233835;4.27652;0.0638188;0.0693696;4.27513;0.233911;87.8661;132.866;0.00703622;-0.0197187;-0.00417937;0.00200233;0.0843129;0.0171151;0.0944989;0;0.0684813;8.35487;6.59694
663000;664;28.4598;2.70481;0.105021;-2.15601;28.3718;-0.59411;-0.147153;2.69811;-0.975725;0.019374;0.221516;-0.651995;0.68887;-7.58266;-0.0242583;-0.000748959;0.105239;0.105243;-0.0242626;0.0647529;0.230507;4.33826;0.0794936;0.0863372;4.33767;0.230539;89.645;134.645;0.0151114;-0.024258;-0.00182128;0.000197726;0.105238;-0.00831735;0.00332349;0;0.0778992;-0.128284;-2.48047;-1.64569;2.97951;-8.15934;-0.0197501;-0.00079497;0.0843421;0.0843482;-0.0197561;0.0520522;0.234166;4.27047;0.0638447;0.0694029;4.26947;0.234221;88.0807;133.081;0.00863543;-0.0197514;-0.00368283;0.00181567;0.0843362;0.0164021;0.0893168;0;0.0679606;8.35385;6.60333
664000;665;28.4728;2.71777;0.105524;-2.15525;28.3848;-0.595551;-0.146401;2.71113;-0.977165;0.0178791;0.230393;-0.664815;0.703832;-7.59695;-0.0239788;-0.000899732;0.10408;0.104086;-0.0239851;0.0640357;0.230388;4.3405;0.0786151;0.085381;4.33962;0.230435;89.5226;134.523;0.0153649;-0.0239784;-0.00225837;0.000301319;0.104078;-0.00890227;0.00790115;0;0.0731319;-0.13001;-2.48532;-1.65618;2.98943;-8.16982;-0.0197572;-0.00108204;0.084413;0.0844243;-0.0197685;0.0520964;0.234054;4.27251;0.0638999;0.0694618;4.27065;0.234156;88.3005;133.301;0.00713631;-0.0197577;-0.00389618;0.00146177;0.0844066;0.0147974;0.0900488;0;0.0724907;8.35374;6.61094
665000;666;28.4839;2.72893;0.105957;-2.15752;28.3959;-0.59253;-0.14867;2.72222;-0.974145;0.0177156;0.228712;-0.648633;0.688003;-7.58077;-0.0241656;-0.000628118;0.103663;0.103667;-0.0241687;0.0639176;0.233116;4.28972;0.0784187;0.0852235;4.2893;0.233138;89.5744;134.574;0.0135633;-0.0241654;-0.00171121;0.000329527;0.103662;-0.00710658;0.00627962;0;0.0807002;-0.131969;-2.49781;-1.63879;2.99033;-8.15244;-0.0196935;-0.00119076;0.0847262;0.0847397;-0.0197071;0.0522234;0.232438;4.30223;0.0640804;0.0696312;4.29996;0.232561;88.1612;133.161;0.00758078;-0.0196941;-0.00426711;0.00158946;0.0847184;0.0109873;0.0915346;0;0.0761201;8.35377;6.61754
666000;667;28.4893;2.73425;0.106164;-2.15553;28.4011;-0.60661;-0.146676;2.72741;-0.988225;0.0194376;0.235144;-0.664506;0.705152;-7.59268;-0.024003;-0.00045869;0.105425;0.105426;-0.0240046;0.0647154;0.227679;4.39214;0.079503;0.0862873;4.39191;0.227691;89.7589;134.759;0.0173973;-0.0240029;-0.00115649;0.000157409;0.105424;-0.0181327;0.00456896;0;0.0808377;-0.132408;-2.50201;-1.65203;3.00113;-8.16567;-0.0196912;-0.00101433;0.0854787;0.0854885;-0.019701;0.0525947;0.230364;4.34096;0.064569;0.0701263;4.3393;0.230452;88.1585;133.159;0.00813437;-0.0196921;-0.0040054;0.00168695;0.0854718;0.00866001;0.0832294;0;0.0757914;8.3499;6.62507
667000;668;;;;;;;;;;0.0177466;0.23673;-0.655313;0.696988;-7.58115;-0.0243001;-0.000548823;0.103795;0.103798;-0.0243024;0.0640501;0.234115;4.2714;0.0785624;0.0854001;4.27109;0.234133;89.9402;134.94;0.0103909;-0.0242999;-0.0010164;-0.000135505;0.103795;-0.0150501;0.0051366;0;0.0903501;-0.132927;-2.50692;-1.65367;3.00615;-8.16732;-0.0201033;-0.00105633;0.0857645;0.085775;-0.0201139;0.0529444;0.234402;4.26618;0.0649348;0.0705926;4.26447;0.234496;87.4413;132.441;0.00862467;-0.0201059;-0.00496768;0.00247366;0.0857536;0.00874766;0.0814349;0;0.0729664;8.35073;6.63281
668000;669;28.5063;2.75134;0.106827;-2.15563;28.4183;-0.60627;-0.146777;2.74455;-0.987884;0.0177508;0.241142;-0.659966;0.702865;-7.58814;-0.0240959;-0.0013047;0.104532;0.104545;-0.0241092;0.0643272;0.230513;4.33816;0.0789697;0.0857696;4.33633;0.23061;90.2515;135.251;0.0142678;-0.0240954;-0.0018158;-0.000853122;0.104531;-0.0103266;0.00466989;0;0.0845627;-0.133559;-2.51346;-1.65325;3.0114;-8.1669;-0.0200412;-0.00130207;0.0859463;0.0859623;-0.0200572;0.0530097;0.233183;4.28849;0.0650332;0.0706797;4.28586;0.233325;87.8128;132.813;0.00810138;-0.0200423;-0.0049261;0.00196827;0.0859359;0.0104978;0.0803993;0;0.0733697;8.35035;6.64019
669000;670;;;;;;;;;;0.0193191;0.24845;-0.655905;0.70165;-7.59549;-0.0236701;-0.00104532;0.103729;0.103737;-0.0236787;0.0637081;0.228192;4.38228;0.0782546;0.0849441;4.38105;0.228256;89.5454;134.545;0.0215134;-0.0236696;-0.00247192;0.000216618;0.103727;-0.0186092;0.00111594;0;0.0667971;-0.134871;-2.52199;-1.6514;3.01758;-8.16504;-0.0203019;-0.000897924;0.0856059;0.0856135;-0.0203095;0.0529615;0.237155;4.21665;0.0649133;0.0706153;4.21545;0.237223;87.9287;132.929;0.00821142;-0.0203034;-0.00407064;0.00196528;0.0855986;0.0138618;0.0865461;0;0.0722504;8.35056;6.64686
670000;671;;;;;;;;;;0.0175868;0.252322;-0.664056;0.710595;-7.5993;-0.0223225;-0.00085064;0.0950376;0.0950437;-0.0223286;0.0586862;0.23488;4.25749;0.0719694;0.0782482;4.25659;0.23493;88.5998;133.6;0.041101;-0.0223231;-0.00337718;0.00140512;0.0950327;-0.0571311;0.07004;0;0.077531;-0.137835;-2.52713;-1.65404;3.02345;-8.16768;-0.0202775;-0.00113049;0.0854064;0.0854185;-0.0202896;0.052854;0.237423;4.21189;0.0647769;0.0704721;4.20997;0.237531;88.2713;133.271;0.0068579;-0.020278;-0.00402617;0.00148325;0.0853996;0.0156109;0.09136;0;0.0700802;8.34766;6.65402
671000;672;28.5438;2.78878;0.108281;-2.16312;28.4555;-0.594099;-0.154271;2.7818;-0.975713;0.01763;0.25861;-0.667191;0.715775;-7.60281;-0.0238349;-0.00068131;0.105879;0.105882;-0.0238385;0.0648604;0.225115;4.44217;0.0797313;0.0864806;4.44165;0.225142;89.5895;134.59;0.0146573;-0.0238348;-0.00180812;0.000313333;0.105878;-0.0121366;-0.00310668;0;0.0773181;-0.136589;-2.53178;-1.66731;3.03455;-8.18095;-0.0201317;-0.000829317;0.0858153;0.0858218;-0.0201382;0.05298;0.234594;4.26269;0.064976;0.07064;4.26164;0.234652;88.1464;133.146;0.00758553;-0.020133;-0.00370137;0.0017625;0.0858093;0.0167022;0.0952234;0;0.0716618;8.34676;6.6593
672000;673;28.5546;2.79956;0.1087;-2.1645;28.4662;-0.594406;-0.155645;2.7925;-0.97602;0.0191566;0.261647;-0.664537;0.714448;-7.60015;-0.0237325;-0.000766598;0.106807;0.106812;-0.023737;0.0652745;0.222199;4.50047;0.0802984;0.0870326;4.49981;0.222232;89.6853;134.685;0.0178514;-0.0237322;-0.00181174;0.000155275;0.106806;-0.025578;-0.00611245;0;0.0786473;-0.136845;-2.53952;-1.66557;3.04007;-8.17922;-0.0200459;-0.000728639;0.0856151;0.0856201;-0.0200509;0.0528355;0.23414;4.27096;0.0648061;0.0704474;4.27014;0.234185;88.2042;133.204;0.00808046;-0.0200472;-0.00345611;0.00173338;0.0856098;0.0145974;0.0923419;0;0.069786;8.3475;6.66305
673000;674;28.5655;2.81045;0.109123;-2.1655;28.477;-0.595005;-0.156652;2.80334;-0.976619;0.0173499;0.266405;-0.666972;0.718418;-7.60064;-0.0240329;-0.000565271;0.107967;0.10797;-0.0240353;0.0660024;0.222594;4.49248;0.0811862;0.0880033;4.49213;0.222612;89.825;134.825;0.0160911;-0.0240327;-0.00124757;3.57421e-05;0.107967;-0.0242525;-0.00419099;0;0.0769966;-0.138468;-2.54462;-1.66559;3.04441;-8.17923;-0.0197713;-0.00111867;0.0858685;0.0858803;-0.0197831;0.0528317;0.230251;4.34309;0.0648615;0.0704423;4.34109;0.230357;88.4035;133.403;0.00674498;-0.0197716;-0.00388425;0.00137786;0.0858621;0.0154508;0.0951217;0;0.0733374;8.34634;6.66927
674000;675;28.5792;2.82421;0.109657;-2.16782;28.4906;-0.597793;-0.158966;2.8169;-0.979408;0.0176085;0.270048;-0.672338;0.724758;-7.60601;-0.0243273;0.000347777;0.108498;0.108499;-0.0243282;0.0664138;0.224218;4.45994;0.0816593;0.0885517;4.45981;0.224225;89.1533;134.153;0.0170098;-0.0243282;-0.000787029;0.0013466;0.108498;-0.027659;0.000116781;0;0.0777166;-0.139513;-2.55192;-1.67305;3.05464;-8.18669;-0.0198165;-0.00129066;0.0868453;0.0868609;-0.0198322;0.0533465;0.228182;4.38246;0.0655261;0.0711287;4.3798;0.228321;88.427;133.427;0.00801991;-0.0198166;-0.00417836;0.00131366;0.086838;0.0110382;0.088632;0;0.0752299;8.34585;6.67641
675000;676;28.5844;2.82942;0.109859;-2.16696;28.4957;-0.609499;-0.158112;2.82195;-0.991113;0.0185984;0.279449;-0.675513;0.731269;-7.61575;-0.0243148;0.00042867;0.108743;0.108744;-0.0243162;0.0665301;0.223599;4.47229;0.0818149;0.0887068;4.47209;0.223609;88.2674;133.267;0.0183015;-0.0243183;-0.00210307;0.00265658;0.108741;-0.0179785;-6.679e-05;0;0.0709593;-0.140163;-2.55668;-1.67629;3.06042;-8.18993;-0.0199495;-0.00103396;0.0870641;0.0870741;-0.0199594;0.0535168;0.229135;4.36424;0.0657207;0.0713557;4.36255;0.229224;88.3769;133.377;0.00763086;-0.01995;-0.00381116;0.00146985;0.087058;0.0105019;0.0870081;0;0.0743418;8.34419;6.68397
676000;677;28.5944;2.83938;0.110246;-2.16817;28.5054;-0.615677;-0.159317;2.83171;-0.997292;0.0155902;0.280255;-0.664587;0.721431;-7.6024;-0.0245062;0.000784978;0.107964;0.107968;-0.0245108;0.0662396;0.226986;4.40557;0.0813889;0.0883195;4.40492;0.227019;88.2178;133.218;0.0155815;-0.02451;-0.00154545;0.00283678;0.107963;-0.0139336;0.00864367;0;0.0759656;-0.143509;-2.56394;-1.66829;3.06228;-8.18193;-0.0205556;-0.00134485;0.0872488;0.0872656;-0.0205724;0.053919;0.235597;4.24453;0.0661102;0.071892;4.24188;0.235744;87.9768;132.977;0.00833653;-0.0205563;-0.00482083;0.00178648;0.0872389;0.00896943;0.0846272;0;0.0753118;8.34449;6.69149
677000;678;28.6162;2.86115;0.111091;-2.1738;28.5273;-0.593641;-0.164948;2.85359;-0.975255;0.0169827;0.286847;-0.67633;0.734841;-7.61549;-0.0249099;0.000450667;0.109927;0.109929;-0.0249114;0.0674201;0.226604;4.41299;0.0828476;0.0898935;4.41279;0.226614;88.8033;133.803;0.0134102;-0.0249117;-0.00120557;0.0019057;0.109927;-0.0154029;-0.000712048;0;0.0728823;-0.143002;-2.56824;-1.68029;3.07241;-8.19394;-0.0205956;-0.00142972;0.0874819;0.0875008;-0.0206145;0.0540577;0.235427;4.2476;0.0662827;0.0720769;4.24462;0.235592;87.4548;132.455;0.00774894;-0.0205974;-0.00564243;0.00236435;0.0874682;0.00879973;0.0943024;0;0.0724797;8.34544;6.69907
678000;679;28.6243;2.86926;0.111406;-2.17046;28.5356;-0.596424;-0.161605;2.86192;-0.978039;0.0184689;0.291184;-0.678928;0.738967;-7.61533;-0.0250401;0.000100699;0.109429;0.109429;-0.0250402;0.0672347;0.228825;4.37015;0.082575;0.0896463;4.37014;0.228825;89.1327;134.133;0.0161617;-0.025041;-0.00124686;0.00128492;0.109428;-0.0188271;-0.00182363;0;0.0824011;-0.141312;-2.57566;-1.67841;3.07751;-8.19206;-0.0203414;-0.000948216;0.0867234;0.0867318;-0.0203498;0.0535408;0.234555;4.2634;0.0656641;0.0713877;4.26205;0.234629;87.97;132.97;0.00693962;-0.0203428;-0.00415177;0.00193973;0.0867159;0.0141239;0.0905016;0;0.0702416;8.34622;6.70592
679000;680;28.6337;2.87871;0.111773;-2.16979;28.545;-0.604993;-0.160936;2.87127;-0.986608;0.0168467;0.297294;-0.684549;0.746508;-7.62145;-0.0250639;0.000130951;0.10969;0.10969;-0.025064;0.0673772;0.228497;4.37643;0.0827566;0.0898363;4.37641;0.228498;88.8909;133.891;0.0155137;-0.0250653;-0.00159646;0.0016486;0.109689;-0.0137356;-0.00420965;0;0.0765276;-0.144234;-2.58073;-1.68668;3.08639;-8.20032;-0.0205265;-0.00114004;0.0868364;0.0868485;-0.0205386;0.0536935;0.236381;4.23046;0.0658221;0.0715914;4.22856;0.236487;88.039;133.039;0.00642654;-0.0205274;-0.00438092;0.00178071;0.0868282;0.015877;0.0942487;0;0.0704339;8.34647;6.7134
680000;681;28.6435;2.88854;0.112155;-2.17027;28.5548;-0.604827;-0.161418;2.8811;-0.986441;0.0168488;0.296159;-0.674003;0.736393;-7.60632;-0.0251605;-0.00107988;0.109076;0.109084;-0.0251691;0.0671268;0.23067;4.3352;0.082404;0.0895024;4.33405;0.230731;89.7614;134.761;0.0152195;-0.0251599;-0.00221626;-8.10466e-05;0.109074;-0.00830437;-0.00611413;0;0.0770336;-0.144732;-2.58999;-1.67616;3.08844;-8.1898;-0.0207279;-0.000894824;0.0867768;0.0867843;-0.0207353;0.0537598;0.238864;4.18648;0.0658651;0.0716797;4.18534;0.238929;88.2742;133.274;0.0071735;-0.0207288;-0.00366001;0.00159683;0.0867711;0.0164318;0.0929515;0;0.0720043;8.34316;6.7201
681000;682;28.6586;2.90358;0.112738;-2.17434;28.5699;-0.591142;-0.165491;2.89616;-0.972756;0.0172561;0.301056;-0.675798;0.740024;-7.60857;-0.0254419;-0.000148407;0.109262;0.109263;-0.0254421;0.0673524;0.232852;4.29458;0.0826384;0.0898031;4.29456;0.232853;89.2619;134.262;0.015428;-0.0254424;-0.00144893;0.000994189;0.109262;-0.012532;-0.00369576;0;0.0724885;-0.145777;-2.59627;-1.68195;3.09691;-8.19559;-0.0204996;-0.00104525;0.0867648;0.086775;-0.0205098;0.0536424;0.236266;4.23251;0.0657615;0.0715232;4.23091;0.236356;88.0803;133.08;0.00773783;-0.0205006;-0.00416794;0.00176924;0.0867573;0.0141478;0.095072;0;0.0748627;8.34213;6.72741
682000;683;28.6683;2.91327;0.113115;-2.17242;28.5796;-0.599829;-0.163565;2.90585;-0.981444;0.0169515;0.306233;-0.680425;0.746354;-7.61446;-0.0256537;-0.000933937;0.107922;0.107929;-0.0256602;0.0667945;0.237705;4.20689;0.0818577;0.0890593;4.20607;0.237751;89.8716;134.872;0.0196529;-0.0256532;-0.00177559;-0.000193752;0.107921;-0.0116473;-0.00689349;0;0.0715462;-0.147295;-2.60343;-1.68511;3.1047;-8.19876;-0.0201381;-0.00120101;0.0871724;0.0871858;-0.0201516;0.0536687;0.231015;4.32873;0.0658766;0.0715583;4.32651;0.231133;88.5196;133.52;0.00777342;-0.0201382;-0.00390466;0.00123579;0.0871661;0.0128396;0.0909962;0;0.0780202;8.34355;6.73208
683000;684;28.6793;2.92433;0.113544;-2.17237;28.5906;-0.601975;-0.163514;2.9169;-0.98359;0.0163573;0.306105;-0.674929;0.741281;-7.60221;-0.0248765;-0.00133715;0.10877;0.108783;-0.0248899;0.0668367;0.228707;4.3724;0.0820865;0.0891156;4.37059;0.228802;90.2901;135.29;0.0128173;-0.024876;-0.00179674;-0.000932958;0.108769;-0.0159978;-0.00814201;0;0.0861983;-0.147329;-2.61167;-1.6844;3.11123;-8.19804;-0.0203673;-0.00107608;0.0878598;0.0878705;-0.020378;0.0541243;0.231815;4.31378;0.0664233;0.0721657;4.31204;0.231909;88.054;133.054;0.00845416;-0.0203684;-0.00430853;0.00183478;0.0878518;0.0123232;0.0866226;0;0.0777248;8.34327;6.73599
684000;685;28.688;2.93297;0.11388;-2.17347;28.5992;-0.603624;-0.164621;2.92545;-0.985238;0.0160102;0.313629;-0.684838;0.753407;-7.61584;-0.0252144;-0.000669919;0.109318;0.109322;-0.0252177;0.0672697;0.230651;4.33556;0.0825806;0.0896929;4.33511;0.230674;90.2494;135.249;0.0141701;-0.0252143;-0.000728345;-0.00061858;0.109318;-0.0204379;-0.00627011;0;0.0839702;-0.149241;-2.61516;-1.69665;3.12088;-8.21029;-0.0206941;-0.00138209;0.0883517;0.0883692;-0.0207116;0.0545404;0.234224;4.26941;0.0668941;0.0727206;4.26665;0.234376;88.2571;133.257;0.00798753;-0.0206943;-0.0045634;0.00148049;0.088343;0.0109944;0.087807;0;0.0771848;8.33995;6.74354
685000;686;28.6997;2.94473;0.114336;-2.17394;28.611;-0.600143;-0.165088;2.93728;-0.981757;0.0163922;0.321093;-0.689822;0.761068;-7.62215;-0.0255324;-0.00087285;0.109838;0.109844;-0.025538;0.067691;0.232454;4.30192;0.0830611;0.0902546;4.30119;0.232494;90.0994;135.099;0.0178584;-0.0255321;-0.00131379;-0.00048569;0.109838;-0.0150693;-0.00203776;0;0.0857427;-0.149969;-2.62199;-1.69728;3.12699;-8.21093;-0.0209059;-0.00158692;0.0887633;0.0887863;-0.0209289;0.0548576;0.235524;4.24584;0.0672614;0.0731435;4.24228;0.235722;87.9729;132.973;0.00616237;-0.0209062;-0.00528247;0.0017364;0.0887517;0.0116543;0.0955108;0;0.073;8.34056;6.74984
686000;687;28.7118;2.95681;0.114805;-2.17639;28.623;-0.594897;-0.167542;2.94933;-0.976512;0.0183008;0.330735;-0.703409;0.777499;-7.6378;-0.0248235;-1.71034e-05;0.109861;0.109861;-0.0248235;0.067342;0.225955;4.42567;0.0827652;0.0897894;4.42567;0.225955;90.0104;135.01;0.0175159;-0.0248235;-1.19273e-05;-2.16513e-05;0.109861;-0.0164026;-0.00530034;0;0.0813776;-0.149629;-2.62464;-1.70916;3.13565;-8.2228;-0.0208007;-0.00141697;0.0886903;0.0887087;-0.0208191;0.0547639;0.234532;4.26381;0.0671631;0.0730185;4.26093;0.23469;87.725;132.725;0.00693016;-0.020802;-0.00532314;0.00209636;0.0886782;0.0104585;0.0973375;0;0.0717974;8.33717;6.75856
687000;688;28.7199;2.96494;0.115121;-2.17595;28.6311;-0.601503;-0.167094;2.95738;-0.983117;0.0174653;0.33152;-0.690207;0.765896;-7.626;-0.0246837;0.000191764;0.109894;0.109894;-0.024684;0.067289;0.224614;4.45208;0.0827274;0.0897187;4.45204;0.224616;89.139;134.139;0.0217214;-0.0246846;-0.00109503;0.00132253;0.109893;-0.0250192;-0.0119925;0;0.0709415;-0.150812;-2.63552;-1.70062;3.14019;-8.21426;-0.0209997;-0.00102946;0.0876894;0.0876991;-0.0210095;0.0543543;0.239479;4.17574;0.0665834;0.0724724;4.17427;0.239563;87.9145;132.914;0.00691916;-0.0210012;-0.00436657;0.0019742;0.0876811;0.0167515;0.0950782;0;0.0726704;8.33561;6.76461
688000;689;28.7344;2.97942;0.115683;-2.18039;28.6453;-0.600373;-0.171537;2.97158;-0.981987;0.0156137;0.337067;-0.691852;0.769751;-7.62624;-0.025177;0.000550269;0.111981;0.111983;-0.0251792;0.0685813;0.224832;4.44777;0.0843114;0.0914417;4.44746;0.224847;89.1855;134.185;0.0175436;-0.0251778;-0.000434837;0.00141387;0.111981;-0.0200478;-0.00828283;0;0.0796051;-0.15308;-2.63963;-1.70157;3.14427;-8.21521;-0.0211023;-0.000850703;0.0877335;0.0877402;-0.0211089;0.0544245;0.240527;4.15754;0.0666534;0.0725661;4.15654;0.240585;87.6557;132.656;0.00750194;-0.0211047;-0.00439438;0.00233841;0.087725;0.0135365;0.0956561;0;0.0719408;8.3356;6.77208
689000;690;28.7459;2.99086;0.116127;-2.18261;28.6566;-0.600182;-0.173759;2.98289;-0.981797;0.0158441;0.340933;-0.695916;0.775104;-7.63031;-0.0250498;0.000869714;0.111127;0.111133;-0.0250553;0.0680941;0.225415;4.43627;0.0836999;0.0907922;4.4355;0.225453;89.0683;134.068;0.0203941;-0.0250508;-7.49086e-05;0.00169857;0.111128;-0.0208372;-0.00136952;0;0.0711968;-0.154181;-2.64869;-1.70167;3.15199;-8.21532;-0.0207921;-0.0011042;0.0875278;0.087539;-0.0208034;0.0541712;0.237549;4.20966;0.0663893;0.0722282;4.20793;0.237647;88.1311;133.131;0.00714976;-0.020793;-0.00421929;0.00170062;0.0875201;0.0177977;0.0958706;0;0.0738454;8.33341;6.77904
690000;691;28.7625;3.00745;0.116771;-2.18512;28.6732;-0.595121;-0.176271;2.99945;-0.976735;0.0161421;0.346029;-0.696277;0.777688;-7.62993;-0.0259861;0.00101337;0.112511;0.112518;-0.0259935;0.069256;0.230965;4.32967;0.0850119;0.0923413;4.32872;0.231015;88.5495;133.55;0.00713157;-0.0259888;-0.000720006;0.00253096;0.112511;-0.0061805;-0.00257888;0;0.0864737;-0.153684;-2.65534;-1.70445;3.15905;-8.2181;-0.0206909;-0.00113897;0.088039;0.088051;-0.0207028;0.0543769;0.235019;4.25497;0.0666816;0.0725025;4.25309;0.235123;88.0458;133.046;0.00873973;-0.0206919;-0.00441482;0.00180953;0.0880307;0.0129048;0.0933089;0;0.076359;8.33165;6.78725
691000;692;28.7702;3.01518;0.117072;-2.18385;28.6806;-0.612559;-0.174996;3.00694;-0.994174;0.0196969;0.354782;-0.700445;0.785418;-7.64233;-0.0248694;0.00116535;0.112315;0.112325;-0.0248793;0.0686022;0.221425;4.5162;0.0844076;0.0914695;4.5148;0.221494;88.1883;133.188;0.0131163;-0.0248738;-0.00108572;0.00313879;0.112315;-0.0173296;-0.00829452;0;0.0664133;-0.152386;-2.66;-1.71241;3.1672;-8.22605;-0.0203485;-0.00105052;0.0886959;0.088706;-0.0203586;0.0545323;0.229418;4.35885;0.0669632;0.0727097;4.35718;0.229506;88.6673;133.667;0.00884144;-0.0203486;-0.00350174;0.0011552;0.0886907;0.0124239;0.0882681;0;0.078047;8.33051;6.7944
692000;693;28.7819;3.02686;0.117525;-2.18476;28.6923;-0.611331;-0.17591;3.0186;-0.992946;0.0162269;0.355151;-0.693131;0.77899;-7.63088;-0.0259119;0.000480473;0.111069;0.11107;-0.0259136;0.0684919;0.233297;4.28639;0.0840273;0.0913225;4.28618;0.233308;88.9884;133.988;0.00952796;-0.0259132;-0.000858558;0.00165442;0.111068;-0.0155496;-0.000884006;0;0.0856746;-0.156048;-2.66861;-1.70642;3.17138;-8.22006;-0.0211523;-0.00123966;0.0888624;0.0888763;-0.0211662;0.0550213;0.238034;4.20108;0.067423;0.0733617;4.19897;0.238154;87.7577;132.758;0.00855377;-0.0211537;-0.0049689;0.0021128;0.0888517;0.00777713;0.0897711;0;0.0755439;8.32918;6.80152
693000;694;28.7932;3.03816;0.117964;-2.18282;28.7039;-0.607774;-0.173963;3.03017;-0.989388;0.0145068;0.360875;-0.697297;0.785279;-7.63388;-0.0258604;0.000441968;0.110904;0.110905;-0.0258618;0.0683834;0.233179;4.28856;0.0838967;0.0911779;4.28838;0.233189;88.9936;133.994;0.00979173;-0.0258616;-0.000912582;0.00162976;0.110903;-0.0111935;-0.0104339;0;0.0810277;-0.158549;-2.67463;-1.70784;3.17734;-8.22148;-0.0212503;-0.00135648;0.0888059;0.0888226;-0.021267;0.0550448;0.239289;4.17904;0.0674314;0.0733931;4.17654;0.239433;88.0501;133.05;0.00697765;-0.0212509;-0.00477638;0.00171776;0.0887963;0.0146864;0.0895075;0;0.0761614;8.32917;6.80848
694000;695;28.8094;3.0544;0.118594;-2.18579;28.7202;-0.594116;-0.176941;3.04652;-0.975731;0.0151668;0.368089;-0.708887;0.7989;-7.64547;-0.025903;0.000277345;0.112304;0.112305;-0.0259035;0.0691041;0.23065;4.33557;0.084833;0.0921388;4.3355;0.230654;89.1341;134.134;0.00637683;-0.0259039;-0.000982578;0.00138072;0.112304;-0.00246227;-0.0130899;0;0.08645;-0.159674;-2.6794;-1.71921;3.18753;-8.23286;-0.02153;-0.00133509;0.0887359;0.0887521;-0.0215461;0.0551491;0.24263;4.12151;0.0675062;0.0735321;4.11917;0.242768;87.5429;132.543;0.00837522;-0.0215318;-0.00537576;0.00229636;0.0887235;0.0104817;0.088311;0;0.0749833;8.32481;6.81231
695000;696;28.8192;3.06419;0.118974;-2.18486;28.7301;-0.59606;-0.176013;3.05637;-0.977675;0.0164371;0.376376;-0.709441;0.803265;-7.65383;-0.0254521;-0.000850184;0.111512;0.111518;-0.0254574;0.0684876;0.228245;4.38127;0.0841249;0.0913168;4.38056;0.228281;89.3484;134.348;0.00500918;-0.0254519;-0.00253258;0.0006249;0.11151;0.00152592;-0.0113479;0;0.0787713;-0.159554;-2.68557;-1.71796;3.19204;-8.2316;-0.0212626;-0.00154913;0.0893405;0.0893622;-0.0212843;0.0553232;0.237995;4.20177;0.0677926;0.0737643;4.1985;0.23818;87.9932;132.993;0.00706204;-0.0212629;-0.00519729;0.00172863;0.0893292;0.0136903;0.0974827;0;0.0741081;8.32725;6.81698
696000;697;28.83;3.07498;0.119393;-2.1843;28.741;-0.590779;-0.175449;3.06734;-0.972394;0.0145411;0.377237;-0.710894;0.804916;-7.64296;-0.0258813;-0.000912478;0.112153;0.112159;-0.0258874;0.0690231;0.230769;4.33334;0.0847303;0.0920308;4.33257;0.23081;89.6117;134.612;0.00469465;-0.0258809;-0.00219728;0.000212864;0.112151;-0.00381579;-0.0235875;0;0.0822784;-0.1616;-2.69061;-1.72105;3.19805;-8.2347;-0.0213755;-0.00122331;0.0883485;0.0883622;-0.0213891;0.0548756;0.241945;4.13318;0.0671825;0.0731675;4.13118;0.242062;87.6049;132.605;0.00615036;-0.0213773;-0.00509803;0.00226079;0.0883373;0.0161876;0.0951727;0;0.0736054;8.32467;6.82413
697000;698;28.8402;3.08517;0.119789;-2.18385;28.7513;-0.592317;-0.175002;3.07757;-0.973932;0.015308;0.384229;-0.712148;0.809334;-7.65058;-0.0258891;3.59013e-05;0.108757;0.108757;-0.0258891;0.0673229;0.238046;4.20086;0.0824995;0.0897638;4.20086;0.238047;89.1025;134.102;0.00893324;-0.02589;-0.00137937;0.00127931;0.108756;-0.0129578;-0.0134759;0;0.0836386;-0.161497;-2.69803;-1.7199;3.20367;-8.23354;-0.0213299;-0.00118547;0.0884245;0.0884373;-0.0213427;0.05489;0.241222;4.14556;0.0672116;0.0731867;4.14367;0.241332;87.6366;132.637;0.00809395;-0.0213318;-0.00500088;0.00224521;0.0884136;0.0154226;0.0998842;0;0.0716868;8.32422;6.83114
698000;699;28.8502;3.09516;0.120177;-2.18383;28.7612;-0.598944;-0.174975;3.08745;-0.980558;0.0146879;0.384578;-0.712365;0.809678;-7.64631;-0.0263785;-0.00149827;0.111887;0.111903;-0.0263947;0.069149;0.23576;4.2416;0.0847813;0.0921987;4.23961;0.235871;90.5319;135.532;0.0104708;-0.0263783;-0.00164575;-0.00136913;0.111887;-0.00742649;-0.00866447;0;0.0783164;-0.162616;-2.70393;-1.72811;3.21311;-8.24176;-0.0213019;-0.0011675;0.0880859;0.0880983;-0.0213144;0.0547064;0.241831;4.13511;0.0669772;0.0729418;4.13328;0.241938;88.0266;133.027;0.00665186;-0.0213029;-0.00445518;0.00178967;0.0880774;0.0174872;0.0977443;0;0.0763575;8.32427;6.83796
699000;700;28.8618;3.10679;0.120629;-2.18707;28.7727;-0.595152;-0.178216;3.09895;-0.976766;0.0150267;0.383426;-0.700517;0.798728;-7.62919;-0.0262653;-0.00077863;0.113282;0.113286;-0.0262696;0.069778;0.231857;4.313;0.0856346;0.0930374;4.31245;0.231887;90.4715;135.471;0.0158268;-0.0262655;-0.000521989;-0.0010031;0.113282;-0.0144843;-0.0104595;0;0.0825414;-0.164053;-2.71405;-1.71736;3.21595;-8.231;-0.0213295;-0.00102016;0.0887306;0.08874;-0.021339;0.0550395;0.240385;4.15999;0.0674084;0.073386;4.15859;0.240466;88.0961;133.096;0.00818274;-0.0213306;-0.00414654;0.00179018;0.0887232;0.0150879;0.0908395;0;0.0800218;8.32087;6.84555
700000;701;28.8723;3.11727;0.121035;-2.18516;28.7834;-0.591438;-0.176311;3.10968;-0.973052;0.0135872;0.392677;-0.714994;0.815841;-7.64544;-0.0256831;0.000223132;0.112316;0.112316;-0.0256835;0.069;0.228668;4.37315;0.0847462;0.092;4.3731;0.22867;89.732;134.732;0.0128936;-0.0256832;-7.18718e-05;0.000481537;0.112316;-0.0143339;-0.00939326;0;0.0913898;-0.165141;-2.71832;-1.72685;3.22467;-8.24049;-0.0213677;-0.00122739;0.0890841;0.0890977;-0.0213813;0.0552395;0.239859;4.16911;0.0676612;0.0736527;4.16709;0.239976;87.9206;132.921;0.0082086;-0.0213688;-0.00473435;0.00192391;0.0890745;0.0116093;0.0936917;0;0.075963;8.32019;6.85251
701000;702;28.8855;3.13046;0.121548;-2.18666;28.7966;-0.585016;-0.177812;3.12293;-0.96663;0.014192;0.399826;-0.720291;0.823942;-7.65005;-0.0256897;-4.08132e-05;0.113806;0.113806;-0.0256897;0.069748;0.225732;4.43003;0.0857269;0.0929973;4.43003;0.225732;89.8785;134.879;0.0140559;-0.0256897;-0.000277623;0.000166338;0.113806;-0.024406;-0.0116636;0;0.0854394;-0.165537;-2.72241;-1.73537;3.23271;-8.24901;-0.0214738;-0.00153241;0.0900978;0.0901189;-0.0214948;0.0558068;0.238338;4.19572;0.0683797;0.0744091;4.19259;0.238516;88.297;133.297;0.00710004;-0.0214735;-0.00479174;0.00139334;0.0900884;0.0138895;0.0957666;0;0.0751471;8.32095;6.86017
702000;703;28.9002;3.1452;0.12212;-2.19007;28.8112;-0.583527;-0.181215;3.13749;-0.965141;0.0151123;0.410224;-0.726352;0.834326;-7.66558;-0.0251606;0.000535699;0.114201;0.114203;-0.0251626;0.0696829;0.220318;4.53889;0.0857624;0.0929106;4.5386;0.220332;88.9841;133.984;0.0126679;-0.025162;-0.000842308;0.00174135;0.114201;-0.00511999;-0.0100042;0;0.0867777;-0.166308;-2.72892;-1.73892;3.24014;-8.25257;-0.0217256;-0.00175684;0.090128;0.0901556;-0.0217532;0.0559544;0.241053;4.14846;0.0685157;0.0746059;4.14447;0.241285;87.8176;132.818;0.007821;-0.0217258;-0.0057843;0.0018574;0.0901141;0.0142442;0.0901685;0;0.0728898;8.32118;6.8675
703000;704;28.9151;3.16012;0.122699;-2.19477;28.8259;-0.580481;-0.18592;3.15215;-0.962096;0.0155168;0.414526;-0.719276;0.83032;-7.65853;-0.0257525;0.000899312;0.113875;0.113881;-0.0257583;0.0698195;0.226147;4.42191;0.0858052;0.0930927;4.42114;0.226186;88.57;133.57;0.0135059;-0.0257552;-0.000919304;0.00248996;0.113875;-0.00444444;0.00729851;0;0.0872536;-0.166914;-2.73621;-1.73718;3.24538;-8.25082;-0.0216074;-0.00148257;0.0901906;0.0902103;-0.021627;0.0559186;0.239575;4.17407;0.0684969;0.0745582;4.17118;0.23974;88.1902;133.19;0.00607011;-0.0216075;-0.00484502;0.00153508;0.0901808;0.0157766;0.099696;0;0.0747856;8.31707;6.87502
704000;705;28.9259;3.17086;0.123116;-2.19545;28.8364;-0.587275;-0.186595;3.16274;-0.968889;0.0146472;0.416874;-0.71702;0.829528;-7.65087;-0.0262759;0.000769352;0.114513;0.114518;-0.0262801;0.0703989;0.229457;4.35812;0.0864471;0.0938651;4.35758;0.229485;89.066;134.066;0.00855752;-0.026277;-0.000296493;0.00170055;0.114514;-0.0155779;0.000154215;0;0.0836122;-0.167962;-2.74287;-1.73201;3.24829;-8.24566;-0.0218005;-0.00157908;0.0898688;0.0898912;-0.0218228;0.055857;0.242581;4.12234;0.0683726;0.074476;4.11914;0.242769;88.1741;133.174;0.00660961;-0.0218003;-0.00500207;0.00149321;0.0898585;0.0161631;0.0989432;0;0.0733485;8.31646;6.88098
705000;706;28.9369;3.18186;0.123543;-2.19271;28.8476;-0.592707;-0.183862;3.17387;-0.974322;0.0150853;0.42628;-0.724395;0.840649;-7.66365;-0.0254817;0.0014273;0.112875;0.11289;-0.0254964;0.069193;0.225752;4.42964;0.0850423;0.0922574;4.42766;0.225853;88.1157;133.116;0.0148081;-0.0254864;-0.000769659;0.00335113;0.112876;-0.0115496;0.00478317;0;0.0817989;-0.170544;-2.75056;-1.7361;3.2571;-8.24975;-0.021747;-0.00128312;0.0898181;0.0898328;-0.0217618;0.0557973;0.242123;4.13013;0.0683079;0.0743964;4.12801;0.242247;87.6711;132.671;0.00612583;-0.0217486;-0.00516637;0.00220261;0.0898066;0.0189624;0.098512;0;0.0704356;8.31416;6.88614
706000;707;28.9525;3.19746;0.124149;-2.19428;28.8631;-0.592554;-0.185433;3.1894;-0.974022;0.0151547;0.432301;-0.728837;0.847536;-7.67123;-0.0256099;0.000441792;0.112892;0.112893;-0.0256113;0.0692521;0.226854;4.40812;0.0850937;0.0923362;4.40793;0.226864;88.5574;133.557;0.0198612;-0.0256126;-0.00169552;0.00231311;0.11289;-0.0166995;0.00412327;0;0.0794384;-0.170665;-2.75814;-1.73919;3.26516;-8.25283;-0.0214782;-0.00110187;0.0888897;0.0889007;-0.0214891;0.0551949;0.241627;4.13861;0.0675788;0.0735932;4.13701;0.241721;87.7231;132.723;0.00729535;-0.02148;-0.00476428;0.00218933;0.0888799;0.0162748;0.0969523;0;0.0778775;8.31102;6.89093
707000;708;28.9597;3.20473;0.124432;-2.19332;28.8702;-0.60435;-0.184471;3.19653;-0.985964;0.0132398;0.432161;-0.713599;0.834363;-7.65197;-0.0263394;2.01099e-06;0.11348;0.11348;-0.0263394;0.0699095;0.232107;4.30836;0.0857914;0.0932126;4.30836;0.232107;89.2184;134.218;0.0144038;-0.0263401;-0.00132058;0.00115853;0.113479;-0.000223657;0.00599242;0;0.0774903;-0.172482;-2.7661;-1.7342;3.26933;-8.24784;-0.021612;-0.00118327;0.0890686;0.0890812;-0.0216246;0.0553529;0.242644;4.12126;0.0677559;0.0738039;4.11944;0.242752;88.1177;133.118;0.00813705;-0.0216127;-0.00439052;0.00169804;0.0890604;0.0162219;0.0985255;0;0.0782031;8.30816;6.89656
708000;709;28.9717;3.21673;0.124897;-2.19286;28.8824;-0.60087;-0.184008;3.20868;-0.982484;0.0148661;0.440367;-0.728908;0.851734;-7.66943;-0.025894;-0.000694519;0.113774;0.113778;-0.0258975;0.0698376;0.227591;4.39384;0.0857972;0.0931168;4.39339;0.227615;89.3608;134.361;0.00973159;-0.025894;-0.00227375;0.000686679;0.113772;-0.00478915;-0.00120784;0;0.0922038;-0.17209;-2.7722;-1.74415;3.27975;-8.25779;-0.0217846;-0.00141331;0.0901443;0.0901621;-0.0218024;0.0559823;0.241663;4.13799;0.0685413;0.074643;4.13542;0.241813;88.2172;133.217;0.00802858;-0.0217847;-0.00468161;0.00151944;0.0901351;0.0163227;0.0955541;0;0.0788231;8.30852;6.90486
709000;710;28.9843;3.22934;0.125387;-2.19354;28.8951;-0.596734;-0.18469;3.22135;-0.978348;0.0147862;0.445273;-0.734101;0.858715;-7.6717;-0.0256198;-0.00105708;0.1139;0.113908;-0.0256278;0.0697679;0.224933;4.44578;0.0857672;0.0930239;4.4447;0.224987;89.7632;134.763;0.00996561;-0.0256192;-0.00220864;-4.97592e-05;0.113898;-0.00490811;0.00123297;0;0.079847;-0.173775;-2.77745;-1.75252;3.28873;-8.26617;-0.0219533;-0.00142338;0.0900263;0.0900444;-0.0219714;0.0560079;0.243854;4.10081;0.0685375;0.0746772;4.09826;0.244006;87.68;132.68;0.00809164;-0.0219546;-0.00538662;0.00213273;0.0900139;0.0156612;0.0899048;0;0.0760569;8.30229;6.91165
710000;711;28.9951;3.24012;0.125805;-2.19393;28.9059;-0.591468;-0.185074;3.23224;-0.973083;0.0138935;0.445173;-0.727027;0.852608;-7.65905;-0.0261981;-0.00120418;0.113746;0.113757;-0.0262085;0.0699825;0.230321;4.34177;0.0859168;0.09331;4.34045;0.230391;90.4023;135.402;0.00971839;-0.026198;-0.00135843;-0.00106931;0.113746;-0.00945302;-0.0074405;0;0.0933529;-0.17459;-2.78503;-1.74482;3.29109;-8.25847;-0.0218629;-0.00182666;0.0906691;0.0906988;-0.0218925;0.0562956;0.241128;4.14718;0.0689321;0.0750608;4.14291;0.241376;88.0609;133.061;0.00869551;-0.0218624;-0.00559739;0.00155504;0.0906563;0.0143493;0.0947003;0;0.0749674;8.29932;6.91941
711000;712;29.0046;3.24956;0.126172;-2.19296;28.9154;-0.596598;-0.184107;3.24169;-0.978213;0.0154668;0.451258;-0.73132;0.859478;-7.66477;-0.0265737;-0.001155;0.112741;0.11275;-0.0265833;0.0696668;0.235707;4.24256;0.0854181;0.0928891;4.24139;0.235772;90.2697;135.27;0.0158039;-0.0265734;-0.00149857;-0.000854443;0.11274;-0.00161738;-0.00438385;0;0.0850866;-0.173762;-2.79172;-1.74818;3.29849;-8.26183;-0.0218142;-0.00177232;0.0906388;0.0906667;-0.0218421;0.0562544;0.240672;4.15504;0.0688892;0.0750059;4.151;0.240906;88.3423;133.342;0.00629225;-0.0218134;-0.00513614;0.00124468;0.0906281;0.0151114;0.101599;0;0.0736772;8.29882;6.92691
712000;713;29.0169;3.2619;0.126651;-2.19709;28.9275;-0.594917;-0.188234;3.25378;-0.976531;0.0130964;0.454739;-0.733204;0.862872;-7.66365;-0.0265657;-0.00127689;0.113708;0.113719;-0.0265773;0.0701484;0.233631;4.28026;0.0860512;0.0935312;4.27882;0.233709;90.6206;135.621;0.00669182;-0.0265659;-0.00110901;-0.00142363;0.113708;-0.00709111;-0.0132874;0;0.0843056;-0.176974;-2.79943;-1.74995;3.30612;-8.2636;-0.0218109;-0.0017553;0.0903784;0.0904059;-0.0218383;0.0561221;0.241328;4.14373;0.0687167;0.0748295;4.13978;0.241559;88.1664;133.166;0.00593102;-0.0218104;-0.00532866;0.00145042;0.0903668;0.0147369;0.105148;0;0.0725744;8.29494;6.93444
713000;714;29.0291;3.27409;0.127124;-2.19802;28.9396;-0.595244;-0.189166;3.26594;-0.976859;0.0131438;0.461676;-0.737438;0.870134;-7.66551;-0.0257617;-0.000562547;0.114411;0.114413;-0.025764;0.0700886;0.225168;4.44112;0.0861573;0.0934515;4.44082;0.225184;89.9977;134.998;0.0102031;-0.0257616;-0.000963069;-0.000212405;0.114411;-0.000967505;-0.00822222;0;0.0854908;-0.178548;-2.80444;-1.75628;3.3138;-8.26992;-0.0220318;-0.00145008;0.0901026;0.0901213;-0.0220505;0.0560859;0.244519;4.08967;0.0686223;0.0747812;4.08704;0.244676;87.5263;132.526;0.00696721;-0.0220334;-0.00563157;0.00230129;0.090089;0.0169244;0.103837;0;0.0707537;8.29452;6.94149
714000;715;29.0398;3.28481;0.12754;-2.20013;28.9502;-0.59635;-0.191281;3.2765;-0.977964;0.012622;0.464526;-0.734312;0.868998;-7.66552;-0.0261779;-0.000250067;0.115122;0.115122;-0.0261784;0.0706503;0.227393;4.39767;0.0868003;0.0942004;4.39761;0.227396;89.7389;134.739;0.012321;-0.0261779;-0.000877573;0.000297927;0.115121;-0.00681269;-0.000545298;0;0.0810695;-0.179155;-2.81134;-1.75672;3.31991;-8.27036;-0.0218372;-0.0016386;0.0897423;0.0897664;-0.0218613;0.0558139;0.243333;4.1096;0.0683076;0.0744185;4.10618;0.243536;88.1544;133.154;0.00694711;-0.021837;-0.00511939;0.00148582;0.0897315;0.0201421;0.0989447;0;0.0735746;8.29186;6.94852
715000;716;29.0526;3.29764;0.128039;-2.20198;28.9629;-0.599307;-0.193132;3.28917;-0.980922;0.0158533;0.473608;-0.73177;0.871805;-7.67285;-0.0253862;-0.000192346;0.11588;0.11588;-0.0253864;0.0706332;0.219073;4.56468;0.0869596;0.0941776;4.56464;0.219075;89.2362;134.236;0.014339;-0.0253868;-0.00167643;0.00110386;0.115878;-0.0122268;-0.00148895;0;0.0816164;-0.178276;-2.8188;-1.7549;3.32522;-8.26854;-0.021608;-0.00115649;0.0893669;0.089379;-0.02162;0.0554995;0.241789;4.13583;0.067949;0.0739993;4.13408;0.241892;87.9594;132.959;0.00847997;-0.0216091;-0.00456465;0.00190449;0.089358;0.0161786;0.0995547;0;0.0756844;8.28905;6.95542
716000;717;29.0651;3.3101;0.128522;-2.20401;28.975;-0.60808;-0.195156;3.30133;-0.989695;0.0121415;0.476289;-0.730549;0.872182;-7.66429;-0.0262163;0.000277644;0.116336;0.116337;-0.0262169;0.0712767;0.22535;4.43754;0.0876141;0.0950356;4.43747;0.225354;89.1128;134.113;0.00601159;-0.0262174;-0.00108451;0.00146586;0.116336;-0.00369003;0.000797117;0;0.0741047;-0.180981;-2.82493;-1.75848;3.33245;-8.27213;-0.0219968;-0.00106722;0.0897311;0.0897413;-0.022007;0.0558742;0.245142;4.07928;0.0683545;0.0744989;4.07785;0.245227;87.9036;132.904;0.00817325;-0.0219983;-0.00448315;0.00199848;0.0897224;0.0175525;0.0966777;0;0.0753377;8.28643;6.96081
717000;718;29.0825;3.32745;0.129196;-2.20872;28.9924;-0.590522;-0.199868;3.31874;-0.972137;0.0157181;0.484364;-0.735528;0.880828;-7.67334;-0.0252978;0.00113001;0.11381;0.113819;-0.025307;0.069563;0.222281;4.49881;0.0855716;0.0927507;4.49754;0.222344;88.2744;133.274;0.0161583;-0.0253018;-0.00103993;0.00302893;0.11381;-0.0189587;0.00576438;0;0.0741901;-0.180248;-2.8331;-1.75943;3.33984;-8.27308;-0.0219812;-0.00138653;0.0905301;0.0905472;-0.0219983;0.0562727;0.242806;4.11852;0.0688786;0.0750303;4.1161;0.242948;87.7299;132.73;0.00939575;-0.0219825;-0.0052842;0.00210902;0.0905182;0.0147794;0.092049;0;0.0772046;8.28062;6.96417
718000;719;29.0966;3.34158;0.129745;-2.20792;29.0067;-0.59106;-0.199063;3.33297;-0.972675;0.0133237;0.489581;-0.744761;0.891367;-7.67861;-0.0261862;-6.36043e-05;0.116614;0.116614;-0.0261862;0.0714003;0.224554;4.45328;0.0877834;0.0952004;4.45328;0.224554;89.7139;134.714;0.00653142;-0.0261863;-0.000612752;0.000415314;0.116614;-0.0118752;0.00188463;0;0.07842;-0.182738;-2.83778;-1.76629;3.34756;-8.27993;-0.0223122;-0.00187305;0.0909374;0.0909684;-0.0223432;0.0566558;0.245358;4.07568;0.0693045;0.0755411;4.07142;0.245614;87.7875;132.787;0.00863826;-0.0223121;-0.00601952;0.00184301;0.0909224;0.0137023;0.0964295;0;0.0736815;8.28051;6.97032
719000;720;29.0975;3.34254;0.129782;-2.20304;29.0075;-0.616208;-0.194191;3.33378;-0.997823;0.0137525;0.496731;-0.737118;0.888973;-7.67751;-0.0258933;0.000260609;0.116279;0.11628;-0.0258938;0.0710868;0.222682;4.49071;0.0874387;0.0947824;4.49065;0.222685;88.7407;133.741;0.0132392;-0.0258954;-0.00177322;0.0020354;0.116278;-0.0161212;-0.00221646;0;0.0720555;-0.183918;-2.84431;-1.76353;3.35171;-8.27717;-0.0219641;-0.001998;0.0910857;0.091121;-0.0219995;0.0565602;0.241137;4.14702;0.0692551;0.0754136;4.14197;0.241431;87.6727;132.673;0.00933794;-0.0219641;-0.00641474;0.00196115;0.0910686;0.0117411;0.0975258;0;0.0758481;8.28032;6.97789
720000;721;29.1055;3.35047;0.13009;-2.20165;29.0154;-0.623429;-0.192801;3.34168;-1.00504;0.0143838;0.503145;-0.744775;0.898917;-7.68315;-0.0262267;-0.000417102;0.114607;0.114608;-0.0262279;0.070418;0.228841;4.36985;0.086484;0.0938906;4.3697;0.228849;89.2556;134.256;0.0166483;-0.0262271;-0.00198922;0.000956375;0.114605;-0.0113509;0.0086451;0;0.0807474;-0.183501;-2.84993;-1.76647;3.35801;-8.28012;-0.0220476;-0.00178899;0.090693;0.0907214;-0.022076;0.0563987;0.243101;4.11351;0.0690265;0.0751982;4.10951;0.243338;87.6826;132.683;0.00852796;-0.022048;-0.00602377;0.0020081;0.0906778;0.0117605;0.102809;0;0.0746061;8.27347;6.98522
721000;722;29.1266;3.37156;0.130909;-2.20497;29.0367;-0.604905;-0.196118;3.36298;-0.98652;0.0146958;0.508621;-0.752442;0.90834;-7.69082;-0.0257144;-0.000730447;0.115322;0.115325;-0.0257182;0.0705218;0.22298;4.48471;0.0867367;0.094029;4.4842;0.223005;89.5819;134.582;0.0120971;-0.0257142;-0.00197754;0.000358946;0.11532;-0.00372302;0.00417418;0;0.0748574;-0.183785;-2.85708;-1.77462;3.36838;-8.28827;-0.0219959;-0.00165831;0.0903004;0.0903249;-0.0220204;0.0561726;0.243586;4.10533;0.0687426;0.0748968;4.10188;0.243791;87.9335;132.934;0.00574316;-0.021996;-0.00545747;0.00174956;0.090288;0.0181724;0.105588;0;0.0716764;8.27399;6.99275
722000;723;29.1366;3.38161;0.131299;-2.20547;29.0465;-0.614975;-0.196613;3.37281;-0.996589;0.0143361;0.516381;-0.747592;0.908707;-7.69247;-0.0254657;-0.00124606;0.1164;0.116411;-0.0254766;0.0709437;0.218778;4.57085;0.0873467;0.0945916;4.56931;0.218851;89.6449;134.645;0.0189196;-0.0254649;-0.00276726;8.18338e-05;0.116397;-0.0021382;0.0102553;0;0.0700848;-0.186454;-2.86418;-1.77159;3.37295;-8.28524;-0.0221099;-0.00136099;0.0895286;0.0895452;-0.0221264;0.0558358;0.246958;4.04926;0.068278;0.0744478;4.04698;0.247098;87.2381;132.238;0.00920547;-0.0221125;-0.00581999;0.00264113;0.089514;0.0147498;0.101528;0;0.0732509;8.26526;6.99991
723000;724;29.1427;3.38766;0.131534;-2.20513;29.0525;-0.620231;-0.196275;3.37879;-1.00185;0.0138333;0.513048;-0.742742;0.902815;-7.67469;-0.0257509;-0.0016185;0.115083;0.115102;-0.0257695;0.0704358;0.223759;4.4691;0.086612;0.0939144;4.46659;0.223884;90.4467;135.447;0.0115972;-0.0257505;-0.00198653;-0.00129695;0.115083;-0.00232389;-0.00692866;0;0.0802995;-0.186321;-2.86862;-1.77088;3.37635;-8.28453;-0.0222051;-0.00156124;0.0902317;0.0902533;-0.0222268;0.0562401;0.24609;4.06355;0.0687855;0.0749868;4.06056;0.246271;88.18;133.18;0.00740001;-0.022205;-0.00495656;0.00148392;0.0902215;0.019834;0.102808;0;0.0752918;8.24652;6.99995
724000;725;29.1597;3.40473;0.132197;-2.20724;29.0695;-0.616718;-0.198385;3.39583;-0.998333;0.0145879;0.522507;-0.751599;0.915493;-7.68682;-0.026387;-0.00157436;0.114569;0.114586;-0.0264046;0.0704954;0.230316;4.34186;0.0865455;0.0939938;4.33963;0.230434;90.17;135.17;0.0130901;-0.0263861;-0.00238044;-0.000870212;0.114567;-0.00441287;-0.00134541;0;0.0796536;-0.187693;-2.87912;-1.77988;3.39007;-8.29353;-0.0220675;-0.00148176;0.0907454;0.0907648;-0.022087;0.0564259;0.243181;4.11217;0.0690598;0.0752345;4.10943;0.243343;88.054;133.054;0.00752622;-0.0220679;-0.00502065;0.00169112;0.0907348;0.0181961;0.100337;0;0.0726923;8.28075;7.01461
725000;726;29.1699;3.41485;0.13259;-2.2107;29.0795;-0.614086;-0.201849;3.40577;-0.995701;0.0125548;0.529595;-0.758521;0.925193;-7.68954;-0.0256986;-0.000551905;0.115389;0.115391;-0.0257008;0.0705459;0.222713;4.49008;0.0867724;0.0940612;4.48979;0.222728;89.7718;134.772;0.0140535;-0.0256985;-0.00134169;0.000137976;0.115388;-0.00452389;-0.00814537;0;0.0813733;-0.190452;-2.8797;-1.79186;3.39702;-8.3055;-0.0224595;-0.00134105;0.090002;0.090018;-0.0224755;0.0562467;0.249544;4.00731;0.0687397;0.0749956;4.00517;0.249677;86.8261;131.826;0.0085882;-0.0224636;-0.00632872;0.00313204;0.0899844;0.0146318;0.100065;0;0.0754015;8.21921;7.01419
726000;727;29.1789;3.42388;0.13294;-2.21149;29.0885;-0.614374;-0.20264;3.41477;-0.995988;0.0140722;0.536403;-0.757068;0.927943;-7.69561;-0.0258658;-0.00124184;0.118097;0.118107;-0.0258765;0.071992;0.219022;4.56575;0.088632;0.0959893;4.56428;0.219093;89.8793;134.879;0.00861712;-0.025865;-0.00234872;-0.000277482;0.118095;-0.000630638;-0.0187333;0;0.0899756;-0.189888;-2.88571;-1.7883;3.40021;-8.30194;-0.0223621;-0.00147493;0.0903793;0.0903985;-0.0223814;0.05639;0.247426;4.04162;0.0689479;0.0751866;4.039;0.247586;87.0392;132.039;0.00832635;-0.0223652;-0.00630592;0.00285658;0.090362;0.0153067;0.102309;0;0.0728609;8.25453;7.02229
727000;728;29.1881;3.43307;0.133297;-2.20999;29.0977;-0.618989;-0.201134;3.424;-1.0006;0.0140428;0.537846;-0.76124;0.932181;-7.69467;-0.0258555;-0.00046794;0.11719;0.117191;-0.0258571;0.0715242;0.220629;4.53249;0.0880218;0.0953657;4.53228;0.22064;89.8433;134.843;0.0137442;-0.0258554;-0.00108083;6.64747e-05;0.117189;-0.00589678;-7.04768e-05;0;0.0839606;-0.189935;-2.89544;-1.7908;3.40978;-8.30444;-0.0221386;-0.00200982;0.0912906;0.0913262;-0.0221742;0.0567502;0.242507;4.12359;0.0694655;0.075667;4.11858;0.242802;87.6417;132.642;0.00881762;-0.0221386;-0.00647428;0.00199064;0.0912733;0.0131099;0.0982093;0;0.0738873;8.2732;7.03529
728000;729;29.2016;3.44655;0.13382;-2.21241;29.1108;-0.631584;-0.20356;3.43707;-1.0132;0.0131289;0.5427;-0.753639;0.928799;-7.68738;-0.0260936;5.40896e-05;0.118382;0.118382;-0.0260936;0.0722379;0.220419;4.53682;0.088905;0.0963171;4.53682;0.220419;89.0051;134.005;0.0114274;-0.0260949;-0.0017003;0.00158185;0.118381;-0.0140059;-0.0074;0;0.0794169;-0.192216;-2.90469;-1.78488;3.41467;-8.29853;-0.0222382;-0.00204409;0.0911781;0.0912149;-0.022275;0.056745;0.243898;4.10007;0.0694363;0.07566;4.09494;0.244204;87.3901;132.39;0.00836141;-0.0222387;-0.00685321;0.0022652;0.0911585;0.0161302;0.0975916;0;0.0752549;8.25509;7.03768
729000;730;29.2249;3.46987;0.134726;-2.21775;29.1341;-0.614038;-0.208901;3.46043;-0.995653;0.0133005;0.548066;-0.757147;0.934786;-7.69089;-0.0259635;0.000838382;0.117771;0.117775;-0.0259684;0.0718719;0.220458;4.536;0.088453;0.0958292;4.53534;0.220491;88.5383;133.538;0.0101981;-0.0259666;-0.0011821;0.00259905;0.11777;-0.01672;-0.00387701;0;0.0741241;-0.193262;-2.9144;-1.78716;3.42418;-8.30081;-0.0222481;-0.00142337;0.0897508;0.0897689;-0.0222662;0.0560175;0.247887;4.03409;0.0684853;0.07469;4.03163;0.248039;87.111;132.111;0.00794317;-0.022251;-0.00609325;0.00276659;0.0897347;0.0170039;0.102893;0;0.0736001;8.25185;7.04635
730000;731;29.2451;3.49008;0.135511;-2.21932;29.1543;-0.612082;-0.210465;3.48062;-0.993697;0.0132954;0.56152;-0.769391;0.952599;-7.70614;-0.0258368;0.00210075;0.115178;0.11521;-0.0258681;0.0705388;0.22432;4.45791;0.0867247;0.0940518;4.45373;0.224531;87.6559;132.656;0.00963933;-0.0258443;-0.000494161;0.00436752;0.11518;-0.0121779;-0.00540257;0;0.0823901;-0.194612;-2.92018;-1.79502;3.43328;-8.30866;-0.0223585;-0.00146704;0.0896592;0.0896784;-0.0223777;0.0560281;0.249372;4.01007;0.0684748;0.0747041;4.00749;0.249533;87.011;132.011;0.00796734;-0.0223616;-0.00628179;0.00285277;0.0896421;0.0187213;0.0968364;0;0.0797029;8.24743;7.05374
731000;732;29.2562;3.5012;0.135943;-2.21689;29.1654;-0.623262;-0.208036;3.49173;-1.00488;0.012466;0.56913;-0.770022;0.9576;-7.70952;-0.026321;0.000703659;0.115548;0.115552;-0.0263245;0.0709382;0.227792;4.38997;0.0871451;0.0945843;4.38952;0.227815;88.4291;133.429;0.0106431;-0.0263244;-0.00153326;0.0026561;0.115548;-0.00258622;-0.0036045;0;0.0767001;-0.197088;-2.92741;-1.80026;3.44231;-8.31391;-0.0222059;-0.00151781;0.0906946;0.090715;-0.0222263;0.0564706;0.244842;4.08426;0.0690876;0.0752942;4.08143;0.245012;87.5541;132.554;0.00786921;-0.0222073;-0.00572932;0.00225778;0.0906806;0.0209854;0.103215;0;0.0747688;8.23312;7.05957
732000;733;29.2683;3.51328;0.136412;-2.21684;29.1776;-0.622582;-0.207985;3.50387;-1.0042;0.0120504;0.573228;-0.768051;0.958456;-7.70573;-0.0261174;0.000118523;0.116602;0.116602;-0.0261175;0.0713598;0.223987;4.46454;0.0877459;0.0951464;4.46453;0.223988;89.1623;134.162;0.00629487;-0.0261183;-0.00127521;0.00133411;0.116601;-0.00440615;-0.0102059;0;0.0925218;-0.198128;-2.93455;-1.79958;3.44809;-8.31322;-0.0224242;-0.00131461;0.090374;0.0903893;-0.0224396;0.0564144;0.248127;4.03019;0.0689671;0.0752192;4.02812;0.248255;86.9624;131.962;0.00892216;-0.022428;-0.00613423;0.00300645;0.0903575;0.0153607;0.100526;0;0.0742611;8.22258;7.06621
733000;734;29.2814;3.52639;0.13692;-2.21887;29.1908;-0.613362;-0.210013;3.51705;-0.994977;0.0129171;0.582983;-0.771827;0.967343;-7.71887;-0.02603;-0.00043867;0.116149;0.11615;-0.0260314;0.0710909;0.224109;4.46211;0.0874124;0.0947878;4.46193;0.224118;89.1525;134.152;0.0104748;-0.0260306;-0.00223771;0.0011312;0.116147;0.000419618;-0.0198391;0;0.0813481;-0.199191;-2.9404;-1.80333;3.45509;-8.31697;-0.0223346;-0.00164871;0.0909036;0.0909276;-0.0223586;0.0566431;0.245695;4.07008;0.0692845;0.0755241;4.06679;0.245894;87.3996;132.4;0.00653133;-0.0223361;-0.00615511;0.00238994;0.0908875;0.0201614;0.102904;0;0.0700533;8.21765;7.07259
734000;735;29.2926;3.53764;0.137358;-2.21936;29.202;-0.612966;-0.210509;3.52832;-0.994581;0.0123067;0.584654;-0.771074;0.967744;-7.70867;-0.0263589;-0.000449968;0.115348;0.115349;-0.0263604;0.0708547;0.228517;4.37604;0.0870273;0.094473;4.37585;0.228527;89.3541;134.354;0.0027444;-0.0263592;-0.00188443;0.000802246;0.115346;-0.00105287;-0.0227599;0;0.0826867;-0.199634;-2.94676;-1.80574;3.46179;-8.31939;-0.0222837;-0.00163334;0.0906499;0.0906735;-0.0223073;0.0564904;0.245822;4.06799;0.0690957;0.0753206;4.06474;0.246018;86.6227;131.623;0.00929075;-0.0222879;-0.00714834;0.00331064;0.0906277;0.0138652;0.0934844;0;0.0732419;8.21445;7.08041
735000;736;29.2994;3.54444;0.137622;-2.21628;29.2089;-0.621995;-0.207426;3.53518;-1.00361;0.0118251;0.592184;-0.775916;0.976149;-7.71543;-0.0260946;-0.000733098;0.115633;0.115637;-0.0260984;0.0708675;0.225668;4.43129;0.0871037;0.09449;4.43079;0.225693;89.8063;134.806;0.0117834;-0.0260943;-0.00158754;1.27992e-05;0.115632;-0.00981537;-0.015004;0;0.0815888;-0.201529;-2.95143;-1.80866;3.46739;-8.3223;-0.0221994;-0.00172031;0.0907597;0.0907859;-0.0222256;0.0565058;0.244596;4.08838;0.0691338;0.075341;4.08474;0.244814;86.8704;131.87;0.00806349;-0.0222025;-0.00697968;0.00299445;0.0907387;0.0111329;0.0985967;0;0.0734425;8.21095;7.08678
736000;737;29.31;3.555;0.138031;-2.2172;29.2196;-0.613926;-0.20835;3.54587;-0.995541;0.0114658;0.595955;-0.777193;0.97945;-7.70936;-0.0265854;9.4167e-05;0.116911;0.116911;-0.0265855;0.071748;0.2274;4.39754;0.0881488;0.095664;4.39753;0.2274;89.6484;134.648;0.0104721;-0.0265856;-0.0004588;0.000576091;0.11691;-0.0122898;-0.0144706;0;0.0770157;-0.202098;-2.95734;-1.81157;3.47398;-8.32522;-0.0222564;-0.00183704;0.0907712;0.0908011;-0.0222862;0.0565436;0.245192;4.07844;0.0691701;0.0753915;4.07432;0.24544;86.9309;131.931;0.00808423;-0.0222589;-0.00709046;0.00287204;0.0907497;0.0181339;0.0983062;0;0.0757113;8.20907;7.09384
737000;738;29.3191;3.56411;0.138385;-2.21652;29.2284;-0.631294;-0.207665;3.55469;-1.01291;0.0110834;0.59735;-0.778364;0.981224;-7.70644;-0.026673;0.000141479;0.116913;0.116913;-0.0266732;0.0717932;0.228144;4.38319;0.0881882;0.0957242;4.38318;0.228145;89.8471;134.847;0.014444;-0.0266731;-2.81513e-05;0.000289302;0.116913;-0.00678016;-0.0175898;0;0.0816453;-0.20259;-2.96696;-1.81147;3.48215;-8.32512;-0.0225257;-0.0016016;0.0900625;0.0900852;-0.0225485;0.0563169;0.250112;3.99821;0.0688156;0.0750892;3.99518;0.250302;86.5232;131.523;0.0070006;-0.0225303;-0.0071596;0.00338237;0.0900401;0.0211937;0.0987457;0;0.0761402;8.20734;7.10097
738000;739;29.3406;3.58561;0.13922;-2.22272;29.2497;-0.620295;-0.213871;3.57602;-1.00191;0.0104207;0.60361;-0.775997;0.983171;-7.70325;-0.0266936;0.00148035;0.11645;0.116466;-0.026709;0.0715873;0.229228;4.36247;0.0879098;0.0954497;4.36055;0.229329;88.8186;133.819;0.0123523;-0.0266954;0.000450168;0.00237844;0.116451;-0.00280155;-0.0061131;0;0.0763024;-0.204519;-2.97479;-1.8098;3.48807;-8.32344;-0.0223773;-0.00146018;0.0899761;0.0899951;-0.0223962;0.0561957;0.248702;4.02087;0.0686902;0.0749276;4.01831;0.248861;86.9639;131.964;0.00796997;-0.0223806;-0.00635176;0.00292721;0.0899586;0.020673;0.0996549;0;0.0764456;8.20031;7.10654
739000;740;29.3585;3.60349;0.139914;-2.22709;29.2672;-0.625283;-0.218234;3.59352;-1.0069;0.0100921;0.614182;-0.778724;0.991833;-7.71247;-0.0264916;0.00195411;0.116761;0.116788;-0.0265182;0.0716531;0.226886;4.40749;0.0880395;0.0955375;4.40407;0.227063;88.0334;133.033;0.0116028;-0.0264969;-0.000132543;0.00377308;0.116763;-0.0138824;-0.0106361;0;0.072051;-0.206188;-2.98116;-1.81332;3.49542;-8.32697;-0.0223085;-0.0014974;0.0899041;0.0899241;-0.0223285;0.0561263;0.248137;4.03004;0.0686141;0.074835;4.02733;0.248304;87.1436;132.144;0.00809728;-0.0223111;-0.00617928;0.00270248;0.0898876;0.0207101;0.0993204;0;0.07919;8.19522;7.1119
740000;741;29.3725;3.61752;0.140459;-2.22894;29.2812;-0.624344;-0.220086;3.60747;-1.00596;0.0120283;0.621955;-0.782372;0.999539;-7.72008;-0.0260961;0.00217611;0.115702;0.115736;-0.0261295;0.0709326;0.225545;4.4337;0.0871821;0.0945767;4.42931;0.225769;87.6837;132.684;0.0158739;-0.0261034;-0.000333941;0.00436714;0.115704;-0.0155907;-0.00839095;0;0.067853;-0.206269;-2.9885;-1.81817;3.5042;-8.33182;-0.0223181;-0.00152214;0.091031;0.0910514;-0.0223385;0.056695;0.24517;4.0788;0.0693568;0.0755933;4.07598;0.24534;87.1233;132.123;0.00786547;-0.0223208;-0.00631985;0.00277715;0.0910137;0.0181868;0.101921;0;0.0691375;8.18904;7.11626
741000;742;29.3874;3.63241;0.141037;-2.2278;29.2963;-0.619627;-0.218951;3.62259;-1.00124;0.0108025;0.629836;-0.786992;1.00805;-7.72393;-0.0263634;0.00138537;0.115982;0.115996;-0.0263769;0.0711864;0.227305;4.39937;0.087459;0.0949152;4.39764;0.227395;88.4575;133.457;0.0137377;-0.0263667;-0.000334648;0.002886;0.115983;-0.00930736;-0.00783225;0;0.0766159;-0.207906;-2.99517;-1.82256;3.51226;-8.3362;-0.022054;-0.00142159;0.0905036;0.0905215;-0.0220719;0.0562967;0.243681;4.10373;0.0688938;0.0750623;4.10121;0.243831;86.5158;131.516;0.00852107;-0.0220593;-0.00694511;0.00353184;0.0904824;0.0151731;0.102706;0;0.0716837;8.17812;7.12285
742000;743;29.4007;3.64568;0.141552;-2.22722;29.3096;-0.621006;-0.218371;3.63592;-1.00262;0.012269;0.634236;-0.786748;1.01063;-7.72059;-0.0267293;0.00138069;0.114971;0.114984;-0.0267428;0.0708634;0.232488;4.3013;0.0869521;0.0944846;4.29964;0.232578;88.4949;133.495;0.00865813;-0.0267324;-0.000245963;0.0028006;0.114972;-0.0109858;-0.00976616;0;0.0895361;-0.20797;-3.00312;-1.82132;3.51841;-8.33496;-0.0222762;-0.00170186;0.0907546;0.0907803;-0.0223018;0.056541;0.245455;4.07407;0.0691632;0.075388;4.07054;0.245668;86.5423;131.542;0.00887925;-0.0222805;-0.00737901;0.00338704;0.090731;0.0139162;0.0947704;0;0.0724289;8.17441;7.12964
743000;744;29.418;3.663;0.142225;-2.22885;29.3273;-0.60232;-0.219993;3.65356;-0.983934;0.0101713;0.642035;-0.791334;1.01908;-7.72641;-0.0271;0.000262206;0.116209;0.116209;-0.0271005;0.0716549;0.233201;4.28814;0.08791;0.0955399;4.28808;0.233205;89.0747;134.075;0.00477843;-0.0271012;-0.00116258;0.00150406;0.116208;-0.00463528;-0.0202388;0;0.083227;-0.210924;-3.00884;-1.82646;3.52613;-8.3401;-0.0223418;-0.0017912;0.0908581;0.0908864;-0.0223702;0.0566283;0.245898;4.06673;0.0692625;0.0755044;4.06284;0.246133;86.7532;131.753;0.00724245;-0.0223451;-0.00724918;0.00310044;0.0908354;0.0161241;0.10229;0;0.0733446;8.15346;7.13724
744000;745;29.4153;3.66026;0.142118;-2.22156;29.3243;-0.637346;-0.212708;3.65062;-1.01896;0.0104031;0.64763;-0.792716;1.02369;-7.73064;-0.0269171;0.000362387;0.115685;0.115686;-0.0269181;0.0713018;0.232677;4.2978;0.0874878;0.0950691;4.29769;0.232683;89.3427;134.343;0.00615033;-0.0269177;-0.000522113;0.00113383;0.115685;-0.00153564;-0.0196081;0;0.081739;-0.21073;-3.01591;-1.82829;3.53309;-8.34193;-0.0225081;-0.00195557;0.0912939;0.0913275;-0.0225417;0.0569346;0.246546;4.05604;0.069626;0.0759128;4.05149;0.246823;87.1063;132.106;0.00665201;-0.0225097;-0.00706902;0.00262469;0.0912727;0.0175417;0.106248;0;0.0744124;8.15049;7.14409
745000;746;29.4284;3.67341;0.142629;-2.22107;29.3377;-0.632902;-0.21222;3.66395;-1.01452;0.0105996;0.65063;-0.793708;1.02635;-7.72447;-0.0266342;1.90571e-05;0.117177;0.117177;-0.0266342;0.0719056;0.227299;4.39949;0.0883447;0.0958742;4.39949;0.227299;89.7746;134.775;0.00624302;-0.0266343;-0.000365503;0.000354114;0.117177;-0.018077;-0.0276893;0;0.080198;-0.211585;-3.02222;-1.82761;3.53818;-8.34126;-0.0224443;-0.00162365;0.0900865;0.0901099;-0.0224677;0.0562888;0.249141;4.01378;0.0687965;0.0750517;4.01064;0.249337;86.6848;131.685;0.00735026;-0.0224481;-0.00699309;0.00319154;0.0900653;0.018435;0.10261;0;0.0754027;8.15294;7.15195
746000;747;29.4497;3.69473;0.143457;-2.22615;29.359;-0.618329;-0.217301;3.68526;-0.999944;0.0104648;0.656121;-0.79431;1.03031;-7.72551;-0.02684;0.000360082;0.114954;0.114955;-0.0268409;0.0708981;0.233484;4.28295;0.0869755;0.0945308;4.28284;0.23349;89.6116;134.612;0.0120425;-0.0268402;-5.63912e-05;0.00072359;0.114954;-0.00749696;-0.0150903;0;0.0750569;-0.213356;-3.03072;-1.82904;3.54629;-8.34269;-0.0226049;-0.00149826;0.0899517;0.0899716;-0.0226249;0.0562983;0.251301;3.9793;0.0687746;0.0750643;3.97667;0.251467;86.8606;131.861;0.00746331;-0.0226084;-0.0065299;0.0030138;0.0899332;0.0216315;0.101993;0;0.0783182;8.15286;7.15904
747000;748;29.4645;3.7095;0.14403;-2.22784;29.3736;-0.620631;-0.218989;3.6999;-1.00225;0.0104561;0.658252;-0.789873;1.02825;-7.7143;-0.0266085;0.00032174;0.118552;0.118553;-0.0266092;0.0725811;0.224446;4.45542;0.0892374;0.0967748;4.45533;0.22445;90.0391;135.039;0.0125289;-0.0266085;0.000619817;6.23468e-05;0.118552;-0.0240339;-0.0191921;0;0.075927;-0.213376;-3.03922;-1.83084;3.55449;-8.34449;-0.0224771;-0.00150508;0.0912695;0.0912894;-0.022497;0.0568932;0.246272;4.06055;0.0695817;0.0758577;4.05784;0.246436;87.267;132.267;0.00853015;-0.0224795;-0.00610302;0.00261363;0.0912535;0.022533;0.0998961;0;0.0729765;8.1489;7.16699
748000;749;29.4803;3.72528;0.144643;-2.2311;29.3893;-0.61417;-0.222251;3.71562;-0.995784;0.0100855;0.667951;-0.79053;1.03499;-7.72244;-0.0261666;0.000993101;0.116559;0.116566;-0.0261735;0.0713695;0.224493;4.45449;0.0877458;0.0951593;4.45358;0.224539;89.2266;134.227;0.0117973;-0.0261673;0.000332917;0.0015689;0.116559;-0.00825854;-0.0153668;0;0.0903228;-0.215681;-3.04983;-1.82932;3.56292;-8.34297;-0.0224721;-0.00122491;0.0904281;0.0904414;-0.0224854;0.0564634;0.248508;4.02401;0.0690213;0.0752846;4.02222;0.248619;86.5809;131.581;0.00877483;-0.0224776;-0.00648745;0.00349278;0.0904095;0.0149707;0.104882;0;0.0722957;8.13754;7.17363
749000;750;29.4993;3.74434;0.145383;-2.23611;29.408;-0.61655;-0.227256;3.7343;-0.998164;0.00909181;0.676926;-0.800038;1.04803;-7.72831;-0.0263809;0.00133528;0.117503;0.117515;-0.0263933;0.0719542;0.224513;4.45408;0.0884635;0.095939;4.45246;0.224595;89.1462;134.146;0.00763377;-0.0263817;0.000762805;0.00183404;0.117503;-0.00589449;-0.013099;0;0.0733119;-0.218434;-3.05738;-1.83379;3.57184;-8.34743;-0.0222022;-0.00144282;0.0906433;0.0906617;-0.0222206;0.0564412;0.24494;4.08263;0.0690503;0.0752549;4.08007;0.245094;86.7559;131.756;0.00764372;-0.0222064;-0.00665864;0.00323337;0.0906239;0.0160011;0.103022;0;0.0737162;8.12288;7.18062
750000;751;29.521;3.76602;0.146225;-2.24114;29.4297;-0.600075;-0.232288;3.75601;-0.981689;0.011033;0.690127;-0.796293;1.05379;-7.73559;-0.0257226;0.00179276;0.116253;0.116276;-0.0257452;0.0710105;0.221264;4.51949;0.0873726;0.0946807;4.5164;0.221415;87.9329;132.933;0.00661481;-0.0257286;-0.000579227;0.00386305;0.116254;-0.00350735;-0.00774283;0;0.0709518;-0.219311;-3.06266;-1.83647;3.5778;-8.35011;-0.022036;-0.00162202;0.0909898;0.0910131;-0.0220593;0.0565362;0.242181;4.12915;0.0692104;0.0753816;4.12584;0.242375;86.7087;131.709;0.00724632;-0.0220401;-0.00706205;0.00325446;0.0909682;0.016419;0.10427;0;0.0739825;8.09746;7.18682
751000;752;29.5309;3.77593;0.146609;-2.23782;29.4397;-0.608196;-0.228971;3.76603;-0.989664;0.0113747;0.693882;-0.800206;1.05921;-7.73786;-0.0261392;0.00104103;0.117665;0.117672;-0.0261467;0.0719095;0.22215;4.50147;0.0884613;0.0958793;4.50046;0.222199;88.7515;133.752;0.0135455;-0.0261414;-0.000447943;0.00233842;0.117665;-0.0100518;-0.0112965;0;0.0726311;-0.218555;-3.06891;-1.84102;3.58543;-8.35466;-0.0222381;-0.00177611;0.0906823;0.0907102;-0.022266;0.0564881;0.245231;4.0778;0.0691017;0.0753174;4.07393;0.245463;86.7228;131.723;0.00697028;-0.0222415;-0.00726064;0.00314065;0.0906595;0.016925;0.107748;0;0.0757779;8.08409;7.18787
752000;753;29.5309;3.77587;0.146607;-2.23217;29.4395;-0.637193;-0.223316;3.76579;-1.01881;0.0105366;0.696889;-0.799204;1.06042;-7.72906;-0.0263804;0.001227;0.117254;0.117265;-0.0263909;0.0718278;0.224985;4.44475;0.088298;0.0957704;4.44338;0.225054;88.8766;133.877;0.0115001;-0.0263821;0.000103403;0.00220615;0.117255;-0.0198895;-0.00366586;0;0.0908041;-0.219822;-3.0757;-1.83928;3.59043;-8.35292;-0.0223031;-0.00154889;0.0905522;0.0905735;-0.0223244;0.0564489;0.246301;4.06007;0.0690376;0.0752652;4.05716;0.246478;86.4759;131.476;0.00718089;-0.0223082;-0.00719291;0.00351109;0.0905296;0.0212233;0.103658;0;0.0767919;8.08297;7.1954
753000;754;29.5538;3.79876;0.147496;-2.23665;29.4626;-0.615308;-0.227799;3.78887;-0.996923;0.00967731;0.704187;-0.796768;1.0634;-7.73387;-0.0266263;-0.000391577;0.117551;0.117552;-0.0266274;0.0720898;0.226509;4.41484;0.088588;0.0961197;4.4147;0.226516;89.7781;134.778;0.0140404;-0.0266263;-0.00106106;0.000191536;0.117551;-0.00348119;-6.40572e-06;0;0.0760728;-0.22208;-3.08471;-1.83177;3.59446;-8.34541;-0.0224046;-0.00147385;0.0897644;0.0897838;-0.022424;0.0561039;0.249594;4.00651;0.0685639;0.0748052;4.00392;0.249755;86.5693;131.569;0.00802567;-0.0224093;-0.00687385;0.00337036;0.0897438;0.0217374;0.104784;0;0.0788008;8.0861;7.20278
754000;755;29.5664;3.81136;0.147985;-2.23725;29.475;-0.623565;-0.228393;3.8013;-1.00518;0.0117978;0.714502;-0.806486;1.07753;-7.74623;-0.0264053;-3.41293e-06;0.115968;0.115968;-0.0264053;0.0711866;0.227695;4.39184;0.0874527;0.0949154;4.39184;0.227695;89.3922;134.392;0.00696594;-0.0264057;-0.00106631;0.00092388;0.115967;0.00517802;-0.00884273;0;0.0754796;-0.221776;-3.08993;-1.84698;3.60668;-8.36062;-0.0222052;-0.00119664;0.0901722;0.090185;-0.0222179;0.0562014;0.246253;4.06087;0.0687368;0.0749352;4.05911;0.246359;86.9108;131.911;0.00803608;-0.0222094;-0.00600867;0.00311937;0.0901563;0.0231986;0.103018;0;0.0784463;8.08219;7.20933
755000;756;29.5779;3.82294;0.148435;-2.2377;29.4864;-0.633756;-0.228848;3.81266;-1.01537;0.0111065;0.714479;-0.805441;1.07673;-7.7327;-0.026372;-0.000261234;0.115788;0.115789;-0.0263725;0.0710806;0.227761;4.39057;0.087321;0.0947741;4.39051;0.227764;89.816;134.816;0.0120702;-0.026372;-0.00076501;0.000178358;0.115788;-0.00560401;-0.00988628;0;0.0895079;-0.222939;-3.09947;-1.85174;3.61737;-8.36539;-0.0221948;-0.00106487;0.0902866;0.0902967;-0.0222049;0.0562508;0.245826;4.06792;0.0688043;0.0750011;4.06652;0.24591;86.6559;131.656;0.00847113;-0.0222004;-0.00613339;0.00348077;0.0902699;0.0209948;0.103179;0;0.0759477;8.07331;7.21737
756000;757;29.591;3.83603;0.148943;-2.23776;29.4994;-0.637089;-0.228906;3.82572;-1.0187;0.0112215;0.722605;-0.802737;1.08013;-7.73663;-0.0261343;-0.00122511;0.116771;0.116781;-0.0261448;0.0714629;0.223809;4.46809;0.0878751;0.0952839;4.4667;0.223879;90.2756;135.276;0.0134598;-0.0261339;-0.00160595;-0.000893005;0.11677;-0.00272866;-0.0168293;0;0.0834047;-0.224104;-3.10967;-1.85143;3.62603;-8.36508;-0.021881;-0.0014329;0.0903472;0.0903655;-0.0218993;0.0561324;0.242188;4.12903;0.0687166;0.0748432;4.12642;0.242341;86.0549;131.055;0.00984389;-0.0218885;-0.0075835;0.00408467;0.0903218;0.0153716;0.104282;0;0.0727978;8.06141;7.225
757000;758;29.6096;3.85462;0.149665;-2.24011;29.5179;-0.634893;-0.231261;3.84423;-1.01651;0.0112244;0.735358;-0.813605;1.09674;-7.7498;-0.0255174;0.000233132;0.116673;0.116673;-0.0255178;0.0710956;0.218709;4.57229;0.0875369;0.0947942;4.57224;0.218711;89.4889;134.489;0.0106806;-0.0255178;-0.000508114;0.000879993;0.116673;-0.00401185;-0.00736786;0;0.0756989;-0.225674;-3.11723;-1.85788;3.6359;-8.37153;-0.0220751;-0.00145152;0.0909452;0.0909639;-0.0220937;0.0565288;0.242729;4.11982;0.0691931;0.0753717;4.11718;0.242885;86.4911;131.491;0.00824591;-0.0220805;-0.00706081;0.00357668;0.0909233;0.013629;0.106454;0;0.0716748;8.03733;7.23204
758000;759;29.6243;3.86931;0.150235;-2.24667;29.5322;-0.633933;-0.237822;3.85849;-1.01555;0.0118942;0.742913;-0.813333;1.10162;-7.74953;-0.0253881;0.00111377;0.11636;0.116369;-0.0253969;0.0708828;0.218186;4.58324;0.0872852;0.0945104;4.58201;0.218245;88.99;133.99;0.0134172;-0.0253895;0.000121235;0.00198029;0.116361;-0.00986057;-0.00390929;0;0.0762612;-0.226905;-3.12067;-1.8612;3.64062;-8.37484;-0.0219602;-0.00179987;0.0910292;0.0910578;-0.0219889;0.0565234;0.241244;4.14518;0.0692092;0.0753645;4.14108;0.241483;86.5944;131.594;0.0085698;-0.0219643;-0.00752458;0.00333202;0.0910047;0.0163392;0.108361;0;0.0742961;8.00671;7.23772
759000;760;29.6363;3.8813;0.150701;-2.24936;29.5441;-0.632252;-0.240508;3.87035;-1.01387;0.0116785;0.74773;-0.812949;1.10459;-7.75149;-0.0256895;0.000649205;0.117727;0.117729;-0.0256925;0.071711;0.218214;4.58267;0.0883053;0.0956146;4.58226;0.218233;89.0683;134.068;0.00979334;-0.0256908;-0.000558121;0.00170162;0.117727;-0.00184469;-0.00579735;0;0.0816836;-0.228401;-3.12757;-1.86109;3.64658;-8.37474;-0.0220418;-0.00168195;0.0908612;0.0908862;-0.0220668;0.0564765;0.242588;4.12222;0.0691305;0.075302;4.11868;0.242796;86.4985;131.498;0.00820744;-0.0220465;-0.00743454;0.00347529;0.0908371;0.0174341;0.108672;0;0.0763886;8.00813;7.24044
760000;761;29.6532;3.89824;0.151358;-2.2504;29.561;-0.632899;-0.241543;3.88725;-1.01451;0.0110693;0.75276;-0.818653;1.11219;-7.7525;-0.0258333;0.00113799;0.117581;0.11759;-0.0258423;0.071716;0.219707;4.55152;0.0882772;0.0956213;4.55028;0.219767;88.7583;133.758;0.00740447;-0.0258355;-0.000270935;0.00236612;0.117581;-0.0144868;-0.00709851;0;0.0780219;-0.228421;-3.13551;-1.86711;3.65646;-8.38075;-0.022269;-0.00120234;0.0900844;0.0900972;-0.0222819;0.0561896;0.247202;4.04528;0.0687072;0.0749194;4.04352;0.247309;86.652;131.652;0.00823458;-0.0222742;-0.00634754;0.00341259;0.0900666;0.0188444;0.10781;0;0.0774185;8.01009;7.24693
761000;762;29.67;3.91502;0.15201;-2.24991;29.5777;-0.639203;-0.24106;3.90398;-1.02082;0.0105924;0.760663;-0.817197;1.11648;-7.75352;-0.0258399;0.000901292;0.118345;0.11835;-0.0258455;0.072098;0.218344;4.57992;0.0887785;0.0961306;4.57914;0.218381;88.7782;133.778;0.00827205;-0.0258421;-0.00065864;0.0022601;0.118345;-0.012491;-0.00970344;0;0.0779307;-0.230889;-3.14422;-1.86887;3.66498;-8.38251;-0.0221081;-0.00101309;0.0904777;0.0904869;-0.0221172;0.056302;0.244348;4.09252;0.0688908;0.0750694;4.09124;0.244424;86.8556;131.856;0.00918175;-0.0221131;-0.00580297;0.00328228;0.0904628;0.0199376;0.102581;0;0.0769602;8.00454;7.25507
762000;763;29.6867;3.93173;0.152659;-2.24983;29.5943;-0.648461;-0.24098;3.92055;-1.03008;0.0110758;0.769861;-0.816478;1.12225;-7.75342;-0.0260799;0.000125522;0.116203;0.116203;-0.02608;0.0711413;0.224435;4.45564;0.0874676;0.0948551;4.45562;0.224436;89.0848;134.085;0.00672893;-0.026081;-0.00139307;0.00145054;0.116202;0.00512747;-0.00621514;0;0.0695662;-0.232827;-3.15556;-1.86878;3.67479;-8.38242;-0.0217879;-0.000988101;0.0907076;0.0907163;-0.0217965;0.0562564;0.240199;4.16322;0.068902;0.0750086;4.16196;0.240271;86.6267;131.627;0.00941963;-0.021794;-0.00610692;0.00360278;0.090691;0.0183315;0.108143;0;0.0717141;7.99148;7.2676
763000;764;29.7028;3.94775;0.153281;-2.2499;29.6102;-0.653627;-0.24105;3.93651;-1.03524;0.0115391;0.778024;-0.825915;1.13472;-7.75419;-0.0260904;-0.000364459;0.114802;0.114803;-0.0260913;0.070447;0.227265;4.40015;0.0865531;0.0939293;4.40003;0.227271;89.7189;134.719;0.0112566;-0.0260904;-0.00110547;0.000282906;0.114801;-0.00155651;-0.0155177;0;0.0799047;-0.232879;-3.16295;-1.88029;3.687;-8.39393;-0.0218359;-0.00121526;0.0905689;0.090582;-0.0218491;0.0562156;0.241098;4.1477;0.0688368;0.0749541;4.1458;0.241208;86.2777;131.278;0.010485;-0.021843;-0.00694142;0.00392074;0.0905475;0.0135107;0.105601;0;0.0669683;7.95664;7.27588
764000;765;29.7138;3.95877;0.153709;-2.25122;29.6212;-0.649546;-0.242369;3.94754;-1.03116;0.0117008;0.784496;-0.820338;1.13513;-7.75423;-0.0261507;-0.00126047;0.117383;0.117394;-0.0261618;0.0717781;0.222781;4.48872;0.0882852;0.0957041;4.48725;0.222854;90.315;135.315;0.0139696;-0.0261504;-0.00159516;-0.000968769;0.117383;-0.0132681;-0.0138913;0;0.0785324;-0.234554;-3.16982;-1.87223;3.68891;-8.38587;-0.0220109;-0.00128539;0.0909985;0.0910131;-0.0220255;0.0565193;0.241882;4.13425;0.0691958;0.0753591;4.13217;0.242004;86.2986;131.299;0.00901524;-0.0220178;-0.00705038;0.00388248;0.0909765;0.014588;0.106811;0;0.0715182;7.90865;7.27694
765000;766;29.7243;3.96931;0.154118;-2.25152;29.6318;-0.647507;-0.242664;3.95814;-1.02912;0.0101705;0.788219;-0.821234;1.13834;-7.75398;-0.0261746;-0.00168331;0.117231;0.117251;-0.0261943;0.0717228;0.223273;4.47883;0.0882051;0.0956303;4.4762;0.223404;90.5003;135.5;0.0130358;-0.0261742;-0.00198899;-0.00141687;0.117231;-0.0120174;-0.0154246;0;0.080716;-0.236473;-3.17689;-1.87249;3.69524;-8.38613;-0.0218968;-0.00161278;0.0909529;0.090976;-0.0219199;0.0564479;0.240749;4.1537;0.0691256;0.0752639;4.15039;0.240941;86.3214;131.321;0.00912856;-0.0219026;-0.00757769;0.00373515;0.0909278;0.0145017;0.113293;0;0.0736714;7.91809;7.28435
766000;767;29.7396;3.98456;0.15471;-2.25351;29.647;-0.648175;-0.244659;3.97327;-1.02979;0.0117197;0.799277;-0.8218;1.14645;-7.7644;-0.0254575;-0.000986334;0.116818;0.116825;-0.0254643;0.0711445;0.217925;4.58874;0.0876136;0.0948594;4.58778;0.21797;89.8239;134.824;0.0103597;-0.025457;-0.00200741;-9.53342e-05;0.116817;-0.0019964;-0.0134892;0;0.0738014;-0.23662;-3.18638;-1.87315;3.70374;-8.3868;-0.0220858;-0.00134336;0.0906164;0.0906324;-0.0221018;0.0563671;0.243728;4.10293;0.0689794;0.0751561;4.10068;0.243862;86.5989;131.599;0.00842463;-0.022091;-0.00670897;0.00346781;0.0905966;0.0202157;0.108464;0;0.0780456;7.91958;7.29162
767000;768;29.7471;3.99206;0.155001;-2.25236;29.6538;-0.685019;-0.243512;3.98006;-1.06663;0.0126029;0.803705;-0.824807;1.1517;-7.75798;-0.0259743;-0.000142078;0.117472;0.117472;-0.0259745;0.0717235;0.22111;4.52263;0.0882565;0.0956313;4.52262;0.221111;89.6711;134.671;0.0103331;-0.0259744;-0.000830256;0.000457761;0.117472;0.000749052;-0.0177232;0;0.0730984;-0.237088;-3.19468;-1.88248;3.71563;-8.39613;-0.0219783;-0.00118958;0.0903409;0.0903534;-0.0219909;0.0561722;0.243282;4.11046;0.0687485;0.0748962;4.10868;0.243387;86.8779;131.878;0.0086981;-0.0219827;-0.00606963;0.00318779;0.0903246;0.0201548;0.106027;0;0.0778248;7.90598;7.29878
768000;769;29.787;4.03199;0.156552;-2.26147;29.6937;-0.658397;-0.25262;4.02002;-1.04001;0.0105112;0.81408;-0.81958;1.15523;-7.75332;-0.0263284;0.00104806;0.118079;0.118086;-0.026336;0.0722111;0.222973;4.48484;0.0888141;0.0962815;4.48384;0.223023;88.6666;133.667;0.00901943;-0.026331;-0.000595512;0.00247935;0.118079;-0.0107981;-0.0118638;0;0.0803112;-0.2404;-3.2107;-1.87892;3.72783;-8.39257;-0.0221076;-0.000922221;0.0907356;0.0907431;-0.0221151;0.0564291;0.243648;4.10427;0.0690577;0.0752388;4.10322;0.243711;86.7212;131.721;0.0101938;-0.0221134;-0.00584715;0.00349321;0.0907203;0.0199091;0.102368;0;0.0740496;7.87773;7.30543
769000;770;29.8104;4.05538;0.15746;-2.26173;29.7173;-0.653248;-0.252875;4.04358;-1.03486;0.0115735;0.828856;-0.828215;1.17178;-7.76444;-0.0257495;0.000959964;0.117159;0.117166;-0.0257559;0.0714608;0.219782;4.54997;0.0879618;0.0952811;4.54908;0.219825;88.4283;133.428;0.0104841;-0.025753;-0.00115662;0.00280579;0.117159;-0.0171335;-0.0234178;0;0.0748651;-0.242637;-3.21935;-1.88508;3.73853;-8.39872;-0.0216868;-0.00125475;0.0905508;0.0905648;-0.0217008;0.0561328;0.239499;4.17539;0.0687612;0.0748437;4.17334;0.239616;86.7184;131.718;0.0100078;-0.0216918;-0.00642951;0.00338745;0.0905325;0.0143005;0.106083;0;0.0671576;7.80141;7.31317
770000;771;29.812;4.05697;0.157522;-2.25681;29.7189;-0.670607;-0.247961;4.04516;-1.05207;0.0117482;0.836985;-0.829305;1.17832;-7.76946;-0.0254818;0.000338403;0.116351;0.116352;-0.0254826;0.0709172;0.219007;4.56605;0.0873106;0.0945563;4.56594;0.219013;88.6144;133.614;0.01525;-0.0254843;-0.00187434;0.00227002;0.11635;-0.00956079;-0.023084;0;0.0687256;-0.243501;-3.22401;-1.88407;3.74209;-8.39771;-0.0218977;-0.00118974;0.0907042;0.0907168;-0.0219102;0.0563135;0.241418;4.14219;0.0689516;0.0750847;4.14039;0.241523;86.4024;131.402;0.0104088;-0.0219043;-0.00673678;0.00378465;0.090684;0.0133523;0.107062;0;0.0681736;7.78284;7.31429
771000;772;29.8242;4.06923;0.157998;-2.25773;29.731;-0.672699;-0.248878;4.05734;-1.05431;0.0102845;0.843882;-0.838376;1.18959;-7.77521;-0.0258419;0.000758613;0.115158;0.115162;-0.0258459;0.0705042;0.224403;4.45627;0.0866843;0.0940056;4.45572;0.22443;88.4877;133.488;0.00877469;-0.025845;-0.00133585;0.00258825;0.115158;-0.00219725;-0.0249879;0;0.0683604;-0.245004;-3.22945;-1.89443;3.7521;-8.40807;-0.0217354;-0.00132016;0.0909831;0.0909986;-0.0217509;0.0563747;0.238895;4.18594;0.0690673;0.0751663;4.18367;0.239024;86.507;131.507;0.00857084;-0.0217413;-0.00685152;0.00363974;0.0909624;0.0167469;0.111984;0;0.0694243;7.78502;7.31974
772000;773;29.8448;4.08976;0.158795;-2.25878;29.7516;-0.67054;-0.249933;4.0779;-1.05215;0.00880871;0.851016;-0.834034;1.1916;-7.76898;-0.0263222;0.000338145;0.114785;0.114785;-0.026323;0.0705542;0.229318;4.36075;0.0866412;0.0940722;4.36065;0.229324;89.1122;134.112;0.00798018;-0.0263232;-0.000953954;0.00146669;0.114784;-0.00277727;-0.022814;0;0.0740715;-0.24851;-3.24435;-1.88722;3.76153;-8.40086;-0.021682;-0.00105586;0.0904459;0.0904558;-0.0216919;0.0560739;0.239723;4.17148;0.0686859;0.0747652;4.17002;0.239807;86.5758;131.576;0.00798308;-0.0216881;-0.00627825;0.00362955;0.0904283;0.0223175;0.112328;0;0.0760386;7.76483;7.33364
773000;774;29.8833;4.12832;0.160292;-2.26444;29.79;-0.665726;-0.25559;4.11627;-1.04734;0.0080059;0.866328;-0.845268;1.2104;-7.7773;-0.0261298;0.00112736;0.116306;0.116315;-0.0261387;0.071227;0.224663;4.4511;0.0875667;0.0949694;4.44993;0.224723;89.1028;134.103;0.0133479;-0.0261308;0.000347573;0.00180765;0.116307;-0.00355456;-0.0191075;0;0.0722987;-0.251264;-3.25833;-1.90733;3.78389;-8.42098;-0.0213587;-0.000673615;0.0906461;0.0906501;-0.0213627;0.0560064;0.235627;4.24399;0.068671;0.0746752;4.24338;0.235661;87.556;132.556;0.00967033;-0.021362;-0.00436371;0.00263753;0.0906375;0.0235367;0.101341;0;0.0739249;7.69897;7.34243
774000;775;29.9056;4.1506;0.161157;-2.27117;29.8118;-0.66569;-0.262313;4.13811;-1.0473;0.00695918;0.882427;-0.846462;1.22279;-7.78415;-0.0256636;0.00206763;0.116623;0.116653;-0.0256936;0.0711735;0.220055;4.54431;0.0875986;0.094898;4.54017;0.220256;88.0493;133.049;0.0146487;-0.0256688;8.40221e-05;0.00379847;0.116625;-0.0143502;-0.0190712;0;0.0786596;-0.25423;-3.26435;-1.90623;3.78871;-8.41987;-0.0214182;-0.00080597;0.0903673;0.0903731;-0.021424;0.0558986;0.237013;4.21918;0.0685158;0.0745314;4.2183;0.237062;87.283;132.283;0.01112;-0.0214222;-0.00493026;0.0028955;0.0903564;0.0163914;0.0994628;0;0.071652;7.60434;7.34263
775000;776;;;;;;;;;;;;;;;;;;;;;;;;;;;;;;;;;;;;;;-0.929936;-5.36039;-1.78311;5.72521;-8.29676;-0.0196702;-0.00111795;0.0849947;0.0850066;-0.0196822;0.0523444;0.231429;4.32099;0.0642448;0.0697925;4.31897;0.231537;82.6044;127.604;0.022199;-0.0197029;-0.0113034;0.00808509;0.0849364;0.0113495;0.102156;0;0.0651906;-0.00896925;7.39918
776000;777;;;;;;;;;;;;;;;;;;;;;;;;;;;;;;;;;;;;;;-0.820314;-5.7594;-1.59912;6.03331;-8.114;-0.0187284;-0.00130224;0.0839767;0.0839933;-0.0187449;0.0513691;0.223019;4.48393;0.0631776;0.0684921;4.48086;0.223172;82.3707;127.371;0.0254885;-0.0187628;-0.0119351;0.00832328;0.0839118;0.011099;0.103802;0;0.0722174;-0.0124199;7.37569
