Time;Image index (Image index);Distance L(t) (Extensometer 1);Change in distance (Extensometer 1);Strain - RC (Extensometer 1);Distance x L(t) (Extensometer 1);Distance y L(t) (Extensometer 1);Distance z L(t) (Extensometer 1);Change in distance x (Extensometer 1);Change in distance y (Extensometer 1);Change in distance z (Extensometer 1);X-displacement (Strain Gauge 1);Y-displacement (Strain Gauge 1);Z-displacement (Strain Gauge 1);Displacement (Strain Gauge 1);Height (Strain Gauge 1);Exx - RC (Strain Gauge 1);Exy - RC (Strain Gauge 1);Eyy - RC (Strain Gauge 1);Max. principal strain - RC (Strain Gauge 1);Min. principal strain - RC (Strain Gauge 1);Max. shear strain - RC (Strain Gauge 1);Poisson ratio -Exx/Eyy (Strain Gauge 1);Poisson ratio -Eyy/Exx (Strain Gauge 1);Von Mises - RC (Strain Gauge 1);Tresca - RC (Strain Gauge 1);Poisson ratio -strain max/min (Strain Gauge 1);Poisson ratio -strain min/max (Strain Gauge 1);Max. strain angle (Strain Gauge 1);Max. shear angle (Strain Gauge 1);Vorticity-z (Strain Gauge 1);du/dx (Strain Gauge 1);du/dy (Strain Gauge 1);dv/dx (Strain Gauge 1);dv/dy (Strain Gauge 1);dw/dx (Strain Gauge 1);dw/dy (Strain Gauge 1);Ezz plane stress state (Strain Gauge 1);Stereo reconstruction error (Strain Gauge 1);X-displacement (Strain Gauge 2);Y-displacement (Strain Gauge 2);Z-displacement (Strain Gauge 2);Displacement (Strain Gauge 2);Height (Strain Gauge 2);Exx - RC (Strain Gauge 2);Exy - RC (Strain Gauge 2);Eyy - RC (Strain Gauge 2);Max. principal strain - RC (Strain Gauge 2);Min. principal strain - RC (Strain Gauge 2);Max. shear strain - RC (Strain Gauge 2);Poisson ratio -Exx/Eyy (Strain Gauge 2);Poisson ratio -Eyy/Exx (Strain Gauge 2);Von Mises - RC (Strain Gauge 2);Tresca - RC (Strain Gauge 2);Poisson ratio -strain max/min (Strain Gauge 2);Poisson ratio -strain min/max (Strain Gauge 2);Max. strain angle (Strain Gauge 2);Max. shear angle (Strain Gauge 2);Vorticity-z (Strain Gauge 2);du/dx (Strain Gauge 2);du/dy (Strain Gauge 2);dv/dx (Strain Gauge 2);dv/dy (Strain Gauge 2);dw/dx (Strain Gauge 2);dw/dy (Strain Gauge 2);Ezz plane stress state (Strain Gauge 2);Stereo reconstruction error (Strain Gauge 2);Load ADC 1 channel 1;Position ADC 1 channel 2
ms;;mm;mm;S;mm;mm;mm;mm;mm;mm;mm;mm;mm;mm;mm;S;S;S;S;S;S;;;S;S;;;°;°;S;S;S;S;S;S;S;S;pixel;mm;mm;mm;mm;mm;S;S;S;S;S;S;;;S;S;;;°;°;S;S;S;S;S;S;S;S;pixel;kN;mm
0.02515;1;25.756;0;0;-2.04079;25.6605;0.861919;0;0;0;0;0;0;0;-7.06303;0;1.17961e-16;0;1.17961e-16;-1.17961e-16;1.17961e-16;;;1.3621e-16;1.57282e-16;;;0;45;0;0;1.249e-16;1.11022e-16;0;0;0;0;0;0;0;0;0;-6.18049;-2.22045e-16;-1.249e-16;0;5.60884e-17;-2.78133e-16;1.67111e-16;;;2.06671e-16;2.22814e-16;;;0;45;0;-2.22045e-16;-1.80411e-16;-6.93889e-17;0;0;0;0;0;-0.0143303;2.19036
1000.03;2;25.756;-1.01018e-05;-3.92211e-07;-2.04208;25.6603;0.864091;-0.0012867;-0.000185538;0.00217158;0.000431132;-0.00446232;0.00191895;0.00487653;-7.06111;-0.000205454;-2.82116e-05;7.34586e-05;7.62835e-05;-0.000208279;0.000142281;2.79686;0.357543;0.000170081;0.000189708;0.366257;2.73032;28.1762;73.1762;0.000795198;-0.000205454;-9.40185e-05;3.75768e-05;7.34545e-05;-8.43748e-05;-0.000168666;0;0.0123095;-9.01288e-06;-0.00450765;-0.000955225;0.00460776;-6.18145;-0.000218932;-2.75276e-06;0.000254219;0.000254235;-0.000218948;0.000236592;0.861195;1.16118;0.000273445;0.000315455;1.16117;0.861203;53.7076;98.7076;-0.000336953;-0.000218934;-6.14013e-05;5.58681e-05;0.000254217;0.00295579;-0.00197405;0;0.0163559;-0.0142682;2.19714
2000.03;3;25.7549;-0.00105019;-4.07748e-05;-2.04025;25.6595;0.863087;0.000537174;-0.00105062;0.00116737;-0.000309591;-0.00936241;0.00557994;0.0109035;-7.05745;2.33159e-05;0.000291551;5.52648e-05;0.000331279;-0.000252698;0.000291989;-0.421894;-2.37027;0.000338175;0.000389318;1.31097;0.762796;18.0269;63.0269;0.000790047;2.32963e-05;0.000230853;0.000352248;5.52807e-05;0.00041497;0.000284461;0;0.0152587;-0.000715507;-0.00790735;-0.00213118;0.00822071;-6.18262;-0.000201603;2.3514e-05;0.00025903;0.000260227;-0.0002028;0.000231513;0.778298;1.28485;0.000268013;0.000308685;1.28317;0.779318;49.2636;94.2636;-0.000320539;-0.000201611;-8.87243e-05;0.000135701;0.000259026;0.00186237;-0.00285632;0;0.0209457;-0.0138469;2.20406
3000.03;4;25.754;-0.00192243;-7.464e-05;-2.04063;25.6588;0.8548;0.00016258;-0.00167849;-0.00711915;-0.00116481;-0.0106792;-0.000709835;0.010766;-7.06373;-0.000147275;0.00010716;-0.000167315;-4.9668e-05;-0.000264923;0.000107627;-0.880226;-1.13607;0.000162608;0.000143503;-0.187481;-5.33387;153.62;18.6198;0.000862756;-0.000147301;-3.7353e-05;0.000251676;-0.00016731;0.000365173;0.001016;0;0.0101001;-0.00178957;-0.00990443;-0.0114352;0.0152337;-6.18809;-0.000242244;9.28034e-05;-0.000121338;-7.10344e-05;-0.000292548;0.000110757;-1.99644;-0.500891;0.000176193;0.000147676;-0.242813;-4.1184;130.75;175.75;-9.2296e-06;-0.000242242;0.00025406;-6.8434e-05;-0.000121366;0.000663533;-0.000947579;0;0.0185425;-0.0138363;2.21159
4000.03;5;25.7543;-0.00165305;-6.41811e-05;-2.04091;25.6591;0.855842;-0.000116977;-0.00146508;-0.00607703;-0.00234616;-0.0107232;-0.00886515;0.0141097;-7.07189;1.35919e-06;0.000213909;5.94853e-06;0.000217576;-0.000210268;0.000213922;;;0.000247028;0.000285229;1.03475;0.966413;0.781839;45.7818;0.000421715;1.28703e-06;-8.1445e-06;0.000435962;5.97138e-06;0.00102565;0.00100933;0;0.0134571;-0.00273734;-0.0102984;-0.0209544;0.0235082;-6.19761;-0.000318987;6.53602e-05;2.46746e-05;3.66855e-05;-0.000330998;0.000183842;12.9278;0.0773529;0.000233855;0.000245122;0.110833;9.02259;151.253;16.253;0.000327034;-0.000318986;0.000174919;-4.4161e-05;2.46614e-05;0.000464012;-0.00195952;0;0.02374;-0.0131898;2.21886
5000.03;6;25.7525;-0.00342883;-0.000133128;-2.0405;25.6576;0.847123;0.000286232;-0.00292603;-0.0147962;-0.00196036;-0.0120782;-0.0143237;0.0188386;-7.07735;-0.000185346;0.000282101;6.38985e-05;0.000247678;-0.000369125;0.000308402;2.90063;0.344753;0.000358405;0.000411202;0.670986;1.49034;174.843;39.8428;0.000986586;-0.000185375;0.000192576;0.000371604;6.39197e-05;0.00025729;0.00143817;0;0.0132547;-0.00254658;-0.0117161;-0.0292207;0.0315848;-6.20588;-0.000332744;5.44957e-05;-0.000101653;-8.9447e-05;-0.00034495;0.000127752;-3.27332;-0.3055;0.000206706;0.000170336;-0.259304;-3.85648;148.087;13.0871;0.000519256;-0.000332749;0.0002277;-0.000118669;-0.000101678;-0.000446493;-0.000246914;0;0.0248547;-0.0132267;2.22594
6000.03;7;25.7532;-0.00272418;-0.000105769;-2.03988;25.6584;0.846491;0.000911492;-0.00214819;-0.0154283;-0.00252721;-0.0131663;-0.0165465;0.0212961;-7.07957;-4.59271e-05;0.000314626;0.000572838;0.000704712;-0.0001778;0.000441256;0.0801746;12.4728;0.000538941;0.000588341;3.9635;0.252302;46.5089;91.5089;0.000891061;-4.60276e-05;8.13751e-05;0.000547732;0.000572884;0.000880718;0.000851199;0;0.0110546;-0.00308348;-0.0131722;-0.0330594;0.0357203;-6.20972;-0.000293949;0.000103114;-2.84536e-05;6.88933e-06;-0.000329292;0.000168091;-10.3308;-0.0967977;0.00022186;0.000224121;;;129.67;174.67;0.00106499;-0.000293966;0.000416954;-0.000210643;-2.85352e-05;0.000255683;-0.00237538;0;0.0225917;-0.012721;2.22804
7000.03;8;25.7524;-0.00357376;-0.000138755;-2.03981;25.6577;0.841728;0.000979539;-0.00283881;-0.0201913;-0.00336986;-0.0162755;-0.0172035;0.0239209;-7.08023;-4.53266e-05;0.000222214;2.78557e-05;0.000216471;-0.000233942;0.000225207;1.62719;0.614555;0.000260112;0.000300276;0.92532;1.08071;2.93087;47.9309;0.000709323;-4.53686e-05;7.91038e-05;0.000365315;2.78773e-05;0.00104605;0.00187518;0;0.0137339;-0.00353171;-0.01523;-0.0388135;0.0418439;-6.21547;-0.000339301;0.000106288;-5.51519e-05;-1.9794e-05;-0.000374659;0.000177432;-6.15212;-0.162546;0.000243443;0.000236577;-0.052832;-18.9279;131.387;176.387;0.000467776;-0.000339324;0.000453712;-0.000241037;-5.52492e-05;0.000237983;-8.75711e-05;0;0.0232763;-0.0124992;2.23522
8000.03;9;25.752;-0.00395448;-0.000153537;-2.03985;25.6574;0.838053;0.000939942;-0.00310379;-0.0238663;-0.00465573;-0.016083;-0.0219127;0.0275772;-7.08494;-0.000127626;0.000180367;-0.000281349;-8.42679e-06;-0.000400549;0.000196061;-0.453621;-2.20448;0.000264268;0.000261415;;;153.953;18.9526;0.000804534;-0.00012776;-0.000188102;0.000548892;-0.000281351;0.000673297;0.00136482;0;0.0127375;-0.00486199;-0.0158419;-0.0436808;0.0467185;-6.22417;-0.000112922;-6.80199e-05;0.00021016;0.000223897;-0.000126659;0.000175278;0.537317;1.8611;0.000204972;0.000233704;1.76771;0.565703;143.337;8.33746;0.000756142;-0.000113055;0.000383529;-0.000519423;0.000210089;-1.88881e-05;-0.00361089;0;0.0218995;-0.0123623;2.24188
9000.03;10;25.7522;-0.00378671;-0.000147023;-2.03968;25.6576;0.837845;0.00110591;-0.00291541;-0.0240743;-0.00431545;-0.0190084;-0.0181761;0.0266517;-7.0812;-0.000213019;0.00020185;0.000331227;0.000397917;-0.000279709;0.000338813;0.643121;1.55492;0.000393207;0.000451751;1.42261;0.702933;33.2589;78.2589;0.000735134;-0.000213103;-5.26718e-05;0.000456233;0.000331246;0.00164479;-0.000160269;0;0.0123967;-0.00479679;-0.0178073;-0.0446788;0.0483354;-6.22517;-0.000141536;-2.1807e-05;0.000150195;0.000151816;-0.000143157;0.000147487;0.942347;1.06118;0.000170327;0.000196649;1.06049;0.942962;139.034;4.03362;9.14363e-05;-0.000141724;0.000570954;-0.000614396;0.000150032;0.000587774;-0.0016695;0;0.0236295;-0.0120717;2.24927
10000;11;25.7519;-0.00409351;-0.000158934;-2.03998;25.6573;0.835603;0.000804456;-0.00317418;-0.0263165;-0.00416831;-0.0197445;-0.0245158;0.0317529;-7.08754;-0.000218778;1.59669e-05;0.000151351;0.000152038;-0.000219466;0.000185752;1.4455;0.6918;0.000215662;0.000247669;0.692765;1.44349;39.4134;84.4134;0.000533967;-0.00021883;-0.000291877;0.000323697;0.000151308;0.00143449;0.000908865;0;0.0141794;-0.00449047;-0.0189339;-0.0523786;0.0558764;-6.23287;-8.87892e-05;-3.16438e-05;0.000169526;0.000173346;-9.26091e-05;0.000132977;0.523751;1.9093;0.00015589;0.000177303;1.8718;0.534246;139.786;4.78587;0.000709845;-8.89593e-05;0.000520946;-0.000584091;0.00016939;0.000487457;-0.00315944;0;0.0236996;-0.0118487;2.25623
11000;12;25.7507;-0.00528599;-0.000205234;-2.0399;25.6563;0.830254;0.000887038;-0.00419084;-0.0316653;-0.00415021;-0.0205688;-0.026439;0.0337538;-7.08946;-0.00038271;0.0001934;-0.000139859;-3.29254e-05;-0.000489644;0.000228359;-2.7364;-0.365444;0.000316026;0.000304479;-0.0672437;-14.8713;175.893;40.8935;-1.75363e-06;-0.000382817;-0.00011421;0.000500936;-0.000139847;0.00260784;0.000410557;0;0.0128737;-0.00457529;-0.0199171;-0.0563777;0.0599672;-6.23687;-3.98539e-05;-4.49299e-05;0.00024783;0.000254684;-4.67077e-05;0.000150696;0.160812;6.21846;0.00018731;0.000200928;5.45271;0.183395;139.786;4.78622;0.000414079;-4.018e-05;0.000719088;-0.000808728;0.000247572;0.00138813;-0.00379951;0;0.0219438;-0.0115208;2.26324
12000;13;25.7521;-0.0039097;-0.000151798;-2.04;25.6577;0.831665;0.000789235;-0.00286296;-0.0302543;-0.00384694;-0.0208617;-0.0331452;0.0393524;-7.09617;-0.000199708;3.8246e-05;-4.15076e-06;3.0631e-06;-0.000206922;0.000104992;;;0.00013898;0.00013999;;;24.7691;69.7691;0.000130895;-0.000199762;-0.000256002;0.000332437;-4.1828e-06;0.00242856;0.000429125;0;0.0132408;-0.00425663;-0.0208273;-0.0644388;0.0678547;-6.2411;-9.57897e-06;7.65987e-05;6.44367e-05;0.000112499;-5.76413e-05;8.50702e-05;;;9.99181e-05;0.000113427;1.95171;0.512372;101.188;146.188;0.00135812;-9.65024e-06;0.000538481;-0.00038525;6.42947e-05;-0.00085774;-0.00124587;0;0.0214882;-0.0114229;2.27057
13000;14;25.7521;-0.00383438;-0.000148873;-2.04043;25.6578;0.829847;0.000357111;-0.00276285;-0.0320727;-0.00389197;-0.0219529;-0.0351022;0.0415842;-7.09813;-0.00022411;4.26212e-05;0.000212532;0.000216654;-0.000228231;0.000222443;1.05447;0.94834;0.000256884;0.00029659;0.949273;1.05344;38.6404;83.6404;0.00052894;-0.000224138;-0.000154979;0.000240135;0.000212521;0.00108062;-3.91315e-05;0;0.0134843;-0.00420038;-0.0221626;-0.0687454;0.0723516;-6.24924;4.0944e-05;4.2864e-06;0.00022549;0.00022559;4.08444e-05;9.23726e-05;-0.181578;-5.50729;0.000138796;0.000123163;-5.52314;-0.181056;128.029;173.029;0.00114262;4.07231e-05;0.000673328;-0.000664632;0.000225263;0.000294523;-0.00282341;0;0.0217018;-0.0113125;2.27811
14000;15;25.7524;-0.00358684;-0.000139262;-2.03958;25.6582;0.826868;0.0012093;-0.00235049;-0.035051;-0.00335691;-0.0231273;-0.0370526;0.0438068;-7.10008;-0.000209861;0.00023072;0.000382126;0.000461424;-0.000289159;0.000375291;0.549194;1.82085;0.000437137;0.000500388;1.59574;0.626667;32.5321;77.5321;0.00111196;-0.000210017;-0.000142816;0.000604034;0.000382142;0.00127092;0.000738015;0;0.0156586;-0.00279027;-0.0234089;-0.0727662;0.0764898;-6.25326;5.72732e-06;-4.98793e-06;0.000240978;0.000241084;5.62161e-06;0.000117731;;;0.000158882;0.000156975;;;129.368;174.368;0.00107241;5.59634e-06;0.000501988;-0.000511845;0.000240852;-0.000471882;-0.00288556;0;0.0224232;-0.011392;2.28519
15000;16;25.7526;-0.00339694;-0.000131889;-2.03783;25.6585;0.825778;0.00296136;-0.00198555;-0.0361417;-0.00239818;-0.0244182;-0.039109;0.0461684;-7.10213;-0.000310477;0.000149287;0.000319628;0.000353207;-0.000344057;0.000348632;0.971371;1.02947;0.000402577;0.000464843;1.0266;0.974093;32.7283;77.7283;0.000995188;-0.000310579;-0.000178094;0.000476461;0.000319623;0.00119092;0.000556088;0;0.0133352;-0.00123595;-0.0249569;-0.0755815;0.0796048;-6.25608;-1.14089e-05;1.29537e-05;0.000324755;0.000325253;-1.19073e-05;0.00016858;0.0351308;28.465;0.000220912;0.000224774;27.3154;0.0366094;126.442;171.442;0.00123769;-1.16419e-05;0.000708933;-0.000682792;0.000324504;0.000157339;-0.00155739;0;0.0193635;-0.0112425;2.28864
16000;17;25.7537;-0.00230178;-8.93687e-05;-2.03768;25.6596;0.82688;0.00310752;-0.000910267;-0.0350396;-0.00239421;-0.0246909;-0.0440331;0.05054;-7.10706;-0.000442956;0.000132286;0.000566221;0.000583273;-0.000460008;0.000521641;0.782302;1.27828;0.000603739;0.000695521;1.26796;0.788667;42.2161;87.2161;0.000559806;-0.00044308;-0.000252208;0.000516393;0.000566198;0.00259661;-0.00106235;0;0.0139189;-0.000268053;-0.0257344;-0.0824591;0.0863819;-6.26295;-6.22222e-05;6.96144e-05;0.000281383;0.000294951;-7.57903e-05;0.000185371;0.22113;4.52223;0.000226171;0.000247161;3.89167;0.256959;117.787;162.787;0.00184711;-6.23125e-05;0.000570008;-0.000430607;0.000281223;-0.00175334;-0.00278154;0;0.0186375;-0.0110743;2.29924
17000;18;25.7516;-0.0043442;-0.000168668;-2.03637;25.6578;0.822901;0.00442264;-0.00272784;-0.0390186;-0.00198131;-0.0242438;-0.0483829;0.0541535;-7.11141;-0.00061962;-9.87422e-05;0.000493958;0.000502646;-0.000628307;0.000565477;1.2544;0.797196;0.000654298;0.000753969;0.8;1.25;44.9787;89.9787;0.00067123;-0.000619647;-0.000451334;0.000253457;0.000493861;0.00193269;-9.49716e-05;0;0.0147263;0.00159827;-0.0256897;-0.0872244;0.0909429;-6.26772;1.27943e-05;7.71363e-05;0.000326903;0.000344823;-5.1259e-06;0.000174974;-0.0391378;-25.5507;0.000231609;0.000233299;;;111.728;156.728;0.00157365;1.2725e-05;0.00053463;-0.000380214;0.000326763;-0.000279433;-0.00215708;0;0.0217726;-0.0112008;2.30184
18000;19;25.7543;-0.00163331;-6.34149e-05;-2.03314;25.6607;0.826401;0.00765201;0.000136554;-0.0355187;-0.00156542;-0.0259793;-0.0503176;0.0566501;-7.11334;-0.000390921;2.20349e-05;0.000438156;0.000438741;-0.000391506;0.000415123;0.892195;1.12083;0.000479602;0.000553498;1.12065;0.892339;44.8434;89.8434;0.00115944;-0.000391055;-0.000476173;0.00051983;0.000438043;0.00142411;-0.000518271;0;0.016113;0.00434456;-0.0282053;-0.0895923;0.0940277;-6.26625;-0.000102315;0.000114582;0.000220093;0.000256666;-0.000138889;0.000197777;0.464875;2.15112;0.000231723;0.000263703;1.848;0.541126;110.942;155.942;0.00182903;-0.00010232;0.000375841;-0.000146593;0.000220029;-0.00114211;0.000992967;0;0.0209071;-0.0112423;2.30766
19000;20;25.7555;-0.000461961;-1.79361e-05;-2.03039;25.6619;0.831466;0.0103945;0.00136569;-0.0304532;0.000841306;-0.0254038;-0.0516603;0.0575747;-7.11469;-0.000480276;-8.74949e-05;0.000374404;0.00038327;-0.000489141;0.000436205;1.28277;0.779561;0.000504921;0.000581607;0.783557;1.27623;47.8774;92.8774;0.00111832;-0.000480365;-0.000606049;0.000430617;0.000374225;0.00186156;0.000464042;0;0.0124487;0.0109707;-0.0287555;-0.0878556;0.0930905;-6.26835;-0.000129965;0.0001276;0.000300351;0.000335342;-0.000164957;0.00025015;0.432711;2.31101;0.000294379;0.000333533;2.03291;0.491906;49.0002;94.0002;0.00164414;-0.000129984;2.11118e-05;0.000234043;0.000300359;0.00119563;-0.00238924;0;0.0207727;-0.0110913;2.31545
20000;21;25.7575;0.00156744;6.08573e-05;-2.02315;25.6644;0.83538;0.017641;0.00384766;-0.026539;0.00344273;-0.0255702;-0.0563113;0.0619406;-7.11934;-0.000511351;0.000169256;0.000580793;0.000606422;-0.00053698;0.000571701;0.880435;1.1358;0.000660549;0.000762268;1.12932;0.885488;37.5889;82.5889;0.00220195;-0.000511843;-0.000668485;0.00100608;0.000580584;-3.88063e-05;-0.000224868;0;0.0134442;0.0195253;-0.0312741;-0.0861755;0.0937311;-6.26667;-0.000169402;6.87028e-05;0.000151665;0.000165748;-0.000183486;0.000174617;1.11695;0.895293;0.000201717;0.000232823;0.90333;1.10702;32.9357;77.9357;0.0017676;-0.000169574;-0.000452853;0.000590092;0.000151565;0.00356424;-0.00273343;0;0.0184096;-0.0111461;2.32226
21000;22;25.7596;0.00366925;0.000142462;-2.01933;25.6667;0.838763;0.0214544;0.00614709;-0.0231566;0.00583677;-0.0263988;-0.0622024;0.067824;-7.12523;-0.000504038;-9.58624e-05;0.000554401;0.000563013;-0.000512651;0.000537832;0.909159;1.09992;0.000621261;0.000717109;1.09824;0.910549;50.8507;95.8507;0.00245035;-0.000504467;-0.00112331;0.0009305;0.000553775;0.000777099;0.000569012;0;0.0132318;0.0259877;-0.0331319;-0.0934804;0.102526;-6.27397;-8.80655e-05;0.000144515;7.60183e-05;0.000160156;-0.000172203;0.000166179;1.15848;0.863201;0.000191929;0.000221573;0.93004;1.07522;14.6191;59.6191;0.00162163;-8.86297e-05;-0.000783065;0.00107194;7.57221e-05;0.0062095;-0.0038551;0;0.0177326;-0.0110043;2.33011
22000;23;25.7595;0.00348885;0.000135458;-2.01689;25.6669;0.830682;0.0238995;0.0064211;-0.0312376;0.00760719;-0.0297849;-0.0614611;0.0687203;-7.12449;-0.00061017;-0.000184249;0.000831678;0.00085485;-0.000633343;0.000744096;0.733662;1.36303;0.000862375;0.000992128;1.34974;0.740882;54.9405;99.9405;0.00289835;-0.000610617;-0.00133291;0.000962756;0.000830807;0.00103319;-0.000777783;0;0.0151146;0.031618;-0.0365132;-0.098104;0.109349;-6.2786;5.8083e-05;7.5511e-05;2.65211e-05;0.000119444;-3.48404e-05;7.71424e-05;-2.19007;-0.456606;9.34341e-05;0.000102857;3.42834;0.291687;175.046;40.046;0.00274407;5.71353e-05;-0.00122779;0.00137886;2.57702e-05;0.00571895;-0.00194005;0;0.021072;-0.0109487;2.33716
23000;24;25.7611;0.00516756;0.000200635;-2.01235;25.6691;0.826735;0.02844;0.00858964;-0.0351843;0.00881104;-0.0320378;-0.066546;0.0743803;-7.12957;-0.000556093;-8.22678e-05;0.00120867;0.00121249;-0.000559919;0.000886206;0.460088;2.1735;0.00104617;0.00118161;2.16548;0.461792;54.3469;99.3469;0.00359493;-0.000556927;-0.00146101;0.00129404;0.0012076;8.57775e-05;-0.00113061;0;0.0133641;0.0379798;-0.0396581;-0.111197;0.124016;-6.29169;-3.86733e-05;0.000156371;-1.17392e-05;0.000131744;-0.000182156;0.00015695;-3.29439;-0.303547;0.000182007;0.000209266;0.723246;1.38266;2.04179;47.0418;0.00344821;-4.02583e-05;-0.00147454;0.00178724;-1.28141e-05;0.00696289;-0.00186811;0;0.0244834;-0.0111982;2.34405
24000;25;25.7569;0.000908269;3.52644e-05;-2.00846;25.6656;0.811095;0.0323287;0.0051187;-0.0508238;0.0107448;-0.0355705;-0.069008;0.0783761;-7.13203;-0.000614808;1.67634e-05;0.00152856;0.00152869;-0.000614939;0.00107182;0.402213;2.48624;0.00127456;0.00142909;2.48593;0.402264;52.4297;97.4297;0.00369805;-0.000616153;-0.00160976;0.00163981;0.00152727;-0.000464292;0.00123042;0;0.0126359;0.0442726;-0.042091;-0.122961;0.1373;-6.30346;-9.9257e-05;0.000182144;-9.07676e-05;8.71812e-05;-0.000277206;0.000182194;-1.09353;-0.914471;0.000219708;0.000242925;0.3145;3.17965;178.552;43.5524;0.00396057;-0.0001003;-0.00109134;0.00145562;-9.13466e-05;0.00551187;-0.00111039;0;0.0245349;-0.0107559;2.35188
25000;26;25.755;-0.000939023;-3.64585e-05;-2.00426;25.6643;0.805894;0.0365331;0.0037574;-0.0560255;0.0114008;-0.0387925;-0.0679625;0.0790806;-7.13099;-0.000403892;9.06574e-05;0.000536008;0.000544673;-0.000412557;0.000478615;0.753519;1.32711;0.000554409;0.000638153;1.32024;0.75744;40.6898;85.6898;0.0039744;-0.000405457;-0.00159136;0.00177109;0.000534747;-0.000668987;0.00295816;0;0.0119018;0.0478839;-0.0442397;-0.126701;0.142489;-6.3072;-0.000143753;0.000174966;-0.000127536;3.95091e-05;-0.000310798;0.000175154;-1.12716;-0.887185;0.000221546;0.000233538;0.127122;7.86649;178.387;43.3867;0.00429614;-0.000144839;-0.00113366;0.00148357;-0.000128163;0.00502501;-0.000994858;0;0.0237136;-0.0109783;2.3594
26000;27;25.7547;-0.00131062;-5.08859e-05;-2.00542;25.6638;0.807311;0.0353727;0.00324929;-0.054608;0.0108501;-0.0390302;-0.0695657;0.0805014;-7.13259;-0.000408792;4.01196e-05;0.000860461;0.000861728;-0.000410059;0.000635894;0.475084;2.10489;0.000749543;0.000847858;2.10148;0.475856;47.0532;92.0532;0.00351939;-0.000410262;-0.00163678;0.00171489;0.000859124;0.000467286;0.00151977;0;0.0129482;0.0471401;-0.0446741;-0.127743;0.143304;-6.30824;-0.000172548;0.000125021;-9.49593e-05;-2.85146e-06;-0.000264656;0.000130902;-1.81707;-0.550336;0.000175494;0.000174536;;;5.39751;50.3975;0.00380443;-0.000173389;-0.00105292;0.00130287;-9.55058e-05;0.00517718;-0.00112862;0;0.0233089;-0.0107597;2.36541
27000;28;25.754;-0.00197865;-7.68228e-05;-2.00545;25.6632;0.803567;0.0353384;0.00269374;-0.0583525;0.0115361;-0.0411269;-0.0700714;0.082064;-7.1331;-0.000442477;0.000275938;0.00109068;0.00113883;-0.000490628;0.000814729;0.405689;2.46494;0.000965262;0.00108631;2.32117;0.430817;40.7182;85.7182;0.00391717;-0.000444271;-0.00136446;0.00191383;0.00108979;0.000175736;0.00218545;0;0.012179;0.047736;-0.0464213;-0.131306;0.147225;-6.3118;-7.69482e-05;0.000175272;-9.97947e-06;0.000134978;-0.000221906;0.000178442;;;0.000208075;0.000237923;0.608268;1.64401;4.25214;49.2521;0.00394415;-7.76993e-05;-0.000887584;0.00123806;-1.0358e-05;0.0046223;-0.000543393;0;0.0227883;-0.0106519;2.3743
28000;29;25.7543;-0.00171733;-6.66771e-05;-2.00437;25.6634;0.807865;0.0364199;0.00290553;-0.0540546;0.0103515;-0.0428111;-0.0745549;0.0865931;-7.13758;-0.000210389;0.000247882;0.00114081;0.00118485;-0.000254428;0.000719639;0.18442;5.42239;0.000886958;0.000959519;4.65692;0.214734;42.3579;87.3579;0.00431397;-0.000212371;-0.00151275;0.00200614;0.0011397;-0.000618016;0.00197763;0;0.0123195;0.0465185;-0.047972;-0.134691;0.150356;-6.31518;-0.000122935;0.000176244;-1.93647e-05;0.000112544;-0.000254844;0.000183694;-6.34839;-0.15752;0.000217351;0.000244925;0.441621;2.26439;5.97738;50.9774;0.00405588;-0.000123515;-0.000738915;0.00109131;-1.96222e-05;0.00408338;-0.00032546;0;0.0230555;-0.0105923;2.37734
29000;30;25.7551;-0.000865777;-3.36146e-05;-2.00392;25.6644;0.805636;0.0368703;0.00386534;-0.0562834;0.00942305;-0.0414599;-0.0834567;0.0936629;-7.14648;-8.9881e-05;5.25979e-05;0.000803268;0.000806355;-9.29678e-05;0.000449661;0.111894;8.93702;0.000571087;0.000599549;8.67348;0.115294;47.5226;92.5226;0.00391328;-9.14507e-05;-0.00166888;0.00177254;0.000801878;-0.000420378;0.00127645;0;0.0135707;0.0462073;-0.0475215;-0.143586;0.158146;-6.32408;-8.58826e-05;6.86126e-05;8.54349e-05;0.000109526;-0.000109974;0.00010975;1.00524;0.994787;0.000126729;0.000146334;0.995929;1.00409;25.6577;70.6577;0.0032413;-8.63204e-05;-0.000801134;0.00093821;8.51164e-05;0.00571083;-0.000590966;0;0.0246076;-0.0102365;2.38257
30000;31;25.7545;-0.00143351;-5.56574e-05;-2.00428;25.6638;0.806465;0.0365076;0.00324125;-0.0554547;0.0114666;-0.0440048;-0.0849149;0.0963247;-7.14794;-0.000168393;0.000135788;0.000242886;0.000283673;-0.00020918;0.000246426;0.693301;1.44237;0.00028563;0.000328568;1.35612;0.737399;28.9874;73.9874;0.00355196;-0.000169821;-0.0014245;0.00169543;0.000241881;0.000956211;0.00263334;0;0.0125527;0.0476882;-0.0483516;-0.149677;0.164364;-6.33017;-0.000129074;0.000140454;3.34126e-05;0.000114428;-0.000210089;0.000162259;3.86303;0.258864;0.000190054;0.000216345;0.544664;1.836;13.3829;58.3829;0.0034901;-0.000129533;-0.000688;0.000968774;3.31858e-05;0.00482014;-0.00172616;0;0.0238197;-0.0100617;2.38944
31000;32;25.7529;-0.00306947;-0.000119175;-2.00497;25.6622;0.802699;0.0358167;0.00166361;-0.0592208;0.0123559;-0.0461214;-0.0824319;0.0952621;-7.14546;-0.000133578;-6.67759e-05;0.000668046;0.00067357;-0.000139102;0.000406336;0.199953;5.00118;0.000501882;0.000541782;4.84227;0.206515;54.9141;99.9141;0.00377026;-0.000134555;-0.00153405;0.00139933;0.000666872;0.00104528;0.00189791;0;0.0125288;0.0478318;-0.0498095;-0.147834;0.163168;-6.32833;-0.000278711;0.000155776;-7.98428e-06;6.30247e-05;-0.00034972;0.000206372;;;0.000256746;0.000275163;0.180215;5.54893;14.7195;59.7195;0.00345038;-0.000279065;-0.000544444;0.000855807;-8.12036e-06;0.00430723;-0.0011867;0;0.0236269;-0.0100316;2.39681
32000;33;25.7529;-0.00311623;-0.000120991;-2.00521;25.6622;0.800559;0.035577;0.00166478;-0.0613601;0.0116266;-0.047785;-0.081051;0.0948043;-7.14408;-0.000177178;-3.50101e-06;0.000638314;0.00063833;-0.000177193;0.000407761;0.277572;3.60267;0.000495298;0.000543682;3.60245;0.277589;49.7077;94.7077;0.00385408;-0.000178261;-0.0014798;0.0014716;0.00063722;0.000312058;0.00269081;0;0.0264392;0.0467423;-0.0505804;-0.150586;0.165588;-6.33108;-0.000165229;0.000128851;3.43243e-05;9.75138e-05;-0.000228419;0.000162966;4.81377;0.207737;0.00019317;0.000217288;0.426908;2.34243;16.3541;61.3541;0.00295614;-0.000165597;-0.000609579;0.000867134;3.41468e-05;0.00544295;-0.00281369;0;0.024951;-0.0100858;2.40326
33000;34;25.7537;-0.00225718;-8.76373e-05;-2.00675;25.6628;0.803578;0.0340366;0.0023121;-0.0583414;0.00970123;-0.0512991;-0.0818107;0.0970499;-7.14484;-0.000175715;0.000121695;0.000610793;0.000629192;-0.000194114;0.000411653;0.287683;3.47605;0.000496968;0.000548871;3.24135;0.308513;40.651;85.651;0.00355142;-0.000176963;-0.00134248;0.00158472;0.0006099;0.000525316;0.00268321;0;0.035945;0.0426319;-0.0548605;-0.147306;0.162868;-6.3278;-0.000217354;5.46613e-05;6.57023e-05;7.58912e-05;-0.000227543;0.000151717;3.30817;0.302282;0.000182335;0.00020229;0.333524;2.99828;31.3608;76.3608;0.00264608;-0.000217638;-0.000645579;0.000754704;6.54954e-05;0.00537212;-0.00186096;0;0.0321692;-0.00941687;2.41089
34000;35;25.755;-0.000938189;-3.64261e-05;-2.01007;25.6639;0.804552;0.0307218;0.00334586;-0.0573676;0.00803255;-0.0528144;-0.0800738;0.0962585;-7.1431;-0.000157602;0.000359604;0.000425149;0.000596607;-0.00032906;0.000462833;0.370698;2.69762;0.000541824;0.000617111;1.81307;0.551552;22.5019;67.5019;0.00325035;-0.000158887;-0.000924353;0.00164281;0.000424787;-0.000253994;0.00182123;0;0.0170303;0.0372667;-0.0573493;-0.144162;0.159564;-6.32466;-0.00023726;4.68065e-06;7.93405e-05;7.94097e-05;-0.000237329;0.00015837;2.9904;0.334403;0.000190295;0.000211159;0.334597;2.98867;41.2539;86.2539;0.00183375;-0.000237564;-0.000769975;0.000779091;7.90441e-05;0.00725533;-0.00178178;0;0.022574;-0.00933243;2.41808
35000;36;25.7562;0.000253761;9.85252e-06;-2.01272;25.6647;0.807892;0.0280731;0.00422953;-0.0540275;0.00613841;-0.0550425;-0.0824417;0.0993176;-7.14547;-0.00018048;-7.95624e-05;0.000244317;0.000258729;-0.000194893;0.000226811;0.738714;1.3537;0.000262762;0.000302415;1.32755;0.753269;56.0513;101.051;0.00290307;-0.000181097;-0.00127255;0.00111292;0.00024351;0.00128444;0.00299857;0;0.0136654;0.0327465;-0.0596569;-0.144801;0.159996;-6.3253;-0.000346309;-2.80113e-05;-1.37052e-05;-1.13627e-05;-0.000348651;0.000168644;-25.2684;-0.0395752;0.000228741;0.000224859;-0.0325903;-30.6839;43.9306;88.9306;0.00151892;-0.000346661;-0.000895417;0.000839106;-1.41057e-05;0.00790798;-0.000871945;0;0.0222893;-0.00922934;2.42604
36000;37;25.7566;0.000609682;2.36715e-05;-2.01304;25.665;0.810154;0.0277522;0.00449026;-0.0517656;0.00640548;-0.0537654;-0.0868291;0.102328;-7.14985;7.02216e-05;0.000191222;-1.67861e-05;0.000222826;-0.000169391;0.000196109;4.18333;0.239044;0.000227146;0.000261478;1.31546;0.760192;174.283;39.2826;0.0027616;6.93615e-05;-0.00094291;0.00132545;-1.72123e-05;0.000544203;0.00434345;0;0.0165952;0.0325818;-0.0583751;-0.14983;0.164068;-6.33032;-0.000266405;3.91809e-05;0.000112507;0.000116516;-0.000270414;0.000193465;2.36789;0.422317;0.000229209;0.000257954;0.430882;2.32082;36.5714;81.5714;0.00090198;-0.000266796;-0.000806958;0.000884999;0.000112183;0.00827913;-0.00277389;0;0.0237275;-0.00919754;2.43257
37000;38;25.756;7.08923e-05;2.75246e-06;-2.01356;25.6645;0.808411;0.027233;0.00396377;-0.0535085;0.00557927;-0.0551433;-0.0821673;0.099113;-7.14519;-1.73603e-05;0.00016436;0.000173801;0.000268351;-0.000111911;0.000190131;0.0998861;10.0114;0.000225653;0.000253508;2.3979;0.417032;17.0791;62.0791;0.00282231;-1.81894e-05;-0.00096965;0.00129815;0.000173344;0.000361213;0.00289852;0;0.0130554;0.0314354;-0.0598041;-0.143668;0.158762;-6.32416;-0.000265598;-4.93523e-05;3.29612e-05;4.09077e-05;-0.000273544;0.000157226;8.05789;0.124102;0.000197417;0.000209635;0.149547;6.68686;51.0028;96.0028;0.00161255;-0.000266098;-0.00109993;0.00100091;3.23575e-05;0.0068404;-0.00157774;0;0.0215705;-0.00948011;2.43922
38000;39;25.7562;0.000263683;1.02377e-05;-2.01442;25.6646;0.809783;0.0263707;0.00404633;-0.0521365;0.00431644;-0.0529485;-0.0882863;0.103037;-7.15131;-6.7494e-06;0.000146711;7.04828e-05;0.000183575;-0.000119841;0.000151708;;;0.000176461;0.000202277;1.53181;0.65282;8.16016;53.1602;0.00293747;-7.62584e-06;-0.00103874;0.00133207;6.99541e-05;0.000246152;0.00274076;0;0.0238116;0.0301029;-0.0583971;-0.146723;0.160761;-6.32722;-0.000249642;-4.77579e-05;4.19616e-05;4.9584e-05;-0.000257265;0.000153424;5.94931;0.168087;0.000190205;0.000204566;0.192735;5.18847;51.3246;96.3246;0.0013919;-0.000250169;-0.00112274;0.00102692;4.13325e-05;0.00757791;-0.00105434;0;0.0266824;-0.00902847;2.4441
39000;40;25.753;-0.00298688;-0.000115969;-2.01364;25.6615;0.805776;0.0271438;0.00097096;-0.0561435;0.00555691;-0.0614034;-0.0629568;0.0881182;-7.12598;-0.000328423;-5.99433e-06;0.000375666;0.000375717;-0.000328474;0.000352096;0.874243;1.14385;0.00040687;0.000469461;1.14382;0.87426;46.0926;91.0926;0.00287318;-0.000329077;-0.00115645;0.00114365;0.000374997;0.000514565;0.00111399;0;0.0477152;0.0305341;-0.0636341;-0.126283;0.144669;-6.30678;-0.000173633;-3.89722e-05;2.82661e-05;3.55276e-05;-0.000180895;0.000108211;6.14282;0.162792;0.000134018;0.000144282;0.196399;5.09167;53.5594;98.5594;0.00138837;-0.000174128;-0.00107321;0.00099506;2.76909e-05;0.00637091;-0.00292924;0;0.0367541;-0.00919553;2.44914
40000;41;25.7572;0.00118941;4.61801e-05;-2.01256;25.6657;0.809346;0.0282323;0.0051352;-0.0525735;0.00611057;-0.0550365;-0.0818765;0.0988439;-7.1449;-0.000171159;0.000138157;0.000195518;0.000241745;-0.000217386;0.000229565;0.875413;1.14232;0.000265204;0.000306087;1.11205;0.899237;26.7993;71.7993;0.00312384;-0.000172097;-0.00110077;0.00137663;0.000194922;2.23508e-05;0.00138493;0;0.0161587;0.0322929;-0.0598938;-0.145596;0.160712;-6.32609;-0.00035253;-9.35462e-05;1.09752e-05;3.36362e-05;-0.000375191;0.000204414;32.1206;0.0311327;0.00026206;0.000272551;0.0896509;11.1544;52.6227;97.6227;0.00132158;-0.000352777;-0.000896242;0.000708858;1.0578e-05;0.00820178;-0.00279389;0;0.0290653;-0.00918803;2.45466
41000;42;25.756;1.99907e-05;7.7616e-07;-2.01302;25.6645;0.807148;0.0277673;0.00399435;-0.0547713;0.00636184;-0.0543745;-0.0792226;0.0962978;-7.14225;4.39145e-05;6.0793e-05;0.000256643;0.000272791;2.7767e-05;0.000122512;-0.171111;-5.84416;0.000173348;0.000163349;-9.8243;-0.101788;33.8114;78.8114;0.00330682;4.3163e-05;-0.00110612;0.00122746;0.000256034;-0.000513959;0.00307698;0;0.0207165;0.0325289;-0.0588127;-0.143396;0.158365;-6.32389;-0.000502528;-3.22428e-06;6.70167e-05;6.7035e-05;-0.000502547;0.000284791;7.49855;0.133359;0.000359466;0.000379721;0.133391;7.49678;38.0748;83.0748;0.00138342;-0.000502879;-0.000843966;0.000837038;6.66606e-05;0.0074871;-0.0019589;0;0.0273331;-0.00949035;2.46183
42000;43;25.7559;-5.14508e-05;-1.99762e-06;-2.01224;25.6644;0.809468;0.0285535;0.00391124;-0.0524513;0.00566873;-0.0539585;-0.0870181;0.102547;-7.15004;-7.62144e-05;3.34285e-05;0.000224004;0.000227681;-7.98915e-05;0.000153786;0.340237;2.93913;0.000184284;0.000205048;2.84988;0.350892;40.5493;85.5493;0.00318163;-7.69356e-05;-0.0011349;0.00120141;0.000223361;-0.000232039;0.00312239;0;0.0215349;0.0318277;-0.0588892;-0.147153;0.161663;-6.32765;-0.000200723;-4.43328e-05;9.71527e-06;1.86735e-05;-0.000209681;0.000114177;;;0.000146409;0.000152236;0.0890566;11.2288;53.8919;98.8919;0.00142373;-0.000201249;-0.00111567;0.00102678;9.09389e-06;0.0078693;-0.000620259;0;0.0245193;-0.00903413;2.47006
43000;44;25.7565;0.000499373;1.93886e-05;-2.01288;25.6649;0.808981;0.027913;0.00442915;-0.0529382;0.00592361;-0.053931;-0.0849593;0.100805;-7.14798;-0.000116949;-8.49683e-05;0.000270518;0.000288332;-0.000134763;0.000211547;0.432315;2.31313;0.00024958;0.000282063;2.13955;0.467388;58.7269;103.727;0.00262171;-0.000117539;-0.00126031;0.00108991;0.000269727;0.00056611;0.00273094;0;0.0145268;0.0325382;-0.0590273;-0.147546;0.162212;-6.32804;-0.000314848;-3.7969e-05;5.53964e-05;5.92501e-05;-0.000318702;0.000188976;5.68355;0.175946;0.000234724;0.000251968;0.185911;5.37893;46.8991;91.8991;0.00121565;-0.000315258;-0.000982693;0.000906406;5.49143e-05;0.00855299;-0.00244189;0;0.0216526;-0.00897583;2.47664
44000;45;25.7558;-0.000161821;-6.28286e-06;-2.01302;25.6643;0.806664;0.0277729;0.00382755;-0.0552554;0.00563691;-0.054242;-0.0834919;0.099724;-7.14652;-2.77766e-05;-9.6117e-05;-6.08284e-05;5.32249e-05;-0.00014183;9.75274e-05;-0.456639;-2.18991;0.000116424;0.000130037;0.375273;2.66473;93.8597;138.86;0.00282105;-2.8409e-05;-0.00132093;0.00112873;-6.16963e-05;0.00105238;0.00388726;0;0.0123909;0.0319865;-0.0589635;-0.146781;0.161383;-6.32727;-0.000316535;6.24782e-07;4.01402e-05;4.01413e-05;-0.000316537;0.000178339;7.88574;0.126811;0.000225598;0.000237785;0.126814;7.88555;40.3383;85.3383;0.0014138;-0.000316904;-0.000857731;0.000858674;3.97724e-05;0.00736947;-0.00216244;0;0.0218277;-0.00935857;2.48475
45000;46;25.7559;-6.71607e-05;-2.60758e-06;-2.01396;25.6643;0.810064;0.0268256;0.00374114;-0.0518555;0.00553495;-0.0536775;-0.0833707;0.0993105;-7.1464;-3.5191e-05;-8.80788e-06;0.000175905;0.000176272;-3.55579e-05;0.000105915;0.200056;4.99859;0.000130986;0.00014122;4.95734;0.201721;49.2154;94.2154;0.00299981;-3.57965e-05;-0.00111835;0.0011005;0.00017528;-0.000224553;0.00254711;0;0.0132888;0.031783;-0.0584862;-0.144989;0.159539;-6.32548;-0.000273362;-2.88415e-05;1.06561e-06;4.06401e-06;-0.00027636;0.000140212;;;0.00018561;0.000186949;;;46.3864;91.3864;0.00116892;-0.000273697;-0.000876823;0.000818907;6.81621e-07;0.00729765;-0.0024416;0;0.022208;-0.00923172;2.49105
46000;47;25.755;-0.00097604;-3.78957e-05;-2.01282;25.6636;0.805361;0.0279729;0.00306704;-0.0565585;0.00494096;-0.0515736;-0.0883553;0.102425;-7.15138;-6.46709e-05;9.43378e-05;0.000159511;0.000193926;-9.9086e-05;0.000146506;0.405433;2.4665;0.000172099;0.000195341;1.95714;0.510948;26.0715;71.0715;0.00335115;-6.55549e-05;-0.00114458;0.00133298;0.00015886;-0.000947126;0.00250995;0;0.0150899;0.0314038;-0.0569742;-0.149752;0.163273;-6.33025;-0.000408917;-1.26372e-05;-2.46009e-05;-2.41858e-05;-0.000409332;0.000192573;-16.622;-0.0601611;0.000265194;0.000256764;-0.0590861;-16.9245;40.5253;85.5253;0.00165169;-0.000409364;-0.000971475;0.000945832;-2.50727e-05;0.00669993;-0.00143794;0;0.0229936;-0.0093136;2.49869
47000;48;25.7555;-0.000512651;-1.99042e-05;-2.0126;25.664;0.806661;0.0281922;0.00350844;-0.0552582;0.00545107;-0.0540475;-0.0843458;0.100325;-7.14737;-4.20585e-05;0.000125578;0.000685016;0.000706094;-6.31368e-05;0.000384615;0.0613979;16.2872;0.000493124;0.000512821;11.1836;0.0894169;42.9633;87.9633;0.00323688;-4.29344e-05;-0.00107915;0.00132943;0.000684442;-0.000150257;0.00240463;0;0.0173473;0.0319236;-0.058942;-0.146439;0.161052;-6.32693;-0.000380165;-0.000126892;3.36754e-05;6.94844e-05;-0.000415974;0.000242729;11.2891;0.088581;0.000303144;0.000323639;0.16704;5.98658;55.9613;100.961;0.00152602;-0.000380557;-0.0011486;0.000894392;3.30238e-05;0.0071835;-0.00121506;0;0.023062;-0.00924396;2.50522
48000;49;25.7563;0.000319515;1.24055e-05;-2.01312;25.6647;0.809445;0.0276729;0.00421518;-0.0524739;0.00614937;-0.0546347;-0.0795974;0.0967394;-7.14262;-0.000126121;0.000202897;0.000559227;0.00061479;-0.000181684;0.000398237;0.225528;4.43404;0.000481974;0.000530983;3.38384;0.295522;34.6041;79.6041;0.00325981;-0.000127161;-0.00105111;0.00145605;0.000558695;0.000212336;0.00139505;0;0.0132353;0.0323021;-0.0589172;-0.143148;0.158133;-6.32364;-0.000305625;-5.56626e-05;8.33018e-05;9.11114e-05;-0.000313435;0.000202273;3.66889;0.272562;0.00024504;0.000269697;0.290687;3.44013;49.405;94.405;0.00157129;-0.000305964;-0.000937168;0.0008255;8.28643e-05;0.00750112;-0.00120625;0;0.0224928;-0.00922368;2.51303
49000;50;25.7566;0.000600345;2.3309e-05;-2.01324;25.665;0.808081;0.0275479;0.00453021;-0.0538383;0.00569488;-0.0535644;-0.0848386;0.100495;-7.14786;-5.75907e-05;0.000109403;0.000625363;0.00064246;-7.4688e-05;0.000358574;0.0920917;10.8587;0.00045525;0.000478099;8.60192;0.116253;42.4352;87.4352;0.00347044;-5.85361e-05;-0.00116141;0.00137935;0.000624695;-0.000591191;0.00266594;0;0.0137777;0.0320947;-0.0587931;-0.146937;0.161485;-6.32743;-0.000400646;-3.67542e-05;5.05682e-05;5.35424e-05;-0.00040362;0.000228581;7.92289;0.126217;0.000288588;0.000304775;0.132655;7.53833;43.7549;88.7549;0.00146833;-0.000400968;-0.000877134;0.000803247;5.01842e-05;0.00772123;-0.002692;0;0.022669;-0.00906612;2.51761
50000;51;25.7569;0.00089896;3.4903e-05;-2.01285;25.6654;0.808796;0.02794;0.00483811;-0.0531233;0.00533622;-0.0538533;-0.0831087;0.0991752;-7.14613;-2.4847e-05;-6.64176e-06;0.000174849;0.000175069;-2.50676e-05;0.000100069;0.142105;7.03703;0.000125903;0.000133425;6.98389;0.143187;48.6919;93.6919;0.00284932;-2.55723e-05;-0.00121795;0.00120443;0.000174107;-3.91976e-05;0.00320009;0;0.0123363;0.0318048;-0.0585089;-0.145763;0.160255;-6.32626;-0.000218761;8.35675e-06;1.00244e-06;1.31975e-06;-0.000219079;0.000110199;;;0.000146494;0.000146932;;;39.7014;84.7014;0.00151383;-0.00021926;-0.000981653;0.000998149;5.2065e-07;0.0070646;-0.00127334;0;0.0224127;-0.00918584;2.52471
51000;52;25.7557;-0.000303412;-1.17803e-05;-2.01303;25.6643;0.80517;0.0277626;0.00373154;-0.0567489;0.006197;-0.054213;-0.083605;0.0998361;-7.14663;-6.1358e-05;-1.67032e-05;3.45079e-05;3.73349e-05;-6.4185e-05;5.07599e-05;1.77808;0.562403;5.92919e-05;6.76799e-05;0.581676;1.71917;54.2929;99.2929;0.00300717;-6.20184e-05;-0.00118282;0.0011493;3.38086e-05;0.000608818;0.00345144;0;0.0121969;0.0325228;-0.0587981;-0.146884;0.161523;-6.32738;-0.000390777;-7.08965e-05;8.15542e-05;9.19662e-05;-0.000401189;0.000246578;4.79163;0.208697;0.000302807;0.00032877;0.229234;4.36236;48.5522;93.5522;0.00173573;-0.000391128;-0.000982124;0.0008399;8.10745e-05;0.00783669;-0.00197433;0;0.0230963;-0.009337;2.52834
52000;53;25.7551;-0.000887345;-3.4452e-05;-2.01252;25.6638;0.802809;0.0282701;0.00325932;-0.0591103;0.00582301;-0.0537985;-0.0833408;0.0993674;-7.14637;-0.000193156;0.000403554;0.000424483;0.000623822;-0.000392495;0.000508159;0.455039;2.19761;0.000591816;0.000677545;1.58937;0.629179;21.605;66.605;0.00314315;-0.000194279;-0.000745082;0.00155148;0.000424287;-0.000389223;0.00152218;0;0.0297354;0.0321488;-0.0589577;-0.145993;0.160697;-6.32649;-0.000329297;3.05272e-07;-4.99326e-05;-4.99323e-05;-0.000329297;0.000139683;-6.59483;-0.151634;0.000204925;0.000186243;-0.151633;-6.59488;38.9412;83.9412;0.00165819;-0.000329694;-0.00089043;0.000890792;-5.0329e-05;0.00775069;-0.00176052;0;0.0296872;-0.00914362;2.53539
53000;54;25.756;-5.57327e-06;-2.16387e-07;-2.01336;25.6644;0.808567;0.0274242;0.00389711;-0.0533523;0.00658219;-0.0577217;-0.0727133;0.0930718;-7.13574;-0.00015166;0.000293019;-9.70676e-05;0.000169924;-0.000418651;0.000294288;-1.56242;-0.640034;0.000349782;0.000392383;0.405884;2.46376;179.763;44.7632;0.00338856;-0.000152758;-0.000924808;0.00151078;-9.74523e-05;-0.00085665;0.00340176;0;0.0151644;0.03241;-0.061658;-0.136402;0.153158;-6.3169;-0.000275197;-2.69992e-05;4.14388e-05;4.37245e-05;-0.000277482;0.000160603;6.64104;0.150579;0.000201153;0.000214138;0.157576;6.34615;45.6583;90.6583;0.00122702;-0.00027549;-0.00082011;0.00076586;4.11029e-05;0.00813714;-0.00363295;0;0.0245514;-0.0095026;2.54303
54000;55;25.7565;0.000562398;2.18356e-05;-2.01336;25.665;0.809474;0.0274298;0.00443895;-0.052445;0.00487147;-0.056303;-0.0778536;0.0962026;-7.14088;-4.0315e-05;0.000263128;1.02024e-06;0.000244291;-0.000283586;0.000263938;;;0.000305051;0.000351918;0.861436;1.16085;1.79804;46.798;0.00277324;-4.13665e-05;-0.000947562;0.00147377;6.05924e-07;4.67777e-05;0.00407721;0;0.0121145;0.0311286;-0.0610414;-0.139233;0.15518;-6.31973;-0.000280202;-6.05982e-05;-2.11451e-05;-7.67086e-06;-0.000293676;0.000143003;-13.2514;-0.0754637;0.000193278;0.00019067;;;52.7138;97.7138;0.00109679;-0.000280539;-0.00094494;0.000823515;-2.15897e-05;0.00887002;-0.00293124;0;0.0212965;-0.00922751;2.54935
55000;56;25.7561;0.000159023;6.17423e-06;-2.01271;25.6647;0.807828;0.0280784;0.00413689;-0.0540916;0.00485841;-0.0556659;-0.081237;0.0985989;-7.14426;-0.000188821;4.74099e-05;0.000404073;0.00040784;-0.000192588;0.000300214;0.467295;2.13998;0.000354005;0.000400285;2.11768;0.472215;42.829;87.829;0.00322265;-0.000189737;-0.00126024;0.00135429;0.00040328;0.000792525;0.00192029;0;0.0174272;0.0311532;-0.0605657;-0.142597;0.158028;-6.32309;-0.000274702;-5.93083e-05;2.21898e-05;3.3599e-05;-0.000286112;0.000159855;12.3797;0.0807776;0.00020287;0.00021314;0.117433;8.51548;52.2118;97.2118;0.00147157;-0.000275119;-0.00103385;0.000914946;2.16571e-05;0.00803829;-0.00138976;0;0.0238866;-0.00905735;2.55728
56000;57;25.756;-6.92213e-07;-2.68758e-08;-2.01308;25.6644;0.808885;0.0277077;0.00391422;-0.0530339;0.00484719;-0.0556265;-0.0821933;0.0993657;-7.14522;-0.000212627;-0.000169292;0.000547017;0.000583037;-0.000248647;0.000415842;0.388703;2.57266;0.00049294;0.000554456;2.34484;0.426469;61.1556;106.156;0.00264135;-0.000213096;-0.00132225;0.00098279;0.000546158;0.0013541;0.00293377;0;0.0146383;0.0307873;-0.0609693;-0.141566;0.157181;-6.32206;-0.000259676;-2.83767e-05;4.18914e-05;4.45383e-05;-0.000262323;0.000153431;6.19881;0.161321;0.000191463;0.000204574;0.169784;5.88984;47.1633;92.1633;0.00151351;-0.000260126;-0.00100551;0.00094846;4.13863e-05;0.00776884;-0.00132527;0;0.0212941;-0.00904912;2.56397
57000;58;25.7566;0.000678205;2.63319e-05;-2.01407;25.665;0.809543;0.0267144;0.00449689;-0.0523768;0.00538467;-0.0562174;-0.0781269;0.0964013;-7.14115;-0.000184305;0.000162336;0.000294992;0.000344799;-0.000234112;0.000289455;0.62478;1.60056;0.000336264;0.00038594;1.4728;0.678981;29.3525;74.3525;0.00291063;-0.000185136;-0.000975321;0.00129945;0.00029453;-0.000231716;0.00358845;0;0.0313958;0.0313756;-0.0611209;-0.141086;0.156925;-6.32158;-0.000361393;-7.06116e-05;5.04087e-05;6.218e-05;-0.000373164;0.000217672;7.16925;0.139485;0.000271883;0.000290229;0.166629;6.00135;49.2772;94.2772;0.00110306;-0.000361692;-0.000918024;0.000776452;4.99898e-05;0.00793814;-0.00123663;0;0.0311479;-0.00913521;2.57229
58000;59;25.7571;0.00112427;4.36508e-05;-2.01297;25.6655;0.811242;0.0278165;0.00497734;-0.0506772;0.00517167;-0.0572827;-0.0773714;0.0964074;-7.1404;-0.000104673;0.000347929;-2.4707e-07;0.000299365;-0.000404285;0.000351825;;;0.000407755;0.0004691;0.74048;1.35048;2.94419;47.9442;0.00299509;-0.000105692;-0.000773528;0.00146927;-4.85715e-07;0.000850181;0.00214562;0;0.0142744;0.0311135;-0.0616854;-0.138704;0.154958;-6.3192;-0.000233703;-3.48643e-05;0.000113896;0.000117359;-0.000237165;0.000177262;2.05189;0.487356;0.000208544;0.000236349;0.49484;2.02085;48.8569;93.8569;0.00167102;-0.000234109;-0.000972498;0.000902444;0.000113424;0.00653557;-0.00205277;0;0.0209484;-0.00900526;2.57921
59000;60;25.7554;-0.000551113;-2.13975e-05;-2.01315;25.664;0.806366;0.027638;0.00343564;-0.055553;0.00529053;-0.0546576;-0.0845993;0.100859;-7.14762;-7.27754e-05;0.000149611;0.000164425;0.000236742;-0.000145092;0.000190917;0.442605;2.25935;0.000222559;0.000254556;1.63167;0.612871;20.3086;65.3086;0.00306401;-7.36815e-05;-0.00105551;0.00135445;0.000163879;-6.76605e-05;0.00313226;0;0.0133984;0.0315494;-0.0595194;-0.145748;0.160563;-6.32624;-0.000309562;-0.000118155;4.27746e-05;7.87287e-05;-0.000345517;0.000212123;7.23707;0.138177;0.000260582;0.00028283;0.227858;4.3887;58.2955;103.295;0.00150398;-0.000309983;-0.00116124;0.000924567;4.21073e-05;0.00754419;-0.00176821;0;0.0226162;-0.00941377;2.58743
60000;61;25.7568;0.00081461;3.1628e-05;-2.01326;25.6652;0.810164;0.0275238;0.00467769;-0.0517558;0.00478171;-0.0533102;-0.0889445;0.103807;-7.15197;3.86524e-05;6.26178e-05;0.000171312;0.0001962;1.37647e-05;9.12176e-05;-0.225625;-4.43213;0.000126462;0.000121623;-14.2538;-0.0701566;25.8147;70.8147;0.00306683;3.78406e-05;-0.00115071;0.00127578;0.000170652;-0.000152645;0.0037648;0;0.0133325;0.030849;-0.0590851;-0.148392;0.162674;-6.32889;-0.000310123;-0.000111797;0.000125539;0.000152553;-0.000337137;0.000244845;2.47033;0.404804;0.00028934;0.00032646;0.452495;2.20997;56.0585;101.058;0.0013837;-0.000310546;-0.00114999;0.000925946;0.000124884;0.00710832;-0.00111188;0;0.0226948;-0.0092107;2.59394
61000;62;25.756;-1.34479e-05;-5.22127e-07;-2.01289;25.6645;0.807378;0.0278964;0.00396368;-0.0545412;0.00485547;-0.0535625;-0.0896147;0.104515;-7.15264;-1.98834e-05;0.000170275;0.000186456;0.000282378;-0.000115806;0.000199092;0.106639;9.37746;0.000236502;0.000265456;2.43837;0.410109;17.6684;62.6684;0.00283194;-2.07592e-05;-0.000994091;0.0013344;0.000185976;0.000951532;0.0026092;0;0.0225316;0.0309733;-0.0581629;-0.151535;0.165243;-6.33203;-0.000387484;1.10873e-05;3.33449e-05;3.36368e-05;-0.000387776;0.000210706;11.6205;0.0860549;0.000270428;0.000280942;0.0867429;11.5283;38.4967;83.4967;0.00146949;-0.000387997;-0.000991299;0.00101305;3.28536e-05;0.00690105;-0.000417468;0;0.0267844;-0.00940225;2.59662
62000;63;25.7571;0.00108323;4.20575e-05;-2.01384;25.6654;0.811585;0.0269466;0.00485707;-0.0503342;0.00474989;-0.0530545;-0.0899835;0.104568;-7.15301;-9.79738e-05;0.000147806;0.000114195;0.000190046;-0.000173825;0.000181935;0.857955;1.16556;0.00021015;0.00024258;1.09332;0.914648;18.0438;63.0438;0.00265622;-9.88809e-05;-0.00105955;0.0013549;0.000113644;0.0011718;0.00333556;0;0.0161747;0.0310206;-0.0584915;-0.150014;0.163975;-6.33051;-0.000320138;-7.19574e-05;0.000115761;0.000127332;-0.000331709;0.000229521;2.76551;0.361597;0.000273644;0.000306028;0.383867;2.60507;51.5084;96.5084;0.00137003;-0.000320668;-0.00117667;0.00103227;0.000115071;0.0073872;-0.00131949;0;0.0239357;-0.00890327;2.6034
63000;64;25.7567;0.000749877;2.91147e-05;-2.01385;25.6651;0.809825;0.0269407;0.00457766;-0.0520944;0.00412138;-0.0523905;-0.0908055;0.104916;-7.15383;2.86662e-05;2.37178e-05;0.000624308;0.000625251;2.77233e-05;0.000298764;-0.0459167;-21.7786;0.000407907;0.000398352;-22.5533;-0.0443394;50.404;95.404;0.00328106;2.79286e-05;-0.00116805;0.00121478;0.000623627;-3.93681e-05;0.00226986;0;0.0153045;0.0304147;-0.0586689;-0.148983;0.162982;-6.32948;-0.000223728;-4.38737e-05;4.19243e-05;4.89827e-05;-0.000230786;0.000139884;5.33646;0.18739;0.000172519;0.000186513;0.212243;4.71158;51.5755;96.5755;0.00141169;-0.000224191;-0.00105124;0.000963221;4.13727e-05;0.00725709;-0.00111382;0;0.0234478;-0.00920832;2.60975
64000;65;25.7575;0.00155735;6.04655e-05;-2.01342;25.6659;0.812216;0.0273685;0.00534601;-0.049703;0.00524601;-0.0538741;-0.0867213;0.102228;-7.14975;-0.00021038;0.000272236;0.000388543;0.000493791;-0.000315628;0.000404709;0.541458;1.84686;0.000471076;0.000539612;1.56447;0.639193;26.1167;71.1167;0.00308974;-0.000211338;-0.000866563;0.00141035;0.000388205;-0.00113115;0.00322801;0;0.0176842;0.0314365;-0.0594395;-0.146248;0.160965;-6.32674;-0.000302405;-7.41021e-05;4.77693e-06;2.17184e-05;-0.000319346;0.000170532;;;0.000220494;0.000227377;0.0680089;14.704;53.3553;98.3553;0.00118129;-0.00030277;-0.0010062;0.000857709;4.27346e-06;0.00814122;-0.00260944;0;0.0226235;-0.00879853;2.6166
65000;66;25.7562;0.000208481;8.09447e-06;-2.01316;25.6646;0.810657;0.0276283;0.00406202;-0.0512625;0.00655962;-0.0569041;-0.0756033;0.0948523;-7.13863;-5.81795e-05;0.000213485;0.000176949;0.0003031;-0.000184331;0.000243715;0.328793;3.04142;0.000284189;0.000324954;1.64433;0.608152;15.766;60.766;0.00328707;-5.92734e-05;-0.00106769;0.00149436;0.000176401;-0.000866225;0.00159884;0;0.0139592;0.0323415;-0.0613045;-0.137981;0.154412;-6.31848;-0.000282147;-5.83338e-05;3.03671e-05;4.09006e-05;-0.000292681;0.000166791;9.2912;0.107629;0.000210085;0.000222387;0.139745;7.15589;51.2929;96.2929;0.001619;-0.000282504;-0.000964289;0.000847339;2.99039e-05;0.00725056;-0.00165591;0;0.024226;-0.00924159;2.62355
66000;67;25.7559;-9.05352e-05;-3.51512e-06;-2.01319;25.6643;0.809062;0.027598;0.00380987;-0.052857;0.00395573;-0.0559044;-0.0794533;0.0972305;-7.14248;-0.000143723;3.16592e-05;0.00020128;0.000204161;-0.000146604;0.000175383;0.714046;1.40047;0.000203421;0.000233844;1.3926;0.718081;40.5491;85.5491;0.00280699;-0.000144391;-0.00109331;0.00115624;0.000200683;0.00128285;0.00362327;0;0.0129527;0.0298738;-0.0608956;-0.139953;0.155523;-6.32045;-0.000338305;-7.48536e-05;4.86039e-05;6.25806e-05;-0.000352282;0.000207431;6.96046;0.143669;0.000258255;0.000276575;0.177643;5.62926;51.1948;96.1948;0.00168176;-0.000338674;-0.0010117;0.000861633;4.80949e-05;0.00669598;-0.000941861;0;0.0214198;-0.00945617;2.63082
67000;68;25.7582;0.00225864;8.76939e-05;-2.01377;25.6664;0.815236;0.0270173;0.00592654;-0.0466837;0.00402576;-0.0533148;-0.0870595;0.102167;-7.15008;-0.000134693;0.000151912;0.000317295;0.000363606;-0.000181004;0.000272305;0.424503;2.35569;0.000320268;0.000363074;2.00883;0.497803;30.3342;75.3342;0.00299209;-0.000135527;-0.000997141;0.00130044;0.000316809;0.000382097;0.00292592;0;0.0131385;0.0301181;-0.0587625;-0.146729;0.160903;-6.32722;-0.000317817;-5.05219e-05;6.44869e-06;1.41379e-05;-0.000325506;0.000169822;;;0.000221867;0.00022643;0.0434335;23.0237;48.588;93.588;0.0010661;-0.000318151;-0.000919659;0.000818333;6.02708e-06;0.00779951;-0.00285521;0;0.0209763;-0.00906813;2.63782
68000;69;25.7559;-6.47147e-05;-2.51261e-06;-2.014;25.6643;0.807828;0.026792;0.00381143;-0.0540913;0.0045632;-0.0565813;-0.0782052;0.096635;-7.14123;-4.15458e-06;0.000115137;0.000224731;0.000272626;-5.205e-05;0.000162338;;;0.000201356;0.000216451;5.23777;0.190921;24.9518;69.9518;0.00303652;-5.08006e-06;-0.00113537;0.00136536;0.000224093;0.000517703;0.00367138;0;0.0151345;0.0305554;-0.0609963;-0.139618;0.155394;-6.32011;-0.000241659;-0.000103116;8.98943e-05;0.000119348;-0.000271112;0.00019523;2.68826;0.371988;0.000231039;0.000260307;0.440214;2.27162;58.9396;103.94;0.00139126;-0.000242127;-0.00117929;0.000972705;8.92043e-05;0.00682029;-0.00183388;0;0.0211246;-0.00920138;2.64539
69000;70;25.754;-0.00200404;-7.78087e-05;-2.01183;25.6627;0.803256;0.0289543;0.0021783;-0.0586631;0.00549403;-0.0592421;-0.0712485;0.0928233;-7.13427;-0.00016195;-1.00195e-05;0.000171698;0.000171998;-0.000162251;0.000167124;0.943229;1.06019;0.000193006;0.000222832;1.06008;0.943328;46.8539;91.8539;0.00293549;-0.000162632;-0.00118839;0.00116796;0.000170992;0.000204208;0.00295131;0;0.0198767;0.0320241;-0.0623315;-0.137757;0.154557;-6.31825;-0.000449872;-4.41855e-05;6.17575e-05;6.55454e-05;-0.00045366;0.000259603;7.2845;0.137278;0.000326489;0.000346137;0.144481;6.92131;42.7111;87.7111;0.00112291;-0.000450124;-0.00080016;0.000711402;6.14383e-05;0.00846565;-0.00310277;0;0.0364952;-0.00946531;2.65259
70000;71;25.7544;-0.00153305;-5.95222e-05;-2.01277;25.6631;0.804428;0.0280208;0.00254105;-0.0574912;0.00814317;-0.0571652;-0.0862125;0.103763;-7.14924;-1.71396e-05;0.00017919;8.15869e-05;0.000218088;-0.000153641;0.000185865;0.210078;4.76013;0.00021569;0.000247819;1.41947;0.70449;8.452;53.452;0.00325017;-1.81578e-05;-0.00107995;0.0014382;8.10198e-05;-0.00010886;0.00299304;0;0.0159248;0.0345977;-0.0603491;-0.152486;0.167604;-6.33298;-0.000278425;9.40411e-06;2.4195e-05;2.4487e-05;-0.000278717;0.000151602;11.5075;0.0868996;0.000194488;0.000202136;0.0878561;11.3823;38.0943;83.0943;0.00157115;-0.000278677;-0.000691866;0.000710462;2.39557e-05;0.00703483;-0.00265279;0;0.0246622;-0.00922057;2.6594
71000;72;25.7557;-0.000274404;-1.0654e-05;-2.01358;25.6642;0.807336;0.0272072;0.00364906;-0.0545836;0.00661429;-0.0581344;-0.0734435;0.0939005;-7.13647;-7.80425e-05;0.000233791;0.000222255;0.00034996;-0.000205747;0.000277854;0.351139;2.84787;0.000324419;0.000370472;1.70092;0.587917;18.0823;63.0823;0.00338203;-7.90524e-05;-0.000973004;0.00144022;0.000221809;-0.000434341;0.00213863;0;0.0184319;0.0318323;-0.0621417;-0.137143;0.153893;-6.31764;-0.000322578;-5.03132e-05;4.43069e-05;5.10816e-05;-0.000329352;0.000190217;7.28053;0.137353;0.000238426;0.000253623;0.155097;6.44757;48.1734;93.1734;0.00131769;-0.000322918;-0.000927321;0.000826373;4.38783e-05;0.00820428;-0.00187402;0;0.0217239;-0.0093041;2.66638
72000;73;25.756;-4.44164e-06;-1.72451e-07;-2.01233;25.6644;0.812049;0.0284594;0.00386951;-0.0498707;0.00779873;-0.0594969;-0.0712592;0.0931589;-7.13428;-8.51106e-05;4.89834e-05;-7.96098e-05;-3.32997e-05;-0.000131421;4.90606e-05;-1.0691;-0.935368;7.88924e-05;6.54141e-05;-0.253382;-3.94661;179.624;44.6238;0.00325623;-8.5862e-05;-0.0011288;0.00122676;-8.02457e-05;-0.000946614;0.00326128;0;0.0189675;0.0340454;-0.0621465;-0.13536;0.152786;-6.31585;-0.000266956;-5.67879e-05;-1.66886e-05;-4.40573e-06;-0.000279239;0.000137417;-15.9964;-0.0625141;0.000184708;0.000183222;;;52.5381;97.5381;0.0014014;-0.000267278;-0.000917455;0.000803663;-1.71078e-05;0.00790758;-0.00214293;0;0.0233135;-0.00918657;2.67096
73000;74;25.758;0.00199642;7.75131e-05;-2.01355;25.6662;0.813777;0.0272336;0.00572665;-0.0481426;0.00466572;-0.0545788;-0.0857849;0.101782;-7.14881;-6.11095e-05;0.000184984;0.000180449;0.000280592;-0.000161252;0.000220922;0.338652;2.95288;0.000258182;0.000294563;1.74008;0.574686;17.9053;62.9053;0.00248162;-6.21918e-05;-0.0011132;0.00148285;0.000179847;0.00143417;0.00286509;0;0.0128348;0.0307494;-0.0598821;-0.144882;0.159757;-6.32538;-0.000336441;-0.00012674;2.50182e-05;6.50288e-05;-0.000376452;0.00022074;13.4479;0.0743612;0.000275217;0.00029432;0.172741;5.789;58.3575;103.357;0.00144075;-0.000336869;-0.00118693;0.000933065;2.43218e-05;0.00782804;-0.00129047;0;0.021647;-0.00899593;2.67778
74000;75;25.7566;0.000627643;2.43688e-05;-2.01316;25.665;0.811403;0.0276329;0.00445946;-0.0505163;0.00639534;-0.0570071;-0.0752769;0.0946431;-7.1383;-0.000110516;5.67931e-05;0.000251285;0.00025999;-0.000119222;0.000189606;0.439805;2.27373;0.00022391;0.000252808;2.18073;0.458563;38.0396;83.0396;0.00292225;-0.000111254;-0.00110237;0.00121554;0.000250679;0.00108716;0.00397485;0;0.0232373;0.0321728;-0.0614847;-0.13772;0.154215;-6.31821;-0.000289755;-6.60487e-05;3.98303e-05;5.25737e-05;-0.000302499;0.000177536;7.27475;0.137462;0.000221282;0.000236715;0.173798;5.75381;51.8575;96.8575;0.00156335;-0.000290078;-0.000938617;0.000806232;3.9392e-05;0.00705047;-0.00192577;0;0.033114;-0.0089974;2.68156
75000;76;25.7554;-0.000587732;-2.28193e-05;-2.01325;25.6639;0.805879;0.0275391;0.00340646;-0.0560408;0.00630892;-0.0573846;-0.072066;0.092338;-7.13509;-0.000137977;0.000119286;0.000165505;0.000206778;-0.000179251;0.000193014;0.833674;1.19951;0.000223063;0.000257353;1.15357;0.866873;26.2551;71.2551;0.00313224;-0.000138866;-0.00110018;0.00133839;0.000164907;-0.000436176;0.00399885;0;0.0130664;0.0319828;-0.061015;-0.137387;0.153691;-6.31788;-0.000260812;-6.56761e-05;3.56102e-05;4.95098e-05;-0.000274711;0.000162111;7.32408;0.136536;0.00020168;0.000216147;0.180225;5.54863;53.3643;98.3643;0.00142006;-0.000261151;-0.000957545;0.000825928;3.51539e-05;0.00828797;-0.00230789;0;0.0226726;-0.00915696;2.68925
76000;77;25.7553;-0.000695814;-2.70156e-05;-2.0119;25.664;0.804361;0.028892;0.00345168;-0.0575581;0.00514923;-0.0530538;-0.0893204;0.104016;-7.15235;-0.000198647;0.00022921;0.000642822;0.000701206;-0.000257031;0.000479119;0.309023;3.236;0.000572708;0.000638825;2.7281;0.366556;36.468;81.468;0.00229943;-0.000199495;-0.000864376;0.00132187;0.000642475;0.0010657;0.00134083;0;0.0129853;0.0325019;-0.0579626;-0.15273;0.166561;-6.33322;-0.000425824;-2.87668e-05;5.45653e-05;5.62818e-05;-0.00042754;0.000241911;7.80392;0.128141;0.00030552;0.000322548;0.131641;7.59641;42.2494;87.2494;0.00124398;-0.000426158;-0.000876355;0.000818415;5.41818e-05;0.0087393;-0.00168104;0;0.0215261;-0.00901787;2.69644
77000;78;25.7563;0.000290978;1.12975e-05;-2.01271;25.6647;0.810437;0.0280736;0.00418667;-0.0514821;0.00502422;-0.0540326;-0.0873072;0.102797;-7.15033;-0.000138328;0.000115404;0.00035399;0.000379699;-0.000164038;0.000271868;0.39077;2.55905;0.000322052;0.000362491;2.31471;0.43202;35.023;80.023;0.0029377;-0.000139188;-0.00108614;0.00131636;0.000353407;0.000949648;0.00172171;0;0.012077;0.0311405;-0.0593556;-0.145907;0.160567;-6.3264;-0.000398966;-2.54892e-05;-4.87767e-06;-3.2359e-06;-0.000400607;0.000198686;;;0.000266;0.000264914;;;42.0779;87.0779;0.00138006;-0.000399312;-0.000883807;0.000832491;-5.26791e-06;0.00841806;-0.00253442;0;0.0217079;-0.00925219;2.70419
78000;79;25.7577;0.00169341;6.57484e-05;-2.01253;25.6661;0.812416;0.0282573;0.00554597;-0.0495036;0.00610273;-0.0528892;-0.083108;0.0986988;-7.14613;-6.20538e-05;0.000172225;0.000178696;0.000268444;-0.000151802;0.000210123;0.347259;2.87969;0.000245724;0.000280164;1.76838;0.565488;18.9296;63.9296;0.00306976;-6.29282e-05;-0.000989346;0.00133352;0.000178221;-0.00050182;0.0043307;0;0.0136179;0.0323354;-0.0578521;-0.145388;0.159782;-6.32588;-0.000299785;7.1098e-06;6.09106e-05;6.10507e-05;-0.000299926;0.000180488;4.92173;0.203181;0.000223103;0.000240651;0.203553;4.91273;39.533;84.533;0.00126195;-0.000300096;-0.000773623;0.000787561;6.06114e-05;0.00835333;-0.00199694;0;0.0214846;-0.00913101;2.71171
79000;80;25.7566;0.000627124;2.43487e-05;-2.01375;25.6651;0.807157;0.0270354;0.00454594;-0.0547619;0.00521752;-0.0532537;-0.0862354;0.101488;-7.14926;-3.13699e-05;0.000198212;0.000520159;0.000584004;-9.52144e-05;0.000339609;0.0603083;16.5815;0.000424647;0.000452812;6.13357;0.163037;33.3072;78.3072;0.00277811;-3.22213e-05;-0.000924079;0.00131989;0.000519752;0.000913346;0.00310271;0;0.0134439;0.0312379;-0.0584491;-0.147872;0.162044;-6.32837;-0.000205989;-7.54832e-05;6.18759e-05;8.16823e-05;-0.000225795;0.000153739;3.32906;0.300385;0.000183907;0.000204985;0.361754;2.76431;57.6416;102.642;0.00112989;-0.000206407;-0.00106853;0.0009173;6.13079e-05;0.00736495;-0.00130978;0;0.0243849;-0.00916117;2.71945
80000;81;25.7566;0.000618006;2.39947e-05;-2.0148;25.6649;0.809206;0.025988;0.00439006;-0.052713;0.00467459;-0.0547201;-0.0846273;0.100886;-7.14765;-0.000170127;0.0002403;5.1526e-05;0.000205324;-0.000323926;0.000264625;3.30177;0.302868;0.000308109;0.000352833;0.633863;1.57763;10.9413;55.9413;0.00301099;-0.000171088;-0.000926369;0.00140671;5.11258e-05;0.00045151;0.00292536;0;0.0156317;0.0296532;-0.05989;-0.143916;0.158675;-6.32441;-0.0003262;-5.20988e-06;7.51653e-05;7.52329e-05;-0.000326267;0.00020075;4.33977;0.230427;0.000246447;0.000267667;0.230587;4.33676;42.2844;87.2844;0.00128014;-0.000326725;-0.00103536;0.00102453;7.46294e-05;0.00753614;-0.00243736;0;0.0239692;-0.00882156;2.72606
81000;82;25.7552;-0.000750934;-2.91557e-05;-2.0148;25.6636;0.80573;0.0259924;0.00312596;-0.0561894;0.00518283;-0.0554615;-0.0785878;0.096327;-7.14161;-0.000123275;3.05733e-05;0.000211399;0.000214169;-0.000126045;0.000170107;0.583139;1.71486;0.000198607;0.000226809;1.69915;0.588531;40.9732;85.9732;0.00291206;-0.000123927;-0.00108189;0.00114266;0.000210814;-0.000581519;0.00276307;0;0.0129873;0.0295002;-0.0605591;-0.13939;0.154814;-6.31988;-0.000361139;-4.34462e-05;5.43743e-05;5.88684e-05;-0.000365633;0.000212251;6.64172;0.150564;0.000265562;0.000283001;0.161004;6.21101;46.2174;91.2174;0.00100272;-0.000361527;-0.000969742;0.000882464;5.39051e-05;0.00752309;-0.00175049;0;0.0217095;-0.00882467;2.73352
82000;83;25.7568;0.000835526;3.24401e-05;-2.016;25.665;0.81023;0.0247898;0.00448199;-0.0516898;0.00342992;-0.0557303;-0.0754357;0.0938519;-7.13846;-4.42744e-05;-0.000148752;0.000367407;0.00041553;-9.23972e-05;0.000253964;0.120505;8.29842;0.000312407;0.000338618;4.49722;0.22236;66.7415;111.742;0.00266651;-4.48282e-05;-0.00136089;0.00106289;0.000366493;3.92455e-06;0.00345295;0;0.0130622;0.0269337;-0.0610842;-0.133867;0.14959;-6.31436;-0.000294082;-5.68861e-05;6.44487e-05;7.32581e-05;-0.000302891;0.000188075;4.56303;0.219153;0.000230265;0.000250766;0.241863;4.13457;50.158;95.158;0.000857351;-0.000294431;-0.000951376;0.000837283;6.39978e-05;0.00674106;-0.00346022;0;0.0214645;-0.00869179;2.73888
83000;84;25.7574;0.00140139;5.44101e-05;-2.01714;25.6654;0.814045;0.0236511;0.00483968;-0.0478748;0.00330822;-0.0542657;-0.0824545;0.0987647;-7.14548;-7.27793e-05;0.000214116;0.000334892;0.000426682;-0.000164569;0.000295626;0.217322;4.60148;0.000352363;0.000394168;2.59272;0.385695;25.1988;70.1988;0.00327022;-7.36239e-05;-0.000889346;0.00131713;0.00033452;0.000237783;0.00281602;0;0.0143122;0.0260767;-0.059323;-0.140347;0.154585;-6.32084;-0.000324092;-1.22468e-05;3.58559e-05;3.62721e-05;-0.000324508;0.00018039;9.03875;0.110635;0.000229388;0.00024052;0.111775;8.94651;42.458;87.458;0.000909926;-0.000324495;-0.000921969;0.000897148;3.5431e-05;0.0057988;-0.00134343;0;0.0211051;-0.00862252;2.7448
84000;85;25.7568;0.000825326;3.20441e-05;-2.01805;25.6648;0.811142;0.0227377;0.00428164;-0.0507771;0.00294082;-0.0539194;-0.0822861;0.0984224;-7.14531;-7.42831e-05;0.000157669;0.00017054;0.000247738;-0.000151481;0.00019961;0.435576;2.29581;0.000232712;0.000266146;1.63544;0.611458;20.1601;65.1601;0.00301944;-7.50854e-05;-0.000961457;0.00127652;0.00017009;6.1813e-05;0.0029549;0;0.0127606;0.0249648;-0.0597278;-0.13818;0.152592;-6.31867;-0.000297597;-2.29037e-05;6.96969e-05;7.11196e-05;-0.00029902;0.00018507;4.26987;0.234199;0.000226801;0.00024676;0.237843;4.20446;44.9177;89.9177;0.00103015;-0.000297972;-0.000912657;0.000866523;6.92807e-05;0.00606954;-0.000605618;0;0.0211929;-0.00891112;2.7501
85000;86;25.7556;-0.000325361;-1.26325e-05;-2.01837;25.6637;0.810136;0.0224139;0.00313316;-0.0517837;0.00294155;-0.0550374;-0.0795483;0.0967765;-7.14257;-0.000156316;0.000262823;-5.32859e-05;0.000163023;-0.000372625;0.000267824;-2.93354;-0.340885;0.00031705;0.000357099;0.437498;2.28572;2.61018;47.6102;0.00245346;-0.000157097;-0.000751573;0.00127711;-5.35338e-05;0.000445628;0.00408287;0;0.0125211;0.0238906;-0.0600292;-0.137562;0.151978;-6.31806;-0.000238871;-7.6877e-05;0.000104479;0.000120906;-0.000255298;0.000188102;2.2863;0.437387;0.000221773;0.000250803;0.473589;2.11154;54.943;99.943;0.00102724;-0.000239208;-0.000978494;0.000824431;0.000104003;0.00467313;-0.00198759;0;0.0219355;-0.00891972;2.75535
86000;87;25.7571;0.00109595;4.25513e-05;-2.01865;25.6649;0.814288;0.0221381;0.00440648;-0.0476317;0.00185092;-0.0559768;-0.0782901;0.0962609;-7.14132;-1.56259e-06;3.85398e-05;0.000399721;0.000403389;-5.23048e-06;0.000204309;;;0.000270686;0.000272413;;;45.3672;90.3672;0.00276654;-2.07193e-06;-0.000933342;0.00101003;0.000399286;0.000200893;0.00356091;0;0.0123349;0.0219828;-0.0613606;-0.135376;0.15025;-6.31587;-0.000191093;4.31666e-05;-1.51068e-08;9.28413e-06;-0.000200392;0.000104838;;;0.000136794;0.000139784;;;29.3529;74.3529;0.00131056;-0.000191429;-0.00073487;0.000821054;-2.84192e-07;0.00328362;-0.00217963;0;0.0222676;-0.00856275;2.76285
87000;88;25.7583;0.00234445;9.10254e-05;-2.01952;25.666;0.816418;0.0212705;0.00552354;-0.0455017;0.00195316;-0.0540881;-0.0842159;0.100108;-7.14724;-7.77776e-05;0.000174663;2.52029e-05;0.000155807;-0.000208382;0.000182094;3.08606;0.324038;0.000210993;0.000242792;0.7477;1.33744;7.45216;52.4522;0.00234386;-7.84199e-05;-0.000797505;0.00114673;2.49001e-05;0.000582708;0.00170918;0;0.0122656;0.0217325;-0.0601679;-0.140146;0.154057;-6.32064;-0.000281197;-2.78578e-05;0.000101743;0.000103759;-0.000283213;0.000193486;2.76381;0.36182;0.000231288;0.000257981;0.366362;2.72954;45.8937;90.8937;0.000958744;-0.000281484;-0.000813883;0.000757867;0.000101412;0.00440306;-0.00271383;0;0.0201131;-0.00877294;2.77045
88000;89;25.758;0.00198901;7.72252e-05;-2.02039;25.6657;0.815324;0.0203964;0.0051328;-0.0465955;0.00176421;-0.0564011;-0.082093;0.0996166;-7.14512;6.70421e-05;-8.13091e-05;0.000395348;0.000414382;4.80084e-05;0.000183187;-0.169577;-5.89702;0.000261724;0.000244249;-8.63145;-0.115855;64.9138;109.914;0.00219422;6.66535e-05;-0.00104832;0.000885385;0.000394803;0.00204168;0.00260594;0;0.01824;0.0206577;-0.0616076;-0.140842;0.155108;-6.32134;-0.000113292;-2.51741e-05;9.84961e-05;0.000101447;-0.000116243;0.000108845;1.15021;0.869403;0.00012578;0.000145127;0.872719;1.14584;51.4395;96.4395;0.00107956;-0.000113607;-0.000844943;0.000794421;9.81395e-05;0.00389771;-0.00220699;0;0.0261512;-0.00849019;2.77791
89000;90;25.7557;-0.000230944;-8.9666e-06;-2.0209;25.6636;0.80783;0.0198898;0.00310196;-0.0540893;0.000923603;-0.0546216;-0.0920658;0.107054;-7.15509;-0.000102089;-6.75461e-05;9.69587e-05;0.000117716;-0.000122846;0.000120281;1.05292;0.949743;0.000138899;0.000160375;0.958235;1.04359;62.0221;107.022;0.00239094;-0.000102512;-0.00105706;0.00092177;9.64023e-05;0.00153186;0.00348743;0;0.0130193;0.0199781;-0.0599109;-0.152554;0.165109;-6.33305;-0.000257341;-6.87448e-05;0.000157382;0.00016848;-0.000268439;0.000218459;1.63514;0.611569;0.000254446;0.000291279;0.627628;1.5933;52.1464;97.1464;0.00130307;-0.000257539;-0.000771492;0.000633711;0.000157086;0.00343119;-0.00245005;0;0.0205261;-0.00804841;2.78505
90000;91;25.7552;-0.000724045;-2.81117e-05;-2.02065;25.6633;0.803672;0.0201345;0.00275692;-0.0582475;-0.000489907;-0.0565041;-0.0867377;0.10352;-7.14976;9.83153e-06;0.00013091;3.78291e-05;0.000155486;-0.000107826;0.000131656;;;0.000152851;0.000175542;1.44201;0.693474;3.72401;48.724;0.00272778;9.15638e-06;-0.000907583;0.00116937;3.74258e-05;-0.000190905;0.00279161;0;0.0124794;0.0182469;-0.0615057;-0.150046;0.163186;-6.33054;-7.84822e-05;-0.000107768;5.3713e-05;0.000114038;-0.000138808;0.000126423;1.46114;0.684397;0.000146214;0.000168564;0.821557;1.2172;73.6464;118.646;0.00113409;-7.85928e-05;-0.000698089;0.000482476;5.34752e-05;0.00277154;-0.00222929;0;0.0213931;-0.00814528;2.7925
91000;92;25.7557;-0.000311193;-1.20823e-05;-2.02111;25.6637;0.802138;0.0196807;0.00318351;-0.0597816;0.00040864;-0.0559051;-0.0959107;0.111015;-7.15894;-2.72986e-05;2.71408e-05;0.000385104;0.000386883;-2.90771e-05;0.00020798;0.0708864;14.1071;0.00026814;0.000277306;13.3054;0.0751575;46.6019;91.6019;0.00207641;-2.77747e-05;-0.000922228;0.000976119;0.000384679;0.000283571;0.00272903;0;0.0130481;0.0187952;-0.0610148;-0.16106;0.173252;-6.34155;-1.56225e-05;-5.89454e-05;0.000153616;0.000172122;-3.41294e-05;0.000103126;0.101699;9.83295;0.000127655;0.000137501;5.04324;0.198285;65.4755;110.476;0.00189229;-1.57947e-05;-0.000707689;0.000589689;0.000153367;0.00202915;-0.00328165;0;0.0205361;-0.00794222;2.79966
92000;93;25.7554;-0.000613212;-2.38086e-05;-2.02084;25.6635;0.799042;0.0199486;0.00299806;-0.0628768;-0.000183427;-0.0579791;-0.0937549;0.110234;-7.15678;-0.000171136;-4.35427e-05;0.000326555;0.000330335;-0.000174916;0.000252626;0.524064;1.90816;0.000296272;0.000336834;1.88853;0.529511;52.3109;97.3109;0.00215202;-0.000171547;-0.000995222;0.000907664;0.00032606;0.00132436;0.00241933;0;0.0135399;0.017673;-0.062631;-0.161717;0.17432;-6.33838;5.47555e-05;-7.38199e-05;-4.01258e-05;9.50645e-05;-8.04348e-05;8.77496e-05;1.3646;0.732818;0.000101442;0.000117;1.18188;0.846108;106.642;151.642;0.00235155;5.45054e-05;-0.000858599;0.000711033;-4.04917e-05;0.000927696;5.12332e-05;0;0.0193326;-0.00776437;2.80703
93000;94;25.7548;-0.00112108;-4.35269e-05;-2.02201;25.663;0.79599;0.0187766;0.00249091;-0.0659289;0.000293169;-0.060134;-0.0927322;0.110523;-7.15576;-0.000254474;0.000209216;4.17555e-05;0.000149979;-0.000362698;0.000256338;6.09439;0.164085;0.000304369;0.000341785;0.41351;2.41832;14.4387;59.4387;0.00243301;-0.000255114;-0.000732229;0.00115038;4.15093e-05;0.000579417;0.00210639;0;0.0174022;0.0180278;-0.0645225;-0.163344;0.176549;-6.34384;7.75207e-05;-5.16943e-05;3.36112e-05;0.000111729;-5.97287e-07;5.61632e-05;-2.3064;-0.433577;7.4686e-05;7.48843e-05;;;104.404;149.404;0.00157398;7.73985e-05;-0.000600558;0.000497194;3.34322e-05;0.00258953;-0.00240254;0;0.0237286;-0.00755125;2.81412
94000;95;25.7542;-0.00178309;-6.92302e-05;-2.02308;25.6623;0.794424;0.017706;0.0017907;-0.0674957;-0.00138172;-0.0596193;-0.0966176;0.11354;-7.15964;-0.000175204;9.80325e-05;0.000288039;0.000307931;-0.000195095;0.000251513;0.608263;1.64403;0.000292848;0.000335351;1.57836;0.633568;35.1301;80.1301;0.00227854;-0.000175822;-0.000920513;0.00111611;0.000287621;0.00161821;0.00262442;0;0.0164098;0.0156465;-0.0646208;-0.167629;0.180333;-6.34429;6.29827e-05;-7.63638e-06;4.19607e-05;6.54638e-05;3.94796e-05;1.29921e-05;-1.50099;-0.666226;3.80623e-05;1.73228e-05;-1.65817;-0.603075;119.511;164.511;0.00254883;6.28076e-05;-0.000607015;0.000591755;4.17765e-05;0.000109532;0.000207143;0;0.0202337;-0.00745658;2.81844
95000;96;25.7541;-0.00190383;-7.39179e-05;-2.02287;25.6623;0.78989;0.0179216;0.00182647;-0.0720293;-0.000765034;-0.0614982;-0.09604;0.114045;-7.15907;-0.000168047;2.64474e-05;0.000558823;0.000559784;-0.000169008;0.000364396;0.300716;3.3254;0.000440469;0.000485861;3.31218;0.301916;49.1263;94.1263;0.00205833;-0.000168466;-0.000863438;0.000915687;0.000558451;0.001656;0.00212146;0;0.0180093;0.0159458;-0.0659105;-0.170509;0.183499;-6.34717;1.15086e-05;-1.46973e-05;-8.83522e-05;1.36268e-05;-9.04704e-05;5.20486e-05;0.130258;7.67707;6.53313e-05;6.93981e-05;0.150621;6.63917;125.15;170.15;0.00262688;1.12985e-05;-0.000677734;0.000648406;-8.85818e-05;0.00042726;0.00182858;0;0.0224826;-0.00743885;2.8226
96000;97;25.7565;0.000502182;1.94977e-05;-2.02316;25.6647;0.791409;0.017624;0.00417082;-0.0705102;-0.000911847;-0.0632061;-0.0971122;0.115873;-7.16014;-0.000300393;0.000147394;0.000349647;0.000381506;-0.000332252;0.000356879;0.859132;1.16397;0.000412416;0.000475839;1.14824;0.870895;33.5975;78.5975;0.00212731;-0.000300933;-0.000755479;0.00104968;0.000349373;0.00118113;0.00389042;0;0.0177769;0.0156191;-0.0682681;-0.175087;0.188574;-6.35175;3.29804e-05;-9.80984e-05;7.15669e-05;0.000152251;-4.7704e-05;9.99776e-05;-0.460833;-2.16998;0.000120589;0.000133303;3.19158;0.313324;86.6158;131.616;0.00273208;3.28106e-05;-0.000787174;0.00059095;7.12619e-05;-0.000419676;0.00232304;0;0.0192022;-0.0072164;2.83041
97000;98;25.7553;-0.000620766;-2.41018e-05;-2.02332;25.6637;0.785107;0.0174702;0.00322531;-0.0768127;-0.00124537;-0.0637169;-0.100757;0.11922;-7.16378;-0.000277947;-2.29945e-05;0.000865725;0.000866187;-0.00027841;0.000572298;0.321057;3.11471;0.000689266;0.000763064;3.1112;0.32142;55.7958;100.796;0.00198838;-0.000278281;-0.000864468;0.000817518;0.000865352;0.0012059;0.00180072;0;0.014422;0.0150862;-0.0695791;-0.18071;0.194229;-6.35737;0.000198694;-4.81268e-05;4.46151e-05;0.000212491;3.0818e-05;9.08367e-05;-4.45353;-0.224541;0.000132588;0.000121116;-6.89503;-0.145032;123.844;168.844;0.00302058;0.000198473;-0.000762808;0.000666664;4.43253e-05;-0.00100827;0.000848846;0;0.0173907;-0.0072462;2.83689
98000;99;25.7554;-0.000574291;-2.22974e-05;-2.02409;25.6639;0.780433;0.0167021;0.00335392;-0.0814861;-0.000994243;-0.0655306;-0.100892;0.12031;-7.16392;-0.000353172;-0.000216778;0.000572169;0.000620435;-0.000401439;0.000510937;0.617252;1.62008;0.000594478;0.00068125;1.54553;0.647028;60.964;105.964;0.00209789;-0.000353395;-0.00113597;0.000701564;0.000571547;0.00109068;0.00245047;0;0.0152756;0.0151552;-0.0718103;-0.184131;0.198218;-6.36079;8.73029e-05;9.58163e-06;2.68551e-05;8.87853e-05;2.53727e-05;3.17063e-05;-3.25088;-0.307609;5.28052e-05;4.22751e-05;-3.49925;-0.285776;145.821;10.8205;0.00302977;8.69666e-05;-0.000800976;0.000820189;2.65344e-05;-0.00146982;0.00224205;0;0.0168253;-0.00715463;2.84325
99000;100;25.7575;0.00150531;5.84453e-05;-2.0242;25.666;0.778775;0.0165859;0.00548215;-0.0831443;-0.00134075;-0.0670474;-0.105016;0.124602;-7.16804;-0.000401328;-0.000238722;0.000785789;0.000831997;-0.000447535;0.000639766;0.510732;1.95797;0.000749771;0.000853021;1.85906;0.537905;62.4714;107.471;0.00169169;-0.000401475;-0.00107131;0.000592873;0.000785245;0.00201141;0.00204057;0;0.013936;0.0146689;-0.0751093;-0.190646;0.205432;-6.37114;-2.2902e-05;-6.05245e-05;6.37916e-06;5.40087e-05;-7.05315e-05;6.22701e-05;;;7.21139e-05;8.30268e-05;0.765738;1.30593;82.9474;127.947;0.00315999;-2.32435e-05;-0.000949653;0.000828578;5.93007e-06;-9.77564e-05;0.000384656;0;0.0170959;-0.00714695;2.85033
100000;101;25.7583;0.00235316;9.13638e-05;-2.02525;25.6668;0.776632;0.0155392;0.00631538;-0.085287;-0.0014541;-0.0686415;-0.107704;0.127726;-7.17073;-0.00039165;-6.95185e-05;0.000444805;0.000450544;-0.000397389;0.000423966;0.880498;1.13572;0.000489875;0.000565288;1.13376;0.882021;50.6678;95.6678;0.00182072;-0.000391924;-0.000881781;0.000742065;0.000444419;0.00128441;0.00265886;0;0.0145985;0.0144349;-0.0773256;-0.197826;0.212891;-6.37832;0.000138888;-5.02587e-05;3.11134e-05;0.000158688;1.13136e-05;7.3687e-05;-4.46393;-0.224018;0.000102229;9.82493e-05;-14.0263;-0.0712948;116.078;161.078;0.00294288;0.000138488;-0.000996231;0.000895815;3.06184e-05;0.000838203;0.00141344;0;0.017604;-0.00711935;2.85738
101000;102;25.7581;0.00209829;8.14683e-05;-2.02515;25.6667;0.771929;0.0156416;0.00620957;-0.0899905;-0.00156867;-0.0706444;-0.107993;0.129057;-7.17102;-0.000327075;0.000147473;0.000948792;0.000965616;-0.000343899;0.000654757;0.344727;2.90084;0.000783937;0.00087301;2.80785;0.356144;48.3755;93.3755;0.00232612;-0.000327577;-0.000719366;0.00101321;0.000948545;0.000285767;0.00280029;0;0.0148873;0.0141807;-0.0800258;-0.200787;0.216612;-6.37745;0.000158561;2.6826e-06;-9.48108e-05;0.00015859;-9.48392e-05;0.000126714;1.6724;0.597945;0.000147852;0.000168952;1.67219;0.598017;136.61;1.61042;0.00275581;0.000158134;-0.000918586;0.000924184;-9.52327e-05;0.000216926;0.000948812;0;0.0184923;-0.00702083;2.86492
102000;103;25.7588;0.00278794;0.000108244;-2.02548;25.6675;0.767494;0.0153065;0.00700822;-0.0944256;-0.00168195;-0.0727738;-0.109046;0.13111;-7.17207;-0.000357415;-5.34062e-05;0.000784024;0.000786517;-0.000359908;0.000573213;0.455873;2.1936;0.000676993;0.000764284;2.18533;0.457598;54.0341;99.0341;0.00164443;-0.000357813;-0.00100093;0.000893041;0.000783525;0.00139139;0.00111634;0;0.01439;0.013947;-0.0826143;-0.204967;0.22143;-6.38163;6.46833e-05;-0.000104585;-0.00025936;9.55064e-05;-0.000290183;0.000192845;0.249396;4.00968;0.00023194;0.000257126;0.329125;3.03836;115.712;160.712;0.00274562;6.43188e-05;-0.00106907;0.000860216;-0.000259926;0.000198663;0.00123888;0;0.0201549;-0.00700895;2.87129
103000;104;25.7581;0.00214374;8.32329e-05;-2.02607;25.6669;0.765635;0.0147209;0.00637104;-0.0962845;-0.00161808;-0.0743913;-0.110908;0.133556;-7.17393;-0.000428241;-0.000187492;0.000886926;0.000913133;-0.000454448;0.000683791;0.482838;2.07109;0.000804241;0.000911721;2.00932;0.49768;60.4941;105.494;0.00118223;-0.000428445;-0.00104111;0.000665004;0.000886402;0.00185282;0.00264485;0;0.0132852;0.0139336;-0.083949;-0.209957;0.226547;-6.38662;7.0702e-05;-7.01425e-05;-0.000200529;8.77677e-05;-0.000217595;0.000152681;0.352578;2.83626;0.000181535;0.000203575;0.403354;2.47921;119.246;164.246;0.00236814;7.03706e-05;-0.00095721;0.000817165;-0.000200985;0.000873812;0.00189105;0;0.0207588;-0.00682361;2.87897
104000;105;25.758;0.00207826;8.06903e-05;-2.02519;25.667;0.763513;0.0155953;0.00643753;-0.0984064;-0.00186506;-0.0765841;-0.111785;0.135515;-7.17481;-0.000418141;-2.82698e-05;0.00106472;0.00106526;-0.00041868;0.000741969;0.392724;2.54632;0.000883446;0.000989293;2.54433;0.393031;55.2378;100.238;0.0021952;-0.000418593;-0.00100876;0.00095077;0.00106421;0.00120896;0.00346496;0;0.013878;0.0139143;-0.0861087;-0.213059;0.230223;-6.38972;-0.000115673;-9.85711e-05;-0.000142928;-2.97919e-05;-0.000228809;9.95087e-05;-0.809305;-1.23563;0.000143642;0.000132678;-0.130204;-7.68025;87.617;132.617;0.0020821;-0.000115782;-0.000674432;0.000477306;-0.000143151;0.00113447;0.00156743;0;0.0207834;-0.00674465;2.88535
105000;106;25.7568;0.000845856;3.28411e-05;-2.02556;25.6658;0.760956;0.0152302;0.00524788;-0.100963;-0.0023997;-0.0794267;-0.113118;0.138239;-7.17614;-0.000420602;-0.000182964;0.00145596;0.00147363;-0.000438274;0.000955954;0.288882;3.46162;0.00115653;0.00127461;3.36236;0.29741;65.7123;110.712;0.00142416;-0.00042083;-0.00106762;0.000700034;0.00145541;0.00230845;0.00343215;0;0.0151742;0.0132024;-0.0889897;-0.217089;0.234992;-6.39758;4.01226e-05;-0.000292081;-2.10926e-05;0.000303195;-0.000284165;0.00029368;1.90221;0.525705;0.000339172;0.000391574;1.06697;0.937235;93.946;138.946;0.00128674;4.01652e-05;-0.000578673;-5.47152e-06;-2.12174e-05;0.00247502;-0.00135844;0;0.024895;-0.00656151;2.89008
106000;107;25.7557;-0.000296986;-1.15308e-05;-2.02495;25.6647;0.759905;0.0158339;0.00417979;-0.102015;-0.00302453;-0.0845361;-0.118366;0.145485;-7.18139;-0.000428493;3.54114e-05;0.00110788;0.00110869;-0.000429309;0.000769;0.38677;2.58552;0.000916388;0.00102533;2.5825;0.387221;52.8801;97.8801;0.00247582;-0.000429052;-0.000988475;0.00105773;0.00110739;-0.00029526;0.00525601;0;0.0138545;0.0129347;-0.0929549;-0.226304;0.244993;-6.4068;6.46567e-05;-0.000224931;8.34332e-05;0.000299172;-0.000151082;0.000225127;-0.774951;-1.2904;0.000264599;0.000300169;1.9802;0.505;96.5;141.5;0.00151677;6.4681e-05;-0.000494085;4.42179e-05;8.33364e-05;0.00312435;-0.0010068;0;0.0224778;-0.0061137;2.90056
107000;108;25.7556;-0.000392536;-1.52406e-05;-2.02584;25.6646;0.756384;0.0149485;0.00411801;-0.105535;-0.00325478;-0.0851373;-0.116189;0.144079;-7.17921;-0.000210658;5.65231e-05;0.00144485;0.00144677;-0.000212586;0.00082968;0.1458;6.85873;0.00104263;0.00110624;6.80561;0.146938;58.7797;103.78;0.00220539;-0.000211224;-0.000954121;0.0010655;0.00144439;0.000598625;0.00467406;0;0.0145063;0.0125608;-0.0930038;-0.225258;0.244025;-6.40575;8.87957e-05;-0.000280581;4.66461e-05;0.000349092;-0.00021365;0.000281371;-1.9036;-0.52532;0.000328021;0.000375161;1.63394;0.612017;98.5406;143.541;0.00165189;8.88348e-05;-0.00057921;1.80611e-05;4.65177e-05;0.00218717;-0.000541946;0;0.0260409;-0.0062952;2.90071
108000;109;25.7538;-0.00219303;-8.51463e-05;-2.02495;25.6631;0.750861;0.0158407;0.00254376;-0.111059;-0.00219749;-0.0858937;-0.118564;0.146424;-7.18159;-0.000175486;0.000173372;0.00134965;0.00136911;-0.000194946;0.000782027;0.130023;7.69094;0.000984178;0.0010427;7.02303;0.142389;52.6539;97.6539;0.00218236;-0.000176281;-0.000927995;0.00127306;0.00134923;0.000354757;0.00472232;0;0.0153209;0.0137342;-0.0937571;-0.230507;0.249224;-6.411;7.76977e-05;-0.000243553;6.50312e-05;0.000315;-0.000172271;0.000243635;-1.19478;-0.836978;0.000285321;0.000324847;1.82851;0.546892;98.5243;143.524;0.00177436;7.77272e-05;-0.000499995;1.28919e-05;6.49359e-05;0.00205859;-0.000197944;0;0.024317;-0.00569514;2.90786
109000;110;25.7524;-0.00358248;-0.000139093;-2.0245;25.6618;0.747878;0.0162844;0.0012715;-0.114041;-0.00308031;-0.0882611;-0.122432;0.150961;-7.18546;-0.000197824;-7.66512e-05;0.00146462;0.00146814;-0.000201351;0.000834747;0.135069;7.40362;0.00105232;0.001113;7.29146;0.137147;64.5968;109.597;0.00208575;-0.000198196;-0.0010204;0.000865527;0.0014641;0.00137815;0.00403187;0;0.0247004;0.0131371;-0.0950097;-0.237981;0.256582;-6.41848;0.000124441;-0.000251845;0.000157953;0.000393599;-0.000111205;0.000252402;-0.78784;-1.26929;0.000306272;0.000336535;3.53941;0.282533;102.616;147.616;0.00172154;0.000124473;-0.000506262;2.56428e-06;0.000157856;0.00321797;-0.00102973;0;0.0265618;-0.00564945;2.9148
110000;111;25.7523;-0.00371689;-0.000144312;-2.02434;25.6616;0.750351;0.0164468;0.00107725;-0.111569;-0.00420395;-0.091723;-0.124937;0.155049;-7.18796;-0.000216246;2.42943e-05;0.000901528;0.000902056;-0.000216773;0.000559415;0.239866;4.169;0.000685156;0.000745886;4.16128;0.240311;54.5447;99.5447;0.0022837;-0.000216643;-0.000843808;0.000891427;0.000901173;-9.57968e-05;0.00522688;0;0.0147836;0.0118376;-0.0971322;-0.24177;0.260821;-6.42226;0.000105835;-0.000221315;0.000116724;0.000332662;-0.000110103;0.000221382;-0.906717;-1.10288;0.000266177;0.000295176;3.02138;0.330975;102.97;147.97;0.00175603;0.00010586;-0.000436534;-6.09845e-06;0.000116653;0.00357012;-0.000687004;0;0.0254466;-0.00499894;2.92251
111000;112;25.7516;-0.00440079;-0.000170865;-2.02412;25.661;0.748021;0.0166636;0.000476043;-0.113898;-0.00418328;-0.094091;-0.126737;0.157901;-7.18976;-2.22593e-05;1.07412e-05;0.000546783;0.000546985;-2.2462e-05;0.000284724;0.0407096;24.5642;0.00037237;0.000379632;24.3516;0.0410651;52.837;97.837;0.00244852;-2.26011e-05;-0.000805831;0.000826849;0.000546458;0.000867989;0.00680012;0;0.0169105;0.0119945;-0.0989432;-0.245983;0.265408;-6.42648;8.89026e-05;-0.000220118;0.000123349;0.000326916;-0.000114665;0.000220791;-0.720742;-1.38746;0.000264582;0.000294388;2.85105;0.350748;96.8801;141.88;0.00198192;8.89216e-05;-0.00054245;0.000102203;0.000123226;0.00332533;-0.000465629;0;0.0212791;-0.00482128;2.92947
112000;113;25.7511;-0.00491387;-0.000190786;-2.02259;25.6608;0.740163;0.0181993;0.000310106;-0.121756;-0.00446602;-0.0946073;-0.129928;0.160785;-7.19295;-0.000153963;-3.0348e-05;0.000298;0.000300029;-0.000155992;0.000228011;0.516655;1.93553;0.000267626;0.000304014;1.92336;0.519923;51.1517;96.1517;0.00223841;-0.000154332;-0.000920033;0.000858935;0.000297578;0.000461226;0.00664493;0;0.0190422;0.0122247;-0.0987914;-0.254696;0.273458;-6.43519;0.000135876;-0.000173987;9.52803e-05;0.000290746;-5.95888e-05;0.000175167;-1.42607;-0.701228;0.000216445;0.000233556;4.8792;0.204952;102.685;147.685;0.00225475;0.000135878;-0.000515329;0.000167368;9.51627e-05;0.00290069;-0.000582747;0;0.0276112;-0.00429433;2.93704
113000;114;25.7515;-0.0044919;-0.000174402;-2.02372;25.6612;0.739623;0.0170718;0.000660233;-0.122296;-0.00482952;-0.0997672;-0.126736;0.161365;-7.18976;6.8099e-05;-1.19724e-05;0.000424575;0.000424977;6.76973e-05;0.00017864;-0.160393;-6.23467;0.000263665;0.000238186;-6.2776;-0.159297;54.4348;99.4348;0.00204165;6.76875e-05;-0.000931561;0.000907289;0.000424141;0.0011832;0.00535499;0;0.0139101;0.0114441;-0.103489;-0.251308;0.272024;-6.4318;-7.47959e-06;-0.000112855;0.000183761;0.000236058;-5.97766e-05;0.000147917;;;0.000180625;0.000197223;3.949;0.253229;80.6611;125.661;0.00187155;-7.47925e-06;-0.000335619;0.000109866;0.000183711;0.00339472;-0.00160619;0;0.0215961;-0.00413714;2.94473
114000;115;25.7506;-0.00535169;-0.000207784;-2.02381;25.6604;0.73512;0.0169771;-8.06473e-05;-0.126799;-0.00528328;-0.103613;-0.123845;0.161559;-7.18687;-0.000120486;2.2552e-05;0.000443638;0.000444538;-0.000121386;0.000282962;0.271587;3.68206;0.000344035;0.000377283;3.66217;0.273062;47.9662;92.9662;0.00164598;-0.000120888;-0.000851371;0.000895982;0.000443276;0.00151146;0.00514616;0;0.0208186;0.0104807;-0.10728;-0.250878;0.273054;-6.43137;9.96928e-05;-0.000159466;0.000108189;0.000263463;-5.55816e-05;0.000159522;-0.921472;-1.08522;0.000196803;0.000212696;4.74011;0.210965;96.9;141.9;0.00196052;9.96813e-05;-0.000539037;0.000220103;0.000108056;0.00306124;-0.000660858;0;0.0272229;-0.00405489;2.95238
115000;116;25.7524;-0.003612;-0.000140239;-2.02346;25.6622;0.734114;0.0173274;0.00172159;-0.127806;-0.00511225;-0.101519;-0.134417;0.168523;-7.19744;0.000116138;0.000245207;0.000461439;0.000588679;-1.11027e-05;0.000299891;-0.251687;-3.97319;0.000396206;0.000399855;53.0211;0.0188604;26.9286;71.9286;0.00180004;0.000115564;-0.000609067;0.00109919;0.000461283;0.00136311;0.0065141;0;0.0134289;0.011276;-0.106479;-0.264465;0.285318;-6.44496;0.00015674;-0.000168862;0.000148484;0.000321524;-1.63001e-05;0.000168912;-1.05561;-0.947323;0.000219984;0.000225216;19.7253;0.0506963;99.9593;144.959;0.0021328;0.000156713;-0.000624871;0.000287152;0.000148303;0.0037365;0.000889936;0;0.0200096;-0.00387101;2.95878
116000;117;25.7536;-0.00234834;-9.11765e-05;-2.02392;25.6635;0.733186;0.0168723;0.00298031;-0.128733;-0.00566855;-0.10537;-0.132953;0.169739;-7.19598;-1.73797e-06;9.87872e-05;0.000472446;0.000492204;-2.14952e-05;0.000256849;;;0.00033553;0.000342466;22.8983;0.0436713;41.5823;86.5823;0.00186625;-2.16797e-06;-0.000735432;0.000932611;0.000472181;0.00156458;0.00514862;0;0.0166479;0.010304;-0.110612;-0.265298;0.287618;-6.44579;4.87601e-05;-0.000129749;8.28741e-05;0.000196682;-6.50481e-05;0.000130865;-0.588363;-1.69963;0.000157352;0.000174487;3.02364;0.330727;89.6462;134.646;0.00238306;4.86782e-05;-0.000684553;0.000425036;8.26483e-05;0.00370743;-0.000149569;0;0.0194287;-0.00371236;2.96573
117000;118;25.7525;-0.00344532;-0.000133768;-2.02325;25.6626;0.726365;0.0175382;0.00212596;-0.135554;-0.00593237;-0.107754;-0.1292;0.168341;-7.19222;-8.3295e-05;0.000117105;0.000361615;0.000390555;-0.000112236;0.000251395;0.230342;4.34137;0.000304751;0.000335194;3.47978;0.287375;35.2458;80.2458;0.00196199;-8.38708e-05;-0.000845623;0.0010794;0.000361264;0.00162885;0.00583034;0;0.0176191;0.0106715;-0.112891;-0.265631;0.288822;-6.44612;6.55791e-05;-4.64659e-05;2.72194e-05;9.6668e-05;-3.86949e-06;5.02687e-05;-2.40928;-0.415062;6.57731e-05;6.7025e-05;;;102.957;147.957;0.00281417;6.53208e-05;-0.000813158;0.000720256;2.68898e-05;0.00293468;0.000643627;0;0.0246122;-0.00369719;2.96959
118000;119;25.7545;-0.00142113;-5.51769e-05;-2.02469;25.6646;0.723728;0.0160978;0.00411816;-0.138192;-0.00636436;-0.108529;-0.135669;0.173854;-7.19869;-0.000179597;0.000153344;0.000275961;0.000322768;-0.000226405;0.000274586;0.650809;1.53655;0.000318688;0.000366115;1.42562;0.701448;29.4491;74.4491;0.00199816;-0.000180226;-0.000825372;0.00113161;0.000275632;0.00163059;0.00571529;0;0.0149853;0.00970553;-0.115806;-0.27455;0.298132;-6.45504;5.75857e-06;0.000111566;-0.000217556;5.19443e-05;-0.000263742;0.000157843;;;0.000195457;0.000210457;0.196951;5.0774;153.378;18.3784;0.00215258;5.40964e-06;-0.000619499;0.000842795;-0.000217742;0.00497642;-0.000674139;0;0.0249778;-0.00373119;2.97492
119000;120;25.7566;0.00065525;2.54407e-05;-2.02411;25.6668;0.722502;0.0166765;0.006282;-0.139418;-0.00592175;-0.109656;-0.139069;0.1772;-7.20209;-9.87608e-05;0.0003668;0.000163783;0.000422094;-0.000357072;0.000389583;0.602997;1.65838;0.000450373;0.000519444;1.1821;0.845953;11.0244;56.0244;0.00215565;-9.93713e-05;-0.000430817;0.00116421;0.000163758;0.000923454;0.00497283;0;0.0222004;0.0108697;-0.117548;-0.282834;0.306482;-6.46333;5.53768e-05;-1.73809e-05;-0.000277688;5.62814e-05;-0.000278592;0.000167437;0.199421;5.01451;0.000207054;0.000223249;0.202021;4.94999;128;173;0.00280513;5.50827e-05;-0.000801721;0.00076722;-0.000278009;0.00468471;0.00194798;0;0.0241796;-0.0037226;2.98076
120000;121;25.7547;-0.00128303;-4.98147e-05;-2.02344;25.6653;0.708844;0.0173504;0.00477092;-0.153075;-0.00661186;-0.108357;-0.148749;0.18415;-7.21177;-0.000143;1.88612e-05;0.000535894;0.000536417;-0.000143523;0.00033997;0.266844;3.74751;0.000413833;0.000453294;3.73749;0.267559;49.5568;94.5568;0.00243912;-0.000143425;-0.000884943;0.000922052;0.000535502;0.000353845;0.00479225;0;0.0167696;0.0100358;-0.117572;-0.29541;0.318105;-6.4759;-1.93295e-05;-2.1981e-07;-0.000119313;-1.9329e-05;-0.000119313;4.99922e-05;-0.162007;-6.17258;7.39461e-05;6.66562e-05;-0.162002;-6.17276;131.096;176.096;0.00221618;-1.94654e-05;-0.000521763;0.000521375;-0.000119449;0.00574762;0.000894974;0;0.0232107;-0.00366758;2.98775
121000;122;25.7566;0.00063889;2.48055e-05;-2.02386;25.6671;0.711187;0.0169317;0.0066017;-0.150732;-0.00721266;-0.111825;-0.141953;0.180852;-7.20498;-0.000238995;9.80772e-05;0.000554093;0.000566042;-0.000250944;0.000408493;0.431326;2.31843;0.000483239;0.000544657;2.25565;0.44333;43.1125;88.1125;0.00198391;-0.000239473;-0.000787555;0.000983008;0.000553788;0.000856717;0.00527695;0;0.0148806;0.00922554;-0.121198;-0.292095;0.316376;-6.47259;-0.000121963;-2.6095e-05;-0.000126789;-9.81696e-05;-0.000150582;2.62063e-05;-0.961933;-1.03957;8.82665e-05;3.49418e-05;-0.651933;-1.5339;84.5554;129.555;0.00169317;-0.000122043;-0.00045459;0.000402402;-0.000126892;0.00525295;0.000400229;0;0.023392;-0.00360653;2.99552
122000;123;25.7565;0.000560738;2.17712e-05;-2.02389;25.6671;0.708031;0.0168964;0.00660774;-0.153888;-0.00740409;-0.113307;-0.143601;0.18307;-7.20663;-0.000280979;5.3481e-05;0.000469108;0.000472902;-0.000284773;0.000378837;0.598964;1.66955;0.000441916;0.000505116;1.66063;0.602182;43.9876;88.9876;0.00190071;-0.000281418;-0.000832127;0.000938425;0.000468763;0.000815793;0.00536064;0;0.0163446;0.00910061;-0.123282;-0.296327;0.321078;-6.47682;-0.000111367;-3.98281e-05;-0.000241745;-0.000100163;-0.000252949;7.6393e-05;-0.460679;-2.17071;0.00014709;0.000101857;-0.39598;-2.52538;105.888;150.888;0.00191081;-0.000111414;-0.000389138;0.000309527;-0.00024182;0.00467141;-0.000364661;0;0.026323;-0.00350107;3.00304
123000;124;25.7571;0.00115006;4.46522e-05;-2.0238;25.6677;0.7074;0.0169928;0.00722414;-0.15452;-0.00740477;-0.113507;-0.150192;0.188405;-7.21322;-0.000270218;2.04161e-05;0.000576849;0.000577341;-0.00027071;0.000424025;0.468438;2.13475;0.000500177;0.000565367;2.13269;0.468891;48.7897;93.7897;0.00145612;-0.00027059;-0.000822395;0.000862514;0.000576511;0.00204349;0.00449949;0;0.0225997;0.00897102;-0.124374;-0.305095;0.329594;-6.48559;-6.41871e-05;6.98954e-07;-0.000119682;-6.41783e-05;-0.000119691;2.77562e-05;-0.536314;-1.86458;6.91638e-05;3.70083e-05;-0.536201;-1.86497;125.92;170.92;0.00150426;-6.42206e-05;-0.000257321;0.000258733;-0.000119715;0.00499807;0.000668887;0;0.0281281;-0.0035177;3.01079
124000;125;25.7579;0.00194897;7.56704e-05;-2.02359;25.6685;0.707936;0.017202;0.00802753;-0.153983;-0.00788893;-0.115496;-0.149463;0.189052;-7.21249;-0.0003924;-0.000131782;0.000388359;0.000410002;-0.000414043;0.000412022;1.01041;0.989701;0.000475764;0.000549363;0.990239;1.00986;54.2729;99.2729;0.00195752;-0.000392666;-0.00100487;0.000740622;0.000387863;0.0012365;0.00542068;0;0.0201718;0.00861998;-0.126096;-0.307574;0.332531;-6.48807;-3.45629e-05;-2.53982e-05;-2.52674e-05;-4.09523e-06;-5.57351e-05;2.58199e-05;-1.36788;-0.731057;3.58697e-05;3.44266e-05;;;81.9326;126.933;0.00164036;-3.45992e-05;-0.000321285;0.000270485;-2.53187e-05;0.00545868;0.00151253;0;0.0287274;-0.0029796;3.01765
125000;126;25.7576;0.00162752;6.31902e-05;-2.0244;25.6682;0.705342;0.0163875;0.00771215;-0.156577;-0.00734305;-0.118247;-0.147676;0.189326;-7.2107;-0.000463809;0.000102033;0.000851009;0.00085888;-0.00047168;0.00066528;0.545011;1.83483;0.000778966;0.00088704;1.8209;0.54918;46.7922;91.7922;0.00222673;-0.000464288;-0.000780546;0.000983452;0.00085071;0.000545878;0.00488964;0;0.0157454;0.00938915;-0.128347;-0.30895;0.334681;-6.48944;-3.58527e-05;-7.08974e-05;-7.39214e-05;1.85211e-05;-0.000128295;7.34081e-05;-0.48501;-2.06181;9.23251e-05;9.78775e-05;0.144363;6.92698;89.381;134.381;0.00184316;-3.5857e-05;-0.000258933;0.000117145;-7.39524e-05;0.00511139;0.000573123;0;0.0258711;-0.00269776;3.02499
126000;127;25.7552;-0.000801886;-3.1134e-05;-2.02362;25.666;0.698852;0.0171706;0.00551358;-0.163068;-0.00805284;-0.119191;-0.15036;0.192041;-7.21339;-0.00032069;-2.50917e-05;0.000726648;0.000727249;-0.000321291;0.00052427;0.441328;2.26589;0.000620315;0.000699027;2.26352;0.44179;52.2878;97.2878;0.00163679;-0.000321137;-0.000996913;0.000945713;0.000726152;0.00172292;0.00537781;0;0.0181596;0.00847881;-0.129782;-0.31385;0.339731;-6.49434;-0.000134429;-5.60742e-05;4.08177e-05;5.72241e-05;-0.000150835;0.00010403;3.29339;0.303638;0.00012411;0.000138706;0.379381;2.63587;51.6772;96.6772;0.00170999;-0.00013443;-0.000189989;7.78167e-05;4.08012e-05;0.00437285;0.00051226;0;0.0272373;-0.00263361;3.03213
127000;128;25.7548;-0.00113948;-4.42414e-05;-2.023;25.6658;0.697079;0.0177892;0.00527181;-0.164841;-0.00900184;-0.120828;-0.155318;0.196988;-7.21834;-0.000395331;-9.6381e-05;0.000636122;0.000645051;-0.00040426;0.000524655;0.62147;1.60909;0.000611113;0.00069954;1.59563;0.62671;53.7307;98.7307;0.0019002;-0.000395737;-0.00109962;0.000905828;0.000635522;0.00137453;0.00670714;0;0.0207922;0.00760396;-0.131226;-0.321649;0.347471;-6.50214;-4.78677e-05;-1.34724e-05;9.18597e-06;1.22073e-05;-5.0889e-05;3.15481e-05;;;3.86432e-05;4.20642e-05;0.239881;4.16874;51.7941;96.7941;0.00179379;-4.78708e-05;-0.000106913;7.99633e-05;9.18035e-06;0.00527822;0.000579841;0;0.0295145;-0.00188677;3.04003
128000;129;25.7533;-0.00264304;-0.000102619;-2.02279;25.6645;0.689691;0.0179952;0.00397884;-0.172228;-0.00941917;-0.123824;-0.155952;0.199354;-7.21898;-0.0003574;-0.000186536;0.0013615;0.00138151;-0.000377409;0.000879461;0.262504;3.80947;0.00106925;0.00117261;3.66051;0.273186;64.1858;109.186;0.00207712;-0.000357733;-0.00121263;0.000837802;0.00136079;0.000704971;0.00600725;0;0.0159663;0.00737582;-0.133382;-0.32528;0.351642;-6.50577;-0.000118742;4.7382e-05;-4.04601e-05;-1.81432e-05;-0.000141059;6.14579e-05;-2.9348;-0.340739;8.8613e-05;8.19439e-05;-0.128621;-7.77476;177.148;42.1484;0.00168544;-0.000118749;-3.1487e-05;0.000126245;-4.04595e-05;0.00435613;0.000539491;0;0.0242374;-0.00199589;3.04548
129000;130;25.7546;-0.00133656;-5.18933e-05;-2.02287;25.6657;0.692451;0.0179153;0.00520926;-0.169469;-0.00908872;-0.12413;-0.157529;0.200764;-7.22055;-0.000197364;-1.149e-05;0.00130514;0.00130523;-0.000197451;0.00075134;0.15122;6.61288;0.000942887;0.00100179;6.61038;0.151277;59.1424;104.142;0.0016755;-0.000197923;-0.00108216;0.00105757;0.00130456;0.00173849;0.00494201;0;0.0154168;0.0078148;-0.134123;-0.328165;0.354602;-6.50866;-0.000121891;7.22642e-05;9.77001e-05;0.000119347;-0.000143538;0.000131443;1.24761;0.801535;0.000151991;0.000175257;0.831466;1.2027;25.1554;70.1554;0.001718;-0.000121905;-3.66001e-05;0.000181105;9.7702e-05;0.00508211;-0.000626942;0;0.0230553;-0.000800157;3.04739
130000;131;25.7559;-0.000110546;-4.29206e-06;-2.02382;25.6669;0.693557;0.0169728;0.00633536;-0.168362;-0.00968745;-0.126976;-0.160234;0.204675;-7.22326;-0.000271063;3.52675e-05;0.00132616;0.00132694;-0.000271842;0.000799391;0.204397;4.89244;0.000987789;0.00106585;4.8813;0.204863;57.0459;102.046;0.00177866;-0.000271655;-0.00101979;0.00108865;0.00132564;0.00144226;0.00729689;0;0.0151121;0.00724181;-0.13668;-0.332277;0.359363;-6.51277;-0.00012612;3.56553e-06;0.0001564;0.000156445;-0.000126165;0.000141305;0.806398;1.24008;0.000163477;0.000188407;1.24;0.806453;46.3;91.3;0.00244408;-0.000126144;-0.000210836;0.000217907;0.000156377;0.00355897;0.00032601;0;0.0233958;-0.000653386;3.05512
131000;132;25.7539;-0.002024;-7.85837e-05;-2.02234;25.6652;0.687607;0.0184439;0.00469131;-0.174312;-0.0104461;-0.128256;-0.162264;0.207095;-7.22529;-0.000454505;-0.000125457;0.00148366;0.00149174;-0.000462593;0.000977168;0.306341;3.26433;0.00117933;0.00130289;3.22475;0.310102;61.8009;106.801;0.0027291;-0.000454921;-0.00117271;0.000919765;0.00148298;0.00115753;0.00777144;0;0.0156649;0.00663509;-0.137414;-0.337578;0.364535;-6.51807;-6.13648e-05;-1.0709e-05;9.60635e-05;9.67886e-05;-6.20899e-05;7.94393e-05;0.638794;1.56545;9.24549e-05;0.000105919;1.55885;0.6415;50.5163;95.5163;0.00207163;-6.14075e-05;-0.000313792;0.000292326;9.60143e-05;0.00473457;0.00075579;0;0.0263489;-0.000170668;3.06217
132000;133;25.7535;-0.00243943;-9.4713e-05;-2.02318;25.6648;0.685614;0.0176061;0.00426174;-0.176305;-0.0107262;-0.129964;-0.163754;0.209335;-7.22678;-0.00015327;0.000131781;0.00152552;0.00153581;-0.000163552;0.000849679;0.100471;9.95315;0.00108251;0.0011329;9.39031;0.106493;56.7166;101.717;0.00174544;-0.000154001;-0.000953816;0.00121556;0.00152508;0.00263784;0.00823142;0;0.0195563;0.00650785;-0.13844;-0.34188;0.368904;-6.52237;-6.98327e-05;3.52529e-05;0.000119188;0.000125549;-7.61934e-05;0.000100871;0.585904;1.70676;0.000117632;0.000134495;1.64776;0.606883;38.9189;83.9189;0.00157726;-6.9853e-05;-0.000134155;0.000204629;0.00011918;0.00576933;0.000395626;0;0.0262576;-0.000240307;3.06981
133000;134;25.7542;-0.00173343;-6.7302e-05;-2.02278;25.6655;0.685463;0.0180067;0.00500579;-0.176456;-0.0110466;-0.131404;-0.16538;0.211518;-7.22841;-0.000136995;0.000168015;0.00167386;0.00168931;-0.000152452;0.000920882;0.0818442;12.2183;0.00118031;0.00122784;11.0809;0.0902452;57.379;102.379;0.00262532;-0.000137769;-0.000921122;0.00125518;0.00167345;8.88798e-05;0.00872825;0;0.0184962;0.00618876;-0.139877;-0.345777;0.373049;-6.52627;-8.5253e-05;5.2731e-05;7.42112e-05;9.00708e-05;-0.000101113;9.55917e-05;1.14879;0.870482;0.000110441;0.000127456;0.890797;1.12259;27.5789;72.5789;0.00184037;-8.52918e-05;-0.000178116;0.000283541;7.41967e-05;0.00528199;-0.000137157;0;0.0237807;-4.98519e-05;3.07697
134000;135;25.7544;-0.00154474;-5.99759e-05;-2.02283;25.6657;0.68616;0.0179597;0.0051728;-0.175759;-0.011562;-0.133664;-0.169221;0.215953;-7.23225;-8.83212e-05;0.000336495;0.00195586;0.00200982;-0.000142287;0.00107606;0.0451573;22.1448;0.00138974;0.00143474;14.1251;0.070796;56.4227;101.423;0.00235674;-8.92568e-05;-0.000737863;0.00140866;0.00195564;0.000995906;0.00719092;0;0.0166577;0.00601747;-0.141774;-0.351218;0.378801;-6.53171;-4.10656e-06;9.71119e-05;0.000193644;0.000233358;-4.38207e-05;0.000138589;;;0.000172049;0.000184786;5.32529;0.187783;31.5342;76.5342;0.00192689;-4.1806e-06;-0.000202691;0.000396855;0.000193628;0.00507696;0.000785435;0;0.0194975;1.06477e-05;3.08403
135000;136;25.7532;-0.00277874;-0.000107887;-2.02257;25.6646;0.681311;0.0182214;0.00408435;-0.180608;-0.01156;-0.134704;-0.172375;0.219071;-7.2354;-0.000114975;7.20767e-05;0.00156307;0.00156616;-0.000118066;0.000842113;0.0735575;13.5948;0.0010856;0.00112282;13.2652;0.0753854;60.989;105.989;0.00192101;-0.000115511;-0.000894815;0.00103735;0.00156267;0.00160133;0.00941386;0;0.0138872;0.0059423;-0.14269;-0.358025;0.385458;-6.53852;-7.57271e-06;0.000161649;7.19322e-05;0.000198645;-0.000134286;0.000166465;;;0.000193411;0.000221954;1.47927;0.676008;10.5567;55.5567;0.00222682;-7.64501e-06;-8.99046e-05;0.000413183;7.19412e-05;0.0050512;0.00145861;0;0.0189836;0.0001141;3.09095
136000;137;25.7541;-0.00186952;-7.25858e-05;-2.02273;25.6656;0.678206;0.0180594;0.00506617;-0.183713;-0.012157;-0.136912;-0.172405;0.220491;-7.23543;-0.000318434;-2.34611e-06;0.00164209;0.00164209;-0.000318437;0.000980266;0.19392;5.15678;0.00121487;0.00130702;5.15674;0.193921;62.8274;107.827;0.00156751;-0.000318862;-0.000931716;0.000925204;0.00164166;0.00290113;0.00841435;0;0.0137611;0.00534274;-0.144518;-0.36123;0.389103;-6.54172;-8.25215e-05;0.000219881;3.57182e-05;0.000204289;-0.000251092;0.00022769;2.31035;0.432835;0.000263377;0.000303587;0.813601;1.2291;6.04754;51.0475;0.00217045;-8.27227e-05;-0.000231621;0.00067133;3.57155e-05;0.00560606;0.000955197;0;0.0185338;0.000184287;3.09852
137000;138;25.7534;-0.00256597;-9.96262e-05;-2.02333;25.665;0.673436;0.0174596;0.00444564;-0.188483;-0.012312;-0.139041;-0.174149;0.223186;-7.23717;-5.74294e-05;0.000104377;0.0016604;0.00166672;-6.37481e-05;0.000865234;0.0345876;28.9121;0.00113299;0.00115365;26.1454;0.0382476;62.2746;107.275;0.00204342;-5.79354e-05;-0.000804214;0.00101141;0.00166008;0.00138018;0.00914013;0;0.0141076;0.0052517;-0.146493;-0.365797;0.394075;-6.54629;-0.00012632;0.000234305;-7.33579e-05;0.000135958;-0.000335635;0.000235796;-1.72197;-0.580732;0.000280292;0.000314395;0.405075;2.46868;178.003;43.0031;0.00215902;-0.000126593;-0.000306604;0.000775184;-7.33775e-05;0.00573457;0.00053926;0;0.0182751;0.000230896;3.10506
138000;139;25.7542;-0.00172262;-6.68822e-05;-2.02289;25.6659;0.670896;0.0178998;0.00539312;-0.191023;-0.0121615;-0.140913;-0.175098;0.225086;-7.23812;-8.36177e-05;-3.63957e-05;0.00115622;0.00115729;-8.46851e-05;0.000620988;0.0723196;13.8275;0.000801249;0.000827984;13.6658;0.0731753;61.0059;106.006;0.0021381;-8.40644e-05;-0.00101995;0.00094594;0.0011557;0.00140736;0.0087615;0;0.0190854;0.00530326;-0.14849;-0.370035;0.398753;-6.55053;-7.40252e-05;0.000348376;-0.000175009;0.000227499;-0.000476533;0.000352016;-0.42298;-2.36418;0.000414862;0.000469354;0.477404;2.09466;171.283;36.2829;0.0026088;-7.45877e-05;-0.000419529;0.00111636;-0.000175036;0.00533066;0.00114996;0;0.019582;0.000311684;3.11189
139000;140;25.7549;-0.00110435;-4.28775e-05;-2.02246;25.6667;0.665998;0.0183247;0.00617456;-0.195921;-0.0122462;-0.141849;-0.175875;0.226281;-7.2389;-4.19076e-05;9.91483e-05;0.00115869;0.00116682;-5.00405e-05;0.00060843;0.0361682;27.6486;0.000795085;0.00081124;23.3175;0.0428862;55.0726;100.073;0.002143;-4.24924e-05;-0.000888852;0.00108596;0.0011583;0.00160704;0.00931053;0;0.0203572;0.00532527;-0.149941;-0.37454;0.403474;-6.55503;-0.000151306;0.000369881;-0.000277269;0.000160917;-0.000589492;0.000375204;-0.545701;-1.83251;0.000456194;0.000500272;0.272975;3.66333;167.747;32.7474;0.00290435;-0.000151931;-0.000437319;0.00117718;-0.000277296;0.00578533;0.00148137;0;0.0202737;0.000442553;3.11675
140000;141;25.754;-0.0019926;-7.73647e-05;-2.02231;25.666;0.660061;0.0184783;0.00544874;-0.201858;-0.012808;-0.14333;-0.178144;0.229004;-7.24117;-4.65754e-05;-7.11093e-05;0.00152253;0.00152575;-4.97914e-05;0.000787771;0.0305907;32.6897;0.00103416;0.00105036;30.6429;0.032634;68.2645;113.265;0.00202288;-4.68676e-05;-0.000911331;0.000767796;0.00152212;0.00152609;0.00949369;0;0.0167299;0.00454378;-0.152102;-0.380032;0.409365;-6.56053;-0.000106831;0.000432713;-0.000230023;0.000268647;-0.000605502;0.000437075;-0.464437;-2.15314;0.00051703;0.000582766;0.443677;2.25389;170.579;35.5785;0.00258247;-0.000107607;-0.000452877;0.00131841;-0.000230032;0.00646531;0.00246668;0;0.0194234;0.000683089;3.12082
141000;142;25.7556;-0.000329666;-1.27996e-05;-2.0222;25.6677;0.658376;0.0185913;0.00716957;-0.203544;-0.0129107;-0.144661;-0.182619;0.233331;-7.24564;-0.000160394;0.0001382;0.000947285;0.000964267;-0.000177376;0.000570822;0.16932;5.90598;0.000709401;0.000761095;5.43628;0.183949;48.5825;93.5825;0.00286129;-0.000161052;-0.000879726;0.001155;0.000946908;-0.000423512;0.00953396;0;0.0172953;0.0044923;-0.154084;-0.387165;0.416724;-6.56766;-0.000240085;0.000385416;-0.00014097;0.000198062;-0.000579116;0.000388589;-1.70309;-0.587166;0.000466335;0.000518118;0.342007;2.92392;176.923;41.9234;0.00244935;-0.000240705;-0.00040797;0.00117872;-0.000140979;0.00719882;0.00298496;0;0.0189;0.000972245;3.1281
142000;143;25.756;-9.73972e-06;-3.78154e-07;-2.023;25.6679;0.658628;0.0177859;0.00742064;-0.203291;-0.0131885;-0.147053;-0.18064;0.2333;-7.24366;-6.69973e-05;7.74892e-05;0.000621697;0.000630309;-7.56084e-05;0.000352958;0.107765;9.27945;0.000447542;0.000470611;8.33649;0.119955;46.588;91.588;0.00224792;-6.75513e-05;-0.000901161;0.00105547;0.000621295;0.00143744;0.00920135;0;0.017947;0.00429896;-0.156401;-0.389117;0.419394;-6.56961;-0.000168551;0.000270903;-0.00016264;0.000105323;-0.000436514;0.000270919;-1.03634;-0.964931;0.000331738;0.000361225;0.241283;4.14451;174.676;39.6762;0.00249615;-0.000169119;-0.000558029;0.00109983;-0.000162759;0.00664761;0.00427776;0;0.0208541;0.00126012;3.13495
143000;144;25.7573;0.00132884;5.15936e-05;-2.02331;25.6692;0.659097;0.0174813;0.00872778;-0.202822;-0.0124384;-0.147124;-0.187766;0.238864;-7.25079;-0.000182023;-9.5672e-05;0.000491985;0.000505302;-0.00019534;0.000350321;0.369978;2.70287;0.000417502;0.000467095;2.58678;0.386582;57.4852;102.485;0.00221486;-0.000182399;-0.00106429;0.000872298;0.000491423;0.000862506;0.00948623;0;0.0266125;0.00401642;-0.157669;-0.395436;0.425729;-6.57593;-0.000380532;0.00031245;-0.000109708;9.5411e-05;-0.00058565;0.000340531;-3.46859;-0.288301;0.000425815;0.000454041;0.162915;6.13818;176.77;41.7701;0.00149001;-0.000380756;-0.000113775;0.000738559;-0.000109665;0.00701771;0.00423503;0;0.0212741;0.00161855;3.14229
144000;145;25.7563;0.000367953;1.42861e-05;-2.0226;25.6685;0.653097;0.0181897;0.00797278;-0.208822;-0.0137801;-0.148268;-0.186047;0.2383;-7.24907;-7.06307e-05;0.000215567;0.000829659;0.000878613;-0.000119584;0.000499099;0.0851321;11.7464;0.000629402;0.000665465;7.34722;0.136106;42.7284;87.7284;0.00182768;-7.13312e-05;-0.000772834;0.00120308;0.000829384;0.00219956;0.00826264;0;0.0150126;0.00358802;-0.158585;-0.400422;0.430697;-6.58092;-0.000282795;0.000301223;-0.000162884;8.42923e-05;-0.000529971;0.000307132;-1.73618;-0.575978;0.000384504;0.000409509;0.159051;6.2873;177.134;42.1343;0.00150452;-0.00028328;-0.000427188;0.00102955;-0.00016293;0.00623254;0.00414781;0;0.0208991;0.0020362;3.14981
145000;146;25.7558;-0.000149187;-5.79233e-06;-2.02155;25.6682;0.647929;0.019239;0.00766751;-0.213991;-0.0139746;-0.149588;-0.188791;0.241276;-7.25182;-9.08054e-05;0.00016374;0.000517229;0.000558519;-0.000132096;0.000345307;0.175562;5.69601;0.000423305;0.000460409;4.22814;0.236511;36.8277;81.8277;0.00215481;-9.14794e-05;-0.000845571;0.00117244;0.000516885;0.00112984;0.00861364;0;0.016819;0.00343418;-0.159907;-0.40627;0.436621;-6.58676;-0.000247997;0.000289766;-8.33165e-05;0.000135582;-0.000466895;0.000301238;-2.97656;-0.335958;0.000364951;0.000401651;0.29039;3.44365;179.963;44.9631;0.00135894;-0.000248333;-0.000289722;0.000869159;-8.33165e-05;0.00590668;0.00311117;0;0.0225716;0.00264174;3.1574
146000;147;25.7565;0.000565138;2.1942e-05;-2.02205;25.6689;0.645698;0.0187358;0.00840085;-0.216221;-0.0137401;-0.150903;-0.189084;0.242308;-7.25211;-0.000142849;0.000123304;0.000307204;0.000338772;-0.000174417;0.000256595;0.464996;2.15055;0.000301312;0.000342126;1.94231;0.51485;33.0599;78.0599;0.0020252;-0.000143445;-0.000853016;0.00109918;0.000306848;0.00134952;0.00826292;0;0.0171686;0.00350553;-0.161227;-0.409138;0.439773;-6.58963;-0.000262561;0.000333163;-0.000161245;0.000125089;-0.000548895;0.000336992;-1.62834;-0.614123;0.000413975;0.000449323;0.227892;4.38804;174.901;39.9008;0.00118312;-0.00026296;-0.000287067;0.00095333;-0.000161231;0.00572175;0.00349845;0;0.0244134;0.00307493;3.16465
147000;148;25.7558;-0.000163122;-6.33335e-06;-2.02243;25.6682;0.645682;0.0183632;0.00764116;-0.216237;-0.0143597;-0.152777;-0.189151;0.243568;-7.25218;-0.000203482;2.71235e-06;0.000705899;0.000705907;-0.00020349;0.000454699;0.28826;3.46909;0.000551103;0.000606265;3.469;0.288268;52.7388;97.7388;0.00185961;-0.000203879;-0.000885912;0.00089053;0.000705507;0.00176715;0.00831168;0;0.0172573;0.00284247;-0.163104;-0.412401;0.443493;-6.5929;-0.000380882;0.000288891;-0.000126768;6.17716e-05;-0.000569422;0.000315597;-3.00455;-0.332829;0.000401791;0.000420796;0.108481;9.21819;178.552;43.5516;0.000947742;-0.000381156;-0.000216847;0.0007945;-0.00012675;0.00562085;0.00418991;0;0.0250786;0.00321567;3.17243
148000;149;25.7558;-0.00012352;-4.79577e-06;-2.02162;25.6684;0.641338;0.0191718;0.00785349;-0.220581;-0.0146804;-0.153838;-0.190613;0.245388;-7.25364;-0.000396398;-2.09043e-05;0.000520648;0.000521124;-0.000396874;0.000458999;0.761355;1.31345;0.000531622;0.000611999;1.31307;0.761573;48.0475;93.0475;0.00231328;-0.000396905;-0.00105037;0.00100761;0.000520097;0.000970954;0.00789816;0;0.0146302;0.00260463;-0.164221;-0.416667;0.447869;-6.59716;-0.00038174;0.000256844;-5.25435e-05;8.7918e-05;-0.000522201;0.00030506;-7.26522;-0.137642;0.000380838;0.000406746;0.16836;5.93964;5.61311;50.6131;0.00135568;-0.000382035;-0.000296035;0.000809541;-5.25544e-05;0.00556046;0.00232794;0;0.0218235;0.00378868;3.1796
149000;150;25.7548;-0.00113018;-4.38802e-05;-2.02243;25.6674;0.637601;0.0183606;0.0068726;-0.224318;-0.0144808;-0.154714;-0.192815;0.247636;-7.25584;-0.000215845;-6.96408e-06;0.000426139;0.000426214;-0.000215921;0.000321067;0.506514;1.97428;0.000377305;0.00042809;1.97394;0.506602;48.7491;93.7491;0.00219334;-0.000216303;-0.00097088;0.000956333;0.000425667;0.00169507;0.00924749;0;0.0165444;0.00281472;-0.16516;-0.422047;0.453222;-6.60254;-0.000297742;0.000262632;-8.51182e-05;9.1903e-05;-0.000474763;0.000283333;-3.49799;-0.285879;0.000351175;0.000377778;0.193576;5.16592;179.543;44.5426;0.00135786;-0.000297963;-0.000189106;0.000714274;-8.51016e-05;0.0047945;0.00265549;0;0.0229707;0.00387714;3.18545
150000;151;25.7546;-0.00132897;-5.15987e-05;-2.02193;25.6673;0.632943;0.0188589;0.00682767;-0.228976;-0.0151406;-0.157013;-0.193408;0.249578;-7.25643;-0.000469477;7.93614e-05;0.000597628;0.000603498;-0.000475347;0.000539423;0.785568;1.27296;0.000624335;0.00071923;1.26959;0.787653;42.4746;87.4746;0.00235049;-0.000470152;-0.00100667;0.00116423;0.000597125;0.00115121;0.00778185;0;0.0182665;0.00219898;-0.167361;-0.426111;0.457805;-6.6066;-0.000321613;0.000313013;-4.94436e-05;0.000155787;-0.000526844;0.000341315;-6.50464;-0.153736;0.000413069;0.000455087;0.2957;3.38181;1.27601;46.276;0.00126648;-0.000321881;-0.000171357;0.000797251;-4.94093e-05;0.00394893;0.00384792;0;0.0260919;0.00399284;3.19334
151000;152;25.7558;-0.000208644;-8.10079e-06;-2.02123;25.6686;0.631637;0.0195574;0.00803901;-0.230283;-0.015471;-0.156887;-0.196482;0.251909;-7.25951;-0.0004392;-0.000189683;0.00057046;0.000604919;-0.000473659;0.000539289;0.769905;1.29886;0.000624252;0.000719052;1.27712;0.783012;57.3013;102.301;0.00183228;-0.000439465;-0.00113284;0.000752528;0.000569836;0.00222631;0.00838925;0;0.0178928;0.00181484;-0.167649;-0.431296;0.462737;-6.61179;-0.000312293;0.000255112;-0.000103918;6.74612e-05;-0.000483672;0.000275566;-3.00518;-0.332758;0.000347127;0.000367422;0.139477;7.16963;0.0892856;45.0893;0.00118919;-0.000312556;-0.000258645;0.000768761;-0.000103919;0.00440406;0.00353001;0;0.0230405;0.00402026;3.19749
152000;153;25.7546;-0.00137442;-5.33631e-05;-2.02189;25.6674;0.629005;0.0189017;0.00688226;-0.232914;-0.0155455;-0.158324;-0.19725;0.253408;-7.26027;-0.000361148;2.38274e-05;0.000610099;0.000610684;-0.000361733;0.000486208;0.59195;1.68933;0.000567524;0.000648277;1.68822;0.59234;47.146;92.146;0.00194661;-0.000361675;-0.000980037;0.00102672;0.00060962;0.000760379;0.00921619;0;0.015148;0.00160475;-0.168685;-0.435591;0.467115;-6.61608;-0.000375825;0.000272835;2.2849e-05;0.000161409;-0.000514385;0.000337897;16.4482;0.0607969;0.000407524;0.000450529;0.31379;3.18684;9.65578;54.6558;0.00163614;-0.000376153;-0.000309674;0.000855112;2.28383e-05;0.00373683;0.00349387;0;0.0220581;0.00392741;3.20129
153000;154;25.7551;-0.000894033;-3.47117e-05;-2.02196;25.668;0.624242;0.0188263;0.00747462;-0.237677;-0.0152897;-0.159092;-0.199315;0.255481;-7.26234;-0.000296569;0.000246668;0.000473528;0.000545762;-0.000368803;0.000457282;0.626297;1.59669;0.000531309;0.00060971;1.47982;0.675758;31.1213;76.1213;0.00188836;-0.000297368;-0.000795015;0.00128755;0.000473242;0.00204176;0.0080415;0;0.0200273;0.00185954;-0.168937;-0.441213;0.472454;-6.62171;-0.000322649;0.000314897;-2.2577e-05;0.0001762;-0.000521426;0.000348813;-14.291;-0.069974;0.000418891;0.000465084;0.33792;2.95928;2.98886;47.9889;0.00139274;-0.000322921;-0.000172249;0.000801896;-2.25423e-05;0.00414454;0.00376303;0;0.0269073;0.00397895;3.20834
154000;155;25.7553;-0.000679237;-2.6372e-05;-2.02142;25.6683;0.622412;0.0193716;0.00777752;-0.239507;-0.0155918;-0.160905;-0.200037;0.257193;-7.26306;-0.000437169;-0.000116221;0.00103683;0.00104593;-0.000446276;0.000746105;0.421641;2.37169;0.000884412;0.000994806;2.34369;0.426677;57.4719;102.472;0.00199735;-0.000437596;-0.00116607;0.000932081;0.00103615;0.00150028;0.00860926;0;0.0180932;0.00177643;-0.171229;-0.444727;0.476555;-6.62522;-0.000350421;0.000183442;8.08963e-06;8.53172e-05;-0.000427649;0.000256483;;;0.000317384;0.000341977;0.199503;5.01246;11.7119;56.7119;0.00161866;-0.000350603;-0.000264191;0.000630915;8.07156e-06;0.00309135;0.00404311;0;0.0223613;0.00440757;3.21617
155000;156;25.7554;-0.000591407;-2.29619e-05;-2.02238;25.6683;0.621113;0.0184077;0.0078212;-0.240806;-0.0158718;-0.162089;-0.20145;0.25905;-7.26448;-0.000443574;-0.00011729;0.00062581;0.000638523;-0.000456287;0.000547405;0.7088;1.41083;0.000635001;0.000729873;1.39939;0.714598;53.8043;98.8043;0.00186847;-0.000443956;-0.00111763;0.000881977;0.000625193;0.00143499;0.00880103;0;0.0165355;0.00139494;-0.172394;-0.449522;0.481447;-6.63002;-0.000255819;0.000204898;4.37167e-05;0.000147747;-0.00035985;0.000253799;5.85175;0.170889;0.000301469;0.000338398;0.410581;2.43558;11.4843;56.4843;0.00173636;-0.000256014;-0.000246983;0.000656644;4.37072e-05;0.00325179;0.0036718;0;0.0215994;0.00494475;3.223
156000;157;25.755;-0.000942871;-3.66079e-05;-2.02196;25.6681;0.616349;0.018832;0.00761681;-0.245571;-0.0162235;-0.163347;-0.202566;0.260726;-7.26559;-0.00044274;0.000113226;0.000685716;0.000696964;-0.000453989;0.000575477;0.645661;1.5488;0.000669421;0.000767302;1.5352;0.65138;42.3035;87.3035;0.00228424;-0.000443559;-0.00105902;0.00128415;0.000685162;0.000849537;0.00969182;0;0.0157817;0.00104868;-0.173417;-0.455053;0.486978;-6.63555;-0.00020754;0.000280561;3.66565e-05;0.000220536;-0.00039142;0.000305978;5.66175;0.176624;0.000357875;0.000407971;0.563427;1.77485;5.64681;50.6468;0.00156181;-0.000207728;-0.000113455;0.000674481;3.66894e-05;0.00265165;0.00408425;0;0.020778;0.00515184;3.23064
157000;158;25.7544;-0.00155655;-6.04345e-05;-2.02227;25.6676;0.613155;0.0185231;0.00705321;-0.248765;-0.016401;-0.163457;-0.205501;0.263093;-7.26853;-0.000522749;3.52195e-05;0.000699454;0.000700468;-0.000523763;0.000612116;0.747367;1.33803;0.00070926;0.000816154;1.33738;0.747733;45.6697;90.6697;0.00190046;-0.000523389;-0.00106207;0.00113117;0.000698891;0.00160773;0.00965095;0;0.016887;0.00057126;-0.173694;-0.460717;0.492372;-6.64121;-0.000275327;0.000296469;-9.00302e-05;0.000127929;-0.000493287;0.000310608;-3.05817;-0.326993;0.000378772;0.000414144;0.259341;3.85593;177.535;42.5347;0.00232059;-0.000275559;-0.000148997;0.000741851;-8.99973e-05;0.000531531;0.00392001;0;0.0206554;0.00548413;3.23791
158000;159;25.7547;-0.00129646;-5.03362e-05;-2.02251;25.6679;0.607983;0.0182738;0.00741757;-0.253937;-0.0167602;-0.164951;-0.206404;0.26475;-7.26943;-0.000587015;-0.00015601;0.00108799;0.00110239;-0.000601422;0.000851908;0.539543;1.85342;0.000997771;0.00113588;1.83298;0.545561;56.2185;101.219;0.00240659;-0.000587541;-0.00135089;0.00103687;0.00108709;0.000782237;0.00939067;0;0.0161275;7.88816e-05;-0.174825;-0.466606;0.498282;-6.64327;-0.00015913;0.000321936;-0.00023136;0.000128711;-0.000519201;0.000323956;-0.687801;-1.45391;0.000396071;0.000431941;0.247902;4.03386;168.209;33.2095;0.00293441;-0.000159532;-0.000308779;0.000952697;-0.000231356;-0.00117533;0.00673766;0;0.0200509;0.00680946;3.24561
159000;160;25.7533;-0.00271702;-0.000105491;-2.02242;25.6666;0.602481;0.0183727;0.00612974;-0.259438;-0.0172177;-0.165999;-0.208168;0.266807;-7.27119;-0.00045539;8.54628e-05;0.000702633;0.000708906;-0.000461663;0.000585285;0.648119;1.54293;0.000680835;0.00078038;1.53555;0.651233;43.6377;88.6377;0.00273067;-0.000456281;-0.00116805;0.00133752;0.000701955;0.000545;0.00945407;0;0.0173701;-0.000439113;-0.175843;-0.472087;0.503773;-6.64875;-7.14045e-05;0.000349891;-0.000202722;0.000218935;-0.000493062;0.000355998;-0.352228;-2.83907;0.000421105;0.000474664;0.444031;2.25209;167.662;32.6623;0.00277687;-7.17457e-05;-0.000197213;0.000897067;-0.000202681;-0.0012276;0.00655803;0;0.0195068;0.00760619;3.2529
160000;161;25.7539;-0.00210008;-8.15376e-05;-2.02328;25.6673;0.599208;0.0175075;0.0067572;-0.262712;-0.017328;-0.166387;-0.209621;0.26819;-7.27265;-0.000580449;-0.000138916;0.00123847;0.00124902;-0.000590997;0.000920006;0.468683;2.13364;0.00108474;0.00122667;2.1134;0.47317;56.8026;101.803;0.00236651;-0.000581042;-0.00137804;0.00109795;0.00123753;0.00118041;0.00996411;0;0.0196474;-0.000683353;-0.176325;-0.476862;0.508418;-6.65352;-7.24396e-05;0.000322031;-0.000329632;0.000145722;-0.000547794;0.000346758;-0.219759;-4.55044;0.000422237;0.000462344;0.266016;3.75917;158.892;23.892;0.00296817;-7.27582e-05;-0.000216592;0.000860793;-0.000329604;-0.00193905;0.00636149;0;0.0191706;0.00758462;3.25861
161000;162;25.7535;-0.0024818;-9.63583e-05;-2.02342;25.667;0.592485;0.0173696;0.00651938;-0.269435;-0.0175322;-0.167924;-0.211788;0.270851;-7.27481;-0.000429906;-3.67493e-05;0.0011195;0.00112037;-0.000430777;0.000775574;0.384016;2.60406;0.000924585;0.0010341;2.60082;0.384495;54.4764;99.4764;0.00238556;-0.000430565;-0.00122444;0.0011491;0.00111875;0.00163453;0.0103895;0;0.0169924;-0.00112765;-0.17821;-0.48316;0.514979;-6.65982;-6.24422e-05;0.000322529;-0.000266043;0.000173971;-0.000502456;0.000338213;-0.234707;-4.26063;0.000405594;0.000450951;0.34624;2.88817;162.859;27.859;0.00320882;-6.27663e-05;-0.00022205;0.000867218;-0.000266016;-0.0024154;0.00622716;0;0.0211441;0.00779719;3.26423
162000;163;25.7529;-0.00308159;-0.000119645;-2.0243;25.6665;0.587836;0.016484;0.00595464;-0.274083;-0.0179255;-0.169538;-0.213781;0.273435;-7.27681;-0.000478954;-3.68079e-06;0.001505;0.001505;-0.000478961;0.000991983;0.318243;3.14226;0.00119541;0.00132264;3.14223;0.318246;56.3562;101.356;0.00264904;-0.000479719;-0.00124596;0.00123614;0.00150422;0.00026434;0.0102668;0;0.0186824;-0.0014154;-0.180243;-0.489431;0.521567;-6.66993;-0.000112777;0.000278703;-0.000275948;9.60366e-05;-0.000484761;0.000290399;-0.408689;-2.44685;0.000359488;0.000387198;0.198111;5.04767;164.106;29.1058;0.00293025;-0.000113218;-0.000422401;0.000979921;-0.000275998;-0.00141315;0.00343962;0;0.0343475;0.00795182;3.26964
163000;164;25.7544;-0.0015721;-6.10384e-05;-2.02351;25.6681;0.585828;0.0172786;0.00757776;-0.276091;-0.0180221;-0.170803;-0.214277;0.274614;-7.2773;-0.000440211;-5.28263e-05;0.00114271;0.00114447;-0.000441972;0.00079322;0.385236;2.59581;0.000945391;0.00105763;2.58946;0.386181;54.2044;99.2044;0.00273556;-0.000441055;-0.0014073;0.0012995;0.00114172;-0.000112407;0.0110129;0;0.0156678;-0.00136966;-0.181899;-0.492484;0.525004;-6.67298;7.4548e-06;0.000282852;-0.000351322;0.000163008;-0.000506875;0.000334941;;;0.000403385;0.000446588;0.321593;3.10952;157.676;22.676;0.00324272;6.91986e-06;-0.000506346;0.00107233;-0.00035141;-0.000867842;0.00374647;0;0.0269803;0.00805326;3.27557
164000;165;25.7542;-0.00180853;-7.02178e-05;-2.02448;25.6679;0.582182;0.0163105;0.00734717;-0.279737;-0.0183752;-0.171914;-0.216169;0.276805;-7.27919;-0.000352483;8.82001e-05;0.00177928;0.00178292;-0.000356126;0.00106952;0.198104;5.04785;0.00132339;0.00142603;5.00645;0.199743;58.3157;103.316;0.0024916;-0.000353272;-0.0010855;0.0012594;0.0017787;0.000932232;0.0117775;0;0.0165703;-0.00199383;-0.183121;-0.500104;0.53258;-6.6806;7.047e-06;0.000322523;-0.000483402;0.000166984;-0.000643339;0.000405162;;;0.000494052;0.000540215;0.259558;3.8527;152.004;17.004;0.00305149;6.57509e-06;-0.00037826;0.00102365;-0.000483421;0.000294045;0.00533603;0;0.0215046;0.00819309;3.28312
165000;166;25.7525;-0.0034702;-0.000134734;-2.02464;25.6664;0.574307;0.0161524;0.00584486;-0.287613;-0.0185551;-0.172474;-0.218602;0.279067;-7.28163;-0.000439291;6.22622e-05;0.00171487;0.00171667;-0.00044109;0.00107888;0.256166;3.90372;0.00131635;0.00143851;3.89189;0.256945;56.2402;101.24;0.00309573;-0.000440247;-0.00126181;0.00138348;0.00171408;-0.000170329;0.0114538;0;0.0153418;-0.00235657;-0.184092;-0.505607;0.538084;-6.68227;9.54072e-06;0.000230553;-0.000515482;9.64102e-05;-0.000602352;0.000349381;;;0.000437262;0.000465841;0.160056;6.2478;147.006;12.0064;0.00365505;9.02364e-06;-0.000581223;0.00104276;-0.000515625;-0.000905887;0.00613393;0;0.0227574;0.00834114;3.29007
166000;167;25.7553;-0.000665585;-2.5842e-05;-2.0249;25.6691;0.57664;0.0158871;0.00858564;-0.285279;-0.0181921;-0.173121;-0.221011;0.281332;-7.28404;-0.000261443;0.000212634;0.0018096;0.00183121;-0.000283049;0.00105713;0.144475;6.92159;0.00132527;0.0014095;6.46959;0.154569;53.5667;98.5667;0.00283673;-0.000262742;-0.00120346;0.0016258;0.0018089;0.000593776;0.0113284;0;0.0157237;-0.002081;-0.184933;-0.510963;0.543404;-6.68762;-1.80276e-05;0.000312002;-0.000600592;0.000117528;-0.000736147;0.000426838;-0.0300164;-33.3151;0.000534268;0.000569117;0.159653;6.26358;148.794;13.7936;0.00365963;-1.86872e-05;-0.00056569;0.00119021;-0.000600703;0.000368024;0.00627609;0;0.0206932;0.00896807;3.29754
167000;168;25.7541;-0.00190845;-7.40973e-05;-2.02502;25.668;0.571198;0.0157645;0.00745061;-0.290721;-0.0190345;-0.175728;-0.21958;0.281883;-7.28261;-0.000410378;0.000235028;0.00203922;0.00206156;-0.000432724;0.00124714;0.201243;4.96913;0.00153903;0.00166286;4.76416;0.209901;54.4834;99.4834;0.0029416;-0.000411723;-0.00119001;0.00165658;0.00203854;0.000355047;0.0108674;0;0.0152813;-0.0026214;-0.187483;-0.513324;0.546496;-6.68998;5.52428e-06;0.000222019;-0.000629945;7.54076e-05;-0.000699828;0.000387618;;;0.000493612;0.000516824;0.107752;9.28061;141.38;6.38043;0.0032077;5.06185e-06;-0.000542468;0.000986992;-0.000630067;-0.000220913;0.00642564;0;0.0212795;0.00959225;3.30503
168000;169;25.7539;-0.00211213;-8.20055e-05;-2.02547;25.6677;0.570757;0.0153137;0.0072205;-0.291163;-0.0189239;-0.176931;-0.221438;0.284073;-7.28446;-0.000271245;0.000182577;0.00184422;0.00185986;-0.000286886;0.00107337;0.147079;6.79909;0.00134577;0.00143116;6.48291;0.154252;54.7009;99.7009;0.00286685;-0.000272495;-0.00122932;0.00159149;0.00184348;0.000603615;0.0132921;0;0.0156032;-0.00266615;-0.188864;-0.518172;0.551524;-6.69483;-1.84902e-05;0.000171236;-0.000612146;2.73602e-05;-0.000657996;0.000342678;-0.0302056;-33.1065;0.000448063;0.000456904;0.0415811;24.0494;137.177;2.17652;0.00316585;-1.88185e-05;-0.000485238;0.000828099;-0.000612249;-0.000478079;0.00621439;0;0.0209409;0.0101932;3.31219
169000;170;25.7554;-0.000584767;-2.27042e-05;-2.02539;25.6693;0.569824;0.0154002;0.00878053;-0.292095;-0.0188372;-0.177378;-0.225601;0.2876;-7.28863;-0.00019715;0.000356739;0.00240856;0.00245652;-0.000245107;0.00135081;0.0818536;12.2169;0.0017252;0.00180108;10.0222;0.0997781;57.1351;102.135;0.00243291;-0.000198523;-0.00098493;0.00169492;0.00240814;0.000881231;0.0122738;0;0.0147565;-0.0026585;-0.1892;-0.526122;0.559114;-6.70278;8.45959e-05;0.000178981;-0.000495462;0.000135376;-0.000546242;0.000340809;0.170741;5.85681;0.000416683;0.000454412;0.247831;4.035;139.658;4.6583;0.00281628;8.4382e-05;-0.000319812;0.000678062;-0.000495498;0.000690667;0.00577017;0;0.0222525;0.0106275;3.31919
170000;171;25.753;-0.00292201;-0.00011345;-2.02416;25.6672;0.561042;0.0166283;0.0067258;-0.300878;-0.0191759;-0.179107;-0.225714;0.28878;-7.28874;-0.000117083;0.000239951;0.00204984;0.00207609;-0.000143336;0.00110971;0.0571183;17.5075;0.00143423;0.00147962;14.4841;0.0690412;56.8951;101.895;0.00248415;-0.000118268;-0.00108057;0.00155761;0.00204929;0.00195371;0.0138931;0;0.0138553;-0.00294513;-0.190733;-0.530665;0.563909;-6.70732;3.98896e-05;0.000136768;-0.000508047;7.21308e-05;-0.000540288;0.000306209;0.0785157;12.7363;0.000386486;0.000408279;0.133504;7.49039;135.833;0.832611;0.00300043;3.96932e-05;-0.000367816;0.000641629;-0.000508105;6.86261e-05;0.00477105;0;0.0240094;0.0109355;3.32591
171000;172;25.7527;-0.00330913;-0.00012848;-2.02484;25.6668;0.560201;0.0159438;0.00630178;-0.301719;-0.019904;-0.180362;-0.223858;0.288165;-7.28688;-0.000259225;0.000213688;0.00227786;0.00229573;-0.000277097;0.00128641;0.113802;8.78718;0.00163072;0.00171522;8.28493;0.120701;57.8829;102.883;0.00272266;-0.000260545;-0.00121504;0.0016388;0.00227714;0.00121521;0.0128384;0;0.016657;-0.00347282;-0.191217;-0.533003;0.566275;-6.70966;0.000183168;8.47769e-05;-0.000407943;0.000195086;-0.000419861;0.000307474;0.449003;2.22716;0.00036286;0.000409965;0.464644;2.15219;135.174;0.173777;0.00276243;0.000183053;-0.000315748;0.000485539;-0.000407989;8.88325e-05;0.00501797;0;0.0227551;0.0109881;3.33211
172000;173;25.7525;-0.00342332;-0.000132914;-2.0247;25.6668;0.555062;0.0160897;0.00631036;-0.306858;-0.019644;-0.18043;-0.228331;0.291678;-7.29136;-0.000266041;0.000192226;0.00226654;0.00228104;-0.000280548;0.0012808;0.117378;8.51952;0.00162232;0.00170773;8.13068;0.122991;59.0396;104.04;0.00235896;-0.0002672;-0.00115343;0.00153448;0.00226589;0.00182171;0.0136687;0;0.0160123;-0.00326398;-0.191532;-0.54054;0.57348;-6.7172;0.000167141;0.000107368;-0.00043971;0.000185578;-0.000458147;0.000321862;0.380117;2.63077;0.000382599;0.00042915;0.405062;2.46876;136.856;1.85569;0.00312366;0.000166973;-0.000374426;0.000589456;-0.000439775;-0.000296145;0.00544256;0;0.0262384;0.0111132;3.33867
173000;174;25.7533;-0.00269429;-0.000104608;-2.02441;25.6676;0.55222;0.016375;0.00712563;-0.3097;-0.0194983;-0.181006;-0.229026;0.292568;-7.29205;-0.000133489;0.000258262;0.00202021;0.00205074;-0.000164026;0.00110739;0.066077;15.1339;0.00142499;0.00147651;12.5026;0.0799836;55.7417;100.742;0.00256339;-0.000134749;-0.00109453;0.00160814;0.00201964;0.00183697;0.0140243;0;0.0130335;-0.00299416;-0.192132;-0.545196;0.578068;-6.72569;0.000217672;-1.16679e-05;-0.000253624;0.000217961;-0.000253913;0.000235937;0.858248;1.16516;0.0002727;0.000314582;0.858409;1.16495;130.284;175.284;0.0019196;0.000217662;-0.000166939;0.000143677;-0.000253638;0.00155969;0.00325252;0;0.0256206;0.0112502;3.34086
174000;175;25.7525;-0.00350211;-0.000135973;-2.02415;25.6669;0.548898;0.0166385;0.00640714;-0.313021;-0.0200544;-0.180094;-0.237083;0.298403;-7.30011;-0.000396721;0.000265111;0.0021313;0.0021588;-0.000424224;0.00129151;0.186141;5.37228;0.00159947;0.00172202;5.08882;0.196509;55.4051;100.405;0.00252165;-0.000397998;-0.00109245;0.00161925;0.00213074;0.00232165;0.0136477;0;0.0183167;-0.00338736;-0.191864;-0.555427;0.587642;-6.73592;0.000265786;1.71474e-05;-0.000122281;0.000266542;-0.000123038;0.00019479;2.17356;0.460075;0.000229954;0.00025972;2.16635;0.461607;150.878;15.8776;0.0019137;0.000265773;-0.000125489;0.000159839;-0.000122289;0.00119932;0.00319273;0;0.0306053;0.0120312;3.35058
175000;176;25.7498;-0.00620283;-0.000240831;-2.02386;25.6644;0.542447;0.016932;0.00385772;-0.319472;-0.0187623;-0.186263;-0.229732;0.296349;-7.29276;-0.00025089;0.000287233;0.0018189;0.00185802;-0.000290011;0.00107401;0.137935;7.24978;0.0013458;0.00143202;6.40671;0.156086;51.7946;96.7946;0.00241492;-0.000252289;-0.00112564;0.00169718;0.0018183;0.00300141;0.0138462;0;0.0147804;-0.00205692;-0.196081;-0.551721;0.585532;-6.73221;0.000298895;1.06538e-05;-0.000147509;0.000299149;-0.000147763;0.000223456;2.02628;0.493515;0.000262913;0.000297942;2.02451;0.493946;144.014;9.01398;0.00212849;0.000298854;-0.000266223;0.000287654;-0.000147545;0.000505423;0.00329209;0;0.0232459;0.012792;3.3549
176000;177;25.7505;-0.00548889;-0.000213111;-2.02379;25.6651;0.541436;0.0169976;0.00460055;-0.320483;-0.0195184;-0.186383;-0.230064;0.29673;-7.29309;-0.000254457;0.000227627;0.00161794;0.00164521;-0.000281732;0.000963472;0.157272;6.3584;0.00120178;0.00128463;5.83963;0.171244;51.902;96.902;0.00256287;-0.000255617;-0.00108746;0.00154025;0.00161737;0.00231367;0.0139672;0;0.0150572;-0.00267935;-0.196249;-0.555495;0.589148;-6.73599;0.000334155;-1.14903e-05;-0.000229808;0.000334389;-0.000230042;0.000282215;1.45406;0.687728;0.000327725;0.000376287;1.4536;0.687946;139.249;4.24919;0.00186684;0.000334121;-0.000284304;0.000261477;-0.000229848;0.00135913;0.00232209;0;0.023528;0.0133975;3.36251
177000;178;25.7507;-0.00523954;-0.00020343;-2.023;25.6655;0.537527;0.0177855;0.00499502;-0.324392;-0.0190845;-0.186833;-0.233565;0.299706;-7.29659;-0.000367448;0.00020399;0.001832;0.00185076;-0.000386207;0.00111848;0.200572;4.98573;0.0013807;0.00149131;4.79213;0.208675;53.5788;98.5788;0.00295317;-0.000368711;-0.00119723;0.00160213;0.0018313;0.00162185;0.0132535;0;0.0141762;-0.00192486;-0.197044;-0.562567;0.596081;-6.74306;0.000298808;-5.99836e-05;-0.000165364;0.000306434;-0.00017299;0.000239712;1.80697;0.553412;0.000280347;0.000319616;1.7714;0.564526;134.373;179.373;0.00200508;0.000298785;-0.000343747;0.000223911;-0.000165421;0.00107096;0.00356687;0;0.0252388;0.0142981;3.36903
178000;179;25.7506;-0.00538981;-0.000209264;-2.02253;25.6655;0.53239;0.0182568;0.00498848;-0.32953;-0.0190218;-0.186975;-0.236401;0.302004;-7.29943;-0.000241155;0.000235081;0.00161611;0.0016454;-0.000270448;0.000957924;0.14922;6.70153;0.00119731;0.00127723;6.08398;0.164366;51.3631;96.3631;0.00289599;-0.000242391;-0.00112213;0.00158978;0.00161551;0.00212845;0.0135102;0;0.0149399;-0.00182888;-0.197014;-0.569352;0.602478;-6.74985;0.000309004;5.66308e-05;-0.000201333;0.000315213;-0.000207541;0.000261377;1.53479;0.651553;0.000303939;0.000348503;1.51879;0.658417;145.802;10.8023;0.00201125;0.000308928;-0.000280085;0.000393519;-0.00020137;0.00128814;0.00309874;0;0.0236255;0.0145075;3.37662
179000;180;25.7503;-0.00567336;-0.000220274;-2.0222;25.6654;0.527521;0.0185898;0.00483076;-0.334398;-0.0191001;-0.188998;-0.234628;0.301886;-7.29765;-0.000190599;0.000303792;0.00136036;0.00141774;-0.000247981;0.000832863;0.140109;7.13731;0.00103775;0.00111048;5.71715;0.174912;45.3288;90.3288;0.00269735;-0.000192085;-0.00114475;0.00175009;0.00135975;0.00231521;0.013674;0;0.0140806;-0.00174937;-0.198884;-0.571352;0.60498;-6.75185;0.000311146;2.1687e-05;-0.000151627;0.00031216;-0.000152642;0.000232401;2.05204;0.487319;0.000273571;0.000309868;2.04505;0.488985;143.633;8.6332;0.00220027;0.000311066;-0.00035669;0.000400239;-0.000151691;0.00107311;0.00396501;0;0.0215526;0.0145788;3.38354
180000;181;25.7509;-0.00505799;-0.000196381;-2.02129;25.666;0.528484;0.0195015;0.00550017;-0.333436;-0.0195314;-0.189724;-0.23762;0.304696;-7.30065;-0.000333975;0.000169092;0.00144326;0.00145921;-0.00034992;0.000904563;0.231403;4.32146;0.00110802;0.00120608;4.17011;0.239802;50.6518;95.6518;0.00277239;-0.000335145;-0.00120267;0.00153842;0.00144255;0.0028061;0.0133699;0;0.0140083;-0.00165145;-0.199296;-0.578713;0.612071;-6.75921;0.000350957;-3.2786e-05;-0.000144307;0.000353118;-0.000146468;0.000249793;2.43202;0.41118;0.000296547;0.000333057;2.41089;0.414784;137.192;2.19225;0.00241537;0.000350853;-0.000522475;0.000457145;-0.000144443;0.000725142;0.00372448;0;0.020847;0.0149208;3.3914
181000;182;25.7492;-0.0067669;-0.000262731;-2.02147;25.6645;0.516917;0.0193202;0.00400692;-0.345003;-0.019918;-0.190183;-0.237187;0.30467;-7.30021;-0.000251308;0.000225215;0.00119232;0.00122664;-0.000285627;0.000756134;0.210772;4.74447;0.000927743;0.00100818;4.29456;0.232853;46.2381;91.2381;0.00324904;-0.000252459;-0.00108528;0.00153381;0.00119176;0.00122834;0.0142902;0;0.0144666;-0.001999;-0.199595;-0.582881;0.616111;-6.76338;0.000422233;-2.58274e-05;-3.30441e-05;0.000423693;-3.45046e-05;0.000229099;12.7779;0.0782604;0.000294638;0.000305465;12.2793;0.0814376;144.516;9.51563;0.00221141;0.00042216;-0.000433886;0.000382417;-3.31379e-05;0.00079993;0.0027891;0;0.0216714;0.0157177;3.39825
182000;183;25.7504;-0.00553608;-0.000214944;-2.02018;25.6659;0.516052;0.0206067;0.00536049;-0.345867;-0.019727;-0.190772;-0.240433;0.307557;-7.30346;-0.000351499;8.34596e-05;0.00116139;0.00116598;-0.000356089;0.000761033;0.302654;3.3041;0.000919297;0.00101471;3.2744;0.3054;49.994;94.994;0.00267086;-0.00035258;-0.00130769;0.00147251;0.00116054;0.00201238;0.0142496;0;0.0190539;-0.00119197;-0.200407;-0.589857;0.622974;-6.77035;0.000465544;-2.0118e-05;-0.000169609;0.000466181;-0.000170245;0.000318213;2.74481;0.364324;0.000380452;0.000424284;2.73829;0.365192;142.355;7.35543;0.00224289;0.000465454;-0.000466826;0.000426873;-0.000169718;0.00224257;0.00320655;0;0.0265207;0.0168078;3.40616
183000;184;25.751;-0.0050188;-0.00019486;-2.02107;25.6663;0.517088;0.0197223;0.005789;-0.344831;-0.0197559;-0.191115;-0.244274;0.310781;-7.3073;-0.000286191;0.000174965;0.00128442;0.00130367;-0.000305446;0.00080456;0.222817;4.48798;0.000986817;0.00107275;4.2681;0.234296;48.616;93.616;0.00317526;-0.000287399;-0.00121643;0.00156418;0.0012837;0.00133279;0.0136669;0;0.0270908;-0.00166552;-0.20115;-0.59469;0.62779;-6.77518;0.000355039;-4.7557e-05;-0.000148293;0.000359493;-0.000152747;0.00025612;2.39418;0.417679;0.000303665;0.000341493;2.35353;0.424894;135.758;0.757519;0.00239852;0.000354948;-0.00052549;0.000430616;-0.000148429;0.00118847;0.00439552;0;0.0218669;0.0175817;3.41111
184000;185;25.7521;-0.00391496;-0.000152002;-2.0203;25.6676;0.511589;0.0204887;0.007067;-0.35033;-0.0203375;-0.191182;-0.24808;0.31386;-7.31111;-0.000311399;0.000224403;0.000697607;0.000745264;-0.000359055;0.00055216;0.446382;2.24023;0.000650446;0.000736213;2.07562;0.481783;36.9303;81.9303;0.00353673;-0.000312709;-0.0011862;0.00163359;0.00069693;-1.15792e-05;0.0140208;0;0.0173088;-0.0017631;-0.202283;-0.602677;0.635721;-6.78317;0.000319889;-9.05497e-05;-0.000247253;0.000333996;-0.000261359;0.000297677;1.29378;0.772932;0.00034458;0.000396903;1.27792;0.782522;128.271;173.271;0.00237131;0.000319814;-0.000580726;0.000399905;-0.000247417;0.00251689;0.00374467;0;0.0214273;0.0178876;3.41847
185000;186;25.7528;-0.00312484;-0.000121325;-2.01973;25.6685;0.510234;0.0210539;0.00793118;-0.351686;-0.0214643;-0.192366;-0.245986;0.313009;-7.30901;-0.000374584;0.000213463;0.00071563;0.000755936;-0.00041489;0.000585413;0.523432;1.91047;0.000685469;0.000780551;1.82202;0.548843;37.692;82.692;0.00322903;-0.000375937;-0.00123297;0.00165832;0.000714893;0.00141006;0.015024;0;0.040615;-0.0024397;-0.203051;-0.604883;0.638059;-6.78538;0.000309242;-1.12821e-05;-0.000161738;0.000309512;-0.000162008;0.00023576;1.91199;0.523015;0.000276637;0.000314347;1.91047;0.523431;137.646;2.64618;0.00268105;0.000309111;-0.000534608;0.00051229;-0.000161881;0.00149619;0.00416321;0;0.0333141;0.0179913;3.42171
186000;187;25.7508;-0.00516946;-0.000200709;-2.01942;25.6667;0.498434;0.0213674;0.00613637;-0.363485;-0.0212435;-0.193495;-0.244977;0.312898;-7.308;-0.000426914;0.000137841;0.000721843;0.000738151;-0.000443222;0.000590687;0.591422;1.69084;0.000689115;0.000787582;1.66542;0.600449;41.207;86.207;0.0029418;-0.000428141;-0.00129797;0.001572;0.000721011;0.00185484;0.0150617;0;0.0161842;-0.00182149;-0.203496;-0.610132;0.643176;-6.79063;0.000380732;-5.23445e-05;-0.000366068;0.000384383;-0.000369719;0.000377051;1.04006;0.961483;0.000435409;0.000502735;1.03966;0.961849;131.333;176.333;0.00252394;0.000380543;-0.000722164;0.000617976;-0.000366327;0.00228238;0.00355019;0;0.0233945;0.0182375;3.42792
187000;188;25.752;-0.00401785;-0.000155997;-2.01871;25.6679;0.494792;0.0220826;0.00741847;-0.367127;-0.0215459;-0.193221;-0.252487;0.318666;-7.31551;-0.00032497;0.000116045;0.000750328;0.000762709;-0.00033735;0.00055003;0.433103;2.30892;0.000650754;0.000733373;2.26088;0.442305;43.1557;88.1557;0.00317568;-0.00032616;-0.00131648;0.00154703;0.000749469;0.00158684;0.0147252;0;0.0156275;-0.00147025;-0.204188;-0.621999;0.654659;-6.80249;0.000449276;-0.000101492;-0.000420017;0.000460968;-0.000431709;0.000446338;1.06966;0.934875;0.000515479;0.000595118;1.06777;0.936527;128.896;173.896;0.00251585;0.000448944;-0.00102326;0.000821076;-0.000420535;0.00389486;0.00397318;0;0.0218806;0.0191053;3.4353
188000;189;25.7531;-0.00288724;-0.0001121;-2.01988;25.669;0.494604;0.0209135;0.00846444;-0.367316;-0.021753;-0.195207;-0.250901;0.318638;-7.31393;-0.000452381;0.000192134;0.000233302;0.000283469;-0.000502548;0.000393008;1.93903;0.515721;0.000459645;0.000524011;0.564064;1.77285;28.4032;73.4032;0.003345;-0.000453928;-0.00138592;0.0017691;0.00023236;0.00133174;0.0147898;0;0.0335059;-0.0017685;-0.206392;-0.62353;0.656803;-6.80402;0.000227704;1.3651e-05;-0.000764416;0.000227891;-0.000764604;0.000496248;0.297879;3.35707;0.000600296;0.000661663;0.298052;3.35512;126.986;171.986;0.00296796;0.000227335;-0.000830314;0.000858454;-0.000764761;0.0042836;0.00402488;0;0.021614;0.0204222;3.44191
189000;190;25.7499;-0.00604965;-0.000234883;-2.01976;25.6661;0.480527;0.0210242;0.00556779;-0.381392;-0.0212555;-0.198198;-0.241425;0.313082;-7.30445;-0.00046386;0.000253453;0.000689767;0.000742996;-0.000517088;0.000630042;0.672487;1.48702;0.000731396;0.000840056;1.43688;0.69595;35.2848;80.2848;0.00286884;-0.000465402;-0.00126865;0.0017738;0.000688995;0.00292391;0.0143598;0;0.019162;-0.00117603;-0.208507;-0.621808;0.655836;-6.8023;0.000270823;-4.0379e-05;-0.00074577;0.000272425;-0.000747372;0.000509898;0.363146;2.75371;0.000609693;0.000679864;0.364511;2.74341;126.516;171.516;0.00300075;0.000270289;-0.00111468;0.00103502;-0.000746391;0.00260666;0.00415662;0;0.0450343;0.0213268;3.44973
190000;191;25.7523;-0.0037051;-0.000143854;-2.0189;25.6686;0.476169;0.0218884;0.0080692;-0.38575;-0.0206768;-0.198008;-0.241865;0.313262;-7.30489;-0.000357603;0.000139139;0.000880123;0.000895571;-0.000373052;0.000634312;0.406311;2.46117;0.000752864;0.000845749;2.40066;0.416552;43.6976;88.6976;0.00325816;-0.000358901;-0.00134001;0.00161646;0.000879235;0.00177271;0.0147319;0;0.0141289;0.000114499;-0.209332;-0.626181;0.660244;-6.80667;0.000330478;-7.31023e-05;-0.000710106;0.000335588;-0.000715216;0.000525402;0.465392;2.14873;0.000619739;0.000700536;0.469212;2.13123;125.942;170.942;0.00298077;0.000329993;-0.00113281;0.000987713;-0.000710745;0.00371366;0.00462545;0;0.0323785;0.0218494;3.45668
191000;192;25.7531;-0.00289463;-0.000112387;-2.01877;25.6694;0.476376;0.0220232;0.00888907;-0.385543;-0.0203708;-0.19734;-0.246127;0.316127;-7.30915;-0.000436455;2.0137e-05;0.000492801;0.000493237;-0.000436891;0.000465064;0.885661;1.1291;0.000537338;0.000620086;1.12897;0.885762;44.3092;89.3092;0.00308794;-0.000437653;-0.00150867;0.00154753;0.000491664;0.0019669;0.0151717;0;0.020396;0.000768281;-0.209412;-0.633033;0.666772;-6.81353;0.000305314;-0.000103079;-0.000877605;0.000314229;-0.00088652;0.000600375;0.347895;2.87443;0.000719021;0.0008005;0.354453;2.82125;122.86;167.86;0.00280183;0.00030481;-0.00121462;0.00100978;-0.000878338;0.00386342;0.00488288;0;0.0224882;0.0220619;3.46414
192000;193;25.7539;-0.0020583;-7.99154e-05;-2.0181;25.6704;0.46992;0.0226886;0.00989945;-0.391999;-0.0213664;-0.195828;-0.252728;0.320432;-7.31575;-0.000398037;-1.65255e-05;0.000614003;0.000614272;-0.000398307;0.00050629;0.648266;1.54258;0.000589028;0.000675053;1.54221;0.64842;47.9982;92.9982;0.00281146;-0.000399156;-0.00153026;0.00149568;0.000612833;0.00219782;0.0146298;0;0.0166408;0.000332838;-0.20865;-0.646007;0.678867;-6.8265;0.000218225;-6.50839e-05;-0.000868074;0.000222111;-0.00087196;0.000547035;0.25139;3.97788;0.000667772;0.00072938;0.254726;3.92579;124.039;169.039;0.00266457;0.00021758;-0.00126646;0.0011376;-0.000868875;0.00542159;0.0062294;0;0.0263054;0.0224491;3.4717
193000;194;25.7544;-0.00160535;-6.23292e-05;-2.01781;25.671;0.46396;0.0229761;0.0104849;-0.39796;-0.0215145;-0.196094;-0.252508;0.320431;-7.31553;-0.000396745;0.000228849;0.000539599;0.000592538;-0.000449684;0.000521111;0.73526;1.36006;0.000603608;0.000694815;1.31768;0.758912;33.2927;78.2927;0.00334174;-0.000398352;-0.00135084;0.00180706;0.000538713;0.00157304;0.0160508;0;0.0173096;0.000584361;-0.209035;-0.651818;0.684517;-6.83231;6.83493e-05;-9.62514e-05;-0.00087688;7.80509e-05;-0.000886582;0.000482316;0.077946;12.8294;0.000618715;0.000643088;0.0880357;11.359;119.218;164.218;0.00258129;6.78443e-05;-0.00120111;0.00100965;-0.000877598;0.00679577;0.00800294;0;0.0241131;0.0240529;3.47901
194000;195;25.7558;-0.000202469;-7.86103e-06;-2.0165;25.6726;0.458951;0.0242862;0.0120853;-0.402968;-0.0218146;-0.195707;-0.261802;0.327594;-7.32483;-0.000595079;-4.23973e-05;0.000352028;0.000353922;-0.000596973;0.000475448;1.69043;0.591565;0.000554945;0.00063393;0.592861;1.68674;45.3215;90.3215;0.00304686;-0.000596196;-0.00158126;0.00149501;0.000350779;0.000807561;0.0143913;0;0.0321562;0.00138897;-0.209673;-0.668125;0.700254;-6.84862;0.000154645;-0.0001423;-0.000809788;0.000175203;-0.000830346;0.000502774;0.19097;5.23642;0.000620268;0.000670366;0.211;4.73933;118.05;163.05;0.00205075;0.000154253;-0.00118122;0.000897618;-0.000810476;0.00832594;0.00816675;0;0.0315334;0.0250968;3.48505
195000;196;25.7546;-0.00135965;-5.27898e-05;-2.01729;25.6714;0.455206;0.0235;0.0109293;-0.406713;-0.0211272;-0.197594;-0.251245;0.320334;-7.31427;-0.000461314;0.000172564;0.000279846;0.000318055;-0.000499522;0.000408789;1.64845;0.606629;0.000475888;0.000545051;0.636718;1.57055;30.9175;75.9175;0.00361304;-0.000462873;-0.00143005;0.00177399;0.000278839;0.000534472;0.0151091;0;0.020641;0.00194174;-0.211151;-0.660347;0.693286;-6.84084;0.00014669;-6.38048e-05;-0.000862881;0.000150707;-0.000866898;0.000508802;0.17;5.88234;0.000634165;0.000678403;0.173846;5.75222;122.253;167.253;0.00282782;0.000146174;-0.0011445;0.00101799;-0.000863535;0.00643486;0.00974601;0;0.0285701;0.02522;3.48801
196000;197;25.7557;-0.000256613;-9.96325e-06;-2.01553;25.6728;0.451475;0.0252559;0.0122397;-0.410445;-0.0210328;-0.197771;-0.254252;0.3228;-7.31728;-0.000448942;0.000117217;0.000439891;0.000455089;-0.00046414;0.000459615;1.02058;0.97984;0.000530726;0.00061282;0.9805;1.01989;37.5595;82.5595;0.00281192;-0.000450559;-0.00156871;0.00180164;0.000438668;0.00260778;0.0150622;0;0.023705;0.00251392;-0.211494;-0.668865;0.70151;-6.84936;0.000126455;-0.000190813;-0.000695295;0.000168601;-0.000737441;0.000453021;0.181873;5.49835;0.000556409;0.000604028;0.22863;4.37388;114.678;159.678;0.00274012;0.00012614;-0.00119795;0.000817148;-0.000695995;0.00733289;0.0105771;0;0.0271935;0.025583;3.49354
197000;198;25.7544;-0.0015769;-6.12247e-05;-2.01416;25.6717;0.443259;0.0266302;0.0111662;-0.41866;-0.0210141;-0.198837;-0.253313;0.322715;-7.31634;-0.000619195;-6.58881e-06;0.000523662;0.0005237;-0.000619233;0.000571467;1.18243;0.845715;0.000660641;0.000761956;0.845724;1.18242;44.547;89.547;0.0033566;-0.000620618;-0.00170151;0.0016864;0.000522216;0.00175765;0.0153588;0;0.0176341;0.0035867;-0.212778;-0.673741;0.706551;-6.85424;0.000104921;-0.000104088;-0.000706156;0.000118066;-0.000719301;0.000418683;0.14858;6.73036;0.000523347;0.000558244;0.16414;6.09237;117.151;162.151;0.00228306;0.000104704;-0.000873699;0.000666149;-0.000706532;0.00687802;0.0082217;0;0.0247851;0.0267253;3.50058
198000;199;25.7549;-0.00105425;-4.09321e-05;-2.01446;25.6723;0.439022;0.0263312;0.0117398;-0.422897;-0.0222975;-0.197912;-0.256249;0.324546;-7.31927;-0.000444366;0.000177823;0.000534388;0.000565694;-0.000475672;0.000520683;0.831541;1.20259;0.000601981;0.000694244;1.18925;0.840863;35.7821;80.7821;0.00354272;-0.000446183;-0.00156068;0.00191462;0.000533187;0.00124281;0.0151449;0;0.0147951;0.002508;-0.211858;-0.681955;0.714109;-6.86245;7.07867e-05;-6.72375e-05;-0.000556905;7.79083e-05;-0.000564026;0.000320967;0.127107;7.86736;0.000404496;0.000427956;0.138129;7.23962;121.136;166.136;0.00233131;7.04691e-05;-0.000933826;0.000799895;-0.000557339;0.00746351;0.00972833;0;0.0240002;0.0282879;3.50864
199000;200;25.7545;-0.00150174;-5.83066e-05;-2.01426;25.6719;0.435135;0.0265291;0.0113726;-0.426785;-0.0216328;-0.199079;-0.257167;0.325938;-7.32019;-0.000514801;-0.000106042;0.000621106;0.00063092;-0.000524616;0.000577768;0.828847;1.2065;0.00066809;0.000770358;1.20263;0.831509;51.2132;96.2132;0.00339729;-0.000516048;-0.00179628;0.00158228;0.000619499;0.00164011;0.0150263;0;0.0169148;0.00366304;-0.213224;-0.68749;0.719806;-6.86798;0.00012423;-8.72152e-05;-0.000482747;0.000136513;-0.00049503;0.000315771;0.257339;3.88592;0.000383706;0.000421028;0.275767;3.62625;119.936;164.936;0.00219228;0.000124038;-0.000799848;0.00062585;-0.000483063;0.00629302;0.00952594;0;0.024381;0.0288558;3.51552
200000;201;25.7535;-0.00246747;-9.5802e-05;-2.01324;25.6711;0.426921;0.0275487;0.0106217;-0.434998;-0.021698;-0.197894;-0.256352;0.324575;-7.31938;-0.000670442;-0.000154369;0.000638143;0.000656106;-0.000688406;0.000672256;1.05062;0.951823;0.000776329;0.000896342;0.95308;1.04923;51.3891;96.3891;0.0033121;-0.000671617;-0.00185131;0.00154036;0.000636442;0.00241737;0.015056;0;0.0266468;0.00371358;-0.21151;-0.693557;0.725101;-6.87405;3.91033e-05;-3.37338e-06;-0.000510106;3.9124e-05;-0.000510127;0.000274626;0.0766571;13.0451;0.000353848;0.000366167;0.0766946;13.0387;124.929;169.929;0.00203362;3.88833e-05;-0.00066974;0.00066336;-0.000510331;0.00694778;0.00872426;0;0.03247;0.0289993;3.52325
201000;202;25.7547;-0.00129306;-5.02041e-05;-2.0128;25.6724;0.426987;0.0279844;0.0118329;-0.434932;-0.0219947;-0.19889;-0.257173;0.325851;-7.3202;-0.000633362;-2.74559e-05;0.000279597;0.000280422;-0.000634187;0.000457305;2.26527;0.441449;0.000541056;0.000609739;0.442176;2.26155;43.9205;88.9205;0.00388783;-0.000634909;-0.00181535;0.0017588;0.00027795;-0.000317336;0.016006;0;0.0269119;0.00419665;-0.212923;-0.698413;0.73016;-6.87891;9.87262e-05;-2.76104e-06;-0.000456957;9.874e-05;-0.00045697;0.000277855;0.216052;4.62852;0.00034234;0.000370473;0.216075;4.62802;127.167;172.167;0.00235213;9.85082e-05;-0.000665587;0.000660433;-0.000457178;0.00574994;0.0105244;0;0.0316158;0.0301638;3.53091
202000;203;25.7535;-0.00247755;-9.61932e-05;-2.01275;25.6713;0.420043;0.0280341;0.0107631;-0.441876;-0.0222767;-0.197852;-0.258831;0.32655;-7.32186;-0.000628948;1.16334e-05;0.000281066;0.000281215;-0.000629096;0.000455156;2.23772;0.446883;0.000538209;0.000606874;0.447014;2.23707;41.5854;86.5854;0.00366482;-0.000630651;-0.00182329;0.00184489;0.000279404;0.00209164;0.0160147;0;0.0284003;0.00443793;-0.211952;-0.70426;0.735477;-6.88475;5.12668e-05;2.49428e-05;-0.000462711;5.24744e-05;-0.000463918;0.000258196;0.110797;9.02554;0.000328172;0.000344262;0.113111;8.84085;129.81;174.81;0.00214625;5.09895e-05;-0.000694918;0.000745174;-0.000462952;0.00615947;0.00872345;0;0.0322813;0.0314348;3.53855
203000;204;25.7556;-0.000371364;-1.44186e-05;-2.0124;25.6734;0.421137;0.0283861;0.0128857;-0.440782;-0.0224822;-0.197421;-0.262279;0.329045;-7.3253;-0.00064031;-9.8932e-05;0.0003524;0.000362163;-0.000650073;0.000506118;1.817;0.550359;0.000592243;0.000674824;0.557112;1.79497;48.385;93.385;0.00330265;-0.000641763;-0.00190704;0.00170738;0.000350587;0.00248368;0.0166847;0;0.031863;0.0045842;-0.211832;-0.711045;0.741942;-6.89154;4.05148e-05;-2.50604e-05;-0.000403048;4.19262e-05;-0.000404459;0.000223193;0.100521;9.94815;0.000284646;0.00029759;0.10366;9.64692;124.552;169.552;0.00209696;4.02856e-05;-0.000727335;0.000677526;-0.000403312;0.00634073;0.00910218;0;0.0341783;0.0324472;3.54542
204000;205;25.7538;-0.00220994;-8.58031e-05;-2.01157;25.6718;0.410834;0.0292223;0.0112737;-0.451085;-0.0213173;-0.196549;-0.267302;0.33247;-7.33033;-0.000527228;3.95316e-05;0.000598127;0.000599514;-0.000528615;0.000564065;0.881465;1.13447;0.000651754;0.000752086;1.13412;0.88174;43.5727;88.5727;0.00342617;-0.000528968;-0.00178811;0.00186512;0.00059653;0.00166633;0.0156035;0;0.0200729;0.00594661;-0.211444;-0.720673;0.751075;-6.90117;-4.71443e-06;0.000116312;-0.000441666;2.43175e-05;-0.000470697;0.000247507;;;0.00032221;0.00033001;0.0516627;19.3563;139.285;4.28509;0.00232656;-4.98699e-06;-0.000514528;0.000747427;-0.000441791;0.00589099;0.00789773;0;0.0261518;0.0330072;3.55277
205000;206;25.7553;-0.000715195;-2.77681e-05;-2.01123;25.6733;0.411389;0.0295584;0.0127907;-0.45053;-0.0218314;-0.196245;-0.267453;0.332445;-7.33048;-0.000535684;0.000259595;0.000353544;0.000423781;-0.00060592;0.00051485;1.51518;0.659987;0.00059759;0.000686467;0.6994;1.4298;28.5328;73.5328;0.00380947;-0.000538033;-0.00166494;0.00218242;0.000352192;0.00117804;0.0165803;0;0.0216482;0.00611996;-0.21159;-0.725866;0.756101;-6.90636;2.42685e-05;0.00017627;-0.000324203;9.78818e-05;-0.000397816;0.000247849;0.0748558;13.359;0.000303152;0.000330465;0.246048;4.06425;151.588;16.5879;0.00237846;2.39044e-05;-0.000518554;0.000871336;-0.000324322;0.00596348;0.00851079;0;0.0302161;0.0343867;3.55981
206000;207;25.7541;-0.00189999;-7.37688e-05;-2.01032;25.6723;0.403388;0.0304689;0.0118004;-0.458531;-0.0212031;-0.196504;-0.267507;0.332601;-7.33053;-0.000671751;-3.41536e-05;0.000977697;0.000978404;-0.000672458;0.000825431;0.687076;1.45544;0.000958566;0.00110057;1.45497;0.687302;48.464;93.464;0.00372073;-0.000673572;-0.00197917;0.00190765;0.000975741;0.00176022;0.0157084;0;0.0154091;0.00712732;-0.211352;-0.731488;0.761443;-6.91198;7.97531e-05;0.000228658;-0.000333;0.000181396;-0.000434643;0.000308019;0.239499;4.17539;0.000365551;0.000410692;0.417344;2.3961;152.075;17.0752;0.00213943;7.95022e-05;-0.000286863;0.000744392;-0.000333015;0.00601339;0.00826576;0;0.0236229;0.0355221;3.56407
207000;208;25.7538;-0.00217654;-8.45062e-05;-2.0096;25.6721;0.402999;0.0311871;0.0115853;-0.45892;-0.0223104;-0.197481;-0.26798;0.333631;-7.33101;-0.000682407;-5.46141e-05;0.000214958;0.000218269;-0.000685719;0.000451994;3.17462;0.314999;0.000544681;0.000602659;0.318307;3.14162;44.9165;89.9165;0.0034978;-0.000684036;-0.00191574;0.00180485;0.000213124;0.00220785;0.01612;0;0.0350213;0.00689532;-0.211554;-0.737148;0.766935;-6.91764;4.7632e-05;0.000169566;-0.000371041;0.000107692;-0.000431101;0.000269396;0.128374;7.78975;0.000329222;0.000359195;0.249806;4.00311;147.618;12.6183;0.00184609;4.73032e-05;-0.000489075;0.000828482;-0.000371147;0.00605564;0.00800257;0;0.0359225;0.0365787;3.56803
208000;209;25.7545;-0.00143828;-5.58425e-05;-2.00979;25.6729;0.398957;0.0310025;0.0123746;-0.462962;-0.0225935;-0.195541;-0.269121;0.333426;-7.33215;-0.000498479;1.30751e-05;0.000634821;0.000634972;-0.00049863;0.000566801;0.785227;1.27352;0.000656061;0.000755735;1.27343;0.785278;45.3638;90.3638;0.00385301;-0.000500422;-0.00194691;0.00197085;0.000632927;0.00148174;0.017156;0;0.0194971;0.00669869;-0.210193;-0.7415;0.770745;-6.92199;1.82079e-05;0.000178554;-0.000356164;8.97115e-05;-0.000427668;0.00025869;0.0511223;19.5609;0.000319245;0.000344919;0.209769;4.76714;149.575;14.5752;0.00215458;1.78784e-05;-0.000473886;0.000831239;-0.00035626;0.00668868;0.00769059;0;0.0273553;0.0367621;3.57367
209000;210;25.7549;-0.00106394;-4.13084e-05;-2.0095;25.6733;0.396596;0.0312838;0.0128087;-0.465323;-0.0224663;-0.196143;-0.270724;0.335065;-7.33375;-0.000565995;2.23856e-05;0.000378215;0.000378746;-0.000566525;0.000472635;1.49649;0.668231;0.00054933;0.00063018;0.668542;1.49579;42.3707;87.3707;0.00409261;-0.000568172;-0.00204368;0.0020865;0.000376128;0.0014307;0.0173162;0;0.0224353;0.00725571;-0.210761;-0.748616;0.777752;-6.92911;-5.33091e-06;0.000181132;-0.000423955;6.21607e-05;-0.000491446;0.000276804;;;0.000350195;0.000369071;0.126485;7.90607;144.888;9.88754;0.0016658;-5.58615e-06;-0.000374586;0.000737082;-0.000424009;0.0070015;0.00751246;0;0.0308375;0.0382453;3.58162
210000;211;25.7542;-0.00172601;-6.7014e-05;-2.00884;25.6728;0.389715;0.0319447;0.0123016;-0.472204;-0.0227501;-0.196177;-0.269336;0.333983;-7.33236;-0.000578261;-0.000177864;0.000630201;0.000655836;-0.000603896;0.000629866;0.917581;1.08982;0.000727512;0.000839821;1.08601;0.920803;53.6069;98.6069;0.0037098;-0.000579853;-0.00215053;0.00179242;0.000627906;0.00245774;0.0162886;0;0.0259067;0.00684123;-0.210647;-0.750068;0.779116;-6.93056;-6.81838e-05;0.000283883;-0.000373275;0.000101543;-0.000543001;0.000322272;-0.182664;-5.47453;0.000400166;0.000429696;0.187003;5.3475;156.952;21.9519;0.00182344;-6.86128e-05;-0.00040079;0.000968764;-0.000373315;0.00539103;0.00828893;0;0.0294726;0.0396326;3.58912
211000;212;25.7547;-0.00128671;-4.99577e-05;-2.00919;25.6733;0.387566;0.0315995;0.0127478;-0.474353;-0.021393;-0.195471;-0.271793;0.335466;-7.33482;-0.000607639;5.1203e-05;0.00071963;0.000721602;-0.000609612;0.000665607;0.844378;1.1843;0.000769483;0.000887476;1.18371;0.844803;43.6229;88.6229;0.00417359;-0.000609749;-0.00195438;0.00205413;0.000717723;0.00138459;0.0169891;0;0.016532;0.00842999;-0.210322;-0.756989;0.785709;-6.93748;-6.99139e-06;0.00028236;-0.000393326;0.000141954;-0.000542271;0.000342112;;;0.000416966;0.00045615;0.261776;3.82006;154.347;19.3473;0.00196045;-7.39264e-06;-0.00037429;0.000939263;-0.000393356;0.00609895;0.00749899;0;0.0236468;0.0400804;3.59665
212000;213;25.7531;-0.00283296;-0.000109992;-2.00825;25.6719;0.377843;0.0325347;0.0114148;-0.484076;-0.0214555;-0.19753;-0.270584;0.3357;-7.33361;-0.00065305;-2.36465e-05;0.000554191;0.000554654;-0.000653513;0.000604084;1.17839;0.848619;0.000698314;0.000805445;0.848726;1.17824;45.4671;90.4671;0.00402565;-0.000655141;-0.00209406;0.00204427;0.000552;0.00185296;0.017197;0;0.0263211;0.00906249;-0.211809;-0.762635;0.791554;-6.94313;9.50615e-05;0.000203762;-0.000434125;0.000164427;-0.000503491;0.000333959;0.218973;4.56678;0.000401844;0.000445279;0.326575;3.06209;147.21;12.2098;0.00168482;9.4653e-05;-0.000518734;0.000926641;-0.000434239;0.00541192;0.00771244;0;0.0317955;0.0429689;3.60312
213000;214;25.7534;-0.00254736;-9.89037e-05;-2.00759;25.6723;0.377243;0.0331963;0.0117619;-0.484677;-0.0216045;-0.196842;-0.275476;0.339265;-7.3385;-0.000730655;-0.000185189;0.000592305;0.000617739;-0.000756089;0.000686914;1.23358;0.810649;0.000794519;0.000915885;0.817019;1.22396;51.8881;96.8881;0.00414122;-0.000732394;-0.00224678;0.00187368;0.000589799;0.00172282;0.0179538;0;0.0188061;0.00907306;-0.2108;-0.769199;0.797613;-6.94969;9.81116e-05;0.000212787;-0.000413689;0.000175023;-0.0004906;0.000332811;0.237162;4.21652;0.000398435;0.000443749;0.356752;2.80307;149.336;14.3362;0.00166153;9.76165e-05;-0.000591575;0.00101756;-0.000413842;0.00579876;0.00793064;0;0.0233083;0.0435943;3.61054
214000;215;25.7537;-0.00226028;-8.77576e-05;-2.00785;25.6726;0.371905;0.0329406;0.0121078;-0.490014;-0.0222693;-0.197515;-0.272553;0.337333;-7.33558;-0.000738491;-0.000212623;0.000773327;0.000802661;-0.000767825;0.000785243;0.954952;1.04717;0.000906795;0.00104699;1.04537;0.956599;53.1311;98.1311;0.00394744;-0.0007401;-0.00223444;0.00180614;0.000770855;0.00133493;0.0166383;0;0.0167771;0.00833564;-0.212412;-0.770344;0.799136;-6.95084;0.000128133;0.000244706;-0.000452423;0.000217516;-0.000541806;0.000379661;0.283214;3.53089;0.000451525;0.000506214;0.401464;2.49088;149.729;14.7288;0.00188529;0.000127554;-0.000613258;0.00110317;-0.000452582;0.00553472;0.00820984;0;0.023632;0.044595;3.61802
215000;216;25.755;-0.000920745;-3.57488e-05;-2.00839;25.6739;0.37108;0.0323958;0.0134209;-0.49084;-0.0224181;-0.19969;-0.27006;0.336617;-7.33308;-0.000609657;-1.2501e-05;0.000908222;0.000908325;-0.00060976;0.000759042;0.671264;1.48973;0.000882099;0.00101206;1.48964;0.671301;47.4396;92.4396;0.00413366;-0.000612059;-0.00221973;0.00219138;0.00090576;0.00253915;0.0172927;0;0.0149509;0.00827097;-0.214628;-0.773672;0.802933;-6.95417;0.000107617;0.000241455;-0.000424389;0.000200861;-0.000517632;0.000359247;0.253582;3.9435;0.00042805;0.000478995;0.388038;2.57707;150.924;15.9242;0.00182405;0.000107037;-0.00062064;0.00110401;-0.000424552;0.005506;0.00864741;0;0.0212946;0.0471351;3.6258
216000;217;25.7532;-0.00274254;-0.000106482;-2.00859;25.6723;0.359696;0.0321992;0.0117399;-0.502223;-0.0221265;-0.200091;-0.271653;0.338114;-7.33468;-0.000635328;-3.46709e-05;0.00112519;0.00112587;-0.000636011;0.000880942;0.56464;1.77104;0.00103025;0.00117459;1.77021;0.564904;49.3444;94.3444;0.00421145;-0.000637656;-0.00223068;0.00215748;0.00112271;0.00185627;0.0164558;0;0.0163339;0.00887846;-0.214894;-0.780747;0.809829;-6.96124;0.000103477;0.00016397;-0.000431;0.000149771;-0.000477294;0.000313533;0.240085;4.16519;0.000378139;0.000418043;0.313791;3.18683;145.758;10.7578;0.00187909;0.000102898;-0.000760395;0.00108883;-0.000431276;0.00439883;0.00809937;0;0.0218371;0.0488397;3.63203
217000;218;25.7528;-0.00321744;-0.00012492;-2.00847;25.6719;0.353993;0.03232;0.0113523;-0.507926;-0.0214282;-0.201786;-0.269601;0.337434;-7.33263;-0.000629568;0.000167063;0.000753102;0.000773001;-0.000649467;0.000711234;0.835966;1.19622;0.000822294;0.000948312;1.19021;0.840189;39.0348;84.0348;0.00423013;-0.000632409;-0.0020581;0.00238915;0.000750999;0.0018909;0.0174727;0;0.0252314;0.00903706;-0.215476;-0.784582;0.813683;-6.96508;4.79562e-05;0.000204441;-0.000590516;0.000107808;-0.000650368;0.000379088;0.0812108;12.3136;0.000473622;0.000505451;0.165765;6.03264;143.097;8.0968;0.00199322;4.73474e-05;-0.000712822;0.00112229;-0.000590749;0.0053891;0.00920777;0;0.0332035;0.0509579;3.63845
218000;219;25.7555;-0.000498738;-1.9364e-05;-2.00819;25.6746;0.355828;0.0326023;0.0140763;-0.506092;-0.0216416;-0.201164;-0.271869;0.338892;-7.33489;-0.000726554;-1.94883e-05;0.00118068;0.00118088;-0.000726753;0.000953816;0.615368;1.62504;0.00111173;0.00127176;1.62487;0.615433;48.5896;93.5896;0.00422756;-0.000728885;-0.00220195;0.00215882;0.00117826;0.00147451;0.0173117;0;0.0207166;0.00926639;-0.216543;-0.787572;0.816851;-6.96807;0.000185331;0.000187443;-0.000594108;0.000228065;-0.000636842;0.000432454;0.311949;3.20565;0.000517611;0.000576605;0.358119;2.79236;142.021;7.02108;0.00198634;0.000184656;-0.000801436;0.00117709;-0.000594411;0.00393101;0.00856438;0;0.0219415;0.0526519;3.64138
219000;220;25.7537;-0.00225724;-8.76393e-05;-2.00804;25.6729;0.348011;0.0327443;0.0124305;-0.513908;-0.0214901;-0.202348;-0.273487;0.340883;-7.33651;-0.000615466;9.89096e-05;0.000746512;0.000753658;-0.000622612;0.000688135;0.824456;1.21292;0.000795789;0.000917513;1.21048;0.82612;41.6987;86.6987;0.00395523;-0.000618469;-0.00225739;0.002452;0.000743971;0.00248399;0.0172286;0;0.0180471;0.00909126;-0.217304;-0.794119;0.823364;-6.97461;9.86721e-05;0.000178497;-0.000649631;0.000139069;-0.000690027;0.000414548;0.15189;6.58373;0.000512701;0.000552731;0.201541;4.96176;139.734;4.73404;0.00216702;9.80435e-05;-0.000777703;0.00113541;-0.000649917;0.00411857;0.00968206;0;0.0200962;0.0545965;3.64795
220000;221;25.7534;-0.00254449;-9.87921e-05;-2.00912;25.6727;0.337408;0.0316687;0.0121997;-0.524511;-0.0219405;-0.204861;-0.270986;0.340415;-7.33401;-0.000725076;1.72721e-05;0.00145524;0.00145537;-0.000725213;0.00109029;0.498253;2.00701;0.00128227;0.00145372;2.00682;0.498301;49.0712;94.0712;0.0040803;-0.000727779;-0.00229489;0.0023244;0.00145261;0.00244332;0.0166766;0;0.0186224;0.00844295;-0.219982;-0.799276;0.829039;-6.97977;0.000165144;0.000280906;-0.000798337;0.000241061;-0.000874254;0.000557658;0.20686;4.83418;0.000677636;0.000743544;0.275734;3.62669;142.69;7.68972;0.00209288;0.000164102;-0.000908076;0.00147103;-0.00079871;0.00410013;0.0100061;0;0.019371;0.0583421;3.66137
221000;222;25.754;-0.00199027;-7.7274e-05;-2.00854;25.6733;0.336888;0.0322533;0.0128083;-0.525031;-0.0214637;-0.204612;-0.272122;0.341141;-7.33515;-0.000593781;0.000209371;0.00132259;0.0013452;-0.000616389;0.000980796;0.448952;2.22741;0.00115829;0.00130773;2.18239;0.458213;43.2372;88.2372;0.00444006;-0.000597089;-0.00216583;0.00258003;0.00132027;0.00146097;0.0169724;0;0.0183803;0.00924871;-0.220117;-0.803085;0.832756;-6.98358;4.49591e-05;0.000300844;-0.000864575;0.000135463;-0.000955078;0.000545271;0.0520014;19.2303;0.000686344;0.000727027;0.141834;7.0505;142.458;7.458;0.00216495;4.38514e-05;-0.000915731;0.00151853;-0.000864949;0.00381562;0.00936221;0;0.0202171;0.0586609;3.66253
222000;223;25.7553;-0.000662611;-2.57265e-05;-2.00903;25.6746;0.335428;0.0317545;0.0141202;-0.526492;-0.0222596;-0.204665;-0.275045;0.343559;-7.33807;-0.000713932;-6.72728e-05;0.00145454;0.00145663;-0.000716017;0.00108632;0.49083;2.03737;0.00127844;0.00144843;2.03435;0.491558;51.3723;96.3723;0.00392672;-0.00071643;-0.00237483;0.00223529;0.00145173;0.00287147;0.0177558;0;0.0205867;0.00860466;-0.221528;-0.807639;0.837514;-6.98813;0.00012632;0.000291126;-0.000893825;0.000203554;-0.000971058;0.000587306;0.141326;7.07586;0.000724814;0.000783074;0.20962;4.77053;140.814;5.81382;0.0019338;0.000125291;-0.000880641;0.00146409;-0.00089417;0.00453541;0.00991824;0;0.0205542;0.0617036;3.66968
223000;224;25.7559;-3.74752e-05;-1.45501e-06;-2.00913;25.6753;0.331514;0.0316607;0.0147908;-0.530405;-0.021215;-0.206436;-0.274257;0.343923;-7.33728;-0.000634998;2.53034e-05;0.00160567;0.00160595;-0.000635283;0.00112062;0.395473;2.52862;0.00133382;0.00149416;2.52793;0.395581;50.0561;95.0561;0.00389874;-0.000637986;-0.00239879;0.00244397;0.00160279;0.00286911;0.0161261;0;0.0189477;0.00946304;-0.222497;-0.812853;0.842808;-6.99335;8.90216e-05;0.000319937;-0.00110851;0.000169137;-0.00118862;0.000678881;0.0803075;12.4521;0.000854394;0.000905175;0.142296;7.02758;138.632;3.63195;0.00239655;8.77018e-05;-0.00101443;0.0016559;-0.00110897;0.00433884;0.00961908;0;0.0234232;0.0640231;3.67665
224000;225;25.7558;-0.000176449;-6.85081e-06;-2.00943;25.6752;0.325376;0.0313567;0.0147061;-0.536543;-0.0221007;-0.209179;-0.26884;0.34135;-7.33187;-0.000718592;9.18269e-05;0.001687;0.0016905;-0.000722092;0.0012063;0.425958;2.34765;0.00142983;0.0016084;2.34111;0.427147;48.5722;93.5722;0.00445823;-0.00072167;-0.00230404;0.00248194;0.00168435;0.00213845;0.0169966;0;0.0215892;0.00828035;-0.22546;-0.811754;0.842523;-6.99225;0.000117251;0.000382711;-0.00110337;0.00022732;-0.00121343;0.000720377;0.106266;9.41031;0.000894411;0.000960503;0.187336;5.338;141.601;6.60075;0.00244081;0.000115666;-0.00105365;0.00182083;-0.00110385;0.00457703;0.00992323;0;0.021586;0.0665133;3.68462
225000;226;25.7552;-0.000759036;-2.94703e-05;-2.00912;25.6748;0.318346;0.0316718;0.0142345;-0.543574;-0.0220549;-0.208151;-0.274717;0.345373;-7.33774;-0.000681114;0.000107892;0.00176754;0.00177229;-0.000685858;0.00122907;0.385345;2.59508;0.00146469;0.00163876;2.58404;0.38699;48.5193;93.5193;0.00433396;-0.00068465;-0.00245123;0.00266076;0.00176455;0.00206945;0.0174135;0;0.0188423;0.00872218;-0.225154;-0.82249;0.852796;-7.00298;2.71281e-05;0.000363459;-0.001051;0.000138212;-0.00116208;0.000650146;0.0258118;38.742;0.00082466;0.000866861;0.118935;8.40792;142.706;7.70552;0.00277027;2.54211e-05;-0.00115458;0.00188313;-0.0010516;0.00417461;0.00988692;0;0.0249095;0.0696704;3.69135
226000;227;25.7564;0.000400112;1.55347e-05;-2.00991;25.6759;0.318175;0.0308779;0.0153372;-0.543744;-0.0230668;-0.210025;-0.272615;0.344908;-7.33564;-0.000698931;0.000283276;0.00209767;0.00212608;-0.000727336;0.00142671;0.333193;3.00126;0.00171213;0.00190228;2.9231;0.342102;47.0442;92.0442;0.00482138;-0.000702836;-0.0022484;0.00280788;0.00209519;0.00155781;0.018145;0;0.0197705;0.00757001;-0.227007;-0.825053;0.855746;-7.00555;-3.77896e-05;0.000415765;-0.00111269;0.000104255;-0.00125474;0.000679496;-0.0339624;-29.4444;0.000873319;0.000905994;0.0830893;12.0352;144.175;9.17528;0.00272514;-3.97999e-05;-0.00121444;0.00204772;-0.00111334;0.00343821;0.0122121;0;0.0219394;0.0727966;3.69799
227000;228;25.7551;-0.00088752;-3.44588e-05;-2.00984;25.6747;0.308765;0.0309508;0.0141661;-0.553154;-0.0228666;-0.211995;-0.27144;0.345173;-7.33446;-0.000666127;0.000163334;0.00207956;0.00208925;-0.000675809;0.00138253;0.32032;3.12188;0.00166448;0.00184337;3.09148;0.32347;49.3799;94.3799;0.00456686;-0.000669799;-0.00239435;0.00271401;0.00207672;0.00214604;0.0175613;0;0.0174003;0.0074713;-0.229151;-0.830266;0.861341;-7.01076;2.52675e-05;0.000418203;-0.00111311;0.000162386;-0.00125022;0.000706305;0.0227;44.0529;0.000892549;0.00094174;0.129886;7.69907;143.978;8.9784;0.00269251;2.32453e-05;-0.00121586;0.00205413;-0.00111376;0.00300274;0.0135634;0;0.0267778;0.0763392;3.70597
228000;229;25.758;0.00202521;7.86307e-05;-2.01;25.6775;0.313887;0.0307915;0.0170134;-0.548033;-0.0226814;-0.211967;-0.272093;0.345657;-7.33512;-0.000624189;0.000297359;0.00224002;0.00227057;-0.000654735;0.00146265;0.278653;3.58869;0.00177273;0.0019502;3.46792;0.288357;47.7163;92.7163;0.00436985;-0.000628419;-0.00233568;0.00292287;0.00223734;0.00296087;0.0172047;0;0.0180762;0.00746832;-0.229829;-0.833048;0.864202;-7.01354;-6.41763e-05;0.000398721;-0.00117979;6.3675e-05;-0.00130764;0.000685656;-0.0543966;-18.3835;0.00089374;0.000914208;0.0486947;20.5361;142.518;7.51808;0.0026166;-6.62119e-05;-0.00125735;0.00205664;-0.0011805;0.00426168;0.0148475;0;0.0210206;0.0783609;3.70928
229000;230;25.7567;0.0007397;2.87196e-05;-2.01017;25.6764;0.302198;0.0306217;0.0158508;-0.559721;-0.0230873;-0.21326;-0.272974;0.347171;-7.336;-0.000592252;0.000408928;0.00211295;0.00217341;-0.000652716;0.00141307;0.280296;3.56765;0.00170859;0.00188409;3.3298;0.300318;44.7006;89.7006;0.0044792;-0.000596769;-0.00222173;0.00303248;0.00211057;0.0015488;0.018192;0;0.0167788;0.00754087;-0.231139;-0.838956;0.870247;-7.01945;-2.10057e-05;0.000312173;-0.000998211;7.02057e-05;-0.00108942;0.000579814;-0.0210434;-47.5209;0.000750779;0.000773086;0.0644431;15.5176;142.675;7.67498;0.00241685;-2.28613e-05;-0.0013256;0.00195155;-0.000999042;0.00360778;0.0161977;0;0.0215082;0.0822969;3.71685
230000;231;25.757;0.00102029;3.96137e-05;-2.01089;25.6766;0.301074;0.0298994;0.016089;-0.560846;-0.0224829;-0.214985;-0.270278;0.346084;-7.3333;-0.000582237;0.000329153;0.00259434;0.00262809;-0.000615985;0.00162204;0.224426;4.45581;0.00198943;0.00216271;4.26647;0.234386;49.6372;94.6372;0.00469151;-0.000586566;-0.00230997;0.00295991;0.00259173;0.00194652;0.0179399;0;0.0192227;0.00776697;-0.232924;-0.839735;0.871475;-7.02023;-0.000125782;0.00032114;-0.00108329;-2.80497e-05;-0.00118102;0.000576486;-0.116111;-8.61243;0.000778166;0.000768648;-0.0237504;-42.1046;142.06;7.05955;0.00219249;-0.000127735;-0.00135835;0.00200224;-0.00108416;0.00444182;0.0169014;0;0.0212782;0.0844985;3.72093
231000;232;25.7562;0.000223132;8.66331e-06;-2.01013;25.676;0.293513;0.0306576;0.0154362;-0.568406;-0.0223387;-0.215682;-0.273552;0.349068;-7.33658;-0.000574728;0.000429271;0.00232164;0.00238392;-0.000637011;0.00151047;0.247553;4.03955;0.00183877;0.00201396;3.74236;0.267211;45.7479;90.7479;0.00490073;-0.000579525;-0.00227535;0.00312607;0.00231915;0.00196671;0.0181357;0;0.0176593;0.00831906;-0.23302;-0.850473;0.881857;-7.03097;-0.000163265;0.00028038;-0.000844211;-6.26766e-05;-0.000944799;0.000441061;-0.193394;-5.1708;0.000610048;0.000588082;-0.0663386;-15.0742;146.16;11.1596;0.0014839;-0.000165046;-0.00134608;0.00190795;-0.000845078;0.0048582;0.0171602;0;0.0208429;0.0895009;3.72862
232000;233;25.7545;-0.00150089;-5.82733e-05;-2.01078;25.6742;0.289835;0.0300123;0.0136981;-0.572085;-0.0229424;-0.218128;-0.272119;0.349507;-7.33514;-0.000539647;0.00053794;0.00288314;0.00296569;-0.000622201;0.00179395;0.187174;5.34264;0.00221387;0.00239193;4.76645;0.2098;47.644;92.644;0.00536295;-0.00054509;-0.00227556;0.00334183;0.0028807;0.00116407;0.0177264;0;0.0166009;0.0072691;-0.235059;-0.852585;0.884425;-7.02924;-0.000178185;0.000360214;-0.000993431;-4.1831e-05;-0.00112978;0.000543977;-0.179363;-5.57528;0.00073964;0.000725302;-0.0370256;-27.0083;145.962;10.9621;0.00269836;-0.000180133;-0.0012847;0.00200647;-0.000994192;0.00242007;0.0178404;0;0.0206636;0.0936906;3.73564
233000;234;25.7532;-0.00273631;-0.00010624;-2.00994;25.6731;0.282432;0.0308504;0.0126069;-0.579487;-0.0228435;-0.218314;-0.270101;0.348048;-7.33313;-0.000698156;0.000460481;0.00274119;0.00280177;-0.000758741;0.00178026;0.254691;3.92632;0.00216553;0.00237368;3.69266;0.270808;47.6989;92.6989;0.00484711;-0.000703229;-0.00230581;0.00321728;0.00273864;0.00236522;0.0175583;0;0.0175604;0.00750372;-0.235502;-0.853836;0.88575;-7.03433;-9.29327e-05;0.000210817;-0.000717514;-2.84351e-05;-0.000782012;0.000376788;-0.12952;-7.72079;0.000512126;0.000502384;-0.0363615;-27.5016;144.958;9.95817;0.00185158;-9.45634e-05;-0.00139548;0.00181811;-0.000718466;0.00299946;0.0168871;0;0.0217797;0.0963383;3.74334
234000;235;25.7546;-0.00136028;-5.28141e-05;-2.00995;25.6745;0.283716;0.0308391;0.0139722;-0.578204;-0.0227274;-0.21919;-0.272185;0.350208;-7.33521;-0.000610494;0.000496158;0.00264707;0.00272097;-0.000684387;0.00170268;0.23063;4.33595;0.00207998;0.00227023;3.97577;0.251524;46.4586;91.4586;0.00516575;-0.000615901;-0.00234173;0.00332482;0.00264446;0.0012153;0.0170491;0;0.0161375;0.00773339;-0.236399;-0.859697;0.891641;-7.03636;-0.000182646;0.000224315;-0.000791123;-0.000108892;-0.000864877;0.000377992;-0.230869;-4.33146;0.000543933;0.00050399;-0.125905;-7.9425;145.269;10.2692;0.00282885;-0.000184488;-0.00148263;0.00193229;-0.000792198;0.00112351;0.0185251;0;0.0213972;0.101163;3.75062
235000;236;25.7548;-0.00121148;-4.7037e-05;-2.01112;25.6746;0.280522;0.0296677;0.0140648;-0.581397;-0.0228242;-0.220535;-0.273425;0.352019;-7.33645;-0.00054322;0.000521421;0.00300045;0.00307557;-0.00061835;0.00184696;0.181047;5.52344;0.00228457;0.00246262;4.97384;0.201052;48.7245;93.7245;0.00477263;-0.000548559;-0.00227516;0.00330811;0.002998;0.00229928;0.0175908;0;0.0161186;0.00751905;-0.238243;-0.863724;0.896011;-7.04038;-0.000129363;0.000224567;-0.00085959;-6.58294e-05;-0.000923123;0.000428647;-0.150494;-6.64478;0.000594688;0.000571529;-0.0713116;-14.023;142.159;7.1586;0.00311186;-0.000130976;-0.00135986;0.00181016;-0.00086049;0.000547649;0.0169395;0;0.0220157;0.104909;3.75789
236000;237;25.7536;-0.00240829;-9.35041e-05;-2.00948;25.6736;0.273105;0.0313111;0.0130729;-0.588815;-0.0225316;-0.221401;-0.274399;0.3533;-7.33742;-0.00051333;0.000503634;0.00296271;0.00303421;-0.000584829;0.00180952;0.173263;5.77156;0.00224331;0.00241269;5.1882;0.192745;48.7433;93.7433;0.00471959;-0.000518678;-0.00231066;0.00330817;0.00296018;0.00281457;0.0176732;0;0.0164403;0.0081055;-0.237733;-0.871028;0.902925;-7.04769;-0.000132549;0.000127062;-0.000785822;-0.000108705;-0.000809665;0.00035048;-0.168675;-5.92855;0.000507438;0.000467307;-0.13426;-7.44825;137.704;2.70436;0.00258954;-0.000134055;-0.00148471;0.00173988;-0.000786917;0.00178575;0.0194545;0;0.0231747;0.109512;3.76504
237000;238;25.7525;-0.00348081;-0.000135146;-2.01022;25.6725;0.268159;0.0305658;0.0119909;-0.59376;-0.0224513;-0.22219;-0.275982;0.355019;-7.33901;-0.000437008;0.00054743;0.00306432;0.00314792;-0.000520603;0.00183426;0.142612;7.01204;0.00229194;0.00244568;6.04667;0.16538;48.4301;93.4301;0.00476492;-0.0004429;-0.00239074;0.00347534;0.00306162;0.00245483;0.0179328;0;0.0145981;0.00826165;-0.238095;-0.877608;0.90937;-7.05427;-0.00014559;9.9416e-05;-0.000753064;-0.000129734;-0.00076892;0.000319593;-0.19333;-5.17249;0.000475307;0.000426124;-0.168722;-5.92689;136.338;1.33784;0.00302316;-0.000147065;-0.00152055;0.00172036;-0.000754216;0.000626942;0.0192005;0;0.0240076;0.113801;3.7726
238000;239;25.7513;-0.00469202;-0.000182172;-2.00975;25.6714;0.26016;0.0310407;0.0108954;-0.601759;-0.0229488;-0.222595;-0.273033;0.353019;-7.33606;-0.000548965;0.000571312;0.00274073;0.00283713;-0.000645359;0.00174124;0.200298;4.99255;0.00213924;0.00232166;4.3962;0.227469;45.6745;90.6745;0.00529302;-0.000554972;-0.00237897;0.00351191;0.00273807;0.00233657;0.0171331;0;0.0161561;0.00761361;-0.238411;-0.878362;0.910174;-7.05502;-6.14468e-05;7.59771e-05;-0.000739498;-5.30376e-05;-0.000747907;0.000347435;-0.0830925;-12.0348;0.000481899;0.000463246;-0.0709147;-14.1014;134.32;179.32;0.00280543;-6.28515e-05;-0.0015248;0.00167784;-0.000740659;0.00117143;0.0196898;0;0.0227021;0.118611;3.77485
239000;240;25.7515;-0.00442989;-0.000171995;-2.00971;25.6717;0.258881;0.0310817;0.0111745;-0.603039;-0.0234843;-0.223311;-0.276782;0.356409;-7.33981;-0.000391717;0.000546912;0.00289047;0.00297921;-0.00048045;0.00172983;0.13552;7.37898;0.00216414;0.00230644;6.20086;0.161268;47.1216;92.1216;0.00476606;-0.000397861;-0.00246305;0.00354702;0.0028876;0.00341959;0.0173128;0;0.0158971;0.00703393;-0.238385;-0.887608;0.919089;-7.06427;-5.07071e-05;5.3131e-05;-0.000682987;-4.62735e-05;-0.00068742;0.000320573;-0.0742431;-13.4693;0.000443661;0.000427431;-0.0673147;-14.8556;132.479;177.479;0.00262876;-5.17708e-05;-0.00135235;0.0014595;-0.0006839;0.00163024;0.0206536;0;0.0298349;0.124642;3.78535
240000;241;25.7497;-0.00631312;-0.000245113;-2.00993;25.6699;0.250921;0.0308598;0.00934704;-0.610999;-0.0235835;-0.223435;-0.275391;0.355415;-7.33842;-0.000467077;0.000670138;0.00286829;0.00299789;-0.000596684;0.00179729;0.162842;6.14093;0.00222433;0.00239638;5.02426;0.199034;44.5128;89.5128;0.00546957;-0.000474162;-0.00249308;0.00382283;0.00286541;0.00240896;0.0185754;0;0.0154791;0.00683368;-0.238622;-0.890549;0.92199;-7.07104;2.31179e-05;-9.2579e-05;-0.000400203;4.24792e-05;-0.000419564;0.000231022;0.0577656;17.3113;0.000294891;0.000308029;0.101246;9.87692;118.809;163.809;0.00152006;2.24877e-05;-0.0013112;0.00112656;-0.000401058;0.00230592;0.0178399;0;0.0264131;0.129571;3.7859
241000;242;25.751;-0.00494557;-0.000192017;-2.00965;25.6713;0.2484;0.0311401;0.0107653;-0.613519;-0.0232635;-0.224814;-0.274087;0.355255;-7.33711;-0.000505498;0.000641933;0.00289861;0.00301564;-0.000622528;0.00181909;0.174393;5.73418;0.00224687;0.00242545;4.84419;0.206433;45.2733;90.2733;0.00526005;-0.000512274;-0.0024626;0.00373592;0.0028958;0.00349311;0.0171823;0;0.0149428;0.00723217;-0.238889;-0.896328;0.927644;-7.07682;1.27258e-05;-7.77774e-05;-0.000511298;2.40261e-05;-0.000522598;0.000273312;0.0248892;40.1781;0.000356677;0.000364416;0.0459743;21.7513;121.15;166.15;0.00205935;1.20313e-05;-0.00133599;0.0011811;-0.000512188;0.00137381;0.0204139;0;0.0269413;0.136592;3.79434
242000;243;25.7504;-0.00553459;-0.000214886;-2.00885;25.6708;0.244849;0.0319359;0.0102708;-0.61707;-0.0232017;-0.225461;-0.27628;0.357354;-7.33931;-0.000553655;0.000597669;0.00279008;0.00289369;-0.000657273;0.00177548;0.198437;5.03938;0.00218148;0.00236731;4.40257;0.22714;45.1479;90.1479;0.00532731;-0.000560276;-0.00250185;0.00368685;0.00278713;0.00279344;0.0178867;0;0.0165464;0.00737467;-0.239625;-0.900936;0.932288;-7.08143;3.8376e-05;-0.000134456;-0.0004568;7.25293e-05;-0.000490953;0.000281741;0.0840106;11.9033;0.000353964;0.000375655;0.147732;6.76903;115.505;160.505;0.00184739;3.78924e-05;-0.001261;0.000992645;-0.000457586;0.00242087;0.019292;0;0.0277534;0.141696;3.79994
243000;244;25.7507;-0.00522769;-0.00020297;-2.00895;25.6711;0.242355;0.031835;0.0105945;-0.619564;-0.0229889;-0.226712;-0.273067;0.355657;-7.33609;-0.00053173;0.000513774;0.00265225;0.0027331;-0.00061258;0.00167284;0.200483;4.98797;0.00205689;0.00223045;4.46162;0.224134;45.6755;90.6755;0.00530488;-0.000537951;-0.00254598;0.00356381;0.00264915;0.00337893;0.0186352;0;0.0147456;0.00769117;-0.240945;-0.901499;0.933174;-7.08199;4.21689e-05;-0.000113669;-0.000509796;6.46607e-05;-0.000532288;0.000298474;0.0827172;12.0894;0.000378259;0.000397966;0.121477;8.23202;118.448;163.448;0.00175404;4.1551e-05;-0.00134416;0.0011175;-0.000510694;0.00217571;0.0197948;0;0.023518;0.149162;3.80622
244000;245;25.7496;-0.00637822;-0.000247641;-2.00837;25.6701;0.234156;0.0324191;0.00956218;-0.627764;-0.0235233;-0.226555;-0.275892;0.357767;-7.33892;-0.000430349;0.000548573;0.00317617;0.00325776;-0.000511944;0.00188485;0.135493;7.38045;0.00236106;0.00251314;6.36351;0.157146;48.559;93.559;0.00506545;-0.000436811;-0.00254997;0.00363598;0.00317308;0.00442763;0.0174273;0;0.0160265;0.00701356;-0.240236;-0.910201;0.941397;-7.08686;0.000274071;-0.000124703;-0.00065006;0.000290603;-0.000666592;0.000478597;0.421609;2.37187;0.00056667;0.00063813;0.435953;2.29382;123.363;168.363;0.00268384;0.000273384;-0.0014273;0.0011791;-0.000651071;0.00203008;0.0216276;0;0.0267892;0.156839;3.81412
245000;246;25.7502;-0.00578936;-0.000224777;-2.00899;25.6706;0.232172;0.0317979;0.0101223;-0.629747;-0.0231937;-0.227365;-0.275888;0.358255;-7.33891;-0.000605677;0.000504903;0.00267921;0.00275507;-0.000681532;0.0017183;0.226065;4.4235;0.00210106;0.00229107;4.04247;0.247374;45.5465;90.5465;0.00544226;-0.000612307;-0.00267581;0.00367519;0.00267577;0.00345288;0.0188646;0;0.0143837;0.00745534;-0.241037;-0.913835;0.945119;-7.09433;0.000202185;-0.000272928;-0.000555157;0.000290292;-0.000643263;0.000466778;0.364195;2.74578;0.000551681;0.00062237;0.45128;2.21592;112.864;157.864;0.00200131;0.000201813;-0.00144988;0.00090492;-0.000556171;0.00177148;0.0196172;0;0.0241502;0.161664;3.82164
246000;247;25.7486;-0.00732871;-0.000284544;-2.00853;25.6692;0.225629;0.032263;0.0086729;-0.63629;-0.0232979;-0.228856;-0.276867;0.359963;-7.33989;-0.000575658;0.000425334;0.00276104;0.0028144;-0.000629023;0.00172171;0.208493;4.79632;0.00211732;0.00229562;4.47425;0.223501;47.3755;92.3755;0.00465605;-0.000582059;-0.00276188;0.00360194;0.00275733;0.005744;0.0179477;0;0.0155828;0.00753218;-0.241097;-0.920949;0.952015;-7.10144;0.000180255;-0.000263316;-0.000552422;0.00026507;-0.000637237;0.000451153;0.326299;3.06467;0.000535514;0.000601538;0.415967;2.40404;111.598;156.598;0.00161589;0.000180056;-0.00120924;0.000683297;-0.000553119;0.0029652;0.0213814;0;0.0226676;0.169988;3.82973
247000;248;25.7484;-0.00755234;-0.000293227;-2.00837;25.669;0.220739;0.0324138;0.00850289;-0.64118;-0.0231021;-0.228699;-0.280787;0.362875;-7.34381;-0.000488411;0.000697487;0.00307118;0.00320297;-0.000620201;0.00191159;0.15903;6.2881;0.00236926;0.00254878;5.1644;0.193633;45.2725;90.2725;0.00483897;-0.000495831;-0.00253042;0.00391393;0.00306823;0.00542116;0.0175766;0;0.0153267;0.00759592;-0.241459;-0.927684;0.958623;-7.10818;0.00023584;-0.00029972;-0.000528105;0.000339393;-0.000631659;0.000485526;0.446578;2.23925;0.000569039;0.000647368;0.537305;1.86114;111.635;156.635;0.00197803;0.000235665;-0.00126126;0.000662551;-0.000528856;0.00269179;0.0207008;0;0.0192781;0.178261;3.83598
248000;249;25.7503;-0.00569612;-0.000221157;-2.00841;25.6709;0.219547;0.0323761;0.0103721;-0.642373;-0.023654;-0.229578;-0.281269;0.363838;-7.34429;-0.000458888;0.000488968;0.00254361;0.00262123;-0.000536511;0.00157887;0.180408;5.54299;0.00195107;0.00210516;4.8857;0.204679;44.8616;89.8616;0.00471653;-0.000465832;-0.00278963;0.00375774;0.00253985;0.0059193;0.017804;0;0.0153697;0.00748014;-0.242427;-0.931713;0.962765;-7.11221;0.000261829;-0.000374063;-0.000564872;0.000405956;-0.000709;0.000557478;0.463519;2.15741;0.000651598;0.000743304;0.572576;1.74649;109.482;154.482;0.00195603;0.000261724;-0.00133901;0.000591684;-0.000565699;0.00290176;0.0222734;0;0.0186693;0.18713;3.84332
249000;250;25.7483;-0.00771382;-0.000299496;-2.0079;25.6689;0.214903;0.0328914;0.0084278;-0.647016;-0.0233416;-0.231815;-0.276235;0.361371;-7.33926;-0.000488611;0.000702863;0.00276665;0.00291192;-0.000633887;0.00177291;0.176608;5.66227;0.00218347;0.00236387;4.59376;0.217687;42.5946;87.5946;0.00503341;-0.00049683;-0.00271917;0.00411378;0.00276321;0.00561264;0.0176104;0;0.0168134;0.00790519;-0.243958;-0.930667;0.962143;-7.11116;0.000226476;-0.00030385;-0.000607239;0.000325463;-0.000706226;0.000515844;0.37296;2.68125;0.000609018;0.000687792;0.460848;2.16991;110.849;155.849;0.0016563;0.000226357;-0.00118108;0.000574115;-0.000607891;0.00274316;0.0226492;0;0.0187744;0.193701;3.84758
250000;251;25.7473;-0.00865146;-0.000335901;-2.00691;25.6681;0.209435;0.0338745;0.00760934;-0.652485;-0.0221433;-0.234636;-0.271767;0.359724;-7.33479;-0.00057566;0.000300396;0.00244;0.00246964;-0.000605292;0.00153746;0.235926;4.23862;0.00188094;0.00204995;4.08007;0.245094;47.257;92.257;0.0050513;-0.000582158;-0.00302553;0.00361631;0.00243548;0.00634632;0.0174919;0;0.0153371;0.00947397;-0.246274;-0.930241;0.962335;-7.11073;4.03537e-05;-0.000343823;-0.000716936;0.000173164;-0.000849746;0.000511455;0.0562863;17.7663;0.000632174;0.00068194;0.203783;4.90718;105.211;150.211;0.00182783;4.01405e-05;-0.00142479;0.000737964;-0.000717893;0.00235354;0.0261546;0;0.0178337;0.204388;3.85669
251000;252;25.746;-0.00998566;-0.000387703;-2.00748;25.6668;0.200931;0.0333118;0.006295;-0.660988;-0.023404;-0.235222;-0.273875;0.36178;-7.3369;-0.000585935;0.000476936;0.0026791;0.00274734;-0.000654177;0.00170076;0.218706;4.57235;0.00208413;0.00226768;4.1997;0.238112;45.6686;90.6686;0.00526505;-0.000592996;-0.00284391;0.00378696;0.00267518;0.0055735;0.016919;0;0.0233625;0.00793426;-0.246504;-0.936115;0.968059;-7.11661;0.000225478;-0.000334085;-0.000843427;0.000321305;-0.000939254;0.00063028;0.267336;3.74061;0.000756372;0.000840373;0.342086;2.92324;110.677;155.677;0.00193487;0.00022529;-0.00136544;0.000698374;-0.000844304;0.00199685;0.024576;0;0.0277673;0.212218;3.85843
252000;253;25.7475;-0.00850645;-0.000330271;-2.00726;25.6683;0.199348;0.0335317;0.00780831;-0.662571;-0.0226113;-0.236381;-0.277942;0.365567;-7.34097;-0.00059795;0.000474506;0.00216959;0.00224869;-0.000677045;0.00146287;0.275604;3.62839;0.00176855;0.00195049;3.32133;0.301084;42.0763;87.0763;0.00555157;-0.000605368;-0.00294013;0.0038797;0.00216539;0.00544948;0.0180112;0;0.0174509;0.00891208;-0.24795;-0.943851;0.975917;-7.12434;4.88632e-05;-0.000395218;-0.00103869;0.000177314;-0.00116714;0.000672228;0.047043;21.2571;0.000843435;0.000896304;0.151922;6.58234;102.449;147.449;0.00179241;4.88194e-05;-0.00128305;0.000493581;-0.00103944;0.00321136;0.0253749;0;0.0179802;0.224072;3.86724
253000;254;25.7481;-0.00783304;-0.000304125;-2.00724;25.669;0.196251;0.0335533;0.00850935;-0.665668;-0.0225579;-0.235158;-0.281535;0.367519;-7.34456;-0.000638839;0.000409974;0.00237818;0.00243289;-0.000693557;0.00156323;0.268626;3.72265;0.00189588;0.0020843;3.50785;0.285075;44.5756;89.5756;0.00532531;-0.000646089;-0.0030191;0.00382872;0.00237371;0.00647086;0.0168082;0;0.0153345;0.00934431;-0.24706;-0.950422;0.982053;-7.13092;9.14661e-05;-0.000470596;-0.00101802;0.000264184;-0.00119074;0.000727462;0.0898468;11.1301;0.000894981;0.00096995;0.221866;4.50723;101.206;146.206;0.00255779;9.14856e-05;-0.0013673;0.000427108;-0.00101885;0.00412542;0.0253311;0;0.0204431;0.233227;3.87277
254000;255;25.7489;-0.00706001;-0.000274112;-2.00788;25.6698;0.192867;0.0329123;0.00926029;-0.669053;-0.0221197;-0.236991;-0.283539;0.3702;-7.34656;-0.000490728;0.000362477;0.00179919;0.0018552;-0.000546735;0.00120097;0.272749;3.66637;0.00145373;0.00160129;3.39323;0.294704;41.605;86.605;0.00563979;-0.000497998;-0.00311249;0.00382949;0.00179442;0.00653948;0.0184504;0;0.0157823;0.00942826;-0.249347;-0.956297;0.988315;-7.13679;0.000114887;-0.000564448;-0.00107131;0.000340548;-0.00129697;0.000818759;0.10724;9.32488;0.000997727;0.00109168;0.262572;3.80847;99.7929;144.793;0.00250228;0.000114974;-0.00150794;0.000380166;-0.00107229;0.00338761;0.0251324;0;0.0257154;0.244489;3.88039
255000;256;25.7474;-0.00860399;-0.000334058;-2.00651;25.6684;0.184438;0.0342762;0.00788015;-0.677481;-0.0226804;-0.238056;-0.282835;0.370379;-7.34586;-0.000461802;0.000282692;0.00182049;0.00185498;-0.000496296;0.00117564;0.253669;3.94215;0.00143107;0.00156752;3.73766;0.267547;43.58;88.58;0.00552298;-0.000468923;-0.00322617;0.00378356;0.00181534;0.00694839;0.017395;0;0.0175584;0.00913038;-0.25051;-0.959346;0.991556;-7.13984;1.0684e-05;-0.000516221;-0.00120613;0.000200177;-0.00139562;0.000797898;0.00885809;112.891;0.00100381;0.00106386;0.143432;6.97194;99.2004;144.2;0.00263676;1.07083e-05;-0.00149789;0.000466647;-0.00120712;0.00334136;0.0253354;0;0.0229889;0.254819;3.88788
256000;257;25.7497;-0.00626758;-0.000243345;-2.00783;25.6706;0.188331;0.0329551;0.0100922;-0.673588;-0.022506;-0.240429;-0.283239;0.372205;-7.34626;-0.000585738;0.00043444;0.00163737;0.00171926;-0.00066762;0.00119344;0.35773;2.7954;0.00142195;0.00159125;2.5752;0.388319;38.5871;83.5871;0.00567491;-0.000593583;-0.00312269;0.00398367;0.0016326;0.00610874;0.0166344;0;0.0174403;0.0090223;-0.253269;-0.961987;0.99481;-7.14248;0.000170041;-0.000664375;-0.00112262;0.000450608;-0.00140318;0.000926895;0.151469;6.60203;0.00111639;0.00123586;0.321133;3.11398;99.2973;144.297;0.00245152;0.000170208;-0.00165558;0.000328115;-0.00112377;0.00436727;0.0262211;0;0.0258191;0.269227;3.89437
257000;258;25.7496;-0.00632668;-0.000245639;-2.00872;25.6705;0.18246;0.0320729;0.0100063;-0.67946;-0.023113;-0.241819;-0.28107;0.371498;-7.3441;-0.000532652;0.000253719;0.00148632;0.00151771;-0.000564048;0.00104088;0.35837;2.79041;0.00124323;0.00138784;2.69075;0.371643;41.7656;86.7656;0.00650726;-0.000540056;-0.00335509;0.00385525;0.00148073;0.00525449;0.018107;0;0.0162259;0.00817778;-0.255046;-0.962813;0.996055;-7.14331;7.36015e-05;-0.000653703;-0.00119119;0.00035074;-0.00146833;0.000909534;0.0617882;16.1843;0.00111435;0.00121271;0.23887;4.18638;94.7555;139.755;0.00200792;7.38027e-05;-0.0014641;0.000157717;-0.00119205;0.00576712;0.0251032;0;0.0239971;0.280858;3.90185
258000;259;25.7503;-0.00571133;-0.000221748;-2.00898;25.6712;0.178493;0.0318106;0.0106309;-0.683426;-0.0230285;-0.243666;-0.282469;0.373754;-7.34549;-0.000551624;0.000183162;0.00110665;0.00112664;-0.000571614;0.000849128;0.498462;2.00617;0.00099779;0.00113217;1.97098;0.507361;41.0301;86.0301;0.00620467;-0.000558739;-0.00341534;0.0037757;0.00110084;0.00602403;0.0179692;0;0.0141417;0.00868476;-0.257056;-0.968293;1.00187;-7.14879;8.87702e-05;-0.000708773;-0.00122763;0.000397828;-0.00153669;0.000967257;0.0723102;13.8293;0.00117964;0.00128968;0.258887;3.8627;91.1301;136.13;0.00210396;8.90203e-05;-0.00137158;-4.50968e-05;-0.00122832;0.00557916;0.0271157;0;0.026994;0.293396;3.90888
259000;260;25.7501;-0.00589661;-0.000228942;-2.00778;25.6711;0.174158;0.0330123;0.0105688;-0.687762;-0.0223638;-0.24495;-0.280421;0.37301;-7.34345;-0.000731243;0.000109353;0.000936608;0.000943748;-0.000738382;0.000841065;0.780735;1.28084;0.000973588;0.00112142;1.27813;0.782394;42.1198;87.1198;0.0064449;-0.000738352;-0.00355816;0.00377075;0.00093029;0.00548043;0.0179322;0;0.0167822;0.00917592;-0.258933;-0.968367;1.00243;-7.14886;4.52519e-05;-0.000729548;-0.00114272;0.000392042;-0.00148951;0.000940776;0.0396001;25.2524;0.00114626;0.00125437;0.263202;3.79937;90.0358;135.036;0.00198479;4.55165e-05;-0.00140419;-5.41066e-05;-0.00114344;0.00570706;0.0269555;0;0.0236038;0.307769;3.91635
260000;261;25.7495;-0.00646162;-0.000250879;-2.00864;25.6705;0.169889;0.0321506;0.00996328;-0.69203;-0.022461;-0.246411;-0.280912;0.374345;-7.34394;-0.000612202;0.000176701;0.000955383;0.000975054;-0.000631873;0.000803463;0.640792;1.56057;0.000934785;0.00107128;1.54312;0.648039;40.0163;85.0163;0.00646441;-0.000619832;-0.00356176;0.0039093;0.000949061;0.00620305;0.0176607;0;0.0191559;0.00896014;-0.260265;-0.97235;1.00662;-7.15284;1.35104e-06;-0.00076643;-0.00103073;0.000409277;-0.00143866;0.000923966;;;0.00112072;0.00123196;0.284485;3.51512;82.7131;127.713;0.00194882;1.5962e-06;-0.00122081;-0.000311584;-0.00103118;0.00565658;0.0284374;0;0.0246728;0.321803;3.92242
261000;262;25.7511;-0.00489443;-0.000190031;-2.00858;25.672;0.171471;0.0322083;0.0115293;-0.690449;-0.0221828;-0.247401;-0.282456;0.376139;-7.34548;-0.000623862;6.72831e-06;0.00109793;0.00109796;-0.000623888;0.000860924;0.568214;1.7599;0.00100659;0.0011479;1.75987;0.568225;46.6379;91.6379;0.0061415;-0.000630915;-0.00374774;0.00375474;0.00109092;0.00681894;0.0176981;0;0.0192243;0.00918408;-0.261909;-0.975978;1.01055;-7.15647;-8.94184e-05;-0.000794388;-0.000779249;0.000431703;-0.00130037;0.000866037;-0.114749;-8.71464;0.00104109;0.00115472;0.331984;3.01219;73.5342;118.534;0.00162312;-8.92309e-05;-0.00108269;-0.000505889;-0.00077952;0.00613528;0.0300535;0;0.0256739;0.33626;3.92542
262000;263;25.7513;-0.00464981;-0.000180533;-2.00884;25.6723;0.166028;0.0319485;0.0117901;-0.695892;-0.0222855;-0.249552;-0.282141;0.377328;-7.34517;-0.000602155;1.39056e-05;0.000969393;0.000969516;-0.000602278;0.000785897;0.621167;1.60987;0.000915695;0.00104786;1.60975;0.621215;45.9362;90.9362;0.00651547;-0.000609363;-0.00377388;0.00379574;0.000962279;0.00576182;0.0164939;0;0.0219005;0.00893238;-0.264479;-0.978215;1.01338;-7.15871;-9.94522e-05;-0.000817937;-0.000663205;0.000483816;-0.00124647;0.000865145;-0.149957;-6.66859;0.00103082;0.00115353;0.388148;2.57634;50.5179;95.5179;0.00119786;-9.94973e-05;-0.000764523;-0.000871381;-0.000663163;0.00768477;0.0298607;0;0.0285838;0.353672;3.93236
263000;264;25.7504;-0.00554214;-0.000215179;-2.00881;25.6714;0.161023;0.0319795;0.0109293;-0.700896;-0.0215286;-0.250645;-0.284034;0.379423;-7.34706;-0.000493844;-5.3754e-05;0.000839547;0.00084171;-0.000496007;0.000668859;0.588227;1.70002;0.000780881;0.000891812;1.69697;0.589285;48.6335;93.6335;0.00630679;-0.000501185;-0.00394396;0.00383127;0.000831777;0.00663976;0.0174957;0;0.0165637;0.00971223;-0.26534;-0.983238;1.01846;-7.16373;2.5172e-05;-0.000863989;-0.000619085;0.00062513;-0.00121904;0.000922086;0.0406601;24.5941;0.00108298;0.00122945;0.512804;1.95006;50.2047;95.2047;0.00129373;2.51252e-05;-0.000811457;-0.000916554;-0.000619041;0.00779651;0.028686;0;0.0256571;0.372622;3.93895
264000;265;25.7512;-0.00474111;-0.000184078;-2.00862;25.6723;0.162305;0.0321637;0.0117392;-0.699614;-0.0210866;-0.251057;-0.285501;0.380769;-7.34853;-0.000668287;0.000239191;0.000969498;0.00100372;-0.000702505;0.000853111;0.689312;1.45072;0.000990191;0.00113748;1.42877;0.699904;38.0205;83.0205;0.00626764;-0.000676816;-0.00366361;0.0041356;0.000962823;0.00706594;0.0169733;0;0.0191395;0.0098391;-0.266313;-0.98691;1.02226;-7.1674;-2.04659e-05;-0.000774424;-0.000383316;0.0005935;-0.000997282;0.000795391;-0.0533918;-18.7295;0.000928248;0.00106052;0.595117;1.68034;21.4282;66.4282;0.00129473;-2.0803e-05;-0.000420306;-0.00112867;-0.000383105;0.00778426;0.0286132;0;0.0279865;0.386141;3.94645
265000;266;25.751;-0.0049904;-0.000193757;-2.00902;25.672;0.154369;0.0317718;0.0115074;-0.70755;-0.0203365;-0.254987;-0.286093;0.383773;-7.34912;-0.000694553;-2.71715e-05;0.000780285;0.000780786;-0.000695054;0.00073792;0.890128;1.12343;0.000852555;0.000983893;1.12335;0.890198;46.4043;91.4043;0.00689375;-0.000703513;-0.00429235;0.00423173;0.000771081;0.00663587;0.0153879;0;0.0206453;0.0101447;-0.270226;-0.992902;1.02907;-7.1734;-1.36154e-05;-0.00078396;-0.000212033;0.000677388;-0.000903036;0.000790212;-0.0642135;-15.5731;0.000915553;0.00105362;0.750122;1.33312;7.74177;52.7418;0.000805598;-1.45218e-05;-1.00688e-05;-0.001558;-0.000211726;0.00823686;0.0293539;0;0.0295455;0.43489;3.96489
266000;267;25.7517;-0.00429479;-0.000166749;-2.00875;25.6727;0.15841;0.0320358;0.0122012;-0.703509;-0.0203344;-0.254941;-0.285777;0.383506;-7.3488;-0.000772246;-8.05975e-05;0.00125387;0.00125707;-0.000775447;0.00101626;0.615891;1.62366;0.0011844;0.00135501;1.62109;0.616869;48.9616;93.9616;0.00683748;-0.000780871;-0.0043222;0.00415243;0.00124454;0.0079844;0.0155502;0;0.0241534;0.0104958;-0.270237;-0.992706;1.02888;-7.1732;-0.000111644;-0.00081007;-0.000184254;0.000662934;-0.000958832;0.000810883;-0.605927;-1.65036;0.000941508;0.00108118;0.691397;1.44635;6.96333;51.9633;0.000391312;-0.00011251;-7.51886e-05;-0.001545;-0.000183928;0.00870156;0.0283898;0;0.0328901;0.428045;3.96181
267000;268;25.7507;-0.00524256;-0.000203547;-2.00848;25.6718;0.154571;0.0323113;0.0112955;-0.707348;-0.020536;-0.255397;-0.286238;0.384163;-7.34926;-0.00066989;-2.86704e-08;0.000783821;0.000783821;-0.00066989;0.000726856;0.854646;1.17007;0.000840159;0.000969141;1.17007;0.854646;45.4507;90.4507;0.00664936;-0.000678656;-0.00419173;0.00418558;0.000775043;0.00734316;0.0160856;0;0.0280453;0.0104994;-0.270801;-0.993089;1.0294;-7.17358;-7.72689e-05;-0.000803112;-0.00025638;0.000641266;-0.000974914;0.00080809;-0.301385;-3.31802;0.000939707;0.00107745;0.657766;1.5203;8.92756;53.9276;0.000437368;-7.82618e-05;1.55595e-05;-0.00162193;-0.000256057;0.0088783;0.0288926;0;0.0353094;0.428138;3.9634
268000;269;25.7503;-0.0056199;-0.000218198;-2.00918;25.6714;0.150648;0.0316131;0.0108857;-0.711272;-0.0198627;-0.257731;-0.28728;0.386458;-7.35031;-0.000664626;6.67971e-05;0.00111124;0.00111374;-0.000667135;0.00089044;0.598096;1.67197;0.00103891;0.00118725;1.66944;0.599002;44.3791;89.3791;0.00669406;-0.000674389;-0.00429199;0.00441785;0.00110204;0.00810777;0.0165555;0;0.0215185;0.0107948;-0.273299;-0.996815;1.03366;-7.17731;-0.000227951;-0.000735064;-4.45155e-05;0.000604531;-0.000876998;0.000740764;-5.12071;-0.195286;0.000860169;0.000987686;0.689319;1.45071;0.322605;45.3226;-6.55098e-05;-0.000229179;0.000261286;-0.00173123;-4.42794e-05;0.00978502;0.0298068;0;0.0322001;0.460457;3.97626
269000;270;25.7512;-0.00479353;-0.000186113;-2.00993;25.6722;0.15279;0.0308545;0.0116425;-0.709129;-0.0199216;-0.258938;-0.287651;0.387542;-7.35068;-0.00058595;0.000195811;0.00115005;0.00117186;-0.000607763;0.00088981;0.509502;1.9627;0.00104453;0.00118641;1.92815;0.518632;40.4933;85.4933;0.00735878;-0.000597047;-0.00432991;0.00471368;0.0011407;0.0065768;0.0158238;0;0.0275303;0.0104844;-0.274478;-0.998317;1.03542;-7.17881;-0.000143043;-0.000816838;-7.38743e-05;0.000709112;-0.000926029;0.00081757;-1.9363;-0.516449;0.000946814;0.00109009;0.765756;1.3059;1.43806;46.4381;-0.000321958;-0.000144666;0.000344836;-0.00197843;-7.36001e-05;0.00950182;0.02744;0;0.0379714;0.477662;3.98132
270000;271;25.753;-0.003016;-0.000117099;-2.01014;25.6739;0.152221;0.030652;0.0134131;-0.709698;-0.0196799;-0.26061;-0.287408;0.388469;-7.35043;-0.000757755;0.000265913;0.00113334;0.00117002;-0.000794434;0.000982229;0.668601;1.49566;0.00114107;0.00130964;1.47278;0.67899;38.3714;83.3714;0.00754081;-0.000769748;-0.00437985;0.0049029;0.0011238;0.00698319;0.0157807;0;0.0228885;0.0105968;-0.27671;-0.999966;1.0376;-7.18046;-0.000158631;-0.00073959;-1.16845e-05;0.000658073;-0.000828388;0.000743231;-13.5761;-0.0736588;0.000860084;0.000990974;0.794402;1.25881;179.052;44.0523;-9.27189e-05;-0.000160391;0.00053769;-0.00201668;-1.15556e-05;0.00940501;0.0296685;0;0.029465;0.505029;3.9912
271000;272;25.7518;-0.00414104;-0.00016078;-2.01012;25.6728;0.147794;0.0306648;0.0123114;-0.714126;-0.0195155;-0.261933;-0.290082;0.391327;-7.35311;-0.000789939;-7.15838e-05;0.00135949;0.00136187;-0.00079232;0.0010771;0.581056;1.72101;0.00125813;0.00143613;1.71884;0.581788;48.7014;93.7014;0.00759703;-0.0008007;-0.00479116;0.00463786;0.00134803;0.00764984;0.0165559;0;0.0194793;0.0106378;-0.277953;-1.00502;1.0428;-7.18551;-0.000130977;-0.000724063;4.12705e-05;0.000684314;-0.000774021;0.000729168;3.17363;0.315096;0.000842501;0.000972223;0.884103;1.13109;177.495;42.4947;-0.00056925;-0.000133007;0.00069295;-0.00214083;4.12925e-05;0.00869007;0.0297023;0;0.027484;0.525612;3.99644
272000;273;25.7524;-0.00354302;-0.000137561;-2.01034;25.6734;0.150359;0.0304462;0.0128793;-0.71156;-0.0191352;-0.263551;-0.290124;0.392425;-7.35315;-0.000732402;0.00020518;0.00152334;0.00154185;-0.000750913;0.00114638;0.480788;2.07992;0.00134973;0.00152851;2.0533;0.487021;42.1612;87.1612;0.00753896;-0.000746111;-0.00483941;0.0052384;0.00151167;0.00913767;0.01787;0;0.0202909;0.01082;-0.279689;-1.00586;1.04408;-7.18635;-0.000248199;-0.000683118;0.000111526;0.000638064;-0.000774737;0.0007064;2.22549;0.44934;0.000816952;0.000941867;0.823588;1.2142;173.803;38.8026;-0.000230895;-0.000250637;0.000945702;-0.00231135;0.000111312;0.00933995;0.0286965;0;0.0269294;0.54617;4.0022
273000;274;25.7531;-0.00287259;-0.000111531;-2.01015;25.6741;0.149332;0.0306381;0.0135728;-0.712587;-0.0187571;-0.265606;-0.291125;0.394528;-7.35415;-0.000722294;0.00033512;0.00168732;0.00173306;-0.000768033;0.00125054;0.428073;2.33605;0.0014794;0.00166739;2.25648;0.443167;39.9655;84.9655;0.00821751;-0.000737402;-0.00484728;0.00550505;0.00167564;0.00802854;0.0173163;0;0.0184457;0.011192;-0.281826;-1.00801;1.04672;-7.1885;-0.000288374;-0.000601966;0.000112881;0.000546773;-0.000722266;0.000634519;2.55467;0.39144;0.000735011;0.000846026;0.757024;1.32096;172.137;37.1366;-0.00065013;-0.000291129;0.00121987;-0.00242307;0.000112318;0.00968058;0.0303891;0;0.0241988;0.574048;4.00931
274000;275;25.7526;-0.00332969;-0.000129278;-2.00991;25.6737;0.14384;0.0308834;0.0131648;-0.718079;-0.0184199;-0.267604;-0.290915;0.395706;-7.35394;-0.000663056;0.000423523;0.00207415;0.00213818;-0.000727089;0.00143264;0.319676;3.12817;0.00171984;0.00191018;2.94074;0.34005;40.1808;85.1808;0.00794327;-0.000680086;-0.00501736;0.00584953;0.00206168;0.00975053;0.0161072;0;0.0185368;0.0112015;-0.283829;-1.00995;1.04914;-7.19045;-0.000151082;-0.000621143;4.20182e-05;0.000574071;-0.000683134;0.000628602;3.59562;0.278116;0.000726757;0.000838136;0.840349;1.18998;176.379;41.3785;-0.000687203;-0.000154059;0.00127583;-0.00251775;4.13973e-05;0.00928862;0.0301981;0;0.0224848;0.599777;4.01454
275000;276;25.7537;-0.00222477;-8.63787e-05;-2.01091;25.6747;0.146476;0.0298768;0.0141794;-0.715444;-0.018403;-0.269161;-0.291706;0.397339;-7.35473;-0.000708011;0.00034599;0.00224555;0.00228554;-0.000748;0.00151677;0.315296;3.17162;0.00182486;0.00202236;3.05553;0.327276;42.4462;87.4462;0.00824305;-0.000725168;-0.00519026;0.00586592;0.00223217;0.00902579;0.016737;0;0.0187711;0.0110389;-0.285732;-1.01184;1.05147;-7.19234;-0.000160076;-0.000569442;4.59854e-05;0.000521642;-0.000635733;0.000578688;3.48102;0.287272;0.000669292;0.000771583;0.820537;1.21871;175.63;40.6296;-0.000768891;-0.000163411;0.00150613;-0.00264458;4.50134e-05;0.00896088;0.0302296;0;0.0204394;0.61972;4.02043
276000;277;25.7535;-0.00251066;-9.74789e-05;-2.0116;25.6744;0.144913;0.0291844;0.0138473;-0.717006;-0.0184457;-0.271422;-0.292749;0.39964;-7.35577;-0.0006365;0.000750864;0.00268941;0.00285107;-0.000798159;0.00182461;0.236669;4.2253;0.00221522;0.00243282;3.57205;0.279951;38.0623;83.0623;0.00833135;-0.000656798;-0.00493071;0.00641356;0.00267756;0.00859508;0.0166126;0;0.017193;0.0105535;-0.288331;-1.01326;1.05353;-7.19375;-0.000157065;-0.000680251;5.07071e-05;0.000634959;-0.000741317;0.000688138;3.09749;0.322842;0.000795384;0.000917518;0.856529;1.1675;176.351;41.3506;-0.000857893;-0.000160723;0.00142872;-0.00278878;4.99178e-05;0.00950743;0.0294784;0;0.0207577;0.647933;4.02711
277000;278;25.7536;-0.00240211;-9.32644e-05;-2.01147;25.6745;0.140467;0.0293192;0.0139914;-0.721453;-0.0186379;-0.273624;-0.29522;0.402955;-7.35825;-0.000734476;0.000753977;0.00257127;0.00273512;-0.000898323;0.00181672;0.285647;3.50082;0.00218529;0.00242229;3.04469;0.32844;37.2017;82.2017;0.00880361;-0.00075673;-0.00522321;0.00671143;0.00255795;0.00910961;0.016746;0;0.018537;0.0100811;-0.291424;-1.01686;1.05785;-7.19736;-0.000128326;-0.00072593;-0.000102224;0.000610772;-0.000841322;0.000726047;-1.25534;-0.796596;0.000841882;0.000968063;0.725966;1.37747;0.92585;45.9258;-0.00111438;-0.000132462;0.00151406;-0.00296586;-0.000103107;0.00975838;0.0286873;0;0.021303;0.672802;4.03482
278000;279;25.7532;-0.00275648;-0.000107023;-2.01274;25.6741;0.137252;0.0280466;0.0135536;-0.724668;-0.0183146;-0.275825;-0.297916;0.40641;-7.36094;-0.000746011;0.00077507;0.00287775;0.00303657;-0.000904826;0.0019707;0.259234;3.85752;0.00238393;0.0026276;3.35597;0.297977;38.4007;83.4007;0.00906054;-0.000769866;-0.00542025;0.00694797;0.00286341;0.0105259;0.0175322;0;0.0165284;0.0102113;-0.293813;-1.02215;1.06359;-7.20265;-0.000247921;-0.000710452;-0.000295705;0.000439041;-0.000982667;0.000710854;-0.838405;-1.19274;0.000840588;0.000947805;0.446785;2.23821;4.15299;49.153;-0.00105349;-0.000252521;0.00169395;-0.00311497;-0.000296888;0.00985616;0.0276273;0;0.0288615;0.701354;4.04182
279000;280;25.7545;-0.00149133;-5.79023e-05;-2.0126;25.6754;0.13717;0.0281933;0.0148346;-0.72475;-0.0183608;-0.277241;-0.300747;0.409449;-7.36377;-0.000687201;0.000939039;0.00295015;0.00317827;-0.000915322;0.0020468;0.232938;4.29299;0.00248089;0.00272906;3.4723;0.287994;36.5137;81.5137;0.00874451;-0.000713044;-0.00539277;0.00724784;0.00293609;0.0102278;0.0167313;0;0.0214648;0.00959255;-0.296607;-1.02626;1.06831;-7.20676;-0.000241162;-0.000723257;-0.00032777;0.000440087;-0.00100902;0.000724552;-0.735766;-1.35913;0.000857865;0.00096607;0.436153;2.29277;4.78855;49.7885;-0.00165216;-0.000246449;0.00188404;-0.00333077;-0.000329284;0.0121199;0.0274739;0;0.0240855;0.731764;4.04883
280000;281;25.7555;-0.000471839;-1.83196e-05;-2.01361;25.6763;0.137165;0.0271823;0.015778;-0.724755;-0.0181426;-0.280886;-0.298649;0.410387;-7.36167;-0.000682097;0.000911902;0.00272322;0.00295204;-0.000910918;0.00193148;0.250474;3.99243;0.00233175;0.00257531;3.24074;0.308572;35.5177;80.5177;0.00917287;-0.000708568;-0.00552862;0.00733051;0.0027084;0.0114098;0.0170962;0;0.016505;0.00958394;-0.300225;-1.02608;1.06914;-7.20657;-0.000234221;-0.00069549;-0.000237043;0.00045986;-0.000931123;0.000695491;-0.988097;-1.01205;0.000818304;0.000927322;0.493876;2.0248;2.52859;47.5286;-0.00187609;-0.000239689;0.00198784;-0.00337883;-0.000238777;0.0123677;0.0282379;0;0.0296376;0.756212;4.0566
281000;282;25.7566;0.000677294;2.62966e-05;-2.01333;25.6775;0.135201;0.0274589;0.0169628;-0.726718;-0.0181682;-0.28237;-0.302308;0.414069;-7.36533;-0.00083386;0.000868924;0.00238386;0.00260351;-0.00105351;0.00182851;0.349795;2.85882;0.00217368;0.00243801;2.47126;0.404651;34.3065;79.3065;0.00932175;-0.000860592;-0.00564342;0.00736033;0.00236835;0.0112068;0.0179645;0;0.0173517;0.00885272;-0.302947;-1.03047;1.07411;-7.21096;-0.000303175;-0.000829712;-0.000272436;0.000542049;-0.00111766;0.000829855;-1.11283;-0.89861;0.000977254;0.00110647;0.484985;2.06192;2.1488;47.1488;-0.00206514;-0.000310238;0.00218907;-0.00384839;-0.000274489;0.0131502;0.0286139;0;0.0256392;0.790495;4.06439
282000;283;25.7561;0.000142273;5.5239e-06;-2.014;25.6769;0.131555;0.0267839;0.0163921;-0.730364;-0.0186173;-0.286373;-0.298969;0.414414;-7.36199;-0.000770501;0.000832444;0.00277461;0.00296035;-0.000956239;0.0019583;0.277697;3.60105;0.00235786;0.00261106;3.09583;0.323016;36.8246;81.8246;0.00942636;-0.000797833;-0.0057959;0.00743732;0.00275821;0.012282;0.0174367;0;0.0151636;0.00783337;-0.307106;-1.02959;1.07445;-7.21009;-0.000340383;-0.000771431;-0.000290716;0.000456281;-0.00108738;0.000771831;-1.17084;-0.854085;0.000915724;0.00102911;0.419615;2.38314;1.86428;46.8643;-0.00284626;-0.0003479;0.00241004;-0.00395274;-0.000293324;0.014382;0.0308522;0;0.0237034;0.825672;4.07063
283000;284;25.7562;0.00018415;7.14981e-06;-2.0142;25.6769;0.130305;0.0265893;0.0164252;-0.731614;-0.0180664;-0.287344;-0.302446;0.417572;-7.36547;-0.000697271;0.0007872;0.00247489;0.0026595;-0.000881878;0.00177069;0.281738;3.54939;0.00212874;0.00236092;3.01572;0.331596;35.7255;80.7255;0.00921201;-0.000724286;-0.00583659;0.00739;0.00245821;0.0131077;0.0176888;0;0.0170049;0.00778621;-0.308623;-1.03537;1.08041;-7.21586;-0.000266216;-0.000805663;-4.63662e-05;0.000656836;-0.000969419;0.000813127;-5.74161;-0.174167;0.000944682;0.00108417;0.677557;1.47589;177.387;42.3867;-0.00257662;-0.000274692;0.00258408;-0.00419465;-4.93805e-05;0.0143635;0.0302622;0;0.02326;0.853649;4.07611
284000;285;25.7554;-0.000572169;-2.2215e-05;-2.01442;25.6762;0.127632;0.0263701;0.0156628;-0.734287;-0.0178904;-0.290251;-0.302846;0.419859;-7.36587;-0.000696422;0.000560916;0.00183725;0.00195587;-0.000815047;0.00138546;0.379058;2.63812;0.00164436;0.00184728;2.3997;0.416718;35.638;80.638;0.00922061;-0.000721581;-0.00600795;0.00711314;0.00181939;0.0135258;0.0188331;0;0.0279708;0.00759472;-0.311646;-1.03818;1.08397;-7.21867;-0.00028512;-0.000731693;-1.37826e-05;0.000594713;-0.000893616;0.000744164;-20.6869;-0.0483397;0.000865044;0.000992219;0.665513;1.5026;175.924;40.9238;-0.0032255;-0.000293764;0.00275856;-0.00422099;-1.73198e-05;0.0154506;0.0298386;0;0.0320986;0.887656;4.08185
285000;286;25.7557;-0.00022687;-8.80845e-06;-2.01562;25.6765;0.123454;0.0251712;0.0159355;-0.738465;-0.0172354;-0.293307;-0.299855;0.419809;-7.36288;-0.000833863;0.000528617;0.00204257;0.00213664;-0.000927933;0.00153228;0.408243;2.44952;0.00181462;0.00204305;2.30257;0.434296;37.6244;82.6244;0.00943485;-0.000859017;-0.0060712;0.00710946;0.00202431;0.0138473;0.0177138;0;0.0197999;0.00787592;-0.314295;-1.03847;1.08502;-7.21896;-0.000394119;-0.000628727;0.000202033;0.000599764;-0.00079185;0.000695807;1.95077;0.512618;0.000805996;0.000927743;0.75742;1.32027;167.973;32.9725;-0.00334065;-0.000404043;0.00324318;-0.00449832;0.000196972;0.015886;0.0305894;0;0.0295948;0.918209;4.08566
286000;287;25.7569;0.00097931;3.80226e-05;-2.01668;25.6776;0.125637;0.0241077;0.0170513;-0.736282;-0.0165517;-0.296486;-0.297915;0.420633;-7.36094;-0.000777037;0.000375524;0.00149419;0.00155467;-0.000837516;0.00119609;0.52004;1.92293;0.00140166;0.00159479;1.85628;0.538711;37.4953;82.4953;0.00921082;-0.000801433;-0.00625638;0.00699237;0.00147472;0.0147368;0.0179725;0;0.0158645;0.00729492;-0.317766;-1.03833;1.08589;-7.21883;-0.000350305;-0.000633608;0.000406141;0.000765828;-0.000709993;0.000737911;0.862522;1.15939;0.000852269;0.000983881;1.07864;0.927091;164.327;29.3266;-0.00338622;-0.000360977;0.00339818;-0.00466234;0.00040057;0.0156935;0.0276432;0;0.0330176;0.95315;4.09344
287000;288;25.7552;-0.000790883;-3.07068e-05;-2.01655;25.6758;0.122385;0.0242427;0.015302;-0.739535;-0.016384;-0.297504;-0.300643;0.423277;-7.36367;-0.000854173;0.00017079;0.0014218;0.00143454;-0.000866918;0.00115073;0.600771;1.66453;0.00134215;0.00153431;1.65476;0.604318;42.064;87.064;0.00893548;-0.000876823;-0.00640314;0.00672977;0.00140134;0.0159634;0.0175482;0;0.0146581;0.00673173;-0.318603;-1.04063;1.08833;-7.22112;-0.000444432;-0.000626853;0.000441339;0.000765978;-0.00076907;0.000767524;1.00701;0.993042;0.000886261;0.00102336;0.995979;1.00404;162.329;27.3294;-0.00368109;-0.000455859;0.00357042;-0.0048204;0.000435165;0.0163604;0.0269408;0;0.0243635;0.988367;4.1004
288000;289;25.7563;0.000315992;1.22687e-05;-2.0174;25.6769;0.120043;0.0233866;0.0163561;-0.741877;-0.0161974;-0.300776;-0.298953;0.424384;-7.36198;-0.000811604;3.22868e-05;0.000919309;0.000919911;-0.000812206;0.000866059;0.882841;1.13271;0.00100068;0.00115474;1.13261;0.882918;44.2607;89.2607;0.00914875;-0.00083336;-0.00654054;0.00659374;0.00089794;0.015295;0.0177465;0;0.0150273;0.00589782;-0.322172;-1.03954;1.08833;-7.22003;-0.000467164;-0.000578462;0.000426363;0.000710501;-0.000751301;0.000730901;1.09569;0.912663;0.000844081;0.000974535;0.945693;1.05743;161.226;26.2265;-0.00404399;-0.000479762;0.00389874;-0.00505165;0.000418934;0.0166482;0.0296261;0;0.0236552;1.02356;4.10812
289000;290;25.7568;0.000849727;3.29914e-05;-2.01784;25.6774;0.119721;0.0229443;0.0168582;-0.742199;-0.0161383;-0.301559;-0.303057;0.427834;-7.36608;-0.000809276;5.21788e-05;0.000853185;0.000854821;-0.000810912;0.000832866;0.948535;1.05426;0.000961823;0.00111049;1.05415;0.948633;43.3939;88.3939;0.00961872;-0.000831591;-0.00658472;0.00667805;0.000831525;0.0154942;0.0180966;0;0.0180228;0.00494469;-0.323923;-1.0444;1.09349;-7.22489;-0.000596523;-0.000559108;0.000472892;0.000711821;-0.000835452;0.000773637;1.26144;0.792747;0.000894269;0.00103152;0.852019;1.17368;158.457;23.4566;-0.00410405;-0.000609744;0.00405777;-0.00517104;0.000464819;0.0180841;0.0276742;0;0.0300409;1.06726;4.11577
290000;291;25.758;0.00199582;7.74896e-05;-2.01931;25.6784;0.120275;0.0214746;0.0178897;-0.741644;-0.016043;-0.304949;-0.302193;0.429618;-7.36522;-0.000853055;-0.000174759;0.000689514;0.000709065;-0.000872606;0.000790836;1.23718;0.808288;0.000914804;0.00105445;0.812583;1.23064;51.1166;96.1166;0.00915603;-0.000873077;-0.00668721;0.00632766;0.000667185;0.0155219;0.0174705;0;0.0155776;0.00473553;-0.327086;-1.04443;1.09446;-7.22492;-0.000619403;-0.000505644;0.000511957;0.000705007;-0.000812452;0.000758729;1.20987;0.826533;0.000876837;0.00101164;0.867751;1.1524;156.147;21.1473;-0.00395932;-0.000633398;0.00430726;-0.0053131;0.000502813;0.0165038;0.0269368;0;0.0224937;1.09354;4.12347
291000;292;25.7589;0.00289028;0.000112218;-2.01997;25.6793;0.120955;0.020816;0.018732;-0.740964;-0.0160823;-0.305374;-0.302353;0.430034;-7.36538;-0.000811183;8.83613e-05;0.000988009;0.000992338;-0.000815512;0.000903925;0.821028;1.21799;0.00104543;0.00120523;1.21683;0.821808;42.6746;87.6746;0.00894367;-0.000833339;-0.00648967;0.00665456;0.000966976;0.0160538;0.0174531;0;0.0189936;0.00379624;-0.327982;-1.04551;1.09576;-7.22601;-0.000684191;-0.000567322;0.000622881;0.000834772;-0.000896082;0.000865427;1.09843;0.910391;0.000999518;0.0011539;0.93158;1.07344;155.59;20.5905;-0.00448218;-0.00069885;0.00431414;-0.0054424;0.000613742;0.0184369;0.0274315;0;0.0302495;1.13278;4.12973
292000;293;25.7594;0.00340478;0.000132194;-2.02109;25.6797;0.120833;0.0197016;0.019161;-0.741086;-0.0160752;-0.306774;-0.30405;0.432221;-7.36707;-0.000838539;1.33857e-05;0.000554803;0.000554931;-0.000838667;0.000696799;1.51142;0.66163;0.000810134;0.000929066;0.661682;1.5113;43.9271;88.9271;0.00910612;-0.000860307;-0.00657784;0.00659543;0.00053318;0.0164439;0.0191105;0;0.0215584;0.00253792;-0.330351;-1.04801;1.09884;-7.2285;-0.000631344;-0.000580305;0.000636057;0.000861618;-0.000856905;0.000859262;0.99259;1.00747;0.000992191;0.00114568;1.0055;0.99453;156.154;21.1535;-0.00432857;-0.000647775;0.004606;-0.00576003;0.000625624;0.0188889;0.0286836;0;0.0260549;1.17835;4.13738
293000;294;25.7594;0.00341147;0.000132454;-2.02121;25.6797;0.114383;0.0195749;0.0191872;-0.747536;-0.0153709;-0.309522;-0.303173;0.433537;-7.3662;-0.000913647;-0.000236442;0.000604821;0.000640785;-0.000949611;0.000795198;1.51061;0.661985;0.000923968;0.00106026;0.674787;1.48195;53.0831;98.0831;0.00904724;-0.000934399;-0.00692687;0.00644384;0.000580872;0.0170464;0.0182708;0;0.0156444;0.00259562;-0.332797;-1.04915;1.10067;-7.22964;-0.000690581;-0.000663392;0.000482237;0.000781246;-0.000989589;0.000885418;1.43204;0.698307;0.00102475;0.00118056;0.789464;1.26668;159.748;24.7481;-0.00501126;-0.0007082;0.00465061;-0.00597114;0.000471648;0.0188409;0.0273976;0;0.0220827;1.21085;4.14369
294000;295;25.7626;0.00660563;0.00025647;-2.02326;25.6827;0.116766;0.0175277;0.0222194;-0.745153;-0.0141067;-0.308086;-0.308741;0.43639;-7.37177;-0.000867398;-0.00011849;0.000420837;0.000431645;-0.000878206;0.000654925;2.06113;0.485172;0.000770753;0.000873234;0.491508;2.03456;49.3633;94.3633;0.00939016;-0.000889458;-0.00688603;0.00664034;0.000397145;0.0169682;0.0190894;0;0.0151315;0.00205948;-0.333697;-1.05456;1.1061;-7.23505;-0.000863549;-0.000605683;0.000650665;0.000863126;-0.00107601;0.000969568;1.32718;0.753478;0.00112181;0.00129276;0.802154;1.24664;154.802;19.8023;-0.00549347;-0.00088216;0.00492532;-0.0061283;0.000638726;0.020169;0.027705;0;0.0231823;1.2584;4.15155
295000;296;25.7624;0.00643792;0.000249958;-2.02361;25.6826;0.113064;0.0171793;0.0220403;-0.748855;-0.015304;-0.313507;-0.301355;0.435127;-7.36438;-0.000777386;-5.41212e-07;0.000743541;0.000743541;-0.000777386;0.000760464;1.04552;0.956463;0.00087818;0.00101395;0.956463;1.04552;45.0431;90.0431;0.00978278;-0.000799562;-0.00666829;0.00665707;0.000721324;0.0152888;0.018721;0;0.0216599;0.00127939;-0.338004;-1.05365;1.10654;-7.23414;-0.000848582;-0.000735799;0.000534766;0.00085295;-0.00116677;0.00100986;1.58683;0.630188;0.00117077;0.00134648;0.731038;1.36792;159.058;24.0576;-0.00583899;-0.00087054;0.00520154;-0.0066649;0.000521516;0.0212685;0.0273776;0;0.0223529;1.29698;4.1552
296000;297;25.7624;0.0064208;0.000249294;-2.02558;25.6824;0.108025;0.0152079;0.0218894;-0.753895;-0.0124744;-0.311856;-0.308486;0.438832;-7.37151;-0.00090142;-0.000123656;0.000647994;0.0006578;-0.000911226;0.000784513;1.39109;0.718859;0.000909808;0.00104602;0.721885;1.38526;49.0896;94.0896;0.00934137;-0.000923083;-0.00683819;0.00658048;0.000624636;0.0163222;0.0186585;0;0.0279478;0.0018841;-0.337376;-1.06127;1.1136;-7.24176;-0.000737788;-0.00063421;0.000569253;0.000826398;-0.000994933;0.000910665;1.29606;0.771567;0.00105305;0.00121422;0.830606;1.20394;157.4;22.3996;-0.00597527;-0.000758576;0.00521594;-0.0064767;0.000555858;0.021134;0.026733;0;0.0265303;1.33691;4.15932
297000;298;25.7662;0.0102384;0.000397514;-2.0271;25.6861;0.112907;0.0136856;0.0255778;-0.749012;-0.0140359;-0.314509;-0.309538;0.441505;-7.37256;-0.000753026;0.00012326;0.000964652;0.000973452;-0.000761826;0.000867639;0.78062;1.28103;0.00100434;0.00115685;1.27779;0.782603;41.4529;86.4529;0.00927853;-0.000777885;-0.00681483;0.00704944;0.00094146;0.0178986;0.0188717;0;0.0183967;-0.00102189;-0.342389;-1.05868;1.11267;-7.23917;-0.000815141;-0.000800884;0.00051745;0.000892963;-0.00119065;0.00104181;1.5753;0.634798;0.00120706;0.00138908;0.749977;1.33337;160.726;25.7263;-0.0064396;-0.000838936;0.00534844;-0.00694199;0.000503475;0.0231074;0.0262788;0;0.0234591;1.38038;4.16657
298000;299;25.7661;0.0101011;0.000392183;-2.02928;25.6858;0.105791;0.0115129;0.0252988;-0.756129;-0.0124988;-0.313671;-0.316377;0.445691;-7.3794;-0.00088986;-5.69777e-05;0.00085279;0.000854651;-0.000891721;0.000873186;1.04347;0.958342;0.00100834;0.00116425;0.958429;1.04337;46.8949;91.8949;0.00955645;-0.000913881;-0.00705437;0.00692823;0.000827931;0.0160255;0.0196075;0;0.0171617;-0.00161996;-0.342467;-1.06917;1.12268;-7.24966;-0.000849853;-0.000685031;0.000569955;0.000846576;-0.00112647;0.000986524;1.49109;0.670651;0.00114295;0.00131537;0.751527;1.33062;157.518;22.5178;-0.00714272;-0.000875091;0.00577378;-0.00713464;0.000553531;0.0253059;0.0250933;0;0.0427711;1.418;4.17404
299000;300;25.7677;0.0117075;0.000454553;-2.02909;25.6875;0.101996;0.0117016;0.0269404;-0.759923;-0.0125114;-0.316553;-0.31285;0.445239;-7.37588;-0.000952162;-0.000294967;0.00109161;0.00113333;-0.000993882;0.00106361;0.872254;1.14646;0.00122903;0.00141814;1.14031;0.876956;53.4373;98.4373;0.00963124;-0.000974241;-0.00725258;0.00664845;0.00106538;0.0171672;0.0196032;0;0.0229769;-0.00174837;-0.346069;-1.07095;1.12547;-7.25144;-0.000731344;-0.000735893;0.000543774;0.000879878;-0.00106745;0.000973663;1.34494;0.743527;0.00112603;0.00129822;0.824282;1.21318;159.855;24.8552;-0.00786273;-0.000758448;0.00593335;-0.00739661;0.000526451;0.0261395;0.02638;0;0.0294679;1.46767;4.18176
300000;301;25.7674;0.0114527;0.000444663;-2.03053;25.6871;0.0983292;0.0102589;0.0265852;-0.76359;-0.0141686;-0.321183;-0.307801;0.445085;-7.37083;-0.00105579;4.63173e-05;0.00223519;0.00223584;-0.00105644;0.00164614;0.47235;2.11708;0.00194103;0.00219486;2.11639;0.472503;46.67;91.67;0.00979593;-0.00108127;-0.00706569;0.00713497;0.00221028;0.0160797;0.0171495;0;0.027211;-0.00414424;-0.35068;-1.07023;1.12623;-7.25072;-0.000887051;-0.000817199;0.000590605;0.000953449;-0.00124989;0.00110167;1.50194;0.665807;0.00127593;0.0014689;0.762823;1.31092;159.451;24.4515;-0.00895783;-0.000916979;0.00615215;-0.00777622;0.000572025;0.0286746;0.0282988;0;0.0266627;1.50912;4.18881
301000;302;25.7693;0.0132937;0.00051614;-2.03315;25.6887;0.0997091;0.00763412;0.028219;-0.76221;-0.0128379;-0.323381;-0.307254;0.446257;-7.37028;-0.000851997;0.000312696;0.00178507;0.00182164;-0.000888568;0.00135511;0.47729;2.09516;0.00159535;0.00180681;2.05009;0.487784;40.2813;85.2813;0.00974611;-0.000880283;-0.00691833;0.00752467;0.00176123;0.0166445;0.0193969;0;0.0177433;-0.00558216;-0.353909;-1.06876;1.12585;-7.24926;-0.00100362;-0.000815487;0.000565609;0.000912649;-0.00135066;0.00113165;1.7744;0.563572;0.00131485;0.00150887;0.675708;1.47993;158.812;23.812;-0.0090851;-0.00103591;0.00645434;-0.00807387;0.000545124;0.0298919;0.0304285;0;0.0316746;1.5644;4.19664
302000;303;25.7689;0.0128994;0.000500833;-2.03434;25.6883;0.0931364;0.00644425;0.027754;-0.768783;-0.00994584;-0.325219;-0.309433;0.449016;-7.37246;-0.000971806;-7.04546e-05;0.00156922;0.00157117;-0.000973758;0.00127246;0.619294;1.61474;0.00148275;0.00169662;1.61351;0.619767;47.8624;92.8624;0.00913585;-0.000997939;-0.00738579;0.00722632;0.00154199;0.0194061;0.0194935;0;0.0196256;-0.00368265;-0.356704;-1.07402;1.13171;-7.25451;-0.000944112;-0.000611215;0.000645146;0.000853023;-0.00115199;0.00100251;1.46341;0.683336;0.00116188;0.00133667;0.740478;1.35048;154.251;19.2507;-0.00905747;-0.000976456;0.00685166;-0.00806221;0.000621875;0.0293811;0.0310555;0;0.0287734;1.6061;4.20382
303000;304;25.7709;0.0149695;0.000581204;-2.03515;25.6903;0.0979758;0.00563866;0.0297487;-0.763944;-0.0114299;-0.326293;-0.305912;0.447415;-7.36894;-0.00085511;0.000323597;0.00190339;0.00194084;-0.000892562;0.0014167;0.449256;2.2259;0.00167277;0.00188894;2.17446;0.459884;40.5345;85.5345;0.00942794;-0.000884705;-0.00707025;0.00769707;0.00187849;0.0181426;0.0198277;0;0.0203543;-0.00613429;-0.358307;-1.07215;1.13045;-7.25264;-0.00101249;-0.000630347;0.000721189;0.000926145;-0.00121745;0.0010718;1.40392;0.71229;0.00124141;0.00142906;0.760725;1.31453;153.437;18.4374;-0.00897976;-0.00104757;0.00714752;-0.0083947;0.000695862;0.0296534;0.0315565;0;0.0257664;1.65087;4.21167
304000;305;25.7716;0.0156336;0.000606991;-2.03664;25.6908;0.0982044;0.00414904;0.030296;-0.763715;-0.00857297;-0.326423;-0.312962;0.452295;-7.37599;-0.00102666;-0.000145532;0.00118088;0.00119043;-0.00103621;0.00111332;0.869402;1.15022;0.00128658;0.00148443;1.14883;0.87045;49.158;94.158;0.00939557;-0.00105353;-0.00763588;0.00732831;0.00115177;0.0194603;0.0209569;0;0.0195745;-0.00428451;-0.359504;-1.08095;1.13918;-7.26145;-0.000932514;-0.000523424;0.000714729;0.000866979;-0.00108476;0.000975871;1.30471;0.766454;0.00112917;0.00130116;0.799233;1.2512;151.502;16.5025;-0.00941145;-0.000967504;0.00734396;-0.00837783;0.000687918;0.0301453;0.031429;0;0.0298405;1.70714;4.21862
305000;306;25.7723;0.0163082;0.000633181;-2.03752;25.6914;0.0955984;0.00327153;0.0309129;-0.766321;-0.00762913;-0.329924;-0.309339;0.452326;-7.37236;-0.00080642;0.000118899;0.00140679;0.00141316;-0.000812789;0.00111297;0.573235;1.74449;0.00130064;0.00148396;1.73865;0.575159;43.1712;88.1712;0.00949068;-0.000836305;-0.00750789;0.00772882;0.00137865;0.0194021;0.0197296;0;0.0169604;-0.0051731;-0.36389;-1.07858;1.13832;-7.25907;-0.00104173;-0.000398987;0.000877079;0.000956736;-0.00112139;0.00103906;1.18773;0.841945;0.00120106;0.00138541;0.853172;1.1721;146.475;11.4755;-0.0098654;-0.00107612;0.00751523;-0.00829801;0.000848944;0.0315609;0.030482;0;0.0290713;1.75307;4.22486
306000;307;25.7717;0.0157026;0.000609669;-2.03808;25.6908;0.0960678;0.00270761;0.030259;-0.765851;-0.00839566;-0.331454;-0.309755;0.453741;-7.37278;-0.000889607;0.000130214;0.00157493;0.00158179;-0.000896467;0.00123913;0.564854;1.77037;0.00144895;0.00165217;1.76447;0.566741;43.3664;88.3664;0.00962863;-0.000920313;-0.00759272;0.00783414;0.00154616;0.0191142;0.0201305;0;0.0156877;-0.00649244;-0.36595;-1.07935;1.13972;-7.25985;-0.00115134;-0.000407599;0.00102885;0.00110256;-0.00122505;0.00116381;1.11906;0.893608;0.00134447;0.00155174;0.90001;1.1111;145.345;10.3452;-0.00999845;-0.00118869;0.00784988;-0.00864706;0.000998154;0.0322011;0.031562;0;0.0278281;1.80314;4.22894
307000;308;25.773;0.0170541;0.000662143;-2.03934;25.692;0.0958196;0.00144784;0.0315157;-0.7661;-0.00766847;-0.335492;-0.305456;0.453781;-7.36848;-0.000924455;0.000295529;0.00168395;0.00171701;-0.000957519;0.00133726;0.548982;1.82155;0.00156476;0.00178302;1.79319;0.557667;40.1272;85.1272;0.00917133;-0.000956863;-0.00748173;0.00805252;0.00165605;0.0206972;0.0213017;0;0.0219462;-0.0065522;-0.369058;-1.07954;1.1409;-7.26004;-0.00123925;-0.000289911;0.000995996;0.00103299;-0.00127624;0.00115461;1.24423;0.80371;0.00133569;0.00153948;0.809399;1.23548;142.568;7.56848;-0.0101152;-0.00127651;0.00807149;-0.00863262;0.000963495;0.031682;0.030952;0;0.0365123;1.85305;4.23367
308000;309;25.7705;0.0145696;0.000565678;-2.03916;25.6896;0.088297;0.00162735;0.0290646;-0.773622;-0.00682857;-0.336787;-0.310216;0.457937;-7.37324;-0.000929765;0.000230316;0.00144072;0.00146289;-0.000951935;0.00120741;0.645347;1.54955;0.00140456;0.00160988;1.53675;0.650722;40.5436;85.5436;0.00942525;-0.000962539;-0.00765367;0.00809563;0.0014115;0.0211259;0.021369;0;0.0255854;-0.0060819;-0.37064;-1.08507;1.14664;-7.26556;-0.00119037;-0.000165096;0.0011804;0.00119184;-0.00120181;0.00119683;1.00845;0.991622;0.00138198;0.00159577;0.991702;1.00837;138.859;3.85892;-0.0104032;-0.00122817;0.00838123;-0.00869117;0.00114533;0.0320582;0.0306423;0;0.0373062;1.90263;4.24099
309000;310;25.7717;0.0157015;0.000609624;-2.04019;25.6906;0.0871136;0.000594801;0.0301221;-0.774806;-0.00509329;-0.341046;-0.298511;0.453263;-7.36154;-0.000955604;0.000124363;0.000966411;0.000974425;-0.000963617;0.000969021;0.988817;1.01131;0.00111893;0.00129203;1.01122;0.988909;41.4444;86.4444;0.00951272;-0.000986717;-0.00765178;0.00788557;0.000937172;0.0204942;0.0247525;0;0.0189401;-0.00566636;-0.374884;-1.07592;1.13937;-7.25641;-0.00131545;-0.00022508;0.00114101;0.00116146;-0.0013359;0.00124868;1.15289;0.867387;0.00144303;0.00166491;0.869418;1.1502;140.363;5.36316;-0.00996625;-0.00135368;0.00831218;-0.00874137;0.00110652;0.0310878;0.0304715;0;0.024215;1.9639;4.2495
310000;311;25.7732;0.0172397;0.000669349;-2.04048;25.6921;0.0929642;0.000310264;0.0316221;-0.768955;-0.00561399;-0.338843;-0.315752;0.463191;-7.37878;-0.00107591;0.000313239;0.00139398;0.00143309;-0.00111501;0.00127405;0.771823;1.29563;0.00147496;0.00169873;1.28526;0.77805;38.572;83.572;0.00927853;-0.00110975;-0.00762194;0.00822882;0.00136502;0.0213723;0.0220797;0;0.0158198;-0.0061452;-0.374869;-1.08848;1.15124;-7.26897;-0.00113611;-0.000123611;0.00137528;0.00138135;-0.00114218;0.00126177;0.826097;1.21051;0.00145914;0.00168236;1.20939;0.826861;137.29;2.2901;-0.0104026;-0.00117426;0.00850509;-0.00873066;0.00133917;0.0317009;0.0294268;0;0.0295312;2.02334;4.2566
311000;312;25.774;0.0180196;0.00069963;-2.04047;25.6929;0.0921605;0.000316221;0.0324078;-0.769759;-0.00577736;-0.339765;-0.320762;0.467292;-7.38379;-0.00106298;0.000161581;0.00103308;0.00104546;-0.00107537;0.00106041;1.02895;0.971868;0.0012245;0.00141389;0.972192;1.0286;40.679;85.679;0.00932309;-0.00109636;-0.00786064;0.00816699;0.00100223;0.0220346;0.0232244;0;0.015603;-0.00679946;-0.376476;-1.09526;1.15817;-7.27575;-0.00104243;-0.000177844;0.00153056;0.0015428;-0.00105466;0.00129873;0.681076;1.46826;0.00150845;0.00173164;1.46283;0.683605;138.017;3.0166;-0.0107934;-0.00108286;0.00865624;-0.00898922;0.00149317;0.0319548;0.0313666;0;0.0272023;2.06788;4.2635
312000;313;25.7731;0.0171173;0.000664595;-2.04087;25.692;0.0890311;-7.8122e-05;0.0314823;-0.772888;-0.00208345;-0.343397;-0.316539;0.467036;-7.37956;-0.000882301;0.000120224;0.000962292;0.000970095;-0.000890104;0.000930099;0.916874;1.09066;0.00107432;0.00124013;1.08987;0.917543;41.5447;86.5447;0.00960404;-0.000914664;-0.00781669;0.0080425;0.000931778;0.02142;0.0234776;0;0.0229181;-0.00380521;-0.379339;-1.0959;1.15971;-7.2764;-0.000898276;-0.000101561;0.00155278;0.00155698;-0.000902477;0.00122973;0.578495;1.72862;0.00143663;0.00163964;1.72523;0.579632;136.15;1.1499;-0.00991409;-0.000935623;0.00845699;-0.00863916;0.00151708;0.0293476;0.0298737;0;0.0320996;2.12938;4.2713
313000;314;25.773;0.0170336;0.000661347;-2.04083;25.6919;0.0811367;-4.14862e-05;0.0314275;-0.780783;-0.00294974;-0.349451;-0.303657;0.46296;-7.36668;-0.000951519;-0.000208017;0.00080564;0.00082993;-0.000975809;0.000902869;1.18107;0.846689;0.00104368;0.00120383;0.850505;1.17577;51.5009;96.5009;0.0094178;-0.000979799;-0.0079495;0.00751988;0.000774089;0.0214121;0.0225021;0;0.0184368;-0.00521162;-0.384809;-1.08612;1.15229;-7.26662;-0.00107735;-0.000221857;0.00154141;0.00156007;-0.00109601;0.00132804;0.698941;1.43074;0.00154127;0.00177072;1.4234;0.702542;138.928;3.92763;-0.0102503;-0.00111804;0.00859755;-0.00901819;0.00150453;0.0307539;0.0295773;0;0.027733;2.18853;4.27771
314000;315;25.7732;0.017191;0.000667455;-2.04175;25.692;0.0797992;-0.000961985;0.0315163;-0.78212;-0.00317622;-0.348581;-0.312898;0.468427;-7.37592;-0.00117122;-0.000224123;0.000799297;0.000824466;-0.00119639;0.00101043;1.46532;0.682447;0.00117331;0.00134724;0.689127;1.45111;50.8384;95.8384;0.00963287;-0.0012;-0.00804908;0.00758544;0.000766953;0.0216573;0.0237259;0;0.030502;-0.00565864;-0.385716;-1.0947;1.16068;-7.27519;-0.000898398;-0.000133934;0.00165859;0.00166558;-0.000905394;0.00128549;0.541664;1.84616;0.00150583;0.00171398;1.83962;0.54359;136.624;1.62364;-0.0106345;-0.000937967;0.00864753;-0.00889297;0.00162127;0.0304045;0.031216;0;0.02973;2.25665;4.2851
315000;316;25.7747;0.018681;0.000725309;-2.04258;25.6935;0.0799235;-0.00178756;0.0329451;-0.781996;0.00166004;-0.352331;-0.310637;0.469719;-7.37366;-0.0010164;-0.000224103;0.00039221;0.000427004;-0.00105119;0.000739099;2.59147;0.385881;0.000878435;0.000985466;0.406208;2.46179;52.762;97.762;0.00973868;-0.00104371;-0.00784951;0.00739058;0.000361439;0.0223364;0.0235783;0;0.0196827;-0.00254792;-0.387976;-1.09743;1.164;-7.27792;-0.000783691;-0.000170045;0.00159653;0.00160861;-0.000795778;0.0012022;0.490873;2.03719;0.00141437;0.00160293;2.02143;0.494698;137.59;2.58962;-0.00973538;-0.00082208;0.00844086;-0.00876047;0.00156097;0.0281733;0.0291703;0;0.0259967;2.30196;4.29224
316000;317;25.7773;0.0213156;0.000827599;-2.04313;25.6961;0.0765954;-0.00233865;0.0355544;-0.785324;0.000257316;-0.353119;-0.317058;0.474572;-7.38008;-0.00104147;-0.000409413;0.00021604;0.000337586;-0.00116302;0.000750302;4.82074;0.207437;0.000909015;0.0010004;0.290267;3.4451;60.0775;105.077;0.00977962;-0.00106682;-0.00795675;0.00712845;0.000184475;0.0220253;0.023895;0;0.0145243;-0.0037026;-0.392531;-1.10164;1.16949;-7.28213;-0.000781704;-0.000189808;0.0017856;0.00179956;-0.000795661;0.00129761;0.437782;2.28424;0.00153526;0.00173015;2.26171;0.442142;137.431;2.43062;-0.0102668;-0.000821185;0.0085272;-0.00888446;0.00174933;0.0293568;0.0277809;0;0.027805;2.36398;4.2967
317000;318;25.7793;0.0233182;0.000905351;-2.04415;25.698;0.0783285;-0.00336454;0.0374765;-0.783591;0.000738179;-0.356001;-0.313065;0.474075;-7.37609;-0.00088219;-0.000562565;-0.000172671;0.000137651;-0.00119251;0.000665082;-5.10907;-0.19573;0.000844639;0.000886776;0.11543;8.66328;72.002;117.002;0.00907155;-0.000906681;-0.0081487;0.00701822;-0.00020572;0.0241164;0.0239047;0;0.0197523;-0.00363562;-0.395873;-1.09995;1.16902;-7.28044;-0.000789215;-0.000189169;0.00176274;0.00177668;-0.000803161;0.00128992;0.447721;2.23353;0.00152441;0.0017199;2.21212;0.452056;137.495;2.49481;-0.0108413;-0.000828872;0.00854819;-0.00890426;0.00172628;0.0300979;0.0269331;0;0.026886;2.42259;4.3014
318000;319;25.7797;0.0237671;0.000922781;-2.04446;25.6984;0.0750115;-0.00367643;0.0379119;-0.786908;0.0022559;-0.359804;-0.310229;0.475085;-7.37325;-0.00110604;-0.000736828;-9.5553e-05;0.000292615;-0.00149421;0.000893414;-11.5752;-0.0863917;0.00110665;0.00119122;0.195832;5.10641;70.5617;115.562;0.0100643;-0.00112787;-0.00812512;0.00664404;-0.000128294;0.0220903;0.0235949;0;0.0223399;-0.002748;-0.400301;-1.09993;1.17051;-7.28043;-0.000611583;-0.000121749;0.00174932;0.00175558;-0.000617845;0.00118671;0.349611;2.86032;0.00142181;0.00158229;2.84146;0.351931;135.968;0.967942;-0.0110053;-0.000651283;0.00868599;-0.00890873;0.00171167;0.0298004;0.0286917;0;0.0266218;2.48506;4.30704
319000;320;25.7818;0.0257829;0.00100105;-2.04448;25.7005;0.073289;-0.00369148;0.0399378;-0.78863;0.00329892;-0.360171;-0.314408;0.478107;-7.37743;-0.00102213;-0.000489537;0.000526054;0.000667858;-0.00116394;0.000915898;1.94302;0.514663;0.00107044;0.0012212;0.573792;1.74279;60.2909;105.291;0.0102748;-0.0010454;-0.00782626;0.00683586;0.000495565;0.0204462;0.0225592;0;0.0205885;-0.00215306;-0.40269;-1.10558;1.17663;-7.28607;-0.000433294;-0.000125191;0.00182084;0.00182777;-0.000440226;0.001134;0.237964;4.20231;0.00138871;0.001512;4.15189;0.240854;135.754;0.753824;-0.0111555;-0.000471793;0.00854284;-0.00877371;0.00178442;0.0295859;0.0301389;0;0.0248446;2.55321;4.31425
320000;321;25.7847;0.0287663;0.00111688;-2.04538;25.7034;0.0754395;-0.00458916;0.042853;-0.78648;0.00314859;-0.363135;-0.316973;0.482026;-7.38;-0.000981766;-0.000585193;-6.23362e-05;0.000222119;-0.00126622;0.00074417;-15.7495;-0.063494;0.000927099;0.000992226;0.175419;5.70064;68.9658;113.966;0.00998107;-0.00100373;-0.00782791;0.0066509;-9.28055e-05;0.0212444;0.0232819;0;0.0290285;-0.00225892;-0.406537;-1.10995;1.18206;-7.29045;-0.000557239;-0.000100706;0.00174333;0.00174773;-0.000561639;0.00115468;0.319641;3.12851;0.0013907;0.00153958;3.11183;0.321354;135.43;0.429593;-0.0106362;-0.000596011;0.00862255;-0.00880392;0.00170622;0.028962;0.0315497;0;0.026666;2.61618;4.32141
321000;322;25.7839;0.0278999;0.00108324;-2.04522;25.7025;0.0718244;-0.00443592;0.0420064;-0.790095;0.00398683;-0.367028;-0.31082;0.480973;-7.37385;-0.000901288;-0.000295783;0.000217254;0.000290653;-0.000974687;0.00063267;4.14855;0.241048;0.0007653;0.00084356;0.298201;3.35344;57.6771;102.677;0.0100362;-0.000924968;-0.00748472;0.00688513;0.000189293;0.0203509;0.02195;0;0.0215079;-0.0020952;-0.411154;-1.10444;1.17849;-7.28494;-0.000548416;-9.58557e-06;0.00176707;0.00176711;-0.000548456;0.00115778;0.310354;3.22212;0.00139724;0.00154371;3.22196;0.31037;133.118;178.118;-0.010293;-0.000586628;0.00874061;-0.00873956;0.00172893;0.0290539;0.0321937;0;0.0248902;2.6768;4.32953
322000;323;25.7853;0.0293718;0.00114039;-2.04576;25.704;0.0722241;-0.00496954;0.0434394;-0.789695;0.00538168;-0.368118;-0.317398;0.486088;-7.38042;-0.000897089;-0.000521682;0.00101603;0.00114904;-0.0010301;0.00108957;0.882934;1.13259;0.00125875;0.00145276;1.11547;0.896485;59.6479;104.648;0.00945816;-0.000917654;-0.00748817;0.00643151;0.00098816;0.020639;0.0212855;0;0.0241892;-0.00102301;-0.413805;-1.11174;1.18625;-7.29223;-0.000463482;3.10152e-05;0.00189198;0.00189239;-0.00046389;0.00117814;0.244972;4.0821;0.00144133;0.00157085;4.07939;0.245135;131.742;176.742;-0.0102337;-0.000499938;0.00861908;-0.00853686;0.00185491;0.0286311;0.0307368;0;0.0322933;2.73705;4.33625
323000;324;25.7859;0.029919;0.00116164;-2.04601;25.7045;0.0719067;-0.00521932;0.0439694;-0.790013;0.00534888;-0.370934;-0.314458;0.486317;-7.37748;-0.00100506;-0.000499035;0.000637322;0.000777063;-0.0011448;0.000960931;1.577;0.634115;0.00111634;0.00128124;0.678778;1.47324;60.0001;105;0.00972096;-0.00102651;-0.00757568;0.00656602;0.000608769;0.0204435;0.0213202;0;0.0178302;-0.00127339;-0.417244;-1.10953;1.18539;-7.29003;-0.000465134;0.000146112;0.00192005;0.00192897;-0.000474051;0.00120151;0.242251;4.12796;0.00146971;0.00160201;4.06912;0.245754;128.971;173.971;-0.010472;-0.000500939;0.00877422;-0.00846147;0.00188164;0.0279821;0.0303593;0;0.0268771;2.79842;4.34402
324000;325;25.7866;0.0306349;0.00118943;-2.04625;25.7052;0.0723674;-0.00545681;0.0446673;-0.789552;0.0070527;-0.374033;-0.316337;0.489918;-7.37936;-0.00100129;-0.000436458;0.00117036;0.0012548;-0.00108572;0.00117026;0.855534;1.16886;0.00135247;0.00156035;1.15573;0.865256;56.3975;101.397;0.0100267;-0.00102231;-0.00738335;0.00649538;0.00114323;0.0193174;0.0203131;0;0.0301082;0.000386982;-0.420899;-1.11171;1.18872;-7.2922;-0.000454182;0.000242616;0.00194657;0.00197084;-0.000478455;0.00122465;0.233325;4.28587;0.00149905;0.00163286;4.11917;0.242767;126.686;171.686;-0.0103335;-0.000489086;0.00886258;-0.00835671;0.0019074;0.0271202;0.0305962;0;0.0397489;2.86991;4.35187
325000;326;25.7868;0.0307978;0.00119575;-2.04711;25.7053;0.0665193;-0.00631676;0.044778;-0.7954;0.00818946;-0.376042;-0.312593;0.48907;-7.37562;-0.00101003;-4.16399e-05;0.00148002;0.00148072;-0.00101073;0.00124572;0.682444;1.46532;0.00144694;0.00166096;1.465;0.682594;47.0015;92.0015;0.0101183;-0.00103526;-0.00720013;0.00709905;0.00145414;0.0176692;0.0201791;0;0.0166652;0.000819953;-0.424033;-1.10951;1.18778;-7.29001;-0.00049443;0.000248754;0.00212047;0.00214392;-0.000517883;0.0013309;0.23317;4.28871;0.00162957;0.00177454;4.13978;0.241559;126.802;171.802;-0.0103866;-0.000529537;0.00890095;-0.00838088;0.00208097;0.0271445;0.0306244;0;0.0274167;2.93442;4.35923
326000;327;25.7871;0.0311052;0.00120769;-2.04584;25.7057;0.0673467;-0.00504967;0.0451851;-0.794573;0.00791178;-0.378658;-0.316555;0.49361;-7.37958;-0.000826939;-3.26347e-05;0.00181738;0.00181778;-0.000827342;0.00132256;0.455017;2.19772;0.00156244;0.00176342;2.19714;0.455138;47.7845;92.7845;0.0105139;-0.000852394;-0.00721636;0.00713214;0.00179139;0.0159467;0.020588;0;0.0218699;0.000888067;-0.426647;-1.11478;1.19363;-7.29527;-0.000450561;0.000280623;0.00219238;0.00222185;-0.000480028;0.00135094;0.205512;4.86589;0.00166448;0.00180125;4.62857;0.216049;125.984;170.984;-0.00998128;-0.000484895;0.0088734;-0.00828951;0.00215313;0.0264575;0.0291914;0;0.0316761;2.9957;4.3654
327000;328;25.7884;0.0324148;0.00125854;-2.04687;25.7069;0.0650891;-0.00607736;0.0464229;-0.79683;0.00911205;-0.380847;-0.316547;0.495308;-7.37957;-0.000960779;0.00021199;0.0022317;0.00224571;-0.000974794;0.00161025;0.430515;2.3228;0.00190701;0.002147;2.30378;0.434069;43.8309;88.8309;0.0104612;-0.000988443;-0.00703675;0.00743763;0.00220702;0.0162149;0.0211765;0;0.0190824;0.00187298;-0.429932;-1.11389;1.19398;-7.29439;-0.000355942;0.000283009;0.00232894;0.00235845;-0.000385449;0.00137195;0.152834;6.54305;0.00171528;0.00182927;6.11871;0.163433;125.656;170.656;-0.00973976;-0.000390518;0.00890818;-0.00831908;0.0022894;0.0256477;0.029928;0;0.0280939;3.0551;4.36966
328000;329;25.788;0.0320568;0.00124463;-2.04721;25.7066;0.0634187;-0.00642509;0.0460402;-0.798501;0.00824635;-0.382168;-0.319509;0.498203;-7.38253;-0.00104714;0.000172739;0.00236445;0.00237317;-0.00105586;0.00171451;0.442867;2.25801;0.00202786;0.00228602;2.24762;0.444915;44.7868;89.7868;0.0109991;-0.00107509;-0.00715496;0.00747549;0.00233892;0.0166674;0.0202678;0;0.0168669;0.000967687;-0.431693;-1.11857;1.19898;-7.29906;-0.00039747;0.000244083;0.00235134;0.00237285;-0.000418975;0.00139591;0.169039;5.91578;0.00173847;0.00186122;5.66346;0.176571;126.597;171.597;-0.00934248;-0.000432198;0.00884765;-0.00833591;0.00231232;0.0249824;0.0292069;0;0.023863;3.12713;4.37605
329000;330;25.7899;0.0338978;0.00131612;-2.04764;25.7084;0.0665857;-0.00685262;0.0478451;-0.795334;0.00851899;-0.384164;-0.320083;0.500108;-7.38311;-0.00104701;0.000430502;0.00272609;0.00277458;-0.00109551;0.00193505;0.384072;2.60368;0.00230343;0.00258006;2.53269;0.394837;41.9112;86.9112;0.0107865;-0.0010776;-0.00699557;0.00782861;0.00270178;0.0163409;0.0205273;0;0.0211036;0.0012912;-0.434081;-1.12117;1.20227;-7.30166;-0.000408141;0.000320376;0.00246427;0.00249957;-0.000443441;0.00147151;0.165624;6.03779;0.00183217;0.00196201;5.63676;0.177407;125.19;170.19;-0.00981926;-0.00044252;0.00896193;-0.00829644;0.00242426;0.0254674;0.0291375;0;0.0274989;3.19038;4.38008
330000;331;25.7895;0.0334953;0.00130049;-2.04744;25.708;0.0601705;-0.00665086;0.0474731;-0.801749;0.0081885;-0.388782;-0.318507;0.502659;-7.38153;-0.000861703;0.000496009;0.00280771;0.00287357;-0.000927568;0.00190057;0.306906;3.25832;0.00228845;0.00253409;3.09796;0.322793;41.2197;86.2197;0.0105463;-0.000893827;-0.007063;0.00802733;0.00278296;0.0165537;0.019929;0;0.0236919;0.000945919;-0.440165;-1.11909;1.20254;-7.29958;-0.000531772;0.000199444;0.00238081;0.0023944;-0.000545365;0.00146988;0.223357;4.47713;0.00180572;0.00195985;4.39046;0.227767;127.939;172.939;-0.00966382;-0.000567709;0.00890212;-0.00847796;0.0023413;0.0242373;0.0299077;0;0.0312376;3.28237;4.39456
331000;332;25.7915;0.0354878;0.00137785;-2.04764;25.71;0.0631879;-0.00684929;0.0494489;-0.798731;0.00849701;-0.389284;-0.32181;0.50515;-7.38484;-0.000861041;0.000715178;0.00311025;0.00323512;-0.000985909;0.00211051;0.27684;3.6122;0.00254973;0.00281402;3.28135;0.304752;39.427;84.427;0.0101932;-0.000895087;-0.00687886;0.00827911;0.00308692;0.0171204;0.0209742;0;0.0213604;0.00107834;-0.440961;-1.12406;1.20746;-7.30456;-0.00047086;0.000177177;0.00256173;0.00257204;-0.000481176;0.00152661;0.183806;5.44053;0.00189556;0.00203548;5.34533;0.187079;128.041;173.041;-0.00968389;-0.000505451;0.0086976;-0.00831748;0.00252402;0.0240327;0.0291064;0;0.0228479;3.32103;4.39494
332000;333;25.7922;0.0362597;0.00140782;-2.0484;25.7107;0.0621624;-0.00761565;0.0501647;-0.799757;0.00925555;-0.393638;-0.316958;0.505469;-7.37998;-0.000834169;0.000830438;0.00345543;0.00361059;-0.000989324;0.00229996;0.241408;4.14237;0.0027958;0.00306661;3.64955;0.274006;39.3428;84.3428;0.01081;-0.000870346;-0.0069153;0.00854301;0.00343195;0.0159027;0.0204106;0;0.016938;0.00173746;-0.446061;-1.12029;1.20583;-7.30079;-0.000300084;7.33484e-05;0.0026497;0.00265152;-0.000301907;0.00147672;0.113252;8.82985;0.00187643;0.00196895;8.78258;0.113862;129.604;174.604;-0.0100177;-0.000337177;0.00878437;-0.00861205;0.00261122;0.0242804;0.03021;0;0.026972;3.37374;4.40256
333000;334;25.7933;0.0373391;0.00144973;-2.04832;25.7118;0.0627195;-0.00752656;0.0512533;-0.7992;0.0100474;-0.396376;-0.317173;0.507753;-7.3802;-0.00108237;0.000728408;0.00340361;0.00351892;-0.00119769;0.0023583;0.318008;3.14457;0.00283092;0.0031444;2.9381;0.340356;40.3368;85.3368;0.010253;-0.00111858;-0.00711463;0.00853634;0.00337865;0.0173643;0.019781;0;0.0176252;0.00263787;-0.45026;-1.12111;1.20815;-7.3016;-0.00037681;4.42811e-05;0.00268847;0.00268911;-0.00037745;0.00153328;0.140158;7.13482;0.00193089;0.00204437;7.12442;0.140362;130.307;175.307;-0.0106029;-0.000415124;0.00886768;-0.00875215;0.00264926;0.025694;0.0298747;0;0.0397626;3.44751;4.4095
334000;335;25.7943;0.0383096;0.00148741;-2.04904;25.7127;0.0609684;-0.00825134;0.0521733;-0.800951;0.0102201;-0.399195;-0.315924;0.509185;-7.37895;-0.000973178;0.00118446;0.00327704;0.00358484;-0.00128098;0.00243291;0.296969;3.36736;0.00291236;0.00324388;2.79852;0.357332;34.7077;79.7077;0.0112538;-0.00101343;-0.00670994;0.00904536;0.0032553;0.0161453;0.0212793;0;0.0165445;0.00232661;-0.454699;-1.12062;1.20936;-7.30111;-0.000174644;9.5941e-05;0.00251526;0.00251868;-0.000178062;0.00134837;0.069434;14.4022;0.00174151;0.00179783;14.1449;0.0706967;128.99;173.99;-0.0107221;-0.000211297;0.0087767;-0.00856153;0.00247684;0.0251767;0.0322558;0;0.0334625;3.52038;4.41749
335000;336;25.7959;0.0399677;0.00155178;-2.04834;25.7144;0.058218;-0.00754702;0.0538991;-0.803701;0.0109548;-0.400514;-0.312193;0.507933;-7.37522;-0.00108244;0.0010763;0.00382503;0.00405071;-0.00130812;0.00267941;0.282989;3.5337;0.00322616;0.00357255;3.09659;0.322936;38.2432;83.2432;0.0101882;-0.00112135;-0.00676764;0.00888184;0.0038028;0.0182148;0.0192329;0;0.036381;0.00345512;-0.456671;-1.12139;1.21082;-7.30189;-0.000256256;0.000188687;0.00259845;0.00261087;-0.000268673;0.00143977;0.0986185;10.1401;0.0018367;0.0019197;9.71765;0.102906;127.289;172.289;-0.0107091;-0.00029265;0.00893478;-0.00853251;0.00255866;0.0249254;0.034281;0;0.0532074;3.59249;4.42419
336000;337;25.7961;0.0401227;0.0015578;-2.04928;25.7145;0.0578958;-0.00849035;0.0539802;-0.804023;0.0124444;-0.402331;-0.327269;0.518778;-7.39029;-0.000987854;0.00116875;0.00379065;0.00406119;-0.00125839;0.00265979;0.260603;3.83726;0.00321022;0.00354639;3.22728;0.309858;37.2047;82.2047;0.0109972;-0.00102684;-0.00660185;0.00890229;0.00376962;0.0154315;0.0189421;0;0.015854;0.00427121;-0.460089;-1.13473;1.22447;-7.31523;-0.000191757;0.000107408;0.00263879;0.00264286;-0.000195827;0.00141934;0.0726684;13.7611;0.00183068;0.00189246;13.4959;0.0740964;128.678;173.678;-0.0110479;-0.000228129;0.00876808;-0.00852882;0.00260046;0.0260928;0.0348798;0;0.0281361;3.65608;4.4318
337000;338;25.7977;0.041681;0.0016183;-2.04854;25.7161;0.0612339;-0.00775188;0.0555945;-0.800685;0.0138148;-0.409011;-0.314854;0.516347;-7.37788;-0.00106912;0.000890792;0.00396854;0.00412141;-0.001222;0.00267171;0.269399;3.71197;0.00323286;0.00356227;3.37269;0.296499;40.6905;85.6905;0.0103561;-0.00110571;-0.00685356;0.00859623;0.00394554;0.0166596;0.0188684;0;0.0157988;0.00588115;-0.469764;-1.11782;1.21253;-7.29832;-0.000368418;0.000390255;0.00253305;0.00258462;-0.000419992;0.00150231;0.145445;6.87547;0.00187879;0.00200308;6.15398;0.162496;123.913;168.913;-0.011404;-0.00040532;0.00940469;-0.00859812;0.00248901;0.0263898;0.036847;0;0.0235157;3.72335;4.43846
338000;339;25.797;0.0410519;0.00159388;-2.04847;25.7155;0.0572731;-0.00767903;0.0549784;-0.804646;0.0134797;-0.410477;-0.319396;0.520276;-7.38242;-0.00106588;0.000875449;0.00382352;0.00397554;-0.0012179;0.00259672;0.278768;3.58721;0.00313617;0.0034623;3.26426;0.306348;40.4071;85.4071;0.010669;-0.00110123;-0.00673575;0.00844953;0.0038013;0.0168845;0.0190572;0;0.0157532;0.00535649;-0.470377;-1.12909;1.22316;-7.30958;-0.000240102;0.000396647;0.00265632;0.00270966;-0.000293438;0.00150155;0.090389;11.0633;0.00191177;0.00200206;9.23416;0.108294;123.338;168.338;-0.0113832;-0.000275898;0.00928832;-0.00846937;0.00261337;0.0267342;0.0361717;0;0.0231195;3.79032;4.44474
339000;340;25.7982;0.0422051;0.00163865;-2.04883;25.7166;0.0557544;-0.00803768;0.05611;-0.806165;0.0140907;-0.41168;-0.323198;0.52358;-7.38622;-0.000916964;0.0010292;0.00356089;0.00378612;-0.00114219;0.00246415;0.257509;3.88335;0.00297872;0.00328554;3.31479;0.301678;37.6877;82.6877;0.0105671;-0.00095375;-0.00661069;0.00863494;0.00353965;0.0168599;0.0182968;0;0.0161854;0.00600168;-0.472821;-1.13407;1.2287;-7.31456;-0.000340402;0.000476746;0.00275808;0.00282977;-0.000412098;0.00162094;0.12342;8.1024;0.00203782;0.00216125;6.86675;0.145629;122.439;167.439;-0.011285;-0.000375433;0.00936323;-0.00838231;0.00271448;0.0271085;0.0356919;0;0.0233915;3.86971;4.45096
340000;341;25.8003;0.0442908;0.00171963;-2.04917;25.7187;0.0570771;-0.00838464;0.0581718;-0.804842;0.0144122;-0.413978;-0.319475;0.523116;-7.3825;-0.00106167;0.000691525;0.00375456;0.00385189;-0.00115899;0.00250544;0.282767;3.53648;0.00302909;0.00334059;3.32348;0.300889;42.0878;87.0878;0.0104685;-0.00109617;-0.00698465;0.00833083;0.0037305;0.0177457;0.0178188;0;0.0226633;0.00620499;-0.475831;-1.13061;1.22668;-7.3111;-0.000315023;0.000531206;0.0028134;0.00290113;-0.000402762;0.00165195;0.111973;8.93075;0.00208137;0.0022026;7.2031;0.138829;121.577;166.577;-0.0123071;-0.000351418;0.0096375;-0.00854672;0.00276722;0.0282867;0.0360921;0;0.0224181;3.93352;4.4548
341000;342;25.8008;0.0448508;0.00174138;-2.04884;25.7193;0.0559087;-0.00805612;0.0587624;-0.806011;0.0144264;-0.415519;-0.324089;0.527161;-7.38711;-0.000897522;0.000671656;0.00337359;0.00347672;-0.00100065;0.00223869;0.266043;3.75878;0.00271358;0.00298492;3.47445;0.287815;41.0673;86.0673;0.0103197;-0.000930584;-0.0068444;0.00815568;0.00335047;0.0174481;0.0187012;0;0.0155714;0.006129;-0.478626;-1.13605;1.23277;-7.31654;-0.000346758;0.000506815;0.00281731;0.00289651;-0.000425956;0.00166123;0.123081;8.12472;0.00208753;0.00221498;6.80001;0.147059;122.059;167.059;-0.0116816;-0.00038217;0.00947128;-0.00842941;0.00277271;0.0273781;0.0343121;0;0.0250933;3.99837;4.46165
342000;343;25.8027;0.0467648;0.00181569;-2.04858;25.7212;0.0584747;-0.0077895;0.0606979;-0.803445;0.0155291;-0.418184;-0.324845;0.529758;-7.38787;-0.0010231;0.000672703;0.00331621;0.0034181;-0.001125;0.00227155;0.308516;3.24132;0.00273206;0.00302873;3.03832;0.329129;40.9208;85.9208;0.0103913;-0.00105506;-0.00670516;0.00801862;0.00329403;0.0167778;0.0182419;0;0.0155286;0.00758007;-0.48301;-1.13351;1.23215;-7.314;-0.000489048;0.000666001;0.00279526;0.00292517;-0.000618963;0.00177207;0.174956;5.71571;0.00218585;0.00236276;4.72593;0.211599;120.191;165.191;-0.0116452;-0.00052366;0.00970614;-0.00834458;0.00274851;0.0276037;0.0341529;0;0.022599;4.07136;4.46922
343000;344;25.8022;0.0462517;0.00179577;-2.04826;25.7207;0.0549847;-0.00747198;0.0602162;-0.806935;0.0157655;-0.422554;-0.321895;0.53143;-7.38492;-0.00102751;0.000668209;0.0032556;0.00335742;-0.00112934;0.00224338;0.315614;3.16842;0.0026948;0.00299117;2.97291;0.336371;40.7331;85.7331;0.0102696;-0.00105962;-0.00673196;0.00803675;0.00323323;0.0174303;0.0182559;0;0.0160401;0.00817114;-0.48678;-1.13387;1.23397;-7.31436;-0.000459117;0.00064651;0.00303078;0.0031467;-0.000575035;0.00186087;0.151485;6.60132;0.00231342;0.00248115;5.47219;0.182742;120.676;165.676;-0.0123178;-0.000494425;0.00975077;-0.00842612;0.00298359;0.0277388;0.0362968;0;0.0217809;4.13506;4.47659
344000;345;25.8032;0.0472164;0.00183322;-2.04827;25.7217;0.0542013;-0.00748429;0.0611846;-0.807718;0.0158282;-0.422449;-0.327921;0.53502;-7.39095;-0.00106748;0.000567539;0.00300299;0.00308064;-0.00114513;0.00211289;0.355473;2.81315;0.00252361;0.00281718;2.69021;0.371719;41.0782;86.0782;0.0107064;-0.00109839;-0.00677378;0.00787903;0.00298028;0.0159682;0.0188698;0;0.0156833;0.00802626;-0.487989;-1.13988;1.23997;-7.32038;-0.000406465;0.000628715;0.0031225;0.00323117;-0.00051513;0.00187315;0.130173;7.6821;0.00234476;0.00249753;6.27253;0.159425;120.83;165.83;-0.0114399;-0.000442265;0.00977276;-0.00848322;0.0030751;0.0269207;0.0346205;0;0.0229558;4.20386;4.48428
345000;346;25.8047;0.0487322;0.00189207;-2.047;25.7233;0.0515389;-0.00621478;0.0628117;-0.81038;0.0168283;-0.427592;-0.323715;0.536572;-7.38674;-0.00105537;0.000367672;0.00329741;0.00332824;-0.0010862;0.00220722;0.320059;3.12442;0.002656;0.00294297;3.06411;0.326359;44.7146;89.7146;0.0109494;-0.00108412;-0.00688422;0.00758808;0.00327386;0.0164658;0.0177782;0;0.0160633;0.00922712;-0.494262;-1.13662;1.23947;-7.31712;-0.000435081;0.000611951;0.00332884;0.00342584;-0.000532074;0.00197896;0.1307;7.65109;0.00248035;0.00263861;6.43865;0.155312;121.333;166.333;-0.011726;-0.000470616;0.00970861;-0.00845064;0.00328206;0.0271184;0.0367903;0;0.0201552;4.28084;4.49125
346000;347;25.8052;0.0492773;0.00191324;-2.04784;25.7238;0.0546107;-0.00704661;0.063286;-0.807309;0.0178439;-0.431259;-0.319434;0.536974;-7.38246;-0.00097846;0.000210797;0.00332978;0.00334007;-0.000988749;0.00216441;0.293852;3.40308;0.00261926;0.00288588;3.37807;0.296027;46.922;91.922;0.0104654;-0.00100612;-0.00704698;0.0074374;0.00330505;0.0162001;0.0173484;0;0.0189073;0.0103439;-0.498716;-1.13045;1.23561;-7.31094;-0.000517512;0.000535279;0.00322926;0.00330423;-0.000592484;0.00194836;0.160257;6.23997;0.00242457;0.00259781;5.57691;0.179311;122.68;167.68;-0.0120238;-0.000554364;0.00970428;-0.00859953;0.00318247;0.0274402;0.036929;0;0.0209052;4.34057;4.49821
347000;348;25.8078;0.0518426;0.00201284;-2.04822;25.7264;0.0531757;-0.00742828;0.0658321;-0.808744;0.0173437;-0.431907;-0.323855;0.540118;-7.38688;-0.000993921;0.000415617;0.00357694;0.00361442;-0.0010314;0.00232291;0.277869;3.59882;0.00281707;0.00309722;3.50437;0.285358;45.0419;90.0419;0.0108469;-0.00102269;-0.00679409;0.00759247;0.00355403;0.0154762;0.0185683;0;0.0231851;0.00890388;-0.501676;-1.13359;1.23967;-7.31408;-0.000483444;0.000442232;0.00342647;0.00347587;-0.000532838;0.00200435;0.141091;7.08764;0.00251375;0.00267247;6.52331;0.153296;123.941;168.941;-0.0125359;-0.000521427;0.00964519;-0.00872491;0.00338021;0.0286895;0.0356121;0;0.0215092;4.40641;4.50572
348000;349;25.8088;0.052849;0.00205191;-2.04706;25.7275;0.048699;-0.00627051;0.0669427;-0.81322;0.0166019;-0.437613;-0.314625;0.539231;-7.37765;-0.00100382;0.000463274;0.00347958;0.00352695;-0.00105119;0.00228907;0.288489;3.46633;0.00276903;0.0030521;3.35519;0.298046;44.1145;89.1145;0.010807;-0.00103335;-0.00680073;0.0076948;0.00345664;0.0161965;0.0176027;0;0.0408264;0.00993722;-0.507327;-1.12819;1.23705;-7.30485;-0.000458947;0.000457326;0.00324047;0.00329617;-0.000514644;0.0019054;0.14163;7.06066;0.00238755;0.00254054;6.40475;0.156134;123.538;168.538;-0.0120843;-0.0004953;0.00948487;-0.00853697;0.00319574;0.0275966;0.0380168;0;0.0188564;4.46783;4.51158
349000;350;25.8113;0.0553524;0.00214911;-2.04804;25.7299;0.0443374;-0.00724983;0.069384;-0.817582;0.0186535;-0.435297;-0.324662;0.543357;-7.38769;-0.00092642;0.000692918;0.00350702;0.00361279;-0.0010322;0.00232249;0.264162;3.78556;0.00281636;0.00309666;3.5001;0.285706;41.4437;86.4437;0.0110909;-0.00095798;-0.00661773;0.00797123;0.00348543;0.0142705;0.0183078;0;0.0250885;0.0109291;-0.507673;-1.14079;1.2487;-7.32128;-0.00053331;0.000421271;0.00337706;0.00342193;-0.000578179;0.00200005;0.157921;6.33226;0.00249643;0.00266674;5.91846;0.168963;124.305;169.305;-0.0121501;-0.000569978;0.00944929;-0.00857159;0.00333265;0.0285799;0.0380953;0;0.0229273;4.55548;4.51892
350000;351;25.8121;0.0561096;0.00217851;-2.04759;25.7307;0.0455279;-0.00680297;0.070177;-0.816391;0.0185737;-0.437017;-0.330522;0.548246;-7.39355;-0.000933929;0.000888037;0.0040577;0.00421098;-0.00108721;0.00264909;0.230162;4.34477;0.00323128;0.00353213;3.8732;0.258184;41.379;86.379;0.0112948;-0.000966685;-0.00639888;0.00813868;0.0040377;0.0135957;0.0185195;0;0.029283;0.0114605;-0.510218;-1.14751;1.25588;-7.32417;-0.000611896;0.000538392;0.00331883;0.00339124;-0.000684306;0.00203777;0.184371;5.42385;0.00252009;0.00271703;4.95574;0.201786;122.915;167.915;-0.0117705;-0.000647096;0.00951691;-0.00840499;0.00327384;0.0284126;0.0392023;0;0.0247825;4.61492;4.525
351000;352;25.8132;0.057271;0.0022236;-2.04777;25.7318;0.0453183;-0.00698476;0.071328;-0.816601;0.0181478;-0.440236;-0.331424;0.551343;-7.39445;-0.000996748;0.000987549;0.00438158;0.00455718;-0.00117234;0.00286476;0.227486;4.39588;0.00349507;0.00381968;3.88724;0.257252;41.3798;86.3798;0.0108545;-0.00103223;-0.00654283;0.00847755;0.00436076;0.0144325;0.0175316;0;0.019648;0.0108973;-0.515369;-1.14673;1.25727;-7.32339;-0.000554277;0.000461147;0.00326828;0.00332313;-0.000609122;0.00196613;0.169593;5.89648;0.0024439;0.0026215;5.4556;0.183298;123.687;168.687;-0.0112947;-0.000588486;0.00923769;-0.008282;0.00322586;0.0274099;0.0400825;0;0.0265563;4.6792;4.5278
352000;353;25.8163;0.0602841;0.00234059;-2.04754;25.7349;0.0537901;-0.00675631;0.0743524;-0.808129;0.0202443;-0.444678;-0.323383;0.550204;-7.38641;-0.0011197;0.000982035;0.00457288;0.00473753;-0.00128435;0.00301094;0.244858;4.084;0.00366232;0.00401459;3.68864;0.271102;42.1669;87.1669;0.0113037;-0.00115415;-0.00643092;0.00835293;0.00455277;0.0134231;0.0169759;0;0.0212622;0.0136079;-0.521751;-1.13602;1.25018;-7.31651;-0.000660835;0.000385207;0.00337713;0.00341355;-0.000697254;0.0020554;0.19568;5.1104;0.00254022;0.00274053;4.8957;0.204261;125.171;170.171;-0.012595;-0.000697623;0.0093901;-0.00858348;0.00333326;0.0295431;0.0422567;0;0.0220904;4.75056;4.53549
353000;354;25.8155;0.0595745;0.00231303;-2.04837;25.7341;0.0443117;-0.00758629;0.0735926;-0.817608;0.0182774;-0.445381;-0.330002;0.554617;-7.39303;-0.000950088;0.00109212;0.00499568;0.00518993;-0.00114434;0.00316714;0.190182;5.25812;0.00389781;0.00422285;4.5353;0.220493;42.5241;87.5241;0.0109096;-0.000986718;-0.00648513;0.00862447;0.00497535;0.0145723;0.0173608;0;0.0310792;0.0113118;-0.523292;-1.14797;1.26167;-7.32847;-0.000703073;0.000478112;0.00351693;0.00357042;-0.000756564;0.00216349;0.199911;5.00223;0.00266846;0.00288466;4.71926;0.211898;124.034;169.034;-0.0121648;-0.000738985;0.00947935;-0.00848531;0.00347227;0.0290022;0.0393673;0;0.0307502;4.81662;4.54204
354000;355;25.8187;0.0627005;0.00243441;-2.04761;25.7373;0.051323;-0.00682641;0.076776;-0.810596;0.0193068;-0.44802;-0.326824;0.554895;-7.38985;-0.000935508;0.000954512;0.00496148;0.00511214;-0.00108616;0.00309915;0.188554;5.30352;0.00382194;0.0041322;4.70661;0.212467;43.4686;88.4686;0.0110654;-0.000972387;-0.00677342;0.00863704;0.00493911;0.0141441;0.0175941;0;0.020925;0.0126613;-0.526602;-1.14472;1.2601;-7.32521;-0.000841174;0.000548515;0.00340576;0.00347546;-0.000910873;0.00219317;0.246985;4.04883;0.00267285;0.00292423;3.81553;0.262087;123.586;168.586;-0.0123818;-0.000876868;0.00959864;-0.00846335;0.00336;0.0301688;0.0388665;0;0.0259975;4.87528;4.54926
355000;356;25.8189;0.0629468;0.00244397;-2.04724;25.7376;0.0453897;-0.00645117;0.0770641;-0.81653;0.0203374;-0.449762;-0.327429;0.556694;-7.39045;-0.000806592;0.00119844;0.00508153;0.00531611;-0.00104117;0.00317864;0.15873;6.30001;0.00393729;0.00423819;5.1059;0.195852;41.7694;86.7694;0.0107315;-0.000845585;-0.00655692;0.0089083;0.00506086;0.0150281;0.016871;0;0.0295203;0.0138176;-0.529873;-1.14619;1.26282;-7.32285;-0.00102085;0.000727497;0.00332831;0.00344677;-0.00113932;0.00229304;0.306718;3.26033;0.00275723;0.00305739;3.0253;0.330546;121.905;166.905;-0.011751;-0.00105338;0.00958767;-0.00809433;0.00328276;0.0299552;0.0397572;0;0.0409374;4.95559;4.5565
356000;357;25.8211;0.0651618;0.00252997;-2.0475;25.7398;0.0512878;-0.00671211;0.0792542;-0.810632;0.0196839;-0.45119;-0.333947;0.561676;-7.39697;-0.000935279;0.00123092;0.00538895;0.00562008;-0.00116641;0.00339325;0.173555;5.76186;0.00419;0.00452433;4.81826;0.207544;42.4822;87.4822;0.0111102;-0.000974831;-0.0065619;0.00897465;0.00536829;0.0149384;0.0168233;0;0.0189167;0.0131478;-0.532865;-1.15276;1.27003;-7.33326;-0.00106308;0.000697603;0.00362705;0.00372861;-0.00116464;0.00244662;0.293097;3.41184;0.00295157;0.00326217;3.20152;0.312352;122.582;167.582;-0.0127257;-0.00109814;0.00983629;-0.00839843;0.00357909;0.0306721;0.0373372;0;0.0249143;5.01934;4.56454
357000;358;25.821;0.0650698;0.0025264;-2.04656;25.7398;0.0496786;-0.00576968;0.0792401;-0.812241;0.0203166;-0.453266;-0.334676;0.5638;-7.3977;-0.00093121;0.00132758;0.00521946;0.00549378;-0.00120553;0.00334965;0.178411;5.60503;0.00412352;0.0044662;4.55716;0.219435;41.0475;86.0475;0.0110284;-0.000972626;-0.00658657;0.00919322;0.00519876;0.0144179;0.0174519;0;0.0190332;0.0141015;-0.535662;-1.15474;1.27301;-7.3314;-0.00105132;0.000761597;0.00347261;0.00359738;-0.00117609;0.00238674;0.302746;3.3031;0.00287172;0.00318232;3.05876;0.326929;121.794;166.794;-0.0119351;-0.00108608;0.00993223;-0.00836776;0.00342375;0.0308133;0.0383703;0;0.0289814;5.09293;4.57149
358000;359;25.8228;0.0668789;0.00259664;-2.04713;25.7415;0.0564395;-0.00633753;0.0809958;-0.80548;0.0211177;-0.45594;-0.332692;0.564811;-7.39572;-0.00104639;0.00144419;0.00570222;0.00599829;-0.00134245;0.00367037;0.183505;5.44945;0.00451339;0.00489383;4.46816;0.223806;41.6986;86.6986;0.0111382;-0.00108925;-0.00653157;0.00936635;0.00568205;0.0142907;0.0169062;0;0.0211243;0.0151303;-0.539391;-1.1519;1.27202;-7.32856;-0.00100404;0.000677851;0.0035723;0.0036706;-0.00110234;0.00238647;0.281063;3.55792;0.00288557;0.00318195;3.32984;0.300315;122.607;167.607;-0.0118579;-0.00103926;0.00981329;-0.00841599;0.00352455;0.0308885;0.0390616;0;0.0286908;5.14892;4.57882
359000;360;25.8233;0.0673311;0.00261419;-2.04649;25.742;0.0539462;-0.00570438;0.0815051;-0.807973;0.021502;-0.458629;-0.331662;0.566395;-7.39469;-0.00111751;0.0012817;0.00542669;0.00566876;-0.00135958;0.00351417;0.205929;4.85605;0.00430454;0.00468556;4.16949;0.239837;42.0565;87.0565;0.0107465;-0.00115862;-0.0066404;0.00915215;0.00540558;0.0161386;0.0175249;0;0.0217343;0.0154076;-0.542878;-1.15109;1.27278;-7.33158;-0.00114573;0.000622698;0.00384046;0.00391705;-0.00122232;0.00256968;0.298331;3.35198;0.00310019;0.00342624;3.20461;0.312051;123.781;168.781;-0.0129326;-0.00118408;0.0100671;-0.00877488;0.00379017;0.0309602;0.0370984;0;0.0250393;5.21596;4.58511
360000;361;25.8232;0.0672209;0.00260992;-2.04565;25.742;0.0508292;-0.00485806;0.0814682;-0.81109;0.0212762;-0.461338;-0.332986;0.569355;-7.39601;-0.00116408;0.00121361;0.00529239;0.00551298;-0.00138467;0.00344882;0.219954;4.54641;0.00421341;0.00459843;3.98145;0.251165;42.0441;87.0441;0.0107318;-0.00120571;-0.00682361;0.00919914;0.00526997;0.0152393;0.0172317;0;0.0234637;0.0156678;-0.54634;-1.15482;1.27763;-7.33531;-0.00114652;0.000607613;0.00398238;0.00405338;-0.00121752;0.00263545;0.287899;3.47344;0.0031866;0.00351394;3.3292;0.300372;124.025;169.025;-0.0132524;-0.00118726;0.0103063;-0.00904155;0.00392967;0.032269;0.0379762;0;0.0256457;5.29374;4.59295
361000;362;25.8226;0.0666766;0.00258878;-2.04502;25.7415;0.0451179;-0.0042297;0.0809827;-0.816801;0.0212556;-0.465824;-0.330241;0.571405;-7.39327;-0.00118793;0.00106201;0.00533821;0.00550668;-0.0013564;0.00343154;0.222533;4.49372;0.00419696;0.00457538;4.05978;0.246319;43.5645;88.5645;0.010617;-0.00122635;-0.00675145;0.00882468;0.0053161;0.0158861;0.0177576;0;0.0260262;0.0155337;-0.550779;-1.15418;1.27896;-7.33467;-0.00112514;0.000558483;0.00409394;0.00415303;-0.00118423;0.00266863;0.274831;3.6386;0.00323648;0.00355818;3.50694;0.285149;124.338;169.338;-0.012893;-0.00116396;0.0099894;-0.00882346;0.0040444;0.031483;0.0389723;0;0.0231597;5.36447;4.59798
362000;363;25.8255;0.0695571;0.00270062;-2.04512;25.7444;0.0471008;-0.00432686;0.083861;-0.814819;0.0217619;-0.465546;-0.33422;0.573507;-7.39724;-0.00114879;0.00110603;0.00539673;0.00557857;-0.00133062;0.0034546;0.212867;4.69777;0.00423288;0.00460613;4.19244;0.238524;43.2867;88.2867;0.0106962;-0.00118876;-0.00684418;0.0090044;0.00537404;0.0164052;0.0173963;0;0.016207;0.0161397;-0.552354;-1.15868;1.2837;-7.33917;-0.00128911;0.000428905;0.00430304;0.00433575;-0.00132181;0.00282878;0.29958;3.338;0.0034174;0.00377171;3.28016;0.304864;126.026;171.026;-0.0133359;-0.00133061;0.0100266;-0.0091154;0.00425308;0.0325097;0.0387894;0;0.0182735;5.42064;4.60083
363000;364;25.8268;0.0708302;0.00275005;-2.04477;25.7457;0.0404326;-0.0039834;0.0851768;-0.821487;0.0224527;-0.468904;-0.334009;0.57614;-7.39703;-0.00110505;0.00105387;0.00495191;0.00513004;-0.00128317;0.00320661;0.223156;4.48118;0.00391842;0.00427547;3.99793;0.25013;42.4098;87.4098;0.0105042;-0.00114395;-0.00681845;0.00887869;0.00492933;0.0172371;0.0172783;0;0.0259467;0.0171407;-0.557312;-1.15914;1.28627;-7.3358;-0.00120139;0.00033653;0.00422486;0.00424566;-0.00122218;0.00273392;0.284361;3.51666;0.00331383;0.00364522;3.47385;0.287865;126.767;171.767;-0.012547;-0.00124239;0.00978085;-0.00905679;0.00417729;0.0314774;0.0397724;0;0.0180284;5.49958;4.60862
364000;365;25.8272;0.0712733;0.00276726;-2.04472;25.7461;0.0418393;-0.003931;0.0856232;-0.82008;0.0224447;-0.473514;-0.329452;0.577285;-7.39248;-0.00119656;0.000755438;0.00499936;0.00509013;-0.00128733;0.00318873;0.239342;4.17812;0.00389412;0.00425165;3.95401;0.252908;45.2048;90.2048;0.0100903;-0.00123181;-0.00696236;0.00842561;0.00497552;0.0176751;0.0172402;0;0.0204694;0.016991;-0.562692;-1.15524;1.28511;-7.33574;-0.00129918;0.000286041;0.00432346;0.00433798;-0.0013137;0.00282584;0.300496;3.32783;0.00341517;0.00376778;3.30212;0.302836;127.327;172.327;-0.0134296;-0.00133931;0.00958117;-0.00895707;0.0042778;0.0328307;0.0387127;0;0.0210352;5.56531;4.61521
365000;366;25.8285;0.0725787;0.00281794;-2.0455;25.7474;0.039615;-0.0047128;0.086874;-0.822304;0.0226388;-0.475085;-0.330238;0.57903;-7.39326;-0.00111193;0.00060397;0.00503308;0.00509188;-0.00117073;0.0031313;0.220924;4.52644;0.00384471;0.00417507;4.34933;0.229921;46.7725;91.7725;0.0106668;-0.00114538;-0.00703613;0.00819732;0.00500863;0.0175996;0.0175004;0;0.0171667;0.0173698;-0.565789;-1.15618;1.28731;-7.33284;-0.00127631;0.000328606;0.00422711;0.00424666;-0.00129586;0.00277126;0.301935;3.31198;0.00334773;0.00369502;3.27709;0.305148;126.862;171.862;-0.012748;-0.00131465;0.009464;-0.00875675;0.00418257;0.032866;0.0403215;0;0.0300319;5.6247;4.62316
366000;367;25.8309;0.0748809;0.00290732;-2.0441;25.7498;0.0386599;-0.00330952;0.0892964;-0.823259;0.0224804;-0.47781;-0.331757;0.582126;-7.39478;-0.0011405;0.00071243;0.00453976;0.00462776;-0.0012285;0.00292813;0.251225;3.98049;0.00356592;0.00390417;3.76701;0.265462;44.3534;89.3534;0.0105022;-0.0011749;-0.00693784;0.0083194;0.00451606;0.0174245;0.0167808;0;0.0291185;0.0175484;-0.569524;-1.16099;1.29327;-7.33764;-0.00140388;0.000230591;0.00416951;0.00417904;-0.0014134;0.00279622;0.336701;2.96999;0.00335783;0.00372829;2.95672;0.338213;128.219;173.219;-0.0126527;-0.00144376;0.00944004;-0.00892776;0.00412517;0.0329343;0.0419599;0;0.0217672;5.69337;4.62994
367000;368;25.8329;0.0768937;0.00298547;-2.04403;25.7518;0.0377536;-0.0032413;0.0913223;-0.824166;0.0226497;-0.481097;-0.331045;0.58443;-7.39407;-0.00117876;0.000472808;0.00435133;0.00439146;-0.00121889;0.00280518;0.270896;3.69145;0.0034074;0.00374024;3.60283;0.27756;46.2069;91.2069;0.0105176;-0.00121056;-0.00708013;0.00798413;0.00432648;0.0167747;0.0168688;0;0.0310249;0.0178383;-0.574543;-1.161;1.29551;-7.33766;-0.00136177;0.000158565;0.00426569;0.00427015;-0.00136623;0.00281819;0.319237;3.13247;0.00339508;0.00375759;3.1255;0.319949;128.688;173.688;-0.0128618;-0.00140094;0.00921452;-0.00884666;0.00422342;0.0337962;0.0412281;0;0.0229377;5.76534;4.63746
368000;369;25.835;0.0790474;0.00306909;-2.04426;25.754;0.0367033;-0.00347624;0.0934657;-0.825216;0.0233309;-0.481953;-0.332241;0.585839;-7.39527;-0.00114487;0.000504294;0.00414591;0.00419355;-0.0011925;0.00269303;0.276144;3.6213;0.00326658;0.0035907;3.51659;0.284367;45.316;90.316;0.0103084;-0.00117728;-0.00709393;0.00806245;0.00412098;0.0169162;0.0164546;0;0.02367;0.0185769;-0.577246;-1.16324;1.29873;-7.3399;-0.00158798;0.000195231;0.0043029;0.00430936;-0.00159444;0.0029519;0.369048;2.70967;0.00352665;0.00393587;2.70274;0.369995;128.768;173.768;-0.0123784;-0.00162822;0.00941066;-0.00896616;0.00425883;0.033794;0.041521;0;0.0220905;5.82558;4.64499
369000;370;25.8361;0.0801777;0.00311298;-2.04385;25.7552;0.0353072;-0.00305915;0.0946346;-0.826612;0.024656;-0.481846;-0.338362;0.589298;-7.40139;-0.00117225;0.000536114;0.00388885;0.00394502;-0.00122842;0.00258672;0.301439;3.31742;0.00312114;0.00344896;3.21146;0.311385;44.2846;89.2846;0.0101284;-0.00120402;-0.00694921;0.00798367;0.00386494;0.0184791;0.017435;0;0.0292952;0.020526;-0.577765;-1.17265;1.30742;-7.34931;-0.00183231;0.000251612;0.00422415;0.00423459;-0.00184274;0.00303866;0.433769;2.30537;0.00359819;0.00405155;2.29798;0.435165;128.841;173.841;-0.0126772;-0.0018734;0.00962031;-0.00906061;0.0041781;0.0360174;0.0408205;0;0.0241358;5.88212;4.65238
370000;371;25.8368;0.0807904;0.00313676;-2.04414;25.7557;0.034486;-0.00335133;0.0952271;-0.827433;0.0249915;-0.484451;-0.340929;0.592917;-7.40395;-0.00112418;0.0002778;0.00367597;0.003692;-0.0011402;0.0024161;0.305818;3.26991;0.00291666;0.00322147;3.23801;0.308831;46.6652;91.6652;0.0102464;-0.00115392;-0.00719374;0.00771359;0.00365023;0.0176477;0.0183377;0;0.0349527;0.0205364;-0.582003;-1.1751;1.31149;-7.35176;-0.00196138;0.000438577;0.00408108;0.00411274;-0.00199305;0.00305289;0.480604;2.08072;0.00359529;0.00407053;2.06355;0.484603;127.529;172.529;-0.0127801;-0.00200157;0.00990128;-0.00896722;0.00403235;0.0362607;0.040232;0;0.034683;5.95533;4.65937
371000;372;25.8385;0.0825598;0.00320546;-2.04392;25.7575;0.0353688;-0.00313185;0.0970183;-0.82655;0.0251373;-0.487234;-0.33658;0.592718;-7.3996;-0.00119752;0.000297315;0.00403733;0.00405416;-0.00121435;0.00263426;0.296613;3.3714;0.00318566;0.00351234;3.33853;0.299533;47.2986;92.2986;0.0111137;-0.00122701;-0.00712426;0.00768018;0.00401209;0.016088;0.0182219;0;0.0381496;0.0210047;-0.585913;-1.17272;1.31111;-7.34938;-0.00197909;0.000375775;0.00411651;0.00413958;-0.00200216;0.00307087;0.480768;2.08;0.00361681;0.0040945;2.06756;0.483663;128.143;173.143;-0.0125485;-0.00202058;0.0099175;-0.00910806;0.0040676;0.0360475;0.0386941;0;0.0474215;6.01836;4.66652
372000;373;25.8379;0.081959;0.00318214;-2.04347;25.757;0.0302451;-0.00268305;0.0964577;-0.831674;0.0250597;-0.48932;-0.338789;0.595685;-7.40181;-0.00103025;0.000447326;0.00397544;0.0040151;-0.00106991;0.00254251;0.259153;3.85872;0.00309563;0.00339001;3.75275;0.266471;45.6677;90.6677;0.0107767;-0.00106086;-0.00697518;0.0078328;0.00395131;0.016103;0.0184475;0;0.0240943;0.0206958;-0.589329;-1.17497;1.31464;-7.35546;-0.0019688;0.00034019;0.00442267;0.00444072;-0.00198686;0.00321379;0.445161;2.24638;0.00380004;0.00428505;2.23505;0.447417;128.235;173.235;-0.0130807;-0.00201283;0.0101229;-0.00938032;0.00437171;0.0363885;0.0354694;0;0.0332146;6.08114;4.67005
373000;374;25.8402;0.0841877;0.00326867;-2.04324;25.7592;0.0310441;-0.00245424;0.0987106;-0.830875;0.0247904;-0.492125;-0.338164;0.597626;-7.40119;-0.00106981;0.000329525;0.0042734;0.00429365;-0.00109006;0.00269185;0.250342;3.99453;0.0032866;0.00358914;3.93891;0.253877;47.6592;92.6592;0.0110378;-0.00109993;-0.00714457;0.00776384;0.00424804;0.0163452;0.0193037;0;0.0249237;0.0206613;-0.592747;-1.17609;1.31718;-7.35658;-0.00196751;0.000378335;0.00448753;0.00450963;-0.00198961;0.00324962;0.438439;2.28082;0.00384521;0.00433282;2.26659;0.441191;127.846;172.846;-0.0131287;-0.00201146;0.0101943;-0.00937459;0.00443587;0.0358734;0.0372413;0;0.0331342;6.14413;4.67669
374000;375;25.8408;0.0848601;0.00329477;-2.04386;25.7599;0.0316447;-0.00306652;0.0993359;-0.830275;0.0252065;-0.495272;-0.336049;0.599048;-7.39907;-0.00106406;0.00045659;0.00422426;0.0042634;-0.00110319;0.0026833;0.251893;3.96994;0.00327258;0.00357773;3.86459;0.258759;46.2353;91.2353;0.0109889;-0.00109473;-0.0069669;0.00784096;0.0042002;0.0162833;0.019659;0;0.0199069;0.0212153;-0.596807;-1.17427;1.3174;-7.35476;-0.00193804;0.000198316;0.0045488;0.00455486;-0.0019441;0.00324948;0.426056;2.34711;0.00385177;0.00433264;2.34291;0.426819;129.359;174.359;-0.0127731;-0.00198508;0.0101531;-0.00969224;0.00449751;0.0359539;0.036393;0;0.0294987;6.20116;4.6821
375000;376;25.8424;0.0864114;0.00335501;-2.04344;25.7614;0.0281956;-0.00264868;0.100929;-0.833724;0.0255383;-0.497288;-0.339053;0.602415;-7.40208;-0.00107551;0.000573834;0.00453282;0.00459093;-0.00113362;0.00286228;0.237272;4.21457;0.00350023;0.00381637;4.04978;0.246927;45.8262;90.8262;0.0108459;-0.00110774;-0.00693919;0.00804488;0.00450902;0.0157064;0.018969;0;0.0228686;0.0218055;-0.599549;-1.17953;1.32334;-7.36002;-0.00198241;0.000179123;0.00470919;0.00471398;-0.00198721;0.00335059;0.420967;2.37548;0.00397427;0.00446746;2.37217;0.421556;129.441;174.441;-0.0126484;-0.00203042;0.0102157;-0.00979063;0.00465727;0.0350603;0.0370292;0;0.0290494;6.25713;4.68912
376000;377;25.8425;0.0864916;0.00335812;-2.04225;25.7616;0.0240448;-0.00146388;0.101108;-0.837874;0.0262916;-0.499983;-0.340334;0.605393;-7.40336;-0.000934598;0.000527246;0.00476864;0.00481697;-0.000982931;0.00289995;0.195989;5.10234;0.00358417;0.0038666;4.90062;0.204056;46.9257;91.9257;0.0109301;-0.00096762;-0.0071289;0.00813991;0.00474349;0.0155648;0.0189456;0;0.0196137;0.0229453;-0.603096;-1.18249;1.32761;-7.36299;-0.00198803;0.000123201;0.00490288;0.00490509;-0.00199023;0.00344766;0.405482;2.4662;0.00409787;0.00459688;2.46458;0.405748;129.716;174.716;-0.012573;-0.00203735;0.0102386;-0.0099228;0.00485073;0.0344364;0.0363281;0;0.0230525;6.3045;4.69655
377000;378;25.8423;0.0863366;0.0033521;-2.04262;25.7614;0.0160608;-0.00182971;0.10093;-0.845858;0.0272883;-0.50455;-0.338872;0.608399;-7.4019;-0.00104454;0.000637957;0.00540157;0.0054641;-0.00110708;0.00328559;0.193378;5.17122;0.00406236;0.00438079;4.93562;0.202609;47.3866;92.3866;0.0102419;-0.00107921;-0.00712053;0.00834666;0.00537656;0.0162333;0.0190516;0;0.0196684;0.0242562;-0.608284;-1.18397;1.3313;-7.36446;-0.00195209;-1.4552e-05;0.00520432;0.00520435;-0.00195212;0.00357823;0.37509;2.66603;0.00427164;0.00477098;2.666;0.375094;130.216;175.216;-0.0122926;-0.00199903;0.00972027;-0.00968007;0.00515732;0.0351094;0.035896;0;0.0209435;6.3629;4.70424
378000;379;25.8434;0.0873901;0.003393;-2.04286;25.7625;0.0131376;-0.00207524;0.101969;-0.848782;0.0280796;-0.507807;-0.338315;0.61083;-7.40134;-0.00109916;0.000747356;0.00523069;0.00531773;-0.0011862;0.00325197;0.210137;4.75881;0.00399963;0.00433596;4.48299;0.223065;45.8791;90.8791;0.0105689;-0.00113537;-0.00709223;0.00853753;0.00520595;0.0164241;0.0195953;0;0.0208327;0.0250702;-0.612638;-1.18529;1.33449;-7.36579;-0.00173898;-0.000122266;0.00540778;0.00540987;-0.00174108;0.00357547;0.321571;3.10973;0.00430591;0.0047673;3.1072;0.321833;130.459;175.459;-0.0124265;-0.00178653;0.00956789;-0.00974353;0.00536226;0.0349331;0.0353687;0;0.02281;6.41311;4.71199
379000;380;25.8452;0.0892011;0.00346332;-2.04308;25.7643;0.0105423;-0.00229372;0.103769;-0.851377;0.0288868;-0.510589;-0.338042;0.613032;-7.40107;-0.0011816;0.000790734;0.00528336;0.00537867;-0.00127691;0.00332779;0.223645;4.47137;0.0040786;0.00443705;4.21226;0.237402;45.4558;90.4558;0.0108247;-0.00121956;-0.00721376;0.0087437;0.00525779;0.0164565;0.0191657;0;0.0210556;0.0263321;-0.61673;-1.18729;1.33817;-7.36778;-0.00175103;-0.000212582;0.00527022;0.00527665;-0.00175746;0.00351705;0.332249;3.00979;0.00422717;0.00468941;3.00243;0.333063;131.251;176.251;-0.0121461;-0.00179625;0.00914401;-0.00950381;0.00522865;0.0338533;0.0357079;0;0.0278057;6.45599;4.71828
380000;381;25.8458;0.08984;0.00348812;-2.04353;25.7649;0.0109439;-0.00274024;0.104374;-0.850975;0.0303702;-0.514147;-0.337721;0.615893;-7.40075;-0.00114952;0.000777191;0.00509604;0.0051913;-0.00124478;0.00321804;0.22557;4.43321;0.00394186;0.00429072;4.17047;0.239781;45.0893;90.0893;0.0108173;-0.00118726;-0.00721312;0.00871781;0.00507046;0.0165924;0.0202308;0;0.0177616;0.0276314;-0.620776;-1.19074;1.34313;-7.37123;-0.00181662;-0.000125557;0.00520856;0.0052108;-0.00181886;0.00351483;0.348776;2.86717;0.00421312;0.00468644;2.86487;0.349056;130.667;175.667;-0.0118581;-0.0018599;0.00910932;-0.00929589;0.00516729;0.0344652;0.0367916;0;0.0375219;6.52422;4.7255
381000;382;25.8464;0.0903811;0.00350913;-2.04204;25.7656;0.0101322;-0.00124666;0.105036;-0.851787;0.0308337;-0.51592;-0.342492;0.62002;-7.40552;-0.00138667;0.000805398;0.00510364;0.00520209;-0.00148512;0.00334361;0.271703;3.68049;0.00405479;0.00445814;3.5028;0.285486;44.5758;89.5758;0.0102665;-0.00142627;-0.00737116;0.0089291;0.00507693;0.0180409;0.0191208;0;0.0193107;0.0284802;-0.623655;-1.19807;1.35097;-7.37856;-0.00141567;-0.000148815;0.00524142;0.00524474;-0.00141899;0.00333187;0.270092;3.70244;0.00405315;0.00444249;3.69611;0.270555;130.123;175.123;-0.0121021;-0.00145696;0.00884478;-0.00908284;0.00520252;0.0349471;0.0402088;0;0.0337332;6.5568;4.73201
382000;383;25.8486;0.0926229;0.00359617;-2.04366;25.7677;0.0159436;-0.00287062;0.107153;-0.845976;0.0312645;-0.520486;-0.340985;0.62302;-7.40401;-0.00122828;0.000825033;0.00487374;0.00498332;-0.00133787;0.00316059;0.252021;3.96793;0.00384652;0.00421413;3.72483;0.268469;43.8681;88.8681;0.010044;-0.00126794;-0.00733803;0.00893847;0.00484729;0.0186163;0.0208;0;0.0178855;0.028814;-0.629985;-1.19603;1.35211;-7.37652;-0.00146203;-0.000174347;0.00519532;0.00519988;-0.00146659;0.00333324;0.281413;3.5535;0.00404507;0.00444432;3.54556;0.282043;130.442;175.442;-0.0115654;-0.00150296;0.00875283;-0.00904238;0.00515723;0.033977;0.0385093;0;0.0273905;6.60394;4.73934
383000;384;25.8483;0.0923779;0.00358666;-2.04178;25.7676;0.0134743;-0.000988679;0.107058;-0.848445;0.0316033;-0.523155;-0.340294;0.624892;-7.40332;-0.00135019;0.000730901;0.00497919;0.0050625;-0.0014335;0.003248;0.271168;3.68776;0.00394072;0.00433066;3.53156;0.283161;44.9497;89.9497;0.0102819;-0.00138854;-0.00737096;0.00878168;0.00495242;0.0192667;0.0201006;0;0.0172579;0.0292871;-0.632862;-1.19793;1.35514;-7.37843;-0.00148106;-0.000137975;0.00507744;0.00508035;-0.00148396;0.00328215;0.291694;3.42825;0.00397498;0.0043762;3.4235;0.292098;130.344;175.344;-0.0119877;-0.00152144;0.00876313;-0.00898099;0.00503925;0.0338951;0.0390735;0;0.0260589;6.63508;4.74331
384000;385;25.8484;0.092425;0.00358849;-2.04256;25.7676;0.00980469;-0.00177325;0.107045;-0.852115;0.0332061;-0.525907;-0.343707;0.629138;-7.40673;-0.00145375;0.000423065;0.00437363;0.00440419;-0.00148431;0.00294425;0.33239;3.00851;0.0035363;0.00392566;2.96717;0.337021;46.0729;91.0729;0.0103881;-0.00149018;-0.00774118;0.00853992;0.00434389;0.0194277;0.0219315;0;0.0166922;0.0308233;-0.636673;-1.20238;1.36089;-7.38287;-0.00138573;-6.46881e-05;0.00488282;0.00488349;-0.0013864;0.00313494;0.283798;3.52364;0.00380298;0.00417993;3.52242;0.283896;129.689;174.689;-0.0112136;-0.00142271;0.00851751;-0.00859334;0.00484672;0.0315234;0.0348761;0;0.0257119;6.68881;4.75165
385000;386;25.8484;0.0924523;0.00358955;-2.04156;25.7677;0.0081937;-0.00076706;0.107152;-0.853726;0.0334365;-0.529303;-0.346662;0.633604;-7.40969;-0.00161108;0.000348951;0.00409994;0.00412118;-0.00163232;0.00287675;0.392952;2.54484;0.00342382;0.00383567;2.52474;0.396081;46.0556;91.0556;0.00944922;-0.00164572;-0.00767159;0.00832386;0.00407069;0.021661;0.0220061;0;0.0196766;0.0314413;-0.640553;-1.2068;1.36662;-7.38729;-0.00140754;6.4274e-05;0.00473235;0.00473303;-0.00140821;0.00307062;0.297429;3.36215;0.00371482;0.00409416;3.36102;0.297528;128.772;173.772;-0.0110771;-0.00144337;0.00864021;-0.00845926;0.0046952;0.0319318;0.0347534;0;0.0364626;6.71733;4.75707
386000;387;25.8481;0.0921624;0.00357829;-2.04095;25.7674;0.00617386;-0.000158189;0.10691;-0.855745;0.0343298;-0.531;-0.347742;0.63566;-7.41077;-0.00152046;4.96454e-05;0.00378742;0.00378788;-0.00152093;0.0026544;0.401451;2.49097;0.00315682;0.00353921;2.49051;0.401524;48.6137;93.6137;0.0100653;-0.00155272;-0.00796998;0.00802686;0.00375578;0.0202393;0.0224069;0;0.0153888;0.0321494;-0.642899;-1.20816;1.36895;-7.38866;-0.00123631;-1.64249e-05;0.00492508;0.00492512;-0.00123635;0.00308074;0.251023;3.98369;0.00376384;0.00410765;3.98359;0.25103;128.864;173.864;-0.0107065;-0.0012719;0.00845032;-0.00843126;0.00488955;0.0308941;0.0347292;0;0.0315408;6.74691;4.76118
387000;388;25.8482;0.0922628;0.00358219;-2.0409;25.7675;0.00199736;-0.000110698;0.107015;-0.859922;0.034734;-0.535078;-0.345927;0.638107;-7.40895;-0.00147479;-0.000134987;0.00335373;0.0033575;-0.00147856;0.00241803;0.439747;2.27403;0.00286148;0.00322404;2.27079;0.440376;50.1215;95.1215;0.00979305;-0.00150453;-0.00801545;0.00770756;0.00332172;0.0224094;0.0235788;0;0.0150375;0.0325112;-0.646852;-1.20897;1.37152;-7.38946;-0.0013013;5.65363e-05;0.00501723;0.00501773;-0.0013018;0.00315977;0.259366;3.85556;0.00385311;0.00421302;3.85445;0.25944;128.235;173.235;-0.0104561;-0.00133724;0.00864065;-0.00847362;0.00498008;0.0297594;0.0339353;0;0.0311875;6.78089;4.76913
388000;389;25.8496;0.0935992;0.00363408;-2.04149;25.7688;0.0040425;-0.000700853;0.108309;-0.857877;0.036026;-0.538121;-0.347837;0.641765;-7.41086;-0.00163523;-0.000548575;0.00260764;0.00267742;-0.00170501;0.00219121;0.627091;1.59467;0.00255087;0.00292162;1.57033;0.63681;54.1203;99.1203;0.00946149;-0.00166213;-0.00848098;0.00735029;0.00257192;0.0233484;0.0240338;0;0.0163118;0.0336796;-0.650169;-1.21073;1.37467;-7.39122;-0.00123284;5.2394e-05;0.00510778;0.00510821;-0.00123327;0.00317074;0.241365;4.1431;0.00388241;0.00422765;4.14199;0.24143;127.902;172.902;-0.00992504;-0.00126746;0.00847354;-0.00831563;0.00507206;0.028518;0.0327122;0;0.0314883;6.8198;4.77526
389000;390;25.8504;0.0944417;0.00366679;-2.04019;25.7698;0.00178302;0.000596089;0.109257;-0.860136;0.0356127;-0.54148;-0.348592;0.644969;-7.41162;-0.00162807;-0.000484087;0.00254896;0.00260433;-0.00168344;0.00214388;0.638719;1.56563;0.0024945;0.00285851;1.54703;0.6464;53.325;98.325;0.00954955;-0.00165468;-0.00830612;0.00730538;0.00251467;0.0227377;0.0234459;0;0.0216281;0.0335468;-0.654301;-1.21273;1.37839;-7.39322;-0.00126802;-8.69592e-05;0.0053872;0.00538834;-0.00126915;0.00332875;0.235376;4.24853;0.00408159;0.00443833;4.24562;0.235537;128.605;173.605;-0.00984596;-0.00130248;0.00817802;-0.00829722;0.00535395;0.0272438;0.0322771;0;0.0324601;6.85904;4.78286
390000;391;25.8523;0.0962952;0.00373875;-2.04075;25.7716;0.00335706;3.51235e-05;0.111072;-0.858562;0.0364383;-0.544103;-0.347758;0.64677;-7.41078;-0.00141833;-0.000550808;0.0024459;0.00252288;-0.00149531;0.0020091;0.579881;1.72449;0.00234505;0.0026788;1.68719;0.5927;54.9513;99.9513;0.0103972;-0.00144442;-0.00837035;0.00723862;0.00241111;0.0215018;0.0227117;0;0.0156746;0.0342352;-0.657582;-1.21299;1.38019;-7.39348;-0.00119525;-8.81986e-05;0.00557035;0.0055715;-0.0011964;0.00338395;0.214574;4.6604;0.00417073;0.00451193;4.65688;0.214736;128.106;173.106;-0.00942844;-0.00122896;0.00808486;-0.00820627;0.00553785;0.0268302;0.0325767;0;0.0245459;6.87771;4.79004
391000;392;25.8535;0.0975738;0.00378839;-2.04196;25.7728;-0.000204745;-0.00116908;0.112259;-0.862124;0.036582;-0.546357;-0.354241;0.652174;-7.41727;-0.00149702;-0.000619708;0.00199757;0.00210421;-0.00160366;0.00185394;0.749424;1.33436;0.00214723;0.00247191;1.31212;0.762123;55.7868;100.787;0.0103235;-0.0015231;-0.00850971;0.00724282;0.00196162;0.0214327;0.0242102;0;0.0146257;0.0345197;-0.661224;-1.2194;1.38757;-7.3999;-0.00122734;-0.000113584;0.00592284;0.00592465;-0.00122915;0.0035769;0.207222;4.82574;0.00441686;0.0047692;4.82013;0.207463;127.886;172.886;-0.00990126;-0.00126253;0.00821617;-0.00838412;0.00588929;0.0258674;0.031631;0;0.0278245;6.92555;4.79778
392000;393;25.8552;0.0992059;0.00385176;-2.04173;25.7744;-0.00259221;-0.00094108;0.113914;-0.864512;0.036497;-0.551013;-0.352476;0.655123;-7.4155;-0.00158335;-0.000683416;0.00250416;0.00261539;-0.00169458;0.00215499;0.632288;1.58156;0.00250723;0.00287332;1.54338;0.647927;56.0504;101.05;0.010581;-0.0016082;-0.00847668;0.00707811;0.00246855;0.021763;0.0251085;0;0.0156507;0.0343285;-0.667097;-1.21978;1.39071;-7.40028;-0.00115371;-0.000180472;0.00600118;0.00600573;-0.00115826;0.003582;0.192247;5.20165;0.00444055;0.00477599;5.18515;0.192859;128.107;173.107;-0.0105114;-0.0011888;0.00807292;-0.00837516;0.00596881;0.0274698;0.0349011;0;0.0385762;6.96631;4.80475
393000;394;25.8563;0.10038;0.00389735;-2.04188;25.7756;-0.00361159;-0.00109501;0.11508;-0.865531;0.037191;-0.554729;-0.350586;0.657281;-7.41361;-0.00128381;-0.000460502;0.00281159;0.00286273;-0.00133496;0.00209884;0.456615;2.19003;0.00247646;0.00279846;2.14444;0.466323;54.252;99.252;0.0104139;-0.00131044;-0.0082602;0.00730737;0.00277767;0.0210072;0.0243363;0;0.0183934;0.0349579;-0.67093;-1.21965;1.39245;-7.40015;-0.00111683;-0.00011593;0.00599703;0.00599892;-0.00111872;0.00355882;0.18623;5.36969;0.00441963;0.00474509;5.36231;0.186487;127.617;172.617;-0.0103032;-0.00115206;0.00821682;-0.00838975;0.00596348;0.0272903;0.0343544;0;0.033295;6.98953;4.81276
394000;395;25.8575;0.101535;0.0039422;-2.04236;25.7767;-0.00517668;-0.0015734;0.116201;-0.867096;0.0373323;-0.555109;-0.355082;0.660018;-7.41811;-0.00162157;-0.000350245;0.00318421;0.0032096;-0.00164696;0.00242828;0.509253;1.96366;0.00285191;0.00323771;1.9488;0.513135;52.0689;97.0689;0.010775;-0.00165026;-0.00831612;0.00757749;0.0031498;0.0207013;0.0227186;0;0.0197487;0.034944;-0.672885;-1.22317;1.39648;-7.40367;-0.00107124;-0.000162392;0.00606441;0.00606811;-0.00107493;0.00357152;0.176643;5.66113;0.00444723;0.00476203;5.64511;0.177144;127.671;172.671;-0.0104974;-0.00110566;0.00802718;-0.00829386;0.0060324;0.0274538;0.034875;0;0.0295838;7.00567;4.81294
395000;396;25.8593;0.103355;0.00401285;-2.04329;25.7785;-0.00376687;-0.00249913;0.117953;-0.865686;0.0373269;-0.560355;-0.352081;0.662836;-7.41511;-0.00152058;-0.000144544;0.00345315;0.00345735;-0.00152477;0.00249106;0.440344;2.27095;0.00294768;0.00332142;2.26745;0.441024;50.2327;95.2327;0.010078;-0.00155113;-0.00814054;0.00781183;0.00342014;0.0211584;0.0246416;0;0.0270454;0.0349723;-0.678437;-1.22405;1.39993;-7.40454;-0.00097514;-0.000218972;0.00596708;0.00597398;-0.00098204;0.00347801;0.16342;6.11921;0.00434714;0.00463735;6.08324;0.164386;128.054;173.054;-0.00996213;-0.001009;0.00784607;-0.00822835;0.00593651;0.0266987;0.0373353;0;0.0267172;7.05427;4.82259
396000;397;25.8603;0.104375;0.00405244;-2.04294;25.7795;-0.00495974;-0.00215283;0.119003;-0.866879;0.0378575;-0.562999;-0.3526;0.665378;-7.41563;-0.00159381;-0.000372778;0.00420109;0.00422498;-0.00161769;0.00292133;0.379379;2.63589;0.00348342;0.00389511;2.61173;0.382887;53.4018;98.4018;0.010079;-0.00162282;-0.0084119;0.00761998;0.00416593;0.0210689;0.023025;0;0.0197552;0.0354673;-0.68237;-1.22622;1.40375;-7.40672;-0.000868897;-0.000234129;0.00589387;0.00590197;-0.000876992;0.00338948;0.147424;6.78317;0.00425719;0.00451931;6.72978;0.148593;128.197;173.197;-0.0102262;-0.000903055;0.00785119;-0.00826508;0.00586326;0.0272645;0.0364013;0;0.0262774;7.09492;4.83208
397000;398;25.8592;0.103211;0.00400728;-2.04333;25.7783;-0.00817484;-0.00254505;0.117804;-0.870094;0.0384183;-0.563238;-0.358838;0.668938;-7.42186;-0.00166419;-0.000272336;0.00390106;0.00391435;-0.00167749;0.00279592;0.426601;2.34411;0.00331343;0.00372789;2.33346;0.428548;51.8572;96.8572;0.0106305;-0.00169444;-0.0083658;0.00777628;0.00386624;0.0201637;0.0241182;0;0.0181388;0.0357989;-0.68443;-1.23082;1.40877;-7.41131;-0.000935644;-0.000270591;0.00574345;0.00575439;-0.000946588;0.00335049;0.162906;6.1385;0.0041876;0.00446732;6.07908;0.164498;128.736;173.736;-0.00998669;-0.00096884;0.00766029;-0.00814879;0.00571431;0.0263132;0.0354484;0;0.0252043;7.10575;4.83465
398000;399;25.8624;0.106452;0.00413311;-2.04293;25.7816;-0.00317012;-0.00213792;0.121089;-0.865089;0.0383193;-0.565169;-0.362782;0.672678;-7.42581;-0.00170183;-0.000126226;0.00383657;0.00383944;-0.00170471;0.00277208;0.443582;2.25437;0.00327906;0.0036961;2.25226;0.443999;50.0992;95.0992;0.0103875;-0.00173492;-0.00842629;0.00812805;0.00380121;0.0214008;0.0228765;0;0.0233624;0.0355779;-0.688155;-1.23367;1.41307;-7.41416;-0.00103536;-9.50926e-05;0.00559988;0.00560124;-0.00103672;0.00331898;0.18489;5.40862;0.00412341;0.00442531;5.40283;0.185088;127.674;172.674;-0.00980066;-0.00106741;0.00786438;-0.00800204;0.00556913;0.0262016;0.0335181;0;0.0281612;7.15327;4.84185
399000;400;25.8609;0.104882;0.00407213;-2.04199;25.7801;-0.00739821;-0.00120114;0.119586;-0.869318;0.037024;-0.570992;-0.356256;0.674033;-7.41928;-0.00175248;0.000129572;0.00403252;0.00403542;-0.00175538;0.0028954;0.434587;2.30103;0.00342861;0.00386053;2.29888;0.434994;47.7645;92.7645;0.00998731;-0.00178757;-0.00815965;0.00837103;0.00399937;0.021989;0.0243803;0;0.0264712;0.0346795;-0.6934;-1.231;1.41329;-7.4115;-0.00118872;-4.31893e-05;0.00562426;0.00562453;-0.00118899;0.00340676;0.211355;4.73137;0.00420246;0.00454235;4.73051;0.211394;127.444;172.444;-0.00957319;-0.00122045;0.0079292;-0.00796156;0.005593;0.0261473;0.0343793;0;0.0387004;7.18965;4.84882
400000;401;25.863;0.107007;0.00415465;-2.04234;25.7822;-0.00188794;-0.00154709;0.121692;-0.863807;0.03759;-0.57215;-0.359101;0.676552;-7.42213;-0.00174297;0.000249375;0.00422754;0.00423794;-0.00175337;0.00299565;0.41229;2.42548;0.00355684;0.0039942;2.41702;0.413732;47.0103;92.0103;0.0105634;-0.00177899;-0.00803402;0.0084835;0.00419543;0.0204806;0.0239009;0;0.0186215;0.0350323;-0.695702;-1.23211;1.41539;-7.4126;-0.00106233;-7.60097e-05;0.00566758;0.00566844;-0.00106319;0.00336582;0.18744;5.33504;0.00417869;0.00448776;5.33154;0.187563;127.292;172.292;-0.00941925;-0.00109308;0.00773855;-0.00783827;0.00563781;0.0258805;0.0324182;0;0.0271584;7.21527;4.85673
401000;402;25.8638;0.107805;0.00418565;-2.04274;25.783;-0.00129532;-0.00195409;0.122461;-0.863215;0.0384728;-0.573343;-0.361087;0.678665;-7.42411;-0.00176068;0.000104274;0.00364022;0.00364223;-0.00176269;0.00270246;0.483675;2.0675;0.0031828;0.00360328;2.06629;0.48396;47.233;92.233;0.00997305;-0.00179613;-0.00824925;0.00841284;0.00360632;0.0227224;0.0258096;0;0.0220164;0.0358715;-0.697714;-1.23526;1.41914;-7.41575;-0.00116224;-0.000103463;0.00578542;0.00578696;-0.00116378;0.00347537;0.200891;4.97783;0.00429874;0.00463383;4.97257;0.201103;127.527;172.527;-0.00895656;-0.00119368;0.0077731;-0.00792561;0.00575539;0.0260302;0.033359;0;0.0376415;7.2407;4.86342
402000;403;25.8655;0.109577;0.00425442;-2.04191;25.7848;0.00243967;-0.00111847;0.124304;-0.85948;0.038606;-0.577147;-0.367676;0.685402;-7.4307;-0.00182737;-2.72357e-05;0.00364508;0.00364521;-0.00182751;0.00273636;0.501326;1.99471;0.00321725;0.00364848;1.99464;0.501345;48.5053;93.5053;0.0107077;-0.00186204;-0.00841898;0.00831875;0.00360977;0.0214966;0.0253466;0;0.0229997;0.0359488;-0.703132;-1.23946;1.42546;-7.41995;-0.00115729;-8.81971e-05;0.00592621;0.00592731;-0.00115839;0.00354285;0.195284;5.12075;0.00438893;0.0047238;5.11684;0.195433;127.134;172.134;-0.00885937;-0.00118854;0.00777961;-0.00790059;0.00589613;0.0245439;0.032002;0;0.0345964;7.28491;4.87105
403000;404;25.8649;0.108964;0.00423063;-2.04158;25.7842;-0.00189775;-0.000795094;0.123715;-0.863817;0.0387419;-0.579718;-0.367239;0.687342;-7.43026;-0.00176498;-2.21279e-05;0.00336824;0.00336833;-0.00176508;0.00256671;0.524008;1.90837;0.00301157;0.00342228;1.90832;0.524021;48.089;93.089;0.010503;-0.00180009;-0.00845967;0.00837225;0.00333258;0.0215203;0.0260652;0;0.0209836;0.035986;-0.706233;-1.23995;1.42743;-7.42045;-0.00116891;-9.02451e-05;0.00616049;0.0061616;-0.00117002;0.00366581;0.189743;5.27028;0.00454819;0.00488775;5.26622;0.189889;126.78;171.78;-0.00914499;-0.00120036;0.00780313;-0.00792612;0.00613024;0.0249281;0.0316171;0;0.0312018;7.31103;4.87859
404000;405;25.8665;0.110555;0.00429241;-2.04176;25.7858;0.00215949;-0.000976447;0.125296;-0.85976;0.0394983;-0.581711;-0.368573;0.689779;-7.4316;-0.00195833;-9.54529e-05;0.00369681;0.00369842;-0.00195995;0.00282918;0.529737;1.88773;0.00331785;0.00377224;1.887;0.529942;49.0575;94.0575;0.0104558;-0.00199231;-0.00847355;0.00823545;0.00366104;0.0233136;0.023984;0;0.0182695;0.0366972;-0.708818;-1.2412;1.4298;-7.42169;-0.00117391;-0.000130671;0.00633791;0.00634018;-0.00117618;0.00375818;0.18522;5.39898;0.0046685;0.00501091;5.39048;0.185512;126.81;171.81;-0.00867428;-0.00120585;0.00778695;-0.00798919;0.00630779;0.0247896;0.0320565;0;0.0284071;7.3155;4.88103
405000;406;25.8662;0.110212;0.00427908;-2.0419;25.7855;-0.00314021;-0.0011117;0.124941;-0.86506;0.039601;-0.586075;-0.367085;0.692679;-7.43011;-0.00187693;-0.000200103;0.00349968;0.00350712;-0.00188436;0.00269574;0.536313;1.86458;0.00315942;0.00359432;1.86117;0.537296;50.0512;95.0512;0.0108747;-0.00190931;-0.00848734;0.00804275;0.00346381;0.0212821;0.0248263;0;0.022278;0.0365391;-0.713843;-1.24064;1.43182;-7.42114;-0.00113373;-0.000120856;0.0065246;0.00652651;-0.00113563;0.00383107;0.173762;5.75499;0.00477478;0.00510809;5.74701;0.174004;126.237;171.237;-0.00888027;-0.00116481;0.00769856;-0.00788077;0.00649516;0.0237903;0.0318263;0;0.0255087;7.37273;4.89284
406000;407;25.8662;0.110244;0.00428034;-2.04123;25.7855;-0.0106938;-0.000440679;0.125025;-0.872613;0.0393806;-0.589099;-0.368792;0.696129;-7.43182;-0.00194255;-0.000484172;0.00365165;0.00369325;-0.00198415;0.0028387;0.531965;1.87982;0.00332698;0.00378493;1.86138;0.537237;53.0042;98.0042;0.0103451;-0.00197207;-0.00870535;0.00769121;0.00361401;0.0228269;0.0246414;0;0.0256413;0.0364803;-0.718067;-1.24352;1.43641;-7.42401;-0.00116295;-0.000232905;0.00685472;0.00686148;-0.00116971;0.0040156;0.169657;5.89424;0.00500995;0.00535413;5.86595;0.170475;126.634;171.634;-0.00910858;-0.0011958;0.00770089;-0.00810351;0.0068253;0.0241207;0.0322327;0;0.0242472;7.40624;4.90057
407000;408;25.8679;0.111898;0.00434454;-2.04198;25.7871;-0.00987749;-0.00118808;0.126625;-0.871797;0.0396346;-0.591738;-0.366838;0.697349;-7.42986;-0.00198873;-0.000619438;0.00329771;0.00336933;-0.00206034;0.00271483;0.603062;1.6582;0.00316504;0.00361978;1.63533;0.611499;53.9939;98.9939;0.01002;-0.00201718;-0.0088431;0.00756093;0.00325893;0.0245934;0.0242226;0;0.0183556;0.0365956;-0.721694;-1.24247;1.43733;-7.42296;-0.00119364;-0.000251023;0.00688021;0.006888;-0.00120144;0.00404472;0.17349;5.76403;0.00504044;0.00539296;5.73311;0.174425;126.739;171.739;-0.00953364;-0.00122649;0.00766519;-0.00810374;0.00685106;0.024496;0.0343267;0;0.0270276;7.41719;4.90122
408000;409;25.8703;0.114297;0.0044377;-2.04297;25.7895;-0.0072383;-0.00218131;0.128954;-0.869158;0.0401484;-0.593129;-0.37067;0.700579;-7.4337;-0.0019784;-0.000541579;0.00295866;0.00301737;-0.00203711;0.00252724;0.668683;1.49548;0.00293644;0.00336965;1.4812;0.67513;53.0335;98.0335;0.0105027;-0.00200678;-0.00866834;0.00754521;0.00292134;0.0227707;0.0242502;0;0.0149739;0.0369007;-0.724379;-1.24571;1.44148;-7.4262;-0.00111449;-0.000135832;0.00680824;0.00681057;-0.00111682;0.0039637;0.163697;6.10884;0.00495479;0.00528493;6.09819;0.163983;126.026;171.026;-0.00982461;-0.00114711;0.00786454;-0.00807324;0.00677754;0.0242292;0.0353639;0;0.0376529;7.44783;4.90826
409000;410;25.8707;0.114721;0.00445417;-2.0427;25.7899;-0.0114159;-0.00191223;0.129399;-0.873335;0.0396104;-0.596756;-0.370827;0.703704;-7.43385;-0.00192854;-0.000634167;0.00266517;0.00275111;-0.00201448;0.00238279;0.723607;1.38197;0.00276235;0.00317706;1.36567;0.732241;54.1376;99.1376;0.01123;-0.00195601;-0.00873808;0.00743266;0.00262729;0.0216266;0.0244998;0;0.0197774;0.0366885;-0.729287;-1.24704;1.4451;-7.42753;-0.0011;-0.000306131;0.00693226;0.00694391;-0.00111165;0.00402778;0.158678;6.30207;0.00504085;0.00537037;6.2465;0.16009;126.948;171.948;-0.00950504;-0.00113358;0.00764749;-0.00819629;0.00690326;0.0240579;0.0377515;0;0.0296694;7.49487;4.9158
410000;411;25.8711;0.115093;0.0044686;-2.04337;25.7902;-0.0156548;-0.00258108;0.129717;-0.877574;0.0405308;-0.600394;-0.370447;0.706645;-7.43347;-0.00183459;-0.00068767;0.00321275;0.00330476;-0.00192661;0.00261568;0.571035;1.75121;0.00305507;0.00348758;1.71533;0.582979;55.191;100.191;0.0105264;-0.00186117;-0.00873188;0.00731611;0.00317498;0.0226877;0.0242009;0;0.017311;0.0370427;-0.733921;-1.24673;1.44719;-7.42722;-0.00119354;-0.000241717;0.00696955;0.0069767;-0.00120069;0.0040887;0.17125;5.8394;0.00509871;0.00545159;5.81058;0.1721;126.51;171.51;-0.00916022;-0.00122631;0.00767509;-0.00809433;0.00694033;0.0237768;0.0386494;0;0.0321535;7.51642;4.92328
411000;412;25.8726;0.116628;0.00452818;-2.04296;25.7918;-0.0149773;-0.00216944;0.131289;-0.876897;0.0401516;-0.601641;-0.368215;0.706517;-7.43124;-0.00205261;-0.000917951;0.00287931;0.00304463;-0.00221792;0.00263127;0.712881;1.40276;0.0030508;0.00350836;1.37274;0.72847;56.7925;101.792;0.0106825;-0.0020776;-0.00899779;0.00712222;0.00283937;0.0233117;0.0231415;0;0.0161509;0.0372068;-0.735429;-1.24761;1.44871;-7.42811;-0.00112123;-0.000274262;0.00702577;0.00703499;-0.00113045;0.00408272;0.159588;6.26615;0.00510867;0.00544363;6.22319;0.160689;126.561;171.561;-0.00902757;-0.00115442;0.00766377;-0.00814806;0.00699665;0.024242;0.0382007;0;0.0324129;7.52483;4.93083
412000;413;25.8759;0.119882;0.00465453;-2.04381;25.795;-0.0125015;-0.0030206;0.134488;-0.874421;0.0409151;-0.605546;-0.369548;0.710581;-7.43257;-0.00184441;-0.000219285;0.00250203;0.00251307;-0.00185544;0.00218426;0.737165;1.35655;0.00253167;0.00291234;1.35443;0.738319;49.1552;94.1552;0.0107626;-0.00187561;-0.0083696;0.0078957;0.00246712;0.0218947;0.026121;0;0.0158942;0.0377038;-0.741927;-1.24802;1.45239;-7.42851;-0.00121699;-0.000145829;0.00697707;0.00697967;-0.00121958;0.00409963;0.174427;5.73306;0.0051084;0.00546617;5.72299;0.174734;125.97;170.97;-0.00961243;-0.00124977;0.00786697;-0.00809341;0.00694635;0.0243546;0.0359966;0;0.025671;7.57695;4.9382
413000;414;25.8766;0.120643;0.00468408;-2.04296;25.7958;-0.0172026;-0.00217414;0.135315;-0.879122;0.040238;-0.608116;-0.370817;0.713393;-7.43384;-0.00195993;-0.000614268;0.00280859;0.00288645;-0.00203778;0.00246212;0.697832;1.43301;0.00285705;0.00328282;1.41647;0.705983;53.8453;98.8453;0.0113277;-0.0019874;-0.00869823;0.00743129;0.00277106;0.0211651;0.025954;0;0.0206348;0.0369223;-0.745461;-1.25053;1.45633;-7.43102;-0.00125145;-0.00016624;0.00683587;0.00683929;-0.00125487;0.00404708;0.183071;5.46235;0.00503026;0.0053961;5.45021;0.183479;126.176;171.176;-0.00954301;-0.00128276;0.00763977;-0.00790954;0.0068069;0.0242561;0.0354108;0;0.0295077;7.61168;4.94557
414000;415;25.878;0.121999;0.00473674;-2.04363;25.7971;-0.013486;-0.00284198;0.136625;-0.875405;0.0415151;-0.609045;-0.373236;0.715517;-7.43626;-0.00191444;-0.000378126;0.0034729;0.00349931;-0.00194085;0.00272008;0.551251;1.81406;0.00318355;0.00362678;1.80298;0.554638;51.8857;96.8857;0.0112216;-0.00194347;-0.00842049;0.00762108;0.00343764;0.0209327;0.0253197;0;0.0223682;0.0379666;-0.747339;-1.25339;1.45977;-7.43388;-0.00135524;-0.000124079;0.00685181;0.00685368;-0.00135712;0.0041054;0.197794;5.05578;0.00508226;0.00547387;5.05017;0.198013;125.962;170.962;-0.00894593;-0.00138591;0.00764198;-0.00782683;0.00682281;0.0240987;0.0348995;0;0.0303577;7.61069;4.95265
415000;416;25.879;0.122985;0.00477501;-2.04358;25.7981;-0.0116792;-0.00279608;0.137619;-0.873598;0.040728;-0.611959;-0.372473;0.717558;-7.4355;-0.00197051;-0.00026173;0.00319268;0.00320591;-0.00198375;0.00259483;0.617198;1.62023;0.00302382;0.00345977;1.61609;0.618778;50.1514;95.1514;0.0112545;-0.00200163;-0.00845051;0.00788492;0.00315712;0.0208765;0.0245419;0;0.0196105;0.0375078;-0.751734;-1.25265;1.46138;-7.43314;-0.00148476;-0.000156592;0.00684781;0.00685075;-0.0014877;0.00416923;0.216823;4.61206;0.00513541;0.00555897;4.60491;0.217159;126.568;171.568;-0.00983944;-0.00151692;0.00776742;-0.00801501;0.00681786;0.0258788;0.0348893;0;0.0300983;7.66455;4.95899
416000;417;25.8815;0.12557;0.00487538;-2.04379;25.8007;-0.00802629;-0.00300211;0.140197;-0.869946;0.0405425;-0.616518;-0.372289;0.721344;-7.43531;-0.00190138;-0.000121375;0.0036665;0.00366915;-0.00190402;0.00278658;0.518581;1.92834;0.00327102;0.00371545;1.92705;0.518928;49.4457;94.4457;0.011105;-0.00193372;-0.00832375;0.00803551;0.00363199;0.0207272;0.0248021;0;0.0187463;0.0376171;-0.757169;-1.25298;1.46447;-7.43348;-0.00148535;-7.07154e-05;0.00693501;0.0069356;-0.00148595;0.00421077;0.214182;4.66894;0.00519044;0.00561437;4.66747;0.214249;125.747;170.747;-0.00933123;-0.00151623;0.00777713;-0.00785293;0.00690498;0.0245018;0.0344766;0;0.0287128;7.69797;4.96702
417000;418;25.8823;0.126346;0.00490551;-2.04248;25.8016;-0.0104548;-0.00169007;0.141079;-0.872374;0.0398124;-0.617556;-0.372646;0.722375;-7.43567;-0.00185434;-5.03127e-05;0.00393241;0.00393284;-0.00185478;0.00289381;0.471555;2.12065;0.00341253;0.00385842;2.12038;0.471613;49.2173;94.2173;0.0111458;-0.00188763;-0.00829954;0.00815137;0.0038981;0.0199807;0.0237233;0;0.0225723;0.0372284;-0.759335;-1.25373;1.46622;-7.43422;-0.00158998;-8.53661e-05;0.00718928;0.00719011;-0.00159081;0.00439046;0.22116;4.52161;0.00540233;0.00585395;4.51978;0.22125;125.518;170.518;-0.00885422;-0.00162056;0.00771174;-0.0078145;0.00715976;0.0230712;0.0352806;0;0.0310917;7.70934;4.97302
418000;419;25.8826;0.126598;0.00491529;-2.04252;25.8018;-0.0101615;-0.00173323;0.141328;-0.872081;0.0410064;-0.619947;-0.373439;0.724895;-7.43646;-0.00210685;-4.65801e-05;0.00440574;0.00440607;-0.00210719;0.00325663;0.478207;2.09115;0.00383771;0.00434217;2.09097;0.478246;49.497;94.497;0.01176;-0.00214033;-0.00832098;0.00817417;0.00437127;0.0193985;0.0241874;0;0.0214334;0.0382932;-0.762698;-1.25337;1.46769;-7.43386;-0.00157286;-7.36623e-05;0.00733663;0.00733723;-0.00157347;0.00445535;0.214385;4.66451;0.00549164;0.00594047;4.6631;0.21445;125.175;170.175;-0.00897326;-0.0016034;0.00773136;-0.00780965;0.00730696;0.0228559;0.0359878;0;0.0283661;7.7203;4.97433
419000;420;25.8851;0.129083;0.00501178;-2.04262;25.8043;-0.00990159;-0.00183197;0.143813;-0.871821;0.0407081;-0.621492;-0.378683;0.728911;-7.44171;-0.00196291;1.67968e-06;0.00441832;0.00441832;-0.00196291;0.00319061;0.444266;2.2509;0.00377402;0.00425415;2.2509;0.444266;49.3077;94.3077;0.0109358;-0.00199731;-0.00833602;0.00828641;0.00438373;0.0212249;0.0240375;0;0.0247311;0.0379994;-0.766254;-1.25753;1.47309;-7.43803;-0.00159182;-4.66078e-05;0.00762135;0.00762158;-0.00159205;0.00460682;0.208863;4.78783;0.00568652;0.00614243;4.78727;0.208887;124.605;169.605;-0.00839257;-0.00162241;0.00779473;-0.00781625;0.0075912;0.0223623;0.0347102;0;0.0270838;7.77249;4.98105
420000;421;25.8839;0.127924;0.00496678;-2.04315;25.8031;-0.0188299;-0.00235764;0.142604;-0.880749;0.0411305;-0.626238;-0.376147;0.731678;-7.43917;-0.00194656;0.000447002;0.00454798;0.0045786;-0.00197718;0.00327789;0.428005;2.33642;0.00388304;0.00437052;2.31572;0.431831;45.6095;90.6095;0.0113923;-0.00198535;-0.0079715;0.00881105;0.00451645;0.0199301;0.0248289;0;0.0194471;0.0384489;-0.772286;-1.25744;1.47616;-7.43793;-0.00163364;-0.000173889;0.00810607;0.00810918;-0.00163674;0.00487296;0.201532;4.96198;0.00602625;0.00649728;4.95447;0.201838;124.67;169.67;-0.00948603;-0.00166542;0.00769712;-0.00796884;0.0080767;0.0230193;0.0355732;0;0.0234951;7.80428;4.9892
421000;422;25.8873;0.131327;0.00509891;-2.04332;25.8065;-0.0121654;-0.002536;0.146008;-0.874085;0.0412522;-0.626025;-0.378163;0.732541;-7.44119;-0.00210064;0.000122485;0.00460707;0.00460931;-0.00210288;0.00335609;0.45596;2.19317;0.00396432;0.00447479;2.19191;0.456224;48.3332;93.3332;0.0111219;-0.00213655;-0.00827771;0.00846658;0.00457298;0.0199584;0.0231922;0;0.0206721;0.0381832;-0.77336;-1.25987;1.47879;-7.44036;-0.00160602;-0.000176838;0.00830787;0.00831102;-0.00160917;0.0049601;0.193313;5.17296;0.00614768;0.00661346;5.16478;0.193619;124.472;169.472;-0.00933136;-0.00163881;0.00781886;-0.00809391;0.00827757;0.022614;0.0365018;0;0.0234122;7.80112;4.99598
422000;423;25.8853;0.129356;0.00502236;-2.0429;25.8046;-0.0224389;-0.0021159;0.144056;-0.884358;0.0414778;-0.631692;-0.375374;0.735976;-7.4384;-0.00204489;0.000336287;0.00423713;0.00425508;-0.00206284;0.00315896;0.482611;2.07206;0.00372013;0.00421194;2.06273;0.484794;45.7712;90.7712;0.0107628;-0.0020831;-0.00812031;0.00873996;0.00420436;0.0209587;0.0250706;0;0.0198329;0.0384014;-0.780004;-1.25939;1.48187;-7.43988;-0.0015964;-0.000185125;0.00815337;0.00815688;-0.00159991;0.0048784;0.195796;5.10735;0.00604225;0.00650453;5.09832;0.196143;124.877;169.877;-0.00972161;-0.00163003;0.00790439;-0.0081964;0.0081224;0.0234434;0.0403761;0;0.0350294;7.86248;5.00372
423000;424;25.8876;0.131671;0.00511224;-2.04349;25.8069;-0.0211854;-0.00270151;0.146333;-0.883105;0.041412;-0.632812;-0.37979;0.739193;-7.44282;-0.00198794;0.00045529;0.00465749;0.00468854;-0.00201899;0.00335376;0.426826;2.34287;0.00397351;0.00447168;2.32222;0.430622;45.7287;90.7287;0.0110127;-0.00202701;-0.00798749;0.00884219;0.00462584;0.0208184;0.0245483;0;0.0255682;0.0384225;-0.78363;-1.26322;1.48703;-7.44371;-0.00162334;-0.000154434;0.0081458;0.00814824;-0.00162578;0.00488701;0.199286;5.01793;0.00604738;0.00651601;5.01189;0.199525;124.468;169.468;-0.00937874;-0.00165493;0.0077113;-0.00794394;0.00811632;0.0230285;0.0409938;0;0.0567866;7.8887;5.0112
424000;425;25.8898;0.133877;0.0051979;-2.04289;25.8091;-0.0202781;-0.00209961;0.148594;-0.882197;0.0404474;-0.635103;-0.37544;0.738882;-7.43847;-0.00216682;0.000358229;0.00453433;0.00455343;-0.00218591;0.00336967;0.477869;2.09262;0.00397019;0.0044929;2.08308;0.480059;46.1034;91.1034;0.0108323;-0.00220454;-0.00802285;0.00868338;0.00450236;0.0215802;0.0245586;0;0.0184561;0.0379885;-0.787479;-1.25953;1.48593;-7.44003;-0.00160513;-0.000204008;0.00840632;0.00841048;-0.00160929;0.00500988;0.190944;5.23715;0.00621328;0.00667984;5.2262;0.191343;124.254;169.254;-0.00929808;-0.00163685;0.00763048;-0.0079607;0.00837747;0.0228437;0.0415651;0;0.0350504;7.88942;5.01856
425000;426;25.8916;0.135669;0.00526748;-2.04309;25.8109;-0.0171638;-0.00229923;0.150379;-0.879083;0.0420945;-0.636367;-0.379403;0.74208;-7.44243;-0.00198438;0.000317306;0.00458718;0.00460247;-0.00199967;0.00330107;0.432593;2.31164;0.00390924;0.00440142;2.30161;0.434478;46.7734;91.7734;0.0119305;-0.00202208;-0.00810006;0.00867959;0.00455457;0.0187267;0.0249306;0;0.0189978;0.0392697;-0.790566;-1.26297;1.49051;-7.44346;-0.00174442;-0.000239976;0.00878732;0.00879279;-0.00174988;0.00527133;0.198515;5.03739;0.00652385;0.00702845;5.02478;0.199014;123.921;168.921;-0.00943652;-0.00177583;0.00752426;-0.00792314;0.00875929;0.0229052;0.0437545;0;0.0282997;7.92091;5.02197
426000;427;25.8961;0.140115;0.00544011;-2.04317;25.8154;-0.0125428;-0.0023858;0.154835;-0.874462;0.0423678;-0.639511;-0.381662;0.745946;-7.44469;-0.00209937;0.000195366;0.00449461;0.00450039;-0.00210515;0.00330277;0.467086;2.14093;0.00389639;0.00440369;2.1378;0.467771;47.4537;92.4537;0.0109384;-0.0021367;-0.00829858;0.00863354;0.00446035;0.0216551;0.0237175;0;0.0188717;0.0395315;-0.796401;-1.2657;1.49594;-7.4462;-0.00182542;-0.000187836;0.00877202;0.00877535;-0.00182875;0.00530205;0.208095;4.80549;0.00654553;0.0070694;4.79856;0.208396;123.679;168.679;-0.00979959;-0.00185586;0.00750333;-0.0077982;0.00874414;0.0243511;0.0423252;0;0.0250487;7.96399;5.03381
427000;428;25.897;0.141037;0.00547588;-2.04287;25.8163;-0.0162912;-0.00208554;0.15578;-0.87821;0.0428163;-0.640769;-0.382587;0.747523;-7.44561;-0.0020866;0.000205491;0.00490669;0.00491272;-0.00209263;0.00350268;0.425255;2.35153;0.00415235;0.00467023;2.34763;0.425961;48.2214;93.2214;0.0115287;-0.00212319;-0.00819579;0.00854829;0.00487329;0.0210644;0.0251318;0;0.0203637;0.0400106;-0.800282;-1.26647;1.49866;-7.44696;-0.00209139;-8.42972e-05;0.00888804;0.00888869;-0.00209203;0.00549036;0.235304;4.24983;0.00673237;0.00732048;4.24882;0.235359;123.535;168.535;-0.0101558;-0.00212217;0.00775495;-0.00783823;0.00885824;0.024746;0.0402208;0;0.0271316;7.98077;5.0409
428000;429;25.899;0.142984;0.00555147;-2.0429;25.8183;-0.015543;-0.00211405;0.157732;-0.877462;0.04315;-0.641946;-0.383256;0.748894;-7.44628;-0.0021755;2.76487e-05;0.00480085;0.00480095;-0.00217561;0.00348828;0.453149;2.20678;0.00412189;0.00465104;2.20672;0.453161;49.4518;94.4518;0.0110126;-0.00220901;-0.00817969;0.008178;0.00476755;0.0209686;0.0235269;0;0.0188912;0.0402694;-0.802868;-1.26731;1.50076;-7.4478;-0.00228012;-3.49592e-05;0.00879017;0.00879028;-0.00228023;0.00553525;0.259394;3.85513;0.00674989;0.00738034;3.85499;0.259404;123.599;168.599;-0.00980038;-0.00230979;0.00770953;-0.00769446;0.00876071;0.0250542;0.0390899;0;0.0269278;7.98096;5.04103
429000;430;25.9006;0.144605;0.00561443;-2.04282;25.8199;-0.0158642;-0.00202842;0.159365;-0.877784;0.0437334;-0.64416;-0.385536;0.751993;-7.44856;-0.00222075;0.000117069;0.00516716;0.00516902;-0.00222261;0.00369581;0.429782;2.32676;0.00437911;0.00492775;2.32566;0.429986;49.3195;94.3195;0.0112373;-0.00225497;-0.00809009;0.0082639;0.00513461;0.0204717;0.0242172;0;0.0216141;0.0408514;-0.807481;-1.27032;1.50579;-7.45081;-0.00238801;-9.23606e-06;0.00882133;0.00882134;-0.00238802;0.00560468;0.270709;3.69401;0.00681776;0.0074729;3.694;0.270709;123.835;168.835;-0.00987346;-0.00241898;0.00792986;-0.00786011;0.00879016;0.0257799;0.039272;0;0.0338732;8.03623;5.04872
430000;431;25.9043;0.148346;0.00575968;-2.04218;25.8237;-0.0129012;-0.00138659;0.16317;-0.874821;0.043604;-0.646982;-0.386163;0.754724;-7.44919;-0.00211248;0.000130226;0.00482953;0.00483197;-0.00211492;0.00347345;0.437408;2.28619;0.00411178;0.00463126;2.28471;0.437693;48.803;93.803;0.0110458;-0.00214621;-0.00800169;0.00820595;0.00479768;0.0211906;0.0222684;0;0.021539;0.0409992;-0.812711;-1.2714;1.50952;-7.45189;-0.00258817;9.80763e-07;0.00893314;0.00893314;-0.00258817;0.00576066;0.289727;3.45153;0.00697998;0.00768087;3.45153;0.289727;123.885;168.885;-0.0099286;-0.00261883;0.00791236;-0.00782005;0.00890212;0.0257076;0.0389049;0;0.0327438;8.06269;5.0601
431000;432;25.9079;0.151915;0.00589823;-2.04264;25.8272;-0.00834294;-0.00185454;0.166715;-0.870262;0.0445897;-0.647689;-0.38852;0.756596;-7.45155;-0.00226893;7.88288e-05;0.00499386;0.00499472;-0.00226979;0.00363226;0.454344;2.20097;0.00429139;0.00484301;2.20052;0.454438;49.2364;94.2364;0.0114674;-0.00230272;-0.00811304;0.00821149;0.00496112;0.0200911;0.0231712;0;0.0223854;0.0415165;-0.816037;-1.27216;1.51197;-7.45266;-0.00265357;-3.08285e-05;0.00933908;0.00933916;-0.00265365;0.0059964;0.284136;3.51945;0.00727384;0.0079952;3.51937;0.284142;123.5;168.5;-0.0101168;-0.00268442;0.0078772;-0.0078449;0.00930834;0.0264146;0.0390187;0;0.0293926;8.06262;5.06299
432000;433;25.9077;0.151764;0.0058924;-2.04175;25.8271;-0.0191331;-0.000957786;0.166629;-0.881052;0.0444947;-0.649096;-0.387226;0.757132;-7.45025;-0.00217099;-2.45707e-06;0.00522608;0.00522608;-0.00217099;0.00369853;0.415414;2.40724;0.00439044;0.00493138;2.40723;0.415414;50.4542;95.4542;0.0118928;-0.00220392;-0.00817153;0.00810651;0.00519286;0.0201966;0.0218646;0;0.0225851;0.041866;-0.819093;-1.27322;1.51452;-7.45372;-0.00271482;-1.79667e-05;0.00966483;0.00966485;-0.00271485;0.00618985;0.280897;3.56002;0.0075135;0.00825313;3.56;0.280899;123.132;168.132;-0.00971005;-0.00274618;0.00797002;-0.00790801;0.00963337;0.0255384;0.0395913;0;0.0277993;8.08429;5.07009
433000;434;25.913;0.157034;0.00609701;-2.04146;25.8325;-0.0156731;-0.000676289;0.17194;-0.877592;0.0447588;-0.651589;-0.386362;0.758846;-7.44939;-0.00240389;-9.54384e-05;0.00542191;0.00542307;-0.00240505;0.00391406;0.443366;2.25547;0.00463018;0.00521875;2.25487;0.443485;51.0904;96.0904;0.0112076;-0.0024358;-0.00823415;0.00797994;0.00538819;0.0213374;0.022902;0;0.0196481;0.042057;-0.824798;-1.27273;1.51721;-7.45323;-0.0028507;-0.00010265;0.0101837;0.0101845;-0.00285151;0.00651803;0.279927;3.57237;0.00791335;0.0086907;3.57164;0.279984;122.892;167.892;-0.0104315;-0.00288252;0.0078644;-0.0079669;0.0101531;0.0265055;0.0402024;0;0.0230061;8.12586;5.07743
434000;435;25.9153;0.159289;0.00618456;-2.04286;25.8346;-0.0209376;-0.00206836;0.174088;-0.882857;0.0461327;-0.65238;-0.389961;0.761444;-7.45299;-0.00212159;0.000225162;0.0047003;0.00470772;-0.00212902;0.00341837;0.451374;2.21546;0.0040397;0.00455783;2.21122;0.45224;47.7326;92.7326;0.0113017;-0.00215638;-0.00793997;0.00833484;0.00466895;0.0196004;0.0223921;0;0.0203148;0.0428991;-0.829674;-1.27613;1.52273;-7.45663;-0.0029524;-7.62708e-05;0.0107014;0.0107018;-0.00295283;0.00682734;0.275889;3.62465;0.0082959;0.00910312;3.62427;0.275918;122.318;167.318;-0.0105314;-0.00298499;0.00801774;-0.00806093;0.0106696;0.0266789;0.0429233;0;0.0221668;8.13789;5.08441
435000;436;25.9191;0.163158;0.00633477;-2.04214;25.8385;-0.0197632;-0.0013514;0.178027;-0.881683;0.0453178;-0.65411;-0.387089;0.761414;-7.45011;-0.00210991;-0.000101105;0.00482069;0.00482217;-0.00211139;0.00346678;0.437678;2.28478;0.0041038;0.00462237;2.28389;0.43785;50.728;95.728;0.0112331;-0.00214141;-0.00818698;0.00792901;0.00478734;0.020469;0.0223157;0;0.0211843;0.0428049;-0.833513;-1.27651;1.52514;-7.45701;-0.00296283;-8.94163e-05;0.0111046;0.0111052;-0.00296339;0.0070343;0.26681;3.74799;0.00856391;0.00937906;3.74746;0.266847;121.4;166.4;-0.0104166;-0.00299335;0.00773213;-0.00780214;0.0110751;0.0264728;0.0450912;0;0.0226384;8.1418;5.09166
436000;437;25.9232;0.167208;0.006492;-2.04249;25.8426;-0.0213781;-0.00170381;0.18206;-0.883297;0.0458561;-0.656164;-0.387974;0.763661;-7.451;-0.00224873;-0.000120552;0.00466509;0.00466719;-0.00225083;0.00345901;0.482033;2.07455;0.00407452;0.00461201;2.07354;0.482266;50.4028;95.4028;0.0115225;-0.00227972;-0.00816154;0.0078651;0.00463194;0.0206856;0.0229375;0;0.0212602;0.0430472;-0.839877;-1.27729;1.52929;-7.45778;-0.00315916;-8.99894e-05;0.0114419;0.0114425;-0.00315972;0.00730111;0.276104;3.62183;0.00887116;0.00973481;3.62137;0.276139;120.96;165.96;-0.0102234;-0.00318856;0.00758701;-0.00765616;0.0114135;0.0266913;0.0465148;0;0.023084;8.18863;5.09889
437000;438;25.9272;0.171225;0.00664798;-2.04281;25.8466;-0.0255233;-0.00201684;0.186061;-0.887443;0.0457711;-0.657254;-0.38949;0.765363;-7.45252;-0.0019408;0.000125007;0.00521507;0.00521725;-0.00194298;0.00358012;0.372152;2.68707;0.00427561;0.00477349;2.68518;0.372415;49.8841;94.8841;0.0114799;-0.00197383;-0.00792842;0.0081211;0.00518381;0.0203095;0.0224981;0;0.021683;0.042733;-0.846034;-1.28043;1.53529;-7.46092;-0.00318465;-0.000181407;0.0120789;0.012081;-0.0031868;0.00763392;0.263654;3.79285;0.00930011;0.0101786;3.79096;0.263786;120;165;-0.00984271;-0.00321284;0.00724794;-0.0074987;0.0120529;0.0256346;0.0448611;0;0.025014;8.19988;5.10665
438000;439;25.9306;0.174675;0.00678191;-2.04273;25.85;-0.0265505;-0.00194644;0.189526;-0.88847;0.0458519;-0.658187;-0.388049;0.765438;-7.45107;-0.00200622;0.000241083;0.00505572;0.00506394;-0.00201444;0.00353919;0.396821;2.52003;0.00421123;0.00471892;2.51382;0.3978;48.5449;93.5449;0.0121768;-0.00204018;-0.00781195;0.00823752;0.00502539;0.019497;0.0233525;0;0.0226209;0.0428679;-0.850953;-1.27959;1.5373;-7.46008;-0.00337872;-0.000101414;0.0123012;0.0123019;-0.00337938;0.00784062;0.274666;3.64079;0.00952958;0.0104542;3.64028;0.274704;119.497;164.497;-0.0104898;-0.00340567;0.00724021;-0.00732931;0.0122753;0.0265074;0.0418582;0;0.0254861;8.19322;5.11202
439000;440;25.9351;0.179102;0.0069538;-2.04358;25.8544;-0.0248763;-0.00279332;0.193902;-0.886796;0.0459788;-0.658719;-0.389098;0.766435;-7.45212;-0.00212064;8.18808e-05;0.0050947;0.00509563;-0.00212157;0.0036086;0.416245;2.40243;0.00428316;0.00481147;2.40182;0.416351;49.7265;94.7265;0.0114031;-0.00215322;-0.0079573;0.00806335;0.00506321;0.0202281;0.0224021;0;0.0253882;0.0428995;-0.854947;-1.28258;1.54201;-7.46307;-0.00346139;-0.000238239;0.0125079;0.0125115;-0.00346494;0.00798821;0.276735;3.61356;0.0097044;0.010651;3.61088;0.276941;119.915;164.915;-0.0107485;-0.0034898;0.0071694;-0.00752903;0.0124826;0.0291724;0.0417679;0;0.030942;8.21413;5.11421
440000;441;25.9401;0.184141;0.00714944;-2.04461;25.8594;-0.0223936;-0.00382335;0.198877;-0.884313;0.0461824;-0.659984;-0.391709;0.768861;-7.45473;-0.00200674;0.000390212;0.00565627;0.00567609;-0.00202656;0.00385133;0.354781;2.81864;0.00461051;0.0051351;2.80085;0.357034;48.6818;93.6818;0.0117999;-0.00204119;-0.00758183;0.00830148;0.00562777;0.0187591;0.0216108;0;0.0263232;0.0425819;-0.861898;-1.28468;1.54761;-7.46518;-0.00359109;-0.000186758;0.0125903;0.0125925;-0.00359324;0.00809286;0.285226;3.50599;0.0098145;0.0107905;3.50449;0.285348;120.259;165.259;-0.0109511;-0.00362125;0.007504;-0.0077546;0.0125625;0.0297155;0.0414339;0;0.0366517;8.258;5.12456
441000;442;25.9449;0.188915;0.00733482;-2.04336;25.8643;-0.0244624;-0.0025755;0.203763;-0.886382;0.0463636;-0.661466;-0.389687;0.769118;-7.45271;-0.00206547;0.000185961;0.00536935;0.005374;-0.00207012;0.00372206;0.384677;2.59958;0.00443672;0.00496274;2.59599;0.385209;49.5871;94.5871;0.0117378;-0.00209802;-0.00774902;0.00806225;0.0053395;0.0188276;0.022531;0;0.0211813;0.0429445;-0.867781;-1.28481;1.55101;-7.4653;-0.00385886;-0.000183165;0.0131039;0.0131059;-0.00386083;0.00848335;0.294482;3.3958;0.010269;0.0113111;3.39457;0.294588;120.246;165.246;-0.010914;-0.00389077;0.00774177;-0.0079754;0.0130743;0.0298974;0.0416726;0;0.0309296;8.25717;5.13046
442000;443;25.952;0.196015;0.00761046;-2.04523;25.8713;-0.0244825;-0.00443763;0.210738;-0.886402;0.0467581;-0.661894;-0.392482;0.77093;-7.45551;-0.00201955;0.00031576;0.00545029;0.00546361;-0.00203287;0.00374824;0.37054;2.69876;0.00447663;0.00499766;2.68763;0.372075;48.8186;93.8186;0.0115184;-0.00205317;-0.00762533;0.00819783;0.00542142;0.0191632;0.0225293;0;0.0195907;0.0428133;-0.872483;-1.28845;1.55665;-7.46894;-0.00409477;-0.000279865;0.0136381;0.0136425;-0.00409918;0.00887084;0.300245;3.33061;0.0107257;0.0118278;3.3281;0.300472;120.124;165.124;-0.0112622;-0.00412739;0.00764499;-0.00806606;0.0136093;0.0311114;0.0419488;0;0.0293465;8.26713;5.13645
443000;444;25.9579;0.201925;0.00783993;-2.04602;25.8771;-0.0289702;-0.00522988;0.216599;-0.890889;0.0466237;-0.663514;-0.392027;0.772081;-7.45505;-0.00205652;0.000201131;0.00561817;0.00562344;-0.00206179;0.00384261;0.366048;2.73188;0.00459315;0.00512348;2.72746;0.366642;50.0116;95.0116;0.0115012;-0.0020887;-0.00767467;0.00801681;0.00558891;0.0195605;0.0237621;0;0.0217418;0.0425583;-0.879117;-1.29068;1.56222;-7.46734;-0.00415288;-0.000267435;0.0141466;0.0141505;-0.00415679;0.00915366;0.293559;3.40646;0.0110823;0.0122049;3.4042;0.293755;119.327;164.327;-0.0105755;-0.00418474;0.00757669;-0.00797;0.0141184;0.029732;0.044756;0;0.0266761;8.30232;5.14433
444000;445;25.9613;0.20536;0.0079733;-2.04614;25.8805;-0.0391404;-0.00534799;0.220022;-0.90106;0.0463645;-0.664854;-0.390225;0.772305;-7.45325;-0.00194084;0.000353562;0.00566319;0.0056796;-0.00195725;0.00381842;0.342711;2.91791;0.00458039;0.00509123;2.90183;0.34461;49.0875;94.0875;0.0112522;-0.00197469;-0.00758053;0.00822764;0.00563469;0.0198573;0.0233646;0;0.019058;0.0416361;-0.886293;-1.29059;1.56616;-7.46725;-0.00418924;-0.000270168;0.0150259;0.0150297;-0.00419303;0.00961135;0.278802;3.58678;0.0116713;0.0128151;3.58444;0.278984;117.432;162.432;-0.0103853;-0.00421769;0.00713194;-0.00753213;0.0150008;0.0290424;0.0462111;0;0.0250946;8.30423;5.15147
445000;446;25.9677;0.211741;0.00822103;-2.0471;25.8869;-0.0381787;-0.00631152;0.226348;-0.900098;0.0468306;-0.665154;-0.387778;0.771359;-7.4508;-0.00206332;0.000344343;0.00561584;0.00563125;-0.00207873;0.00385499;0.367411;2.72175;0.00460618;0.00513999;2.70898;0.369142;48.9225;93.9225;0.0115305;-0.00209674;-0.00754584;0.00817425;0.00558758;0.0195472;0.0215991;0;0.0269864;0.041624;-0.891567;-1.29077;1.5693;-7.47126;-0.00415422;-0.000268462;0.0151925;0.0151963;-0.00415795;0.00967711;0.273438;3.65713;0.0117644;0.0129028;3.65475;0.273616;117.001;162.001;-0.0110094;-0.004182;0.00704472;-0.00744226;0.0151681;0.0305854;0.0473447;0;0.026481;8.29514;5.15891
446000;447;25.9715;0.215579;0.00837007;-2.04815;25.8906;-0.0398535;-0.00736031;0.230113;-0.901773;0.0472614;-0.666645;-0.3868;0.772181;-7.44983;-0.00201325;0.000273352;0.0058369;0.00584641;-0.00202275;0.00393458;0.344917;2.89925;0.00471866;0.00524611;2.89032;0.345982;49.9445;94.9445;0.0119051;-0.00204627;-0.0076389;0.00812384;0.00580793;0.0188578;0.0225524;0;0.0207309;0.042062;-0.897861;-1.28928;1.57168;-7.46594;-0.00405363;-0.000201963;0.0152899;0.015292;-0.00405573;0.00967386;0.265118;3.7719;0.0117816;0.0128985;3.77046;0.26522;116.205;161.205;-0.0099011;-0.0040796;0.00692715;-0.00719524;0.0152663;0.0309419;0.0473854;0;0.0266441;8.32108;5.16603
447000;448;25.9786;0.222606;0.00864288;-2.04907;25.8976;-0.0364625;-0.00828133;0.237094;-0.898382;0.0473941;-0.668084;-0.386882;0.773473;-7.44991;-0.00190365;0.000626055;0.00604826;0.00609725;-0.00195264;0.00402495;0.314744;3.17719;0.0048486;0.00536659;3.12257;0.320249;48.0387;93.0387;0.0116668;-0.00193919;-0.00725575;0.00844553;0.00602229;0.0191023;0.0229706;0;0.0189205;0.0416002;-0.90523;-1.29034;1.57675;-7.467;-0.00417415;-0.000210389;0.0159434;0.0159456;-0.00417635;0.0100609;0.261811;3.81955;0.0122619;0.0134146;3.81806;0.261913;114.647;159.647;-0.00937135;-0.0041971;0.00647615;-0.00676451;0.0159227;0.0298815;0.0450036;0;0.0284265;8.34683;5.17349
448000;449;25.9832;0.227187;0.00882075;-2.05065;25.9021;-0.0403981;-0.0098655;0.241558;-0.902317;0.047397;-0.668352;-0.387683;0.774106;-7.45071;-0.00184825;0.000526195;0.00554079;0.00557807;-0.00188554;0.00373181;0.333572;2.99785;0.00448146;0.00497574;2.95835;0.338026;47.5574;92.5574;0.0114943;-0.00188436;-0.00751297;0.00850625;0.00551286;0.0197401;0.0228994;0;0.0194077;0.0410389;-0.911187;-1.29304;1.58237;-7.4697;-0.00419479;-0.00037727;0.0165138;0.0165207;-0.00420166;0.0103612;0.254017;3.93674;0.0126491;0.0138149;3.93194;0.254328;114.426;159.426;-0.00962113;-0.00421879;0.00630569;-0.00692407;0.0164943;0.0309764;0.042855;0;0.0302342;8.34947;5.18074
449000;450;25.9896;0.233618;0.00907044;-2.05059;25.9085;-0.0397245;-0.00980469;0.248015;-0.901644;0.0473638;-0.668786;-0.386985;0.774129;-7.45001;-0.00212565;0.000541308;0.0061139;0.00614931;-0.00216106;0.00415519;0.347675;2.87625;0.00497877;0.00554025;2.8455;0.351432;48.3833;93.3833;0.0116701;-0.00216171;-0.00748344;0.0085003;0.00608621;0.0185972;0.0218225;0;0.0220226;0.0403682;-0.918245;-1.29402;1.58723;-7.47451;-0.00443069;-0.000434117;0.0166742;0.0166831;-0.00443962;0.0105614;0.265721;3.76334;0.01286;0.0140818;3.75779;0.266114;115.125;160.125;-0.0108484;-0.00445666;0.00647842;-0.00720313;0.0166537;0.0326154;0.0414447;0;0.0334133;8.36972;5.18792
450000;451;25.9978;0.241792;0.0093878;-2.05117;25.9167;-0.0398568;-0.0103804;0.256169;-0.901776;0.0472159;-0.67035;-0.385938;0.774949;-7.44896;-0.00206916;0.000516886;0.00597027;0.00600337;-0.00210226;0.00405281;0.346578;2.88536;0.00485709;0.00540375;2.85567;0.35018;48.3133;93.3133;0.0116633;-0.00210505;-0.00750902;0.00847862;0.00594238;0.0183232;0.0212086;0;0.0253278;0.0398801;-0.925973;-1.29435;1.59196;-7.47101;-0.00465087;-0.000404804;0.0169469;0.0169545;-0.00465845;0.0108065;0.274438;3.64381;0.0131341;0.0144086;3.63951;0.274763;115.09;160.09;-0.0102162;-0.00467708;0.00657394;-0.00723532;0.0169257;0.0343268;0.0441631;0;0.0357892;8.39345;5.19468
451000;452;26.0025;0.246498;0.00957054;-2.05136;25.9214;-0.0459702;-0.0105697;0.260865;-0.90789;0.0476274;-0.670273;-0.385472;0.774676;-7.4485;-0.0019533;0.000470774;0.00628143;0.00630826;-0.00198013;0.00414419;0.310964;3.2158;0.00499805;0.00552559;3.18578;0.313895;49.4371;94.4371;0.0116543;-0.00198878;-0.00755294;0.0084288;0.0062532;0.0195334;0.0234405;0;0.0265189;0.0397448;-0.931756;-1.29545;1.59622;-7.47211;-0.00474919;-0.000308222;0.0175826;0.0175869;-0.00475344;0.0111702;0.270107;3.70224;0.0135891;0.0148935;3.69982;0.270283;114.55;159.55;-0.00998651;-0.00477598;0.00684966;-0.007309;0.0175596;0.0335893;0.0463306;0;0.038294;8.38586;5.20098
452000;453;26.0077;0.251695;0.0097723;-2.05299;25.9265;-0.0498371;-0.0122003;0.265942;-0.911756;0.0479495;-0.670149;-0.387173;0.775437;-7.4502;-0.00200227;0.000440672;0.00615223;0.00617597;-0.00202602;0.004101;0.325455;3.07262;0.00493333;0.00546799;3.04833;0.328048;49.4121;94.4121;0.0120201;-0.00203659;-0.00747091;0.00828811;0.00612459;0.0169921;0.0224541;0;0.0208799;0.0393346;-0.936134;-1.29971;1.60223;-7.47637;-0.00498317;-4.41551e-05;0.0179443;0.0179444;-0.00498325;0.0114638;0.277701;3.60099;0.0139245;0.0152851;3.60095;0.277705;113.53;158.53;-0.00997459;-0.00500741;0.00701662;-0.0069459;0.0179202;0.0336562;0.0452019;0;0.0323513;8.37741;5.20177
453000;454;26.0121;0.256167;0.00994592;-2.05427;25.9308;-0.0520803;-0.0134784;0.270322;-0.914;0.0479527;-0.67141;-0.387471;0.776675;-7.4505;-0.00189283;0.000581591;0.00669176;0.00673098;-0.00193206;0.00433152;0.282861;3.53531;0.00525118;0.00577536;3.48384;0.287039;49.6076;94.6076;0.0119106;-0.00192931;-0.00745854;0.00855312;0.0066643;0.0179821;0.0214746;0;0.020965;0.0386886;-0.94286;-1.30109;1.60727;-7.47775;-0.00495144;-0.000102069;0.018622;0.0186225;-0.00495189;0.0117872;0.265892;3.76093;0.0143532;0.0157162;3.76068;0.265909;112.691;157.691;-0.00987558;-0.00497536;0.00685665;-0.00689974;0.0185989;0.0329239;0.0464972;0;0.031164;8.41811;5.2092
454000;455;26.0164;0.260398;0.0101102;-2.05458;25.935;-0.0595088;-0.0137872;0.274525;-0.921428;0.0476259;-0.672259;-0.386847;0.777079;-7.44987;-0.00193532;0.000617057;0.00665928;0.00670336;-0.0019794;0.00434138;0.29062;3.44092;0.00525449;0.0057885;3.38656;0.295285;49.2925;94.2925;0.0119811;-0.00197177;-0.00738575;0.0085515;0.00663238;0.0183865;0.0228023;0;0.0252728;0.0377001;-0.950059;-1.3024;1.61254;-7.47906;-0.00501513;-0.000191502;0.0194805;0.019482;-0.00501663;0.0122493;0.257443;3.88435;0.0149436;0.0163324;3.88349;0.2575;111.38;156.38;-0.00931893;-0.0050374;0.00643541;-0.00665918;0.0194602;0.0318102;0.0456012;0;0.0306521;8.43396;5.21578
455000;456;26.0227;0.266728;0.010356;-2.05518;25.9413;-0.0600539;-0.0143909;0.280827;-0.921973;0.0480606;-0.671898;-0.387324;0.777031;-7.45035;-0.00182018;0.000654459;0.00698534;0.00703372;-0.00186855;0.00445114;0.260571;3.83773;0.00542044;0.00593485;3.76426;0.265657;49.8947;94.8947;0.0117023;-0.00185675;-0.00733082;0.00856987;0.00695887;0.0186279;0.0208281;0;0.0202242;0.0373046;-0.95621;-1.30336;1.61693;-7.48002;-0.00513114;-0.000215421;0.0200742;0.020076;-0.00513298;0.0126045;0.255609;3.91222;0.0153831;0.016806;3.91117;0.255678;110.609;155.609;-0.00910199;-0.0051525;0.00625157;-0.00652261;0.020055;0.0299885;0.0422034;0;0.0317539;8.42417;5.22297
456000;457;26.0293;0.273298;0.010611;-2.05733;25.9478;-0.0548493;-0.0165365;0.287258;-0.916769;0.0476857;-0.672987;-0.38757;0.778072;-7.4506;-0.00198378;0.000526886;0.00643068;0.00646354;-0.00201664;0.00424009;0.308487;3.24163;0.0051155;0.00565346;3.2051;0.312003;49.2753;94.2753;0.0122437;-0.0020202;-0.00755571;0.00854187;0.00640245;0.0159732;0.0222064;0;0.0207724;0.036239;-0.962906;-1.30645;1.62336;-7.48311;-0.0051088;-0.000192101;0.0210073;0.0210087;-0.00511021;0.0130595;0.243192;4.11198;0.0159839;0.0174126;4.11112;0.243242;109.143;154.143;-0.00888188;-0.00512849;0.00603761;-0.00626246;0.0209895;0.0318268;0.0406488;0;0.0354134;8.45229;5.23099
457000;458;26.0385;0.282508;0.0109686;-2.05772;25.957;-0.0545684;-0.0169332;0.296466;-0.916488;0.0475784;-0.674742;-0.383629;0.777632;-7.44665;-0.00198068;0.000523399;0.00656731;0.00659924;-0.0020126;0.00430592;0.301596;3.31569;0.0052018;0.00574123;3.27895;0.304975;49.7371;94.7371;0.0116565;-0.00201569;-0.00739711;0.00837662;0.00654026;0.0177784;0.0223456;0;0.0275141;0.0355747;-0.971854;-1.30403;1.62673;-7.48069;-0.00514089;-0.000217694;0.0215008;0.0215026;-0.00514267;0.0133226;0.239102;4.18232;0.0163216;0.0177635;4.18122;0.239165;108.743;153.743;-0.00848895;-0.00516059;0.00599066;-0.00626412;0.0214833;0.032179;0.0420391;0;0.0359867;8.47182;5.23848
458000;459;26.046;0.290043;0.0112612;-2.05776;25.9645;-0.0581774;-0.0169745;0.304015;-0.920097;0.0479067;-0.674761;-0.38371;0.777709;-7.44674;-0.00183396;0.000697563;0.00625334;0.00631307;-0.00189368;0.00410337;0.293276;3.40975;0.00496189;0.00547117;3.33375;0.299962;47.8779;92.8779;0.0119644;-0.00187201;-0.00741417;0.00874405;0.00622627;0.0176059;0.022802;0;0.0271559;0.0349663;-0.979239;-1.30634;1.63299;-7.48684;-0.0055067;-0.00022519;0.0221844;0.0221863;-0.00550853;0.0138474;0.248224;4.02862;0.0169284;0.0184632;4.02762;0.248286;108.905;153.905;-0.0101506;-0.00552767;0.0061845;-0.00646123;0.0221657;0.0338891;0.0421126;0;0.037301;8.46694;5.2448
459000;460;26.0513;0.29532;0.0114661;-2.05942;25.9697;-0.0599015;-0.0186291;0.309173;-0.921821;0.048028;-0.674098;-0.384584;0.777573;-7.44761;-0.00206574;0.000553155;0.0065749;0.00661017;-0.002101;0.00435559;0.314185;3.18284;0.00524919;0.00580745;3.1462;0.317844;49.254;94.254;0.0120471;-0.00210279;-0.00758061;0.00861706;0.00654651;0.0172936;0.0214879;0;0.0232199;0.0345908;-0.983367;-1.30728;1.63621;-7.48394;-0.00557189;-0.000158297;0.022098;0.0220989;-0.0055728;0.0138359;0.252144;3.96598;0.0168993;0.0184478;3.9655;0.252175;108.639;153.639;-0.00962331;-0.00559171;0.00613372;-0.00627998;0.0220796;0.0343635;0.0440611;0;0.0389481;8.45924;5.2505
460000;461;26.0572;0.301219;0.0116951;-2.05991;25.9756;-0.063015;-0.0191204;0.315044;-0.924934;0.0487091;-0.674407;-0.386142;0.778655;-7.44917;-0.00188566;0.000755467;0.00677454;0.00683995;-0.00195107;0.00439551;0.278346;3.59265;0.0053307;0.00586068;3.50574;0.285247;48.7121;93.7121;0.0114253;-0.00192312;-0.00723747;0.0086796;0.00674881;0.0178181;0.0210522;0;0.0202224;0.0346133;-0.989834;-1.31079;1.64291;-7.48745;-0.00578627;2.17165e-05;0.0222775;0.0222775;-0.00578629;0.0140319;0.259736;3.85007;0.0171098;0.0187092;3.85006;0.259736;108.928;153.928;-0.00986938;-0.00580678;0.00661081;-0.00638649;0.0222562;0.0362159;0.0482752;0;0.0371274;8.4966;5.25645
461000;462;26.0594;0.303472;0.0117826;-2.06176;25.9776;-0.0764029;-0.0209712;0.317121;-0.938322;0.0478331;-0.677074;-0.381881;0.778813;-7.44491;-0.00208007;0.000613871;0.00685877;0.00690073;-0.00212203;0.00451138;0.303272;3.29737;0.00544739;0.00601518;3.25194;0.307508;49.5443;94.5443;0.0113338;-0.00211661;-0.00740484;0.00856135;0.00683173;0.018962;0.0212172;0;0.0243526;0.0331728;-0.998708;-1.31046;1.64798;-7.48712;-0.00579662;7.5549e-05;0.0231197;0.0231199;-0.00579682;0.0144583;0.250723;3.98847;0.0176654;0.0192778;3.98837;0.250729;107.234;152.234;-0.00888114;-0.00581421;0.00623991;-0.00591459;0.0231006;0.0350404;0.0483932;0;0.0358344;8.51051;5.26705
462000;463;26.0658;0.309844;0.01203;-2.0627;25.984;-0.0773075;-0.0219146;0.323436;-0.939227;0.0485535;-0.676478;-0.382736;0.77876;-7.44576;-0.00215076;0.000634825;0.00675347;0.0067985;-0.00219579;0.00449715;0.318467;3.14004;0.00541476;0.0059962;3.09615;0.322981;49.1091;94.1091;0.0118811;-0.00218743;-0.00738017;0.00857889;0.00672662;0.0180116;0.0213369;0;0.0240585;0.0327114;-1.00426;-1.31278;1.65317;-7.48944;-0.0059924;-9.1489e-05;0.0238252;0.0238255;-0.00599268;0.0149091;0.251515;3.97591;0.0182129;0.0198788;3.97577;0.251523;107.057;152.057;-0.00942625;-0.00601067;0.0060232;-0.00602809;0.0238075;0.0360306;0.0459062;0;0.0376306;8.49911;5.26784
463000;464;26.0728;0.316863;0.0123025;-2.06305;25.991;-0.0774757;-0.0222593;0.330449;-0.939395;0.0483242;-0.677176;-0.383959;0.779954;-7.44698;-0.00183951;0.0007762;0.00701237;0.00707992;-0.00190706;0.00449349;0.262324;3.81209;0.00546764;0.00599132;3.71248;0.269362;49.1876;94.1876;0.0116404;-0.00187683;-0.00718405;0.00866642;0.00698704;0.0169433;0.0212671;0;0.0255219;0.0320202;-1.0116;-1.3147;1.65915;-7.49136;-0.00587869;-0.000245153;0.0243493;0.0243513;-0.00588068;0.015116;0.241431;4.14197;0.0185085;0.0201547;4.1409;0.241493;107.068;152.068;-0.00973422;-0.00589841;0.00595918;-0.00626639;0.024332;0.0335851;0.0421866;0;0.038931;8.52208;5.27453
464000;465;26.082;0.326015;0.0126579;-2.06431;26.0001;-0.0709455;-0.0235262;0.339548;-0.932865;0.0479277;-0.679304;-0.379715;0.779701;-7.44274;-0.00202945;0.000484261;0.00729012;0.00731522;-0.00205454;0.00468488;0.278383;3.59217;0.00568675;0.00624651;3.56051;0.280859;51.3022;96.3022;0.0116965;-0.00206474;-0.00751176;0.00840627;0.00726223;0.0174856;0.021105;0;0.0280849;0.0306887;-1.02129;-1.31275;1.66352;-7.49324;-0.00604338;-0.000308267;0.0254623;0.0254653;-0.0060464;0.0157558;0.237346;4.21325;0.0193105;0.0210078;4.21165;0.237437;105.931;150.931;-0.00971747;-0.00606179;0.00562318;-0.00605747;0.0254469;0.0325763;0.0418467;0;0.0426119;8.54659;5.28726
465000;466;26.0882;0.332262;0.0129004;-2.06513;26.0063;-0.0773665;-0.0243398;0.345732;-0.939286;0.0482315;-0.677923;-0.382423;0.779842;-7.44545;-0.0020285;0.000721279;0.0073539;0.00740902;-0.00208363;0.00474633;0.27584;3.62529;0.00576089;0.00632843;3.55583;0.281228;50.0959;95.0959;0.0114299;-0.00206493;-0.007189;0.00855783;0.00732851;0.0177438;0.0209651;0;0.0288312;0.0301993;-1.0274;-1.31728;1.67083;-7.49777;-0.00592477;-0.000233372;0.0261607;0.0261624;-0.00592647;0.0160445;0.226476;4.41548;0.0197163;0.0213926;4.41451;0.226526;105.319;150.319;-0.00951858;-0.00594288;0.00572399;-0.00600446;0.0261448;0.0338594;0.0409327;0;0.0412168;8.53479;5.28947
466000;467;26.0971;0.341123;0.0132444;-2.0655;26.0151;-0.0730869;-0.0247123;0.354604;-0.935006;0.0475811;-0.678225;-0.38447;0.78107;-7.4475;-0.00209314;0.000614175;0.00676537;0.00680775;-0.00213552;0.00447164;0.309391;3.23216;0.00539317;0.00596218;3.18786;0.31369;49.3362;94.3362;0.0117056;-0.00212964;-0.00739906;0.00855686;0.00673837;0.0172459;0.0212841;0;0.0289228;0.0292222;-1.03306;-1.32102;1.67725;-7.49768;-0.00579213;-8.14934e-05;0.026425;0.0264252;-0.00579234;0.0161088;0.219191;4.56223;0.0198316;0.0214784;4.5621;0.219197;104.475;149.475;-0.00924853;-0.00580844;0.00571506;-0.00569611;0.0264091;0.036168;0.0434126;0;0.0415664;8.53533;5.29696
467000;468;26.1014;0.345416;0.0134111;-2.06581;26.0194;-0.0814402;-0.0250209;0.35886;-0.94336;0.0476407;-0.680784;-0.380092;0.781157;-7.44312;-0.00209323;0.000626535;0.00694886;0.00699207;-0.00213644;0.00456425;0.301233;3.31969;0.00551328;0.00608567;3.27277;0.305551;49.5876;94.5876;0.0113938;-0.00213029;-0.00744265;0.00862322;0.00692155;0.0179405;0.0195018;0;0.0210827;0.0286495;-1.04124;-1.31932;1.68095;-7.49598;-0.00597285;2.7247e-05;0.0266054;0.0266054;-0.00597287;0.0162891;0.224498;4.45438;0.020027;0.0217188;4.45437;0.224499;104.735;149.735;-0.010179;-0.00598977;0.00604512;-0.00579966;0.0265876;0.0370377;0.0470252;0;0.0394759;8.56513;5.30338
468000;469;26.1086;0.35261;0.0136904;-2.06714;26.0265;-0.0840249;-0.0263543;0.365963;-0.945944;0.0474681;-0.680649;-0.381612;0.781769;-7.44464;-0.00211752;0.000713408;0.00698627;0.00704184;-0.00217309;0.00460746;0.303097;3.29927;0.00556227;0.00614329;3.24048;0.308597;49.0812;94.0812;0.0115711;-0.00215545;-0.00737577;0.00872941;0.00695951;0.0181874;0.0214591;0;0.0236787;0.0277959;-1.04873;-1.32299;1.68846;-7.49965;-0.00637041;0.000122524;0.0269102;0.0269107;-0.00637086;0.0166408;0.236728;4.22425;0.0203984;0.0221877;4.22402;0.236741;104.369;149.369;-0.00920909;-0.00638607;0.00601623;-0.00558018;0.0268926;0.0370517;0.0477402;0;0.0401697;8.57113;5.31066
469000;470;26.1108;0.354816;0.0137761;-2.06904;26.0285;-0.0937153;-0.0282519;0.367993;-0.955635;0.047932;-0.681892;-0.379417;0.781813;-7.44244;-0.00223213;0.000625696;0.00708446;0.0071263;-0.00227396;0.00470013;0.315073;3.17386;0.00566313;0.00626684;3.13387;0.319094;49.7411;94.7411;0.0117085;-0.00226883;-0.00740457;0.00858164;0.00705744;0.0171462;0.0204733;0;0.0204591;0.0276077;-1.05584;-1.32212;1.69221;-7.49878;-0.00654097;0.00016775;0.0273806;0.0273814;-0.0065418;0.0169616;0.23889;4.18602;0.020781;0.0226155;4.18561;0.238914;103.78;148.78;-0.008769;-0.00655549;0.00589852;-0.00537381;0.0273637;0.0363606;0.0455168;0;0.0405808;8.56098;5.31729
470000;471;26.118;0.362036;0.0140564;-2.06906;26.0358;-0.0918802;-0.0282721;0.37524;-0.9538;0.0480382;-0.683002;-0.378738;0.782459;-7.44176;-0.0020741;0.000848998;0.00707665;0.00715475;-0.0021522;0.00465347;0.29309;3.41192;0.00562616;0.00620463;3.32439;0.300807;48.5019;93.5019;0.0119061;-0.00211306;-0.00723528;0.00885976;0.00705101;0.0167295;0.0217605;0;0.020178;0.0269709;-1.06366;-1.32259;1.69745;-7.49925;-0.00639642;1.65824e-05;0.028012;0.028012;-0.00639643;0.0172042;0.228346;4.37933;0.021132;0.022939;4.37932;0.228346;103.834;148.834;-0.00879933;-0.0064124;0.00586425;-0.00563536;0.0279953;0.0357181;0.0429941;0;0.0438703;8.59081;5.32551
471000;472;26.1254;0.369465;0.0143448;-2.06983;26.0431;-0.0927095;-0.0290463;0.382628;-0.954629;0.0481673;-0.68456;-0.377632;0.783293;-7.44066;-0.00198862;0.000907417;0.00729323;0.00738111;-0.0020765;0.0047288;0.272666;3.66749;0.00573951;0.00630507;3.5546;0.281326;48.5905;93.5905;0.0116565;-0.00202913;-0.00729886;0.00903801;0.0072672;0.0178484;0.0203392;0;0.0204379;0.0262191;-1.07338;-1.32311;1.70395;-7.5036;-0.006488;-0.000117618;0.0287525;0.0287529;-0.00648839;0.0176206;0.22565;4.43164;0.0216578;0.0234942;4.43144;0.225661;104.659;149.659;-0.00985809;-0.0065076;0.00622469;-0.00624266;0.0287337;0.0318636;0.0439707;0;0.0437394;8.60667;5.33181
472000;473;26.1344;0.378441;0.0146933;-2.07039;26.0521;-0.0893986;-0.0295966;0.391601;-0.951318;0.0476638;-0.68492;-0.374085;0.781874;-7.43711;-0.00215763;0.00066764;0.00687688;0.00692595;-0.0022067;0.00456633;0.313751;3.18724;0.0055024;0.00608843;3.1386;0.318613;49.0031;94.0031;0.0116827;-0.00219597;-0.00751056;0.00877242;0.00684909;0.0176471;0.0211147;0;0.0186263;0.0252274;-1.08023;-1.32289;1.70809;-7.50338;-0.0064841;-0.000195821;0.0296819;0.029683;-0.00648516;0.0180841;0.218453;4.57765;0.0222674;0.0241121;4.57706;0.218481;103.807;148.807;-0.00982215;-0.00650265;0.00589698;-0.00607461;0.0296651;0.0334529;0.0422326;0;0.0453368;8.59432;5.33902
473000;474;26.1425;0.386564;0.0150087;-2.07238;26.0601;-0.0859836;-0.0315923;0.399602;-0.947903;0.0482112;-0.684332;-0.379332;0.783918;-7.44236;-0.00210358;0.000833095;0.00737996;0.00745259;-0.00217621;0.0048144;0.285039;3.50829;0.00583077;0.0064192;3.42458;0.292007;49.1867;94.1867;0.0122099;-0.00214268;-0.00728373;0.00887346;0.00735397;0.0167134;0.0202776;0;0.0216127;0.0250176;-1.08531;-1.32913;1.71613;-7.50579;-0.00665811;-8.91604e-05;0.0303293;0.0303295;-0.00665833;0.0184939;0.219528;4.55523;0.022766;0.0246585;4.55512;0.219533;102.705;147.705;-0.00696822;-0.00667396;0.00563951;-0.00561218;0.0303138;0.032771;0.0394445;0;0.0465991;8.59685;5.33944
474000;475;26.1506;0.394613;0.0153212;-2.07196;26.0682;-0.0898652;-0.0311762;0.407696;-0.951785;0.0478727;-0.684242;-0.382748;0.785477;-7.44577;-0.00210569;0.000843293;0.00763862;0.00771106;-0.00217813;0.00494459;0.275663;3.62761;0.00600001;0.00659279;3.54022;0.282468;49.6781;94.6781;0.0113208;-0.00214479;-0.00726633;0.00887444;0.00761277;0.0179309;0.0194306;0;0.0210689;0.0236203;-1.09219;-1.33496;1.72498;-7.51162;-0.00667874;-3.82703e-05;0.0305045;0.0305045;-0.00667878;0.0185916;0.218943;4.5674;0.0228897;0.0247889;4.56738;0.218944;102.976;147.976;-0.00978046;-0.00669553;0.00591388;-0.00577565;0.0304875;0.0380947;0.0473566;0;0.0463831;8.63095;5.35152
475000;476;26.1554;0.399382;0.0155064;-2.07289;26.0729;-0.0987651;-0.0321026;0.412374;-0.960684;0.0481919;-0.684003;-0.381355;0.784611;-7.44438;-0.00215194;0.000695902;0.00726427;0.00731542;-0.00220309;0.00475926;0.296236;3.37569;0.00575367;0.00634568;3.32053;0.301157;49.7164;94.7164;0.0114012;-0.00218981;-0.00740513;0.00872116;0.00723729;0.018101;0.0214725;0;0.0236066;0.0229699;-1.09892;-1.33617;1.73017;-7.51283;-0.00692881;-3.09471e-05;0.0309363;0.0309363;-0.00692884;0.0189326;0.223971;4.46487;0.0232801;0.0252434;4.46486;0.223971;102.39;147.39;-0.00879938;-0.00694414;0.00566438;-0.00551709;0.0309207;0.0371104;0.0477626;0;0.0437474;8.63003;5.3552
476000;477;26.1594;0.403475;0.0156653;-2.07361;26.0769;-0.105454;-0.0328184;0.416397;-0.967373;0.0477498;-0.685538;-0.378996;0.784781;-7.44202;-0.00218702;0.000914806;0.00738367;0.00747032;-0.00227368;0.004872;0.296197;3.37613;0.00588635;0.006496;3.28557;0.304361;48.6129;93.6129;0.0118144;-0.00222693;-0.00721875;0.00897103;0.00735822;0.017313;0.020176;0;0.0246149;0.0223804;-1.10656;-1.33557;1.73457;-7.51223;-0.00718313;4.14843e-05;0.031277;0.0312771;-0.00718317;0.0192301;0.229661;4.35424;0.0236128;0.0256402;4.35422;0.229662;101.821;146.821;-0.00827437;-0.00719691;0.00551834;-0.00523112;0.0312623;0.0370516;0.0484034;0;0.0443198;8.62754;5.36154
477000;478;26.1634;0.407455;0.0158198;-2.07524;26.0808;-0.1084;-0.034452;0.420248;-0.97032;0.0477294;-0.687677;-0.377058;0.785716;-7.44008;-0.00217941;0.000764355;0.00757594;0.00763546;-0.00223893;0.0049372;0.287675;3.47615;0.00597805;0.00658293;3.41032;0.293228;49.7882;94.7882;0.0114909;-0.00221897;-0.00746998;0.00891892;0.00754854;0.0175693;0.0206676;0;0.0223326;0.0216448;-1.11502;-1.33625;1.74049;-7.51291;-0.00721062;0.000129535;0.0316484;0.0316488;-0.00721105;0.0194299;0.227835;4.38914;0.0238688;0.0259066;4.38894;0.227846;101.95;146.95;-0.00839106;-0.00722502;0.00582335;-0.00534982;0.031632;0.0363585;0.0463461;0;0.046568;8.65307;5.36911
478000;479;26.171;0.415031;0.016114;-2.07666;26.0882;-0.110825;-0.035871;0.427725;-0.972745;0.0474986;-0.688061;-0.377845;0.786416;-7.44087;-0.00221991;0.000777861;0.0072642;0.00732758;-0.00228329;0.00480543;0.305596;3.27229;0.005798;0.00640724;3.20922;0.311602;49.0438;94.0438;0.0118578;-0.00225942;-0.00743402;0.00891237;0.00723707;0.0168777;0.0204913;0;0.0207823;0.0201217;-1.12389;-1.3387;1.74804;-7.5192;-0.0071266;1.29885e-06;0.0323254;0.0323254;-0.0071266;0.019726;0.220465;4.53587;0.024277;0.0263013;4.53587;0.220465;102.372;147.372;-0.00991511;-0.00714339;0.00600503;-0.00577299;0.0323079;0.0346841;0.0482683;0;0.0495665;8.66056;5.37639
479000;480;26.1784;0.422391;0.0163997;-2.07764;26.0956;-0.109447;-0.0368484;0.435036;-0.971366;0.0472999;-0.687201;-0.378916;0.786168;-7.44194;-0.0023091;0.000855231;0.00734667;0.00742184;-0.00238427;0.00490305;0.314306;3.18161;0.00590533;0.0065374;3.11284;0.32125;48.7148;93.7148;0.0113672;-0.00234881;-0.00730947;0.00894161;0.00732052;0.0183466;0.0199506;0;0.0229774;0.0194003;-1.129;-1.34143;1.75341;-7.51809;-0.00705465;-8.40723e-05;0.0330513;0.0330514;-0.00705482;0.0200531;0.213446;4.68503;0.0247237;0.0267375;4.68494;0.21345;102.145;147.145;-0.00875891;-0.00707189;0.00591616;-0.00585135;0.0330343;0.0361425;0.0470408;0;0.0504906;8.65177;5.38386
480000;481;26.1869;0.430904;0.0167303;-2.07856;26.104;-0.108023;-0.0377754;0.443508;-0.969942;0.0482475;-0.688149;-0.378179;0.7867;-7.4412;-0.00210018;0.0010796;0.00751507;0.0076348;-0.00221991;0.00492735;0.279463;3.5783;0.00596905;0.0065698;3.43924;0.290762;48.0669;93.0669;0.0116644;-0.00214123;-0.00703379;0.00911549;0.00749109;0.0172138;0.0198612;0;0.0232509;0.019586;-1.13698;-1.34156;1.75866;-7.51822;-0.00715859;-0.000139643;0.0336182;0.0336187;-0.00715906;0.0203889;0.212938;4.69621;0.0251409;0.0271852;4.69596;0.212949;102.182;147.182;-0.00718187;-0.00717663;0.00594853;-0.00598763;0.0336011;0.0328107;0.0457838;0;0.0510593;8.67208;5.39124
481000;482;26.1963;0.440355;0.0170972;-2.0789;26.1135;-0.108747;-0.0381071;0.45296;-0.970667;0.0478338;-0.69026;-0.375916;0.787439;-7.43894;-0.00222035;0.00105252;0.00760966;0.00772109;-0.00233178;0.00502644;0.291781;3.42723;0.00607569;0.00670192;3.31124;0.302002;48.158;93.158;0.0115235;-0.00226253;-0.00721002;0.00923439;0.00758441;0.0173708;0.0204876;0;0.0238119;0.0183687;-1.14594;-1.34292;1.76549;-7.51958;-0.00707258;-6.65487e-05;0.0340212;0.0340213;-0.00707268;0.020547;0.207887;4.8103;0.0253692;0.027396;4.81024;0.20789;101.82;146.82;-0.00959254;-0.00708998;0.00598604;-0.00587859;0.0340039;0.040229;0.0492164;0;0.0473426;8.68965;5.39914
482000;483;26.204;0.447999;0.017394;-2.07859;26.1212;-0.107507;-0.0377977;0.460658;-0.969426;0.0476663;-0.692339;-0.37111;0.786974;-7.43413;-0.00230192;0.000905939;0.00741063;0.00749441;-0.0023857;0.00494005;0.310624;3.21932;0.00595304;0.00658674;3.14139;0.318331;48.5648;93.5648;0.0117548;-0.00234207;-0.00726267;0.00899573;0.00738486;0.0178008;0.0208949;0;0.0195109;0.0174953;-1.15491;-1.33978;1.76893;-7.51643;-0.00723271;-0.000137963;0.0347056;0.0347061;-0.00723317;0.0209696;0.208402;4.79843;0.0258875;0.0279595;4.79819;0.208412;101.011;146.011;-0.00883094;-0.00724825;0.00550833;-0.00555539;0.034691;0.0396177;0.0469813;0;0.0503538;8.68131;5.40674
483000;484;26.208;0.452;0.0175493;-2.0791;26.1251;-0.120841;-0.0383094;0.464573;-0.98276;0.0484501;-0.692769;-0.371916;0.78778;-7.43494;-0.00218052;0.00101511;0.0077787;0.00788112;-0.00228293;0.00508203;0.280319;3.56736;0.00615777;0.00677603;3.45219;0.289671;48.7639;93.7639;0.0113437;-0.00222243;-0.00725244;0.00920089;0.00775312;0.0179859;0.0193394;0;0.0212304;0.0175491;-1.16225;-1.34185;1.7753;-7.51851;-0.00768918;-5.97936e-05;0.0350129;0.035013;-0.00768926;0.0213511;0.21961;4.55353;0.0262827;0.0284682;4.55349;0.219612;100.577;145.577;-0.00779308;-0.00770316;0.00537195;-0.00526743;0.034999;0.0366074;0.0469909;0;0.0487461;8.68923;5.4095
484000;485;26.2118;0.455842;0.0176985;-2.08001;26.1288;-0.126987;-0.0392199;0.468325;-0.988907;0.0478359;-0.693644;-0.371392;0.788265;-7.43442;-0.0022525;0.00102981;0.00717117;0.00728239;-0.00236372;0.00482306;0.314104;3.18365;0.00580551;0.00643074;3.0809;0.32458;47.1859;92.1859;0.0111735;-0.00229553;-0.00734217;0.00932338;0.00714493;0.0194687;0.0211574;0;0.022593;0.0162863;-1.17009;-1.34454;1.78246;-7.5212;-0.00799329;0.000110748;0.0353018;0.0353021;-0.00799357;0.0216479;0.226427;4.41644;0.0266027;0.0288638;4.41632;0.226433;100.436;145.436;-0.00732586;-0.00800659;0.00558975;-0.00513913;0.0352868;0.0346687;0.0464625;0;0.0493344;8.71151;5.42047
485000;486;26.2199;0.463975;0.0180143;-2.0811;26.1369;-0.130926;-0.0403132;0.476377;-0.992845;0.0480527;-0.69372;-0.36997;0.787676;-7.433;-0.00240549;0.000574422;0.00769076;0.00772333;-0.00243806;0.0050807;0.312776;3.19717;0.0061255;0.00677427;3.16781;0.315675;50.823;95.823;0.0110222;-0.00244347;-0.00765746;0.00872379;0.00766183;0.0191448;0.0198699;0;0.0261849;0.0157752;-1.17838;-1.34715;1.78987;-7.52764;-0.00790589;8.09081e-05;0.0360969;0.036097;-0.00790604;0.0220015;0.219019;4.56582;0.0270874;0.0293354;4.56575;0.219022;100.302;145.302;-0.00871746;-0.00791973;0.0056383;-0.00524047;0.0360815;0.0328436;0.0495409;0;0.0514693;8.7135;5.42529
486000;487;26.2264;0.470448;0.0182656;-2.08293;26.1433;-0.125955;-0.0421451;0.48275;-0.987874;0.0483641;-0.692746;-0.372399;0.787983;-7.43542;-0.00237363;0.000788071;0.00722775;0.007292;-0.00243788;0.00486494;0.328405;3.04502;0.00584593;0.00648659;2.99112;0.334323;48.8176;93.8176;0.0109436;-0.00241244;-0.00733658;0.00883522;0.00720134;0.0184822;0.0196195;0;0.0241045;0.0151521;-1.18458;-1.34802;1.79461;-7.52468;-0.00783822;-4.06336e-06;0.0367035;0.0367035;-0.00783822;0.0222709;0.213555;4.68264;0.0274573;0.0296945;4.68264;0.213555;100.741;145.741;-0.00756034;-0.00785427;0.00588764;-0.00564263;0.0366868;0.0342347;0.0474753;0;0.0538531;8.70454;5.42852
487000;488;26.2343;0.478367;0.0185731;-2.08344;26.1512;-0.122938;-0.0426536;0.490668;-0.984857;0.0478371;-0.695712;-0.369013;0.78897;-7.43204;-0.00235974;0.000716985;0.00754453;0.00759617;-0.00241137;0.00500377;0.312774;3.19719;0.0060308;0.00667169;3.15014;0.317446;49.8941;94.8941;0.0114243;-0.00239797;-0.00740995;0.00876398;0.00751754;0.0186145;0.0195098;0;0.0226474;0.0139032;-1.19354;-1.34812;1.8006;-7.52478;-0.00782249;-8.86564e-05;0.0371758;0.037176;-0.00782267;0.0224993;0.210419;4.75243;0.0277614;0.0299991;4.75234;0.210423;100.629;145.629;-0.00709046;-0.00783883;0.00577073;-0.00569383;0.0371598;0.0335792;0.0498177;0;0.0555188;8.72301;5.43551
488000;489;26.2473;0.491343;0.0190769;-2.08332;26.1642;-0.116965;-0.0425335;0.503722;-0.978885;0.0480786;-0.695962;-0.371121;0.790193;-7.43415;-0.00234709;0.000862339;0.00812346;0.00819401;-0.00241763;0.00530582;0.288927;3.46108;0.00642207;0.00707442;3.38927;0.295049;50.329;95.329;0.0114002;-0.00238607;-0.00722136;0.00886203;0.00809797;0.018424;0.0203876;0;0.026752;0.0129234;-1.20185;-1.35297;1.80973;-7.53346;-0.00799642;-1.91501e-05;0.0373513;0.0373513;-0.00799643;0.0226738;0.214087;4.671;0.0279502;0.0302318;4.67099;0.214087;100.653;145.653;-0.00990004;-0.00801274;0.00591056;-0.00568964;0.0373344;0.0422831;0.0522184;0;0.0503188;8.7413;5.4428
489000;490;26.2517;0.495766;0.0192486;-2.08381;26.1686;-0.127022;-0.0430189;0.508074;-0.988941;0.0479015;-0.696576;-0.369411;0.789923;-7.43244;-0.00234087;0.000807995;0.00770144;0.00776604;-0.00240546;0.00508575;0.303952;3.29;0.00613835;0.006781;3.2285;0.309741;49.6431;94.6431;0.0110734;-0.00238053;-0.00739846;0.00893261;0.00767461;0.0193368;0.0204714;0;0.0261406;0.0122909;-1.20928;-1.35276;1.81451;-7.52942;-0.00805631;-0.00017236;0.0379784;0.0379791;-0.00805696;0.023018;0.212129;4.71412;0.0283887;0.0306907;4.71382;0.212142;99.9654;144.965;-0.00820677;-0.00807118;0.00533254;-0.00543311;0.0379647;0.0413345;0.0472247;0;0.0516035;8.73399;5.4495
490000;491;26.2589;0.502953;0.0195276;-2.08511;26.1757;-0.128672;-0.0443264;0.515171;-0.990592;0.0475884;-0.697926;-0.368171;0.790516;-7.4312;-0.00238589;0.000926024;0.00793697;0.00801938;-0.0024683;0.00524384;0.300604;3.32663;0.00633148;0.00699179;3.24895;0.307792;49.4493;94.4493;0.0110188;-0.00242633;-0.0072629;0.00903102;0.00791123;0.0191453;0.0200639;0;0.0257876;0.0111827;-1.21724;-1.3542;1.8209;-7.53086;-0.00830198;2.31083e-06;0.0388144;0.0388144;-0.00830198;0.0235582;0.213889;4.67531;0.0290418;0.0314109;4.67531;0.213889;99.1124;144.112;-0.00783428;-0.00831451;0.00522665;-0.00498507;0.0388012;0.0390336;0.0453632;0;0.0542594;8.74806;5.45722
491000;492;26.2615;0.505547;0.0196284;-2.0856;26.1782;-0.141234;-0.0448161;0.51767;-1.00315;0.046884;-0.699343;-0.366957;0.791161;-7.42998;-0.00245317;0.000709852;0.00774648;0.00779565;-0.00250233;0.00514899;0.316682;3.15775;0.00620183;0.00686532;3.11535;0.320991;50.1931;95.1931;0.0110924;-0.00249162;-0.00744987;0.00878694;0.0077192;0.019173;0.0220275;0;0.0235478;0.00977968;-1.2261;-1.35615;1.82827;-7.53281;-0.00857486;8.93381e-05;0.0392657;0.0392659;-0.00857502;0.0239205;0.21838;4.57917;0.0294547;0.0318939;4.5791;0.218383;98.5852;143.585;-0.0067179;-0.00858589;0.00508612;-0.00467743;0.0392533;0.034777;0.0441487;0;0.0555639;8.76618;5.46456
492000;493;26.2671;0.511084;0.0198433;-2.0859;26.1837;-0.148116;-0.0451165;0.523163;-1.01004;0.0469796;-0.699514;-0.366901;0.791292;-7.42993;-0.00245784;0.000753888;0.00748538;0.00754221;-0.00251468;0.00502845;0.328353;3.04551;0.00604336;0.00670459;2.99927;0.333414;49.3991;94.3991;0.0109265;-0.00249682;-0.00742308;0.0088501;0.00745831;0.0198914;0.021834;0;0.0244565;0.00886889;-1.23471;-1.35862;1.83587;-7.53911;-0.00842444;0.000153931;0.0397338;0.0397343;-0.00842493;0.0240796;0.212022;4.7165;0.0296989;0.0321062;4.71628;0.212032;98.7118;143.712;-0.00768217;-0.00843619;0.00538088;-0.00483092;0.0397199;0.031823;0.0481985;0;0.0545463;8.75947;5.47287
493000;494;26.2748;0.518865;0.0201454;-2.08792;26.1914;-0.142758;-0.0471317;0.530837;-1.00468;0.0471177;-0.699589;-0.368004;0.791879;-7.43103;-0.00231545;0.000772592;0.00752487;0.00758515;-0.00237574;0.00498045;0.307707;3.24985;0.00600737;0.0066406;3.19275;0.313209;49.5782;94.5782;0.0106149;-0.00235425;-0.00736648;0.00883213;0.00749823;0.0209639;0.0207389;0;0.0250139;0.00828663;-1.24119;-1.36105;1.84203;-7.53771;-0.00855659;0.000202701;0.0405647;0.0405655;-0.00855743;0.0245615;0.210937;4.74075;0.0303016;0.0327486;4.74039;0.210953;98.5802;143.58;-0.00534392;-0.00856841;0.00550036;-0.00484488;0.0405502;0.0308388;0.0487096;0;0.0604043;8.75166;5.4783
494000;495;26.2833;0.527345;0.0204747;-2.08925;26.1998;-0.139044;-0.0484577;0.539258;-1.00096;0.0470404;-0.700288;-0.36701;0.79203;-7.43003;-0.00261487;0.000633778;0.00821731;0.00825427;-0.00265183;0.00545305;0.318215;3.14253;0.00656773;0.00727073;3.11267;0.321267;51.358;96.358;0.0104964;-0.0026523;-0.00748326;0.00866357;0.00818974;0.021095;0.0201591;0;0.0301191;0.00752461;-1.24836;-1.36168;1.84733;-7.53834;-0.00854655;-4.20368e-06;0.0406626;0.0406626;-0.00854655;0.0246046;0.210182;4.75778;0.0303609;0.0328061;4.75778;0.210182;99.3459;144.346;-0.0067502;-0.00856121;0.00565148;-0.00539245;0.0406473;0.0350067;0.053278;0;0.0621188;8.76627;5.48182
495000;496;26.2925;0.536555;0.0208323;-2.08954;26.209;-0.141271;-0.0487482;0.548463;-1.00319;0.0471519;-0.70206;-0.366211;0.793236;-7.42924;-0.00234132;0.000648829;0.00753704;0.00757948;-0.00238375;0.00498162;0.310642;3.21914;0.00600734;0.00664215;3.17964;0.314501;50.2542;95.2542;0.0111582;-0.0023793;-0.00751243;0.00873003;0.00750925;0.0188824;0.0212772;0;0.0274143;0.00667759;-1.25702;-1.36363;1.85462;-7.54029;-0.00874129;-1.85732e-05;0.040962;0.040962;-0.0087413;0.0248517;0.2134;4.68604;0.0306403;0.0331355;4.68603;0.2134;99.1839;144.184;-0.00745877;-0.00875553;0.00554069;-0.0053124;0.0409473;0.0409663;0.052128;0;0.0562;8.78152;5.48774
496000;497;26.3018;0.545849;0.0211931;-2.08953;26.2183;-0.140428;-0.0487442;0.557791;-1.00235;0.047253;-0.702366;-0.365957;0.793395;-7.42898;-0.00245971;0.000787378;0.00794346;0.00800272;-0.00251897;0.00526084;0.309653;3.22942;0.00634376;0.00701446;3.17698;0.314765;50.2239;95.2239;0.0108688;-0.00249821;-0.00730785;0.00879901;0.00791728;0.0194243;0.0214016;0;0.0274661;0.00616159;-1.26476;-1.36512;1.86097;-7.54178;-0.00857515;3.133e-05;0.0415973;0.0415973;-0.00857517;0.0250862;0.206147;4.85091;0.030988;0.0334483;4.8509;0.206147;98.7532;143.753;-0.00809375;-0.00858858;0.00548409;-0.00515878;0.0415829;0.0452247;0.0451311;0;0.0555445;8.78551;5.49368
497000;498;26.3084;0.552409;0.0214478;-2.09014;26.2248;-0.146156;-0.0493513;0.564292;-1.00808;0.0473805;-0.703808;-0.365489;0.794463;-7.42851;-0.00250632;0.000468817;0.00762062;0.00764228;-0.00252797;0.00508513;0.328886;3.04057;0.00611427;0.00678017;3.02308;0.330788;51.298;96.298;0.0109596;-0.00254219;-0.00761587;0.00847222;0.00759195;0.0205006;0.0211196;0;0.0198457;0.00528714;-1.27402;-1.36658;1.86834;-7.54324;-0.00897989;-8.02993e-05;0.0424014;0.0424015;-0.00898002;0.0256908;0.211783;4.72181;0.031688;0.0342544;4.72176;0.211785;98.2541;143.254;-0.00760183;-0.00899218;0.00502672;-0.00493558;0.0423893;0.0417794;0.0415731;0;0.0595666;8.80287;5.50445
498000;499;26.3124;0.556431;0.021604;-2.0913;26.2287;-0.15794;-0.0505134;0.568166;-1.01986;0.0461336;-0.705035;-0.364488;0.795019;-7.42751;-0.00240018;0.000672653;0.00769882;0.00774343;-0.00244479;0.00509411;0.31176;3.2076;0.00614162;0.00679215;3.16732;0.315725;50.4029;95.4029;0.0107362;-0.00243805;-0.00745435;0.00871816;0.00767148;0.0211885;0.0218748;0;0.0206542;0.00330921;-1.28283;-1.37026;1.87704;-7.54691;-0.00916207;-6.80346e-05;0.0429688;0.0429688;-0.00916216;0.0260655;0.213226;4.68985;0.0321383;0.034754;4.68982;0.213228;97.8386;142.839;-0.00673934;-0.00917333;0.00483343;-0.00472451;0.0429576;0.0361646;0.0447416;0;0.0581651;8.81056;5.51036
499000;500;26.3187;0.56278;0.0218505;-2.09292;26.2349;-0.162436;-0.0521359;0.574378;-1.02436;0.0462879;-0.705639;-0.363272;0.795007;-7.4263;-0.00253849;0.000613632;0.00762921;0.00766611;-0.00257539;0.00512075;0.332734;3.00541;0.00615161;0.00682767;2.97668;0.335945;50.4412;95.4412;0.0109015;-0.00257572;-0.00749341;0.00863883;0.00760154;0.0200192;0.0214695;0;0.0268471;0.00231402;-1.2917;-1.37088;1.88356;-7.54754;-0.00900722;7.15857e-05;0.0437087;0.0437088;-0.00900731;0.0263581;0.206074;4.85263;0.0325596;0.0351441;4.85259;0.206076;98.1613;143.161;-0.00675932;-0.00901992;0.00543232;-0.00501838;0.0436946;0.0351993;0.0482674;0;0.0631766;8.79793;5.5161
500000;501;26.3249;0.568885;0.0220875;-2.09385;26.241;-0.162155;-0.0530595;0.580432;-1.02407;0.0460711;-0.705567;-0.363721;0.795135;-7.42675;-0.0025333;0.000567664;0.0077895;0.00782062;-0.00256442;0.00519252;0.32522;3.07485;0.00624656;0.00692336;3.04966;0.327905;51.0091;96.0091;0.010814;-0.00257016;-0.00754216;0.00859438;0.00776144;0.0197261;0.0208905;0;0.0208946;0.00144616;-1.29838;-1.37302;1.8897;-7.54968;-0.00936942;-5.22842e-05;0.0439301;0.0439302;-0.00936947;0.0266498;0.21328;4.68867;0.0328583;0.0355331;4.68865;0.213281;97.4795;142.48;-0.00455591;-0.00938007;0.00473257;-0.00459284;0.0439194;0.0305629;0.0540515;0;0.0657742;8.79192;5.52312
501000;502;26.3325;0.576556;0.0223853;-2.09524;26.2485;-0.160561;-0.0544545;0.588025;-1.02248;0.0457506;-0.706237;-0.363161;0.795455;-7.42619;-0.00259781;0.000527281;0.00739014;0.0074179;-0.00262557;0.00502173;0.351523;2.84476;0.00601461;0.00669564;2.82526;0.35395;50.4014;95.4014;0.0103773;-0.00263418;-0.00756017;0.00853451;0.00736191;0.0209668;0.0204779;0;0.0296325;0.000455664;-1.30556;-1.37565;1.89655;-7.55231;-0.00937962;-7.86349e-05;0.0442013;0.0442015;-0.00937974;0.0267906;0.212202;4.71248;0.033041;0.0357208;4.71244;0.212204;98.312;143.312;-0.00601763;-0.00939315;0.00529548;-0.00517699;0.0441879;0.0358726;0.0539227;0;0.0649757;8.81682;5.53082
502000;503;26.3432;0.587237;0.0228001;-2.09459;26.2593;-0.159683;-0.0537979;0.598798;-1.0216;0.0455566;-0.707608;-0.361481;0.795898;-7.42451;-0.00258771;0.000413162;0.00781286;0.00782925;-0.0026041;0.00521667;0.331212;3.01922;0.00627045;0.00695557;3.00651;0.332611;51.8476;96.8476;0.0105341;-0.00262316;-0.00767585;0.00841867;0.00778372;0.0207029;0.0219294;0;0.0256366;-0.000518951;-1.315;-1.37535;1.90284;-7.55201;-0.00924769;-6.20329e-05;0.0448784;0.0448785;-0.00924776;0.0270631;0.206061;4.85293;0.0334307;0.0360842;4.8529;0.206062;98.258;143.258;-0.00842168;-0.00926162;0.00541546;-0.00525578;0.0448644;0.0452518;0.0543869;0;0.0609035;8.82762;5.53751
503000;504;26.3543;0.598308;0.0232299;-2.09444;26.2705;-0.15563;-0.0536485;0.60994;-1.01755;0.0455561;-0.708436;-0.360945;0.796391;-7.42397;-0.00253176;0.000667251;0.00798216;0.00802434;-0.00257394;0.00529914;0.317177;3.15281;0.00638294;0.00706551;3.11754;0.320766;50.7956;95.7956;0.0106428;-0.0025698;-0.0074872;0.0087366;0.00795457;0.0215207;0.0210737;0;0.0211555;-0.00121521;-1.32355;-1.37621;1.90939;-7.55287;-0.0094793;-1.01097e-06;0.0454457;0.0454457;-0.0094793;0.0274625;0.208585;4.79421;0.0339016;0.0366167;4.79421;0.208585;97.2979;142.298;-0.00713632;-0.00949017;0.00489695;-0.00464165;0.0454343;0.0422764;0.0481106;0;0.0632385;8.82011;5.54518
504000;505;26.3592;0.603203;0.0234199;-2.09575;26.2752;-0.163787;-0.0549646;0.614697;-1.02571;0.0451157;-0.709056;-0.358524;0.795824;-7.42155;-0.00261836;0.000380151;0.00746382;0.00747814;-0.00263268;0.00505541;0.350807;2.85057;0.00605681;0.00674054;2.84051;0.35205;51.297;96.297;0.0111482;-0.00265398;-0.00775843;0.00843726;0.00743402;0.0188878;0.0210407;0;0.0310006;-0.00235407;-1.33009;-1.37884;1.91582;-7.5555;-0.00970002;-2.03323e-05;0.0459719;0.0459719;-0.00970003;0.027836;0.210999;4.73936;0.034341;0.0371146;4.73936;0.210999;96.7751;141.775;-0.00610825;-0.00970952;0.0045392;-0.00433718;0.0459621;0.040082;0.0432196;0;0.0627729;8.83408;5.55102
505000;506;26.3643;0.608306;0.0236181;-2.09688;26.2802;-0.175469;-0.0560935;0.619651;-1.03739;0.0454933;-0.709072;-0.361889;0.797381;-7.42491;-0.00262542;0.000414957;0.0079232;0.0079395;-0.00264172;0.00529061;0.331358;3.01788;0.00635919;0.00705415;3.00543;0.332731;51.961;96.961;0.0109534;-0.00266108;-0.00769951;0.00844447;0.00789388;0.0202061;0.0219662;0;0.0272798;-0.00316187;-1.33897;-1.38454;1.92609;-7.5612;-0.00979123;-0.000109844;0.0470682;0.0470685;-0.00979144;0.0284299;0.208022;4.80719;0.035101;0.0379066;4.8071;0.208025;96.6133;141.613;-0.00630927;-0.00980088;0.00439982;-0.00437462;0.047059;0.0371898;0.0446824;0;0.0637212;8.85584;5.55997
506000;507;26.3699;0.613885;0.0238347;-2.09851;26.2856;-0.184957;-0.0577257;0.625053;-1.04688;0.0462563;-0.709154;-0.363089;0.798043;-7.42611;-0.0026501;0.000309408;0.00791931;0.00792836;-0.00265915;0.00529375;0.334638;2.9883;0.00636003;0.00705834;2.98154;0.335397;52.6001;97.6001;0.0103922;-0.00268404;-0.00769837;0.0082332;0.00788995;0.0208799;0.0206224;0;0.0207008;-0.00386247;-1.34759;-1.38886;1.93519;-7.56552;-0.010129;-2.68878e-05;0.0476118;0.0476118;-0.010129;0.0288704;0.212742;4.70053;0.0356011;0.0384939;4.70053;0.212742;96.3792;141.379;-0.00530126;-0.010138;0.00440172;-0.0042114;0.0476025;0.0314565;0.0497937;0;0.0696183;8.84229;5.5659
507000;508;26.3777;0.621723;0.024139;-2.10036;26.2933;-0.18024;-0.0595724;0.632801;-1.04216;0.0459771;-0.709421;-0.36123;0.797421;-7.42426;-0.00264771;0.0005995;0.00802879;0.00806234;-0.00268127;0.00537181;0.329777;3.03235;0.00645696;0.00716241;3.00692;0.332567;51.1966;96.1966;0.0102116;-0.00268439;-0.00746167;0.00857525;0.00800135;0.0211734;0.0202206;0;0.0239804;-0.00466211;-1.35556;-1.38824;1.9403;-7.56874;-0.01022;7.63368e-05;0.0477535;0.0477536;-0.0102201;0.0289868;0.214015;4.67257;0.0357329;0.0386491;4.67253;0.214017;96.8373;141.837;-0.00695325;-0.0102302;0.00491807;-0.0044975;0.0477419;0.0316357;0.0575523;0;0.0701599;8.83813;5.5668
508000;509;26.386;0.630034;0.0244617;-2.10182;26.3016;-0.177441;-0.0610345;0.641041;-1.03936;0.0459527;-0.709609;-0.361902;0.797891;-7.42493;-0.00257588;0.000560449;0.00773842;0.00776878;-0.00260624;0.00518751;0.332869;3.00419;0.00623231;0.00691668;2.98084;0.335476;50.9021;95.9021;0.0102134;-0.00261263;-0.00754258;0.0085805;0.00771035;0.0225515;0.021518;0;0.0313027;-0.00579388;-1.36381;-1.39176;1.94859;-7.57225;-0.0106123;-0.00021288;0.0480076;0.0480083;-0.0106131;0.0293107;0.221056;4.52375;0.0360676;0.039081;4.52349;0.221068;96.816;141.816;-0.00686283;-0.0106228;0.00439126;-0.00455949;0.0479984;0.0344713;0.060382;0;0.0705087;8.86559;5.57495
509000;510;26.3992;0.643259;0.0249752;-2.10049;26.3149;-0.180121;-0.059703;0.654396;-1.04204;0.0458698;-0.710969;-0.361418;0.798877;-7.42444;-0.00257464;0.000479715;0.00788932;0.00791127;-0.00259659;0.00525393;0.326345;3.06424;0.00632008;0.00700524;3.0468;0.328213;51.739;96.739;0.0108632;-0.00260986;-0.00751905;0.00839541;0.00786139;0.018954;0.0210638;0;0.0301719;-0.0063289;-1.37292;-1.39198;1.95513;-7.56864;-0.00997854;0.000281809;0.0489194;0.0489208;-0.00997989;0.0294503;0.203979;4.90246;0.0363994;0.0392671;4.90194;0.204001;97.2065;142.206;-0.00745813;-0.0099905;0.00574309;-0.00487282;0.0489038;0.0447235;0.0526163;0;0.0668625;8.86583;5.58467
510000;511;26.4084;0.652436;0.0253314;-2.10076;26.3241;-0.177981;-0.0599755;0.663595;-1.0399;0.0458478;-0.707847;-0.362875;0.796761;-7.4259;-0.00263888;0.000613923;0.00796617;0.00800159;-0.0026743;0.00533794;0.331261;3.01877;0.00641443;0.00711726;2.99203;0.334221;51.028;96.028;0.0105637;-0.00267555;-0.0074314;0.00857456;0.00793896;0.0208833;0.0212487;0;0.0635175;-0.00703246;-1.3785;-1.39534;1.96145;-7.572;-0.0102261;4.41223e-05;0.0493936;0.0493937;-0.0102261;0.0298099;0.207033;4.83016;0.0368143;0.0397465;4.83015;0.207033;96.632;141.632;-0.00717483;-0.0102366;0.00492339;-0.00455794;0.0493821;0.0440617;0.0499326;0;0.0676034;8.85572;5.58964
511000;512;26.4116;0.655596;0.0254541;-2.10166;26.3271;-0.187521;-0.0608677;0.666628;-1.04944;0.0459536;-0.713236;-0.357902;0.799319;-7.42093;-0.00268349;0.000337256;0.00796101;0.00797168;-0.00269417;0.00533293;0.33708;2.96666;0.00640428;0.00711057;2.95887;0.337967;52.5244;97.5244;0.0103347;-0.00271728;-0.00762518;0.00821559;0.00793222;0.0213913;0.0212997;0;0.0219339;-0.00796735;-1.38988;-1.39472;1.96903;-7.57522;-0.0103008;7.84751e-05;0.0504015;0.0504016;-0.0103009;0.0303513;0.204375;4.89298;0.0375092;0.0404684;4.89294;0.204376;96.4712;141.471;-0.0089577;-0.0103112;0.00497854;-0.00453842;0.0503898;0.0415305;0.0510479;0;0.0684155;8.86842;5.59636
512000;513;26.4166;0.66067;0.0256511;-2.10309;26.3321;-0.197504;-0.0622977;0.671531;-1.05942;0.0457364;-0.71392;-0.358551;0.800208;-7.42158;-0.0026226;0.000303308;0.0079558;0.00796449;-0.00263129;0.00529789;0.329646;3.03356;0.00637055;0.00706385;3.02684;0.330377;52.7321;97.7321;0.0104666;-0.00265653;-0.00771034;0.00823283;0.00792636;0.0211764;0.0215796;0;0.0214475;-0.0090148;-1.39799;-1.39861;1.97752;-7.57527;-0.0103607;-0.000279896;0.051305;0.0513063;-0.010362;0.0308341;0.201944;4.95187;0.0381304;0.0411122;4.95138;0.201964;96.5953;141.595;-0.00704563;-0.0103725;0.00456126;-0.00483708;0.0512951;0.0386686;0.049268;0;0.0715411;8.88385;5.60397
513000;514;26.4233;0.667301;0.0259086;-2.10545;26.3385;-0.201539;-0.0646614;0.677964;-1.06346;0.0460889;-0.714772;-0.356926;0.800262;-7.41995;-0.00274201;0.000129316;0.00790963;0.0079112;-0.00274358;0.00532739;0.346667;2.88461;0.00638816;0.00710319;2.88353;0.346797;53.4248;98.4248;0.0106446;-0.00277444;-0.00786901;0.00804311;0.00787892;0.0211763;0.021754;0;0.0186342;-0.00945969;-1.40697;-1.39853;1.98382;-7.57519;-0.0107204;4.62917e-05;0.0516022;0.0516022;-0.0107204;0.0311613;0.20775;4.81347;0.0384761;0.0415484;4.81346;0.207751;95.7425;140.743;-0.00492923;-0.0107289;0.00444897;-0.00409546;0.0515928;0.033704;0.0531155;0;0.0763528;8.87552;5.61092
514000;515;26.4307;0.674774;0.0261987;-2.10708;26.3459;-0.197708;-0.0662926;0.68536;-1.05963;0.0458501;-0.716146;-0.356513;0.801292;-7.41954;-0.00276479;0.000414552;0.00815556;0.00817127;-0.0027805;0.00547589;0.339007;2.94979;0.00657339;0.00730118;2.93878;0.340278;52.4386;97.4386;0.0107468;-0.00279852;-0.00746882;0.0082125;0.00812798;0.0211914;0.0214935;0;0.0276334;-0.0105244;-1.41593;-1.39973;1.99103;-7.57638;-0.0108865;-0.000380259;0.0515748;0.0515771;-0.0108888;0.031233;0.211082;4.73751;0.0385307;0.0416439;4.73671;0.211117;96.5115;141.512;-0.00466037;-0.010898;0.0042965;-0.00477922;0.0515661;0.0372582;0.0551686;0;0.0760503;8.88152;5.61895
515000;516;26.441;0.685074;0.0265987;-2.10722;26.3562;-0.193759;-0.0664299;0.695712;-1.05568;0.0452378;-0.718197;-0.351986;0.801092;-7.41501;-0.00279466;0.000246211;0.00776354;0.00776928;-0.0028004;0.00528484;0.359972;2.778;0.00632319;0.00704645;2.77435;0.360445;52.4052;97.4052;0.0100729;-0.00282846;-0.00780616;0.0082142;0.00773334;0.0221569;0.020826;0;0.0239479;-0.0116764;-1.42562;-1.39846;1.99705;-7.57512;-0.010658;-9.04982e-05;0.0520806;0.0520807;-0.0106581;0.0313694;0.204644;4.88652;0.0387647;0.0418259;4.88648;0.204646;96.8494;141.849;-0.00752962;-0.0106708;0.00515745;-0.0050255;0.052068;0.0436125;0.0579032;0;0.0718808;8.9014;5.62599
516000;517;26.4532;0.69719;0.027069;-2.10601;26.3685;-0.194843;-0.0652205;0.707954;-1.05676;0.0452327;-0.71801;-0.352447;0.801126;-7.41547;-0.00293904;1.88633e-05;0.00773983;0.00773986;-0.00293907;0.00533947;0.37973;2.63345;0.00636978;0.00711929;2.63343;0.379732;53.4137;98.4137;0.0102486;-0.00297062;-0.00798228;0.00793521;0.00770821;0.0224266;0.0216861;0;0.0235528;-0.012659;-1.43474;-1.40103;2.00538;-7.58153;-0.0109109;9.88357e-06;0.0528322;0.0528322;-0.0109109;0.0318716;0.20652;4.84215;0.0393657;0.0424954;4.84215;0.20652;96.5004;141.5;-0.00782598;-0.0109225;0.00511507;-0.00478621;0.0528198;0.0447139;0.054575;0;0.0722199;8.89953;5.63357
517000;518;26.4603;0.704328;0.0273462;-2.10717;26.3755;-0.20016;-0.0663806;0.714983;-1.06208;0.0455206;-0.717647;-0.352938;0.801034;-7.41596;-0.00284408;0.000159717;0.00779932;0.00780171;-0.00284648;0.0053241;0.364658;2.7423;0.00636576;0.00709879;2.74083;0.364853;52.8989;97.8989;0.0103277;-0.00287686;-0.00785241;0.00808722;0.00776874;0.0219575;0.0215247;0;0.0261453;-0.0132402;-1.44176;-1.40376;2.01231;-7.58426;-0.0110838;0.000167827;0.0537609;0.0537614;-0.0110842;0.0324228;0.206168;4.85041;0.0400502;0.0432304;4.85026;0.206175;95.8348;140.835;-0.00779222;-0.0110932;0.0049357;-0.00430665;0.0537494;0.0436591;0.0542985;0;0.0729876;8.8845;5.63682
518000;519;26.4636;0.707585;0.0274726;-2.10842;26.3786;-0.21389;-0.0676361;0.718042;-1.07581;0.0454124;-0.719725;-0.350483;0.801813;-7.41351;-0.00279182;0.00013764;0.00806899;0.00807073;-0.00279357;0.00543215;0.345994;2.89022;0.00651449;0.00724287;2.88904;0.346136;53.7271;98.7271;0.0102858;-0.00282317;-0.00771792;0.00790856;0.00803945;0.0211925;0.0209219;0;0.0319579;-0.0141234;-1.44955;-1.40503;2.01879;-7.58169;-0.0108953;-0.000256433;0.0544578;0.0544588;-0.0108963;0.0326775;0.200068;4.9983;0.0404304;0.04357;4.99793;0.200083;96.3359;141.336;-0.00792264;-0.0109075;0.00472117;-0.00492553;0.0544472;0.0421965;0.0505264;0;0.073716;8.90261;5.64085
519000;520;26.4724;0.716387;0.0278144;-2.11016;26.3872;-0.217166;-0.0693683;0.726708;-1.07909;0.0454773;-0.719972;-0.35062;0.802098;-7.41364;-0.00292888;9.9246e-05;0.00813304;0.00813393;-0.00292977;0.00553185;0.360121;2.77684;0.006619;0.0073758;2.7763;0.360191;53.7558;98.7558;0.0102403;-0.00296039;-0.00781548;0.00792712;0.00810275;0.0215559;0.0214265;0;0.0303386;-0.0152408;-1.45825;-1.40922;2.02796;-7.58588;-0.0115755;-0.000289619;0.0553557;0.0553569;-0.0115767;0.0334668;0.209111;4.78215;0.0413079;0.0446224;4.78174;0.209129;95.5048;140.505;-0.00427009;-0.0115848;0.00399938;-0.0043066;0.0553482;0.0341109;0.0515127;0;0.0774266;8.91827;5.65134
520000;521;26.4799;0.723955;0.0281082;-2.11126;26.3947;-0.21528;-0.0704709;0.734227;-1.0772;0.0452844;-0.719701;-0.351777;0.802351;-7.4148;-0.00277523;0.000116875;0.00816089;0.00816214;-0.00277648;0.00546931;0.340065;2.94061;0.00656562;0.00729242;2.93974;0.340166;53.8926;98.8926;0.0102938;-0.00280733;-0.00785463;0.0080019;0.0081303;0.0213701;0.0220487;0;0.0207034;-0.0165672;-1.46708;-1.41261;2.03668;-7.5931;-0.0118487;-0.000153743;0.0554807;0.0554811;-0.0118491;0.0336651;0.213565;4.68242;0.0415048;0.0448868;4.68231;0.21357;95.2968;140.297;-0.00558726;-0.0118572;0.00404563;-0.00408524;0.055473;0.0343684;0.0568729;0;0.0776383;8.90702;5.6548
521000;522;26.4866;0.73064;0.0283678;-2.1128;26.4013;-0.213239;-0.0720149;0.740827;-1.07516;0.0449905;-0.720387;-0.3511;0.802654;-7.41413;-0.00286003;-0.000200114;0.00841386;0.00841741;-0.00286358;0.0056405;0.339919;2.94188;0.00677108;0.00752066;2.93947;0.340197;55.9759;100.976;0.0102829;-0.0028884;-0.00801146;0.00752392;0.00838206;0.0225097;0.0201391;0;0.0178921;-0.0174913;-1.47513;-1.41274;2.04258;-7.5894;-0.0115361;-0.000539688;0.0559085;0.0559128;-0.0115404;0.0337266;0.206339;4.84639;0.0416583;0.0449688;4.84495;0.2064;96.7153;141.715;-0.00671496;-0.0115508;0.00466263;-0.0054097;0.0558983;0.0419731;0.0560508;0;0.0815985;8.91818;5.66182
522000;523;26.501;0.745077;0.0289283;-2.11354;26.4158;-0.209472;-0.0727511;0.755282;-1.07139;0.0446367;-0.721391;-0.353388;0.804537;-7.41641;-0.00290061;-0.000126656;0.0080227;0.00802417;-0.00290208;0.00546312;0.36155;2.76587;0.00653524;0.00728416;2.76497;0.361667;54.863;99.863;0.0101813;-0.00292989;-0.0079803;0.00764189;0.00799112;0.020813;0.0218416;0;0.023564;-0.0184769;-1.48528;-1.41641;2.05247;-7.59307;-0.0116387;-1.46909e-05;0.0565968;0.0565968;-0.0116387;0.0341178;0.205643;4.86279;0.0421498;0.0454904;4.86279;0.205643;96.2014;141.201;-0.00537411;-0.0116509;0.00520066;-0.00489323;0.056584;0.0438675;0.0549979;0;0.078215;8.935;5.66877
523000;524;26.5093;0.753362;0.02925;-2.11323;26.4241;-0.218109;-0.0724396;0.763548;-1.08003;0.0445026;-0.722274;-0.351162;0.804347;-7.41419;-0.00285629;-0.00013197;0.00810119;0.00810278;-0.00285788;0.00548033;0.352577;2.83626;0.00656521;0.00730711;2.83524;0.352704;55.0568;100.057;0.00996366;-0.00288577;-0.00801824;0.00766859;0.00806931;0.0225029;0.0213277;0;0.0207851;-0.0196059;-1.49448;-1.4172;2.05969;-7.59386;-0.0119975;3.36809e-05;0.0574681;0.0574681;-0.0119975;0.0347328;0.208768;4.79001;0.0428745;0.0463104;4.79001;0.208768;95.1373;140.137;-0.00507404;-0.0120058;0.00441757;-0.00406223;0.0574588;0.0429862;0.0569931;0;0.0816792;8.92397;5.6765
524000;525;26.515;0.759034;0.0294702;-2.11309;26.4297;-0.226591;-0.0722979;0.769179;-1.08851;0.0444432;-0.720895;-0.351906;0.803432;-7.41493;-0.0028178;0.000167103;0.00795511;0.0079577;-0.0028204;0.00538905;0.354213;2.82316;0.00645406;0.0071854;2.82148;0.354423;53.3186;98.3186;0.0102662;-0.0028495;-0.00770188;0.00795197;0.0079257;0.0208892;0.0219049;0;0.0276597;-0.0204647;-1.50004;-1.42088;2.06626;-7.59754;-0.012206;-0.000227587;0.0581645;0.0581653;-0.0122067;0.035186;0.209852;4.76526;0.0434215;0.0469147;4.76503;0.209862;95.6866;140.687;-0.00652351;-0.0122168;0.00450219;-0.00464281;0.058155;0.0442816;0.0562159;0;0.0808216;8.91252;5.68293
525000;526;26.5192;0.763272;0.0296348;-2.11561;26.4337;-0.237276;-0.0748236;0.773135;-1.0992;0.044876;-0.722342;-0.351011;0.804363;-7.41404;-0.00292567;6.14987e-05;0.00811192;0.00811226;-0.00292601;0.00551914;0.360663;2.77267;0.00660326;0.00735885;2.77247;0.36069;53.9665;98.9665;0.00998471;-0.00295655;-0.0078106;0.0078474;0.00808166;0.0223032;0.0216044;0;0.0237605;-0.0210806;-1.5085;-1.42321;2.07402;-7.59987;-0.012301;-0.000373476;0.0589191;0.058921;-0.0123029;0.035612;0.208777;4.78979;0.0439593;0.0474826;4.78919;0.208804;94.9788;139.979;-0.00350009;-0.0123097;0.00369476;-0.00416809;0.0589127;0.0366376;0.0520308;0;0.0819524;8.92685;5.69054
526000;527;26.5261;0.770129;0.029901;-2.11683;26.4404;-0.239097;-0.0760396;0.7799;-1.10102;0.0443737;-0.724149;-0.347019;0.804228;-7.41004;-0.00297915;-0.000167249;0.00802735;0.00802989;-0.00298169;0.00550579;0.371125;2.69451;0.00657646;0.00734105;2.69307;0.371324;55.0144;100.014;0.0096877;-0.00300763;-0.00795711;0.00753757;0.00799595;0.0227093;0.0211143;0;0.0245493;-0.0226314;-1.51875;-1.42348;2.08169;-7.60397;-0.0125203;-0.00018548;0.0596484;0.0596488;-0.0125207;0.0360848;0.209901;4.76415;0.0445301;0.048113;4.764;0.209908;94.8246;139.825;-0.00486444;-0.0125284;0.00392924;-0.00401996;0.0596411;0.0339116;0.0585734;0;0.0827949;8.94165;5.69793
527000;528;26.5344;0.778401;0.0302222;-2.11798;26.4487;-0.234765;-0.0771959;0.788145;-1.09668;0.0442011;-0.723856;-0.347709;0.804253;-7.41073;-0.00300263;-8.05651e-05;0.00844182;0.00844239;-0.00300319;0.00572279;0.355685;2.81148;0.00685232;0.00763039;2.81114;0.355728;55.2478;100.248;0.010056;-0.00303143;-0.00782806;0.00757901;0.00841144;0.0223305;0.0217609;0;0.0295431;-0.023632;-1.52526;-1.42743;2.08914;-7.60409;-0.0126934;-0.000229956;0.0598984;0.0598992;-0.0126942;0.0362967;0.211916;4.71885;0.0447682;0.0483956;4.71863;0.211926;94.8602;139.86;-0.00434799;-0.0127018;0.00389369;-0.00407117;0.0598913;0.0380963;0.0553227;0;0.0856555;8.93071;5.70366
528000;529;26.5421;0.78609;0.0305207;-2.11925;26.4563;-0.237583;-0.0784589;0.795733;-1.0995;0.0441326;-0.725406;-0.346688;0.805205;-7.40971;-0.00292319;-0.000103773;0.00808288;0.00808386;-0.00292416;0.00550401;0.361651;2.76509;0.00658409;0.00733868;2.7645;0.361729;54.8313;99.8313;0.00982856;-0.00295243;-0.00792992;0.00763693;0.0080517;0.0225861;0.0224667;0;0.0307835;-0.0242404;-1.53491;-1.42669;2.0957;-7.60335;-0.012776;-0.000268158;0.0606455;0.0606465;-0.012777;0.0367117;0.210667;4.74683;0.0452947;0.048949;4.74654;0.21068;95.3062;140.306;-0.00533693;-0.0127863;0.00429853;-0.00451872;0.0606368;0.0416979;0.0577938;0;0.0849708;8.94991;5.70829
529000;530;26.557;0.800984;0.031099;-2.1191;26.4712;-0.238406;-0.0783095;0.81068;-1.10033;0.0442874;-0.7267;-0.344652;0.805505;-7.40768;-0.00295764;1.52142e-05;0.00846944;0.00846946;-0.00295766;0.00571356;0.349213;2.86358;0.00684849;0.00761808;2.86357;0.349214;54.9517;99.9517;0.00961147;-0.00298676;-0.00767791;0.00762116;0.00844021;0.0230682;0.021736;0;0.0275581;-0.0251148;-1.54612;-1.42791;2.10477;-7.6084;-0.0130238;-0.000266827;0.0611044;0.0611053;-0.0130247;0.037065;0.21314;4.69175;0.0457014;0.04942;4.69148;0.213152;95.1624;140.162;-0.00636576;-0.0130336;0.00419251;-0.00441463;0.0610961;0.0417344;0.0628532;0;0.083547;8.96444;5.71931
530000;531;26.5643;0.808287;0.0313825;-2.11969;26.4785;-0.240774;-0.078906;0.817937;-1.10269;0.0438153;-0.727086;-0.343176;0.805198;-7.4062;-0.00303553;-0.000248401;0.00774356;0.00774928;-0.00304125;0.00539527;0.392007;2.55097;0.00642454;0.00719369;2.54806;0.392456;54.8346;99.8346;0.00997696;-0.0030638;-0.00809266;0.00751197;0.0077111;0.0223691;0.0227218;0;0.0231671;-0.0263345;-1.55427;-1.42833;2.11106;-7.60499;-0.0133062;-0.000304945;0.0615744;0.0615757;-0.0133074;0.0374415;0.216099;4.62751;0.0461306;0.0499221;4.62717;0.216115;95.3406;140.341;-0.00576361;-0.0133168;0.00431336;-0.00459749;0.0615657;0.0439335;0.0607508;0;0.086182;8.95323;5.72494
531000;532;26.5688;0.81283;0.0315588;-2.1207;26.4828;-0.254364;-0.0799068;0.822322;-1.1173;0.0439577;-0.726462;-0.34632;0.805988;-7.40935;-0.00303921;-0.000149926;0.00860095;0.00860288;-0.00304114;0.00582201;0.353358;2.82999;0.00697362;0.00776268;2.82883;0.353503;55.7509;100.751;0.00954376;-0.00306769;-0.0079273;0.0075377;0.0085698;0.022909;0.0229499;0;0.0189916;-0.0271495;-1.56063;-1.43404;2.11961;-7.60997;-0.0136728;-0.000455301;0.0623602;0.0623629;-0.0136755;0.0380192;0.219255;4.56089;0.0468045;0.0506923;4.56018;0.219289;94.7122;139.712;-0.00383498;-0.0136814;0.00352094;-0.00414696;0.0623544;0.038576;0.0588033;0;0.0888377;8.94171;5.72647
532000;533;26.5737;0.817741;0.0317496;-2.12225;26.4875;-0.261415;-0.0814595;0.827022;-1.12333;0.0439954;-0.727801;-0.343724;0.806087;-7.40675;-0.00302509;-3.78365e-05;0.0085491;0.00854923;-0.00302521;0.00578722;0.353849;2.82607;0.00693155;0.00771629;2.82599;0.353858;55.2649;100.265;0.00959053;-0.00305362;-0.00770669;0.00754301;0.00851966;0.023378;0.0210374;0;0.0200075;-0.0279294;-1.56925;-1.43546;2.12694;-7.61212;-0.0135467;-0.000337683;0.0633373;0.0633388;-0.0135482;0.0384435;0.213882;4.67548;0.0473919;0.051258;4.67507;0.2139;94.0329;139.033;-0.00286292;-0.0135532;0.00317759;-0.00359878;0.0633326;0.0331531;0.0620948;0;0.0868691;8.95507;5.73432
533000;534;26.5827;0.826687;0.0320969;-2.12408;26.4964;-0.258908;-0.083291;0.835875;-1.12083;0.0436784;-0.729444;-0.342888;0.807198;-7.40591;-0.00309815;-0.000196009;0.0083235;0.00832686;-0.00310151;0.00571418;0.372217;2.68661;0.0068242;0.00761891;2.68478;0.37247;55.5159;100.516;0.00891298;-0.00312577;-0.00790358;0.00742427;0.00829254;0.0240765;0.0213155;0;0.0208453;-0.0294864;-1.57994;-1.43941;2.13751;-7.6199;-0.0137384;-0.000354954;0.0642306;0.0642322;-0.01374;0.0389861;0.213891;4.67527;0.0480607;0.0519815;4.67484;0.213911;94.4864;139.486;-0.00590883;-0.0137466;0.00363815;-0.0040555;0.0642244;0.0395434;0.0610718;0;0.0873162;8.96831;5.74182
534000;535;26.6031;0.84709;0.0328891;-2.12188;26.5173;-0.229306;-0.0810908;0.856792;-1.09123;0.0433756;-0.729432;-0.340263;0.806059;-7.40329;-0.0032837;-0.00037199;0.00869566;0.0087072;-0.00329524;0.00600122;0.377625;2.64813;0.00716058;0.00800162;2.64236;0.37845;56.5993;101.599;0.00944593;-0.00331011;-0.00810136;0.0072656;0.00866319;0.0239386;0.022542;0;0.0241385;-0.0301152;-1.58752;-1.43895;2.14283;-7.6156;-0.0137513;-0.00046594;0.0648766;0.0648794;-0.013754;0.0393167;0.21196;4.71787;0.0484922;0.0524223;4.71712;0.211994;94.9205;139.921;-0.00332925;-0.0137616;0.00392589;-0.00453348;0.0648695;0.0411545;0.05755;0;0.0887473;8.95708;5.74907
535000;536;26.5968;0.840855;0.032647;-2.12523;26.5105;-0.257108;-0.0844381;0.850014;-1.11903;0.0434243;-0.729143;-0.341736;0.806424;-7.40476;-0.00312071;-9.6784e-06;0.00842396;0.00842397;-0.00312072;0.00577235;0.370457;2.69937;0.00689577;0.00769646;2.69937;0.370457;54.6868;99.6868;0.0100683;-0.00314993;-0.0077396;0.00763175;0.00839426;0.0218759;0.0223334;0;0.0364891;-0.0312035;-1.59489;-1.44206;2.15039;-7.62255;-0.0140464;-0.000262224;0.0661791;0.0661799;-0.0140473;0.0401136;0.212249;4.71145;0.0494717;0.0534848;4.71122;0.212259;94.1457;139.146;-0.00428035;-0.0140539;0.00360348;-0.00383705;0.066173;0.0376976;0.065961;0;0.0970749;8.95791;5.75664
536000;537;26.6097;0.853762;0.0331481;-2.12585;26.5234;-0.259547;-0.0850571;0.86289;-1.12147;0.0429868;-0.732364;-0.338806;0.808081;-7.40183;-0.00311532;-0.000168706;0.00881765;0.00882003;-0.00311771;0.00596887;0.353305;2.83041;0.00714956;0.00795849;2.82901;0.35348;56.1996;101.2;0.00944135;-0.00314275;-0.00782534;0.00739737;0.00878731;0.0226961;0.0218061;0;0.0211972;-0.0322089;-1.60536;-1.44066;2.15725;-7.61732;-0.0145674;-0.000327881;0.0658728;0.0658742;-0.0145688;0.0402215;0.221145;4.52193;0.0494924;0.0536286;4.52161;0.22116;93.9348;138.935;-0.00376953;-0.014574;0.00322531;-0.00361291;0.065868;0.0381913;0.0657171;0;0.0979571;8.98552;5.76443
537000;538;26.6202;0.864182;0.0335527;-2.12639;26.5338;-0.268258;-0.0855977;0.873248;-1.13119;0.0425177;-0.731846;-0.338709;0.807546;-7.40173;-0.00333592;-0.000320232;0.00862322;0.00863179;-0.00334449;0.00598814;0.386853;2.58496;0.00713559;0.00798419;2.5809;0.387462;56.204;101.204;0.00959877;-0.00336237;-0.00799966;0.00726816;0.00859155;0.0222462;0.0223413;0;0.0243807;-0.0336529;-1.61326;-1.44368;2.16517;-7.61961;-0.0148267;-0.000270471;0.0665078;0.0665087;-0.0148276;0.0406681;0.222932;4.48568;0.0500197;0.0542242;4.48547;0.222942;93.8797;138.88;-0.00338653;-0.0148331;0.00329906;-0.00356778;0.0665027;0.0375541;0.0683361;0;0.0940241;8.97933;5.77127
538000;539;26.6227;0.866749;0.0336524;-2.1275;26.5361;-0.28296;-0.0867155;0.875547;-1.14488;0.042331;-0.732379;-0.338609;0.807977;-7.40163;-0.00326039;-0.000211265;0.00844947;0.00845328;-0.00326421;0.00585874;0.38587;2.59155;0.00698271;0.00781165;2.58969;0.386147;55.5508;100.551;0.00912604;-0.0032876;-0.00787945;0.00736789;0.0084187;0.0239366;0.02226;0;0.0251133;-0.034821;-1.62201;-1.44859;2.17498;-7.62525;-0.0150625;-0.000397968;0.0677383;0.0677402;-0.0150644;0.0414023;0.222363;4.49716;0.0509297;0.055203;4.49672;0.222385;93.6323;138.632;-0.00385498;-0.0150684;0.00291312;-0.00345229;0.0677344;0.0380223;0.0685775;0;0.0935913;8.97889;5.77793
539000;540;;;;;;;;;;0.0425582;-0.732817;-0.336873;0.80766;-7.3999;-0.00326201;5.25966e-05;0.0086425;0.00864273;-0.00326224;0.00595249;0.377438;2.64944;0.00710348;0.00793665;2.64932;0.377455;54.5957;99.5957;0.00997327;-0.00329116;-0.00760813;0.0076229;0.00861381;0.021577;0.0222664;0;0.0178707;-0.0360082;-1.63213;-1.45069;2.18395;-7.63024;-0.0148414;-5.40135e-06;0.0691988;0.0691988;-0.0148414;0.0420201;0.214475;4.66255;0.0517934;0.0560268;4.66255;0.214475;93.0401;138.04;-0.00630621;-0.0148455;0.00308669;-0.00285446;0.0691943;0.0399584;0.0666424;0;0.101179;8.99359;5.78515
540000;541;26.6565;0.900507;0.034963;-2.13009;26.5702;-0.239174;-0.0893015;0.909638;-1.10109;0.0430477;-0.734306;-0.337715;0.809389;-7.40074;-0.00327914;3.44876e-05;0.00871809;0.00871819;-0.00327924;0.00599871;0.376131;2.65865;0.00716005;0.00799828;2.6586;0.376138;54.7444;99.7444;0.00953443;-0.00330839;-0.00765881;0.00763628;0.00868901;0.0230002;0.0222602;0;0.0218097;-0.0362815;-1.64291;-1.45124;2.19239;-7.6279;-0.015061;-1.52339e-05;0.0702916;0.0702916;-0.015061;0.0426763;0.214265;4.66712;0.0526051;0.0569017;4.66712;0.214265;93.9702;138.97;-0.00324879;-0.0150683;0.00409768;-0.00380015;0.0702838;0.0452343;0.059588;0;0.0983662;8.99374;5.79302
541000;542;26.646;0.890021;0.0345559;-2.13352;26.559;-0.275714;-0.0927291;0.898488;-1.13763;0.0425238;-0.734894;-0.337202;0.809681;-7.40023;-0.00323045;-6.54893e-05;0.00889358;0.00889393;-0.0032308;0.00606237;0.363234;2.75305;0.00725027;0.00808315;2.75286;0.363259;55.5833;100.583;0.00960772;-0.00325898;-0.00776527;0.00754176;0.00886369;0.0221086;0.0233604;0;0.0192838;-0.0375817;-1.65022;-1.45444;2.20001;-7.6311;-0.0152505;-0.000427946;0.0705559;0.070558;-0.0152526;0.0429053;0.216148;4.62646;0.0528615;0.0572071;4.62595;0.216172;94.4864;139.486;-0.00413789;-0.0152605;0.00394555;-0.00445089;0.0705487;0.0452827;0.0615357;0;0.103998;8.97495;5.79431
542000;543;26.659;0.903048;0.0350617;-2.13346;26.572;-0.280348;-0.0926712;0.911515;-1.14227;0.04284;-0.733949;-0.337895;0.809129;-7.40092;-0.00312312;-8.75997e-05;0.00929619;0.00929681;-0.00312374;0.00621027;0.335957;2.97657;0.00746039;0.00828036;2.97618;0.336001;56.6893;101.689;0.0096233;-0.00315045;-0.0076505;0.00738225;0.0092672;0.0221597;0.022123;0;0.0181351;-0.0379165;-1.6566;-1.45822;2.2073;-7.63488;-0.0154303;-0.0003174;0.0705992;0.0706004;-0.0154315;0.0430159;0.218562;4.57535;0.0529655;0.0573546;4.57508;0.218575;93.9354;138.935;-0.000632911;-0.0154379;0.0035442;-0.00386869;0.0705934;0.0402515;0.0603628;0;0.108155;8.97545;5.79983
543000;544;26.6669;0.910968;0.0353692;-2.13355;26.5799;-0.287812;-0.09276;0.919373;-1.14973;0.0422267;-0.737238;-0.333833;0.8104;-7.39686;-0.00316412;0.000100266;0.00884487;0.0088457;-0.00316496;0.00600533;0.357735;2.79536;0.00718825;0.00800711;2.79489;0.357796;54.9124;99.9124;0.00948104;-0.00319336;-0.00752658;0.00763632;0.0088168;0.022757;0.0229429;0;0.0240861;-0.0395144;-1.66766;-1.45517;2.21363;-7.63149;-0.0157561;-0.000276468;0.0709022;0.0709031;-0.015757;0.04333;0.222223;4.49998;0.0533031;0.0577734;4.49978;0.222233;93.7154;138.715;-0.00299371;-0.0157628;0.00338405;-0.00364077;0.0708969;0.0381358;0.0655313;0;0.106642;8.99968;5.80748
544000;545;26.6725;0.916533;0.0355853;-2.13538;26.5852;-0.301216;-0.094591;0.924661;-1.16314;0.0421585;-0.736728;-0.334199;0.810083;-7.39722;-0.00334387;-0.000241568;0.0086378;0.00864267;-0.00334874;0.0059957;0.387121;2.58317;0.0071446;0.00799427;2.58087;0.387466;55.8894;100.889;0.00975089;-0.00337059;-0.00787534;0.00730154;0.00860708;0.0221038;0.0230615;0;0.0225541;-0.0404646;-1.67613;-1.45952;2.2229;-7.63618;-0.0160078;-0.000258216;0.0718549;0.0718557;-0.0160085;0.0439321;0.222779;4.48876;0.0540363;0.0585761;4.48859;0.222787;93.393;138.393;-0.0018915;-0.0160135;0.00312565;-0.00336469;0.0718504;0.0367694;0.0691028;0;0.100154;8.99361;5.81474
545000;546;26.6916;0.935659;0.0363279;-2.13217;26.6049;-0.271566;-0.0913854;0.944427;-1.13349;0.0411457;-0.737684;-0.333111;0.810453;-7.39614;-0.00334253;-1.47772e-05;0.00914223;0.00914225;-0.00334255;0.0062424;0.365614;2.73512;0.00746285;0.0083232;2.73511;0.365616;55.6689;100.669;0.00980474;-0.00337082;-0.00763265;0.00750885;0.00911337;0.02171;0.022009;0;0.026972;-0.042389;-1.68407;-1.46253;2.2309;-7.63919;-0.016453;-0.000357744;0.0728794;0.0728808;-0.0164544;0.0446676;0.225756;4.42955;0.0549002;0.0595568;4.42925;0.225772;93.3029;138.303;-0.00385055;-0.0164586;0.0029027;-0.0033467;0.0728755;0.0386385;0.0688763;0;0.0984032;8.98499;5.82255
546000;547;26.6992;0.943222;0.0366215;-2.13404;26.6124;-0.268849;-0.0932545;0.951892;-1.13077;0.0419867;-0.73841;-0.331439;0.810471;-7.39446;-0.00321439;-4.16117e-05;0.0092876;0.00928774;-0.00321453;0.00625114;0.346095;2.88938;0.0074967;0.00833485;2.8893;0.346105;56.3794;101.379;0.00945166;-0.00324169;-0.00755365;0.00737738;0.00925934;0.0225441;0.0216621;0;0.0278803;-0.042418;-1.6918;-1.46486;2.23826;-7.64152;-0.0164491;3.40079e-05;0.0743426;0.0743426;-0.0164492;0.0453959;0.221261;4.51954;0.055858;0.0605278;4.51954;0.221262;92.8286;137.829;-0.00169723;-0.0164532;0.00313862;-0.00280824;0.074338;0.0391229;0.0634287;0;0.101631;9.00393;5.82961
547000;548;26.7141;0.958151;0.0372011;-2.13514;26.6274;-0.261868;-0.0943553;0.96685;-1.12379;0.0412894;-0.740901;-0.330578;0.812355;-7.3936;-0.00323084;1.88802e-05;0.00953201;0.00953204;-0.00323087;0.00638145;0.338947;2.95031;0.00766217;0.00850861;2.9503;0.338949;56.4482;101.448;0.00968461;-0.00325875;-0.00751631;0.00745881;0.00950403;0.0216931;0.0211683;0;0.0425809;-0.0437314;-1.70474;-1.4693;2.25097;-7.65015;-0.01634;-0.00111411;0.0734727;0.0734865;-0.0163538;0.0449202;0.222395;4.4965;0.055255;0.0598936;4.49354;0.222542;95.2184;140.218;-0.00511558;-0.0163552;0.00375309;-0.00557406;0.0734667;0.0481546;0.0612587;0;0.0988091;9.01526;5.8369
548000;549;26.7024;0.946433;0.0367462;-2.14089;26.6148;-0.297217;-0.100105;0.954261;-1.15914;0.0418341;-0.738673;-0.331768;0.810838;-7.39479;-0.00335542;-3.75638e-07;0.00935456;0.00935456;-0.00335542;0.00635499;0.358693;2.7879;0.0076057;0.00847332;2.7879;0.358693;55.9742;100.974;0.0097371;-0.00338356;-0.0075855;0.00748924;0.00932606;0.0210999;0.0225538;0;0.023764;-0.0442285;-1.71069;-1.47118;2.25673;-7.65204;-0.0169359;-0.00103347;0.0741445;0.0741563;-0.0169476;0.0455519;0.228417;4.37796;0.055949;0.0607359;4.37562;0.228539;94.8006;139.801;0.000435381;-0.0169488;0.00345083;-0.00513751;0.0741395;0.0350303;0.0561048;0;0.112067;9.00211;5.84445
549000;550;26.7133;0.957302;0.0371682;-2.13946;26.6257;-0.306523;-0.0986693;0.965176;-1.16844;0.0413072;-0.73981;-0.331906;0.811904;-7.39493;-0.00331854;4.3967e-05;0.00951788;0.00951803;-0.00331869;0.00641836;0.348663;2.8681;0.00769398;0.00855781;2.86801;0.348674;56.1044;101.104;0.00962145;-0.003347;-0.00754141;0.00753289;0.00948971;0.0213525;0.0215078;0;0.0229332;-0.0455815;-1.7199;-1.47523;2.26637;-7.65608;-0.0170484;-0.00129609;0.0740273;0.0740457;-0.0170669;0.0455563;0.230299;4.34218;0.0559276;0.0607417;4.33857;0.230491;94.5246;139.525;0.000488783;-0.01706;0.0026892;-0.00494341;0.0740247;0.036545;0.0576829;0;0.111978;9.01339;5.85178
550000;551;26.7253;0.969294;0.0376338;-2.14071;26.6375;-0.316118;-0.0999246;0.976994;-1.17804;0.0403714;-0.741556;-0.327019;0.811465;-7.39004;-0.00325673;9.84602e-05;0.00939437;0.00939514;-0.00325749;0.00632631;0.346668;2.88461;0.00758608;0.00843509;2.88416;0.346721;55.8119;100.812;0.00934147;-0.00328528;-0.00744217;0.00754458;0.00936694;0.022608;0.0223122;0;0.0218853;-0.0470748;-1.73115;-1.47381;2.27403;-7.65466;-0.017174;-0.00101599;0.0746787;0.07469;-0.0171852;0.0459376;0.229972;4.34836;0.0564013;0.0612501;4.34617;0.230088;94.1765;139.177;-0.00227174;-0.0171839;0.00282581;-0.00452942;0.0746755;0.0424294;0.0639379;0;0.107182;9.02665;5.85932
551000;552;;;;;;;;;;0.0407753;-0.740991;-0.327579;0.811196;-7.3906;-0.00349638;-4.25033e-06;0.00993016;0.00993016;-0.00349638;0.00671327;0.352097;2.84012;0.00804301;0.00895103;2.84012;0.352097;56.8741;101.874;0.00941917;-0.00352353;-0.00746387;0.0073562;0.00990258;0.0215843;0.0217989;0;0.0192343;-0.0482508;-1.73857;-1.47544;2.28077;-7.65108;-0.01736;-0.000125719;0.0773253;0.0773255;-0.0173602;0.0473428;0.224506;4.45423;0.0582065;0.0631238;4.45419;0.224508;93.3026;138.303;-0.00364665;-0.0173661;0.00352847;-0.00345874;0.0773196;0.0434374;0.0663996;0;0.108577;9.01161;5.86677
552000;553;26.7545;0.998486;0.0387672;-2.14045;26.6672;-0.279157;-0.0996591;1.00672;-1.14108;0.0405335;-0.741181;-0.325786;0.810635;-7.38881;-0.00330539;-2.64775e-05;0.00972814;0.00972819;-0.00330544;0.00651681;0.339776;2.94312;0.0078236;0.00868909;2.94308;0.33978;57.0171;102.017;0.00930554;-0.00333205;-0.0074397;0.00729106;0.00970073;0.0216944;0.0230362;0;0.0231789;-0.0490712;-1.74575;-1.47676;2.28711;-7.65342;-0.0176545;0.000250872;0.0788467;0.0788474;-0.0176552;0.0482513;0.223909;4.4661;0.0593321;0.064335;4.46597;0.223916;92.5542;137.554;-0.000693407;-0.0176579;0.00337517;-0.00259396;0.0788415;0.0380808;0.0674262;0;0.104951;8.99667;5.86687
553000;554;26.7636;1.00763;0.0391221;-2.14161;26.6763;-0.27633;-0.10082;1.01582;-1.13825;0.0406617;-0.7418;-0.328404;0.812262;-7.39143;-0.00333577;0.000287408;0.0101248;0.0101309;-0.0033419;0.00673642;0.329464;3.03523;0.00810105;0.0089819;3.03149;0.32987;56.3258;101.326;0.00947518;-0.00336445;-0.00709109;0.00756757;0.0101;0.0196662;0.0217677;0;0.0221549;-0.0498652;-1.75339;-1.48139;2.29595;-7.65805;-0.0178035;-0.000305398;0.0796217;0.0796227;-0.0178045;0.0487136;0.223601;4.47225;0.0599051;0.0649514;4.47206;0.223611;93.0368;138.037;-0.00122262;-0.0178092;0.00303442;-0.00334383;0.0796175;0.0431822;0.0649368;0;0.104124;9.01945;5.87413
554000;555;;;;;;;;;;0.0409552;-0.74345;-0.325739;0.812713;-7.38876;-0.00323579;0.000128043;0.0100122;0.0100135;-0.00323703;0.00662525;0.323183;3.09422;0.00797669;0.00883367;3.09342;0.323267;56.7827;101.783;0.00978336;-0.0032643;-0.00738238;0.00753995;0.00998527;0.0207776;0.0215491;0;0.0268877;-0.0503403;-1.76487;-1.48419;2.30654;-7.66408;-0.0178763;-0.00144603;0.0784794;0.0785011;-0.0178979;0.0481995;0.227783;4.39015;0.0592087;0.064266;4.38604;0.227996;94.9067;139.907;-0.00413741;-0.0178916;0.00320305;-0.00567972;0.0784756;0.0459663;0.0642879;0;0.114176;9.02304;5.88176
555000;556;26.7661;1.01017;0.0392209;-2.14767;26.6779;-0.319061;-0.106885;1.01741;-1.18098;0.041132;-0.743241;-0.326497;0.812835;-7.38952;-0.00334715;0.000212306;0.00976876;0.0097722;-0.00335058;0.00656139;0.342638;2.91853;0.00787301;0.00874852;2.91657;0.342869;55.7435;100.744;0.00990922;-0.00337682;-0.00736693;0.00769308;0.00974191;0.0208173;0.0224926;0;0.0258617;-0.0507376;-1.77184;-1.48704;2.31372;-7.66789;-0.0177869;-0.0014543;0.0790646;0.0790864;-0.0178087;0.0484476;0.224966;4.44511;0.0595548;0.0645968;4.44088;0.22518;94.7647;139.765;0.000692047;-0.0178017;0.0030813;-0.00558279;0.0790612;0.0418319;0.0603106;0;0.113891;9.00951;5.88874
556000;557;26.7704;1.01442;0.0393858;-2.14838;26.682;-0.329207;-0.107596;1.02149;-1.19113;0.0407293;-0.743311;-0.327581;0.813314;-7.39061;-0.00340543;0.000306624;0.0102346;0.0102414;-0.00341232;0.00682688;0.332738;3.00536;0.0082051;0.00910251;3.00132;0.333187;56.1788;101.179;0.0101667;-0.00343502;-0.00717351;0.00768574;0.0102091;0.0205954;0.0213543;0;0.0301694;-0.0522356;-1.77802;-1.48928;2.31992;-7.66594;-0.0183623;-0.000938421;0.0812757;0.0812845;-0.0183712;0.0498278;0.225927;4.42622;0.0612389;0.0664371;4.42457;0.226011;93.487;138.487;-0.000604135;-0.0183706;0.00257397;-0.00412714;0.081273;0.0403073;0.0721746;0;0.121961;9.02524;5.89606
557000;558;26.7942;1.03825;0.0403109;-2.14391;26.7066;-0.303973;-0.103125;1.04606;-1.16589;0.0395511;-0.745675;-0.32497;0.814372;-7.388;-0.0035202;0.000142094;0.0102365;0.010238;-0.00352167;0.00687984;0.343886;2.90794;0.00825359;0.00917313;2.90715;0.34398;56.7797;101.78;0.0101591;-0.00354813;-0.0072785;0.00746163;0.0102103;0.0199933;0.0216984;0;0.0267942;-0.053964;-1.79234;-1.49122;2.33219;-7.67207;-0.0182867;-0.000889288;0.0807568;0.0807648;-0.0182947;0.0495297;0.226441;4.41615;0.0608649;0.0660396;4.41466;0.226518;94.1413;139.141;-0.00406246;-0.018298;0.00340863;-0.00479332;0.0807518;0.0481232;0.0594273;0;0.114834;9.04548;5.9032
558000;559;26.8048;1.04883;0.0407217;-2.1462;26.7171;-0.296349;-0.105415;1.05658;-1.15827;0.0402721;-0.745435;-0.32256;0.813229;-7.38559;-0.00349922;0.000181481;0.0100191;0.0100215;-0.00350165;0.00676158;0.349255;2.86323;0.00810443;0.00901544;2.86194;0.349414;56.1878;101.188;0.0101233;-0.00352795;-0.00730654;0.00756927;0.00999266;0.0205247;0.0219455;0;0.0334384;-0.0547976;-1.7994;-1.48933;2.33644;-7.66599;-0.0187533;-0.000123364;0.0831248;0.0831249;-0.0187534;0.0509392;0.225604;4.43255;0.062611;0.0679189;4.43252;0.225605;92.6355;137.636;0.00202655;-0.0187577;0.0030081;-0.00296028;0.0831206;0.037852;0.069469;0;0.111328;9.02671;5.91073
559000;560;26.8134;1.05745;0.0410563;-2.14727;26.7257;-0.29315;-0.106481;1.06517;-1.15507;0.0403248;-0.745841;-0.321188;0.81306;-7.38421;-0.00345469;7.03118e-06;0.0102417;0.0102417;-0.0034547;0.00684818;0.337318;2.96456;0.00822485;0.0091309;2.96456;0.337318;57.4884;102.488;0.010609;-0.00348146;-0.0073909;0.00730467;0.0102146;0.0200016;0.0224854;0;0.0277847;-0.0556744;-1.80874;-1.49487;2.34718;-7.67572;-0.0191818;-0.000675642;0.0823917;0.0823962;-0.0191863;0.0507913;0.232812;4.29531;0.0623187;0.0677217;4.29453;0.232854;93.1784;138.178;0.000973553;-0.0191886;0.0026758;-0.00371258;0.0823886;0.0424346;0.0605602;0;0.106866;9.03073;5.91752
560000;561;26.8254;1.06946;0.0415228;-2.14822;26.7377;-0.291512;-0.107436;1.07717;-1.15343;0.0396984;-0.746536;-0.321642;0.813847;-7.38467;-0.00328797;6.38605e-05;0.010291;0.0102913;-0.00328827;0.00678981;0.319498;3.12991;0.00818033;0.00905308;3.12971;0.319518;57.5852;102.585;0.0099876;-0.0033152;-0.00733995;0.00736815;0.0102644;0.0210156;0.0213806;0;0.026828;-0.0568796;-1.81553;-1.49678;2.35366;-7.67343;-0.0192511;-0.000903335;0.0844001;0.084408;-0.019259;0.0518335;0.228093;4.38417;0.0636701;0.0691113;4.38279;0.228165;93.606;138.606;0.00119854;-0.0192605;0.00294322;-0.00438221;0.0843965;0.0419891;0.0695224;0;0.115452;9.04798;5.92509
561000;562;26.8157;1.0597;0.0411437;-2.1537;26.727;-0.333867;-0.112915;1.06643;-1.19579;0.0395041;-0.747014;-0.321434;0.814193;-7.38446;-0.00343986;0.000163828;0.0105456;0.0105476;-0.00344178;0.00699467;0.326187;3.06572;0.0084169;0.00932623;3.06457;0.32631;57.1589;102.159;0.0101366;-0.00346876;-0.00736818;0.00759159;0.0105188;0.0208352;0.0214109;0;0.024857;-0.0582461;-1.8248;-1.49964;2.36267;-7.6763;-0.0195306;-0.00144801;0.0859141;0.085934;-0.0195505;0.0527422;0.227327;4.39895;0.0647968;0.070323;4.3955;0.227506;94.0468;139.047;0.00104283;-0.0195431;0.00267245;-0.00516835;0.0859118;0.0420524;0.0698306;0;0.124913;9.04127;5.93255
562000;563;26.8364;1.08046;0.0419498;-2.1501;26.7483;-0.31468;-0.10931;1.08779;-1.1766;0.0388928;-0.746944;-0.321072;0.813956;-7.3841;-0.00336033;0.000435922;0.0105288;0.0105425;-0.003374;0.00695824;0.319156;3.13327;0.00838247;0.00927766;3.12462;0.320039;56.0677;101.068;0.00990275;-0.00339161;-0.00713978;0.00790748;0.0105037;0.0197917;0.0218463;0;0.016911;-0.0591599;-1.83437;-1.50326;2.37238;-7.68412;-0.0198421;-0.00198754;0.0850673;0.085105;-0.0198797;0.0524924;0.233252;4.28721;0.0643944;0.0699898;4.28099;0.233591;94.7729;139.773;-0.00355614;-0.0198592;0.00259456;-0.0061266;0.085066;0.0431953;0.0576716;0;0.116606;9.02192;5.93429
563000;564;26.8405;1.08455;0.0421088;-2.14972;26.7523;-0.327141;-0.10893;1.09178;-1.18906;0.0397207;-0.750382;-0.313978;0.814391;-7.377;-0.00369589;0.000318208;0.0107917;0.0107987;-0.00370288;0.00725079;0.342475;2.91992;0.00870018;0.00966772;2.9163;0.3429;56.7602;101.76;0.00965672;-0.0037249;-0.0070784;0.00760878;0.010767;0.0203044;0.021709;0;0.0180428;-0.0595091;-1.84345;-1.49959;2.3771;-7.67625;-0.0196091;-0.000561485;0.0883993;0.0884022;-0.019612;0.0540071;0.221824;4.50808;0.066444;0.0720095;4.50755;0.22185;93.3248;138.325;-0.00165014;-0.0196177;0.00340961;-0.00413849;0.0883941;0.0408278;0.0684524;0;0.122056;9.0372;5.94029
564000;565;26.855;1.09901;0.04267;-2.15162;26.7668;-0.318314;-0.11083;1.10623;-1.18023;0.0384284;-0.751153;-0.314464;0.815227;-7.37749;-0.00340333;0.000538874;0.010896;0.0109163;-0.00342361;0.00716995;0.312346;3.20157;0.00864767;0.00955994;3.18853;0.313624;56.4046;101.405;0.0101445;-0.00343435;-0.0069093;0.00788166;0.0108725;0.0190491;0.0214257;0;0.0337606;-0.0613294;-1.85488;-1.4996;2.38603;-7.67626;-0.0199997;-0.000264336;0.0880648;0.0880654;-0.0200003;0.0540329;0.227102;4.40331;0.066389;0.0720438;4.4032;0.227108;93.2654;138.265;-0.00199523;-0.0200075;0.00379225;-0.00391802;0.0880582;0.0407318;0.0712401;0;0.117589;9.04702;5.94741
565000;566;26.8469;1.09089;0.0423548;-2.15751;26.7577;-0.352376;-0.116721;1.09719;-1.2143;0.0380706;-0.751525;-0.312767;0.814901;-7.37579;-0.00356396;0.000509008;0.0108072;0.0108252;-0.00358197;0.00720359;0.329776;3.03236;0.00866132;0.00960479;3.02215;0.330891;56.3631;101.363;0.00926655;-0.00359367;-0.00679729;0.0077114;0.0107845;0.0205388;0.0220717;0;0.0278982;-0.0626336;-1.86454;-1.50652;2.39792;-7.68806;-0.0206787;-0.000705462;0.0869787;0.0869833;-0.0206833;0.0538333;0.237745;4.20619;0.065973;0.0717777;4.20548;0.237785;92.8278;137.828;0.000170994;-0.0206847;0.00238711;-0.00349173;0.0869763;0.0464173;0.0620589;0;0.114169;9.03312;5.9541
566000;567;26.8528;1.09685;0.0425864;-2.16001;26.7636;-0.346469;-0.11922;1.10305;-1.20839;0.0388215;-0.752827;-0.309226;0.814786;-7.37225;-0.00356063;0.000497799;0.0109822;0.0109992;-0.00357765;0.00728842;0.324219;3.08434;0.008772;0.00971789;3.07442;0.325264;56.7081;101.708;0.00979548;-0.00359027;-0.00681166;0.00770209;0.0109593;0.0181019;0.0210327;0;0.0221271;-0.0629164;-1.86979;-1.50269;2.39961;-7.67935;-0.0204487;-0.00025507;0.0895682;0.0895688;-0.0204493;0.055009;0.228303;4.38015;0.0675684;0.0733454;4.38005;0.228308;92.7815;137.781;0.000100983;-0.0204545;0.00323681;-0.00339436;0.0895635;0.0425708;0.070117;0;0.123859;9.03489;5.96166
567000;568;26.8789;1.12289;0.0435972;-2.15533;26.7903;-0.324676;-0.114546;1.12982;-1.1866;0.0395811;-0.751656;-0.313548;0.815393;-7.37657;-0.00357197;0.000513974;0.0110324;0.0110504;-0.00359004;0.00732023;0.323773;3.08859;0.00881089;0.0097603;3.07808;0.324878;56.6473;101.647;0.00925046;-0.00360206;-0.00683811;0.00775983;0.0110094;0.0200689;0.0216162;0;0.0199287;-0.0631698;-1.877;-1.5091;2.40925;-7.68542;-0.020471;-0.000687828;0.0915858;0.09159;-0.0204753;0.0560326;0.223518;4.47392;0.0689067;0.0747102;4.4732;0.223554;93.0255;138.025;0.000297806;-0.0204788;0.0029459;-0.00394853;0.091582;0.0400622;0.0677004;0;0.128116;9.05547;5.96937
568000;569;26.89;1.13408;0.0440316;-2.15661;26.8014;-0.33111;-0.115821;1.14086;-1.19303;0.0395706;-0.752129;-0.314541;0.81621;-7.37757;-0.00370987;0.000444249;0.0111043;0.0111176;-0.00372318;0.0074204;0.334093;2.99318;0.00891581;0.00989387;2.98605;0.33489;56.884;101.884;0.00916864;-0.00373924;-0.00688124;0.00766238;0.011081;0.0202286;0.0219003;0;0.0265784;-0.0639983;-1.88958;-1.51612;2.42347;-7.69697;-0.020648;-0.00166426;0.0914214;0.0914461;-0.0206727;0.0560594;0.225855;4.42762;0.0688967;0.0747459;4.42353;0.226064;94.5059;139.506;-0.00384414;-0.0206656;0.00329201;-0.00611157;0.0914177;0.0460557;0.0743839;0;0.12189;9.05103;5.97637
569000;570;26.8746;1.1186;0.0434308;-2.16337;26.7846;-0.381908;-0.122586;1.12411;-1.24383;0.0390255;-0.753265;-0.311519;0.816073;-7.37454;-0.00367183;0.00036856;0.0111117;0.0111209;-0.00368101;0.00740094;0.330448;3.0262;0.00889843;0.00986792;3.02114;0.331001;57.3153;102.315;0.00967238;-0.00370031;-0.00691172;0.00754238;0.0110881;0.0189321;0.0223428;0;0.0300488;-0.0653312;-1.89613;-1.51433;2.4275;-7.69099;-0.0210727;-0.000583493;0.0945273;0.0945302;-0.0210756;0.0578029;0.222927;4.48577;0.0710944;0.0770706;4.48528;0.222951;92.829;137.829;-0.00261375;-0.0210798;0.00299026;-0.00377979;0.0945234;0.0465195;0.0740704;0;0.134326;9.04018;5.98413
570000;571;26.9023;1.14635;0.0445082;-2.15906;26.8133;-0.343201;-0.118268;1.15283;-1.20512;0.0394084;-0.753551;-0.311003;0.816159;-7.37403;-0.00365141;0.00061927;0.0113358;0.0113614;-0.00367695;0.00751916;0.322112;3.10451;0.00905234;0.0100256;3.08989;0.323636;56.6592;101.659;0.00937893;-0.00368218;-0.00672579;0.00785545;0.0113137;0.0193137;0.0221688;0;0.0270267;-0.0659523;-1.9057;-1.51644;2.43632;-7.6931;-0.0213147;-0.000227783;0.0947072;0.0947076;-0.0213151;0.0580114;0.225059;4.44328;0.0713133;0.0773485;4.44321;0.225063;92.954;137.954;-0.00083367;-0.0213221;0.00377061;-0.00380241;0.0947007;0.0457995;0.0722471;0;0.129838;9.05029;5.99138
571000;572;26.9167;1.16071;0.0450657;-2.16085;26.8278;-0.329605;-0.120063;1.16726;-1.19152;0.0389971;-0.753669;-0.311882;0.816584;-7.37491;-0.00351907;0.000944824;0.011108;0.0111688;-0.00357985;0.00737431;0.316806;3.15651;0.00888293;0.00983242;3.1199;0.320523;55.143;100.143;0.00962882;-0.00355248;-0.00643062;0.00821353;0.011088;0.0205339;0.022926;0;0.0255309;-0.0673476;-1.91548;-1.51969;2.44603;-7.69757;-0.0219176;0.000162567;0.0947586;0.0947588;-0.0219178;0.0583383;0.231299;4.3234;0.0716055;0.0777844;4.32337;0.231301;92.1061;137.106;0.000849139;-0.0219209;0.00321109;-0.00256106;0.0947539;0.0469493;0.0761336;0;0.125696;9.05724;5.99904
572000;573;26.9288;1.17283;0.0455363;-2.16169;26.8399;-0.32656;-0.120899;1.17939;-1.18848;0.0386836;-0.75385;-0.312037;0.816795;-7.37506;-0.00374341;0.000618979;0.011252;0.0112775;-0.00376892;0.00752323;0.332687;3.00583;0.00904045;0.010031;2.99225;0.334196;56.3362;101.336;0.00991449;-0.00377445;-0.00675983;0.00788834;0.0112296;0.0187905;0.0213234;0;0.0258731;-0.0684624;-1.92412;-1.52372;2.45533;-7.70286;-0.0218963;-0.000502625;0.0947526;0.0947548;-0.0218985;0.0583266;0.231089;4.32733;0.0715945;0.0777688;4.327;0.231107;93.3626;138.363;0.00247469;-0.0219061;0.00385286;-0.00439401;0.0947459;0.04884;0.0711919;0;0.126417;9.03895;6.00463
573000;574;26.9385;1.1825;0.0459119;-2.16424;26.8494;-0.327629;-0.123456;1.18888;-1.18955;0.0387482;-0.754377;-0.310659;0.816759;-7.37368;-0.00372062;0.000773764;0.0115595;0.0115985;-0.0037597;0.00767912;0.321867;3.10687;0.00924406;0.0102388;3.08497;0.324153;56.348;101.348;0.00990911;-0.0037526;-0.00658409;0.00802044;0.0115383;0.0177238;0.0224944;0;0.0237395;-0.0694788;-1.93386;-1.52715;2.46512;-7.70936;-0.0221507;-0.00131352;0.0940108;0.0940256;-0.0221655;0.0580956;0.235618;4.24415;0.0712312;0.0774608;4.24198;0.235739;94.4365;139.436;-0.00325748;-0.0221681;0.00391718;-0.00598881;0.0940045;0.0517097;0.061025;0;0.127806;9.04317;6.00638
574000;575;26.9467;1.19074;0.0462318;-2.16549;26.8574;-0.343317;-0.124698;1.19685;-1.20524;0.0387853;-0.754872;-0.310522;0.817166;-7.37355;-0.00378065;0.000536269;0.0113848;0.0114038;-0.00379959;0.00760169;0.332078;3.01134;0.00913632;0.0101356;3.00132;0.333187;56.7084;101.708;0.010246;-0.00381165;-0.00691543;0.0078762;0.0113613;0.0177518;0.0231508;0;0.0219915;-0.070505;-1.94008;-1.52919;2.4713;-7.70585;-0.02236;-0.000795123;0.0988034;0.0988086;-0.0223652;0.0605869;0.226308;4.41876;0.0744557;0.0807825;4.41796;0.226349;92.8847;137.885;-0.00179116;-0.0223682;0.00289262;-0.00407621;0.0987998;0.0406506;0.0809338;0;0.13029;9.06657;6.01669
575000;576;26.9508;1.19478;0.0463886;-2.16473;26.8613;-0.35571;-0.123945;1.2008;-1.21763;0.0382373;-0.755197;-0.309559;0.817075;-7.37258;-0.00373848;0.000607933;0.0115177;0.0115419;-0.00376267;0.00765229;0.324585;3.08086;0.00920874;0.0102031;3.06748;0.326;56.8532;101.853;0.0099392;-0.00376934;-0.00676031;0.00786502;0.0114953;0.0185163;0.0222477;0;0.019193;-0.0717485;-1.94936;-1.53041;2.47938;-7.70707;-0.0224648;-0.000884325;0.10034;0.100347;-0.0224712;0.0614089;0.223886;4.46655;0.075511;0.0818786;4.46557;0.223935;93.0233;138.023;-0.000788223;-0.0224741;0.00303176;-0.00436334;0.100336;0.0458819;0.0733103;0;0.135804;9.05276;6.02322
576000;577;26.9553;1.19934;0.0465656;-2.16551;26.8657;-0.362461;-0.124718;1.20522;-1.22438;0.0378951;-0.756108;-0.305034;0.8162;-7.36806;-0.00392297;0.000747825;0.0113658;0.0114023;-0.00395946;0.00768089;0.345155;2.89725;0.00920959;0.0102412;2.87977;0.34725;55.8847;100.885;0.00964132;-0.00395452;-0.00657792;0.00796278;0.0113447;0.0181618;0.0217173;0;0.023804;-0.0728439;-1.95736;-1.5316;2.48644;-7.70947;-0.0225957;-0.000940468;0.100538;0.100545;-0.0226029;0.0615738;0.224749;4.44941;0.0756975;0.0820985;4.44832;0.224804;92.9654;137.965;0.00350408;-0.0226048;0.00285439;-0.00431073;0.100534;0.032666;0.0704987;0;0.137504;9.04073;6.02777
577000;578;26.9514;1.19539;0.046412;-2.17196;26.8608;-0.394251;-0.131175;1.20028;-1.25617;0.0378119;-0.757007;-0.303782;0.816561;-7.36681;-0.00388723;0.000795322;0.0115457;0.0115865;-0.00392811;0.00775732;0.336684;2.97015;0.00931405;0.0103431;2.94965;0.339024;55.9761;100.976;0.00996763;-0.0039196;-0.00659096;0.00806887;0.0115245;0.0178119;0.0227149;0;0.0219745;-0.0738606;-1.96927;-1.53267;2.49651;-7.71395;-0.0229929;-0.000702445;0.0987694;0.0987735;-0.022997;0.0608852;0.232794;4.29564;0.074704;0.0811803;4.29506;0.232826;93.1882;138.188;-0.0011075;-0.0230026;0.00346494;-0.004408;0.0987642;0.0515597;0.0655976;0;0.140763;9.05938;6.03491
578000;579;26.9625;1.20657;0.0468464;-2.17392;26.872;-0.38729;-0.133136;1.21145;-1.24921;0.0377932;-0.756836;-0.305081;0.816887;-7.36811;-0.00395419;0.000857535;0.0116097;0.0116568;-0.0040013;0.00782906;0.340593;2.93605;0.00939348;0.0104387;2.91326;0.343258;55.6956;100.696;0.00965388;-0.00398739;-0.00657644;0.00817709;0.0115887;0.0180843;0.0218284;0;0.0294212;-0.0748222;-1.97918;-1.53864;2.50803;-7.72078;-0.0234011;-0.000632884;0.099802;0.0998053;-0.0234043;0.0616048;0.234475;4.26485;0.0755564;0.0821397;4.2644;0.2345;93.4677;138.468;0.000885919;-0.0234126;0.00404129;-0.00478343;0.0997948;0.0553138;0.0602812;0;0.136951;9.06657;6.04237
579000;580;26.9884;1.23248;0.0478521;-2.16927;26.8988;-0.355194;-0.12848;1.23826;-1.21711;0.0378183;-0.758461;-0.303829;0.817927;-7.36685;-0.00412867;0.000891716;0.0121502;0.0121989;-0.00417737;0.00818815;0.339802;2.94289;0.00982567;0.0109175;2.92024;0.342437;56.4693;101.469;0.00955;-0.00416111;-0.00642202;0.00808778;0.0121302;0.0170007;0.0220178;0;0.0227499;-0.0756634;-1.991;-1.54116;2.51892;-7.72431;-0.0240842;-0.00174513;0.100079;0.100104;-0.0241087;0.0621063;0.240651;4.1554;0.0760567;0.0828084;4.15219;0.240837;94.115;139.115;0.00111751;-0.0241014;0.00310729;-0.00604983;0.100076;0.0490552;0.0723547;0;0.13234;9.04997;6.04987
580000;581;26.9951;1.23911;0.0481098;-2.17026;26.9052;-0.36392;-0.12947;1.24472;-1.22584;0.0378779;-0.758348;-0.30434;0.818016;-7.36737;-0.0040461;0.000905336;0.0117897;0.0118413;-0.00409769;0.00796949;0.343189;2.91385;0.00955753;0.010626;2.88975;0.346051;55.9139;100.914;0.00969463;-0.00407863;-0.0064037;0.00809993;0.0117698;0.0166284;0.022428;0;0.0266023;-0.0766726;-1.99428;-1.54301;2.52268;-7.72089;-0.0243119;-0.000758008;0.10496;0.104964;-0.0243163;0.0646403;0.23163;4.31722;0.0793337;0.086187;4.31662;0.231663;92.3991;137.399;0.00198609;-0.0243182;0.00245679;-0.00359669;0.104957;0.0426485;0.0736786;0;0.136493;9.05565;6.05775
581000;582;27.0055;1.24952;0.0485139;-2.17175;26.9154;-0.37889;-0.130964;1.25484;-1.24081;0.0377797;-0.759065;-0.304264;0.818648;-7.36729;-0.00413306;0.000742365;0.0115743;0.0116093;-0.00416807;0.00788866;0.357091;2.80041;0.00944071;0.0105182;2.78529;0.35903;55.8996;100.9;0.00984807;-0.00416495;-0.00663358;0.00800374;0.0115528;0.0171871;0.0226173;0;0.0296738;-0.077572;-2.0046;-1.54616;2.5328;-7.72472;-0.0245628;7.06339e-05;0.107004;0.107004;-0.0245628;0.0657836;0.229549;4.35637;0.0807785;0.0877115;4.35636;0.229549;91.6291;136.629;0.00101099;-0.0245654;0.00271766;-0.0022618;0.107001;0.0539071;0.0729583;0;0.148113;9.06985;6.0645
582000;583;27.0128;1.25687;0.048799;-2.17181;26.9227;-0.38139;-0.131019;1.26217;-1.24331;0.0379944;-0.75916;-0.304059;0.818669;-7.36708;-0.00399002;0.00108002;0.0118254;0.0118988;-0.00406343;0.00798111;0.337412;2.96374;0.00957874;0.0106415;2.92826;0.3415;55.4405;100.441;0.0106012;-0.00402374;-0.00622113;0.008267;0.0118068;0.0166732;0.0237924;0;0.0242681;-0.0778642;-2.01558;-1.55228;2.54523;-7.73424;-0.0244353;-0.000987561;0.106325;0.106332;-0.0244428;0.0653876;0.229817;4.35128;0.0802859;0.0871835;4.35026;0.229872;92.3847;137.385;9.10253e-05;-0.0244419;0.00210404;-0.00371375;0.106323;0.0408963;0.0778068;0;0.137384;9.05557;6.07224
583000;584;27.001;1.24508;0.0483414;-2.17981;26.9097;-0.418292;-0.139017;1.24915;-1.28021;0.0379503;-0.759284;-0.301894;0.817981;-7.36492;-0.00406638;0.000878907;0.011661;0.01171;-0.00411534;0.00791266;0.348716;2.86766;0.00948097;0.0105502;2.84544;0.351439;56.0091;101.009;0.00961098;-0.00409749;-0.00627412;0.00792069;0.0116419;0.0175172;0.0227331;0;0.0321447;-0.0793179;-2.02393;-1.55208;2.55177;-7.73404;-0.0249347;-0.0010408;0.105944;0.105952;-0.024943;0.0654476;0.235358;4.24885;0.0802518;0.0872634;4.24777;0.235418;92.6553;137.655;0.00513848;-0.0249427;0.00240607;-0.00407975;0.105942;0.0410501;0.0669296;0;0.143001;9.04815;6.07699
584000;585;27.0133;1.25729;0.0488155;-2.17939;26.9221;-0.411956;-0.138597;1.26153;-1.27388;0.0375097;-0.759969;-0.298522;0.817359;-7.36155;-0.00415498;0.00101504;0.0121797;0.0122425;-0.00421782;0.00823015;0.341141;2.93134;0.00987264;0.0109735;2.90257;0.344523;56.0397;101.04;0.0103098;-0.00418841;-0.00630996;0.00822177;0.0121605;0.0156088;0.0218451;0;0.0179808;-0.0804061;-2.03623;-1.55504;2.56336;-7.74145;-0.0250607;-0.00142901;0.105981;0.105997;-0.0250762;0.0655365;0.236463;4.22899;0.0803386;0.0873821;4.22698;0.236575;93.6108;138.611;-0.000478653;-0.0250754;0.00325333;-0.00555654;0.105977;0.0447517;0.0677719;0;0.139599;9.06294;6.08448
585000;586;27.0463;1.29036;0.0500993;-2.17682;26.956;-0.372663;-0.136029;1.29549;-1.23458;0.0372626;-0.760738;-0.300033;0.818615;-7.36306;-0.00410352;0.000972648;0.0121053;0.0121634;-0.00416168;0.00816256;0.338986;2.94997;0.00979545;0.0108834;2.92272;0.342147;56.2478;101.248;0.0102601;-0.00413605;-0.0062778;0.00810693;0.0120863;0.016214;0.0231205;0;0.0403031;-0.0825039;-2.04767;-1.55858;2.57467;-7.74609;-0.0251568;-0.00183827;0.107684;0.107709;-0.0251822;0.0664457;0.233617;4.28051;0.0815074;0.0885943;4.2772;0.233798;93.7615;138.761;0.00253561;-0.0251736;0.00291648;-0.00602276;0.107682;0.0388811;0.0794532;0;0.135127;9.06293;6.09141
586000;587;27.0465;1.29049;0.0501046;-2.17686;26.956;-0.385265;-0.136068;1.29545;-1.24718;0.0375544;-0.760823;-0.297983;0.817958;-7.36101;-0.00396605;0.00114107;0.0125351;0.0126136;-0.00404458;0.0083291;0.316396;3.1606;0.0100328;0.0111055;3.11865;0.320652;56.5478;101.548;0.0100327;-0.00399993;-0.00613114;0.0082947;0.0125172;0.0168663;0.0212567;0;0.020588;-0.0828728;-2.05174;-1.55757;2.57731;-7.73885;-0.0257432;-0.0014426;0.109514;0.10953;-0.0257586;0.0676442;0.235067;4.2541;0.0829501;0.0901922;4.25216;0.235175;93.6247;138.625;0.000429203;-0.0257592;0.00346551;-0.00575235;0.10951;0.0441355;0.070345;0;0.148161;9.05517;6.09501
587000;588;27.057;1.30106;0.0505149;-2.17748;26.9663;-0.396775;-0.13669;1.30583;-1.25869;0.036828;-0.761462;-0.298663;0.818767;-7.36169;-0.00425729;0.000809293;0.0123719;0.0124112;-0.00429659;0.00835387;0.344111;2.90604;0.0100183;0.0111385;2.88861;0.346187;57.3214;102.321;0.00996375;-0.00428745;-0.00629023;0.00779216;0.0123526;0.0168815;0.0226191;0;0.0354899;-0.0843395;-2.05986;-1.56265;2.58689;-7.74394;-0.0259191;-0.00150128;0.110854;0.110871;-0.0259356;0.0684033;0.233812;4.27694;0.0839061;0.0912043;4.27485;0.233926;92.9904;137.99;-0.00180904;-0.0259304;0.00239698;-0.00491955;0.110853;0.0511168;0.0715157;0;0.149471;9.05912;6.10229
588000;589;27.0639;1.30789;0.0507799;-2.17861;26.973;-0.401006;-0.137824;1.31252;-1.26293;0.037666;-0.763157;-0.293547;0.818534;-7.35657;-0.00425536;0.00139585;0.0120738;0.0121923;-0.00437382;0.00828306;0.352445;2.83732;0.00991317;0.0110441;2.78756;0.358737;54.5531;99.5531;0.010347;-0.00429084;-0.00584569;0.00852047;0.0120579;0.0151279;0.0224284;0;0.0409549;-0.0843489;-2.07216;-1.56295;2.59688;-7.74768;-0.0269348;-0.00126801;0.111789;0.1118;-0.0269464;0.0693733;0.240944;4.15034;0.0849523;0.0924977;4.14899;0.241023;92.0954;137.095;0.00145908;-0.0269404;0.00132268;-0.00353543;0.111789;0.0435021;0.0764572;0;0.144859;9.07118;6.10968
589000;590;;;;;;;;;;0.0373781;-0.763035;-0.296145;0.819342;-7.35917;-0.00423067;0.00123682;0.0126862;0.0127762;-0.00432061;0.0085484;0.333484;2.99864;0.0102654;0.0113979;2.95703;0.338177;56.4084;101.408;0.00983698;-0.00426405;-0.00589214;0.00824662;0.0126699;0.0164552;0.0223391;0;0.0264762;-0.0865341;-2.08255;-1.56851;2.60858;-7.75429;-0.0258826;-0.00165718;0.111945;0.111965;-0.0259025;0.0689337;0.231208;4.32511;0.0846096;0.0919117;4.32255;0.231345;93.3451;138.345;-0.00645729;-0.025897;0.0027931;-0.00555582;0.111943;0.0562818;0.0595897;0;0.157272;9.05542;6.11705
590000;591;27.0847;1.32872;0.051589;-2.1804;26.994;-0.391219;-0.139611;1.33343;-1.25314;0.0372189;-0.763506;-0.294487;0.819176;-7.35751;-0.00413968;0.00130128;0.0129737;0.0130721;-0.00423806;0.00865507;0.319083;3.13398;0.0104188;0.0115401;3.08444;0.324207;56.8278;101.828;0.010052;-0.0041734;-0.00581521;0.00829749;0.0129578;0.015006;0.021925;0;0.0502185;-0.0863969;-2.09104;-1.56947;2.61594;-7.75323;-0.026685;-0.00163608;0.113451;0.11347;-0.0267041;0.0700872;0.235211;4.2515;0.0859424;0.0934496;4.24917;0.23534;93.0337;138.034;0.00202523;-0.0266971;0.00236121;-0.00513026;0.11345;0.0470633;0.069931;0;0.156119;9.0445;6.12581
591000;592;27.0965;1.34055;0.052048;-2.1824;27.0056;-0.396916;-0.141612;1.34505;-1.25883;0.0372972;-0.76348;-0.295474;0.81951;-7.3585;-0.00418321;0.00109527;0.0123249;0.0123972;-0.00425556;0.00832639;0.339412;2.94627;0.00999018;0.0111019;2.91318;0.343267;56.2296;101.23;0.00997573;-0.004216;-0.00608144;0.00815489;0.0123072;0.0166715;0.0230165;0;0.0401218;-0.0876848;-2.10146;-1.57623;2.62837;-7.76413;-0.0269261;-0.00216315;0.115061;0.115094;-0.0269591;0.0710267;0.234015;4.27323;0.0871177;0.0947023;4.26923;0.234235;93.6575;138.657;0.00200318;-0.0269444;0.00262971;-0.00634566;0.11506;0.0390237;0.069126;0;0.139578;9.05901;6.13256
592000;593;27.0994;1.34343;0.0521598;-2.18295;27.0083;-0.407764;-0.142161;1.34773;-1.26968;0.0367853;-0.764143;-0.294623;0.819799;-7.35765;-0.00414455;0.00127648;0.0128479;0.0129433;-0.0042399;0.00859158;0.322585;3.09996;0.0103362;0.0114554;3.05273;0.327576;56.4746;101.475;0.00989412;-0.00417908;-0.00596015;0.00839163;0.0128312;0.0164838;0.0222204;0;0.0384204;-0.0888671;-2.10804;-1.57582;2.63343;-7.75802;-0.0274468;-0.00159305;0.115905;0.115922;-0.0274645;0.0716935;0.236804;4.2229;0.0878789;0.0955913;4.22082;0.236921;94.1843;139.184;-0.000478441;-0.0274703;0.0045525;-0.00694908;0.115897;0.0536721;0.060472;0;0.151708;9.05917;6.13943
593000;594;27.1099;1.35396;0.0525687;-2.1845;27.0185;-0.420478;-0.143709;1.35798;-1.2824;0.0363426;-0.763562;-0.293882;0.818972;-7.35691;-0.00396402;0.00144234;0.0129867;0.0131086;-0.00408587;0.00859721;0.305237;3.27615;0.0103728;0.011463;3.20826;0.311695;56.4274;101.427;0.00942688;-0.00399951;-0.00576775;0.00853171;0.0129713;0.0165465;0.021295;0;0.0323314;-0.0894771;-2.1175;-1.58371;2.64574;-7.77174;-0.0282975;-0.000921181;0.117406;0.117412;-0.0283033;0.0728576;0.241022;4.14899;0.0892183;0.0971435;4.14834;0.24106;91.8778;136.878;-0.000675768;-0.0283024;0.00171519;-0.00321378;0.117405;0.0397229;0.0702019;0;0.141586;9.04781;6.14688
594000;595;27.1159;1.35991;0.0527996;-2.1852;27.0242;-0.431801;-0.144408;1.36371;-1.29372;0.0367778;-0.764397;-0.292015;0.819102;-7.35504;-0.00418266;0.00147372;0.0127391;0.0128665;-0.00431005;0.00858826;0.328333;3.04569;0.0103189;0.011451;2.98523;0.334983;55.4526;100.453;0.00989938;-0.0042193;-0.00584297;0.00866808;0.0127233;0.0156437;0.0211016;0;0.0283379;-0.0902769;-2.12418;-1.58311;2.65076;-7.76817;-0.0285428;-0.000114702;0.119613;0.119613;-0.0285429;0.0740779;0.238627;4.19065;0.0907648;0.0987705;4.19064;0.238627;90.7139;135.714;0.010384;-0.0285435;0.00107704;-0.00114875;0.119612;0.0284222;0.0761452;0;0.153305;9.05213;6.15143
595000;596;;;;;;;;;;0.0363378;-0.764543;-0.291618;0.819077;-7.35464;-0.00399641;0.00155737;0.012824;0.012967;-0.00413939;0.00855319;0.311635;3.20888;0.0103054;0.0114043;3.13259;0.319225;55.4139;100.414;0.00966452;-0.0040343;-0.00583408;0.00882599;0.0128084;0.0153488;0.022014;0;0.037003;-0.0922967;-2.13114;-1.58237;2.65597;-7.76256;-0.0286679;-0.000187482;0.121661;0.121661;-0.0286682;0.0751646;0.235638;4.24379;0.0921618;0.100219;4.24377;0.23564;91.7184;136.718;0.000298182;-0.0286719;0.00281429;-0.00278694;0.121657;0.0605648;0.0766008;0;0.164993;9.05914;6.16017
596000;597;27.1412;1.38526;0.053784;-2.18491;27.0501;-0.408875;-0.144118;1.38953;-1.27079;0.0363638;-0.764117;-0.293131;0.819221;-7.35616;-0.00405909;0.00133433;0.0127968;0.0129018;-0.00416406;0.00853293;0.317195;3.15264;0.0102744;0.0113772;3.09837;0.32275;56.2861;101.286;0.0094285;-0.0040941;-0.00590901;0.00845705;0.0127805;0.0166462;0.0216003;0;0.0336405;-0.0929897;-2.14737;-1.59697;2.67771;-7.7882;-0.0293727;-0.00153539;0.121993;0.122008;-0.0293883;0.0756983;0.240774;4.15327;0.092701;0.100931;4.1516;0.240871;92.1469;137.147;0.00305139;-0.0293797;0.00130763;-0.00399485;0.121993;0.0506982;0.057921;0;0.149856;9.0521;6.16373
597000;598;27.1466;1.39059;0.0539909;-2.18705;27.055;-0.421777;-0.146266;1.39451;-1.2837;0.0364674;-0.765822;-0.287909;0.818965;-7.35093;-0.00404586;0.00141551;0.013042;0.0131585;-0.00416232;0.0086604;0.310218;3.22354;0.0104401;0.0115472;3.16133;0.316323;56.5059;101.506;0.00940794;-0.00408121;-0.00580007;0.00850931;0.0130264;0.0157283;0.0214491;0;0.0294406;-0.0934861;-2.1503;-1.59121;2.67665;-7.7728;-0.0290085;-0.00160203;0.125166;0.125183;-0.0290251;0.0771041;0.231759;4.31482;0.094626;0.102805;4.31292;0.231861;92.159;137.159;0.00479669;-0.029016;0.00135388;-0.0041529;0.125167;0.0376615;0.0717135;0;0.157718;9.04659;6.16848
598000;599;27.1533;1.39731;0.054252;-2.18918;27.0615;-0.426131;-0.148395;1.40102;-1.28805;0.0363693;-0.7662;-0.288931;0.819674;-7.35196;-0.00398718;0.00157561;0.0129817;0.0131268;-0.00413224;0.0086295;0.307138;3.25586;0.0104058;0.011506;3.17667;0.314795;55.7226;100.723;0.0098207;-0.00402477;-0.00576745;0.00879557;0.0129665;0.0154629;0.0211886;0;0.0334539;-0.0947839;-2.16253;-1.59585;2.68929;-7.78342;-0.0295721;-0.0012701;0.125771;0.125781;-0.0295824;0.0776817;0.235127;4.25302;0.0952584;0.103576;4.25188;0.23519;91.4776;136.478;0.00738734;-0.0295756;0.000638225;-0.00291509;0.125771;0.0276953;0.068461;0;0.157681;9.05565;6.17591
599000;600;27.1647;1.40877;0.0546967;-2.19037;27.0728;-0.436311;-0.149585;1.41225;-1.29823;0.0359272;-0.765769;-0.287162;0.81863;-7.35019;-0.00387705;0.00168804;0.0130629;0.0132294;-0.00404362;0.00863653;0.296799;3.36928;0.0104321;0.0115154;3.27168;0.305653;55.3698;100.37;0.00970039;-0.00391673;-0.00579932;0.00905011;0.0130477;0.0167835;0.0206066;0;0.0331562;-0.0954196;-2.17089;-1.59684;2.69662;-7.7828;-0.030226;-0.000514155;0.126049;0.126051;-0.0302277;0.0781392;0.239796;4.17021;0.0957141;0.104186;4.17003;0.239806;91.1022;136.102;0.00577807;-0.030228;0.00120718;-0.0019966;0.126048;0.0419993;0.0662634;0;0.151804;9.05159;6.18199
600000;601;27.1741;1.41816;0.0550612;-2.18772;27.0825;-0.431117;-0.146932;1.42197;-1.29304;0.036143;-0.76574;-0.285189;0.817923;-7.34821;-0.00390252;0.00176922;0.0129625;0.0131461;-0.00408612;0.00861611;0.301062;3.32157;0.0103973;0.0114881;3.21726;0.310824;54.9653;99.9653;0.0094367;-0.00394248;-0.00568171;0.00909599;0.0129481;0.0163011;0.0224034;0;0.0278127;-0.0959868;-2.18253;-1.60118;2.70858;-7.79296;-0.0309293;-5.14425e-05;0.125966;0.125966;-0.0309293;0.0784477;0.245537;4.07271;0.0959632;0.104597;4.07271;0.245537;90.9738;135.974;0.0117964;-0.0309306;0.00173282;-0.00158708;0.125965;0.0326271;0.0818237;0;0.158889;9.04118;6.18937
601000;602;;;;;;;;;;0.0355028;-0.767029;-0.285452;0.819193;-7.34848;-0.00392811;0.0017398;0.0133452;0.0135187;-0.0041016;0.00881013;0.294347;3.39735;0.0106463;0.0117468;3.29595;0.303403;55.794;100.794;0.00953652;-0.00396733;-0.00565543;0.00900887;0.0133309;0.0169009;0.0217058;0;0.0242006;-0.0974449;-2.19428;-1.60525;2.72052;-7.79576;-0.0310313;-0.00106209;0.127024;0.127031;-0.0310385;0.0790346;0.244296;4.0934;0.0967081;0.105379;4.09268;0.244338;91.6917;136.692;0.00886002;-0.031036;0.00140699;-0.00318489;0.127023;0.0314722;0.0649583;0;0.158273;9.0483;6.19641
602000;603;27.1986;1.44268;0.0560134;-2.19136;27.1068;-0.431327;-0.150574;1.44628;-1.29325;0.0355174;-0.766652;-0.285514;0.818862;-7.34854;-0.00394199;0.00165422;0.0133404;0.0134973;-0.0040989;0.00879812;0.295492;3.38419;0.0106313;0.0117308;3.29292;0.303682;56.0976;101.098;0.00962942;-0.00398032;-0.0057106;0.00889333;0.0133257;0.0153052;0.0213402;0;0.0292444;-0.0979128;-2.20346;-1.61114;2.73141;-7.80227;-0.0309354;-0.00177012;0.130836;0.130855;-0.0309548;0.0809051;0.236444;4.22933;0.0991787;0.107873;4.22731;0.236557;91.8761;136.876;0.00481226;-0.0309416;0.000694801;-0.00388241;0.130837;0.038293;0.0607942;0;0.151705;9.05385;6.20453
603000;604;27.2054;1.44939;0.0562741;-2.1933;27.1131;-0.447136;-0.152512;1.4526;-1.30906;0.0353899;-0.767476;-0.282246;0.818496;-7.34527;-0.00386859;0.00169209;0.0132588;0.0134244;-0.00403416;0.00872927;0.291775;3.4273;0.0105545;0.011639;3.32768;0.30051;56.0563;101.056;0.00996763;-0.0039065;-0.00559307;0.00885403;0.0132448;0.0149946;0.0216191;0;0.0225708;-0.0998057;-2.21102;-1.61323;2.73881;-7.80287;-0.0313004;-0.00233218;0.13096;0.130994;-0.0313339;0.0811637;0.239007;4.18397;0.0994332;0.108218;4.18057;0.239202;92.2637;137.264;0.00760065;-0.0313093;0.000503878;-0.00476133;0.130962;0.0421437;0.052489;0;0.156085;9.04446;6.2117
604000;605;27.2127;1.45674;0.0565595;-2.1951;27.1203;-0.451429;-0.154316;1.45976;-1.31335;0.0357207;-0.766734;-0.284586;0.818625;-7.34761;-0.0038396;0.00167631;0.0134768;0.0136376;-0.00400039;0.00881899;0.284905;3.50995;0.010678;0.0117586;3.40907;0.293335;56.5331;101.533;0.00998167;-0.00387728;-0.00559609;0.00882436;0.0134627;0.0147508;0.0213682;0;0.033157;-0.101571;-2.21986;-1.61534;2.74726;-7.80533;-0.0315627;-0.0020066;0.131292;0.131317;-0.0315874;0.0814522;0.2404;4.15973;0.0997549;0.108603;4.15725;0.240543;91.9681;136.968;0.00116923;-0.0315695;0.000480803;-0.00413592;0.131294;0.0361136;0.0736975;0;0.15152;9.03627;6.21953
605000;606;27.22;1.46399;0.0568408;-2.19579;27.1273;-0.46006;-0.155002;1.46683;-1.32198;0.0354064;-0.766883;-0.282983;0.818195;-7.34601;-0.00384481;0.0015784;0.0134709;0.0136136;-0.00398752;0.00880056;0.285416;3.50365;0.0106566;0.0117341;3.41406;0.292907;56.8534;101.853;0.00969669;-0.00388168;-0.00568132;0.00871401;0.0134562;0.0150546;0.021736;0;0.0272499;-0.102056;-2.22483;-1.61449;2.75079;-7.79845;-0.0315372;-0.000655901;0.133057;0.133059;-0.0315398;0.0822996;0.23702;4.21905;0.100877;0.109733;4.21878;0.237035;91.6674;136.667;0.00798643;-0.031542;0.00223584;-0.00312757;0.133055;0.0498353;0.0718821;0;0.163271;9.04081;6.22662
606000;607;27.2261;1.47009;0.0570778;-2.19689;27.1333;-0.46652;-0.156103;1.47276;-1.32844;0.0355049;-0.765483;-0.284762;0.817505;-7.34779;-0.00389873;0.00162737;0.0138201;0.0139683;-0.00404696;0.00900762;0.282107;3.54476;0.0109142;0.0120102;3.45155;0.289725;57.0947;102.095;0.00989983;-0.00393653;-0.00570189;0.00882846;0.0138053;0.015029;0.0205198;0;0.0329861;-0.102089;-2.23547;-1.61981;2.76253;-7.80669;-0.0322081;6.30229e-05;0.136782;0.136782;-0.0322082;0.084495;0.235471;4.2468;0.103606;0.11266;4.2468;0.235471;90.451;135.451;0.0135097;-0.0322085;0.00104326;-0.000771499;0.136781;0.0308718;0.0805864;0;0.166383;9.04063;6.23401
607000;608;;;;;;;;;;0.0352542;-0.76677;-0.282324;0.817855;-7.34535;-0.00387342;0.00170655;0.0136757;0.0138401;-0.00403783;0.00893895;0.283234;3.53064;0.0108266;0.0119186;3.4276;0.291749;56.6087;101.609;0.00986674;-0.00391191;-0.00563659;0.00892247;0.0136614;0.0152797;0.020787;0;0.0269878;-0.103617;-2.24949;-1.62516;2.77707;-7.81593;-0.0332502;-0.00118532;0.136488;0.136496;-0.0332585;0.0848773;0.243613;4.10488;0.103874;0.11317;4.1041;0.243659;92.3678;137.368;0.00785126;-0.0332605;0.00285103;-0.00461882;0.136485;0.0443762;0.065902;0;0.171266;9.03113;6.23827
608000;609;27.2545;1.49854;0.0581821;-2.19674;27.1621;-0.452543;-0.155954;1.50154;-1.31446;0.0351299;-0.767187;-0.280057;0.817461;-7.34308;-0.00387899;0.00167198;0.0138872;0.0140432;-0.00403497;0.00903907;0.279321;3.5801;0.0109576;0.0120521;3.48036;0.287326;57.0788;102.079;0.0100605;-0.00391714;-0.00566149;0.00887686;0.0138728;0.0139706;0.0206561;0;0.0377995;-0.10424;-2.25876;-1.62496;2.78448;-7.81671;-0.0330948;-0.00115882;0.141084;0.141091;-0.0331025;0.0870969;0.234576;4.26302;0.106819;0.116129;4.26226;0.234618;91.6369;136.637;0.0103565;-0.0331002;0.00154367;-0.00344878;0.141083;0.0292251;0.0721848;0;0.166693;9.03264;6.24195
609000;610;27.2613;1.50528;0.058444;-2.20001;27.1683;-0.468326;-0.159221;1.50778;-1.33025;0.0355407;-0.767702;-0.276978;0.816912;-7.34;-0.00393594;0.00163392;0.0139889;0.0141366;-0.00408366;0.00911015;0.281361;3.55415;0.0110403;0.0121469;3.46176;0.288871;57.6065;102.607;0.00985359;-0.00397239;-0.00553519;0.00867621;0.0139751;0.0146953;0.0207603;0;0.023765;-0.105167;-2.27007;-1.62911;2.79612;-7.82345;-0.0331042;-0.00226659;0.139332;0.139362;-0.033134;0.0862481;0.237591;4.20891;0.105698;0.114997;4.20602;0.237754;92.121;137.121;0.00385604;-0.0331131;0.000625513;-0.00472097;0.139335;0.0410574;0.0603724;0;0.157952;9.0333;6.24857
610000;611;;;;;;;;;;0.035134;-0.768367;-0.27786;0.817819;-7.34089;-0.00373937;0.00196209;0.013555;0.0137748;-0.00395918;0.00886699;0.275867;3.62494;0.0107488;0.0118227;3.4792;0.287422;55.8479;100.848;0.00976809;-0.00377918;-0.00531915;0.009119;0.0135429;0.0146019;0.0217161;0;0.0249549;-0.107428;-2.27579;-1.63328;2.80328;-7.82293;-0.0337883;-0.00275315;0.139332;0.139376;-0.033832;0.0866041;0.242501;4.12369;0.10601;0.115472;4.11965;0.242739;92.0574;137.057;0.0100967;-0.0337963;-0.000345389;-0.00479505;0.139336;0.0287345;0.0652045;0;0.161148;9.02523;6.25513
611000;612;27.2761;1.5201;0.0590193;-2.2025;27.1828;-0.480325;-0.161714;1.52224;-1.34224;0.034649;-0.769012;-0.275012;0.817442;-7.33804;-0.00384108;0.00184166;0.0140963;0.0142835;-0.00402822;0.00915585;0.272488;3.66989;0.0111112;0.0122078;3.54585;0.282019;57.1238;102.124;0.00989932;-0.00387955;-0.00539024;0.00894555;0.0140837;0.0144037;0.0203746;0;0.0247644;-0.107984;-2.28324;-1.63411;2.80983;-7.8203;-0.0344676;-0.00237519;0.141801;0.141833;-0.0344996;0.0881665;0.243069;4.11406;0.10791;0.117555;4.11117;0.24324;91.9488;136.949;0.00792261;-0.0344751;0.000143814;-0.00450531;0.141804;0.0422804;0.0745728;0;0.174627;9.02359;6.26255
612000;613;27.2767;1.52074;0.0590442;-2.20375;27.183;-0.494461;-0.162962;1.52252;-1.35638;0.0351976;-0.769818;-0.274271;0.817975;-7.3373;-0.00385609;0.00163496;0.0139319;0.014081;-0.00400511;0.00904304;0.27678;3.61297;0.0109689;0.0120574;3.51575;0.284434;57.7114;102.711;0.00987276;-0.00389202;-0.005472;0.00861716;0.0139185;0.0149746;0.0212617;0;0.0287218;-0.109119;-2.28975;-1.6319;2.81389;-7.81441;-0.0343323;-0.0003328;0.146868;0.146869;-0.0343329;0.0906009;0.233762;4.27785;0.111139;0.120801;4.27779;0.233766;90.715;135.715;0.00840563;-0.0343334;0.00104098;-0.00148953;0.146868;0.0545856;0.0779644;0;0.176344;9.02692;6.26965
613000;614;;;;;;;;;;0.0357171;-0.771462;-0.270207;0.818194;-7.33323;-0.00397091;0.00189828;0.0143437;0.0145384;-0.00416559;0.00935198;0.27684;3.6122;0.0113388;0.0124693;3.49011;0.286524;57.473;102.473;0.00982228;-0.00400861;-0.00520404;0.00887226;0.0143321;0.0144581;0.0205154;0;0.0242604;-0.10885;-2.30902;-1.63641;2.83218;-7.82728;-0.0356008;-0.00265631;0.146309;0.146348;-0.0356396;0.0909938;0.243325;4.10972;0.111363;0.121325;4.10634;0.243526;92.4324;137.432;0.0141817;-0.0356136;0.000882618;-0.00563361;0.146312;0.037259;0.0822115;0;0.176469;9.02302;6.2771
614000;615;;;;;;;;;;0.0356649;-0.769753;-0.271991;0.817172;-7.33502;-0.0038472;0.00183979;0.0139204;0.0141089;-0.00403571;0.0090723;0.276372;3.61832;0.0110008;0.0120964;3.49602;0.28604;56.9887;101.989;0.0096292;-0.00388492;-0.00530793;0.00886217;0.0139082;0.015028;0.0211827;0;0.0379157;-0.110895;-2.31548;-1.64258;2.84109;-7.83461;-0.0352527;-0.00139878;0.147498;0.147508;-0.0352634;0.0913859;0.239006;4.184;0.11196;0.121848;4.18304;0.239061;91.4114;136.411;0.00660081;-0.0352572;0.00078923;-0.00323833;0.147498;0.0215715;0.107041;0;0.172233;9.01396;6.28435
615000;616;;;;;;;;;;0.0352561;-0.771525;-0.269812;0.818103;-7.33284;-0.003997;0.00183111;0.0145251;0.0147044;-0.00417629;0.00944034;0.275179;3.634;0.0114517;0.0125871;3.52092;0.284016;57.921;102.921;0.00980988;-0.00403432;-0.0052823;0.00881457;0.014513;0.0145224;0.0206742;0;0.0327651;-0.111054;-2.32794;-1.64543;2.85291;-7.84145;-0.0345577;-0.00132978;0.148824;0.148834;-0.0345673;0.0917005;0.232205;4.30654;0.112529;0.122267;4.30561;0.232255;92.0386;137.039;0.00522217;-0.0345671;0.00239329;-0.00445854;0.148822;0.0217243;0.0961703;0;0.154051;9.01175;6.29215
616000;617;;;;;;;;;;0.0350777;-0.77086;-0.270109;0.817567;-7.33313;-0.00387445;0.00175213;0.0145513;0.0147165;-0.00403958;0.00937803;0.26626;3.75572;0.0113987;0.012504;3.64307;0.274494;58.4345;103.434;0.00987801;-0.00391072;-0.00530333;0.00867937;0.014539;0.0147468;0.020027;0;0.0274829;-0.113098;-2.33633;-1.65071;2.86288;-7.84503;-0.0358542;-0.00131713;0.150979;0.150988;-0.0358635;0.0934259;0.237478;4.21091;0.114501;0.124568;4.21008;0.237525;91.3325;136.332;0.0148386;-0.0358584;0.000831161;-0.0031167;0.15098;0.0296033;0.0786475;0;0.17241;9.01163;6.29873
617000;618;27.3336;1.57762;0.0612527;-2.20904;27.2394;-0.509508;-0.168253;1.5789;-1.37143;0.0352854;-0.771288;-0.268181;0.817344;-7.33121;-0.00374823;0.0019183;0.0145657;0.0147645;-0.00394701;0.00935576;0.257332;3.88603;0.011389;0.0124743;3.74068;0.267331;58.2275;103.227;0.00963229;-0.00378503;-0.00506391;0.00877438;0.0145549;0.0145685;0.0211607;0;0.0262898;-0.113468;-2.3513;-1.65465;2.87739;-7.85136;-0.0366316;-0.00207695;0.152565;0.152588;-0.0366544;0.0946213;0.240105;4.16485;0.115892;0.126162;4.16288;0.240218;91.6272;136.627;0.00764019;-0.0366378;0.000252206;-0.00402375;0.152567;0.0214678;0.0784169;0;0.181072;9.00413;6.30597
618000;619;27.3427;1.58672;0.0616059;-2.21016;27.2483;-0.516677;-0.169372;1.5878;-1.3786;0.035332;-0.771255;-0.26748;0.817085;-7.33051;-0.00393461;0.00183814;0.0144588;0.0146407;-0.0041165;0.0093786;0.272126;3.67477;0.0113835;0.0125048;3.55658;0.281169;58.1516;103.152;0.0104307;-0.00397067;-0.0051232;0.00867319;0.0144475;0.0133675;0.0197593;0;0.0261369;-0.11424;-2.36308;-1.65643;2.88807;-7.85449;-0.0373441;-0.00410369;0.152312;0.152401;-0.0374329;0.0949169;0.245181;4.07861;0.116107;0.126556;4.07131;0.245621;93.988;138.988;0.000466809;-0.0373816;0.00227407;-0.00943164;0.152317;0.0465807;0.0484397;0;0.177303;8.99262;6.31222
619000;620;;;;;;;;;;0.034831;-0.770295;-0.267783;0.816257;-7.33081;-0.00399133;0.00183859;0.0145688;0.0147492;-0.00417171;0.00946043;0.273965;3.6501;0.0114789;0.0126139;3.53551;0.282844;58.3063;103.306;0.0100033;-0.00402724;-0.0051048;0.00865488;0.0145576;0.0135546;0.0201712;0;0.0295451;-0.11647;-2.3617;-1.65809;2.88798;-7.84595;-0.037081;-0.00335739;0.155464;0.155522;-0.0371396;0.096331;0.238519;4.19254;0.118026;0.128441;4.18751;0.238805;92.8233;137.823;0.0130911;-0.0371006;0.00100521;-0.00699297;0.155468;0.0270475;0.0700441;0;0.184531;8.99361;6.31516
620000;621;;;;;;;;;;0.035268;-0.769652;-0.266997;0.815411;-7.33002;-0.00395215;0.00180099;0.0142615;0.0144378;-0.00412853;0.00928318;0.277121;3.60853;0.0112567;0.0123776;3.49709;0.285952;57.8831;102.883;0.0098699;-0.00398815;-0.00518091;0.00865743;0.0142498;0.0142274;0.0211744;0;0.0268362;-0.115816;-2.37823;-1.66547;2.90572;-7.86139;-0.0364191;-0.00407358;0.153434;0.153521;-0.0365064;0.0950139;0.23736;4.21301;0.11644;0.126685;4.20533;0.237794;93.4326;138.433;0.00332685;-0.0364472;0.00112942;-0.0084201;0.153441;0.0318104;0.084877;0;0.176742;8.98929;6.32319
621000;622;;;;;;;;;;0.0351924;-0.773371;-0.260786;0.816915;-7.32381;-0.00384669;0.00194791;0.0143527;0.0145588;-0.00405284;0.00930584;0.268012;3.73118;0.0113017;0.0124078;3.59225;0.278377;57.8972;102.897;0.00985331;-0.00388282;-0.00493242;0.00870471;0.0143426;0.01423;0.019855;0;0.0213687;-0.117384;-2.38917;-1.66386;2.91381;-7.85983;-0.0377651;-0.00251673;0.157826;0.157858;-0.0377975;0.0978277;0.239284;4.17913;0.119841;0.130437;4.17641;0.23944;92.3502;137.35;0.00814839;-0.0377792;0.00140148;-0.00577302;0.157827;0.0454938;0.0764874;0;0.175489;8.98388;6.3286
622000;623;27.3858;1.62978;0.0632779;-2.21391;27.291;-0.528781;-0.173117;1.63048;-1.3907;0.0360649;-0.770455;-0.265107;0.815588;-7.32813;-0.00388996;0.00183651;0.0144588;0.0146408;-0.00407197;0.0093564;0.269037;3.71696;0.0113637;0.0124752;3.59551;0.278124;58.1535;103.153;0.0100642;-0.00392622;-0.00514921;0.00869579;0.0144474;0.0135876;0.020057;0;0.0261988;-0.11757;-2.39376;-1.66807;2.91999;-7.86146;-0.0374752;-0.00119308;0.163889;0.163896;-0.0374823;0.100689;0.228662;4.37327;0.123666;0.134252;4.37263;0.228695;91.573;136.573;0.0167732;-0.037482;0.00197674;-0.00381448;0.163888;0.0413347;0.068231;0;0.188229;8.97822;6.33612
623000;624;27.3945;1.63858;0.0636194;-2.21595;27.2996;-0.531903;-0.175166;1.63908;-1.39382;0.0355618;-0.770876;-0.262819;0.815223;-7.32584;-0.00395912;0.00201224;0.014505;0.0147217;-0.00417587;0.00944881;0.272949;3.66369;0.0114629;0.0125984;3.52543;0.283653;57.8544;102.854;0.0102726;-0.00399563;-0.00486339;0.00876264;0.0144953;0.0133061;0.0193752;0;0.026744;-0.11953;-2.40696;-1.66866;2.93124;-7.86329;-0.0384658;-0.00234724;0.163886;0.163913;-0.038493;0.101203;0.234711;4.26057;0.124112;0.134937;4.25826;0.234838;92.4525;137.452;0.0146399;-0.0384824;0.00221458;-0.00611592;0.163886;0.0438231;0.096208;0;0.181278;8.97152;6.34373
624000;625;;;;;;;;;;0.0354711;-0.770985;-0.262783;0.81531;-7.32581;-0.00390103;0.00177745;0.0145826;0.014752;-0.00407041;0.00941119;0.267513;3.73814;0.0114355;0.0125483;3.6242;0.275923;58.5697;103.57;0.0100581;-0.00393666;-0.0051822;0.00861023;0.0145709;0.0136594;0.0201934;0;0.0246458;-0.120886;-2.42172;-1.67557;2.94735;-7.8762;-0.0384001;-0.00451043;0.162233;0.162335;-0.0385014;0.100418;0.236696;4.22482;0.123081;0.133891;4.21633;0.237173;93.5572;138.557;0.00606118;-0.0384339;0.00120491;-0.00923905;0.162242;0.0195723;0.089477;0;0.180242;8.9648;6.35163
625000;626;;;;;;;;;;0.0354377;-0.770406;-0.261342;0.814298;-7.32437;-0.0038939;0.00196991;0.0147054;0.0149118;-0.00410025;0.00950601;0.264794;3.77652;0.0115531;0.0126747;3.63679;0.274968;58.3941;103.394;0.00988885;-0.00393002;-0.00489399;0.0087079;0.0146955;0.0135453;0.0193992;0;0.0248688;-0.120312;-2.43658;-1.68263;2.96355;-7.88797;-0.0371316;-0.00422216;0.162265;0.162354;-0.037221;0.0997876;0.228833;4.36999;0.122542;0.13305;4.3619;0.229258;93.8585;138.859;0.0202755;-0.0371723;0.00251547;-0.00980376;0.16227;0.0174907;0.0666947;0;0.200168;8.9614;6.35856
626000;627;;;;;;;;;;0.0351466;-0.770812;-0.260225;0.814312;-7.32325;-0.00400274;0.00203251;0.0145498;0.0147699;-0.0042228;0.00949635;0.275106;3.63497;0.0115152;0.0126618;3.49765;0.285906;57.6656;102.666;0.0100359;-0.00404009;-0.00492338;0.0088611;0.0145399;0.0130173;0.0201284;0;0.0183303;-0.121264;-2.44139;-1.68512;2.96896;-7.88572;-0.0389011;-0.00369407;0.16612;0.166186;-0.0389677;0.102577;0.234175;4.2703;0.125808;0.136769;4.26472;0.234482;92.8985;137.899;0.0221767;-0.0389248;0.00114658;-0.0076836;0.166125;0.0140499;0.0559373;0;0.187456;8.95495;6.36591
627000;628;;;;;;;;;;0.0355371;-0.772588;-0.253488;0.813886;-7.31651;-0.00399132;0.00207468;0.0147528;0.0149797;-0.00421821;0.00959896;0.270546;3.69623;0.0116499;0.0127986;3.5512;0.281595;58.1018;103.102;0.0105063;-0.004028;-0.00477306;0.00879584;0.0147437;0.0114642;0.019558;0;0.0185108;-0.121571;-2.45765;-1.68537;2.9825;-7.89012;-0.0386294;-0.00330216;0.168541;0.168593;-0.038682;0.103638;0.229199;4.36301;0.127264;0.138184;4.35844;0.22944;93.1051;138.105;0.00597373;-0.0386578;0.00251858;-0.00809087;0.168543;0.0262091;0.0715546;0;0.200462;8.94906;6.37243
628000;629;;;;;;;;;;0.035576;-0.771977;-0.253159;0.813206;-7.31618;-0.00386553;0.00213976;0.0145122;0.014758;-0.00411138;0.00943471;0.266365;3.75425;0.0114577;0.0125796;3.58955;0.278586;57.3802;102.38;0.0103972;-0.0039038;-0.00483626;0.00898931;0.0145029;0.0126909;0.0194821;0;0.0208504;-0.125052;-2.46577;-1.68447;2.98883;-7.8879;-0.0394159;-0.003747;0.170421;0.170488;-0.0394828;0.104985;0.231286;4.32366;0.128852;0.13998;4.31803;0.231587;92.7739;137.774;0.0103986;-0.0394386;0.00094584;-0.00759843;0.170427;0.00336817;0.0677644;0;0.188208;8.94027;6.37995
629000;630;;;;;;;;;;0.0352632;-0.770811;-0.254942;0.812643;-7.31797;-0.00388514;0.00205036;0.0148061;0.0150284;-0.00410741;0.00956791;0.262401;3.81096;0.0116324;0.0127572;3.65885;0.27331;58.2151;103.215;0.00995465;-0.00392229;-0.00487;0.00884316;0.0147965;0.0132233;0.0196149;0;0.0197531;-0.125566;-2.47126;-1.68965;2.9963;-7.88729;-0.0412979;-0.004637;0.17063;0.170731;-0.0413993;0.106065;0.242033;4.13167;0.129839;0.14142;4.124;0.242483;93.6184;138.618;0.00100907;-0.0413365;0.00162962;-0.00976901;0.170638;0.0298842;0.0960094;0;0.189971;8.93501;6.38465
630000;631;;;;;;;;;;0.0362563;-0.770696;-0.2546;0.812471;-7.31763;-0.00404045;0.00211443;0.0147851;0.0150197;-0.00427501;0.00964735;0.273278;3.65928;0.0117014;0.0128631;3.51337;0.284627;57.704;102.704;0.0100059;-0.00407866;-0.00487718;0.00897624;0.0147756;0.0133511;0.0190139;0;0.0187151;-0.123783;-2.48452;-1.69337;3.00927;-7.89386;-0.0400457;-0.00404404;0.173426;0.173503;-0.0401223;0.106813;0.230909;4.3307;0.131105;0.142417;4.32435;0.231249;93.1706;138.171;0.00734607;-0.0400768;0.00166449;-0.00871398;0.173432;0.031147;0.100197;0;0.187285;8.92743;6.39248
631000;632;;;;;;;;;;0.0354644;-0.77082;-0.25328;0.81214;-7.3163;-0.00394402;0.00229733;0.0145038;0.0147856;-0.00422581;0.00950572;0.271929;3.67743;0.0115268;0.0126743;3.49889;0.285805;56.9824;101.982;0.0101753;-0.00398267;-0.00460102;0.00907014;0.014496;0.0133511;0.0200725;0;0.0228036;-0.125782;-2.49263;-1.69684;3.018;-7.89931;-0.040636;-0.00135694;0.179686;0.179694;-0.0406444;0.110169;0.22615;4.42184;0.135393;0.146892;4.42113;0.226186;91.5543;136.554;0.0132848;-0.0406441;0.00208483;-0.00415591;0.179685;0.0293084;0.0492168;0;0.201381;8.92075;6.39478
632000;633;;;;;;;;;;0.0358909;-0.769755;-0.253746;0.811294;-7.31677;-0.00398264;0.00208905;0.0147961;0.0150256;-0.00421223;0.00961893;0.269169;3.71514;0.0116772;0.0128252;3.56715;0.280336;57.6276;102.628;0.0104829;-0.00402168;-0.00501682;0.00906332;0.0147858;0.0134742;0.0194073;0;0.0167699;-0.126547;-2.50426;-1.70137;3.03018;-7.9021;-0.0410673;-0.00375736;0.180686;0.18075;-0.0411309;0.110941;0.227285;4.39976;0.136295;0.147921;4.3945;0.227557;93.0726;138.073;0.01247;-0.0410992;0.00230287;-0.00867928;0.18069;0.0292328;0.0607981;0;0.211268;8.91624;6.40153
633000;634;;;;;;;;;;0.0357145;-0.770231;-0.252642;0.811394;-7.31567;-0.00396172;0.00214295;0.0145818;0.0148263;-0.00420615;0.00951621;0.271689;3.68068;0.0115445;0.0126883;3.5249;0.283696;57.0725;102.073;0.0104592;-0.00400148;-0.00499856;0.00915383;0.0145718;0.0138575;0.0192136;0;0.0191848;-0.124797;-2.52631;-1.71139;3.05396;-7.92236;-0.0405844;-0.004167;0.177666;0.177746;-0.0406639;0.109205;0.22843;4.3777;0.134123;0.145606;4.37109;0.228776;94.0268;139.027;0.0117594;-0.0406375;0.00413018;-0.0109263;0.177666;0.0101617;0.0634038;0;0.201479;8.91156;6.40941
634000;635;;;;;;;;;;0.0359831;-0.769558;-0.25202;0.810573;-7.31504;-0.00398932;0.00231521;0.0149395;0.0152186;-0.00426838;0.0097435;0.267031;3.74488;0.0118281;0.0129913;3.56543;0.280471;57.2745;102.274;0.0106616;-0.0040296;-0.00475358;0.00925206;0.0149311;0.0127525;0.0197299;0;0.0222396;-0.128895;-2.53011;-1.70712;3.05489;-7.91235;-0.0425999;-0.00493601;0.178809;0.178919;-0.0427099;0.110814;0.238243;4.19739;0.135774;0.147752;4.18916;0.238711;94.5216;139.522;0.00215195;-0.0426669;0.00420133;-0.0123569;0.178811;0.0328454;0.0794543;0;0.188344;8.9005;6.41598
635000;636;;;;;;;;;;0.0359375;-0.77;-0.248845;0.81001;-7.31187;-0.00398882;0.00233089;0.0148266;0.015111;-0.00427327;0.00969215;0.269032;3.71704;0.0117602;0.0129229;3.53617;0.282792;56.9771;101.977;0.0104772;-0.00402953;-0.00477287;0.00930284;0.014818;0.0123051;0.0190394;0;0.021815;-0.127949;-2.54462;-1.71159;3.06936;-7.91997;-0.0409374;-0.00552289;0.179862;0.18;-0.0410755;0.110538;0.227604;4.39359;0.135779;0.147384;4.38218;0.228197;94.8623;139.862;0.00284794;-0.0410171;0.00434299;-0.0135421;0.179867;0.0441318;0.0791834;0;0.184095;8.88403;6.42311
636000;637;;;;;;;;;;0.0351921;-0.769832;-0.247842;0.809509;-7.31087;-0.00385666;0.00226209;0.0148203;0.0150904;-0.00412673;0.00960856;0.260228;3.84279;0.0116814;0.0128114;3.65674;0.273467;57.1719;102.172;0.0106579;-0.00389744;-0.00490093;0.00929318;0.014811;0.0124231;0.0190645;0;0.0231518;-0.130295;-2.5595;-1.71934;3.08613;-7.93344;-0.041734;-0.00452554;0.182839;0.182931;-0.0418252;0.112378;0.228255;4.38107;0.138024;0.149837;4.3737;0.228639;93.6525;138.652;0.0155671;-0.0417802;0.00277323;-0.0104384;0.182845;0.0246694;0.0606727;0;0.200997;8.88359;6.43045
637000;638;;;;;;;;;;0.0352528;-0.770394;-0.245716;0.809398;-7.30874;-0.00404382;0.00246523;0.0150338;0.0153472;-0.00435723;0.00985221;0.268982;3.71772;0.0119516;0.0131363;3.52224;0.28391;56.7349;101.735;0.0103632;-0.00408619;-0.00471658;0.00951193;0.0150258;0.0129262;0.0181189;0;0.020051;-0.132214;-2.56872;-1.71572;3.09184;-7.9257;-0.0426622;-0.00545589;0.182549;0.182681;-0.0427943;0.112737;0.233703;4.27894;0.138277;0.150317;4.26881;0.234257;94.6599;139.66;0.0131824;-0.0427368;0.00403964;-0.0131427;0.182554;0.0382363;0.0841796;0;0.205724;8.88061;6.43817
638000;639;;;;;;;;;;0.0358939;-0.768902;-0.244953;0.807775;-7.30798;-0.00394964;0.00241382;0.0146303;0.0149388;-0.00425811;0.00959845;0.269963;3.70422;0.0116411;0.0127979;3.50832;0.285037;56.3882;101.388;0.0102323;-0.00399124;-0.00472122;0.00941808;0.0146222;0.0130824;0.0199839;0;0.0277392;-0.133364;-2.58069;-1.7243;3.1066;-7.93679;-0.0428249;-0.00494621;0.18559;0.185697;-0.0429319;0.114315;0.23075;4.3337;0.140315;0.152419;4.32539;0.231193;94.1336;139.134;0.0113098;-0.0428857;0.00363464;-0.0118736;0.185595;0.0191953;0.0614832;0;0.211516;8.87506;6.4456
639000;640;;;;;;;;;;0.0360463;-0.768822;-0.246486;0.808172;-7.30951;-0.00408623;0.0022386;0.0146418;0.0149057;-0.00435009;0.0096279;0.279079;3.58322;0.0116608;0.0128372;3.42652;0.291841;56.8572;101.857;0.010156;-0.00412626;-0.00485967;0.00920576;0.0146327;0.0134461;0.0186943;0;0.0160656;-0.134492;-2.59625;-1.73256;3.12416;-7.95268;-0.0422817;-0.00639906;0.187619;0.187797;-0.0424597;0.115128;0.225359;4.43737;0.141491;0.153505;4.42296;0.226093;94.8018;139.802;-0.00382386;-0.042366;0.00331256;-0.0142303;0.187632;0.0436351;0.0754334;0;0.196205;8.8659;6.45319
640000;641;;;;;;;;;;0.0367164;-0.769127;-0.242046;0.80715;-7.30507;-0.00407403;0.00220162;0.0147868;0.0150404;-0.00432762;0.00968401;0.275518;3.62953;0.0117385;0.012912;3.47545;0.287733;57.0634;102.063;0.00973448;-0.00411451;-0.0049754;0.00924513;0.014777;0.0146399;0.0184272;0;0.0163518;-0.135767;-2.60271;-1.72826;3.1272;-7.93801;-0.0425699;-0.00616994;0.188855;0.189019;-0.0427342;0.115877;0.22541;4.43635;0.142411;0.154502;4.42314;0.226084;93.8156;138.816;0.0158575;-0.0426224;0.000796049;-0.0117797;0.188871;0.0100261;0.0717653;0;0.219121;8.8523;6.46026
641000;642;;;;;;;;;;0.0367505;-0.765977;-0.248444;0.806099;-7.31147;-0.00405442;0.00211528;0.0147803;0.015015;-0.00428906;0.00965202;0.274312;3.64548;0.0117046;0.0128694;3.50076;0.285652;57.4314;102.431;0.00996184;-0.00409377;-0.00500406;0.00910238;0.0147702;0.0142739;0.0186588;0;0.0203828;-0.135838;-2.61246;-1.73839;3.14093;-7.94974;-0.0436938;-0.00520144;0.191587;0.191702;-0.0438088;0.117755;0.228063;4.38476;0.144633;0.157007;4.37588;0.228525;93.8863;138.886;0.0203088;-0.0437511;0.00288374;-0.01169;0.191595;0.0249491;0.0548049;0;0.22152;8.81867;6.46113
642000;643;;;;;;;;;;0.0356368;-0.76647;-0.246646;0.805966;-7.30967;-0.00385152;0.00241554;0.0148113;0.0151189;-0.0041591;0.00963899;0.260039;3.84558;0.0117144;0.012852;3.63514;0.275093;56.8743;101.874;0.00987446;-0.00389264;-0.00466709;0.0093678;0.0148035;0.0142621;0.0188032;0;0.0230084;-0.136984;-2.62726;-1.73763;3.15287;-7.95241;-0.042934;-0.00438168;0.19163;0.191712;-0.0430158;0.117364;0.224046;4.46336;0.1443;0.156485;4.45677;0.224378;94.2276;139.228;-0.00971874;-0.0430025;0.00542827;-0.0122603;0.191625;0.0268438;0.055457;0;0.210491;8.81869;6.46831
643000;644;;;;;;;;;;0.0369983;-0.770059;-0.236303;0.80635;-7.29933;-0.00405163;0.00205215;0.0146266;0.0148494;-0.00427444;0.00956193;0.277004;3.61006;0.0115902;0.0127492;3.47401;0.287852;57.3736;102.374;0.00949123;-0.00409052;-0.00506408;0.00903729;0.014616;0.0151495;0.0194816;0;0.0174775;-0.135394;-2.63452;-1.7341;3.15692;-7.94642;-0.0437535;-0.00509299;0.192682;0.192791;-0.0438632;0.118327;0.227077;4.4038;0.145371;0.15777;4.39529;0.227516;94.7561;139.756;-0.000109578;-0.043841;0.00588962;-0.013898;0.192678;0.0436171;0.0759215;0;0.213483;8.82252;6.47543
644000;645;;;;;;;;;;0.0367571;-0.769544;-0.234522;0.805326;-7.29755;-0.00401975;0.00267186;0.0152688;0.0156321;-0.00438302;0.0100075;0.263266;3.79845;0.0121489;0.0133434;3.56651;0.280386;56.566;101.566;0.00999136;-0.00406356;-0.00450895;0.00971612;0.0152623;0.0133315;0.0174177;0;0.0186289;-0.137541;-2.64561;-1.73901;3.16896;-7.95132;-0.0443747;-0.00492796;0.195436;0.195538;-0.0444759;0.120007;0.227054;4.40423;0.147437;0.160009;4.39648;0.227455;94.2612;139.261;-0.00907185;-0.0444468;0.00483593;-0.0127329;0.195437;0.035936;0.0671764;0;0.215611;8.82392;6.48221
645000;646;;;;;;;;;;0.0367332;-0.770552;-0.22908;0.804722;-7.29211;-0.0041404;0.00256788;0.0145333;0.0148799;-0.00448708;0.00968351;0.284891;3.51011;0.0117059;0.0129113;3.31618;0.301552;55.7273;100.727;0.00957138;-0.00418249;-0.00450396;0.00950942;0.0145265;0.0145481;0.0186047;0;0.0236962;-0.138063;-2.67415;-1.74213;3.19456;-7.96372;-0.0440804;-0.00512193;0.196958;0.197067;-0.0441892;0.120628;0.223806;4.46815;0.148318;0.160837;4.45961;0.224235;94.2006;139.201;0.00227324;-0.0441519;0.00444638;-0.0127631;0.196961;0.0354351;0.0559717;0;0.226668;8.80385;6.48974
646000;647;;;;;;;;;;0.0361656;-0.766845;-0.234382;0.80268;-7.29741;-0.00393085;0.00243308;0.0149698;0.015278;-0.00423904;0.0097585;0.262586;3.80828;0.0118537;0.0130113;3.60411;0.277461;56.9381;101.938;0.00980173;-0.00397244;-0.00468851;0.00942194;0.0149619;0.0135974;0.01855;0;0.0306247;-0.141035;-2.68206;-1.74246;3.20148;-7.95747;-0.0445447;-0.00418321;0.199559;0.199631;-0.0446163;0.122123;0.223216;4.47997;0.150185;0.162831;4.47438;0.223494;94.0812;139.081;-0.00179145;-0.0446138;0.00592089;-0.0122309;0.199552;0.0345192;0.0572609;0;0.218844;8.77725;6.49747
647000;648;;;;;;;;;;0.0366074;-0.765764;-0.231623;0.800864;-7.29465;-0.00403011;0.00252103;0.0156227;0.0159409;-0.00434835;0.0101446;0.257966;3.87649;0.0123349;0.0135262;3.66597;0.272779;57.6078;102.608;0.0098539;-0.00407249;-0.00462409;0.00952777;0.0156153;0.013508;0.0180568;0;0.0296161;-0.142853;-2.68803;-1.7475;3.20931;-7.96052;-0.0450897;-0.00598245;0.200607;0.200753;-0.0452353;0.122994;0.224766;4.44906;0.151186;0.163992;4.43796;0.225329;95.0076;140.008;0.00694377;-0.0451952;0.00586426;-0.0154043;0.200608;0.0452038;0.0607823;0;0.214244;8.71417;6.504
648000;649;;;;;;;;;;0.0357197;-0.765817;-0.230671;0.800601;-7.2937;-0.00398708;0.0023615;0.0154786;0.015761;-0.00426947;0.0100153;0.257586;3.8822;0.0121825;0.0133537;3.69157;0.270888;57.9646;102.965;0.010011;-0.00402785;-0.00472964;0.0093166;0.0154704;0.0138299;0.0190423;0;0.0213819;-0.140175;-2.70331;-1.75144;3.22414;-7.97272;-0.0442937;-0.00440668;0.201849;0.201927;-0.0443726;0.12315;0.21944;4.55705;0.15159;0.1642;4.55073;0.219745;94.8983;139.898;-0.00392971;-0.0443959;0.00848125;-0.0146547;0.201827;0.0462626;0.0417388;0;0.217286;8.71141;6.50763
649000;650;;;;;;;;;;0.0367002;-0.765453;-0.234338;0.801361;-7.29736;-0.00402349;0.00238219;0.0151867;0.0154777;-0.00431449;0.00989609;0.264935;3.7745;0.0120176;0.0131948;3.58737;0.278756;57.4165;102.417;0.00968618;-0.0040644;-0.00470577;0.00933591;0.0151786;0.0145755;0.0174439;0;0.0293223;-0.142679;-2.72147;-1.7595;3.24385;-7.99302;-0.0438712;-0.00486895;0.20121;0.201307;-0.0439679;0.122637;0.218037;4.58638;0.151009;0.163516;4.57849;0.218413;94.6313;139.631;-0.000469995;-0.0439627;0.0067197;-0.0140928;0.201201;0.0568088;0.0299558;0;0.21895;8.72707;6.51172
650000;651;;;;;;;;;;0.0365892;-0.766479;-0.232186;0.80171;-7.29521;-0.00393449;0.00259873;0.0152938;0.0156388;-0.00427952;0.00995917;0.25726;3.88712;0.0121072;0.0132789;3.65435;0.273647;57.1156;102.116;0.00956412;-0.00397665;-0.00446235;0.00952595;0.0152873;0.0145184;0.0197828;0;0.0270156;-0.14236;-2.71683;-1.75727;3.23874;-7.97085;-0.0457318;-0.00476989;0.203076;0.203168;-0.0458232;0.124495;0.225195;4.44059;0.153024;0.165994;4.43373;0.225544;93.8733;138.873;0.00436202;-0.0457962;0.00443218;-0.0120686;0.203078;0.0237206;0.0479401;0;0.224783;8.75015;6.51919
651000;652;;;;;;;;;;0.0368716;-0.764665;-0.230516;0.799506;-7.29354;-0.00402459;0.00246959;0.0153876;0.0156969;-0.00433384;0.0100154;0.261547;3.8234;0.0121692;0.0133538;3.62193;0.276096;57.5315;102.532;0.0100675;-0.00406592;-0.00459917;0.00940309;0.0153802;0.0130992;0.018107;0;0.0250598;-0.14711;-2.74623;-1.7615;3.26593;-7.98275;-0.045036;-0.00651541;0.200948;0.201121;-0.0452085;0.123165;0.224117;4.46195;0.151417;0.164219;4.44874;0.224783;95.1248;140.125;-0.0108131;-0.045147;0.00534806;-0.0159484;0.200954;0.0372993;0.0379596;0;0.218291;8.73024;6.53371
652000;653;;;;;;;;;;0.0370856;-0.762936;-0.224932;0.796267;-7.28796;-0.00406817;0.0027226;0.0154841;0.0158562;-0.00444021;0.0101482;0.262732;3.80617;0.0123205;0.0135309;3.57104;0.28003;56.7263;101.726;0.00976067;-0.00411237;-0.00446297;0.00976969;0.015478;0.013939;0.0181877;0;0.0206521;-0.147749;-2.76941;-1.76255;3.28604;-7.9854;-0.0457236;-0.00289416;0.210844;0.210877;-0.0457562;0.128317;0.216859;4.61129;0.15806;0.171089;4.60871;0.21698;92.8876;137.888;0.00348235;-0.0457623;0.00494548;-0.00907254;0.210838;0.0454655;0.0401891;0;0.233693;8.67288;6.54145
653000;654;;;;;;;;;;0.0369775;-0.76237;-0.223532;0.795325;-7.28656;-0.00396705;0.002645;0.0152504;0.0156078;-0.00432445;0.00996614;0.260127;3.84428;0.0121069;0.0132882;3.60921;0.277069;56.6506;101.651;0.00971246;-0.0040107;-0.00453825;0.00969216;0.0152437;0.0137145;0.020393;0;0.0232555;-0.148648;-2.76866;-1.7686;3.2887;-7.97991;-0.0476114;-0.00409522;0.220001;0.220064;-0.0476741;0.133869;0.216414;4.62076;0.164914;0.178492;4.61601;0.216637;93.1958;138.196;-0.00827493;-0.0476634;0.00443945;-0.0107576;0.22;0.0516098;0.0532764;0;0.251031;8.58737;6.5487
654000;655;;;;;;;;;;0.0371272;-0.76183;-0.227428;0.795919;-7.29045;-0.00394154;0.00258514;0.0152799;0.0156215;-0.00428315;0.00995235;0.257956;3.87664;0.0120975;0.0132698;3.64721;0.274182;56.8377;101.838;0.00955371;-0.003985;-0.00462337;0.00965704;0.0152727;0.0132088;0.0196445;0;0.0179433;-0.148036;-2.77785;-1.7723;3.2984;-7.98529;-0.0466005;-0.00551159;0.213073;0.213189;-0.0467175;0.129953;0.218707;4.57232;0.159989;0.173271;4.56338;0.219136;94.3872;139.387;-0.00780741;-0.0466924;0.00571978;-0.0143383;0.213072;0.0506494;0.0308636;0;0.233838;8.5632;6.54855
655000;656;;;;;;;;;;0.0373642;-0.763572;-0.221973;0.796059;-7.285;-0.00403806;0.00259591;0.0152045;0.0155485;-0.00438211;0.00996532;0.265584;3.76529;0.012094;0.0132871;3.54818;0.281835;56.6686;101.669;0.00988802;-0.00408128;-0.00457805;0.00963377;0.0151975;0.0128105;0.0197629;0;0.0176248;-0.151759;-2.79978;-1.77652;3.31931;-8.00688;-0.0451516;-0.00127493;0.21749;0.217496;-0.0451578;0.131327;0.207603;4.81688;0.162159;0.175102;4.81635;0.207626;91.7248;136.725;0.00245476;-0.0451662;0.00402789;-0.00543379;0.217484;0.0441568;0.0399496;0;0.221619;8.59989;6.55615
656000;657;;;;;;;;;;0.0373076;-0.762119;-0.226343;0.795895;-7.28937;-0.0040138;0.0025367;0.015238;0.0155666;-0.00434244;0.00995451;0.263408;3.79639;0.0120881;0.0132727;3.58476;0.278959;56.9816;101.982;0.00966661;-0.00405624;-0.00459961;0.00953756;0.0152307;0.0136571;0.0190862;0;0.0197143;-0.151708;-2.80463;-1.78342;3.32709;-8.01183;-0.0459431;-0.00242377;0.219247;0.219269;-0.0459653;0.132617;0.209549;4.77215;0.163667;0.176823;4.77033;0.209629;92.4667;137.467;0.00110985;-0.0459739;0.00475466;-0.0080408;0.21924;0.0408179;0.0430944;0;0.215049;8.62743;6.56248
657000;658;;;;;;;;;;0.0371983;-0.760754;-0.222727;0.79356;-7.28575;-0.00400847;0.0027528;0.0154795;0.0158609;-0.00438986;0.0101254;0.258953;3.86171;0.0123012;0.0135005;3.61309;0.276772;56.6672;101.667;0.0100456;-0.00405298;-0.00444291;0.00981028;0.0154736;0.0122724;0.0180126;0;0.0213496;-0.155011;-2.83285;-1.78198;3.3503;-8.01246;-0.045918;-0.00373968;0.21842;0.218473;-0.0459709;0.132222;0.210228;4.75675;0.163146;0.176296;4.75243;0.210419;93.1953;138.195;-0.00782106;-0.0459696;0.00503205;-0.0106082;0.218415;0.0355568;0.0202798;0;0.232534;8.59202;6.57076
658000;659;;;;;;;;;;0.0377079;-0.758642;-0.220236;0.790863;-7.28326;-0.00403855;0.0027891;0.0152247;0.0156204;-0.00443425;0.0100273;0.265263;3.76985;0.0121641;0.0133698;3.52267;0.283875;56.1341;101.134;0.0101304;-0.0040833;-0.00440261;0.00984421;0.015219;0.0123631;0.0198176;0;0.0191993;-0.15315;-2.85743;-1.78934;3.37492;-8.01611;-0.0464835;-0.00406782;0.214787;0.21485;-0.0465469;0.130699;0.216417;4.62071;0.161008;0.174265;4.61579;0.216648;94.9707;139.971;-0.00278192;-0.0466022;0.0105997;-0.0155802;0.214748;0.045744;0.0511743;0;0.226051;8.51618;6.5853
659000;660;;;;;;;;;;0.0369268;-0.756997;-0.212843;0.787216;-7.27587;-0.0041222;0.00291559;0.0151504;0.0155818;-0.00455361;0.0100677;0.272086;3.67531;0.0121925;0.0134236;3.42185;0.29224;55.6581;100.658;0.00992614;-0.00416751;-0.00424266;0.0099378;0.0151457;0.0121487;0.0204768;0;0.0220074;-0.157109;-2.86293;-1.78505;3.37749;-8.00618;-0.046045;-0.00331237;0.219819;0.21986;-0.0460862;0.132973;0.209468;4.77401;0.164107;0.177298;4.77063;0.209616;93.9982;138.998;-0.0140904;-0.0461259;0.00889986;-0.0128626;0.219791;0.0744738;0.0509189;0;0.232076;8.42332;6.5856
660000;661;;;;;;;;;;0.0370198;-0.757401;-0.21423;0.787985;-7.27726;-0.00412688;0.00256885;0.0151261;0.0154629;-0.00446374;0.00996333;0.272832;3.66526;0.0120748;0.0132844;3.46412;0.288673;56.4904;101.49;0.00938179;-0.00417013;-0.00462966;0.00963071;0.0151188;0.012865;0.020625;0;0.0369946;-0.156211;-2.87641;-1.79562;3.39447;-8.02481;-0.0464676;-0.00527172;0.218595;0.2187;-0.0465724;0.132636;0.212574;4.70425;0.16355;0.176848;4.69591;0.212951;94.7457;139.746;-0.0097368;-0.0465817;0.00801211;-0.0156656;0.21858;0.0649407;0.0552991;0;0.227397;8.41039;6.58702
661000;662;;;;;;;;;;0.0394031;-0.759793;-0.21004;0.789275;-7.27306;-0.00413126;0.00260818;0.0152618;0.0156065;-0.00447591;0.0100412;0.270692;3.69423;0.0121737;0.0133882;3.48677;0.286798;56.695;101.695;0.0100788;-0.00417431;-0.00454089;0.00962056;0.015255;0.0118204;0.0194834;0;0.0209566;-0.153449;-2.8961;-1.7956;3.41103;-8.03041;-0.0479464;-0.00635738;0.215735;0.215888;-0.0480996;0.131994;0.222247;4.4995;0.162351;0.175992;4.48835;0.222799;96.9074;141.907;0.00426821;-0.048179;0.0136008;-0.0219853;0.215675;0.054841;0.0309422;0;0.233168;8.42348;6.592
662000;663;;;;;;;;;;-0.259675;-10.147;4.21968;10.9925;-2.84335;-0.00277033;0.00192221;0.0102801;0.0105573;-0.00304756;0.00680245;0.269484;3.71079;0.00824403;0.00906994;3.4642;0.288667;123.907;168.907;-0.108129;-0.00387753;0.0514987;-0.0470184;0.00896853;0.0559549;0.182591;0;0.0369913;;;;;;;;;;;;;;;;;;;;;;;;;;;;;-0.022667;6.64816
663000;664;;;;;;;;;;-0.292711;-10.1594;4.21592;11.0033;-2.8471;-0.0032857;0.0021383;0.0115054;0.0118083;-0.00358862;0.00769848;0.285579;3.50166;0.00930211;0.0102646;3.29049;0.303906;123.933;168.933;-0.115987;-0.00451335;0.0545376;-0.0495005;0.0100363;0.0608877;0.177708;0;0.0366554;;;;;;;;;;;;;;;;;;;;;;;;;;;;;-0.0220637;6.62504
664000;665;;;;;;;;;;-0.293339;-10.1624;4.21322;11.0051;-2.8498;-0.00331143;0.0019049;0.0113709;0.0116141;-0.00355455;0.0075843;0.291219;3.43384;0.00916039;0.0101124;3.26738;0.306056;124.771;169.771;-0.116145;-0.00456003;0.0544778;-0.0499099;0.00990443;0.0613075;0.178077;0;0.0342183;;;;;;;;;;;;;;;;;;;;;;;;;;;;;-0.0210469;6.6112
