Time;Image index (Image index);Distance L(t) (Extensometer 1);Change in distance (Extensometer 1);Strain - RC (Extensometer 1);Distance x L(t) (Extensometer 1);Distance y L(t) (Extensometer 1);Distance z L(t) (Extensometer 1);Change in distance x (Extensometer 1);Change in distance y (Extensometer 1);Change in distance z (Extensometer 1);X-displacement (Strain Gauge 1);Y-displacement (Strain Gauge 1);Z-displacement (Strain Gauge 1);Displacement (Strain Gauge 1);Height (Strain Gauge 1);Exx - RC (Strain Gauge 1);Exy - RC (Strain Gauge 1);Eyy - RC (Strain Gauge 1);Max. principal strain - RC (Strain Gauge 1);Min. principal strain - RC (Strain Gauge 1);Max. shear strain - RC (Strain Gauge 1);Poisson ratio -Exx/Eyy (Strain Gauge 1);Poisson ratio -Eyy/Exx (Strain Gauge 1);Von Mises - RC (Strain Gauge 1);Tresca - RC (Strain Gauge 1);Poisson ratio -strain max/min (Strain Gauge 1);Poisson ratio -strain min/max (Strain Gauge 1);Max. strain angle (Strain Gauge 1);Max. shear angle (Strain Gauge 1);Vorticity-z (Strain Gauge 1);du/dx (Strain Gauge 1);du/dy (Strain Gauge 1);dv/dx (Strain Gauge 1);dv/dy (Strain Gauge 1);dw/dx (Strain Gauge 1);dw/dy (Strain Gauge 1);Ezz plane stress state (Strain Gauge 1);Stereo reconstruction error (Strain Gauge 1);X-displacement (Strain Gauge 2);Y-displacement (Strain Gauge 2);Z-displacement (Strain Gauge 2);Displacement (Strain Gauge 2);Height (Strain Gauge 2);Exx - RC (Strain Gauge 2);Exy - RC (Strain Gauge 2);Eyy - RC (Strain Gauge 2);Max. principal strain - RC (Strain Gauge 2);Min. principal strain - RC (Strain Gauge 2);Max. shear strain - RC (Strain Gauge 2);Poisson ratio -Exx/Eyy (Strain Gauge 2);Poisson ratio -Eyy/Exx (Strain Gauge 2);Von Mises - RC (Strain Gauge 2);Tresca - RC (Strain Gauge 2);Poisson ratio -strain max/min (Strain Gauge 2);Poisson ratio -strain min/max (Strain Gauge 2);Max. strain angle (Strain Gauge 2);Max. shear angle (Strain Gauge 2);Vorticity-z (Strain Gauge 2);du/dx (Strain Gauge 2);du/dy (Strain Gauge 2);dv/dx (Strain Gauge 2);dv/dy (Strain Gauge 2);dw/dx (Strain Gauge 2);dw/dy (Strain Gauge 2);Ezz plane stress state (Strain Gauge 2);Stereo reconstruction error (Strain Gauge 2);Load ADC 1 channel 1;Position ADC 1 channel 2
ms;;mm;mm;S;mm;mm;mm;mm;mm;mm;mm;mm;mm;mm;mm;S;S;S;S;S;S;;;S;S;;;°;°;S;S;S;S;S;S;S;S;pixel;mm;mm;mm;mm;mm;S;S;S;S;S;S;;;S;S;;;°;°;S;S;S;S;S;S;S;S;pixel;kN;mm
0.02515;1;25.7644;0;0;-2.15645;25.6677;0.569358;0;0;0;0;0;0;0;-6.85822;0;-1.31839e-16;-1.11022e-16;8.75378e-17;-1.9856e-16;1.43049e-16;;;1.69274e-16;1.90732e-16;;;0;45;0;0;-1.80411e-16;-8.32667e-17;-1.11022e-16;0;0;0;0;0;0;0;0;-6.28201;-3.33067e-16;2.42861e-17;-1.11022e-16;-1.08397e-16;-3.35692e-16;1.13648e-16;;;1.97823e-16;1.5153e-16;;;0;45;0;-3.33067e-16;5.55112e-17;-6.93889e-18;-1.11022e-16;0;0;0;0;-0.0106088;2.18905
1000.03;2;25.7659;0.00154489;5.99623e-05;-2.15642;25.6691;0.574622;2.71412e-05;0.00143568;0.00526439;-0.00103759;0.00163346;-0.00737702;0.00762662;-6.8656;5.34179e-05;0.000146779;3.13283e-05;0.000189567;-0.000104821;0.000147194;-1.7051;-0.586476;0.000172297;0.000196259;1.80848;0.55295;34.5954;79.5954;-0.000260889;5.34159e-05;0.000134223;0.000159336;3.13301e-05;0.000565518;0.000288688;0;0.0245376;-0.00125197;0.000926515;-0.00682977;0.00700512;-6.28884;0.000168375;-0.000167297;0.000566858;0.000627781;0.000107452;0.000260164;-0.297032;-3.36664;0.000387699;0.000346886;-5.84243;-0.171162;131.178;176.178;0.000356429;0.000168263;0.000167883;-0.000502344;0.000566858;-0.00159964;-0.000128899;0;0.0206867;-0.0104828;2.19573
2000.03;3;25.7686;0.00422016;0.000163798;-2.15676;25.6717;0.578329;-0.000311412;0.00400935;0.00897146;-0.000870098;0.000982597;-0.00480721;0.00498315;-6.86303;2.49901e-05;0.000197558;0.000567738;0.000632032;-3.93041e-05;0.000335668;-0.0440169;-22.7185;0.000435049;0.000447558;16.0806;0.0621868;80.3934;125.393;-8.91208e-05;2.50038e-05;0.000287321;0.000107845;0.000567716;-0.000587373;-0.000250143;0;0.0106477;-0.000782583;0.000870764;-0.00640439;0.00651052;-6.28842;0.000180944;-2.25173e-05;0.000616611;0.000617772;0.000179783;0.000218994;-0.293449;-3.40775;0.000366908;0.000291992;-3.43621;-0.291018;114.84;159.84;-5.46132e-05;0.000180862;0.000359917;-0.000404785;0.000616546;-0.000492691;-0.000667101;0;0.0142414;-0.0104254;2.20332
3000.03;4;25.7644;6.01291e-05;2.33381e-06;-2.154;25.668;0.567281;0.00245335;0.000312323;-0.00207616;-0.00136531;-0.000149749;-0.00285655;0.00316961;-6.86108;-4.19636e-05;-0.000149967;-0.000164031;5.89143e-05;-0.000264908;0.000161911;-0.255828;-3.90888;0.00019917;0.000215882;0.222395;4.4965;32.4162;77.4162;-0.000429799;-4.19866e-05;-3.8325e-05;-0.000261623;-0.00016402;0.000701101;0.000255888;0;0.0147028;-0.000321758;-9.59295e-05;-0.00541119;0.0054216;-6.28743;0.000155989;-9.08866e-05;0.000570956;0.000589989;0.000136955;0.000226517;-0.273206;-3.66024;0.000356552;0.000302022;-4.30789;-0.232132;111.617;156.617;0.000251737;0.000155968;3.84639e-05;-0.000220183;0.000570959;0.000844924;-0.000223672;0;0.0176095;-0.0104465;2.20869
4000.03;5;25.7677;0.00327977;0.000127299;-2.15543;25.671;0.572709;0.00101858;0.00330312;0.00335131;0.000801788;0.00114857;-0.00480773;0.00500763;-6.86303;0.00010953;0.000323326;0.000468337;0.000658698;-8.08304e-05;0.000369764;-0.233869;-4.27589;0.000468406;0.000493019;8.14913;0.122712;49.714;94.714;0.000320105;0.000109491;0.000220411;0.000426204;0.000468365;-4.80637e-05;0.000154713;0;0.0147933;0.00192728;0.0012697;-0.00764202;0.00798292;-6.28966;0.000173092;-9.37691e-05;0.000433576;0.000463819;0.000142848;0.000160486;-0.399219;-2.50489;0.00027429;0.000213981;-3.24694;-0.307982;121.785;166.785;0.000896403;0.000173064;6.635e-05;-0.000253847;0.000433578;-0.00130766;-0.00010025;0;0.0236966;-0.010385;2.21391
5000.03;6;25.7659;0.00152115;5.90408e-05;-2.15381;25.6694;0.57047;0.00264057;0.00172388;0.00111218;0.000895401;-0.00179645;-0.00343664;0.00397988;-6.86166;0.000182829;0.00045635;0.000180735;0.000638132;-0.000274569;0.000456351;-1.01159;-0.988547;0.000540704;0.000608468;2.32412;0.43027;42.3246;87.3246;0.000158555;0.000182821;0.000439741;0.000472958;0.000180742;-0.0016438;-0.00156189;0;0.0106451;0.0028958;-0.00153557;-0.00748067;0.00816725;-6.2895;9.38983e-06;-3.90849e-05;0.000545878;0.000548711;6.55733e-06;0.000271077;;;0.000363641;0.000361436;;;94.0739;139.074;0.000758198;9.38986e-06;-3.97743e-05;-3.83958e-05;0.000545878;-0.0003868;0.00125718;0;0.0141889;-0.0103978;2.22436
6000.03;7;25.7644;7.7443e-05;3.00582e-06;-2.15491;25.6679;0.565596;0.00154203;0.000290394;-0.00376117;0.00327623;-0.00337633;0.000704047;0.00475699;-6.85752;3.72369e-05;9.30141e-05;0.000584565;0.00059994;2.18617e-05;0.000289039;-0.0637001;-15.6986;0.000392876;0.000385386;-27.4425;-0.0364399;93.5037;138.504;-0.0013502;3.72396e-05;0.000243265;-5.71548e-05;0.00058454;0.00296063;-0.00183139;0;0.0101983;0.00526014;-0.00300064;-0.00386891;0.0071862;-6.28588;-3.71618e-05;-1.55725e-05;0.000394432;0.000394993;-3.7723e-05;0.000216358;0.0942161;10.6139;0.000276761;0.000288477;10.4709;0.0955029;74.4286;119.429;0.000997524;-3.71679e-05;-0.00014197;0.00011077;0.000394422;-0.000339967;0.000500081;0;0.0167441;-0.010485;2.22934
7000.03;8;25.7666;0.00224703;8.72145e-05;-2.15482;25.67;0.571736;0.00163344;0.0023398;0.00237839;0.00413535;-0.00233165;-0.00582643;0.00751565;-6.86405;-2.24217e-06;0.000197653;0.000487885;0.000557659;-7.20162e-05;0.000314838;;;0.000397956;0.000419784;7.74353;0.12914;72.0442;117.044;-0.000430926;-2.23975e-06;0.000210282;0.000185029;0.000487883;0.000557288;-0.00236259;0;0.0102973;0.00629988;-0.00245219;-0.00884376;0.0111317;-6.29086;-2.97703e-05;-1.69514e-05;0.000432916;0.000433537;-3.03905e-05;0.000231964;0.0687669;14.5419;0.000299669;0.000309285;14.2655;0.0700991;66.0286;111.029;0.000725785;-2.97995e-05;-0.000276353;0.00024233;0.000432878;0.000230943;0.00275372;0;0.0154892;-0.0102836;2.2345
8000.03;9;25.7653;0.000900268;3.49424e-05;-2.15382;25.6688;0.568525;0.0026277;0.00114274;-0.000832776;0.00213269;-0.0037771;-0.00148798;0.00458574;-6.85971;-0.000206267;-2.37208e-05;0.000644161;0.000644822;-0.000206928;0.000425875;0.32021;3.12295;0.000512964;0.000567833;3.11617;0.320907;106.254;151.254;-0.000903643;-0.000206277;9.9308e-05;-0.000146645;0.000644156;0.00138412;-0.00197611;0;0.0260646;0.00447;-0.00364223;-0.00605801;0.00836339;-6.28807;-6.85978e-05;-8.39192e-06;0.000416553;0.000416698;-6.8743e-05;0.00024272;0.16468;6.07239;0.000303321;0.000323627;6.06168;0.164971;76.2388;121.239;0.000553622;-6.86019e-05;-0.000106882;9.00506e-05;0.000416547;0.00120112;0.00274259;0;0.0210697;-0.0103448;2.24082
9000.03;10;25.7667;0.00229015;8.88881e-05;-2.15387;25.6702;0.56937;0.00257665;0.00251482;1.28253e-05;0.000985555;-0.00230899;-0.0100626;0.010371;-6.86829;0.000133713;-8.73051e-06;0.000419977;0.000420243;0.000133447;0.000143398;-0.318382;-3.14088;0.000247954;0.000191197;-3.14913;-0.317548;103.246;148.246;-0.000923478;0.000133705;0.000108841;-0.000126268;0.000419972;0.00221765;-0.000654854;0;0.0310301;0.00308147;-0.00298489;-0.0143723;0.0149989;-6.29639;6.51904e-05;2.58535e-06;0.000499813;0.000499829;6.5175e-05;0.000217327;-0.13043;-7.66698;0.000313759;0.000289769;-7.66902;-0.130395;77.9026;122.903;0.000846011;6.51825e-05;-0.000120392;0.00012551;0.000499806;-0.000484781;0.000943492;0;0.0373978;-0.0104753;2.24842
10000;11;25.7656;0.00122899;4.77011e-05;-2.15459;25.6691;0.568069;0.00186127;0.00141848;-0.0012891;-0.00155461;-0.00266988;-0.00605162;0.00679464;-6.86428;0.000237628;0.000127201;-0.000340918;0.00026436;-0.00036765;0.000316005;0.697024;1.43467;0.000366512;0.00042134;0.719053;1.39072;71.9234;116.923;-0.0010158;0.000237635;0.00021622;3.81316e-05;-0.000340933;0.00104418;0.00112066;0;0.00993141;0.000162582;-0.00241387;-0.0118266;0.0120716;-6.29384;2.07013e-05;-7.43716e-05;0.000623622;0.00063266;1.16629e-05;0.000310499;-0.0331953;-30.1247;0.00041794;0.000413998;-54.2454;-0.0184348;102.721;147.721;0.000904162;2.06942e-05;-8.2977e-06;-0.000140406;0.000623624;-0.000547903;0.00104181;0;0.0151928;-0.0104689;2.25528
11000;12;25.7652;0.000788694;3.06118e-05;-2.15429;25.6686;0.568527;0.00216255;0.000991656;-0.000830281;-0.00200687;-0.0018571;-0.0117395;0.0120537;-6.86996;3.95666e-05;9.20677e-05;0.000396264;0.000418626;1.72048e-05;0.000200711;-0.0998491;-10.0151;0.000273529;0.000267614;-24.3319;-0.0410983;86.2838;131.284;0.000130768;3.95708e-05;0.000170862;1.33017e-05;0.000396254;-0.00104424;-0.00147928;0;0.0164338;-0.000932542;-0.0024952;-0.0146691;0.014909;-6.29668;1.57786e-05;-7.23838e-05;0.000564618;0.000574004;6.39277e-06;0.000283806;-0.0279456;-35.7838;0.000380556;0.000378408;;;110.236;155.236;0.000465913;1.57587e-05;6.73358e-05;-0.000212027;0.000564619;0.000293207;0.00109688;0;0.0221116;-0.0104178;2.26214
12000;13;25.7631;-0.00129625;-5.03118e-05;-2.1552;25.6665;0.56613;0.00124695;-0.001125;-0.00322773;-0.00530997;-0.00315643;-0.00333746;0.00702121;-6.86156;7.1902e-05;0.000227985;0.000160391;0.000348385;-0.000116092;0.000232238;-0.448293;-2.23069;0.000279121;0.000309651;3.00093;0.333229;55.2934;100.293;-0.000859344;7.19063e-05;0.000247641;0.00020833;0.000160386;0.000252741;0.00115985;0;0.00966761;-0.00469623;-0.0023251;-0.00804288;0.00959941;-6.29006;0.000104632;1.01011e-05;0.00078315;0.0007833;0.000104482;0.000339409;-0.133604;-7.48481;0.000491092;0.000452546;-7.49702;-0.133386;103.4;148.4;0.00114575;0.000104605;0.000251376;-0.00023101;0.000783119;-0.00226428;0.00140902;0;0.0168676;-0.0105219;2.26927
13000;14;25.7665;0.00213316;8.27949e-05;-2.15577;25.6698;0.569934;0.000682665;0.00218574;0.000576821;-0.00546985;-0.00215683;-0.00599929;0.00840015;-6.86422;0.000210369;0.000178417;0.000573516;0.000646504;0.000137381;0.000254561;-0.366806;-2.72623;0.00039329;0.000339415;-4.70591;-0.212499;78.2682;123.268;-0.000954514;0.000210385;0.000329228;2.76609e-05;0.000573478;0.00110717;0.000570803;0;0.0118008;-0.00506886;-0.00206642;-0.00988574;0.0113001;-6.2919;0.000191908;-2.77823e-05;0.000627303;0.000629068;0.000190143;0.000219463;-0.305926;-3.26877;0.00037254;0.000292617;-3.3084;-0.302261;113.325;158.325;0.00111453;0.000191842;0.000308659;-0.000364078;0.000627255;-0.000655176;0.000766061;0;0.0184;-0.0106735;2.27717
14000;15;25.763;-0.00138441;-5.37337e-05;-2.15545;25.6665;0.561845;0.00099582;-0.00114043;-0.00751239;-0.00663037;-0.00493652;0.00493395;0.00962678;-6.85329;9.94378e-05;0.000160075;0.000442718;0.000505778;3.63775e-05;0.0002347;-0.224608;-4.45221;0.000325737;0.000312934;-13.9036;-0.0719237;71.0957;116.096;-0.00060628;9.94415e-05;0.00018473;0.000135428;0.000442714;0.00105944;0.00101027;0;0.00953278;-0.00676047;-0.00338689;-0.000717137;0.00759535;-6.28273;0.000136726;-7.49579e-05;0.000666048;0.000676458;0.000126316;0.000275071;-0.20528;-4.87139;0.00041532;0.000366761;-5.35527;-0.186732;114.638;159.638;0.00112386;0.000136671;0.000190542;-0.000340318;0.000666033;-0.00165363;0.00196239;0;0.0174615;-0.0105558;2.28419
15000;16;25.7639;-0.000499022;-1.93687e-05;-2.15545;25.6673;0.566449;0.000997658;-0.000352741;-0.00290894;-0.00759643;-0.00386144;0.000419132;0.00853183;-6.8578;0.000127471;0.000352648;0.000649431;0.000827166;-5.02637e-05;0.000438715;-0.196281;-5.09473;0.000568939;0.000584953;16.4565;0.0607662;70.9338;115.934;-0.000866225;0.000127503;0.000459452;0.000245898;0.000649388;0.000649996;-0.000867211;0;0.0186955;-0.00782868;-0.00250256;-0.00390192;0.00909813;-6.28592;0.000125781;-6.59805e-05;0.000687991;0.00069563;0.000118141;0.000288745;-0.182823;-5.46976;0.00042982;0.000384993;-5.88812;-0.169833;116.78;161.78;0.00120774;0.000125698;0.000279983;-0.00041175;0.000687954;-0.00279147;0.000383617;0;0.0195416;-0.0105187;2.29171
16000;17;25.7639;-0.000475934;-1.84726e-05;-2.15534;25.6673;0.566887;0.00110513;-0.000330223;-0.0024704;-0.00863456;-0.00159443;-0.00503013;0.0101193;-6.86325;8.37445e-05;0.00017094;6.37157e-05;0.000244963;-9.75025e-05;0.000171233;-1.31435;-0.760835;0.000203741;0.00022831;2.51237;0.39803;78.5971;123.597;-0.00109469;8.37584e-05;0.000379766;-3.7891e-05;6.36582e-05;-0.000214479;-0.000403829;0;0.0208644;-0.00876847;-0.000368063;-0.0110348;0.0140992;-6.29305;9.96186e-05;-0.000152189;0.000821078;0.000851868;6.88289e-05;0.000391519;-0.121327;-8.24222;0.000546416;0.000522026;-12.3766;-0.0807977;117.562;162.562;0.00142376;9.95322e-05;0.000138533;-0.000442701;0.00082108;-0.00253772;0.001039;0;0.0223312;-0.0106444;2.2972
17000;18;25.7635;-0.000823716;-3.19711e-05;-2.15556;25.6669;0.567131;0.000889783;-0.00070279;-0.0022263;-0.0100435;-0.00157183;-0.00886401;0.0134875;-6.86709;9.11885e-05;0.000358169;0.000507687;0.000713748;-0.000114873;0.00041431;-0.179616;-5.56744;0.000518383;0.000552413;6.21339;0.160943;70.9956;115.996;-0.00150297;9.12242e-05;0.000478098;0.00023829;0.000507637;0.00088403;-3.57656e-05;0;0.0148746;-0.0108971;-0.000752802;-0.0115675;0.0159097;-6.29358;0.000161024;-6.8229e-05;0.000789451;0.000796773;0.000153702;0.000321536;-0.20397;-4.90269;0.000488083;0.000428715;-5.1839;-0.192905;100.869;145.869;0.00175977;0.000161015;1.12437e-05;-0.000147652;0.000789453;-0.00378071;0.000637312;0;0.0202375;-0.0104163;2.29971
18000;19;25.7655;0.0011078;4.29974e-05;-2.15697;25.6687;0.569574;-0.000522357;0.00106328;0.00021651;-0.0103427;-0.000390093;-0.00784095;0.0129848;-6.86606;0.000154756;0.000530967;0.000696356;0.00102159;-0.00017048;0.000596036;-0.222237;-4.4997;0.000744424;0.000794715;5.99244;0.166877;59.2664;104.266;-0.000616883;0.000154762;0.000542198;0.000519743;0.00069635;-0.00156401;-0.000117181;0;0.0161757;-0.0119375;-7.24036e-05;-0.0112449;0.0163999;-6.29326;0.000217588;-0.000130849;0.000801917;0.00082988;0.000189625;0.000320128;-0.271335;-3.68548;0.000502125;0.000426837;-4.37643;-0.228497;113.297;158.297;0.00189547;0.000217538;8.01416e-05;-0.000341717;0.000801922;-0.00340788;0.000505363;0;0.0236537;-0.0105263;2.30675
19000;20;25.7653;0.000890429;3.45605e-05;-2.15793;25.6684;0.570991;-0.00148408;0.000732783;0.0016332;-0.0117787;-0.00273759;-0.000603978;0.0121077;-6.85883;3.71682e-05;0.000131892;0.000454506;0.000492694;-1.01935e-06;0.000246857;-0.0817771;-12.2284;0.000328803;0.000329142;;;88.2362;133.236;-0.00140333;3.71769e-05;0.000266929;-3.08911e-06;0.000454479;-0.000473903;-0.000151048;0;0.0173866;-0.0138971;-0.00188093;-0.00333656;0.0144152;-6.28535;5.36271e-05;-0.000112943;0.000799378;0.000816108;3.68972e-05;0.000389606;-0.067086;-14.9062;0.0005322;0.000519474;-22.1184;-0.0452112;121.712;166.712;0.00169633;5.34746e-05;0.000338106;-0.000563656;0.000799328;-0.00316042;0.00149175;0;0.0189824;-0.0103289;2.31387
20000;21;25.7647;0.000281864;1.09401e-05;-2.15934;25.6677;0.570735;-0.00288686;9.63944e-06;0.00137733;-0.0110355;-0.00145498;-0.00784514;0.0136178;-6.86607;-3.76785e-06;0.000247679;0.000624353;0.000710266;-8.96812e-05;0.000399974;;;0.00050606;0.000533298;7.91989;0.126264;89.4019;134.402;-0.00190106;-3.73726e-06;0.000482215;1.3291e-05;0.000624267;0.000613742;-0.00067539;0;0.0223024;-0.0142145;1.12894e-05;-0.0102223;0.0175085;-6.29224;3.72579e-05;-9.15904e-05;0.000771281;0.000782537;2.60019e-05;0.000378267;-0.0483065;-20.7012;0.000513243;0.000504357;-30.0953;-0.0332277;114.605;159.605;0.00158228;3.71911e-05;0.000193822;-0.000376793;0.000771266;-0.00376495;0.00117654;0;0.0259828;-0.0102383;2.32117
21000;22;25.7675;0.00308715;0.000119822;-2.16009;25.6704;0.573541;-0.00363769;0.00269981;0.00418337;-0.0138523;0.00442133;-0.0163739;0.0218984;-6.8746;0.000111046;0.000234564;0.000497736;0.000608368;4.13608e-07;0.000303977;-0.223103;-4.48224;0.000405441;0.000405303;;;80.5786;125.579;-0.00146622;0.000111073;0.000422365;4.68347e-05;0.000497674;-0.00112846;3.93496e-05;0;0.0215675;-0.0181866;0.00341391;-0.0157014;0.0242681;-6.29772;-6.64727e-05;-8.2943e-05;0.000745571;0.000753956;-7.4858e-05;0.000414407;0.0891567;11.2162;0.000529358;0.000552543;10.0718;0.0992869;107.327;152.327;0.00178819;-6.64952e-05;6.20649e-05;-0.000227833;0.000745573;-0.00433433;-0.00123048;0;0.020492;-0.0103046;2.3285
22000;23;25.7653;0.000928113;3.60231e-05;-2.1606;25.6682;0.572843;-0.00414903;0.000505167;0.00348506;-0.0170372;-0.000263048;-0.00211165;0.0171695;-6.86034;1.99968e-05;0.00021648;0.000676371;0.000741338;-4.49702e-05;0.000393154;-0.0295648;-33.824;0.000509877;0.000524206;16.4851;0.0606608;94.0972;139.097;-0.00238466;2.00159e-05;0.000525907;-9.27453e-05;0.000676257;0.00106736;-0.00123621;0;0.0169591;-0.0215796;0.000852931;-0.0033913;0.0218611;-6.28541;-7.6931e-05;-0.000105642;0.000663944;0.000678713;-9.17003e-05;0.000385207;0.11587;8.63038;0.000485935;0.000513609;7.40143;0.135109;108.519;153.519;0.00203525;-7.69494e-05;7.80866e-06;-0.00021901;0.000663949;-0.0042678;-0.000267458;0;0.0233958;-0.0105514;2.33599
23000;24;25.7649;0.00048593;1.88605e-05;-2.16124;25.6677;0.571871;-0.00478731;2.92487e-05;0.00251306;-0.0188668;0.00111503;0.00267265;0.0190878;-6.85555;-1.21265e-06;0.000146265;0.000233756;0.000303878;-7.13347e-05;0.000187606;;;0.00023008;0.000250142;4.25989;0.234748;90.9233;135.923;-0.00166119;-1.20199e-06;0.000301032;-8.46498e-06;0.000233721;0.000233418;-0.000113211;0;0.0133722;-0.0243919;0.00301548;0.000683457;0.0245871;-6.28133;4.6762e-06;-0.000283553;0.000692921;0.000794694;-9.70967e-05;0.000445895;;;0.00056495;0.000594527;8.18456;0.122181;130.049;175.049;0.00208504;4.54666e-06;1.57566e-05;-0.000582657;0.000692961;-0.00449905;-0.00124693;0;0.0215842;-0.0102838;2.34319
24000;25;25.7653;0.000974883;3.78384e-05;-2.16345;25.668;0.572777;-0.00699662;0.000313728;0.00341935;-0.020788;0.00278382;-0.00383746;0.0213217;-6.86206;3.59599e-05;0.000345093;0.000738335;0.000879511;-0.000105216;0.000492363;-0.0487041;-20.5322;0.000624375;0.000656484;8.35912;0.11963;89.0137;134.014;-0.00173348;3.60194e-05;0.000700489;-1.00544e-05;0.00073815;-0.00144361;-0.00104248;0;0.0147049;-0.0273955;0.0044747;-0.00462284;0.0281409;-6.28664;-1.70203e-05;-0.00013686;0.000656416;0.000683167;-4.37712e-05;0.000363469;0.0259291;38.5667;0.000470714;0.000484626;15.6077;0.064071;96.252;141.252;0.002062;-1.70144e-05;-0.000191057;-8.26995e-05;0.000656407;-0.00315441;-0.00168532;0;0.0211806;-0.0103752;2.35082
25000;26;25.7652;0.000871876;3.38404e-05;-2.16413;25.6678;0.572033;-0.00768195;0.000169148;0.00267539;-0.0233852;0.0030655;-0.0019644;0.0236669;-6.86019;-6.01106e-05;7.42285e-05;0.000495338;0.000505087;-6.98592e-05;0.000287473;0.121353;8.24044;0.000362263;0.000383297;7.23006;0.138311;112.796;157.796;-0.00206263;-6.01563e-05;0.00046006;-0.000311389;0.000495235;-0.000744902;-0.00106893;0;0.0134192;-0.0306486;0.00462152;-0.00173728;0.0310438;-6.28375;-2.71745e-05;-0.000208723;0.000530624;0.000600078;-9.66285e-05;0.000348353;0.0512124;19.5265;0.000435847;0.000464471;6.21015;0.161027;109.567;154.567;0.00197276;-2.71767e-05;-0.000198505;-0.000218935;0.000530626;-0.0019287;-0.0022164;0;0.0203713;-0.0101144;2.35835
26000;27;25.7653;0.00090492;3.51229e-05;-2.16436;25.6679;0.570531;-0.00791064;0.00021647;0.00117314;-0.0246867;0.00357825;-0.00407136;0.0252748;-6.8623;7.80806e-05;0.000269341;0.00065604;0.000762097;-2.79762e-05;0.000395036;-0.119018;-8.40208;0.000517642;0.000526715;27.2409;0.0367095;86.7807;131.781;-0.00223046;7.81169e-05;0.000541623;-2.78354e-06;0.000655929;-0.00134238;-0.000900377;0;0.0138073;-0.0324568;0.00494804;-0.00463377;0.0331572;-6.28665;-0.000121251;-0.000207746;0.00040391;0.000476153;-0.000193494;0.000334824;0.300194;3.33118;0.000397936;0.000446432;2.46081;0.40637;95.3492;140.349;0.00186408;-0.000121239;-0.000281824;-0.000133706;0.000403892;-0.00214495;-0.00310016;0;0.0201687;-0.0100063;2.36572
27000;28;25.7656;0.00121057;4.69861e-05;-2.16565;25.668;0.571538;-0.00920307;0.000391863;0.00218012;-0.0255921;0.00496356;-0.00771459;0.0271865;-6.86594;-1.9639e-05;0.000140034;0.000487813;0.000523891;-5.5717e-05;0.000289804;0.0402593;24.839;0.000369237;0.000386405;9.4027;0.106352;104.286;149.286;-0.00223253;-1.9655e-05;0.000507282;-0.000227029;0.000487694;-2.38022e-05;0.00028427;0;0.0142907;-0.0348451;0.00649898;-0.00749914;0.0362306;-6.28951;-0.000188745;-0.000182598;0.000348773;0.000404935;-0.000244907;0.000324921;0.541169;1.84785;0.000378959;0.000433228;1.65342;0.604805;134.672;179.672;0.0018445;-0.000188773;-6.7631e-05;-0.000297502;0.000348788;-0.00241182;-0.00291552;0;0.0199539;-0.0102333;2.37368
28000;29;25.7654;0.00106572;4.13641e-05;-2.16589;25.6679;0.572498;-0.00944506;0.000204647;0.00314037;-0.0270853;0.00602962;-0.00661231;0.0285253;-6.86484;4.24483e-05;0.000178207;0.000514598;0.000574309;-1.72623e-05;0.000295786;-0.0824882;-12.1229;0.000388755;0.000394381;33.2695;0.0300576;101.062;146.062;-0.00220985;4.24225e-05;0.000645349;-0.000288715;0.000514406;-0.00120835;-0.00130672;0;0.0156467;-0.0368642;0.00737499;-0.00672583;0.0381915;-6.28874;-0.000225428;-0.000215024;0.000303077;0.000379507;-0.000301858;0.000340683;0.743798;1.34445;0.000394237;0.000454244;1.25724;0.795395;78.2025;123.203;0.00170566;-0.000225415;-0.000290371;-0.000139717;0.000303058;-0.001139;-0.00123475;0;0.0202427;-0.00986614;2.37695
29000;30;25.7665;0.00217654;8.44785e-05;-2.16653;25.6689;0.571737;-0.0100769;0.00128334;0.00237896;-0.0284565;0.00779978;-0.00960729;0.0310308;-6.86783;5.82761e-05;8.9237e-05;0.000959544;0.000968295;4.95255e-05;0.000459385;-0.0607331;-16.4655;0.000629671;0.000612513;-19.5514;-0.0511471;107.836;152.836;-0.00232958;5.81769e-05;0.000633234;-0.00045427;0.000959348;0.000109706;-0.00146226;0;0.0151427;-0.0391266;0.00969682;-0.0100248;0.0415381;-6.29204;-7.36782e-05;-0.000198123;0.000236971;0.000333397;-0.000170104;0.000251751;0.310917;3.2163;0.000295749;0.000335668;1.95996;0.510216;134.134;179.134;0.00124248;-7.36919e-05;-0.000137993;-0.000258234;0.000236981;0.000334456;-0.00279801;0;0.0190756;-0.0101511;2.38193
30000;31;25.766;0.00161528;6.26945e-05;-2.16744;25.6682;0.575716;-0.0109857;0.000554275;0.00635858;-0.029122;0.00866374;-0.00712694;0.0312081;-6.86535;5.65446e-05;0.000194659;0.000568252;0.000633884;-9.08764e-06;0.000321486;-0.0995063;-10.0496;0.000425651;0.000428648;;;100.153;145.153;-0.00206913;5.65194e-05;0.00068685;-0.00029728;0.000568035;-0.00028292;-0.00200801;0;0.013019;-0.0406351;0.0108666;-0.00489539;0.0423469;-6.28691;-5.29996e-05;-0.000149401;0.000106045;0.000195769;-0.000142724;0.000169246;0.499785;2.00086;0.000196227;0.000225662;1.37166;0.729042;160.508;25.5084;0.00216235;-5.30295e-05;-1.23545e-05;-0.000286425;0.000106056;-0.00111909;-0.000902368;0;0.0171968;-0.0100431;2.38863
31000;32;25.7672;0.00282976;0.000109832;-2.16841;25.6693;0.576597;-0.0119614;0.00167121;0.00723944;-0.0302636;0.0105208;-0.00589649;0.0325783;-6.86412;-7.00622e-05;-1.56413e-05;0.000904884;0.000905135;-7.0313e-05;0.000487724;0.0774266;12.9155;0.000628174;0.000650299;12.8729;0.0776824;116.566;161.566;-0.00202937;-7.02061e-05;0.000505899;-0.000536674;0.000904757;-0.000558536;-0.00114229;0;0.0145977;-0.0426384;0.012663;-0.00411819;0.0446693;-6.28613;-7.56399e-05;-0.000198785;0.000113723;0.000239223;-0.000201141;0.000220182;0.665126;1.50348;0.000254561;0.000293576;1.18933;0.840806;165.822;30.8225;0.00153481;-7.5787e-05;0.00018031;-0.000577809;0.000113726;-0.00125818;-0.00223233;0;0.0183782;-0.00996429;2.39613
32000;33;25.7668;0.00241987;9.39229e-05;-2.16823;25.6689;0.577045;-0.0117851;0.00126457;0.00768743;-0.0309621;0.0117906;-0.00633846;0.033732;-6.86456;-2.7581e-05;0.000220969;0.000813553;0.000868069;-8.20969e-05;0.000475083;0.0339019;29.4969;0.000607929;0.000633444;10.5737;0.0945741;103.281;148.281;-0.0021454;-2.76096e-05;0.000768099;-0.000325702;0.000813283;-0.00107723;-0.00221386;0;0.0140957;-0.0437126;0.0137079;-0.0029243;0.0459048;-6.28494;2.47189e-06;-0.000202484;0.000211706;0.000335003;-0.000120825;0.000227914;;;0.000272684;0.000303885;2.77264;0.360667;159.948;24.9481;0.00185248;2.26451e-06;0.000270228;-0.000675098;0.00021169;-0.00228465;-0.000797887;0;0.0176505;-0.00985572;2.40245
33000;34;25.7676;0.0031932;0.000123938;-2.16815;25.6697;0.57583;-0.0117018;0.00207517;0.00647265;-0.0308379;0.0137891;-0.0099528;0.0352161;-6.86818;3.43441e-05;0.000114623;0.000722369;0.000740962;1.57508e-05;0.000362606;-0.0475438;-21.0333;0.000488809;0.000483474;-47.0429;-0.0212572;109.44;154.44;-0.00191642;3.42378e-05;0.000704845;-0.000475194;0.000722127;-0.000243933;-0.00303985;0;0.0139977;-0.0436129;0.015419;-0.00641912;0.0467016;-6.28843;-1.68765e-05;-0.000161962;2.30028e-05;0.000166248;-0.000160122;0.000163185;0.733674;1.363;0.000188441;0.00021758;1.03826;0.96315;176.261;41.2608;0.00177263;-1.70164e-05;0.000229191;-0.0005531;2.29896e-05;-0.00246666;-0.00176245;0;0.0180805;-0.00947463;2.41013
34000;35;25.7666;0.002191;8.50398e-05;-2.16813;25.6687;0.575799;-0.0116764;0.00107199;0.00644135;-0.0277644;0.0163895;-0.0163672;0.0361575;-6.87459;7.53336e-05;0.000306942;0.00105583;0.00114399;-1.28267e-05;0.000578409;-0.07135;-14.0154;0.000766972;0.000771212;89.1882;0.0112122;96.3285;141.328;-0.00180131;7.53487e-05;0.000867523;-0.000253091;0.0010555;-0.000922659;-0.00188931;0;0.0137727;-0.040724;0.0183059;-0.0120988;0.0462593;-6.29411;-4.53817e-05;-9.85332e-05;1.49918e-05;8.78586e-05;-0.000118248;0.000103054;3.02709;0.33035;0.000119426;0.000137405;0.743;1.34589;172.631;37.6314;0.00224599;-4.549e-05;0.000278721;-0.000475765;1.49578e-05;-0.00221094;-0.000940155;0;0.0180971;-0.00909774;2.41758
35000;36;25.7672;0.00280863;0.000109012;-2.168;25.6693;0.57825;-0.0115477;0.00164774;0.00889268;-0.0280089;0.0153865;-0.00621127;0.0325549;-6.86444;-3.31049e-05;9.53527e-05;0.000500208;0.000516744;-4.96406e-05;0.000283192;0.0661822;15.1098;0.000362179;0.00037759;10.4097;0.0960642;113.615;158.615;-0.0014748;-3.32028e-05;0.000643685;-0.000452688;0.000500006;-0.00135119;-0.00170093;0;0.0143924;-0.0410087;0.0172331;-0.00121914;0.0444992;-6.28323;-9.28888e-05;-8.63249e-05;8.74079e-05;0.000122074;-0.000127555;0.000124815;1.0627;0.940995;0.000144135;0.00016642;0.957031;1.0449;157.05;22.0503;0.00224103;-9.30252e-05;0.000356761;-0.000529331;8.7348e-05;-0.00268477;-0.00168192;0;0.0203459;-0.0093794;2.42518
36000;37;25.7661;0.00167962;6.51917e-05;-2.1668;25.6682;0.579763;-0.0103536;0.000581152;0.0104049;-0.0268475;0.0156681;-0.00186704;0.031141;-6.86009;-0.0001042;0.00014305;0.00058907;0.000617427;-0.000132557;0.000374992;0.176888;5.65328;0.000462184;0.00049999;4.65783;0.214692;110.757;155.757;-0.00196394;-0.000104252;0.000639315;-0.000352871;0.000588876;-7.59216e-05;-0.00130086;0;0.013038;-0.0396532;0.0183915;0.00232142;0.0437723;-6.27969;-0.000123368;-0.000197319;8.08529e-05;0.000200916;-0.000243431;0.000222174;1.52583;0.655381;0.000256935;0.000296232;0.825352;1.2116;168.416;33.4156;0.00225399;-0.000123467;9.21312e-05;-0.000486709;8.08681e-05;-0.00317549;-0.00274158;0;0.0196008;-0.00900836;2.43145
37000;38;25.7654;0.00100714;3.90905e-05;-2.16729;25.6676;0.577231;-0.0108444;-7.82721e-05;0.00787344;-0.0268467;0.0194951;-0.00758805;0.034035;-6.86581;4.748e-05;0.000205566;0.000422768;0.000513454;-4.3206e-05;0.00027833;-0.112307;-8.90414;0.000357576;0.000371107;11.8839;0.0841477;100.012;145.012;-0.00208338;4.7434e-05;0.000777612;-0.000366266;0.000422487;-0.000134456;-0.00208525;0;0.0158835;-0.0399521;0.0216948;-0.00183488;0.0454994;-6.28385;-0.000161129;-0.000153385;-2.77683e-05;7.28032e-05;-0.000261701;0.000167252;-5.80264;-0.172335;0.000203131;0.000223003;0.278192;3.59463;176.316;41.3163;0.0026437;-0.000161233;0.000173037;-0.000479763;-2.77715e-05;-0.00376322;-0.00199138;0;0.0198143;-0.00850243;2.43825
38000;39;25.7663;0.00189021;7.33655e-05;-2.16695;25.6684;0.580489;-0.0104969;0.000764031;0.0111315;-0.0244112;0.020146;-0.00274127;0.0317692;-6.86097;-0.000100522;-3.97298e-06;0.000504573;0.000504599;-0.000100548;0.000302574;0.199223;5.01951;0.000374443;0.000403431;5.01847;0.199264;123.531;168.531;-0.00187306;-0.00010063;0.000456944;-0.000464612;0.000504468;-0.000177414;-0.00163857;0;0.0141372;-0.0371911;0.0225467;0.00324653;0.0436127;-6.27877;-0.000214071;-0.000153952;8.70474e-05;0.000151823;-0.000278847;0.000215335;2.45925;0.406629;0.000252227;0.000287113;0.544468;1.83665;165.242;30.242;0.00216979;-0.000214137;8.55704e-05;-0.000393401;8.70556e-05;-0.00295898;-0.00274175;0;0.0216654;-0.00840574;2.44461
39000;40;25.7659;0.00151065;5.86332e-05;-2.16718;25.668;0.581951;-0.0107284;0.00033038;0.0125929;-0.0247215;0.0236622;-0.00674464;0.034879;-6.86497;-6.89237e-05;0.000113906;0.000497598;0.000519642;-9.09681e-05;0.000305305;0.138513;7.21955;0.000380394;0.000407074;5.71236;0.175059;112.645;157.645;-0.00219609;-6.89957e-05;0.000624282;-0.00039618;0.00049741;0.000494199;-0.00311449;0;0.0137164;-0.0378083;0.0261193;0.000957125;0.045963;-6.28106;-0.00015297;-0.000183855;0.00010341;0.000199352;-0.000248913;0.000224133;1.47927;0.676011;0.000259333;0.000298844;0.800891;1.24861;164.903;29.9029;0.00251858;-0.000153071;0.000117598;-0.000485231;0.00010342;-0.00298096;-0.00319434;0;0.020769;-0.0082396;2.44895
40000;41;25.7663;0.00196326;7.62006e-05;-2.16737;25.6684;0.584964;-0.0109187;0.000700147;0.0156065;-0.0239548;0.0256341;-0.00852013;0.0361045;-6.86674;-1.86636e-05;0.000127283;0.000966887;0.000983061;-3.48368e-05;0.000508949;0.0193028;51.806;0.000667289;0.000678598;28.219;0.0354371;108.382;153.382;-0.0023947;-1.8763e-05;0.000718757;-0.000463608;0.000966637;0.000601253;-0.00224131;0;0.0176767;-0.0373647;0.0276807;0.00256199;0.0465715;-6.27945;-0.000173629;-8.86576e-05;3.36691e-06;4.01369e-05;-0.000210399;0.000125268;;;0.000155383;0.000167024;0.190766;5.24203;168.531;33.5314;0.00270394;-0.00017367;0.000121876;-0.000299154;3.36341e-06;-0.00380409;-0.00345425;0;0.0229226;-0.00802428;2.45423
41000;42;25.766;0.00164402;6.38099e-05;-2.16778;25.6679;0.587071;-0.011332;0.000296689;0.0177135;-0.0232412;0.0309373;-0.0130594;0.0408389;-6.87128;5.35895e-05;0.000243597;0.000840622;0.000909917;-1.57056e-05;0.000462811;-0.0637498;-15.6863;0.000611914;0.000617082;57.9358;0.0172605;101.652;146.652;-0.00286949;5.35404e-05;0.000884434;-0.000396737;0.000840261;0.00174898;-0.00218678;0;0.0142676;-0.0364585;0.032665;-0.00110692;0.0489638;-6.28312;-0.000305351;-0.000111924;0.000162655;0.000188044;-0.00033074;0.000259392;1.87729;0.532681;0.000303273;0.000345856;0.568555;1.75884;160.52;25.5202;0.0025953;-0.000305379;3.78059e-05;-0.000261584;0.00016266;-0.00379215;-0.00414993;0;0.0208044;-0.00770936;2.46066
42000;43;25.7656;0.00119064;4.62128e-05;-2.16803;25.6675;0.584383;-0.0115813;-0.00011814;0.0150252;-0.0231677;0.0325154;-0.0149478;0.0426314;-6.87317;5.91388e-05;0.000131028;0.000899174;0.000919138;3.91755e-05;0.000439981;-0.0657701;-15.2045;0.000600126;0.000586641;-23.4621;-0.042622;106.08;151.08;-0.00276345;5.9055e-05;0.000692459;-0.000429931;0.000898943;0.00148232;-0.00287277;0;0.0152607;-0.0368853;0.0345167;-0.00367757;0.0506502;-6.28569;-0.000290441;-6.18937e-05;0.000217532;0.000224965;-0.000297874;0.00026142;1.33516;0.748972;0.000302838;0.000348559;0.755236;1.32409;146.976;11.9757;0.00223795;-0.000290474;0.000139513;-0.000263198;0.000217525;-0.00330562;-0.00367797;0;0.0237635;-0.00791699;2.46843
43000;44;25.7644;4.66365e-05;1.81012e-06;-2.16808;25.6664;0.584103;-0.0116265;-0.00126397;0.0147457;-0.0226435;0.0332969;-0.0128973;0.0422818;-6.87112;-1.91579e-06;0.000290425;0.000825088;0.000916888;-9.37162e-05;0.000505302;;;0.000644772;0.000673736;9.78367;0.102211;101.774;146.774;-0.00255948;-1.94775e-06;0.000966459;-0.000385051;0.000824663;0.00124882;-0.00218473;0;0.013555;-0.036797;0.0355216;0.000982164;0.0511544;-6.28103;-0.000290762;-5.66112e-05;0.000189197;0.000195784;-0.000297349;0.000246566;1.53682;0.650696;0.000286716;0.000328755;0.658434;1.51876;152.485;17.485;0.00243924;-0.000290777;7.10239e-05;-0.000184185;0.000189197;-0.00384877;-0.00315679;0;0.0208597;-0.00719977;2.47565
44000;45;25.766;0.00167815;6.51346e-05;-2.16828;25.6679;0.589382;-0.0118299;0.000235925;0.0200246;-0.0207384;0.0353674;-0.0145284;0.0434972;-6.87275;7.86342e-05;0.000150172;0.000815255;0.000844693;4.91956e-05;0.000397749;-0.0964535;-10.3677;0.000547468;0.000530332;-17.1701;-0.0582408;105.172;150.172;-0.00291105;7.85517e-05;0.000733879;-0.000433105;0.000814997;0.0018;-0.00185591;0;0.0137;-0.034958;0.0377059;-0.00127127;0.0514336;-6.28329;-0.000320252;-6.92249e-05;0.000246912;0.000255239;-0.000328579;0.000291909;1.29703;0.770992;0.000337953;0.000389212;0.776796;1.28734;146.838;11.8379;0.00238523;-0.000320289;0.000139571;-0.000277903;0.000246905;-0.00364073;-0.00371709;0;0.0221637;-0.00713086;2.48367
45000;46;25.7637;-0.000671312;-2.60558e-05;-2.16846;25.6656;0.583418;-0.0120148;-0.00200186;0.0140599;-0.020288;0.0341533;-0.0118759;0.0414619;-6.8701;2.10856e-05;0.000203634;0.000713051;0.000768529;-3.43927e-05;0.000401461;-0.029571;-33.8169;0.000524193;0.000535281;22.3457;0.0447513;104.009;149.009;-0.00234395;2.10281e-05;0.00080328;-0.000395597;0.000712749;0.000899215;-0.00131713;0;0.0158488;-0.0348803;0.0365765;0.000820363;0.0505485;-6.28119;-0.000300881;-6.33326e-05;0.000287691;0.000294429;-0.000307619;0.000301024;1.04585;0.956161;0.00034762;0.000401365;0.957121;1.0448;143.166;8.16639;0.00237366;-0.000300891;2.6715e-05;-0.000153327;0.000287693;-0.00325915;-0.00385766;0;0.0230702;-0.00709979;2.48998
46000;47;25.7646;0.000236212;9.16815e-06;-2.16912;25.6665;0.582693;-0.0126687;-0.00112967;0.0133353;-0.0199735;0.0356021;-0.0167588;0.0441283;-6.87498;8.73353e-05;0.000130555;0.000469493;0.000509835;4.69932e-05;0.000231421;-0.186021;-5.37575;0.000325359;0.000308561;-10.8491;-0.0921734;106.119;151.119;-0.00286854;8.72124e-05;0.000774106;-0.00051275;0.000469202;0.00147347;-0.00140084;0;0.0145186;-0.0347437;0.0382489;-0.00592413;0.0520115;-6.28794;-0.000283564;-0.000136967;0.000250478;0.000283557;-0.000316643;0.0003001;1.13209;0.88332;0.000346701;0.000400134;0.89551;1.11668;150.999;15.999;0.00243698;-0.00028361;5.81204e-05;-0.000331951;0.000250486;-0.00364556;-0.00347937;0;0.0207107;-0.00699104;2.49745
47000;48;25.7651;0.000710443;2.75746e-05;-2.16933;25.667;0.58346;-0.0128839;-0.000689239;0.0141025;-0.019893;0.0374207;-0.0200382;0.0468782;-6.87826;9.52766e-06;0.000297696;0.000980597;0.00106459;-7.44697e-05;0.000569532;;;0.00073581;0.000759376;14.2957;0.0699512;102.177;147.177;-0.00285984;9.47823e-06;0.00102911;-0.000433007;0.000980112;0.000820455;-0.0025691;0;0.0175891;-0.0353626;0.0394891;-0.00904001;0.0537739;-6.29105;-0.000303817;-0.000101178;0.000358231;0.000373349;-0.000318935;0.000346142;0.848104;1.1791;0.000400101;0.000461522;1.17061;0.854255;137.913;2.9131;0.00221661;-0.000303841;3.67074e-05;-0.000238972;0.000358236;-0.00417414;-0.00323269;0;0.0262463;-0.00693218;2.50443
48000;49;25.7664;0.00201754;7.83075e-05;-2.17048;25.6682;0.58445;-0.0140316;0.00050332;0.015092;-0.0190624;0.0384299;-0.02598;0.0501517;-6.8842;9.06733e-05;0.000322495;0.000946547;0.00105446;-1.72377e-05;0.000535848;-0.0957937;-10.4391;0.000708788;0.000714464;61.1717;0.0163474;96.8956;141.896;-0.00315873;9.06761e-05;0.000959064;-0.000313531;0.00094614;0.00125981;-0.00246601;0;0.0152927;-0.0352831;0.0398901;-0.0145969;0.0552195;-6.29661;-0.00023859;-0.000114024;0.000281386;0.000305291;-0.000262496;0.000283893;0.847913;1.17937;0.000328122;0.000378524;1.16303;0.859822;144.047;9.04698;0.00237152;-0.000238639;0.00010502;-0.000332954;0.000281387;-0.00368777;-0.00308065;0;0.0252856;-0.00687443;2.51248
49000;50;25.7652;0.00081307;3.15579e-05;-2.17072;25.667;0.5815;-0.014273;-0.000659166;0.012142;-0.0209145;0.0358884;-0.0207999;0.0464546;-6.87902;0.000103155;0.000147769;0.00083075;0.000859616;7.42894e-05;0.000392663;-0.124171;-8.05343;0.000549989;0.000523551;-11.5712;-0.0864216;105.319;150.319;-0.00239302;0.000103057;0.000762488;-0.000466504;0.000830471;0.000925433;-0.00219315;0;0.0175505;-0.0373237;0.0386807;-0.0118098;0.0550339;-6.29382;-0.000357291;-4.48847e-05;0.000226546;0.000229977;-0.000360721;0.000295349;1.57712;0.634067;0.000343813;0.000393799;0.637548;1.56851;147.08;12.0798;0.00197896;-0.000357329;0.000192101;-0.000281732;0.000226529;-0.00310935;-0.00211152;0;0.0235288;-0.00681703;2.51567
50000;51;25.7658;0.00147187;5.71281e-05;-2.17151;25.6676;0.581697;-0.0150563;-6.85741e-05;0.012339;-0.0206487;0.0367893;-0.0240958;0.0485842;-6.88232;-3.43548e-05;0.000209761;0.000951221;0.000994007;-7.7141e-05;0.000535574;0.0361165;27.6882;0.000689824;0.000714099;12.8856;0.0776061;105.133;150.133;-0.00287054;-3.44152e-05;0.000826188;-0.000406059;0.000950902;0.00144578;-0.00159257;0;0.0140499;-0.037971;0.0394216;-0.0178755;0.0575795;-6.29989;-0.000324514;-2.28211e-05;0.00011869;0.000119862;-0.000325686;0.000222774;2.73413;0.365746;0.00026623;0.000297032;0.368029;2.71718;144.87;9.87026;0.00202269;-0.000324611;0.000393949;-0.000439407;0.000118613;-0.00379306;-0.00380706;0;0.0196305;-0.00684116;2.52053
51000;52;25.7657;0.00130137;5.05103e-05;-2.17076;25.6676;0.576814;-0.0143068;-6.61539e-05;0.0074568;-0.0201757;0.0365443;-0.027008;0.049719;-6.88523;0.000133173;0.00042444;0.00100388;0.00117654;-3.9488e-05;0.000608014;-0.132659;-7.53813;0.000797848;0.000810685;29.7949;0.0335628;93.9931;138.993;-0.0027957;0.000133215;0.00116003;-0.000310506;0.0010033;0.000913914;-0.00236265;0;0.013621;-0.0378979;0.0386859;-0.0226963;0.0587194;-6.30471;-0.000293803;-7.51853e-05;0.000276519;0.000286264;-0.000303548;0.000294906;1.0625;0.941173;0.000340577;0.000393208;0.943062;1.06038;143.054;8.05415;0.00202998;-0.000293897;0.000292054;-0.000442215;0.000276479;-0.00348241;-0.00296677;0;0.0199758;-0.00672108;2.52689
52000;53;25.7659;0.00154023;5.97813e-05;-2.17193;25.6677;0.57884;-0.0154802;2.87566e-05;0.00948273;-0.0208512;0.0337223;-0.0228337;0.0457531;-6.88106;0.000139408;0.000275719;0.000565815;0.000701147;4.07652e-06;0.000348535;-0.246384;-4.0587;0.000466078;0.000464713;;;95.3055;140.306;-0.00216665;0.00013936;0.000965564;-0.000413832;0.000565387;0.000470014;-0.000892971;0;0.0139931;-0.0388526;0.0368118;-0.0207666;0.0574098;-6.30278;-0.000198056;-8.32095e-05;0.000216116;0.000232208;-0.000214148;0.000223178;0.916435;1.09119;0.000257774;0.000297571;1.08433;0.922226;145.282;10.2822;0.00179926;-0.000198166;0.0003102;-0.000476456;0.000216071;-0.00294498;-0.0030795;0;0.0199012;-0.00657887;2.53422
53000;54;25.7656;0.00123787;4.80459e-05;-2.17303;25.6674;0.573373;-0.0165832;-0.000245408;0.00401584;-0.0221357;0.0349755;-0.0304981;0.0514142;-6.88872;7.39023e-05;0.000212276;0.000515919;0.000601352;-1.15301e-05;0.000306441;-0.143244;-6.9811;0.000404799;0.000408588;52.1551;0.0191736;101.843;146.843;-0.00245713;7.37991e-05;0.00092637;-0.000501502;0.000515513;0.000755781;-0.00136121;0;0.0172053;-0.0407356;0.0381538;-0.0327993;0.0647372;-6.31481;-0.000126553;-3.32988e-05;0.00022481;0.000227937;-0.000129681;0.000178809;0.562936;1.7764;0.000209053;0.000238413;1.75767;0.568934;137.863;2.86258;0.00142959;-0.00012673;0.000529335;-0.000595735;0.00022467;-0.00229819;-0.00235353;0;0.0254624;-0.00655201;2.54189
54000;55;25.7669;0.0025549;9.91641e-05;-2.17303;25.6687;0.574549;-0.0165771;0.00105089;0.00519133;-0.0210171;0.0361656;-0.0401808;0.0580014;-6.8984;0.000106987;0.00023692;0.000391421;0.000525532;-2.71229e-05;0.000276327;-0.27333;-3.65858;0.000359736;0.000368436;19.376;0.0516104;95.6059;140.606;-0.00262438;0.000106911;0.000931441;-0.000457404;0.000391016;0.000843429;-0.00159886;0;0.0213148;-0.0406206;0.038889;-0.0423518;0.0703993;-6.32437;-6.00871e-05;-0.000114955;0.000195495;0.000239592;-0.000104183;0.000171887;0.307358;3.25353;0.000203546;0.000229183;2.29971;0.434838;152.962;17.9621;0.00120661;-6.03661e-05;0.00052601;-0.000755756;0.000195363;-0.00178448;-0.00172545;0;0.0225128;-0.00639482;2.54884
55000;56;25.766;0.00162082;6.29092e-05;-2.17355;25.6679;0.568617;-0.0171025;0.000200843;-0.000740678;-0.0219982;0.0317011;-0.0309062;0.0494375;-6.88913;5.37062e-05;0.000411967;0.000990816;0.00114617;-0.000101646;0.000623907;-0.054204;-18.4488;0.00080015;0.000831877;11.276;0.0886836;95.9782;140.978;-0.00248549;5.37494e-05;0.00111313;-0.000288539;0.000990282;0.000183105;-0.0022834;0;0.0178863;-0.0417637;0.0348966;-0.0368727;0.0657387;-6.31889;-3.87711e-05;-0.00015049;7.71296e-05;0.000180442;-0.000142083;0.000161263;0.502674;1.98936;0.000186648;0.000215017;1.26997;0.787419;168.692;33.6917;0.00123331;-3.91347e-05;0.00056502;-0.000865918;7.69814e-05;-0.00145443;-0.0017575;0;0.0219664;-0.00639829;2.55604
56000;57;25.7674;0.00303482;0.000117791;-2.17377;25.6692;0.569746;-0.0173198;0.00157681;0.000388523;-0.0221116;0.0345307;-0.0340267;0.0532833;-6.89225;4.44741e-05;0.000367287;0.00115666;0.00126701;-6.58703e-05;0.000666439;-0.0384504;-26.0075;0.000867463;0.000888586;19.2349;0.0519889;98.3124;143.312;-0.00256661;4.44802e-05;0.0010859;-0.000350526;0.00115614;0.00148307;-0.00186677;0;0.0301549;-0.0423973;0.0368042;-0.0394234;0.0686024;-6.32144;3.71542e-05;-0.000158651;0.000144774;0.000258492;-7.65638e-05;0.000167528;-0.256636;-3.89657;0.000202727;0.00022337;3.37616;0.296194;167.51;32.5101;0.000802709;3.66736e-05;0.000675991;-0.000993203;0.000144558;-0.0013426;-0.00156145;0;0.0265169;-0.00585873;2.56332
57000;58;25.7639;-0.00045049;-1.7485e-05;-2.17491;25.6658;0.56203;-0.0184616;-0.00184844;-0.00732741;-0.0231547;0.0325175;-0.0357972;0.0536187;-6.89402;0.00017147;0.000512223;0.000610978;0.000948596;-0.000166149;0.000557372;-0.280649;-3.56317;0.000694438;0.000743163;5.70933;0.175152;87.8925;132.893;-0.00267081;0.000171572;0.00126684;-0.000242067;0.000610307;0.0010114;-0.00205199;0;0.0136689;-0.0441694;0.037422;-0.0474482;0.0748511;-6.32946;-4.94575e-06;-8.80685e-05;9.09305e-05;0.000143263;-5.72779e-05;0.00010027;;;0.000119277;0.000133694;2.50119;0.39981;164.316;29.3164;0.000333852;-5.41529e-06;0.000797003;-0.000973055;9.06168e-05;-0.000132873;-0.00154642;0;0.0203609;-0.00522723;2.57108
58000;59;25.7642;-0.000174058;-6.75577e-06;-2.17476;25.6661;0.561556;-0.0183132;-0.00154799;-0.0078021;-0.0236541;0.0313016;-0.0345625;0.0522865;-6.89279;-9.07516e-06;0.000194088;0.000936972;0.000975243;-4.73455e-05;0.000511294;;;0.000666504;0.000681725;20.5984;0.0485474;108.853;153.853;-0.00300985;-9.24269e-06;0.000999457;-0.00061052;0.000936492;0.00164067;-0.0017919;0;0.0139399;-0.0450825;0.0364332;-0.0489301;0.0758549;-6.33094;-4.28184e-06;-0.000138603;0.000181405;0.000255387;-7.82638e-05;0.000166826;;;0.000201478;0.000222434;3.26316;0.306451;160.294;25.2942;0.000511112;-4.82012e-06;0.00076975;-0.00104679;0.000181119;-0.000812351;-0.00280721;0;0.0276192;-0.00502252;2.57808
59000;60;25.7644;3.58753e-05;1.39244e-06;-2.17537;25.6664;0.55652;-0.0189158;-0.00127862;-0.0128381;-0.0244572;0.0300875;-0.0346899;0.0520269;-6.89291;5.13589e-05;0.000247261;0.000856011;0.000925918;-1.85483e-05;0.000472233;-0.0599979;-16.6672;0.000623553;0.000629644;49.9193;0.0200323;104.521;149.521;-0.00242148;5.12332e-05;0.00105423;-0.00055906;0.000855486;0.000227366;-0.00127344;0;0.0159446;-0.0464176;0.0353782;-0.0532125;0.0789796;-6.33523;0.000100774;-0.000188785;0.000115887;0.000297267;-8.06059e-05;0.000188936;-0.869582;-1.14998;0.000229808;0.000251915;3.68791;0.271157;176.004;41.0041;0.000136537;9.99719e-05;0.000902728;-0.00128028;0.000115498;-0.000118565;-0.00158686;0;0.024796;-0.00501137;2.58556
60000;61;25.7653;0.000880513;3.41756e-05;-2.17625;25.6671;0.556589;-0.0198012;-0.000507324;-0.0127686;-0.0249822;0.0288428;-0.0383649;0.0541099;-6.89659;-0.000102103;0.000239055;0.000761405;0.000823168;-0.000163866;0.000493517;0.134098;7.45726;0.000610772;0.000658022;5.02344;0.199067;109.722;154.722;-0.00255635;-0.000102251;0.00107392;-0.000595088;0.000760857;0.000611378;-0.000844147;0;0.0136975;-0.0472892;0.0339198;-0.0590485;0.0829069;-6.34106;9.85874e-05;-0.000182945;7.15531e-05;0.000268514;-9.83738e-05;0.000183444;-1.37782;-0.725783;0.000219284;0.000244592;2.72953;0.366363;0.138012;45.138;0.000254297;9.7587e-05;0.00106045;-0.00142637;7.10076e-05;-0.0014279;-0.000469432;0;0.0194753;-0.00429232;2.59211
61000;62;25.764;-0.000339452;-1.31753e-05;-2.17652;25.666;0.55031;-0.0200733;-0.00161962;-0.0190481;-0.025033;0.0293322;-0.0415961;0.0567209;-6.89982;0.000122254;8.80847e-05;0.000800676;0.000811926;0.000111004;0.000350461;-0.152688;-6.54929;0.000508339;0.000467282;-7.3144;-0.136717;111.217;156.217;-0.00229211;0.000122064;0.000799408;-0.000622756;0.000800361;0.00150832;-0.000559419;0;0.020126;-0.0479068;0.0343027;-0.0650335;0.0877559;-6.34705;0.000121904;-0.00021146;0.0001381;0.000341617;-8.16133e-05;0.000211615;-0.882719;-1.13286;0.000259267;0.000282153;4.1858;0.238903;175.963;40.9633;0.000336027;0.000120828;0.00105879;-0.00148169;0.000137562;-0.000796224;-0.000114066;0;0.0268595;-0.00426508;2.59756
62000;63;25.7636;-0.000804666;-3.12317e-05;-2.17843;25.6655;0.548102;-0.021983;-0.00220139;-0.0212555;-0.0256245;0.0284851;-0.0455924;0.059554;-6.90382;5.25469e-05;0.000209474;0.0005614;0.000636537;-2.25899e-05;0.000329563;-0.0935997;-10.6838;0.000432085;0.000439418;28.1779;0.0354887;104.517;149.517;-0.00261759;5.2406e-05;0.000989983;-0.000570639;0.000560932;0.00065858;-0.0026393;0;0.0217694;-0.0488386;0.0335557;-0.0732137;0.0941883;-6.35523;0.000181225;-0.000217956;0.000263714;0.000444294;6.4538e-07;0.000221824;-0.687202;-1.45518;0.000295981;0.000295766;;;169.477;34.4772;0.000395285;0.000180208;0.00100703;-0.00144284;0.000263231;-0.00189301;6.48881e-05;0;0.0267932;-0.00388509;2.60217
63000;64;25.7644;4.34678e-05;1.68713e-06;-2.17899;25.6663;0.545982;-0.0225393;-0.00135206;-0.0233752;-0.026762;0.0272371;-0.0496188;0.0626106;-6.90784;-2.75568e-05;6.92555e-05;0.00077276;0.000778709;-3.35056e-05;0.000406107;0.0356602;28.0425;0.000530661;0.000541476;23.2412;0.0430271;118.475;163.475;-0.00268905;-2.78741e-05;0.000938859;-0.000799652;0.000772322;0.000571983;-0.000805596;0;0.0188516;-0.0504605;0.0318515;-0.0783291;0.0984694;-6.36034;0.000244509;-0.000200297;0.000148354;0.000402418;-9.55495e-06;0.000205987;-1.64814;-0.606743;0.00027152;0.000274649;;;2.70861;47.7086;-7.74087e-05;0.000243264;0.00119036;-0.00159108;0.000147666;-0.00135744;-0.000152034;0;0.0233012;-0.00382258;2.60836
64000;65;25.7641;-0.000228472;-8.86775e-06;-2.17944;25.6661;0.542;-0.0229929;-0.00157914;-0.0273581;-0.0268489;0.0259111;-0.052901;0.0647361;-6.91112;5.67852e-05;0.000147075;0.000622431;0.000658387;2.08292e-05;0.000318779;-0.0912313;-10.9612;0.000432149;0.000425039;-31.6088;-0.0316367;110.866;155.866;-0.0028034;5.6516e-05;0.00104307;-0.00074841;0.000621898;0.00120108;-0.00156842;0;0.0159656;-0.0511237;0.0303509;-0.0844727;0.103298;-6.36649;0.000207228;-0.000240598;0.000227726;0.000458294;-2.33393e-05;0.000240816;-0.909989;-1.09891;0.000313598;0.000321089;19.6361;0.0509266;173.855;38.8545;0.000110367;0.000206136;0.00101654;-0.00149771;0.000227238;-0.00187044;-0.000993334;0;0.0211843;-0.00330806;2.61561
65000;66;25.7647;0.000324572;1.25977e-05;-2.18041;25.6666;0.541681;-0.0239596;-0.00109937;-0.0276761;-0.0264701;0.0226963;-0.0502342;0.0611495;-6.90846;8.14255e-05;8.9213e-05;0.000894523;0.000904196;7.17521e-05;0.000416222;-0.0910267;-10.9858;0.00058036;0.000554963;-12.6017;-0.0793546;114.232;159.232;-0.00248682;8.11204e-05;0.000965297;-0.000786159;0.000894061;-0.00115259;-0.00113531;0;0.0159395;-0.05115;0.0278913;-0.0845036;0.102641;-6.36652;0.00035621;-0.000269942;0.000333571;0.00061507;7.47106e-05;0.00027018;-1.06787;-0.936445;0.000387551;0.000360239;-8.2327;-0.121467;173.93;38.9301;-0.00086569;0.000354961;0.0010636;-0.00160351;0.000333042;0.000109962;-1.7896e-05;0;0.0205371;-0.00336764;2.62214
66000;67;25.7651;0.000717203;2.7837e-05;-2.18157;25.6668;0.541643;-0.0251203;-0.000803051;-0.0277146;-0.0270973;0.0221033;-0.0527699;0.0633047;-6.91099;3.30501e-06;0.000149204;0.000897975;0.000922202;-2.09218e-05;0.000471562;;;0.000621892;0.000628749;44.0784;0.0226868;113.223;158.223;-0.0034974;2.98533e-06;0.00111267;-0.000813401;0.000897367;0.000856696;-0.0013505;0;0.0138868;-0.0521966;0.0271327;-0.0897804;0.107337;-6.3718;0.000230142;-0.000297707;0.000381274;0.000612856;-1.43926e-06;0.000307148;-0.603613;-1.65669;0.000409051;0.00040953;;;165.596;30.596;-0.000246154;0.000229096;0.000881943;-0.00147718;0.00038093;-0.00205143;-0.000481397;0;0.0194799;-0.00330056;2.63002
67000;68;25.7623;-0.00203965;-7.91655e-05;-2.18143;25.6643;0.531459;-0.0249824;-0.00334582;-0.0378988;-0.0283614;0.0209838;-0.0536796;0.0642354;-6.9119;0.000101212;-6.95946e-05;0.00106879;0.00107377;9.62322e-05;0.000488769;-0.0946979;-10.5599;0.000686023;0.000651692;-11.1581;-0.0896208;124.402;169.402;-0.00328072;0.000100599;0.000971443;-0.00110963;0.00106832;0.00134947;-0.000692626;0;0.0131893;-0.0538697;0.0258228;-0.0929325;0.110477;-6.37495;7.79728e-05;-0.000226058;0.000416423;0.000529579;-3.51834e-05;0.000282381;-0.187244;-5.34062;0.000365346;0.000376508;15.052;0.0664366;155.363;20.3635;9.99734e-05;7.70896e-05;0.000896474;-0.00134821;0.000416047;-0.00320485;0.000483743;0;0.0205616;-0.00324061;2.63668
68000;69;25.763;-0.00139121;-5.39976e-05;-2.18196;25.6649;0.530929;-0.0255109;-0.00272887;-0.0384286;-0.0289836;0.0202323;-0.0557494;0.0660105;-6.91397;0.000184366;0.000211941;0.000687942;0.000765268;0.00010704;0.000329114;-0.267997;-3.73139;0.000478506;0.000438819;-7.14938;-0.139872;103.757;148.757;-0.00277125;0.000184029;0.00127235;-0.000847933;0.000687155;-0.000446764;0.000361758;0;0.0140697;-0.0550406;0.0248861;-0.0972435;0.114477;-6.37926;5.7475e-05;-0.000159651;0.000491464;0.000543867;5.07204e-06;0.000269397;-0.116947;-8.55091;0.000360899;0.000359197;;;145.731;10.7313;0.000459879;5.67742e-05;0.000875808;-0.00119466;0.000491093;-0.00479693;-0.00118817;0;0.0209165;-0.00321978;2.64414
69000;70;25.7625;-0.00184924;-7.17753e-05;-2.18247;25.6644;0.529559;-0.0260216;-0.00320376;-0.0397989;-0.029412;0.0188902;-0.0596626;0.0691486;-6.91789;5.63118e-05;5.75359e-05;0.00110626;0.0011094;5.31683e-05;0.000528116;-0.050903;-19.6452;0.00072253;0.000704155;-20.8658;-0.0479252;116.638;161.638;-0.00334902;5.58798e-05;0.00104746;-0.000931345;0.00110571;0.000180924;-0.000358211;0;0.0132729;-0.0557821;0.0234842;-0.102372;0.118925;-6.38439;-2.25945e-05;-0.000184541;0.000567428;0.000620393;-7.55587e-05;0.000347976;0.0398192;25.1135;0.000440945;0.000463968;8.21073;0.121792;143.751;8.75117;0.000726384;-2.3344e-05;0.000869651;-0.00123811;0.000567067;-0.00421602;0.000721096;0;0.0219164;-0.00318523;2.65145
70000;71;25.7614;-0.00301612;-0.000117066;-2.18119;25.6634;0.526481;-0.0247439;-0.00420316;-0.0428762;-0.0312184;0.0164332;-0.0599142;0.0695295;-6.91814;8.90317e-05;-5.86789e-06;0.00120167;0.0012017;8.90008e-05;0.00055635;-0.07409;-13.4971;0.000773176;0.0007418;-13.5021;-0.0740624;120.647;165.647;-0.00381882;8.83628e-05;0.00114624;-0.0011567;0.00120101;0.00198;-0.00104889;0;0.0209885;-0.057639;0.0215073;-0.10558;0.122196;-6.38759;-8.20597e-06;-0.000139906;0.000425431;0.000466651;-4.9426e-05;0.000258039;;;0.000328817;0.000344051;9.44142;0.105916;144.598;9.59838;0.000835243;-8.69755e-06;0.000721926;-0.00100136;0.000425181;-0.00412383;-0.000591658;0;0.0273201;-0.00317097;2.65881
71000;72;25.7612;-0.00314987;-0.000122257;-2.18224;25.6633;0.522989;-0.0257954;-0.0043554;-0.0463687;-0.0321678;0.0152297;-0.0636637;0.0729368;-6.92189;5.97476e-05;-6.21296e-05;0.000976141;0.000980334;5.55545e-05;0.00046239;-0.061208;-16.3377;0.000635847;0.00061652;-17.6463;-0.056669;126.68;171.68;-0.0036533;5.90206e-05;0.00108421;-0.00120742;0.000975556;0.00176674;0.000393381;0;0.0162662;-0.0589116;0.020209;-0.111137;0.127398;-6.39315;-0.000106705;-0.000159123;0.000480151;0.000520519;-0.000147073;0.000333796;0.222231;4.49982;0.000405038;0.000445062;3.53919;0.282551;142.641;7.64091;0.00116305;-0.00010715;0.000639421;-0.000957199;0.000479959;-0.00371071;-3.2951e-05;0;0.0229025;-0.00281839;2.66473
72000;73;25.762;-0.00233881;-9.07768e-05;-2.18221;25.6641;0.524672;-0.0257576;-0.00357238;-0.0446854;-0.0325172;0.0148641;-0.068626;0.0773811;-6.92685;-3.20081e-06;7.82594e-05;0.000507931;0.000519645;-1.49147e-05;0.00026728;;;0.000351507;0.000356373;34.8412;0.0287016;120.421;165.421;-0.00412607;-3.80149e-06;0.00125598;-0.00109885;0.000507146;0.00226669;0.000686582;0;0.0208169;-0.0596124;0.019532;-0.117658;0.133336;-6.39967;-0.000162996;-0.000126157;0.000415023;0.000441358;-0.00018933;0.000315344;0.392739;2.54622;0.000373693;0.000420459;2.33115;0.428973;141.369;6.36916;0.00154451;-0.000163296;0.000533112;-0.000785045;0.000414889;-0.00435161;-0.000154927;0;0.0278451;-0.0025689;2.66898
73000;74;25.7626;-0.00172193;-6.68338e-05;-2.1821;25.6647;0.526052;-0.0256553;-0.0029727;-0.0433053;-0.0337935;0.0132469;-0.0696388;0.0785305;-6.92786;1.29384e-05;-0.000125707;0.000335974;0.000379128;-3.02151e-05;0.000204671;-0.0385102;-25.9671;0.000263402;0.000272895;12.5476;0.0796965;149.936;14.9361;-0.00394065;1.20089e-05;0.00111822;-0.00136923;0.000335357;0.0015998;0.000908178;0;0.0150163;-0.061056;0.0183484;-0.119909;0.135804;-6.40192;-0.00016233;-8.2033e-05;0.000302055;0.00031612;-0.000176395;0.000246258;0.537419;1.86075;0.000288143;0.000328344;1.79211;0.558;141.429;6.42894;0.00154407;-0.000162563;0.000523512;-0.000687297;0.000301922;-0.00479409;-0.001981;0;0.0259187;-0.00241208;2.67374
74000;75;25.7604;-0.0039886;-0.000154811;-2.18208;25.6626;0.51728;-0.02563;-0.00506754;-0.0520781;-0.0342288;0.0134171;-0.0735178;0.0821979;-6.93174;4.68432e-05;-5.57576e-05;0.000574507;0.000580334;4.10157e-05;0.000269659;-0.0815363;-12.2645;0.000373968;0.000359546;-14.1491;-0.070676;133.283;178.283;-0.00392781;4.61384e-05;0.00107764;-0.00118855;0.000573928;0.00245786;-0.000504278;0;0.0198062;-0.0617914;0.0181055;-0.125788;0.14131;-6.4078;-0.000261077;-0.000110394;0.000400732;0.000418661;-0.000279006;0.000348833;0.651501;1.53492;0.000405479;0.000465111;1.50054;0.666425;141.211;6.2111;0.00193123;-0.00026137;0.000553298;-0.000773647;0.000400585;-0.00372864;-0.002502;0;0.0266172;-0.00206005;2.68028
75000;76;25.7614;-0.00299471;-0.000116235;-2.18238;25.6636;0.51704;-0.0259355;-0.004091;-0.0523181;-0.0349732;0.0128581;-0.0781716;0.0865983;-6.9364;8.43424e-05;-1.15462e-05;0.000691015;0.000691234;8.41227e-05;0.000303556;-0.122056;-8.19297;0.000435499;0.000404741;-8.21698;-0.121699;127.663;172.663;-0.00441037;8.35051e-05;0.0012718;-0.00129412;0.000690207;0.0032895;0.000881003;0;0.0166615;-0.062728;0.0174898;-0.131844;0.147049;-6.41386;-0.000247219;-0.000101162;0.000290656;0.000309053;-0.000265616;0.000287335;0.850554;1.1757;0.000332101;0.000383113;1.16353;0.859451;144.243;9.24261;0.0016732;-0.000247452;0.000487945;-0.000689953;0.000290542;-0.00377603;-0.00348511;0;0.0256539;-0.00149307;2.68794
76000;77;25.7618;-0.00258865;-0.000100474;-2.18238;25.6639;0.518237;-0.0259283;-0.00370694;-0.0511206;-0.035425;0.0127377;-0.0798639;0.0882917;-6.93809;9.37522e-05;-4.92476e-05;3.40294e-05;0.000121484;6.29708e-06;5.75937e-05;-2.75504;-0.362972;7.89743e-05;7.67916e-05;;;14.1884;59.1884;-0.00430899;9.2845e-05;0.00124935;-0.00134792;3.32502e-05;0.003166;0.000785842;0;0.0168324;-0.0634907;0.0176513;-0.135929;0.15106;-6.41794;-0.000274129;-0.00012877;0.000281919;0.000310292;-0.000302502;0.000306397;0.972369;1.02842;0.000353806;0.000408529;1.02575;0.974895;147.185;12.185;0.00199741;-0.000274304;0.000347988;-0.000605264;0.000281866;-0.00427384;-0.00171266;0;0.0254797;-0.000790104;2.69524
77000;78;25.761;-0.00334611;-0.000129874;-2.18264;25.6632;0.514564;-0.0261925;-0.00441585;-0.0547936;-0.0358865;0.0116082;-0.082116;0.0903639;-6.94034;9.78538e-05;-8.03655e-05;5.48573e-05;0.000159547;-6.83579e-06;8.31913e-05;-1.78379;-0.560604;0.000108715;0.000110922;;;5.83302;50.833;-0.00460575;9.68546e-05;0.00125525;-0.00141604;5.40727e-05;0.00402573;0.00101587;0;0.0157227;-0.0640589;0.0165863;-0.139428;0.154334;-6.42144;-0.000209793;-7.90332e-05;0.000163346;0.000179395;-0.000225842;0.000202619;1.28435;0.778604;0.000234476;0.000270158;0.794338;1.25891;147.686;12.686;0.00191869;-0.000209986;0.000468407;-0.00062627;0.000163239;-0.00447665;-0.00245715;0;0.0256891;-0.000182914;2.70289
78000;79;25.7625;-0.00189177;-7.34258e-05;-2.18351;25.6646;0.516222;-0.0270628;-0.00306329;-0.0531353;-0.0354133;0.012953;-0.0906777;0.0982056;-6.9489;7.50339e-05;-0.000132026;0.000207717;0.000289132;-6.381e-06;0.000147756;-0.361232;-2.76831;0.000194916;0.000197009;;;163.63;28.63;-0.00461742;7.39592e-05;0.00120817;-0.00147204;0.000206996;0.00474436;0.000545004;0;0.0201292;-0.0646485;0.0163887;-0.145664;0.160206;-6.42768;-0.000140895;-0.000124181;0.000167483;0.000211272;-0.000184684;0.000197978;0.84125;1.18871;0.000228777;0.00026397;1.14396;0.874153;153.707;18.7075;0.00177691;-0.000141106;0.000413284;-0.000661481;0.000167405;-0.00413756;-0.00241656;0;0.0276082;0.000285729;2.71043
79000;80;25.7618;-0.00256639;-9.96101e-05;-2.18268;25.6641;0.509819;-0.0262325;-0.00354186;-0.0595382;-0.0369295;0.0105552;-0.0901533;0.0979939;-6.94838;9.079e-05;7.2279e-05;-0.000179269;0.000108918;-0.000197397;0.000153158;0.506444;1.97455;0.000179294;0.00020421;0.55177;1.81235;60.0395;105.039;-0.00393678;9.00451e-05;0.00136698;-0.00122277;-0.000180201;0.00321803;0.0017025;0;0.0201332;-0.0655526;0.0150778;-0.150078;0.164463;-6.43209;-0.000197766;-0.0001427;0.000289974;0.000328656;-0.000236448;0.000282552;0.682012;1.46625;0.000327708;0.000376737;1.38997;0.719439;148.409;13.4087;0.00187013;-0.000198158;0.0006124;-0.000897432;0.000289797;-0.00301128;-0.00205393;0;0.0286161;0.000271472;2.71804
80000;81;25.7621;-0.00224198;-8.70187e-05;-2.182;25.6645;0.508026;-0.0255481;-0.00312246;-0.0613316;-0.0378775;0.0112821;-0.0932185;0.101251;-6.95144;0.000221171;0.000149914;-0.000335032;0.000259004;-0.000372865;0.000315934;0.660148;1.51481;0.000366778;0.000421246;0.694632;1.43961;60.4071;105.407;-0.00429614;0.00022053;0.00144117;-0.00114206;-0.000336059;0.00377195;0.0021379;0;0.0197016;-0.0664128;0.0159584;-0.156651;0.170894;-6.43867;-0.000192986;-0.000110095;0.000155411;0.000187286;-0.00022486;0.000206073;1.24177;0.8053;0.000238282;0.000274764;0.832899;1.20063;152.121;17.1209;0.00194337;-0.000193196;0.000437819;-0.000657819;0.000155322;-0.00355978;-0.000973904;0;0.0241618;0.000477281;2.72459
81000;82;25.7638;-0.000574108;-2.2283e-05;-2.18293;25.6661;0.51163;-0.0264852;-0.00159953;-0.0577275;-0.0385292;0.00981729;-0.0954537;0.103404;-6.95368;0.000136272;6.96819e-05;-0.000480545;0.000144046;-0.000488319;0.000316182;0.283579;3.52636;0.000382707;0.000421577;0.294984;3.39001;55.268;100.268;-0.00435077;0.000135578;0.0013193;-0.00118071;-0.000481413;0.00544406;0.00252103;0;0.0160251;-0.06764;0.0136261;-0.157491;0.171942;-6.43951;-0.000178536;-4.80367e-05;6.47717e-05;7.39123e-05;-0.000187676;0.000130794;2.75638;0.362794;0.000155716;0.000174392;0.393829;2.53917;147.682;12.682;0.00161264;-0.000178935;0.000799283;-0.00089515;6.44534e-05;-0.00315886;-0.00299268;0;0.0228208;0.000430855;2.73204
82000;83;25.764;-0.000406206;-1.57662e-05;-2.18259;25.6663;0.50924;-0.0261411;-0.00135419;-0.0601173;-0.0399167;0.0108198;-0.101377;0.109488;-6.9596;0.000142722;-7.85679e-05;-0.000424123;0.000153411;-0.000434812;0.000294111;0.336511;2.97167;0.000352326;0.000392148;0.352821;2.8343;40.1109;85.1109;-0.00449523;0.000141638;0.00131682;-0.00147475;-0.000424988;0.00375571;0.00397689;0;0.0171414;-0.0688411;0.0138456;-0.16509;0.179404;-6.44711;-8.96958e-06;-7.92746e-05;0.000101558;0.00014293;-5.0342e-05;9.66361e-05;;;0.000115775;0.000128848;2.83918;0.352214;160.575;25.5751;0.00147558;-9.24751e-06;0.000591289;-0.000749764;0.000101386;-0.00350022;-0.00245424;0;0.025406;0.000446757;2.73426
83000;84;25.7642;-0.000215607;-8.36841e-06;-2.18227;25.6666;0.504059;-0.0258247;-0.00103369;-0.0652985;-0.0403224;0.00880519;-0.0991265;0.107376;-6.95735;-4.35412e-05;-0.000184782;-0.000530032;1.86844e-05;-0.000592257;0.000305471;-0.0821484;-12.1731;0.000401211;0.000407294;0.0315479;31.6979;31.766;76.766;-0.00454973;-4.49501e-05;0.00131842;-0.00168871;-0.000530884;0.00442792;0.0041389;0;0.014946;-0.0694437;0.0123436;-0.167844;0.182061;-6.44986;-0.000190796;-0.000169037;3.45372e-05;0.000125014;-0.000281273;0.000203143;5.52436;0.181016;0.000240283;0.000270858;0.444459;2.24993;166.123;31.1225;0.00150362;-0.000191203;0.000580568;-0.000918473;3.43829e-05;-0.00357269;-0.000796497;0;0.0214134;0.000649458;2.7428
84000;85;25.765;0.000666363;2.58638e-05;-2.18269;25.6674;0.506262;-0.026239;-0.000226954;-0.0630953;-0.0409001;0.00978636;-0.107393;0.115334;-6.96562;3.98671e-05;-2.69391e-05;-0.000371033;4.16257e-05;-0.000372792;0.000207209;0.107449;9.30676;0.000263501;0.000276278;0.111659;8.95581;44.543;89.543;-0.00490325;3.88034e-05;0.00140438;-0.00145884;-0.000372019;0.0051939;0.00409862;0;0.0146734;-0.0702425;0.0124858;-0.1749;0.188892;-6.45691;-0.000178023;-0.000168889;-2.94407e-05;8.07748e-05;-0.000288239;0.000184507;-6.04685;-0.165375;0.000223993;0.000246009;0.280236;3.56842;171.797;36.7966;0.00138754;-0.000178481;0.000634205;-0.000971864;-2.96275e-05;-0.00375712;-0.00117921;0;0.021931;0.000596087;2.74781
85000;86;25.7655;0.00108209;4.19996e-05;-2.18284;25.6679;0.504024;-0.0263917;0.000221412;-0.0653334;-0.0418903;0.00912194;-0.109407;0.117507;-6.96763;1.98091e-05;0.000245612;-0.00110985;7.09001e-05;-0.00116094;0.000615919;0.0178485;56.027;0.000798641;0.000821225;0.0610714;16.3743;67.729;112.729;-0.00417032;1.92298e-05;0.00159379;-0.00110409;-0.00111109;0.00336878;0.00501055;0;0.0140779;-0.0712988;0.012341;-0.18145;0.195346;-6.46346;-4.47073e-05;-0.000113098;-0.000148187;2.79241e-05;-0.000220818;0.000124371;-0.301696;-3.3146;0.000157348;0.000165828;0.126457;7.9078;15.3583;60.3583;0.000920958;-4.52078e-05;0.000780547;-0.00100684;-0.000148485;-0.00235344;-0.00056005;0;0.0226741;0.000636481;2.75544
86000;87;25.7655;0.00112591;4.37002e-05;-2.1841;25.6679;0.500728;-0.0276505;0.000222818;-0.0686291;-0.0426961;0.0074813;-0.11004;0.11827;-6.96826;1.45496e-05;0.000256847;-0.000387113;0.000139761;-0.000512324;0.000326042;0.0375849;26.6064;0.000396435;0.000434723;0.272798;3.66572;75.0833;120.083;-0.00391644;1.40502e-05;0.00154509;-0.00103191;-0.000388274;0.00387269;0.00387001;0;0.0169674;-0.0725015;0.0103828;-0.183003;0.197115;-6.46502;-9.14676e-05;-0.00010717;-0.000186276;-2.16861e-05;-0.000256058;0.000117186;-0.491033;-2.03652;0.000163955;0.000156248;-0.0846922;-11.8075;15.934;60.934;0.000977681;-9.2057e-05;0.000876469;-0.0010909;-0.000186654;-0.00358034;0.000312681;0;0.022911;0.00102233;2.76143
87000;88;25.7669;0.0025046;9.72119e-05;-2.18357;25.6693;0.49951;-0.027116;0.00167597;-0.0698474;-0.0434063;0.00791674;-0.117192;0.125223;-6.97542;0.000142273;0.000283761;4.06411e-05;0.000379733;-0.000196818;0.000288276;-3.50072;-0.285655;0.00033841;0.000384367;1.92936;0.518308;82.8167;127.817;-0.00385457;0.000141845;0.00153581;-0.000968417;3.9502e-05;0.00308266;0.00528371;0;0.0170776;-0.0733269;0.00998874;-0.191866;0.205644;-6.47388;-7.82592e-06;-0.00016117;-0.000138307;0.000100808;-0.000246941;0.000173874;;;0.000206597;0.000231832;0.408226;2.44962;12.8431;57.8431;0.000338571;-8.65394e-06;0.000974425;-0.00129691;-0.000138769;-0.00135721;0.000180484;0;0.0240172;0.00132044;2.76905
88000;89;25.7669;0.00254806;9.88987e-05;-2.18388;25.6694;0.498097;-0.027432;0.00172018;-0.0712608;-0.0441785;0.00724255;-0.119215;0.127343;-6.97744;8.24894e-05;0.000111864;-0.000274448;0.00011465;-0.000306608;0.000210629;0.300565;3.32706;0.000251489;0.000280839;0.37393;2.6743;63.1051;108.105;-0.00369505;8.17694e-05;0.00142849;-0.00120523;-0.000275462;0.00232824;0.00491564;0;0.0148503;-0.0743715;0.00911789;-0.196136;0.209961;-6.47815;0.000115594;-0.000184783;-7.82318e-05;0.000227336;-0.000189974;0.000208655;1.47758;0.676781;0.000241255;0.000278206;1.19667;0.835652;13.3934;58.3934;0.000150474;0.000114575;0.00106999;-0.00143979;-7.87872e-05;-0.00131917;0.00196116;0;0.019502;0.00150961;2.77661
89000;90;25.7676;0.003192;0.000123892;-2.18363;25.67;0.498354;-0.0271853;0.00238256;-0.0710037;-0.0451349;0.00656126;-0.119858;0.128243;-6.97808;0.000101551;0.000147891;-0.000180857;0.000164823;-0.000244129;0.000204476;0.561498;1.78095;0.000237584;0.000272634;0.675147;1.48116;69.0835;114.083;-0.00377501;0.000100997;0.00135798;-0.00106254;-0.000181768;0.0020321;0.00480128;0;0.0168328;-0.0755468;0.00832424;-0.199276;0.213278;-6.48129;3.6826e-05;-0.000150229;-0.000100701;0.000133281;-0.000197156;0.000165219;0.365697;2.73451;0.000191963;0.000220292;0.676018;1.47925;12.9406;57.9406;-4.9657e-05;3.56669e-05;0.00122933;-0.00152998;-0.000101445;-0.00131759;0.00197202;0;0.0210804;0.0020638;2.78345
90000;91;25.7688;0.00441635;0.000171413;-2.18413;25.6713;0.49572;-0.027679;0.00362056;-0.073638;-0.0454598;0.00708314;-0.125835;0.133982;-6.98406;0.000109841;0.000424711;-0.000130678;0.00043099;-0.000451827;0.000441409;0.840546;1.1897;0.000509742;0.000588545;0.953883;1.04835;82.3197;127.32;-0.00372088;0.000109605;0.00165676;-0.000807638;-0.00013196;0.00237228;0.00506076;0;0.0187252;-0.0763553;0.0084696;-0.207681;0.221434;-6.4897;0.000123524;-0.000125241;-0.000115924;0.00017706;-0.000169461;0.00017326;1.06556;0.938478;0.00020008;0.000231014;1.04484;0.95708;21.7596;66.7596;-0.000506953;0.00012227;0.00133797;-0.00158881;-0.000116812;-0.00118627;0.00304223;0;0.0227845;0.00277682;2.79058
91000;92;25.768;0.00359165;0.000139404;-2.18441;25.6705;0.490579;-0.0279654;0.00286713;-0.0787791;-0.045225;0.00606894;-0.130323;0.13808;-6.98855;0.000122499;0.000289911;-0.000295507;0.00027089;-0.000443898;0.000357394;0.41454;2.41231;0.000416693;0.000476525;0.610254;1.63866;74.1761;119.176;-0.00332279;0.000122141;0.00147468;-0.000895357;-0.000296552;0.00141614;0.00474529;0;0.0142652;-0.0761794;0.00741712;-0.217439;0.230517;-6.49945;0.000242984;-0.000174834;-0.000124831;0.000312826;-0.000194673;0.00025375;1.9465;0.513743;0.00029564;0.000338333;1.60693;0.622305;22.1582;67.1582;-0.000719453;0.000241385;0.00144685;-0.00179712;-0.000125863;-0.000211042;0.00376124;0;0.0222442;0.00333667;2.79824
92000;93;25.768;0.00362154;0.000140564;-2.18593;25.6705;0.485522;-0.0294798;0.00286434;-0.0838355;-0.0470534;0.00478783;-0.127381;0.135878;-6.98561;0.00022343;0.000143353;0.000151803;0.000335375;3.98579e-05;0.000147759;-1.47185;-0.679418;0.000211553;0.000197011;-8.41427;-0.118846;78.5134;123.513;-0.00385598;0.000222886;0.0013399;-0.00105328;0.000150915;0.00229825;0.00437357;0;0.0177039;-0.0785413;0.00555836;-0.217873;0.231664;-6.49989;0.000180791;-0.000146441;-0.000211251;0.000229452;-0.000259912;0.000244682;0.85581;1.16848;0.000282717;0.000326243;0.882806;1.13275;26.8362;71.8362;-0.00142335;0.000178917;0.00164816;-0.00194174;-0.000212599;0.000208043;0.00616595;0;0.0217935;0.00384077;2.80575
93000;94;25.7669;0.00250637;9.72804e-05;-2.18598;25.6695;0.479399;-0.0295323;0.00185556;-0.0899586;-0.0470085;0.00531716;-0.131893;0.14012;-6.99012;-2.50156e-05;0.000326327;-0.000122843;0.000256043;-0.000403901;0.000329972;-0.203639;-4.91064;0.000384193;0.000439963;0.633925;1.57747;87.5186;132.519;-0.00367642;-2.53237e-05;0.00150273;-0.000850197;-0.000123919;0.00260297;0.00551122;0;0.0166026;-0.0788949;0.00579212;-0.225768;0.239227;-6.50778;0.000258747;-0.000188455;-2.25971e-05;0.000353243;-0.000117093;0.000235168;11.4505;0.0873327;0.000282728;0.000313557;3.01677;0.33148;16.449;61.449;-0.00153666;0.000256823;0.0015936;-0.00197101;-2.38491e-05;0.000891794;0.00400506;0;0.0183636;0.00415277;2.81287
94000;95;25.769;0.00467891;0.000181604;-2.18774;25.6715;0.480851;-0.0312895;0.00385949;-0.0885063;-0.0479921;0.00366851;-0.134614;0.14296;-6.99284;9.71391e-05;0.000241412;7.43296e-05;0.000327415;-0.000155947;0.000241681;-1.30687;-0.765187;0.000284862;0.000322241;2.09953;0.476296;86.4027;131.403;-0.00344553;9.68e-05;0.00134101;-0.000858211;7.34596e-05;0.00189054;0.0046745;0;0.0190675;-0.0806057;0.00385367;-0.231106;0.24479;-6.51312;0.000179393;-0.000160668;-4.6629e-05;0.000262814;-0.00013005;0.000196432;3.84723;0.259927;0.000231097;0.00026191;2.02086;0.494838;16.4193;61.4193;-0.00172812;0.000177672;0.00154043;-0.00186215;-4.78027e-05;0.000478086;0.00241266;0;0.0210324;0.00419975;2.81825
95000;96;25.7682;0.00381904;0.00014823;-2.18638;25.6709;0.474222;-0.0299343;0.00323513;-0.0951357;-0.0480434;0.0024309;-0.130064;0.138675;-6.98829;-3.6545e-05;0.000329643;-1.16862e-05;0.000305762;-0.000353993;0.000329877;-3.12718;-0.319777;0.000381248;0.000439836;0.863751;1.15774;91.6533;136.653;-0.00337014;-3.68438e-05;0.00149975;-0.000840432;-1.27565e-05;0.00116107;0.00564527;0;0.0198526;-0.0804515;0.00320435;-0.230808;0.244448;-6.51282;0.000209317;-0.000163125;-6.66851e-05;0.000284984;-0.000142352;0.000213668;3.13888;0.318585;0.000251262;0.000284891;2.00196;0.49951;18.9569;63.9569;-0.00156946;0.000207397;0.00163966;-0.0019664;-6.80161e-05;0.000126263;0.00362752;0;0.0231776;0.00434835;2.82149
96000;97;25.7674;0.00302645;0.000117467;-2.1876;25.6701;0.468941;-0.0311481;0.00243314;-0.100416;-0.0502531;0.00229947;-0.140993;0.149699;-6.99922;0.000108761;0.000338011;0.000337697;0.000580097;-0.000133639;0.000356868;-0.322067;-3.10494;0.000438125;0.000475824;4.34079;0.230373;93.7774;138.777;-0.00286429;0.0001085;0.00147383;-0.000797551;0.000336668;1.67997e-05;0.00452882;0;0.014954;-0.0834623;0.00276136;-0.245148;0.258981;-6.52716;0.000123886;-0.000207739;0.000175686;0.000359133;-5.95613e-05;0.000209347;-0.705155;-1.41813;0.000261546;0.00027913;6.02964;0.165847;173.415;38.4147;-0.000737063;0.000122583;0.00121198;-0.00162738;0.000174973;-0.00243084;0.00143282;0;0.0200771;0.00439367;2.82814
97000;98;25.7676;0.00318508;0.000123623;-2.18751;25.6703;0.46463;-0.0310626;0.00267805;-0.104727;-0.0494785;0.0015653;-0.145111;0.153322;-7.00333;7.1777e-05;0.000342009;0.000416686;0.00062726;-0.000138797;0.000383029;-0.172257;-5.80529;0.000471302;0.000510705;4.51926;0.221275;97.3309;142.331;-0.00336504;7.1515e-05;0.00148504;-0.000800623;0.000415642;0.00146171;0.00437094;0;0.0166599;-0.0829244;0.00106531;-0.253335;0.266564;-6.53535;7.79798e-05;-0.000153675;0.000343598;0.000413901;7.67763e-06;0.000203111;-0.226951;-4.40625;0.00027341;0.000270815;;;154.974;19.9741;-0.000601907;7.69289e-05;0.00115094;-0.00145794;0.000342948;-0.00165091;0.00194242;0;0.0202563;0.00436425;2.83548
98000;99;25.7686;0.00426059;0.000165368;-2.18819;25.6714;0.462541;-0.0317371;0.00373787;-0.106817;-0.0509965;0.00118922;-0.147602;0.156167;-7.00583;5.71531e-05;0.000283585;0.000409514;0.00056719;-0.000100523;0.000333856;-0.139563;-7.1652;0.000415705;0.000445142;5.6424;0.17723;99.9328;144.933;-0.00260381;5.68584e-05;0.00138602;-0.00081846;0.000408594;-0.000903733;0.00452475;0;0.0130988;-0.0849065;-0.000130457;-0.260267;0.273766;-6.54228;5.71468e-05;-0.000141319;0.000356423;0.000412607;9.62798e-07;0.000205822;-0.160334;-6.23697;0.000274751;0.000274429;;;151.683;16.6832;8.69498e-06;5.62876e-05;0.00103625;-0.00131854;0.000355896;-0.0030182;0.00341481;0;0.0219306;0.00442255;2.84198
99000;100;25.77;0.00558945;0.000216945;-2.18928;25.6726;0.461901;-0.0328313;0.00499;-0.107456;-0.0520779;-0.00123679;-0.145324;0.154379;-7.00355;1.74182e-05;0.000474519;0.000703778;0.000946209;-0.000225013;0.000585611;-0.0247495;-40.4048;0.000717667;0.000780815;4.20513;0.237805;98.9634;143.963;-0.00252509;1.73255e-05;0.00159045;-0.000640646;0.000702626;-0.00102661;0.00477859;0;0.0158929;-0.0860694;-0.00255218;-0.260711;0.274563;-6.54273;4.27025e-05;-0.000121526;0.000464737;0.000497229;1.021e-05;0.00024351;-0.0918853;-10.8831;0.000328136;0.000324679;-48.7001;-0.0205339;142.906;7.9065;0.000543028;4.20693e-05;0.00088921;-0.00113184;0.000464349;-0.00334282;0.000261764;0;0.0213799;0.00466675;2.84896
100000;101;25.7676;0.00323413;0.000125527;-2.18895;25.6705;0.453622;-0.032501;0.00280155;-0.115735;-0.0534285;-0.00311881;-0.145808;0.15532;-7.00403;-3.37235e-05;0.000510372;0.000815178;0.00105453;-0.000273078;0.000663806;0.0413695;24.1724;0.000809549;0.000885074;3.86165;0.258957;100.384;145.384;-0.00303642;-3.37902e-05;0.00164921;-0.000627499;0.00081395;-0.000401518;0.00409594;0;0.01304;-0.0876138;-0.00369235;-0.266711;0.280757;-6.54873;-5.21942e-05;-8.95095e-05;0.000441821;0.000457538;-6.79122e-05;0.000262725;0.118134;8.46493;0.000330001;0.0003503;6.73721;0.148429;139.321;4.32133;0.000938172;-5.27615e-05;0.000890347;-0.00106888;0.000441428;-0.00367781;0.000563757;0;0.0227177;0.00487164;2.85578
101000;102;25.7689;0.00455562;0.000176819;-2.18989;25.6717;0.455814;-0.033444;0.0040088;-0.113544;-0.0530356;-0.00287714;-0.152535;0.161518;-7.01076;-6.85582e-06;0.000266703;0.00108694;0.00114851;-6.84215e-05;0.000608463;;;0.000789466;0.000811284;16.7857;0.0595744;109.207;154.207;-0.0031231;-7.19208e-06;0.00139699;-0.000862346;0.001086;-0.000244657;0.0045317;0;0.0138971;-0.0876275;-0.0041541;-0.27331;0.287044;-6.55532;-9.60652e-05;-8.04036e-05;0.000338117;0.000352529;-0.000110476;0.000231502;0.284118;3.51967;0.000279227;0.00030867;3.19099;0.313383;141.552;6.5516;0.00111511;-9.66021e-05;0.000878916;-0.00103931;0.000337735;-0.00387279;0.000313538;0;0.0219327;0.00610302;2.86339
102000;103;25.7686;0.00426915;0.0001657;-2.18904;25.6715;0.450242;-0.0325869;0.00389267;-0.119115;-0.0542111;-0.00372619;-0.15489;0.164145;-7.01311;4.42058e-05;0.00041036;0.000895116;0.00106077;-0.000121446;0.000591107;-0.0493855;-20.2489;0.000750941;0.000788143;8.73448;0.114489;101.847;146.847;-0.00345963;4.40205e-05;0.00155581;-0.000734119;0.000893991;1.0651e-05;0.00456685;0;0.0145479;-0.0889395;-0.00463603;-0.279959;0.293784;-6.56197;-5.85642e-05;-0.000191789;0.00039226;0.00046281;-0.000129114;0.000295962;0.1493;6.69794;0.000359394;0.000394616;3.58449;0.278979;150.2;15.2001;0.00119657;-5.91971e-05;0.000758135;-0.00114128;0.000391991;-0.0030436;9.27324e-05;0;0.024559;0.00658446;2.87009
103000;104;25.7688;0.00439208;0.000170471;-2.18927;25.6717;0.446268;-0.032822;0.0040654;-0.12309;-0.0545168;-0.00383658;-0.160911;0.169939;-7.01913;4.67516e-05;0.000329869;0.00139362;0.00147007;-2.96987e-05;0.000749885;-0.0335469;-29.809;0.000990096;0.000999847;49.4996;0.0202022;107.125;152.125;-0.00344608;4.63674e-05;0.00159811;-0.000936665;0.0013924;0.000413598;0.00475935;0;0.0138165;-0.0889677;-0.00438094;-0.289318;0.30272;-6.57133;-0.000111638;-0.000144357;0.000325126;0.000368526;-0.000155038;0.000261782;0.343368;2.91232;0.000310543;0.000349042;2.37701;0.420697;148.158;13.158;0.0013608;-0.000112126;0.000709789;-0.00099813;0.000324885;-0.00396974;-0.000733392;0;0.0242566;0.00741354;2.87771
104000;105;25.7678;0.00337978;0.000131181;-2.18913;25.6707;0.444773;-0.032676;0.00308767;-0.124584;-0.055636;-0.00636497;-0.157596;0.167249;-7.01582;-2.11014e-06;0.000224817;0.00189255;0.00191886;-2.84212e-05;0.000973642;;;0.00128882;0.00129819;67.5152;0.0148115;109.828;154.828;-0.00323504;-2.61624e-06;0.00148291;-0.0010309;0.00189148;-0.00147092;0.00481491;0;0.013959;-0.0902488;-0.00571301;-0.289465;0.303261;-6.57148;-0.000125136;-0.000130646;0.000333321;0.000367937;-0.000159752;0.000263844;0.375421;2.66368;0.000312465;0.000351793;2.30318;0.434183;146.4;11.4001;0.00161334;-0.000125624;0.000735426;-0.00099632;0.000333059;-0.00373306;0.000337901;0;0.0232528;0.00769209;2.88406
105000;106;25.7676;0.00323944;0.000125733;-2.18961;25.6706;0.443363;-0.0331643;0.00292955;-0.125994;-0.0566722;-0.00778329;-0.158534;0.168539;-7.01676;-4.69714e-05;0.000381798;0.00179652;0.00187247;-0.000122915;0.000997691;0.0261457;38.2472;0.00129123;0.00133025;15.2338;0.0656436;106.343;151.343;-0.00336551;-4.72833e-05;0.00164315;-0.000877231;0.00179525;-0.00052898;0.00519393;0;0.0213256;-0.0916342;-0.00768124;-0.290056;0.304283;-6.57207;-1.34918e-05;-0.000197865;0.00028447;0.00038317;-0.000112192;0.000247681;0.047428;21.0846;0.000299922;0.000330242;3.41531;0.2928;156.08;21.0805;0.00184129;-1.38821e-05;0.000509782;-0.000905302;0.00028436;-0.00406892;0.000931844;0;0.0304888;0.00795529;2.88557
106000;107;25.7678;0.00344051;0.000133537;-2.18923;25.6708;0.441572;-0.0327797;0.00319505;-0.127786;-0.0570702;-0.00807348;-0.165068;0.174842;-7.02329;-0.000119575;4.99998e-05;0.00173932;0.00174066;-0.000120918;0.000930792;0.0687478;14.5459;0.00120278;0.00124106;14.3954;0.0694668;118.024;163.024;-0.00383357;-0.000120426;0.00140851;-0.00130599;0.00173833;8.96673e-05;0.00522381;0;0.0156947;-0.0920223;-0.00753894;-0.302281;0.316068;-6.5843;-3.19892e-05;-0.000172613;0.000235821;0.000320378;-0.000116547;0.000218462;0.13565;7.37191;0.000261249;0.000291283;2.74893;0.363778;157.399;22.3988;0.00176634;-3.24348e-05;0.0006147;-0.000959715;0.000235647;-0.00379647;0.000556058;0;0.0310191;0.00814282;2.89629
107000;108;25.765;0.00065282;2.53381e-05;-2.18953;25.6681;0.437057;-0.0330791;0.000448578;-0.132301;-0.0576798;-0.0119226;-0.162005;0.172379;-7.02023;2.21733e-05;0.000172087;0.00184504;0.00186115;6.06983e-06;0.000927538;-0.0120178;-83.21;0.00123875;0.00123672;;;111.52;156.52;-0.0043126;2.15815e-05;0.00144797;-0.00110148;0.00184401;0.000693637;0.00472431;0;0.0701688;-0.0925527;-0.00881496;-0.301615;0.315619;-6.58363;-0.000123303;-0.000170258;8.71096e-05;0.000182044;-0.000218237;0.000200141;1.4155;0.706466;0.000231417;0.000266854;0.834154;1.19882;164.796;29.7962;0.00176657;-0.000123741;0.000610646;-0.000950998;8.69377e-05;-0.00347544;-0.00108633;0;0.0420815;0.00823805;2.90012
108000;109;25.7659;0.00149024;5.78411e-05;-2.18971;25.669;0.433533;-0.0332637;0.00133316;-0.135824;-0.0567182;-0.0090357;-0.166828;0.176437;-7.02505;-0.000125495;2.72411e-05;0.00170165;0.00170205;-0.000125901;0.000913977;0.073749;13.5595;0.00117891;0.00121864;13.519;0.07397;118.663;163.663;-0.00396244;-0.000126323;0.00134423;-0.00128734;0.00170074;0.000583097;0.00487367;0;0.022018;-0.0917825;-0.00697269;-0.310888;0.324229;-6.5929;-0.000107265;-0.000225024;0.000249793;0.000358507;-0.000215978;0.000287242;0.429414;2.32876;0.000335064;0.00038299;1.65992;0.602438;158.319;23.3193;0.00192662;-0.000107795;0.000604735;-0.00105449;0.000249636;-0.00400153;-1.10534e-05;0;0.0288259;0.00822526;2.90646
109000;110;25.7657;0.00131128;5.0895e-05;-2.19002;25.6688;0.432444;-0.0335733;0.00114547;-0.136913;-0.0578785;-0.00987031;-0.171349;0.181129;-7.02957;-0.000158323;5.32988e-05;0.00160395;0.00160556;-0.000159934;0.000882748;0.0987081;10.1309;0.00112747;0.001177;10.0389;0.0996122;118.149;163.149;-0.00357104;-0.000159027;0.00129652;-0.00118774;0.00160311;-0.000187745;0.00579312;0;0.0155043;-0.093278;-0.00849816;-0.315064;0.328692;-6.59708;-0.000101001;-0.000264155;0.000169994;0.000331375;-0.000262383;0.000296879;0.594146;1.68309;0.000343577;0.000395839;1.26295;0.791799;165.279;30.2792;0.00190886;-0.000101613;0.000609605;-0.00113768;0.000169843;-0.00328556;-0.000111349;0;0.0227988;0.00846122;2.91362
110000;111;25.7648;0.000465769;1.8078e-05;-2.18888;25.6681;0.430891;-0.0324313;0.000420316;-0.138467;-0.0591206;-0.0130439;-0.172867;0.183162;-7.03109;-7.63943e-05;-0.00012631;0.00203982;0.00204733;-8.39067e-05;0.00106562;0.0374515;26.7012;0.0013937;0.00142082;24.4001;0.0409835;120.478;165.478;-0.00394883;-7.74906e-05;0.00123631;-0.00148606;0.00203906;0.000759381;0.00501664;0;0.0256998;-0.0947282;-0.0102437;-0.318119;0.332081;-6.60013;0.000103918;-0.000221191;3.87888e-05;0.000294929;-0.000152222;0.000223576;-2.67908;-0.373262;0.000262509;0.000298101;1.93749;0.516131;1.70803;46.708;0.00188497;0.000103394;0.000605107;-0.00104754;3.86302e-05;-0.00323625;0.000464119;0;0.0224801;0.00864967;2.92136
111000;112;25.7658;0.00143356;5.56412e-05;-2.19025;25.669;0.429257;-0.0338002;0.00130237;-0.140101;-0.0600023;-0.0129956;-0.172507;0.183106;-7.03073;9.38889e-05;8.82154e-05;0.00191481;0.00191907;8.96252e-05;0.000914724;-0.049033;-20.3944;0.00125058;0.00121963;-21.4122;-0.0467024;113.888;158.888;-0.00424514;9.30977e-05;0.00143996;-0.00126107;0.00191378;3.27168e-05;0.00425998;0;0.0156837;-0.0961689;-0.01099;-0.321096;0.335368;-6.60311;-5.33415e-05;-0.000212638;7.43646e-05;0.00023253;-0.000211507;0.000222018;0.717297;1.39412;0.00025646;0.000296024;1.0994;0.90959;171.303;36.3029;0.00143694;-5.39626e-05;0.000709401;-0.00113456;7.41356e-05;-0.00317142;-0.00013649;0;0.0255463;0.00908815;2.92844
112000;113;25.764;-0.000362574;-1.40727e-05;-2.19003;25.6673;0.420826;-0.0335805;-0.000342186;-0.148532;-0.0599219;-0.0135986;-0.171484;0.18216;-7.02971;9.14169e-06;-9.30107e-05;0.00165274;0.00165798;3.89498e-06;0.000827044;;;0.00110403;0.00110272;;;122.688;167.688;-0.0043899;8.06097e-06;0.00128937;-0.00147313;0.00165191;0.000999176;0.0051347;0;0.0275499;-0.0955738;-0.010491;-0.327851;0.341659;-6.60987;9.79999e-06;-0.000147467;-1.21988e-05;0.000146677;-0.000149076;0.000147876;;;0.000170755;0.000197168;0.983909;1.01635;2.15589;47.1559;0.00126721;9.21811e-06;0.000793859;-0.00108881;-1.2503e-05;-0.00245123;0.000391823;0;0.0303355;0.0098752;2.93617
113000;114;25.7651;0.000709997;2.75573e-05;-2.19016;25.6684;0.419006;-0.0337086;0.000753266;-0.150352;-0.0600341;-0.0134877;-0.177925;0.188264;-7.03615;0.000120557;-0.000178092;0.00185674;0.00187482;0.000102477;0.00088617;-0.0649294;-15.4014;0.00121716;0.00118156;-18.295;-0.0546597;122.885;167.885;-0.00479095;0.000119373;0.00119534;-0.00154914;0.00185604;0.00173924;0.00583882;0;0.0145717;-0.0965289;-0.0113095;-0.334019;0.347871;-6.61603;4.12637e-06;-0.000246015;-8.29828e-05;0.000210413;-0.000289269;0.000249841;;;0.000289687;0.000333121;0.727394;1.37477;6.13328;51.1333;0.00140696;3.37907e-06;0.000754933;-0.00124705;-8.32375e-05;-0.00259114;-9.51022e-05;0;0.0230525;0.0107355;2.94369
114000;115;25.7651;0.000709557;2.75403e-05;-2.1911;25.6683;0.41754;-0.0346546;0.000695981;-0.151818;-0.06121;-0.0148656;-0.180455;0.191132;-7.03868;-3.13845e-05;-7.95608e-05;0.00152447;0.00152853;-3.54424e-05;0.000781986;0.0205871;48.574;0.00103104;0.00104265;43.1272;0.0231872;123.762;168.762;-0.00469706;-3.24572e-05;0.00130989;-0.00146685;0.00152362;0.00236795;0.00536559;0;0.0249959;-0.097761;-0.0120644;-0.339235;0.353246;-6.62125;4.71435e-05;-0.000238805;-0.000150132;0.00020688;-0.000309868;0.000258374;0.314015;3.18456;0.000300313;0.000344499;0.667639;1.49781;12.5206;57.5206;0.00103188;4.62476e-05;0.000881943;-0.00135977;-0.000150492;-0.00131664;0.000343856;0;0.0297139;0.0110759;2.95097
115000;116;25.763;-0.00132763;-5.15296e-05;-2.19069;25.6664;0.413044;-0.0342434;-0.00124103;-0.156314;-0.0614353;-0.0155023;-0.183607;0.194232;-7.04183;4.02528e-05;-0.000164051;0.00164037;0.00165701;2.36067e-05;0.000816703;-0.0245389;-40.7516;0.00109689;0.00108894;-70.1924;-0.0142466;124.981;169.981;-0.00481335;3.90956e-05;0.00120423;-0.00153015;0.00163966;0.0025055;0.00610158;0;0.0322654;-0.0985343;-0.0118901;-0.345201;0.359186;-6.62722;5.74206e-05;-0.000255229;-0.000231182;0.000206317;-0.000380078;0.000293198;0.248379;4.02611;0.000343474;0.00039093;0.542828;1.8422;16.9224;61.9224;0.00146189;5.64928e-05;0.000875133;-0.00138592;-0.000231532;-0.0027853;0.00119341;0;0.0239102;0.0112603;2.95736
116000;117;25.7678;0.00339515;0.000131777;-2.1909;25.6711;0.415248;-0.0344539;0.00344601;-0.15411;-0.0622396;-0.0147104;-0.183582;0.194403;-7.04181;-1.99485e-05;-5.4085e-05;0.00138618;0.00138826;-2.20258e-05;0.000705141;0.014391;69.4878;0.000932933;0.000940188;63.0287;0.0158658;123.166;168.166;-0.0042254;-2.08406e-05;0.0012304;-0.00133677;0.00138542;0.00125192;0.00592662;0;0.0189301;-0.0990818;-0.0126802;-0.347745;0.361807;-6.62976;0.000100788;-0.000239216;-0.000374071;0.0002004;-0.000473683;0.000337041;0.269435;3.71147;0.000399701;0.000449389;0.423067;2.36369;25.8009;70.8009;0.00110397;9.98684e-05;0.000898073;-0.00137704;-0.000374446;-0.00299854;0.00173288;0;0.0253659;0.0113908;2.96371
117000;118;25.7644;-1.84764e-05;-7.17132e-07;-2.19171;25.6678;0.40457;-0.035256;0.000121563;-0.164787;-0.0634556;-0.0158602;-0.185667;0.196851;-7.04389;6.01221e-05;-0.000181472;0.00149148;0.00151413;3.7473e-05;0.000738328;-0.0403104;-24.8075;0.000997163;0.000984437;-40.4059;-0.0247489;127.579;172.579;-0.00502089;5.88923e-05;0.00121785;-0.0015788;0.00149076;0.00283377;0.00579259;0;0.0143709;-0.101148;-0.0130024;-0.355093;0.369447;-6.63711;0.000125858;-0.000256823;-0.000456019;0.000222995;-0.000553157;0.000388076;0.275992;3.6233;0.000461428;0.000517435;0.403132;2.48058;27.9798;72.9798;0.000511256;0.000124731;0.00100825;-0.00152263;-0.000456495;-0.00182991;0.00135733;0;0.0240166;0.0113453;2.96573
118000;119;25.7645;0.000138708;5.38369e-06;-2.19276;25.6679;0.402787;-0.0363148;0.000216956;-0.166571;-0.064673;-0.0161409;-0.187599;0.199089;-7.04582;0.000121067;4.98527e-05;0.00123907;0.00124129;0.000118848;0.000561221;-0.0977079;-10.2346;0.000790892;0.000748294;-10.4443;-0.095746;119.263;164.263;-0.00423407;0.000120193;0.00142477;-0.00132353;0.00123806;0.00248513;0.00570355;0;0.0145256;-0.102686;-0.0124338;-0.362409;0.376881;-6.64442;0.000187203;-0.000224495;-0.000403983;0.000262788;-0.000479568;0.000371178;0.463394;2.15799;0.000434648;0.000494904;0.547969;1.82492;28.527;73.527;-8.08374e-05;0.000185846;0.00121289;-0.00166273;-0.000404693;-0.000240032;0.00310927;0;0.0192126;0.0114719;2.97216
119000;120;25.7662;0.00182479;7.08263e-05;-2.19188;25.6697;0.401271;-0.0354322;0.00200851;-0.168087;-0.0663687;-0.0147633;-0.191873;0.203563;-7.0501;8.2799e-05;-0.000291462;0.00117496;0.00124787;9.88522e-06;0.000618993;-0.0704698;-14.1905;0.000828639;0.000825324;;;136.898;1.89817;-0.00456234;8.14188e-05;0.00110553;-0.00168693;0.00117439;0.00337597;0.00588283;0;0.0148761;-0.1049;-0.0132402;-0.366693;0.381632;-6.64871;0.000182758;-0.000241748;-0.000320055;0.000280131;-0.000417429;0.00034878;0.571018;1.75126;0.000405328;0.000465039;0.671086;1.49012;24.2593;69.2593;-0.000865802;0.000181073;0.00136712;-0.00185142;-0.000320961;-6.55569e-05;0.00490303;0;0.0187693;0.0119521;2.97953
120000;121;25.7657;0.00131694;5.11148e-05;-2.19324;25.6691;0.394413;-0.0367943;0.00148869;-0.174944;-0.0673779;-0.0158659;-0.194582;0.206527;-7.05281;-6.42044e-06;-8.73873e-05;0.000824006;0.000833102;-1.55167e-05;0.00042431;;;0.000560645;0.000565746;53.6906;0.0186252;132.518;177.518;-0.00479295;-7.45364e-06;0.0012665;-0.00144015;0.000823209;0.00341099;0.00661998;0;0.0141863;-0.106674;-0.0134316;-0.377358;0.392376;-6.65937;0.00024551;-0.000168859;-0.000532768;0.000280567;-0.000567825;0.000424196;0.46082;2.17005;0.000499091;0.000565595;0.494109;2.02385;35.5009;80.5009;-0.00182094;0.000243545;0.00165061;-0.00198975;-0.000534116;0.00290556;0.00613006;0;0.0186324;0.0130612;2.98626
121000;122;25.7651;0.000745374;2.89304e-05;-2.19452;25.6686;0.387856;-0.0380663;0.000906168;-0.181501;-0.0682344;-0.0148854;-0.197383;0.209374;-7.05561;-2.47984e-05;6.98932e-05;0.000683842;0.00069067;-3.16261e-05;0.000361148;0.0362633;27.5761;0.000471343;0.000481531;21.8386;0.0457905;122.986;167.986;-0.00477852;-2.5744e-05;0.00151783;-0.00137702;0.000682694;0.00346324;0.00598472;0;0.0173397;-0.108403;-0.0123487;-0.384758;0.399928;-6.66677;0.000383588;-0.000233282;-0.000417667;0.000446558;-0.000480638;0.000463598;0.918405;1.08884;0.000535438;0.000618131;0.929095;1.07632;30.0998;75.0998;-0.00184392;0.000380954;0.00183948;-0.0023077;-0.000419333;0.00248256;0.00615095;0;0.0195354;0.0136879;2.99427
122000;123;25.7639;-0.000497878;-1.93243e-05;-2.19498;25.6674;0.378907;-0.0385313;-0.000247847;-0.190451;-0.0689386;-0.0149017;-0.200987;0.213003;-7.05921;5.78889e-05;-0.00012276;0.000714324;0.000736531;3.56829e-05;0.000350424;-0.0810401;-12.3396;0.000479569;0.000467232;-20.641;-0.0484473;137.856;2.85579;-0.0049535;5.66344e-05;0.00134421;-0.00158877;0.000713429;0.00346634;0.00477594;0;0.023407;-0.109208;-0.0116414;-0.395526;0.410491;-6.67754;0.000386709;-0.000125391;-0.000313738;0.00040848;-0.000335508;0.000371994;1.23259;0.811301;0.00043023;0.000495992;1.2175;0.821358;34.6329;79.6329;-0.00206209;0.000384136;0.00202037;-0.00227265;-0.000315771;0.00219237;0.00655038;0;0.020107;0.014492;3.0016
123000;124;25.7649;0.000493856;1.91682e-05;-2.19536;25.6684;0.375883;-0.0389139;0.000759352;-0.193475;-0.0698964;-0.0157826;-0.202118;0.214444;-7.06034;-1.41164e-05;-9.70379e-05;0.000892719;0.000902987;-2.43839e-05;0.000463685;0.0158128;63.2398;0.000610282;0.000618247;37.032;0.0270036;133.175;178.175;-0.00486468;-1.54914e-05;0.00146846;-0.00166112;0.000891647;0.00379683;0.00545003;0;0.0185455;-0.110733;-0.0133997;-0.400008;0.415268;-6.68202;0.000329805;-0.000205989;-0.000127768;0.000408874;-0.000206837;0.000307855;2.58129;0.387404;0.000361804;0.000410474;1.9768;0.505869;22.4111;67.4111;-0.00140132;0.000327714;0.00164326;-0.00205608;-0.000129097;8.76702e-05;0.00500788;0;0.0189935;0.0146817;3.0095
124000;125;25.765;0.000647986;2.51505e-05;-2.19511;25.6686;0.37484;-0.0386652;0.000950593;-0.194518;-0.070413;-0.0157064;-0.201287;0.213825;-7.05951;4.02173e-06;-0.000116006;0.000734997;0.000752965;-1.39469e-05;0.000383456;;;0.00050669;0.000511275;53.9879;0.0185227;137.178;2.17819;-0.00514632;2.60019e-06;0.00145927;-0.00169013;0.000733939;0.00381391;0.00663307;0;0.0166549;-0.111735;-0.0131537;-0.403295;0.418694;-6.68531;0.000342027;-0.000146425;-0.000325115;0.00037275;-0.000355838;0.000364294;1.05202;0.950554;0.000420688;0.000485725;1.04753;0.95463;33.0013;78.0013;-0.00184146;0.000339689;0.00187341;-0.00216761;-0.00032686;0.000623284;0.00641582;0;0.019873;0.0147925;3.01655
125000;126;25.765;0.000611133;2.37201e-05;-2.19543;25.6686;0.369436;-0.0389856;0.000964542;-0.199922;-0.0716344;-0.016303;-0.203877;0.21671;-7.0621;1.06407e-07;-7.14276e-05;0.000416487;0.000428399;-1.18058e-05;0.000220102;;;0.000289615;0.00029347;36.2872;0.0275579;140.508;5.50805;-0.00470133;-1.13414e-06;0.00143454;-0.00157677;0.000415461;0.00400483;0.00645192;0;0.026984;-0.113232;-0.0142228;-0.41138;0.426916;-6.69339;0.000335219;-0.000252583;-6.44126e-05;0.000457466;-0.00018666;0.000322063;5.20425;0.19215;0.000382685;0.000429417;2.4508;0.408029;17.0001;62.0001;-0.00178194;0.000333139;0.00154998;-0.00205586;-6.55819e-05;-0.000154915;0.00466672;0;0.0224693;0.0150193;3.02378
126000;127;25.7649;0.000503322;1.95356e-05;-2.19588;25.6685;0.365514;-0.0394336;0.000874142;-0.203843;-0.0732346;-0.0170457;-0.205639;0.218955;-7.06386;9.76056e-05;-6.14117e-06;0.000357345;0.00035749;9.74605e-05;0.000130015;-0.273141;-3.66111;0.000213392;0.000173353;-3.66805;-0.272624;132.171;177.171;-0.00500295;9.63869e-05;0.00154943;-0.0015613;0.000356145;0.00376787;0.00666854;0;0.0189974;-0.115367;-0.0153966;-0.415817;0.431799;-6.69783;0.000230665;-0.00012771;-8.31676e-06;0.000286068;-6.37196e-05;0.000174894;;;0.000215121;0.000233191;4.48948;0.222743;19.51;64.51;-0.00102078;0.000229219;0.00144993;-0.00170573;-9.35976e-06;-0.000778067;0.00488059;0;0.0223323;0.01518;3.03095
127000;128;25.7657;0.00132545;5.1445e-05;-2.19604;25.6694;0.360619;-0.0395891;0.0017553;-0.208739;-0.0739976;-0.0158473;-0.210974;0.224136;-7.0692;5.45012e-05;-7.06154e-05;-0.000221515;7.15182e-05;-0.000238532;0.000155025;0.246038;4.06441;0.000187465;0.0002067;0.299826;3.33527;32.9208;77.9208;-0.00459222;5.31059e-05;0.00153037;-0.00167204;-0.000222684;0.00412854;0.00819791;0;0.0267772;-0.116388;-0.014911;-0.424481;0.4404;-6.7065;0.000238235;-9.8088e-05;0.000171217;0.00030838;0.000101072;0.000103654;-1.39142;-0.718692;0.00018153;0.000138205;-3.05108;-0.327753;5.62592;50.6259;-0.000756952;0.000236895;0.00144353;-0.00163981;0.00017018;-0.00123843;0.00364276;0;0.0260096;0.0159442;3.03542
128000;129;25.7663;0.00196798;7.63839e-05;-2.19665;25.67;0.359269;-0.0401987;0.00236702;-0.210089;-0.074961;-0.0167313;-0.212826;0.226261;-7.07105;7.52422e-05;-2.5385e-05;-0.000114368;7.85819e-05;-0.000117707;9.81446e-05;0.657898;1.51999;0.000114076;0.000130859;0.667604;1.49789;37.8464;82.8464;-0.00493356;7.40144e-05;0.00151623;-0.00156729;-0.000115517;0.00432143;0.00737781;0;0.0147107;-0.117593;-0.0163054;-0.429618;0.445719;-6.71163;0.000125574;-0.000166373;6.54179e-05;0.000264566;-7.35743e-05;0.00016907;-1.91957;-0.52095;0.000205344;0.000225427;3.59591;0.278094;3.09815;48.0981;-2.85986e-05;0.000124421;0.00119508;-0.00152791;6.47177e-05;-0.00297574;0.00173071;0;0.0224821;0.0168257;3.0408
129000;130;25.7673;0.00296181;0.000114957;-2.19613;25.6711;0.357012;-0.0396822;0.00344024;-0.212346;-0.0747439;-0.0169276;-0.221003;0.233914;-7.07923;-4.3082e-05;8.05418e-05;-0.000321551;-2.1465e-05;-0.000343168;0.000160852;-0.133982;-7.46369;0.00022197;0.000214469;-0.0625494;-15.9874;63.2855;108.285;-0.00489399;-4.42081e-05;0.0016635;-0.00150286;-0.000322932;0.00483148;0.00826105;0;0.0311556;-0.117224;-0.0166864;-0.443526;0.45906;-6.72554;0.000108978;-0.000212148;0.000208284;0.000376512;-5.92501e-05;0.000217881;-0.523218;-1.91125;0.00027291;0.000290508;6.35462;0.157366;169.595;34.5953;0.000566534;0.000108019;0.000976499;-0.00140068;0.00020783;-0.00311091;0.00188032;0;0.034133;0.018066;3.04648
130000;131;25.7671;0.00275938;0.000107101;-2.19678;25.6709;0.351067;-0.0403352;0.00326319;-0.218291;-0.0764635;-0.0172397;-0.218655;0.232279;-7.07688;0.000115208;2.98086e-05;-0.000814977;0.000116162;-0.000815931;0.000466047;0.141364;7.07395;0.000586522;0.000621396;0.142368;7.02405;52.8779;97.8779;-0.00497516;0.000113932;0.00165595;-0.00159785;-0.000816348;0.00391493;0.00906299;0;0.0165306;-0.118996;-0.0180072;-0.443998;0.46002;-6.72601;0.000139605;-0.000162187;0.000263588;0.000375227;2.79656e-05;0.000173631;-0.529633;-1.8881;0.00024137;0.000231508;-13.4174;-0.0745299;164.378;29.3785;0.000790593;0.000138809;0.000948041;-0.00127228;0.000263152;-0.00306994;0.00262695;0;0.028539;0.0182274;3.05374
131000;132;25.7675;0.00310134;0.000120373;-2.19716;25.6712;0.351521;-0.0407087;0.00356823;-0.217836;-0.0774939;-0.018055;-0.220887;0.234782;-7.07911;0.000149868;-2.76502e-05;-0.00085381;0.000150629;-0.000854571;0.0005026;0.175528;5.69708;0.000625994;0.000670134;0.176263;5.67335;49.1023;94.1023;-0.00416218;0.000148298;0.00171546;-0.00177251;-0.000855282;0.00283491;0.00946788;0;0.0171451;-0.120691;-0.0187863;-0.446657;0.463057;-6.72867;2.50419e-05;-0.000140777;9.17952e-05;0.000203098;-8.62607e-05;0.000144679;-0.272802;-3.66567;0.000171541;0.000192906;2.35446;0.424725;171.811;36.8107;0.000855618;2.42678e-05;0.00097071;-0.00125219;9.1334e-05;-0.00318534;0.00261097;0;0.0232834;0.0183788;3.06077
132000;133;25.7674;0.00306536;0.000118977;-2.19718;25.6712;0.348172;-0.0407355;0.00357547;-0.221186;-0.0790537;-0.0185431;-0.220348;0.234833;-7.07857;0.000103733;-6.63757e-05;-0.000839449;0.000108381;-0.000844097;0.000476239;0.123573;8.09241;0.000602119;0.000634985;0.128399;7.78823;47.1741;92.1741;-0.00445847;0.000102223;0.00160455;-0.00173888;-0.000840735;0.0052043;0.0104727;0;0.0219318;-0.122278;-0.0191532;-0.45129;0.467954;-6.7333;9.57142e-06;-0.000149635;0.000140779;0.00023856;-8.82089e-05;0.000163384;;;0.000195203;0.000217846;2.70448;0.369756;166.056;31.0564;0.000795388;8.88966e-06;0.000878121;-0.00117726;0.000140405;-0.00275341;0.000728243;0;0.0304919;0.0184824;3.06946
133000;134;25.7687;0.00436222;0.000169312;-2.19649;25.6726;0.345394;-0.0400357;0.0049746;-0.223964;-0.0804408;-0.0159936;-0.230288;0.244456;-7.08851;7.47997e-05;7.3389e-05;-0.00132967;7.86241e-05;-0.00133349;0.000706059;0.0562543;17.7764;0.000916329;0.000941412;0.058961;16.9604;57.5818;102.582;-0.00484961;7.33162e-05;0.00186837;-0.00172412;-0.00133141;0.00404771;0.0117653;0;0.0275799;-0.123389;-0.0178238;-0.462965;0.479457;-6.74498;-3.25372e-05;-0.000152432;6.91236e-05;0.000178977;-0.00014239;0.000160684;0.470711;2.12445;0.000185942;0.000214245;1.25694;0.79558;170.287;35.2865;0.00144954;-3.33083e-05;0.000946382;-0.00125113;6.86875e-05;-0.00295214;0.00142392;0;0.0407783;0.0191671;3.07595
134000;135;25.7667;0.00234572;9.1045e-05;-2.19745;25.6706;0.340442;-0.0410041;0.00293382;-0.228916;-0.0804109;-0.0213865;-0.217432;0.232809;-7.07566;-2.67864e-05;0.000222355;-0.00121466;1.3471e-05;-0.00125492;0.000634197;-0.0220525;-45.3463;0.000841141;0.000845595;0.0107346;93.1571;64.9567;109.957;-0.00478168;-2.79428e-05;0.00197956;-0.00153694;-0.0012166;0.00492223;0.00944387;0;0.0222755;-0.124003;-0.0211479;-0.45502;0.472088;-6.73703;-0.000103268;-0.00024233;5.37897e-05;0.000229997;-0.000279475;0.000254736;1.91985;0.520874;0.000294606;0.000339648;0.822959;1.21513;171.721;36.7212;0.0010299;-0.000104003;0.000751426;-0.00123593;5.35368e-05;-0.00314442;0.00125198;0;0.0303348;0.0201135;3.08272
135000;136;25.7698;0.00547097;0.000212346;-2.19686;25.6738;0.342087;-0.0404078;0.00609993;-0.22727;-0.0830673;-0.019649;-0.221565;0.237439;-7.07979;0.000104204;0.000177502;-0.00125812;0.000126951;-0.00128087;0.000703908;0.082825;12.0737;0.000899219;0.000938544;0.0991137;10.0894;61.4301;106.43;-0.00496158;0.000102991;0.00191992;-0.0015673;-0.00125995;0.00464868;0.00988779;0;0.0124976;-0.125909;-0.0210375;-0.460213;0.47759;-6.74223;-3.42956e-05;-0.000188716;7.87751e-05;0.000219243;-0.000174763;0.000197003;0.435361;2.29694;0.000227962;0.00026267;1.25451;0.797122;171.059;36.0587;0.00118758;-3.50888e-05;0.000896198;-0.00127351;7.83914e-05;-0.00236927;0.0011232;0;0.0246504;0.0212237;3.08974
136000;137;25.7698;0.00545011;0.000211537;-2.19647;25.6738;0.340176;-0.0400216;0.00613744;-0.229182;-0.0823933;-0.0190502;-0.227076;0.242312;-7.0853;-4.63062e-05;0.000231514;-0.00148261;-9.91123e-06;-0.00151901;0.000754547;-0.0312329;-32.0175;0.00100938;0.00100606;;;65.6492;110.649;-0.00516856;-4.74481e-05;0.00198933;-0.00152883;-0.00148457;0.00456852;0.0111348;0;0.024041;-0.125619;-0.0208578;-0.468621;0.485614;-6.75064;-3.46874e-05;-0.000168739;0.000160944;0.000258169;-0.000131912;0.000195041;0.215524;4.63985;0.000229112;0.000260054;1.95713;0.510953;163.136;28.1358;0.0012547;-3.53602e-05;0.000834949;-0.00117223;0.00016061;-0.00286172;0.00183761;0;0.0314843;0.0219589;3.09747
137000;138;25.7701;0.00576304;0.000223683;-2.19745;25.674;0.338474;-0.041;0.0063903;-0.230884;-0.0818989;-0.0166121;-0.234213;0.248675;-7.09244;0.000189809;0.000187053;-0.00133543;0.000212413;-0.00135803;0.000785224;0.142133;7.03567;0.000983834;0.00104696;0.156412;6.39336;61.1758;106.176;-0.00434739;0.00018868;0.00188546;-0.00151395;-0.00133719;0.00234485;0.0123011;0;0.019166;-0.125749;-0.0192155;-0.478227;0.494857;-6.76024;5.50069e-05;-0.000182296;9.32883e-05;0.000257446;-0.00010915;0.000183298;-0.589644;-1.69594;0.00021735;0.000244397;2.35863;0.423975;175.028;40.0279;0.00155513;5.4224e-05;0.000900073;-0.00126462;9.28999e-05;-0.0034532;0.00161966;0;0.0273279;0.0222235;3.10386
138000;139;25.7731;0.00877032;0.000340405;-2.19659;25.6771;0.338754;-0.0401419;0.00947857;-0.230603;-0.0851892;-0.0134685;-0.251402;0.265785;-7.10963;-1.62431e-05;0.000372507;-0.00047874;0.000190957;-0.00068594;0.000438449;-0.0339288;-29.4735;0.000532484;0.000584598;0.278387;3.59212;78.4529;123.453;-0.00438983;-1.69295e-05;0.00197373;-0.00122946;-0.00048062;0.00209503;0.0111071;0;0.0209674;-0.1283;-0.0179334;-0.495232;0.511896;-6.77725;2.11931e-05;-0.000164548;-6.1715e-05;0.000149429;-0.000189951;0.00016969;0.343403;2.91203;0.000196406;0.000226253;0.786672;1.27118;7.61587;52.6159;0.00133445;2.0487e-05;0.000870516;-0.0011997;-6.20804e-05;-0.00217449;0.00223847;0;0.0291332;0.0223593;3.10847
139000;140;25.7725;0.00812078;0.000315194;-2.19727;25.6765;0.335988;-0.0408226;0.00880471;-0.23337;-0.0850254;-0.0153392;-0.245179;0.259956;-7.1034;5.33998e-05;0.000357598;-0.00111844;0.000153904;-0.00121895;0.000686426;0.0477448;20.9447;0.000868491;0.000915235;0.12626;7.92019;70.5492;115.549;-0.00404028;5.28293e-05;0.00183997;-0.00112652;-0.00112007;0.00168975;0.0107251;0;0.0216847;-0.128321;-0.0195122;-0.492475;0.509293;-6.77449;7.25538e-05;-0.000176944;-6.61615e-05;0.000193248;-0.000186855;0.000190051;1.09662;0.911897;0.000219463;0.000253402;1.03421;0.966922;10.6003;55.6003;0.00112938;7.18074e-05;0.000880545;-0.00123458;-6.65336e-05;-0.00236131;0.00293749;0;0.0275911;0.0233425;3.11601
140000;141;25.7714;0.00701366;0.000272223;-2.19723;25.6755;0.327515;-0.0407855;0.0078061;-0.241843;-0.0849996;-0.0173025;-0.24454;0.259469;-7.10276;0.000166716;0.000334201;-0.000785254;0.000272325;-0.000890863;0.000581594;0.212308;4.71013;0.000702504;0.000775459;0.305687;3.27132;68.2916;113.292;-0.00431852;0.000166077;0.00184621;-0.00117925;-0.000786903;0.00279378;0.0126943;0;0.0243844;-0.128788;-0.0211387;-0.495777;0.512668;-6.77779;-3.89361e-05;-0.000118198;-0.000124133;4.41055e-05;-0.000207174;0.00012564;-0.313666;-3.18811;0.000154925;0.00016752;0.212891;4.69724;11.8658;56.8658;0.00115889;-3.97742e-05;0.00106355;-0.00130004;-0.000124691;-0.00214108;0.00282084;0;0.0293579;0.0242054;3.1198
141000;142;25.773;0.00863014;0.000334964;-2.19811;25.677;0.331147;-0.0416653;0.00930673;-0.238211;-0.0857179;-0.0190078;-0.240035;0.255588;-7.09826;-6.55989e-05;0.00054337;-0.000820909;0.000218467;-0.00110497;0.000661721;-0.0799102;-12.5141;0.00081924;0.000882294;0.197712;5.05786;80.2878;125.288;-0.00441871;-6.60171e-05;0.00214923;-0.00106371;-0.000823072;0.00299377;0.010951;0;0.0292617;-0.129805;-0.022545;-0.495474;0.512691;-6.77749;-1.89292e-05;-0.000158226;-0.000129516;9.33866e-05;-0.000241832;0.000167609;-0.146153;-6.84214;0.000199764;0.000223479;0.386163;2.58958;11.6121;56.6121;0.00134274;-1.9663e-05;0.000905165;-0.00122173;-0.000129913;-0.00292249;0.0033888;0;0.0325113;0.0249222;3.12707
142000;143;25.7722;0.00778461;0.000302146;-2.19801;25.6763;0.320289;-0.0415596;0.00860483;-0.249069;-0.0878881;-0.0207461;-0.237957;0.254515;-7.09618;5.37846e-06;0.000292963;-0.000877243;9.37681e-05;-0.000965632;0.0005297;;;0.000677178;0.000706267;0.0971054;10.2981;69.7036;114.704;-0.00461761;4.65199e-06;0.00182504;-0.00124047;-0.000878867;0.00477568;0.0119487;0;0.0167869;-0.131993;-0.0247286;-0.497677;0.515477;-6.77969;-2.57676e-05;-0.000184748;-0.000266884;7.42786e-05;-0.00036693;0.000220604;-0.0965498;-10.3574;0.000272772;0.000294139;0.202433;4.93991;19.6121;64.6121;0.000921542;-2.69453e-05;0.00117597;-0.0015458;-0.000267558;-0.00123047;0.00361605;0;0.0300339;0.0254119;3.13361
143000;144;25.7753;0.0108843;0.000422454;-2.19852;25.6793;0.323934;-0.0420696;0.0116267;-0.245423;-0.0875939;-0.0174585;-0.252672;0.267994;-7.1109;-5.74929e-05;0.000372057;-0.000469317;0.000161832;-0.000688641;0.000425236;-0.122503;-8.16304;0.000521477;0.000566982;0.235001;4.2553;80.4781;125.478;-0.00430955;-5.80597e-05;0.00187133;-0.00112784;-0.000470999;0.00217299;0.00938463;0;0.0230589;-0.132013;-0.0224484;-0.515295;0.53241;-6.79731;0.000107829;-0.000117374;-0.000204784;0.000146992;-0.000243947;0.00019547;0.526551;1.89915;0.000228011;0.000260626;0.602558;1.65959;27.5956;72.5956;0.000672596;0.000106828;0.00118449;-0.00141964;-0.000205479;-0.00221909;0.00389343;0;0.038768;0.0255424;3.1411
144000;145;25.7756;0.0112135;0.000435232;-2.19859;25.6797;0.317943;-0.0421432;0.0120257;-0.251414;-0.0886378;-0.0182762;-0.253781;0.269435;-7.112;-2.2443e-05;3.70412e-05;-0.000174121;-1.38806e-05;-0.000182683;8.44013e-05;-0.128893;-7.75835;0.000117436;0.000112535;-0.0759816;-13.1611;59.8046;104.805;-0.00443013;-2.3591e-05;0.00158951;-0.00151567;-0.000175383;0.00260258;0.0109139;0;0.0139123;-0.133501;-0.0232319;-0.520003;0.537369;-6.80202;0.000219536;-9.84435e-05;-0.000286665;0.000238007;-0.000305136;0.000271571;0.765826;1.30578;0.000314381;0.000362095;0.780002;1.28205;34.9812;79.9812;7.89894e-05;0.00021822;0.00142746;-0.00162512;-0.00028768;-0.000266541;0.00449113;0;0.0288007;0.0262982;3.14908
145000;146;25.7737;0.009313;0.000361468;-2.19845;25.6778;0.313967;-0.0419987;0.0101794;-0.255391;-0.0893997;-0.0208361;-0.245955;0.262526;-7.10418;-1.09347e-05;0.000387981;-0.000243929;0.000277662;-0.000532525;0.000405093;-0.0448273;-22.3078;0.000475414;0.000540124;0.521406;1.91789;83.9904;128.99;-0.00383316;-1.15202e-05;0.00192519;-0.00114959;-0.000245707;0.00218229;0.0112581;0;0.0144751;-0.133701;-0.0239602;-0.518939;0.536421;-6.80095;0.000208811;-0.000135331;-0.000447077;0.000235637;-0.000473903;0.00035477;0.467058;2.14106;0.000417281;0.000473026;0.497226;2.01116;35.9423;80.9423;0.000295621;0.000207375;0.00142887;-0.00170056;-0.000448089;-0.000572586;0.0054564;0;0.0250441;0.0280582;3.15621
146000;147;25.7731;0.0087121;0.000338145;-2.1985;25.6773;0.306373;-0.0420517;0.00966346;-0.262985;-0.0893798;-0.0203238;-0.253755;0.269803;-7.11198;-5.36725e-05;0.000111748;0.000231357;0.000269945;-9.22604e-05;0.000181103;0.23199;4.31052;0.000217345;0.00024147;2.9259;0.341775;114.234;159.234;-0.00456218;-5.46305e-05;0.00161255;-0.00138862;0.000230063;0.00325541;0.0111938;0;0.0457215;-0.134202;-0.023988;-0.52916;0.546439;-6.81117;0.000273019;-0.000196046;-0.000442957;0.000323185;-0.000493123;0.000408154;0.616356;1.62244;0.000474688;0.000544205;0.655384;1.52582;32.0777;77.0777;-0.000156357;0.000271294;0.00147489;-0.00186818;-0.000444026;-3.38273e-05;0.00598275;0;0.0340923;0.0289377;3.16362
147000;148;25.7727;0.00833454;0.000323491;-2.19832;25.677;0.301942;-0.0418678;0.00935272;-0.267416;-0.0917267;-0.0204796;-0.256538;0.273213;-7.11476;7.5347e-05;0.000298046;0.000338884;0.00053299;-0.000118759;0.000325874;-0.222338;-4.49765;0.000400821;0.000434499;4.488;0.222816;97.9062;142.906;-0.00389472;7.46995e-05;0.00177284;-0.00117637;0.000337358;0.00243815;0.0115771;0;0.0156734;-0.136509;-0.0238787;-0.539294;0.556815;-6.82131;0.000287469;-0.000186601;-0.000394604;0.000335181;-0.000442317;0.000388749;0.728499;1.37269;0.000450307;0.000518332;0.757786;1.31963;31.4096;76.4096;-0.00139906;0.00028517;0.00177825;-0.00215279;-0.000396168;0.00164233;0.00840432;0;0.0199931;0.0293778;3.17114
148000;149;25.7729;0.00857419;0.000332793;-2.19775;25.6774;0.294193;-0.0413011;0.00973174;-0.275165;-0.0933352;-0.021621;-0.250091;0.267814;-7.10831;-2.57496e-05;0.000261855;0.000362316;0.000494193;-0.000157626;0.000325909;0.0710695;14.0707;0.000392694;0.000434546;3.13522;0.318957;105.11;150.11;-0.00421964;-2.65199e-05;0.00179283;-0.00126852;0.000360744;0.0020071;0.0102953;0;0.0152764;-0.137684;-0.0241882;-0.541099;0.558865;-6.82311;0.000420324;-0.000210605;-0.000409048;0.000470739;-0.000459463;0.000465101;1.02757;0.973174;0.000537066;0.000620135;1.02454;0.976047;31.4265;76.4265;-0.00146763;0.000418048;0.00172138;-0.0021442;-0.000410508;0.00162219;0.0105565;0;0.0201729;0.0295734;3.17782
149000;150;25.7735;0.00913275;0.000354472;-2.19863;25.6779;0.290298;-0.0421788;0.0102616;-0.279059;-0.092693;-0.022835;-0.25654;0.273727;-7.11476;5.15271e-05;0.000377214;0.000552146;0.000754545;-0.000150872;0.000452708;-0.0933216;-10.7156;0.000560135;0.000603611;5.00123;0.199951;100.882;145.882;-0.00393705;5.10233e-05;0.0018275;-0.00107234;0.000550548;0.00137771;0.0100082;0;0.0148342;-0.13769;-0.0264214;-0.549911;0.567502;-6.83193;0.000425194;-0.000126754;-0.000513371;0.000442011;-0.000530188;0.0004861;0.82824;1.20738;0.000562068;0.000648133;0.833688;1.19949;37.9925;82.9925;-0.00174463;0.000422556;0.00204553;-0.00230108;-0.000515456;0.00172897;0.0107237;0;0.0199977;0.0309848;3.18413
150000;151;25.7735;0.00908625;0.000352667;-2.19976;25.6778;0.29015;-0.0433138;0.0101194;-0.279208;-0.0931438;-0.023293;-0.25646;0.273843;-7.11468;-7.14465e-06;0.000331456;0.000972546;0.00107415;-0.000108748;0.000591449;;;0.000754964;0.000788598;9.87742;0.101241;108.789;153.789;-0.0040822;-7.72599e-06;0.00179241;-0.00112807;0.000970996;0.00208651;0.010656;0;0.0145143;-0.138667;-0.0269257;-0.553417;0.57116;-6.83543;0.000441631;-0.000136557;-0.000573568;0.000459678;-0.000591616;0.000525647;0.76997;1.29875;0.000608556;0.000700863;0.776988;1.28702;38.299;83.299;-0.00209845;0.000438912;0.00206098;-0.00233633;-0.000575684;0.00223471;0.0114995;0;0.019373;0.0324171;3.18942
151000;152;25.7726;0.00827503;0.000321181;-2.19965;25.6771;0.278826;-0.0432006;0.00944028;-0.290532;-0.0959386;-0.0258735;-0.252912;0.271732;-7.11114;-4.9844e-05;0.000257255;0.00125407;0.00130299;-9.87635e-05;0.000700877;0.0397457;25.1599;0.000903383;0.000934503;13.193;0.0757975;113.609;158.609;-0.00420923;-5.06485e-05;0.00181078;-0.00129425;0.00125247;0.000741532;0.0101524;0;0.015358;-0.141325;-0.0290065;-0.557619;0.57598;-6.83963;0.000449456;-0.000166073;-0.000572356;0.00047577;-0.00059867;0.00053722;0.785275;1.27344;0.000621679;0.000716293;0.794713;1.25832;36.725;81.725;-0.00222237;0.000446401;0.00214351;-0.00247801;-0.000574641;0.00168371;0.0118319;0;0.0205582;0.033033;3.19386
152000;153;25.7723;0.00794984;0.00030856;-2.20029;25.6768;0.271191;-0.0438436;0.00914056;-0.298167;-0.0958941;-0.0246566;-0.256884;0.275306;-7.11511;-0.000197458;8.74058e-05;0.00128873;0.00129385;-0.000202581;0.000748214;0.15322;6.52658;0.000937417;0.000997619;6.38682;0.156572;121.409;166.409;-0.0040975;-0.000198402;0.00155363;-0.00137664;0.00128752;0.00109719;0.00979231;0;0.0153161;-0.141841;-0.0283386;-0.564853;0.583079;-6.84687;0.000417227;-0.000155865;-0.000616672;0.000440213;-0.000639658;0.000539935;0.676578;1.47803;0.000626998;0.000719914;0.6882;1.45307;37.9201;82.9201;-0.00235921;0.000414623;0.00197358;-0.00228751;-0.000618609;0.000539009;0.0124627;0;0.0188577;0.0332968;3.20009
153000;154;25.7723;0.00796869;0.000309291;-2.20206;25.6766;0.272262;-0.0456147;0.00899631;-0.297096;-0.0952213;-0.0244454;-0.26362;0.281354;-7.12184;-0.000138336;0.000278194;0.0015602;0.00160461;-0.000182739;0.000893672;0.0886655;11.2783;0.00113556;0.00119156;8.78085;0.113884;113.143;158.143;-0.00391393;-0.000139029;0.00176822;-0.00120931;0.00155868;0.00127821;0.0104094;0;0.0150298;-0.14226;-0.0283945;-0.57708;0.595034;-6.85909;0.000393919;-0.000108168;-0.000509367;0.000406692;-0.00052214;0.000464416;0.77335;1.29307;0.00053764;0.000619221;0.778895;1.28387;39.0641;84.0641;-0.0016795;0.000391704;0.00188989;-0.00210803;-0.000511148;0.000118651;0.00893223;0;0.0190949;0.0350909;3.20726
154000;155;25.7727;0.00834109;0.000323745;-2.20089;25.6772;0.265273;-0.0444367;0.00954425;-0.304085;-0.0974204;-0.0284982;-0.256993;0.276312;-7.11522;6.30643e-05;0.000276809;0.00160524;0.00165342;1.48844e-05;0.000819267;-0.0392866;-25.454;0.00109735;0.00109236;-111.084;-0.00900219;110.596;155.596;-0.00397722;6.23506e-05;0.00178234;-0.00122641;0.00160369;0.00151827;0.0111552;0;0.0216454;-0.143949;-0.0319738;-0.576472;0.595032;-6.85849;0.000334157;-0.000109363;-0.000443503;0.000349244;-0.000458591;0.000403917;0.753448;1.32723;0.000467825;0.000538556;0.761559;1.3131;37.9195;82.9195;-0.00146499;0.000332037;0.00184208;-0.00206232;-0.000445195;-0.000901635;0.0108859;0;0.0210509;0.0364122;3.21496
155000;156;25.7725;0.0080853;0.000313817;-2.20088;25.677;0.258836;-0.0444258;0.00935414;-0.310522;-0.0977732;-0.0314587;-0.252836;0.272901;-7.11106;-0.000163181;0.000209371;0.00166305;0.00168675;-0.000186877;0.000936813;0.0981215;10.1914;0.00119169;0.00124908;9.02596;0.110792;115.552;160.552;-0.00464536;-0.000164046;0.00175326;-0.0013317;0.00166154;0.00260596;0.0108986;0;0.0150113;-0.143655;-0.0337425;-0.581513;0.599944;-6.86353;0.000427528;-0.000124019;-0.000317448;0.000447631;-0.000337552;0.000392592;1.34676;0.742521;0.000454808;0.000523456;1.32611;0.754085;34.819;79.819;-0.00201252;0.000425944;0.00153505;-0.00178433;-0.000318619;0.000796222;0.00874985;0;0.0209954;0.0370779;3.2218
156000;157;25.7726;0.00820626;0.000318512;-2.20134;25.6771;0.254844;-0.0448927;0.00947546;-0.314514;-0.096511;-0.0302126;-0.25877;0.27783;-7.11699;-9.25781e-05;0.000105605;0.00152588;0.00153275;-9.94397e-05;0.000816093;0.0606717;16.4821;0.00105654;0.00108812;15.4138;0.0648768;119.035;164.035;-0.00410465;-9.3653e-05;0.00168371;-0.00146995;0.00152448;0.0013241;0.0111505;0;0.0176674;-0.14348;-0.033588;-0.589458;0.607598;-6.87147;0.000285331;-0.000107846;-0.000376362;0.000302464;-0.000393496;0.00034798;0.758128;1.31904;0.000402957;0.000463973;0.76866;1.30097;36.719;81.719;-0.00143592;0.000283716;0.00158358;-0.0018004;-0.000377611;0.00014764;0.00869025;0;0.024291;0.0373703;3.22947
157000;158;25.7732;0.00879007;0.000341172;-2.20227;25.6777;0.25319;-0.0458168;0.00999856;-0.316168;-0.0970508;-0.0305518;-0.259999;0.279198;-7.11822;-0.000190579;0.000111331;0.00208045;0.00208589;-0.000196024;0.00114096;0.0916047;10.9165;0.00146033;0.00152128;10.641;0.0939758;116.827;161.827;-0.0042154;-0.000191667;0.00170535;-0.00147908;0.002079;0.00126232;0.0100733;0;0.0162707;-0.143908;-0.0333221;-0.596806;0.614814;-6.87882;0.000237137;-0.000130332;-0.0002552;0.00026951;-0.000287573;0.000278541;0.929219;1.07617;0.000321688;0.000371389;0.937187;1.06702;31.1806;76.1806;-0.00131319;0.000235507;0.0015491;-0.00181059;-0.000256392;-0.000170392;0.00747898;0;0.023659;0.0392544;3.23672
158000;159;25.7728;0.00840915;0.000326387;-2.20191;25.6774;0.241939;-0.0454641;0.00975494;-0.327418;-0.100226;-0.0324065;-0.26311;0.283412;-7.12133;-0.000242721;-2.04815e-05;0.00238621;0.00238637;-0.00024288;0.00131463;0.101718;9.83111;0.00167775;0.00175283;9.82531;0.101778;117.712;162.712;-0.0045454;-0.000243885;0.00148895;-0.00152595;0.00238511;0.00198057;0.0100397;0;0.0139646;-0.147206;-0.0350966;-0.607891;0.626444;-6.88991;0.000248299;-0.000173195;-0.000153387;0.000312662;-0.000217751;0.000265206;1.61877;0.617752;0.000307864;0.000353609;1.43587;0.69644;23.6787;68.6787;-0.000108288;0.000246935;0.00131378;-0.00166076;-0.000154236;-0.00176793;0.00554923;0;0.0241401;0.0401376;3.2444
159000;160;25.7723;0.0079286;0.000307735;-2.20161;25.677;0.237932;-0.0451634;0.00933585;-0.331426;-0.100573;-0.0318079;-0.270232;0.29009;-7.12846;-0.000221148;0.000170306;0.00279625;0.00280583;-0.00023073;0.00151828;0.0790875;12.6442;0.00195201;0.00202437;12.1607;0.0822324;111.649;156.649;-0.00435982;-0.000222047;0.00169618;-0.00135097;0.00279483;0.00289061;0.0112933;0;0.015374;-0.147719;-0.0349812;-0.617058;0.635457;-6.89907;0.000166077;-0.000193266;-5.75992e-05;0.000277531;-0.000169053;0.000223292;2.88332;0.346822;0.000260359;0.000297723;1.64168;0.609133;13.7969;58.7969;0.000232305;0.00016501;0.00108667;-0.00147349;-5.8171e-05;-0.0023607;0.00431917;0;0.0272548;0.0405425;3.25144
160000;161;25.7716;0.00726764;0.000282081;-2.20161;25.6764;0.234642;-0.0451589;0.00870308;-0.334715;-0.101098;-0.0341183;-0.268062;0.288517;-7.12629;-0.000415554;-0.000323004;0.00259667;0.00263091;-0.0004498;0.00154036;0.160033;6.24869;0.00192151;0.00205381;5.84907;0.170967;123.878;168.878;-0.00458109;-0.000417345;0.00127881;-0.00192001;0.0025959;0.00350655;0.00919433;0;0.0149152;-0.148087;-0.0365883;-0.621148;0.639604;-6.90316;0.000170498;-0.000178688;9.97989e-05;0.0003173;-4.70031e-05;0.000182151;-1.70841;-0.585339;0.000228816;0.000242869;6.75061;0.148135;2.51375;47.5138;0.000573637;0.00016948;0.00108044;-0.0014379;9.92312e-05;-0.00301113;0.00604159;0;0.0307531;0.0422856;3.25678
161000;162;25.7716;0.00721416;0.000280005;-2.20218;25.6763;0.229686;-0.0457263;0.00864555;-0.339671;-0.102685;-0.0361967;-0.264412;0.285951;-7.12264;-0.000277359;2.65971e-05;0.00299584;0.00299605;-0.000277575;0.00163681;0.0925813;10.8013;0.00209603;0.00218242;10.7937;0.0926468;113.343;158.343;-0.0042516;-0.00027843;0.00152172;-0.00146364;0.00299468;0.00315325;0.0102733;0;0.0246438;-0.149887;-0.0383688;-0.621919;0.640875;-6.90393;0.000135957;-0.000139333;-1.03313e-05;0.000220178;-9.45524e-05;0.000157365;13.1597;0.0759895;0.000186473;0.000209821;2.32864;0.429436;12.4397;57.4397;0.000749531;0.000134941;0.00115364;-0.0014325;-1.09871e-05;-0.00250582;0.00545624;0;0.038644;0.0437802;3.26202
162000;163;25.7697;0.00530184;0.000205782;-2.20125;25.6745;0.220392;-0.0448042;0.00688669;-0.348966;-0.103792;-0.0358082;-0.266089;0.287851;-7.12431;-0.000501867;-0.000338242;0.00273252;0.00276751;-0.000536861;0.00165219;0.183665;5.4447;0.00204756;0.00220291;5.15499;0.193987;122.776;167.776;-0.00481747;-0.00050354;0.00118802;-0.00185958;0.00273187;0.00329633;0.00941178;0;0.019344;-0.150301;-0.0373384;-0.630331;0.649078;-6.91235;0.000170906;-0.000204851;4.83334e-05;0.000323442;-0.000104202;0.000213822;-3.53598;-0.282807;0.000257489;0.000285096;3.10398;0.322167;5.84461;50.8446;0.000753391;0.000169838;0.00106591;-0.00147577;4.77864e-05;-0.00235769;0.00489903;0;0.0379092;0.0441776;3.2665
163000;164;25.7721;0.00768589;0.000298315;-2.20116;25.6769;0.225512;-0.044707;0.00924344;-0.343846;-0.102332;-0.0382882;-0.270556;0.291785;-7.12878;-0.000269272;-0.000230061;0.0026558;0.00267378;-0.000287256;0.00148052;0.10139;9.86288;0.00188558;0.00197403;9.30801;0.107434;120.011;165.011;-0.00495449;-0.000270706;0.0012531;-0.0017089;0.00265504;0.00471345;0.00981592;0;0.014787;-0.149662;-0.0401984;-0.635973;0.654581;-6.91799;0.000146152;-0.000227051;2.11874e-05;0.000319161;-0.000151822;0.000235492;-6.89809;-0.144968;0.000277585;0.000313989;2.10221;0.47569;5.62357;50.6236;0.00108434;0.000145208;0.000938499;-0.00139275;2.07727e-05;-0.00296385;0.00662556;0;0.034797;0.0461909;3.27403
164000;165;25.7717;0.00730284;0.000283447;-2.20168;25.6765;0.219634;-0.0452296;0.00886511;-0.349723;-0.103994;-0.0385158;-0.269152;0.291103;-7.12738;-0.000373806;-0.00024202;0.00289736;0.00291517;-0.000391615;0.00165339;0.129016;7.75096;0.00208627;0.00220452;7.44395;0.134337;119.595;164.595;-0.00415212;-0.000375377;0.00130948;-0.00178846;0.00289653;0.00392997;0.0108646;0;0.0158583;-0.150783;-0.0398035;-0.641893;0.660565;-6.92391;0.000200903;-0.000228485;-6.27948e-05;0.000332853;-0.000194745;0.000263799;3.19936;0.312563;0.000308068;0.000351732;1.70918;0.585077;13.2911;58.2911;0.00082989;0.000199948;0.000943553;-0.00140083;-6.32138e-05;-0.00258729;0.00543462;0;0.0275677;0.0474773;3.28084
165000;166;25.7694;0.00503213;0.000195314;-2.20075;25.6744;0.214662;-0.0442982;0.0067079;-0.354695;-0.104524;-0.0399781;-0.275747;0.29759;-7.13397;-0.000253146;-0.00019293;0.00265261;0.00266536;-0.0002659;0.00146563;0.0954329;10.4786;0.00187185;0.00195418;10.0239;0.0997613;119.956;164.956;-0.00418434;-0.000254658;0.00136774;-0.00174908;0.0026517;0.00401927;0.011681;0;0.0154151;-0.151736;-0.041268;-0.650715;0.669445;-6.93273;0.000158215;-0.000229408;-0.000135907;0.000283652;-0.000261344;0.000272498;1.16414;0.859;0.000314741;0.00036333;1.08536;0.921354;16.0715;61.0715;0.0013833;0.000157025;0.00110034;-0.00155955;-0.000136486;-0.00261004;0.00538859;0;0.0277733;0.0479185;3.28869
166000;167;25.7698;0.00540599;0.000209824;-2.20115;25.6747;0.211465;-0.0446985;0.00707536;-0.357893;-0.105066;-0.0429217;-0.272505;0.295195;-7.13073;-0.000452275;-0.000518712;0.0025572;0.0026441;-0.000539171;0.00159164;0.176863;5.65408;0.00196724;0.00212218;4.90401;0.203915;127.589;172.589;-0.00520861;-0.000454325;0.00105686;-0.00208955;0.00255678;0.00546607;0.00990285;0;0.0149696;-0.152091;-0.0435726;-0.652146;0.671062;-6.93416;0.00014389;-0.000236787;-5.80357e-05;0.000300341;-0.000214486;0.000257413;2.47934;0.403333;0.00029861;0.000343218;1.40028;0.714143;10.6169;55.6169;0.00116646;0.000142658;0.00111381;-0.00158765;-5.86279e-05;-0.00277734;0.00668079;0;0.0286389;0.0504397;3.29604
167000;168;25.7697;0.00528316;0.000205057;-2.20028;25.6747;0.205742;-0.0438261;0.00707335;-0.363616;-0.10523;-0.0438504;-0.277176;0.299705;-7.1354;-0.000255348;-0.000247987;0.00210395;0.00212973;-0.000281132;0.00120543;0.121366;8.23954;0.00152221;0.00160724;7.57556;0.132003;125.236;170.236;-0.00474813;-0.000256873;0.00127136;-0.00176376;0.00210317;0.00472539;0.0108238;0;0.0173241;-0.152555;-0.0446444;-0.660665;0.679518;-6.94268;0.000223425;-0.000278727;-0.000218566;0.000358137;-0.000353278;0.000355707;1.02223;0.978251;0.000410739;0.000474276;1.01376;0.986432;19.1315;64.1315;0.0015888;0.000222293;0.000972637;-0.00153064;-0.000219;-0.00312709;0.00610516;0;0.0348581;0.0514843;3.30352
168000;169;25.7662;0.00179467;6.96572e-05;-2.19942;25.6714;0.193403;-0.0429716;0.00374112;-0.375955;-0.107439;-0.0480128;-0.267322;0.292078;-7.12555;-0.000344094;-0.000114872;0.0019043;0.00191015;-0.000349948;0.00113005;0.180694;5.53423;0.00140469;0.00150673;5.45839;0.183204;123.923;168.923;-0.00449204;-0.000345343;0.00135784;-0.00158428;0.00190338;0.0034436;0.0119979;0;0.0183999;-0.153899;-0.0469902;-0.659735;0.679075;-6.94175;0.000292801;-0.000270565;-0.000339488;0.000392773;-0.00043946;0.000416116;0.862478;1.15945;0.000480742;0.000554822;0.893763;1.11887;25.1952;70.1952;0.00113763;0.000291516;0.00108387;-0.00162585;-0.000340039;-0.00218597;0.00600766;0;0.033522;0.0530536;3.31101
169000;170;25.7666;0.00217988;8.46082e-05;-2.20033;25.6717;0.187971;-0.0438757;0.00409061;-0.381387;-0.106527;-0.0475274;-0.276312;0.299926;-7.13454;-0.00030311;-0.000266646;0.00193867;0.00196995;-0.00033439;0.00115217;0.15635;6.39593;0.00143778;0.00153623;5.89118;0.169745;127.729;172.729;-0.00465624;-0.000304716;0.00128154;-0.00181137;0.00193789;0.00463507;0.0113949;0;0.0179527;-0.153678;-0.0468488;-0.671317;0.690274;-6.95333;0.000160351;-0.00023548;-0.000478803;0.000237737;-0.00055619;0.000396964;0.334899;2.98598;0.000470505;0.000529285;0.427439;2.33952;30.0472;75.0472;0.0010102;0.000159051;0.00115739;-0.00162924;-0.000479446;-0.00146545;0.00623625;0;0.0258934;0.0547973;3.31788
170000;171;25.7681;0.00370434;0.000143778;-2.20112;25.6732;0.186538;-0.044667;0.00556333;-0.38282;-0.107056;-0.0492347;-0.277292;0.30129;-7.13552;-0.00020308;-0.000232924;0.00205679;0.00208055;-0.000226838;0.00115369;0.0987363;10.128;0.0014685;0.00153826;9.17198;0.109028;125.924;170.924;-0.00483239;-0.000204771;0.00139116;-0.00185334;0.00205585;0.00463287;0.0133612;0;0.0202593;-0.154406;-0.0493482;-0.675192;0.694378;-6.95721;0.000285759;-0.000289727;-0.000570245;0.000374601;-0.000659087;0.000516844;0.501117;1.99554;0.000604287;0.000689126;0.568364;1.75944;30.9018;75.9018;0.00095865;0.000284428;0.00107719;-0.00165782;-0.000570784;-0.00173103;0.00665286;0;0.0272495;0.0556197;3.32466
171000;172;25.7678;0.00341159;0.000132415;-2.20105;25.673;0.179155;-0.044605;0.00532739;-0.390203;-0.107876;-0.0516589;-0.272434;0.297534;-7.13066;-0.000280641;-0.000280803;0.00170512;0.00174406;-0.000319585;0.00103182;0.164587;6.0758;0.00128258;0.00137576;5.45727;0.183242;130.064;175.064;-0.00464797;-0.000282159;0.00120637;-0.00176503;0.00170443;0.00519978;0.0118753;0;0.0233183;-0.155197;-0.0512607;-0.67646;0.695925;-6.95847;0.000221598;-0.000396321;-0.000626593;0.000377957;-0.000782952;0.000580455;0.353655;2.82761;0.000683711;0.000773939;0.482733;2.07154;27.5472;72.5472;0.000716481;0.000220052;0.00100892;-0.00180276;-0.000627024;-0.000478441;0.0084248;0;0.0259113;0.0582374;3.3318
172000;173;25.768;0.0035841;0.000139111;-2.20135;25.6731;0.177174;-0.044896;0.00548933;-0.392184;-0.108597;-0.0527401;-0.278842;0.303854;-7.13707;-0.000368951;-0.000474208;0.00174125;0.00184292;-0.000470618;0.00115677;0.211889;4.71946;0.00141188;0.00154236;3.91596;0.255366;135.528;0.528269;-0.00520523;-0.000371007;0.00113681;-0.00208183;0.00174072;0.00569766;0.0110465;0;0.0207722;-0.156059;-0.0528368;-0.685054;0.704588;-6.96707;0.000128711;-0.00036295;-0.000740761;0.000260303;-0.000872353;0.000566328;0.173755;5.75522;0.000685025;0.000755104;0.298392;3.35129;30.8365;75.8365;0.000264669;0.000127052;0.00113052;-0.00185772;-0.000741334;0.000186146;0.00819941;0;0.0211162;0.0588068;3.33485
173000;174;25.768;0.00360054;0.000139749;-2.2005;25.6733;0.170467;-0.0440538;0.00562345;-0.398891;-0.109358;-0.0535065;-0.276847;0.302435;-7.13507;-0.000132755;-0.000147302;0.00116499;0.0011815;-0.000149264;0.000665381;0.113953;8.77551;0.000841843;0.000887175;7.91549;0.126335;131.552;176.552;-0.00459888;-0.000134012;0.00129988;-0.00159261;0.00116416;0.00401986;0.0107018;0;0.0143161;-0.155894;-0.0535072;-0.692556;0.711898;-6.97457;0.000285981;-0.000315125;-0.000797707;0.000370953;-0.00088268;0.000626817;0.358504;2.78937;0.000743614;0.000835755;0.420258;2.37949;35.3181;80.3181;-1.74378e-05;0.00028467;0.00101821;-0.00164991;-0.000798177;6.45396e-06;0.00860613;0;0.0222244;0.060817;3.33873
174000;175;25.7678;0.00338892;0.000131535;-2.201;25.6731;0.162295;-0.0445534;0.00542118;-0.407062;-0.109896;-0.0564327;-0.27701;0.303309;-7.13523;-6.71212e-05;-0.000255305;0.00107269;0.00112727;-0.000121694;0.00062448;0.0625725;15.9815;0.000795186;0.00083264;9.26315;0.107955;137.501;2.50124;-0.00454634;-6.85471e-05;0.0011989;-0.00170786;0.00107201;0.00344028;0.0106896;0;0.0163903;-0.157049;-0.0577077;-0.695629;0.715468;-6.97764;0.00013582;-0.000333091;-0.000753213;0.000246771;-0.000864164;0.000555468;0.18032;5.54568;0.000673606;0.000740624;0.285561;3.50188;33.3825;78.3825;0.000246511;0.000134587;0.000937597;-0.00160491;-0.000753597;-0.000186971;0.00907541;0;0.0237672;0.0627411;3.34658
175000;176;25.7695;0.00512917;0.00019908;-2.20091;25.6748;0.161768;-0.0444619;0.00717902;-0.40759;-0.110877;-0.0574818;-0.277659;0.304454;-7.13588;-0.000453679;-0.000531872;0.00150788;0.00164282;-0.000588613;0.00111572;0.300871;3.32368;0.00133538;0.00148762;2.791;0.358295;140.07;5.07007;-0.00492856;-0.000455799;0.00106534;-0.00212595;0.00150746;0.00469183;0.0100609;0;0.0243548;-0.158213;-0.0594028;-0.700875;0.720962;-6.98289;2.6605e-05;-0.000230694;-0.000758232;8.93917e-05;-0.000821019;0.000455205;0.0350882;28.4996;0.000579446;0.00060694;0.108879;9.18451;37.6007;82.6007;-9.23889e-07;2.5456e-05;0.00107094;-0.00153335;-0.000758779;0.000159579;0.0085715;0;0.0207811;0.064924;3.35382
176000;177;25.77;0.00562689;0.000218398;-2.20163;25.6753;0.157981;-0.0451772;0.00764083;-0.411376;-0.111435;-0.0593217;-0.275927;0.303435;-7.13415;-0.000230625;-0.000273759;0.00134103;0.00138735;-0.000276945;0.000832146;0.171976;5.81476;0.0010297;0.00110953;5.00948;0.199622;134.035;179.035;-0.00461546;-0.000232053;0.00116696;-0.00171222;0.00134039;0.00460294;0.0114487;0;0.0153805;-0.15898;-0.061273;-0.703413;0.723753;-6.98543;-6.71961e-05;-0.000216656;-0.000727433;-2.45015e-06;-0.000792179;0.000394865;-0.0923742;-10.8255;0.000527305;0.000526486;;;37.556;82.556;-1.90741e-05;-6.81662e-05;0.000975484;-0.00140958;-0.000727886;-0.000267702;0.00792424;0;0.0265285;0.0665206;3.36146
177000;178;25.7695;0.00516099;0.000200315;-2.2019;25.6748;0.152326;-0.0454507;0.00718394;-0.417032;-0.112189;-0.0634464;-0.269685;0.298901;-7.12791;-0.00028773;-0.000108129;0.00115204;0.00116012;-0.000295805;0.000727961;0.249757;4.0039;0.000888579;0.000970614;3.92189;0.254979;130.651;175.651;-0.00480778;-0.000288854;0.00128915;-0.0015034;0.00115122;0.00498723;0.0107177;0;0.0154851;-0.160322;-0.065696;-0.701578;0.722655;-6.98359;-2.21679e-05;-0.000193758;-0.000734627;2.71165e-05;-0.000783911;0.000405514;-0.0301757;-33.1392;0.000531877;0.000540685;0.0345912;28.9091;40.2055;85.2055;0.000374322;-2.29861e-05;0.00090553;-0.00129383;-0.000735019;-0.000869655;0.00832989;0;0.0292541;0.0688371;3.36789
178000;179;25.768;0.00362448;0.000140678;-2.20109;25.6734;0.143442;-0.0446452;0.00576199;-0.425915;-0.114247;-0.0680176;-0.262317;0.29409;-7.12054;-0.000118541;0.000194081;0.00111855;0.00114829;-0.000148274;0.00064828;0.105977;9.43603;0.000819433;0.000864373;7.74434;0.129127;116.054;161.054;-0.00472044;-0.00011918;0.00153727;-0.00114745;0.00111739;0.00405983;0.00927718;0;0.0308285;-0.161947;-0.0685668;-0.70732;0.728856;-6.98934;-6.62992e-06;-0.000184762;-0.000643766;4.3072e-05;-0.000693467;0.00036827;;;0.000477317;0.000491026;0.062111;16.1002;38.5954;83.5954;-0.000199995;-7.36546e-06;0.00085668;-0.00122687;-0.000644116;-0.00107805;0.00731969;0;0.0216882;0.0705223;3.37505
179000;180;25.7698;0.00545465;0.000211713;-2.20147;25.6752;0.137855;-0.0450157;0.00759775;-0.431503;-0.112488;-0.0653466;-0.276528;0.3056;-7.13475;-0.000292805;-0.000121984;0.0014134;0.00142208;-0.000301482;0.00086178;0.207163;4.82711;0.0010629;0.00114904;4.71696;0.212001;128.059;173.059;-0.00488345;-0.000293937;0.00126773;-0.00150933;0.00141261;0.00537688;0.0110046;0;0.0198893;-0.160404;-0.0678612;-0.723372;0.744044;-7.00539;-7.11358e-05;-0.000111964;-0.000490167;-4.30958e-05;-0.000518207;0.000237556;-0.145126;-6.89058;0.00033204;0.000316741;-0.0831632;-12.0245;38.2508;83.2508;0.000389412;-7.18323e-05;0.000961086;-0.00118546;-0.000490623;-0.00109743;0.00817275;0;0.0218593;0.0735718;3.38253
180000;181;25.7689;0.00457163;0.00017744;-2.20139;25.6744;0.135075;-0.0449369;0.006733;-0.434282;-0.112779;-0.0691226;-0.268879;0.299655;-7.1271;-0.000338497;-1.15473e-05;0.0014009;0.00140098;-0.000338573;0.000869776;0.241628;4.1386;0.00106494;0.0011597;4.13789;0.241669;124.911;169.911;-0.0044247;-0.00033948;0.00138119;-0.00140186;0.00139995;0.00366089;0.010665;0;0.0141081;-0.160671;-0.0714127;-0.719496;0.740668;-7.00151;-1.89768e-05;-0.000111099;-0.000276278;2.23551e-05;-0.00031761;0.000169982;-0.0686873;-14.5587;0.000219571;0.000226643;0.0703855;14.2075;28.2604;73.2604;-2.5198e-05;-1.97557e-05;0.00103054;-0.00125303;-0.000276803;-0.00139305;0.00808089;0;0.0219562;0.0751726;3.39005
181000;182;25.769;0.00467133;0.00018131;-2.20205;25.6744;0.131622;-0.0455992;0.00679422;-0.437736;-0.11339;-0.0700043;-0.271288;0.30225;-7.12951;-0.000279965;-2.3455e-05;0.00095621;0.000956655;-0.00028041;0.000618533;0.292786;3.41546;0.000748947;0.00082471;3.41163;0.293115;129.361;174.361;-0.00444559;-0.000281003;0.0013958;-0.00144096;0.000955237;0.00437607;0.0126926;0;0.0160532;-0.162248;-0.0707453;-0.728363;0.749561;-7.01038;2.41429e-05;-0.000161399;-0.00036767;8.20654e-05;-0.000425592;0.000253829;0.0656646;15.2289;0.000314671;0.000338438;0.192826;5.18602;29.0046;74.0046;0.00024279;2.30888e-05;0.0011376;-0.00146091;-0.000368304;-0.00136547;0.00959738;0;0.023092;0.0772648;3.39708
182000;183;25.7703;0.00590047;0.000229017;-2.20275;25.6756;0.127106;-0.0463019;0.00799037;-0.442252;-0.114246;-0.0694747;-0.275834;0.306535;-7.13406;-0.000137576;-8.14988e-05;0.00127968;0.00128435;-0.000142247;0.000713299;0.107508;9.30164;0.000907374;0.000951066;9.02903;0.110754;126.797;171.797;-0.00468516;-0.000138596;0.00126987;-0.00143095;0.00127888;0.00430481;0.010889;0;0.0299738;-0.163754;-0.071615;-0.736163;0.757549;-7.01818;-1.65806e-05;-2.523e-05;-0.00014921;-1.19433e-05;-0.000153847;7.0952e-05;-0.111123;-8.99906;9.88247e-05;9.46027e-05;-0.0776305;-12.8815;36.2345;81.2345;-0.000205244;-1.76256e-05;0.00139525;-0.0014459;-0.000150183;-7.86808e-05;0.0102303;0;0.0264117;0.0805546;3.4041
183000;184;25.7711;0.00677119;0.000262812;-2.20195;25.6766;0.120342;-0.0454962;0.00896599;-0.449016;-0.114762;-0.07075;-0.276023;0.307188;-7.13425;-0.000150498;-0.000147061;0.00120174;0.00121755;-0.000166307;0.000691926;0.125233;7.98508;0.000872433;0.000922569;7.3211;0.136592;130.704;175.704;-0.00479795;-0.000151655;0.00123616;-0.00152841;0.00120099;0.00431733;0.0112607;0;0.0207744;-0.163967;-0.0726501;-0.745658;0.766921;-7.02767;0.00011275;1.18631e-05;-0.00024367;0.000113144;-0.000244065;0.000178604;0.462715;2.16116;0.000210801;0.000238139;0.463583;2.15711;48.0029;93.0029;-0.000646203;0.000111375;0.00168118;-0.00165805;-0.000245084;0.000442334;0.0125546;0;0.0288518;0.0827738;3.4079
184000;185;25.7714;0.00700531;0.000271899;-2.2038;25.6767;0.115967;-0.047346;0.00906241;-0.453391;-0.11605;-0.0716622;-0.279111;0.310655;-7.13734;-8.19967e-05;9.16137e-05;0.00142071;0.00142627;-8.75614e-05;0.000756918;0.0577153;17.3264;0.00098134;0.00100922;16.2889;0.0613916;118.592;163.592;-0.00487181;-8.28257e-05;0.00147618;-0.00129088;0.00141963;0.00467664;0.0106071;0;0.0187943;-0.165842;-0.0723967;-0.755605;0.776971;-7.03762;0.000207435;0.000108126;-0.000179122;0.000235624;-0.00020731;0.000221467;1.15807;0.863506;0.000255902;0.00029529;1.13658;0.879836;59.3528;104.353;-0.00106042;0.000206125;0.001838;-0.00162242;-0.000180805;0.000725481;0.0143611;0;0.0279093;0.0868018;3.41687
185000;186;25.7702;0.00583706;0.000226556;-2.20327;25.6756;0.109476;-0.0468189;0.00796358;-0.459881;-0.117457;-0.0719581;-0.280575;0.312565;-7.1388;-0.000246051;0.000250441;0.00149256;0.00152792;-0.000281407;0.000904663;0.164851;6.06608;0.00112422;0.00120622;5.42958;0.184176;115.147;160.147;-0.0043859;-0.000246711;0.00167914;-0.00117578;0.00149119;0.00364278;0.0094053;0;0.0156551;-0.167257;-0.0717939;-0.763391;0.784789;-7.04541;0.00033051;2.37355e-05;-0.000120113;0.000331756;-0.000121359;0.000226558;2.75167;0.363416;0.000270844;0.000302077;2.73367;0.365809;46.6145;91.6145;-0.00182349;0.000328112;0.00223665;-0.00219017;-0.000122614;0.00230566;0.0167498;0;0.027806;0.0883799;3.42032
186000;187;25.7699;0.00554808;0.000215339;-2.2032;25.6754;0.103364;-0.0467537;0.00770447;-0.465994;-0.117787;-0.0741696;-0.276996;0.310002;-7.13522;-7.84025e-05;0.000305909;0.00174453;0.0017945;-0.000128368;0.000961432;0.0449418;22.251;0.00124133;0.00128191;13.9793;0.0715342;110.596;155.596;-0.00433183;-7.89873e-05;0.00173832;-0.00112389;0.00174307;0.00368474;0.0111938;0;0.0144025;-0.168257;-0.0743312;-0.762826;0.78469;-7.04484;0.000377823;2.14136e-05;-0.000184679;0.000378637;-0.000185493;0.000282065;2.04583;0.488799;0.000332003;0.000376087;2.04124;0.489898;45.9005;90.9005;-0.00146026;0.000375402;0.00224231;-0.00220073;-0.000187194;0.00206235;0.0168697;0;0.0235703;0.0924482;3.42662
187000;188;25.7691;0.0046838;0.000181794;-2.20413;25.6744;0.0967254;-0.0476836;0.00678305;-0.472632;-0.120151;-0.0747463;-0.276171;0.310313;-7.1344;-4.77655e-05;3.96048e-05;0.00160649;0.00160743;-4.87132e-05;0.000828073;0.0297329;33.6327;0.00108822;0.0011041;32.9979;0.0303049;119.705;164.705;-0.00521407;-4.8798e-05;0.00151917;-0.00143752;0.00160533;0.0046656;0.00956083;0;0.0154862;-0.17096;-0.0739533;-0.768517;0.790769;-7.05053;0.000361593;-4.20982e-05;-0.000174888;0.000364877;-0.000178171;0.000271524;2.06757;0.48366;0.000319646;0.000362032;2.0479;0.488306;39.284;84.284;-0.00169873;0.000359121;0.00213901;-0.00222438;-0.000177175;0.0018108;0.0170598;0;0.0244005;0.095964;3.43395
188000;189;25.7676;0.00323375;0.000125512;-2.20402;25.673;0.0858731;-0.0475751;0.00537557;-0.483485;-0.121206;-0.0748579;-0.279483;0.313696;-7.13771;-0.00014854;0.000188613;0.00137264;0.00139568;-0.000171577;0.000783627;0.108215;9.24089;0.000992599;0.00104484;8.1344;0.122935;116.855;161.855;-0.00453182;-0.000149369;0.00168105;-0.00130156;0.00137125;0.00316607;0.0106753;0;0.016664;-0.172521;-0.0731302;-0.779713;0.801913;-7.06173;0.000453312;-0.000138346;-0.000169657;0.000482653;-0.000198998;0.000340825;2.67194;0.37426;0.00040475;0.000454434;2.42542;0.4123;31.042;76.042;-0.000950505;0.000450869;0.00193725;-0.00221523;-0.000171524;0.00123251;0.0148124;0;0.0305623;0.101719;3.44045
189000;190;25.7664;0.00198678;7.71136e-05;-2.20434;25.6718;0.0803147;-0.0478917;0.00411482;-0.489043;-0.122146;-0.0755334;-0.279867;0.314564;-7.13809;-0.000164433;0.000200657;0.00193106;0.0019501;-0.000183474;0.00106679;0.085152;11.7437;0.00136534;0.00142238;10.6287;0.0940848;113.787;158.787;-0.00449148;-0.000165179;0.00164183;-0.0012375;0.00192973;0.00459053;0.0105232;0;0.0138198;-0.173673;-0.0733358;-0.783717;0.806073;-7.06573;0.000553882;-0.000218539;-0.000314353;0.000605787;-0.000366258;0.000486022;1.76198;0.567545;0.000566861;0.000648029;1.65399;0.604598;30.1026;75.1026;-0.00113251;0.000550786;0.00205948;-0.00249854;-0.000316451;0.00202252;0.0155497;0;0.0269041;0.104011;3.44813
190000;191;25.7668;0.00245279;9.5201e-05;-2.2046;25.6722;0.0746236;-0.0481537;0.00457723;-0.494734;-0.123485;-0.075614;-0.281594;0.31664;-7.13982;-0.000191645;0.000153581;0.00175706;0.00176909;-0.000203674;0.000986384;0.109071;9.16835;0.00125282;0.00131518;8.6859;0.115129;117.478;162.478;-0.00470652;-0.00019268;0.0017577;-0.00144741;0.00175553;0.00278956;0.0109395;0;0.0159046;-0.175435;-0.0734312;-0.791042;0.813583;-7.07306;0.000514507;-0.000228668;-0.000291135;0.000574885;-0.000351513;0.000463199;1.76724;0.565853;0.000540014;0.000617599;1.63546;0.61145;28.7714;73.7714;-0.000834915;0.000511397;0.00204596;-0.00250513;-0.000293203;0.00238704;0.0160547;0;0.0229772;0.109731;3.45499
191000;192;25.766;0.00164964;6.40278e-05;-2.20567;25.6713;0.0696446;-0.0492162;0.00369383;-0.499713;-0.124071;-0.0775617;-0.27376;0.31041;-7.13198;-6.73699e-05;0.000264532;0.00147178;0.00151598;-0.000111566;0.000813771;0.0457744;21.8463;0.00104982;0.00108503;13.5882;0.0735932;112.75;157.75;-0.00494328;-6.80644e-05;0.00173917;-0.00120784;0.00147031;0.00378488;0.0107723;0;0.0183623;-0.176024;-0.0746629;-0.78755;0.810428;-7.06956;0.000472366;-0.000238792;-0.000406914;0.000533031;-0.000467579;0.000500305;1.16085;0.861437;0.000578114;0.000667073;1.13998;0.877207;30.2875;75.2875;-0.000499574;0.000469426;0.00195773;-0.00243724;-0.000408803;0.000920575;0.0165762;0;0.030678;0.113416;3.46243
192000;193;25.7655;0.00111565;4.33022e-05;-2.20532;25.6708;0.0655504;-0.0488719;0.00319824;-0.503807;-0.125856;-0.0774333;-0.27907;0.315778;-7.13729;3.17103e-05;0.000340468;0.00115712;0.0012521;-6.3274e-05;0.000657689;-0.0274045;-36.4903;0.000856607;0.000876919;19.7886;0.0505341;108.805;153.805;-0.00508669;3.10555e-05;0.00187666;-0.001194;0.00115542;0.00420348;0.011609;0;0.0136321;-0.178074;-0.0750539;-0.795405;0.818543;-7.07742;0.000567736;-0.000296757;-0.000431203;0.000649244;-0.000512711;0.000580977;1.31663;0.759513;0.000672397;0.000774636;1.2663;0.789704;28.6359;73.6359;-0.000483737;0.00056514;0.00170275;-0.00229827;-0.000432609;0.000573473;0.0158956;0;0.0245618;0.118296;3.47016
193000;194;25.7663;0.00197124;7.65103e-05;-2.20588;25.6717;0.061516;-0.0494322;0.00401882;-0.507842;-0.126016;-0.0782684;-0.280461;0.317276;-7.13868;-8.55076e-05;0.000464618;0.00155165;0.00167431;-0.000208173;0.000941243;0.0551076;18.1463;0.00119168;0.00125499;8.04287;0.124334;107.575;152.575;-0.00452846;-8.59944e-05;0.00202243;-0.00109065;0.00154971;0.0035478;0.011936;0;0.0159134;-0.178691;-0.0757205;-0.800307;0.823502;-7.08232;0.00053208;-0.000342961;-0.00051628;0.000634308;-0.000618508;0.000626408;1.0306;0.970306;0.000723333;0.000835211;1.02554;0.975092;28.2613;73.2613;-0.000442218;0.000529335;0.00168077;-0.00236882;-0.000517635;0.000899105;0.0161114;0;0.0267606;0.125999;3.47711
194000;195;25.7651;0.000778969;3.02343e-05;-2.20612;25.6705;0.0545915;-0.0496739;0.00281704;-0.514766;-0.12793;-0.0802365;-0.273499;0.312419;-7.13172;-6.57779e-05;0.000434727;0.00125425;0.00138456;-0.000196084;0.000790321;0.052444;19.068;0.000994862;0.00105376;7.06104;0.141622;107.843;152.843;-0.00504503;-6.63118e-05;0.00199254;-0.00112103;0.00125236;0.00421135;0.0111356;0;0.0153469;-0.180624;-0.0771303;-0.79906;0.822843;-7.08107;0.00055519;-0.000372209;-0.000510731;0.000672296;-0.000627837;0.000650066;1.08705;0.919921;0.000750778;0.000866755;1.07081;0.93387;27.1955;72.1955;-0.000358221;0.000552319;0.00167928;-0.00242589;-0.000512072;0.000972027;0.0157643;0;0.0244006;0.131559;3.4842
195000;196;25.7667;0.00233933;9.07972e-05;-2.20546;25.6721;0.0557082;-0.0490094;0.00443786;-0.513649;-0.128381;-0.0774517;-0.281132;0.318615;-7.13936;-2.83685e-05;0.000594215;0.00118361;0.00142634;-0.000271092;0.000848714;0.0239678;41.7227;0.00105295;0.00113162;5.26144;0.190062;103.021;148.021;-0.00551033;-2.87317e-05;0.00222932;-0.00103891;0.00118131;0.00490329;0.0110374;0;0.0170279;-0.181194;-0.0752668;-0.807469;0.830965;-7.08948;0.00045489;-0.000376871;-0.000581546;0.000577438;-0.000704095;0.000640767;0.782208;1.27843;0.000741097;0.000854355;0.820115;1.21934;27.9042;72.9042;7.68736e-05;0.000452323;0.00154139;-0.00229712;-0.000582664;0.000297828;0.0152906;0;0.0279306;0.135117;3.48483
196000;197;25.7658;0.0014128;5.48356e-05;-2.20704;25.671;0.0494008;-0.0505929;0.00338474;-0.519957;-0.12836;-0.0796412;-0.278523;0.31685;-7.13675;-8.72793e-05;0.000587213;0.00150491;0.00169805;-0.00028042;0.000989234;0.0579965;17.2424;0.00123615;0.00131898;6.05536;0.165143;103.881;148.881;-0.00496553;-8.74937e-05;0.00205628;-0.000879517;0.00150297;0.00307865;0.0100935;0;0.018054;-0.18147;-0.0765435;-0.810718;0.834298;-7.09273;0.000514491;-0.000409381;-0.000686655;0.000640747;-0.000812911;0.000726829;0.749272;1.33463;0.000841229;0.000969105;0.788213;1.26869;29.0473;74.0473;-1.77195e-05;0.000511608;0.00161531;-0.0024365;-0.000687876;0.000913625;0.0153335;0;0.0244609;0.143835;3.4921
197000;198;25.765;0.000647274;2.51228e-05;-2.20721;25.6703;0.0396273;-0.0507624;0.00261875;-0.52973;-0.130093;-0.0790159;-0.282217;0.320646;-7.14044;-4.14816e-05;0.000239083;0.0011806;0.0012257;-8.65898e-05;0.000656147;0.0351361;28.4607;0.000847475;0.000874863;14.1553;0.0706449;115.086;160.086;-0.00495579;-4.25359e-05;0.00195184;-0.00147159;0.00117872;0.00368966;0.0128903;0;0.0162975;-0.183422;-0.0767369;-0.817012;0.840857;-7.09903;0.000480037;-0.000497694;-0.000669119;0.000665617;-0.000854699;0.000760158;0.717417;1.39389;0.000880014;0.00101354;0.778774;1.28407;25.8916;70.8916;0.000300744;0.0004771;0.00147742;-0.00247508;-0.000670087;0.000223165;0.0159074;0;0.0236003;0.152859;3.49952
198000;199;25.7655;0.00113005;4.38608e-05;-2.20703;25.6708;0.0394149;-0.050585;0.00311889;-0.529943;-0.13054;-0.0801083;-0.282197;0.321081;-7.14042;-5.58652e-05;0.00039816;0.00110435;0.00122784;-0.00017936;0.000703601;0.0505867;19.7681;0.000884431;0.000938134;6.84567;0.146078;109.432;154.432;-0.00493336;-5.67071e-05;0.00215569;-0.00135734;0.0011021;0.00424101;0.0112701;0;0.0172635;-0.184218;-0.0781873;-0.817986;0.842111;-7.1;0.0004812;-0.000492575;-0.000805573;0.000648108;-0.00097248;0.000810294;0.59734;1.67409;0.000941874;0.00108039;0.666449;1.50049;28.6987;73.6987;-0.000258091;0.000478468;0.001402;-0.00238959;-0.000806435;0.000629613;0.0163035;0;0.0232256;0.157462;3.50729
199000;200;25.7641;-0.000220469;-8.55711e-06;-2.20798;25.6693;0.0337452;-0.0515307;0.00169014;-0.535612;-0.13145;-0.0832894;-0.273734;0.314876;-7.13196;-2.67563e-05;0.000572033;0.000963165;0.00122465;-0.00028824;0.000756445;0.0277796;35.9976;0.000927563;0.00100859;4.24871;0.235366;102.602;147.602;-0.00481088;-2.72005e-05;0.00224825;-0.00110253;0.000960804;0.00316066;0.0125988;0;0.0157563;-0.185488;-0.0802005;-0.815561;0.840224;-7.09758;0.000370488;-0.0004697;-0.000795212;0.000536191;-0.000960916;0.000748553;0.465898;2.14639;0.000875873;0.000998071;0.558;1.79211;28.7421;73.7421;-0.00056122;0.000367807;0.00142146;-0.00236307;-0.000796113;0.00183679;0.0163284;0;0.0221408;0.169732;3.51429
200000;201;25.7661;0.00169357;6.57331e-05;-2.20757;25.6713;0.036453;-0.0511249;0.00364245;-0.532905;-0.1329;-0.0794023;-0.281478;0.321242;-7.1397;-9.71188e-05;0.000287657;0.000935022;0.00100978;-0.000171874;0.000590826;0.103868;9.62761;0.000737186;0.000787768;5.8751;0.17021;114.111;159.111;-0.00534659;-9.83378e-05;0.00216483;-0.00158759;0.000932723;0.0043669;0.0126487;0;0.0174315;-0.186902;-0.0781109;-0.823122;0.847682;-7.10514;0.000294515;-0.000466987;-0.000902579;0.000455136;-0.0010632;0.000759168;0.326304;3.06463;0.000899739;0.00101222;0.428081;2.336;30.3086;75.3086;-0.000208509;0.000291575;0.00153334;-0.00246971;-0.000903646;0.00120662;0.0164131;0;0.0226846;0.177736;3.52218
201000;202;25.7651;0.000709202;2.75265e-05;-2.20841;25.6702;0.0287414;-0.0519566;0.0025927;-0.540616;-0.133934;-0.0810182;-0.279191;0.320078;-7.13741;-0.000135418;0.000386159;0.000986995;0.00110702;-0.00025544;0.000681228;0.137203;7.28849;0.000836265;0.000908304;4.33377;0.230746;111.013;156.013;-0.00481801;-0.000136326;0.00217596;-0.00140163;0.000984705;0.00268757;0.0137823;0;0.0163103;-0.188244;-0.0795272;-0.824277;0.849231;-7.10629;0.000290496;-0.000374004;-0.000923592;0.000396461;-0.00102956;0.000713008;0.314529;3.17936;0.000849927;0.000950678;0.385079;2.59687;34.0026;79.0026;0.000255606;0.000288086;0.00147728;-0.00222753;-0.000924614;0.000513384;0.0177389;0;0.0230318;0.187245;3.52963
202000;203;25.766;0.00164804;6.3966e-05;-2.20909;25.6711;0.0278878;-0.052643;0.0034769;-0.54147;-0.134799;-0.080747;-0.278907;0.320125;-7.13713;-6.19505e-05;0.000397023;0.000845725;0.000994877;-0.000211102;0.000602989;0.0732514;13.6516;0.000743674;0.000803986;4.71277;0.212189;108.455;153.455;-0.00512226;-6.29507e-05;0.00226472;-0.00146898;0.000843241;0.00410614;0.0132783;0;0.0177445;-0.189393;-0.0795865;-0.826368;0.85152;-7.10838;0.000241516;-0.000442891;-0.000918584;0.000391268;-0.00106834;0.000729801;0.262922;3.80341;0.0008724;0.000973069;0.36624;2.73045;31.3204;76.3204;-0.000352566;0.000238848;0.00146419;-0.00235218;-0.000919558;0.00125162;0.0169094;0;0.0216337;0.195466;3.53717
203000;204;25.7663;0.00197075;7.64912e-05;-2.2092;25.6714;0.0259636;-0.0527493;0.00379366;-0.543394;-0.136407;-0.0810482;-0.279725;0.321592;-7.13795;-7.99141e-05;0.000442407;0.000503744;0.000741904;-0.000318074;0.000529989;0.15864;6.30357;0.000628074;0.000706652;2.33249;0.428726;103.536;148.536;-0.00515126;-8.09147e-05;0.00236809;-0.00148216;0.000501039;0.00320401;0.013737;0;0.0162864;-0.191442;-0.080445;-0.828375;0.854006;-7.11039;0.000211758;-0.000394289;-0.00088568;0.000338729;-0.00101265;0.00067569;0.239091;4.1825;0.000811914;0.000900919;0.334497;2.98956;32.4399;77.4399;-0.000421045;0.000209438;0.00139961;-0.00219016;-0.000886583;0.00193415;0.016781;0;0.0230308;0.20833;3.54426
204000;205;25.7674;0.00304976;0.000118371;-2.20941;25.6725;0.0261695;-0.0529622;0.00485813;-0.543188;-0.137159;-0.0797523;-0.281902;0.323483;-7.14013;-0.000126613;0.00050282;0.000698099;0.000936024;-0.000364537;0.000650281;0.181367;5.51367;0.000774667;0.000867041;2.5677;0.389453;105.304;150.304;-0.00534962;-0.000127419;0.00237274;-0.00136556;0.000695413;0.00440251;0.0144004;0;0.0171775;-0.192613;-0.0794377;-0.832653;0.858325;-7.11467;0.000142163;-0.000389132;-0.000849377;0.00027664;-0.000983854;0.000630247;0.167373;5.97468;0.000764976;0.00084033;0.28118;3.55644;31.2625;76.2625;-0.00041205;0.000139685;0.00147974;-0.00225986;-0.000850397;0.0021888;0.016502;0;0.0227609;0.222303;3.5515
205000;206;25.7682;0.00387827;0.000150529;-2.2095;25.6733;0.0269948;-0.0530518;0.00568115;-0.542363;-0.137439;-0.0798989;-0.281214;0.32304;-7.13944;-0.000177352;0.000606711;0.000219915;0.00065968;-0.000617117;0.000638399;0.806456;1.23999;0.000737296;0.000851198;1.06897;0.935479;98.7113;143.711;-0.00485576;-0.000177966;0.00247723;-0.00126307;0.000217032;0.00306006;0.0146393;0;0.0177137;-0.193452;-0.0800734;-0.832453;0.858379;-7.11447;5.94671e-05;-0.00035705;-0.000782763;0.00019046;-0.000913755;0.000552107;0.0759708;13.163;0.000681585;0.000736143;0.208436;4.79763;30.5508;75.5508;-0.000213426;5.72335e-05;0.00142798;-0.00214359;-0.000783719;0.0023911;0.0181844;0;0.0252069;0.230288;3.55621
206000;207;25.7674;0.00301719;0.000117107;-2.20999;25.6724;0.0212922;-0.0535414;0.0047801;-0.548065;-0.137933;-0.0802888;-0.278598;0.321074;-7.13682;-3.99793e-05;0.000565116;0.000156362;0.000631771;-0.000515388;0.000573579;0.255684;3.91108;0.000663448;0.000764773;1.22582;0.815783;93.9941;138.994;-0.00493121;-4.06286e-05;0.00240255;-0.00127196;0.000153636;0.00341942;0.0144446;0;0.0171036;-0.194495;-0.080358;-0.833664;0.859814;-7.11568;4.18069e-05;-0.000382845;-0.000903018;0.00017746;-0.00103867;0.000608066;0.0462969;21.5997;0.000758552;0.000810754;0.170853;5.85299;32.1996;77.1996;-0.000890168;3.95025e-05;0.00141336;-0.00218075;-0.000903945;0.00316516;0.0187996;0;0.0255774;0.240829;3.55856
207000;208;25.7686;0.00424643;0.000164818;-2.21047;25.6736;0.0237448;-0.0540219;0.00597036;-0.545613;-0.139407;-0.079593;-0.278787;0.321701;-7.13701;-0.000127963;0.000649424;-0.000266413;0.000455914;-0.000850291;0.000653103;-0.480318;-2.08195;0.00076551;0.000870803;0.536186;1.86502;89.8301;134.83;-0.00505876;-0.000128587;0.00259032;-0.00129174;-0.000269558;0.00263048;0.0161946;0;0.0213227;-0.196333;-0.0799134;-0.835514;0.861984;-7.11753;-5.10664e-05;-0.000395473;-0.000920182;0.000101947;-0.0010732;0.000587571;-0.0554959;-18.0193;0.000751753;0.000783428;0.0949937;10.527;30.6417;75.6417;-0.00142074;-5.38595e-05;0.00160366;-0.00239634;-0.000921391;0.00471261;0.0192721;0;0.0220031;0.256612;3.56617
208000;209;25.77;0.00561388;0.000217893;-2.20987;25.675;0.0225499;-0.0534163;0.00739608;-0.546808;-0.141376;-0.077884;-0.28627;0.328639;-7.14449;6.04628e-05;0.000416352;-0.000435899;0.000296991;-0.000672427;0.000484709;0.138708;7.20937;0.000573514;0.000646278;0.44167;2.26413;77.3219;122.322;-0.00520327;5.93728e-05;0.00236585;-0.00153411;-0.000438612;0.00398812;0.0157616;0;0.0169537;-0.198587;-0.0798085;-0.842072;0.868845;-7.12409;-5.4302e-05;-0.000406193;-0.000789929;0.000125862;-0.000970093;0.000547978;-0.0687429;-14.547;0.000692506;0.000730637;0.129742;7.70759;26.6996;71.6996;-0.00121691;-5.73932e-05;0.00170538;-0.00251932;-0.000791302;0.00395208;0.0208192;0;0.0217478;0.270629;3.57253
209000;210;25.7718;0.00743881;0.000288725;-2.21074;25.6768;0.027565;-0.0542923;0.00914746;-0.541793;-0.143134;-0.0769962;-0.291479;0.33373;-7.1497;-1.34767e-05;0.000368426;0.000234704;0.000499376;-0.000278148;0.000388762;0.0574199;17.4156;0.00045492;0.00051835;1.79536;0.556992;97.6061;142.606;-0.00535185;-1.45676e-05;0.00225967;-0.00152235;0.00023222;0.00444656;0.0144979;0;0.0170953;-0.200713;-0.0796639;-0.847596;0.874672;-7.12961;-9.07159e-05;-0.000312772;-0.000720155;3.82705e-05;-0.000849142;0.000443706;-0.125967;-7.93858;0.000579273;0.000591608;0.0450696;22.1879;27.614;72.614;-0.00197178;-9.401e-05;0.00195863;-0.00258561;-0.000722026;0.00509076;0.0231373;0;0.023366;0.288794;3.58016
210000;211;25.7718;0.007398;0.000287141;-2.21129;25.6767;0.0256597;-0.0548361;0.00906164;-0.543698;-0.144375;-0.0775461;-0.288811;0.332068;-7.14703;-1.39433e-05;0.00058278;-0.000127495;0.00051482;-0.000656258;0.000585539;-0.109363;-9.14382;0.000677764;0.000780719;0.784478;1.27473;88.2522;133.252;-0.00573961;-1.46508e-05;0.00249001;-0.00132467;-0.000130425;0.00499133;0.0147338;0;0.0153736;-0.202778;-0.0802123;-0.846161;0.873808;-7.12818;-0.000166419;-0.000261134;-0.000676404;-5.64285e-05;-0.000786394;0.000364983;-0.246035;-4.06447;0.000506502;0.000486643;-0.071756;-13.9361;27.414;72.414;-0.00224573;-0.000169557;0.00199517;-0.00251859;-0.000678361;0.00529925;0.0220001;0;0.0230521;0.299369;3.58769
211000;212;25.7716;0.00722795;0.000280541;-2.21212;25.6765;0.0231632;-0.0556692;0.00882158;-0.546194;-0.145365;-0.0759246;-0.294476;0.337063;-7.1527;-2.13664e-05;0.000490482;0.000605409;0.000874074;-0.000290031;0.000582052;0.0352925;28.3346;0.000699724;0.00077607;3.01373;0.331815;101.685;146.685;-0.00507357;-2.21194e-05;0.00230363;-0.00132153;0.000602878;0.0036077;0.0148418;0;0.0150096;-0.204619;-0.0794492;-0.854069;0.881825;-7.13608;-0.000194136;-0.000185705;-0.000490907;-0.000104815;-0.000580228;0.000237707;-0.395464;-2.52867;0.000357046;0.000316942;-0.180644;-5.53575;23.0929;68.0929;-0.0031386;-0.000197878;0.00236937;-0.00274154;-0.000493698;0.00696468;0.0241038;0;0.0226732;0.31821;3.59544
212000;213;25.7741;0.00974077;0.000378071;-2.21204;25.679;0.0251699;-0.0555941;0.0113483;-0.544188;-0.145891;-0.0743141;-0.295729;0.338027;-7.15395;-9.35584e-05;0.00054266;0.000333228;0.000702944;-0.000463275;0.00058311;0.280764;3.56171;0.00067804;0.00077748;1.51734;0.659049;98.7049;143.705;-0.0052159;-9.40927e-05;0.00225354;-0.00116749;0.000330837;0.0029795;0.014814;0;0.0166092;-0.205983;-0.0785177;-0.857255;0.885144;-7.13927;-1.39825e-05;-0.000232098;-0.00028197;0.000120024;-0.000415977;0.000268;-0.0495885;-20.166;0.000324804;0.000357333;0.288534;3.46579;16.568;61.568;-0.00295823;-1.80692e-05;0.00240339;-0.00286829;-0.000284832;0.00732703;0.0262327;0;0.0278554;0.341437;3.60202
213000;214;25.7741;0.00972706;0.000377539;-2.21306;25.6789;0.0221136;-0.0566105;0.0112498;-0.547244;-0.146983;-0.0771926;-0.292508;0.336339;-7.15073;-0.000149534;0.000240703;0.000886583;0.000939771;-0.000202722;0.000571247;0.168664;5.92896;0.000703887;0.000761663;4.63575;0.215715;116.888;161.888;-0.00585301;-0.000150804;0.00209459;-0.00161126;0.000884421;0.00437517;0.0149559;0;0.0152995;-0.207733;-0.081181;-0.855608;0.884199;-7.13762;-4.35864e-05;-0.000116595;-0.000310049;2.27462e-07;-0.000353863;0.000177045;-0.140579;-7.11344;0.000235985;0.00023606;;;26.2086;71.2086;-0.0029798;-4.76733e-05;0.00262737;-0.00286129;-0.000313495;0.00587201;0.0272423;0;0.0223896;0.355082;3.60922
214000;215;25.7737;0.00934753;0.000362808;-2.21448;25.6784;0.0237829;-0.0580264;0.0107453;-0.545575;-0.147456;-0.0787275;-0.288141;0.333116;-7.14636;-0.00017329;0.000423023;0.000377799;0.000607105;-0.000402595;0.00050485;0.458682;2.18016;0.000586923;0.000673133;1.50798;0.66314;104.964;149.964;-0.00523361;-0.000174276;0.00231381;-0.00146672;0.000375213;0.00367764;0.0148642;0;0.0162772;-0.209432;-0.0826096;-0.852892;0.882106;-7.13491;-4.20012e-05;-0.000253165;-0.000228531;0.000134531;-0.000405063;0.000269797;-0.183788;-5.44105;0.000324324;0.00035973;0.332125;3.01092;11.4932;56.4932;-0.0036619;-4.64067e-05;0.0024722;-0.00297904;-0.000231555;0.00790065;0.0268384;0;0.0235994;0.377566;3.61667
215000;216;25.7746;0.0102549;0.000398025;-2.21597;25.6792;0.0234382;-0.0595225;0.0115272;-0.545919;-0.149293;-0.0788542;-0.287594;0.333491;-7.14582;-0.00016282;0.000232113;0.000994571;0.00103939;-0.000207634;0.00062351;0.163708;6.10842;0.000771505;0.000831346;5.00584;0.199766;117.698;162.698;-0.00568136;-0.000164094;0.00207971;-0.00161335;0.000992437;0.0041926;0.0147598;0;0.0159739;-0.212358;-0.0831484;-0.852768;0.882736;-7.13478;0.000125417;-3.62987e-05;-0.000190111;0.000129539;-0.000194233;0.000161886;0.659703;1.51583;0.00018817;0.000215848;0.666925;1.49942;38.7851;83.7851;-0.00367096;0.00012075;0.00298189;-0.00305544;-0.000194557;0.00687897;0.026803;0;0.02279;0.400384;3.62311
216000;217;25.7759;0.0115469;0.000448173;-2.21765;25.6803;0.0184345;-0.0612047;0.0126829;-0.550923;-0.151298;-0.0774263;-0.290671;0.336713;-7.1489;-6.13275e-05;0.000402881;0.0015434;0.00163887;-0.000156795;0.00089783;0.0397354;25.1665;0.00114842;0.00119711;10.4523;0.0956727;110.35;155.35;-0.00516751;-6.21953e-05;0.00218627;-0.00137766;0.00154109;0.00391799;0.0134327;0;0.0143076;-0.215898;-0.0830415;-0.85999;0.890556;-7.142;0.000260461;-0.000218538;5.53407e-05;0.000399308;-8.35062e-05;0.000241407;-4.7065;-0.212472;0.000297967;0.000321876;4.78178;0.209127;10.9174;55.9174;-0.00338639;0.000255924;0.0025831;-0.00302075;5.20285e-05;0.00586334;0.0257389;0;0.0216453;0.461032;3.63353
217000;218;25.7754;0.0110698;0.000429655;-2.21757;25.6799;0.0165988;-0.0611174;0.0122128;-0.552759;-0.153356;-0.0762765;-0.294519;0.340701;-7.15274;-0.000308608;0.000126547;0.00188585;0.00189312;-0.000315881;0.0011045;0.163644;6.11083;0.00137948;0.00147267;5.99314;0.166857;119.22;164.22;-0.00540065;-0.00030983;0.00182552;-0.00156871;0.00188419;0.0034677;0.0117247;0;0.014446;-0.218217;-0.0815467;-0.86452;0.895356;-7.14653;0.000295534;-0.000234106;-7.88925e-05;0.000408078;-0.000191436;0.000299757;3.74603;0.266949;0.000353582;0.000399676;2.13166;0.469118;18.1649;63.1649;-0.00312546;0.00029105;0.00253474;-0.00300398;-8.20778e-05;0.00428471;0.0259492;0;0.0234132;0.443055;3.63365
218000;219;25.7762;0.0118342;0.000459322;-2.2183;25.6806;0.0147842;-0.0618499;0.0129179;-0.554573;-0.155013;-0.0758995;-0.298253;0.344593;-7.15648;-0.000199027;0.000333605;0.00219767;0.00224323;-0.000244596;0.00124392;0.0905629;11.042;0.00158333;0.00165855;9.17117;0.109037;111.203;156.203;-0.00513939;-0.000199772;0.0019361;-0.00126505;0.00219585;0.00381031;0.0123852;0;0.0150424;-0.220212;-0.081682;-0.869051;0.90023;-7.15107;0.000170697;-0.000306012;6.81633e-05;0.000429707;-0.000190847;0.000310277;-2.50423;-0.399324;0.000367017;0.000413702;2.25158;0.444132;3.50466;48.5047;-0.00273912;0.00016584;0.00251961;-0.00313192;6.50361e-05;0.00446298;0.0236605;0;0.0223131;0.463797;3.6394
219000;220;25.7776;0.0131835;0.000511695;-2.21987;25.6818;0.0182144;-0.0634195;0.0141344;-0.551143;-0.156221;-0.0759449;-0.299482;0.346211;-7.15771;-0.000252999;-1.07965e-05;0.00269598;0.00269602;-0.000253039;0.00147453;0.0938433;10.6561;0.00188735;0.00196604;10.6546;0.0938565;116.66;161.66;-0.0050789;-0.000254323;0.00161037;-0.0016272;0.00269468;0.00378859;0.0121063;0;0.0148204;-0.222252;-0.0821282;-0.872442;0.904044;-7.15446;0.00012048;-0.00032999;8.9215e-06;0.000399372;-0.00026997;0.000334671;;;0.000388844;0.000446228;1.47932;0.675987;4.03539;49.0354;-0.00216621;0.000116371;0.0022256;-0.00288587;6.49931e-06;0.00277103;0.0223933;0;0.0237811;0.50148;3.64649
220000;221;25.7772;0.0128096;0.000497182;-2.21998;25.6814;0.0123922;-0.0635336;0.0137527;-0.556965;-0.158028;-0.0753058;-0.301832;0.348922;-7.16006;-0.000245044;1.75674e-06;0.00272051;0.00272051;-0.000245045;0.00148278;0.0900727;11.1021;0.00190063;0.00197704;11.1021;0.0900731;116.314;161.314;-0.00529896;-0.000246363;0.00163243;-0.00162409;0.00271918;0.00489417;0.0118059;0;0.0136803;-0.224556;-0.0818888;-0.876655;0.908656;-7.15867;9.83711e-05;-0.000410146;0.000106318;0.00051251;-0.000307821;0.000410165;-0.925257;-1.08078;0.000478508;0.000546887;1.66496;0.600615;178.471;43.4708;-0.00140173;9.44865e-05;0.00199722;-0.00281749;0.000104408;0.00128441;0.0210546;0;0.0233009;0.524428;3.65424
221000;222;25.7783;0.0139175;0.000540183;-2.22153;25.6824;0.0137765;-0.0650792;0.0147304;-0.555581;-0.160384;-0.0766474;-0.299283;0.348092;-7.15751;-0.000295942;0.000223486;0.0026224;0.00263941;-0.000312957;0.00147618;0.112852;8.86119;0.00187266;0.00196825;8.43378;0.118571;113.039;158.039;-0.0053467;-0.000296934;0.00187787;-0.00142609;0.00262066;0.00510704;0.0116625;0;0.0139021;-0.227236;-0.0836073;-0.876127;0.908969;-7.15814;0.000107333;-0.00043622;0.000149975;0.000565395;-0.000308087;0.000436741;-0.715676;-1.39728;0.000511546;0.000582321;1.83518;0.544905;176.988;41.9876;-0.00125257;0.000103602;0.00189434;-0.00276668;0.000148276;0.000835934;0.0198066;0;0.0252945;0.559328;3.6606
222000;223;25.7781;0.0137499;0.000533679;-2.22185;25.6822;0.0101047;-0.0653972;0.0145364;-0.559253;-0.162197;-0.0781343;-0.295973;0.346429;-7.1542;-0.000315588;6.72226e-06;0.0033325;0.00333252;-0.0003156;0.00182406;0.0947;10.5597;0.002334;0.00243208;10.5593;0.0947033;113.71;158.71;-0.00545729;-0.000316946;0.00166749;-0.001648;0.00333112;0.00463176;0.00981621;0;0.0156546;-0.229499;-0.0854858;-0.875434;0.909045;-7.15745;1.43733e-05;-0.000371087;0.00013335;0.000449687;-0.000301964;0.000375825;-0.107786;-9.2776;0.000436751;0.000501101;1.48921;0.671498;174.541;39.541;-0.00100389;1.05186e-05;0.00205941;-0.0028013;0.000131299;0.000853311;0.0204562;0;0.0295137;0.593396;3.66811
223000;224;25.7792;0.0148732;0.000577279;-2.22235;25.6833;0.0118348;-0.0658963;0.01562;-0.557523;-0.164015;-0.0787722;-0.295528;0.347049;-7.15375;-0.000392086;-8.85041e-06;0.0029626;0.00296262;-0.00039211;0.00167737;0.132345;7.55598;0.00211792;0.00223649;7.55559;0.132352;115.995;160.995;-0.00525852;-0.000393426;0.00162441;-0.00163664;0.00296128;0.0045604;0.0104258;0;0.0145099;-0.231695;-0.0860286;-0.877328;0.911476;-7.15934;5.38317e-05;-0.000456845;0.000295751;0.000647378;-0.000297796;0.000472587;-0.182017;-5.49398;0.000558;0.000630116;2.1739;0.460003;170.215;35.2154;-0.000740155;5.05748e-05;0.0016797;-0.00259287;0.000294445;0.000745413;0.0192698;0;0.0244321;0.625997;3.67525
224000;225;25.778;0.0135971;0.000527748;-2.22161;25.6821;0.00508919;-0.0651589;0.0144051;-0.564268;-0.165994;-0.0783296;-0.300798;0.352376;-7.15902;-0.000275319;8.41455e-05;0.00382732;0.00382904;-0.000277044;0.00205304;0.0719353;13.9014;0.00264988;0.00273739;13.821;0.0723534;108.993;153.993;-0.0050357;-0.000276331;0.00159895;-0.00142447;0.00382605;0.0050218;0.0104966;0;0.0176724;-0.23407;-0.0860012;-0.884957;0.91942;-7.16697;-1.95579e-05;-0.000427648;0.000385605;0.000656228;-0.000290181;0.000473205;0.0507199;19.7161;0.000559867;0.000630939;2.26145;0.442195;164.996;29.9964;-3.44678e-06;-2.31248e-05;0.00185054;-0.00270492;0.000383985;0.000704963;0.0188966;0;0.0340926;0.662519;3.68301
225000;226;25.7792;0.0147936;0.000574188;-2.22286;25.6831;0.00443087;-0.0664102;0.015498;-0.564927;-0.167405;-0.0785827;-0.299321;0.351842;-7.15754;-0.000492728;-6.70227e-05;0.00365838;0.00365946;-0.000493809;0.00207663;0.134685;7.42475;0.0026198;0.00276885;7.41067;0.134941;113.61;158.61;-0.00500562;-0.000494122;0.00154362;-0.001671;0.00365719;0.00469064;0.00988074;0;0.0207297;-0.235704;-0.0862249;-0.885858;0.920725;-7.16787;8.2903e-06;-0.000330809;0.000414465;0.000599551;-0.000176796;0.000388174;;;0.000469854;0.000517565;3.3912;0.294881;161.567;26.5669;-0.000297697;4.8888e-06;0.00196848;-0.00262916;0.000412583;0.00148832;0.0201326;0;0.0371954;0.680754;3.6894
226000;227;25.7774;0.0130545;0.000506688;-2.22185;25.6815;0.00282003;-0.0654011;0.0138399;-0.566538;-0.170242;-0.0809505;-0.295356;0.350387;-7.15358;-0.000520955;-0.0001656;0.00368688;0.00369339;-0.000527462;0.00211043;0.1413;7.07716;0.0026556;0.0028139;7.00219;0.142812;116.429;161.429;-0.00585645;-0.000522837;0.00162308;-0.00194678;0.00368558;0.00598828;0.00953992;0;0.0210221;-0.238013;-0.0878154;-0.885158;0.920797;-7.16717;1.7029e-05;-0.000358513;0.000490098;0.000683075;-0.000175948;0.000429512;-0.0347461;-28.7802;0.000523974;0.000572682;3.88225;0.257583;160.156;25.1562;-0.000233588;1.34743e-05;0.00197441;-0.00269034;0.000488214;0.00127004;0.0190199;0;0.0325542;0.714325;3.69259
227000;228;25.7767;0.0123654;0.000479944;-2.22206;25.6808;-0.00175864;-0.0656084;0.0131304;-0.571116;-0.17194;-0.0812199;-0.29533;0.351255;-7.15355;-0.0006035;-0.000254764;0.00402838;0.00404235;-0.000617471;0.00232991;0.149812;6.67502;0.00292255;0.00310654;6.54662;0.152751;114.983;159.983;-0.00533278;-0.000605256;0.00138887;-0.00189081;0.00402745;0.00617519;0.00875337;0;0.015056;-0.239797;-0.0883823;-0.888254;0.924289;-7.17027;-4.75698e-05;-0.000354341;0.0005254;0.000694581;-0.00021675;0.000455666;0.0905401;11.0448;0.000549737;0.000607554;3.20452;0.312059;157.685;22.6855;-0.000420499;-5.13963e-05;0.00208165;-0.00278893;0.000523298;0.00158984;0.0189662;0;0.0321101;0.752711;3.69797
228000;229;25.7766;0.0122177;0.000474209;-2.22186;25.6807;-0.002686;-0.0654103;0.0129992;-0.572044;-0.174478;-0.0837323;-0.29184;0.350178;-7.15006;-0.000459159;-9.58986e-05;0.00375221;0.00375439;-0.000461342;0.00210787;0.12237;8.17192;0.00267003;0.00281049;8.13799;0.12288;113.524;158.524;-0.00532243;-0.000460619;0.00152607;-0.00171107;0.00375106;0.00624828;0.00934553;0;0.02567;-0.242335;-0.0905387;-0.888285;0.925188;-7.1703;-2.89591e-05;-0.000327638;0.000616837;0.000753949;-0.000166072;0.00046001;0.0469478;21.3003;0.000566168;0.000613347;4.5399;0.220269;154.106;19.1056;-0.0004775;-3.24808e-05;0.00202029;-0.00267405;0.000614851;0.00218825;0.0204418;0;0.0433439;0.798896;3.70683
229000;230;25.7778;0.0134093;0.00052046;-2.22163;25.6819;-0.00761815;-0.0651815;0.0142141;-0.576976;-0.176658;-0.0844054;-0.290647;0.350439;-7.14887;-0.000363773;-5.65543e-05;0.00346133;0.00346216;-0.000364609;0.00191339;0.105097;9.51506;0.00243875;0.00255118;9.49554;0.105313;113.07;158.07;-0.00592332;-0.000365015;0.00146897;-0.00157626;0.00346025;0.00706874;0.00796915;0;0.0154357;-0.244457;-0.0912358;-0.890849;0.928275;-7.17286;-5.43798e-05;-0.000239782;0.000646965;0.000721106;-0.000128521;0.000424814;0.0840536;11.8972;0.00052881;0.000566418;5.6108;0.178228;148.572;13.5724;-0.000529455;-5.77337e-05;0.00212304;-0.00260094;0.000644742;0.00247518;0.0210386;0;0.0324975;0.837742;3.71424
230000;231;25.7769;0.0125643;0.000487663;-2.22099;25.6811;-0.0124089;-0.0645367;0.0134198;-0.581767;-0.17904;-0.0851526;-0.291826;0.352801;-7.15005;-0.000420267;6.30546e-05;0.0037605;0.00376145;-0.000421218;0.00209133;0.111758;8.94787;0.00265918;0.00278844;8.92993;0.111983;109.928;154.928;-0.00596715;-0.000421273;0.00155152;-0.00141921;0.0037593;0.006756;0.00850273;0;0.0162936;-0.246712;-0.0914949;-0.894454;0.932355;-7.17647;-8.27994e-05;-0.00020333;0.000706595;0.00075589;-0.000132094;0.000443992;0.117181;8.53382;0.00055324;0.00059199;5.72235;0.174754;145.071;10.071;-0.000953972;-8.64998e-05;0.00232328;-0.00272795;0.000703919;0.0031437;0.0222405;0;0.0327154;0.867865;3.71951
231000;232;25.7759;0.0115739;0.00044922;-2.22209;25.68;-0.0163042;-0.0656388;0.0123282;-0.585662;-0.180543;-0.0863373;-0.295759;0.357105;-7.15398;-0.000285445;-0.000127605;0.0030672;0.00307205;-0.000290295;0.00168117;0.0930638;10.7453;0.00215134;0.00224156;10.5825;0.0944956;117.038;162.038;-0.00571846;-0.000287004;0.00152039;-0.00177009;0.00306606;0.00708495;0.0100743;0;0.0183464;-0.248718;-0.0929786;-0.898792;0.937194;-7.18081;-0.000134338;-0.00021154;0.000826765;0.000871265;-0.000178837;0.000525051;0.162486;6.15438;0.000648725;0.000700068;4.87183;0.205262;143.113;8.11253;-0.00108952;-0.000138392;0.00243479;-0.00285532;0.000823826;0.00367001;0.024221;0;0.0361383;0.916808;3.72697
232000;233;25.7755;0.0111775;0.000433836;-2.2211;25.6797;-0.0191479;-0.0646482;0.0120141;-0.588505;-0.182879;-0.0886522;-0.292183;0.355914;-7.15041;-0.000406339;-9.61346e-06;0.00300841;0.00300844;-0.000406366;0.0017074;0.135068;7.4037;0.0021539;0.00227654;7.40327;0.135075;115.692;160.692;-0.00602288;-0.000407653;0.00160703;-0.00162075;0.00300713;0.00746904;0.00897967;0;0.0181269;-0.250893;-0.0947023;-0.898957;0.938104;-7.18097;-8.3822e-05;-0.000122292;0.000808891;0.000825341;-0.000100272;0.000462806;0.103626;9.65011;0.000586515;0.000617075;8.23105;0.121491;139.006;4.00565;-0.001662;-8.82545e-05;0.00273775;-0.00297979;0.000805154;0.00467751;0.0249432;0;0.039254;0.958563;3.73412
233000;234;25.7763;0.011975;0.000464789;-2.22104;25.6805;-0.020505;-0.0645921;0.0128183;-0.589863;-0.185989;-0.0872678;-0.294755;0.359288;-7.15298;-0.00034269;0.000245218;0.00254147;0.00256217;-0.00036339;0.00146278;0.134839;7.41626;0.00184124;0.00195038;7.05076;0.141829;113.026;158.026;-0.00616925;-0.000343595;0.00186307;-0.00136798;0.00253977;0.00748925;0.0108209;0;0.0351488;-0.254112;-0.094235;-0.902758;0.942563;-7.18477;-4.65171e-05;9.8894e-05;0.000806799;0.00081811;-5.78283e-05;0.000437969;0.0576563;17.3441;0.000565669;0.000583959;14.1472;0.0706853;124.906;169.906;-0.00232631;-5.09343e-05;0.00317425;-0.00297384;0.00080177;0.00471551;0.0280297;0;0.0478733;0.991786;3.74211
234000;235;25.7767;0.0123483;0.000479276;-2.22022;25.6809;-0.0216087;-0.0637727;0.0132629;-0.590966;-0.188376;-0.0889463;-0.294045;0.36036;-7.15227;-0.000141495;5.20584e-05;0.00218434;0.0021855;-0.000142659;0.00116408;0.0647768;15.4376;0.00150681;0.00155211;15.3198;0.0652752;118.045;163.045;-0.00601036;-0.000142817;0.00173493;-0.00162691;0.00218284;0.00740575;0.0109797;0;0.0266578;-0.256631;-0.0962423;-0.902618;0.943314;-7.18463;1.75708e-05;2.22988e-05;0.000972961;0.000973481;1.70506e-05;0.000478215;-0.0180591;-55.3737;0.000643379;0.00063762;-57.0935;-0.0175151;129.534;174.534;-0.00281344;1.16876e-05;0.00347822;-0.00343032;0.000966918;0.00682504;0.0303655;0;0.03947;1.03909;3.74914
235000;236;25.7771;0.0127187;0.000493656;-2.22081;25.6812;-0.0228917;-0.064362;0.0135827;-0.592249;-0.188096;-0.0897193;-0.29675;0.362616;-7.15497;-0.000182733;8.54244e-05;0.00168457;0.00168847;-0.000186633;0.000937549;0.108475;9.21873;0.00119273;0.00125007;9.04699;0.110534;120.244;165.244;-0.00551274;-0.00018398;0.00175565;-0.00158168;0.00168303;0.00677321;0.0112571;0;0.0268672;-0.256501;-0.0970166;-0.907034;0.947584;-7.18905;8.75659e-05;-5.31539e-06;0.000892968;0.000893003;8.75309e-05;0.000402736;-0.0980617;-10.1977;0.000568409;0.000536981;-10.2022;-0.0980185;131.393;176.393;-0.00337008;8.12571e-05;0.00354452;-0.00355229;0.000886692;0.00719088;0.0311217;0;0.0371944;1.07565;3.75669
236000;237;25.7761;0.0117573;0.000456341;-2.22077;25.6803;-0.02668;-0.0643179;0.0126179;-0.596038;-0.190818;-0.0919223;-0.292688;0.361286;-7.15091;-0.000314324;0.00025617;0.00146625;0.00150237;-0.000350446;0.000926409;0.214373;4.66477;0.00113655;0.00123521;4.28702;0.233262;116.937;161.937;-0.00561125;-0.000315167;0.00183804;-0.00132289;0.0014646;0.0065395;0.014328;0;0.0281278;-0.259722;-0.099199;-0.90499;0.946732;-7.187;6.52506e-05;-5.5922e-05;0.0010021;0.00100543;6.19243e-05;0.000471753;-0.0651135;-15.3578;0.000650629;0.000629004;-16.2364;-0.0615898;134.367;179.367;-0.00391652;5.77649e-05;0.00376152;-0.00386979;0.000995039;0.00837703;0.0327474;0;0.0406158;1.13126;3.76394
237000;238;25.779;0.0146677;0.000569302;-2.22245;25.6831;-0.021179;-0.066003;0.0153985;-0.590537;-0.194145;-0.0904047;-0.299453;0.368154;-7.15768;-0.00012324;0.000528545;0.000275887;0.000641288;-0.000488641;0.000564965;0.446704;2.23862;0.000654346;0.000753286;1.31239;0.761968;99.1533;144.153;-0.00586946;-0.000124014;0.0024091;-0.00135126;0.000273126;0.00593488;0.0145213;0;0.0399931;-0.263892;-0.0995228;-0.907486;0.950302;-7.1895;0.000162198;7.92602e-06;0.00107531;0.00107538;0.000162129;0.000456624;-0.150838;-6.62961;0.000669451;0.000608832;-6.63285;-0.150765;130.079;175.079;-0.00427648;0.000154117;0.00403987;-0.00402034;0.00106716;0.00964573;0.0342887;0;0.0460642;1.17325;3.77089
238000;239;25.7783;0.01393;0.000540668;-2.22134;25.6824;-0.0275863;-0.0648949;0.0147478;-0.596944;-0.194897;-0.0933378;-0.299107;0.369001;-7.15733;-4.5381e-05;0.000372811;0.000228302;0.000488592;-0.000305671;0.000397132;0.198776;5.03078;0.000462604;0.000529509;1.59842;0.625616;98.6458;143.646;-0.00554028;-4.64213e-05;0.00223589;-0.00148976;0.000225872;0.0057574;0.0148512;0;0.0218007;-0.265023;-0.102135;-0.911674;0.954891;-7.19369;7.73251e-05;-4.43177e-05;0.000985046;0.000987205;7.51665e-05;0.000456019;-0.0784989;-12.739;0.000634567;0.000608025;-13.1336;-0.0761407;134.218;179.218;-0.00484959;6.78279e-05;0.00427391;-0.00435863;0.000975923;0.00990901;0.0368574;0;0.0277817;1.22136;3.77484
239000;240;25.7802;0.0158284;0.000614353;-2.22337;25.6841;-0.0249444;-0.0669161;0.0164811;-0.594302;-0.198154;-0.0916157;-0.306371;0.376194;-7.1646;-0.000110496;0.00031178;3.4439e-05;0.000282063;-0.00035812;0.000320092;3.20847;0.311675;0.000370478;0.000426789;0.78762;1.26965;97.0602;142.06;-0.0060814;-0.000111863;0.00230614;-0.00168229;3.18286e-05;0.00679678;0.0158471;0;0.0389853;-0.268404;-0.102751;-0.914926;0.959004;-7.19694;7.76672e-05;-0.000173878;0.00114529;0.00117289;5.00623e-05;0.000561415;-0.0678147;-14.7461;0.000765786;0.000748553;-23.4287;-0.0426828;139.838;4.83782;-0.00450552;6.8036e-05;0.00404925;-0.0043925;0.00113711;0.0103955;0.0358987;0;0.0389054;1.27208;3.77913
240000;241;25.7806;0.0162101;0.000629169;-2.2232;25.6845;-0.0266015;-0.0667469;0.0168772;-0.595959;-0.200278;-0.0940255;-0.303756;0.375793;-7.16198;-0.000239434;0.0005247;-0.000406996;0.000208132;-0.000854562;0.000531347;-0.588296;-1.69982;0.000650284;0.000708462;0.243553;4.10588;90.2254;135.225;-0.00674478;-0.000240264;0.0024397;-0.00139062;-0.000409836;0.00822983;0.0148463;0;0.0273927;-0.271297;-0.10611;-0.912567;0.957935;-7.19458;-0.000111161;-0.000228909;0.00122748;0.00126554;-0.000149223;0.000707381;0.0905607;11.0423;0.000897578;0.000943175;8.48087;0.117912;140.83;5.82954;-0.00461662;-0.000122241;0.00426077;-0.00471258;0.00121844;0.0109437;0.0366802;0;0.0234492;1.31695;3.78445
241000;242;25.781;0.0166764;0.000647266;-2.22255;25.6851;-0.024354;-0.0660977;0.0174037;-0.593712;-0.201828;-0.0948777;-0.311266;0.382914;-7.16949;-2.70281e-05;0.000242776;-0.000745084;4.73505e-05;-0.000819462;0.000433406;-0.0362753;-27.567;0.000562756;0.000577875;0.0577824;17.3063;67.4677;112.468;-0.00652609;-2.85429e-05;0.00224153;-0.00175742;-0.000747568;0.00755281;0.0148629;0;0.0306059;-0.27265;-0.108536;-0.916574;0.962407;-7.19859;-0.000178989;-0.000344809;0.00129172;0.00136855;-0.000255817;0.000812181;0.138567;7.21674;0.00100851;0.00108291;5.34971;0.186926;143.636;8.63571;-0.004275;-0.000188788;0.00375638;-0.00443997;0.00128473;0.00876116;0.0371077;0;0.0215386;1.37493;3.79121
242000;243;25.7845;0.0201246;0.000781101;-2.2248;25.6883;-0.0193977;-0.0683493;0.020674;-0.588755;-0.204562;-0.0916093;-0.319537;0.39031;-7.17776;-6.74428e-05;0.000189392;0.000249205;0.000337733;-0.00015597;0.000246852;0.270632;3.69506;0.000291408;0.000329135;2.16536;0.461816;108.407;153.407;-0.00642572;-6.85897e-05;0.00190554;-0.00152622;0.000247408;0.00720816;0.0147777;0;0.0246731;-0.277367;-0.107675;-0.922195;0.969004;-7.20421;-0.000382933;-0.000420524;0.00146699;0.00155809;-0.00047404;0.00101607;0.261034;3.83092;0.00122764;0.00135475;3.28684;0.304244;143.325;8.32493;-0.00347978;-0.000392685;0.00360188;-0.00443549;0.0014606;0.00874289;0.0322267;0;0.0225479;1.42338;3.79908
243000;244;25.7829;0.0185344;0.000719381;-2.22391;25.6868;-0.0285842;-0.0674571;0.0191466;-0.597942;-0.205594;-0.0938531;-0.317143;0.389431;-7.17537;-7.7612e-05;0.000481085;-1.19478e-05;0.000437424;-0.000526983;0.000482204;-6.49592;-0.153943;0.0005576;0.000642938;0.830052;1.20474;92.6177;137.618;-0.00647823;-7.84372e-05;0.002334;-0.00137171;-1.45559e-05;0.00702506;0.0148059;0;0.0180401;-0.277987;-0.110063;-0.922892;0.970114;-7.20491;-0.000462527;-0.000373089;0.00154657;0.00161362;-0.000529572;0.0010716;0.299066;3.34375;0.00128905;0.00142879;3.04702;0.328189;141.105;6.10464;-0.00330901;-0.00047128;0.00346131;-0.00419979;0.00154066;0.00855033;0.0333816;0;0.0250778;1.47737;3.80542
244000;245;25.7873;0.0229636;0.000891294;-2.22591;25.6911;-0.0144464;-0.0694641;0.0234304;-0.583804;-0.209117;-0.0958774;-0.312176;0.387784;-7.1704;-0.000131307;5.87946e-05;0.000421813;0.000427993;-0.000137487;0.00028274;0.311291;3.21243;0.000340538;0.000376987;3.11297;0.321237;126.554;171.554;-0.00626702;-0.000132676;0.00177437;-0.00165583;0.000420241;0.00656999;0.0136008;0;0.0170559;-0.282404;-0.114215;-0.912538;0.962041;-7.19455;-0.000463283;-0.000386692;0.00167425;0.00174205;-0.000531087;0.00113657;0.276712;3.61387;0.00137307;0.00151542;3.28016;0.304863;140.071;5.07141;-0.00303042;-0.000470999;0.00318065;-0.00394641;0.00166927;0.00670952;0.0308146;0;0.0287013;1.52502;3.81315
245000;246;25.7872;0.0228604;0.000887286;-2.22645;25.6909;-0.015747;-0.0700011;0.0232795;-0.585105;-0.209642;-0.0972619;-0.313815;0.38973;-7.17204;-1.27688e-05;0.000450901;0.00025042;0.000588537;-0.000350885;0.000469711;0.0509896;19.6118;0.00054813;0.000626282;1.67729;0.5962;95.9449;140.945;-0.0060135;-1.32904e-05;0.00201868;-0.00111647;0.000248485;0.00631989;0.0141854;0;0.0277429;-0.2838;-0.116563;-0.914063;0.964178;-7.19608;-0.000433913;-0.000358569;0.00175393;0.0018112;-0.000491181;0.00115119;0.247395;4.04212;0.00140021;0.00153492;3.68744;0.271191;138.336;3.33619;-0.0032787;-0.000440457;0.00292469;-0.00363465;0.00174972;0.0083976;0.0303833;0;0.0233193;1.57147;3.82065
246000;247;25.7912;0.0268143;0.00104075;-2.22728;25.6948;-0.00908655;-0.0708308;0.0271795;-0.578444;-0.211147;-0.0957387;-0.321986;0.396767;-7.18021;-0.000182747;5.98756e-05;0.000707929;0.000711936;-0.000186755;0.000449345;0.258144;3.87381;0.000547595;0.000599127;3.81215;0.262319;126.583;171.583;-0.0056903;-0.000183984;0.00169464;-0.00157343;0.000706495;0.00652906;0.0138562;0;0.0189345;-0.28555;-0.117666;-0.920163;0.970611;-7.20218;-0.000460383;-0.000361836;0.00173517;0.00179327;-0.000518478;0.00115587;0.265324;3.76898;0.0014007;0.00154116;3.45872;0.289124;138.426;3.42551;-0.00280474;-0.000466619;0.00283246;-0.00354913;0.00173124;0.00664533;0.0278737;0;0.0238156;1.63565;3.82856
247000;248;25.7932;0.0288559;0.00111999;-2.22852;25.6968;-0.00478829;-0.0720755;0.0291221;-0.574146;-0.213911;-0.0971393;-0.321817;0.398447;-7.18004;-0.000249753;-1.39004e-05;0.00126968;0.00126981;-0.00024988;0.000759843;0.196706;5.08374;0.000940956;0.00101312;5.08166;0.196786;126.437;171.437;-0.00583987;-0.000250986;0.00154521;-0.00157065;0.00126849;0.0057035;0.0121852;0;0.0179316;-0.289284;-0.120252;-0.916699;0.968753;-7.19871;-0.000421087;-0.000322341;0.00193045;0.00197384;-0.000464472;0.00121915;0.218129;4.58444;0.00149496;0.00162554;4.24963;0.235314;135.266;0.265894;-0.00232709;-0.000426136;0.00255531;-0.00319323;0.00192724;0.0053715;0.0261535;0;0.0257977;1.67428;3.83441
248000;249;25.7925;0.0281024;0.00109075;-2.22846;25.696;-0.0114993;-0.0720111;0.0283692;-0.580857;-0.215399;-0.0997009;-0.321311;0.399471;-7.17953;-0.00030478;0.000160441;0.00102949;0.00104851;-0.000323801;0.000686154;0.296051;3.3778;0.00082831;0.000914872;3.23812;0.308821;121.851;166.851;-0.00540113;-0.000305808;0.00176581;-0.00144279;0.00102794;0.00539322;0.0131779;0;0.0219348;-0.290754;-0.12326;-0.920187;0.972869;-7.2022;-0.000391109;-0.000411634;0.00173374;0.0018107;-0.000468066;0.00113938;0.225587;4.43288;0.00138968;0.00151918;3.86847;0.2585;139.035;4.03481;-0.00214293;-0.000396509;0.0024942;-0.0033113;0.00173072;0.00497188;0.024158;0;0.0238637;1.73882;3.84162
249000;250;25.7945;0.0301017;0.00116835;-2.22818;25.6981;-0.01049;-0.0717297;0.0304008;-0.579848;-0.217913;-0.0980346;-0.32801;0.405817;-7.18623;-0.000339615;2.2135e-05;0.00194809;0.0019483;-0.000339829;0.00114407;0.174332;5.73618;0.00142571;0.00152542;5.73319;0.174423;120.702;165.702;-0.00552916;-0.000340778;0.0015732;-0.00152539;0.00194686;0.00634461;0.0108046;0;0.0229158;-0.293455;-0.123334;-0.92667;0.979819;-7.20868;-0.000453399;-0.000386461;0.00186258;0.00192537;-0.000516184;0.00122078;0.243425;4.10805;0.00148583;0.0016277;3.73;0.268096;136.977;1.9774;-0.00165527;-0.000458206;0.00235743;-0.00312401;0.00185988;0.00491106;0.0234207;0;0.0241319;1.79499;3.84813
250000;251;25.7964;0.031995;0.00124183;-2.22932;25.6999;-0.0093262;-0.072871;0.0322027;-0.578684;-0.21899;-0.0973408;-0.335691;0.412456;-7.19391;-0.000382829;3.93003e-05;0.00190551;0.00190618;-0.000383504;0.00114484;0.200907;4.97743;0.00141604;0.00152646;4.97043;0.20119;120.118;165.118;-0.00542257;-0.000383818;0.00148824;-0.00140633;0.0019044;0.00633277;0.0115222;0;0.0211176;-0.295164;-0.124399;-0.933302;0.986737;-7.21532;-0.000532492;-0.000295754;0.00197396;0.00200838;-0.000566918;0.00128765;0.269759;3.70702;0.00156256;0.00171687;3.54264;0.282275;134.477;179.477;-0.00176531;-0.000537358;0.00254814;-0.00313253;0.00197076;0.00448825;0.0231235;0;0.0245488;1.84114;3.85076
251000;252;25.7976;0.0331857;0.00128805;-2.2295;25.701;-0.00865854;-0.0730555;0.0333821;-0.578016;-0.221154;-0.0995538;-0.333969;0.412741;-7.19219;-0.000359955;-9.29628e-05;0.00215218;0.00215561;-0.000363391;0.0012595;0.167252;5.97901;0.00157227;0.00167934;5.93194;0.168579;121.159;166.159;-0.00536588;-0.000361126;0.0013506;-0.0015329;0.00215127;0.0054116;0.0117663;0;0.017169;-0.297521;-0.127382;-0.932395;0.986968;-7.21441;-0.000537842;-0.000282748;0.00202841;0.0020592;-0.000568626;0.00131391;0.265154;3.77139;0.00159646;0.00175188;3.62135;0.27614;134.024;179.024;-0.00160328;-0.000542941;0.00264681;-0.0032048;0.00202496;0.00421877;0.0229019;0;0.0248626;1.90653;3.85808
252000;253;25.7992;0.0348309;0.0013519;-2.23048;25.7026;-0.0103038;-0.0740282;0.0349485;-0.579661;-0.223101;-0.0975681;-0.341444;0.419378;-7.19967;-0.000368603;2.39733e-05;0.00221244;0.00221266;-0.000368826;0.00129074;0.166605;6.00222;0.00161217;0.00172099;5.9992;0.166689;117.525;162.525;-0.00522462;-0.000369514;0.00140111;-0.00134962;0.00221146;0.00530772;0.0116601;0;0.0187613;-0.300267;-0.127045;-0.940902;0.99579;-7.22292;-0.000508361;-0.000189365;0.00207444;0.00208825;-0.000522171;0.00130521;0.24506;4.08064;0.00159497;0.00174028;3.99917;0.250052;131.311;176.311;-0.00161275;-0.000512797;0.00261233;-0.00298384;0.00207105;0.00424164;0.0223826;0;0.0284576;1.95473;3.86439
253000;254;25.7995;0.0350883;0.00136189;-2.23017;25.7029;-0.0119854;-0.0737229;0.0352326;-0.581343;-0.226832;-0.101063;-0.331589;0.414267;-7.18981;-0.000482639;-0.000198467;0.00228151;0.00229568;-0.000496816;0.00139625;0.211544;4.72715;0.00172014;0.00186167;4.62079;0.216413;123.827;168.827;-0.00588403;-0.000484108;0.00133283;-0.00172554;0.00228064;0.00766668;0.0105583;0;0.038188;-0.303521;-0.130242;-0.934928;0.991553;-7.21694;-0.000431287;-0.000176508;0.00198176;0.00199461;-0.00044413;0.00121937;0.217628;4.595;0.00149986;0.00162582;4.49105;0.222665;131.398;176.398;-0.00152138;-0.000435712;0.00263342;-0.00297966;0.00197832;0.00293638;0.0226149;0;0.050376;2.00584;3.87215
254000;255;25.7992;0.0348301;0.00135187;-2.23059;25.7026;-0.0144539;-0.0741404;0.0349359;-0.583812;-0.228827;-0.104448;-0.327504;0.412953;-7.18573;-0.000510842;-0.000110933;0.00256533;0.00256932;-0.000514837;0.00154208;0.199133;5.02176;0.00190779;0.00205611;4.99055;0.200379;120.123;165.123;-0.00565414;-0.000512184;0.0014246;-0.00164175;0.00256432;0.00750585;0.0114645;0;0.0230678;-0.305651;-0.133275;-0.933152;0.990938;-7.21517;-0.00043499;-0.00013182;0.00207473;0.00208163;-0.000441894;0.00126176;0.209661;4.76961;0.00155611;0.00168235;4.71071;0.212282;130.265;175.265;-0.00155586;-0.000439818;0.00285345;-0.00310961;0.00207068;0.00380966;0.0249983;0;0.0366463;2.07168;3.87949
255000;256;25.8004;0.0360027;0.00139738;-2.2312;25.7037;-0.0145076;-0.0747475;0.0360602;-0.583865;-0.231002;-0.105885;-0.329656;0.416229;-7.18788;-0.000503453;-6.92676e-05;0.00291253;0.00291393;-0.000504857;0.00170939;0.172858;5.7851;0.00213093;0.00227919;5.7718;0.173256;117.449;162.449;-0.00555162;-0.000504803;0.00151107;-0.00164422;0.00291139;0.0063861;0.0105279;0;0.024409;-0.307777;-0.134713;-0.938372;0.996703;-7.22039;-0.000307314;-3.79585e-05;0.00207304;0.00207364;-0.000307919;0.00119078;0.148244;6.74566;0.00149567;0.00158771;6.73437;0.148492;127.917;172.917;-0.00186808;-0.000312227;0.00306563;-0.00313417;0.00206835;0.00468718;0.0256024;0;0.0350588;2.12618;3.88734
256000;257;25.8001;0.0357771;0.00138863;-2.23055;25.7035;-0.0238702;-0.074101;0.0358829;-0.593228;-0.232974;-0.107236;-0.328357;0.416647;-7.18658;-0.000373589;7.75965e-05;0.0028038;0.0028057;-0.000375483;0.00159059;0.133244;7.50504;0.00200737;0.00212079;7.47223;0.133829;114.386;159.386;-0.00539183;-0.000374645;0.00161467;-0.00145461;0.00280251;0.00747747;0.0105884;0;0.0272777;-0.310064;-0.136392;-0.94;0.99917;-7.22201;-0.000251503;4.71595e-05;0.00220429;0.0022052;-0.000252409;0.0012288;0.114097;8.76447;0.00156108;0.0016384;8.73662;0.114461;125.593;170.593;-0.00252105;-0.00025676;0.00334483;-0.00324243;0.00219871;0.00539958;0.0277089;0;0.0525619;2.18096;3.8938
257000;258;25.802;0.0375994;0.00145935;-2.23164;25.7053;-0.0210295;-0.0751877;0.0376202;-0.590387;-0.235221;-0.108538;-0.327845;0.417842;-7.18607;-0.000679382;-0.000262711;0.00285453;0.00287395;-0.000698805;0.00178638;0.238002;4.20165;0.00218645;0.00238184;4.11266;0.243152;122.05;167.05;-0.00604424;-0.000681068;0.00133459;-0.00185438;0.00285367;0.00809377;0.0101777;0;0.0158331;-0.31219;-0.137993;-0.942208;1.00213;-7.22422;-0.000144518;0.000117937;0.0021484;0.00215445;-0.000150568;0.00115251;0.0672678;14.8659;0.00148903;0.00153668;14.3088;0.0698871;124.254;169.254;-0.00328759;-0.000150598;0.00373285;-0.00348871;0.00214146;0.00738323;0.0291795;0;0.033569;2.24195;3.9008
258000;259;25.8019;0.0375644;0.001458;-2.23051;25.7053;-0.0251917;-0.0740611;0.0376791;-0.594549;-0.237564;-0.110137;-0.329437;0.420828;-7.18766;-0.000804065;-0.000134403;0.00310258;0.0031072;-0.000808683;0.00195794;0.25916;3.85862;0.00238713;0.00261059;3.8423;0.260261;119.985;164.985;-0.00583283;-0.000805752;0.00157909;-0.00184123;0.00310135;0.00824998;0.0102974;0;0.0200011;-0.314369;-0.13956;-0.947019;1.00755;-7.22903;-0.000134924;0.000136531;0.00221085;0.00221877;-0.000142844;0.00118081;0.0610281;16.3859;0.00152902;0.00157441;15.5329;0.0643796;123.912;168.912;-0.0035475;-0.000141474;0.00390364;-0.00362176;0.00220326;0.00762256;0.0329256;0;0.0426167;2.29837;3.90769
259000;260;25.8023;0.0379127;0.00147151;-2.23072;25.7057;-0.0287327;-0.0742735;0.0380065;-0.59809;-0.239997;-0.111581;-0.32779;0.421302;-7.18601;-0.00068949;-0.000444755;0.00287071;0.00292543;-0.000744209;0.00183482;0.240181;4.16353;0.00223995;0.00244642;3.93092;0.254393;125.879;170.879;-0.00609772;-0.000691753;0.00128977;-0.00217312;0.00286998;0.00827637;0.0104199;0;0.0187292;-0.316682;-0.140655;-0.949006;1.01029;-7.23102;-0.000103463;0.000165782;0.00226681;0.00227835;-0.000115002;0.00119668;0.0456428;21.9093;0.00155865;0.00159557;19.8113;0.0504762;123.496;168.496;-0.00405381;-0.000111012;0.00423001;-0.00388884;0.0022579;0.00835577;0.0348449;0;0.0424264;2.35379;3.91456
260000;261;25.8014;0.037066;0.00143865;-2.2305;25.7048;-0.034391;-0.0740533;0.0371688;-0.603749;-0.242661;-0.113623;-0.325737;0.421781;-7.18396;-0.000586594;0.000227214;0.0030442;0.00305837;-0.000600758;0.00182956;0.192692;5.18962;0.00226587;0.00243942;5.09084;0.196431;113.79;158.79;-0.00586424;-0.00058771;0.00197098;-0.00151024;0.00304229;0.00773563;0.0104796;0;0.0180088;-0.31927;-0.142655;-0.951093;1.01334;-7.23311;8.35282e-05;0.000194357;0.00225468;0.00227194;6.6267e-05;0.00110284;-0.0370466;-26.993;0.00149303;0.00147045;-34.2846;-0.0291676;122.048;167.048;-0.00432036;7.56219e-05;0.00437918;-0.0039814;0.00224513;0.00884464;0.0356514;0;0.0430148;2.41673;3.92106
261000;262;25.8009;0.0365745;0.00141958;-2.22976;25.7044;-0.0428851;-0.0733122;0.036727;-0.612243;-0.24515;-0.114769;-0.331139;0.427695;-7.18936;-0.000659786;-0.000140619;0.0022594;0.00226616;-0.000666544;0.00146635;0.292018;3.42445;0.00177517;0.00195514;3.39987;0.294129;125.739;170.739;-0.00643188;-0.000661654;0.00166133;-0.00193731;0.00225804;0.00844541;0.0111649;0;0.0201592;-0.321622;-0.14486;-0.957986;1.02086;-7.24;4.47111e-05;0.000163158;0.0022443;0.00225634;3.26744e-05;0.00111183;-0.0199221;-50.1956;0.00149345;0.00148244;-69.0552;-0.0144812;123.136;168.136;-0.00445782;3.64994e-05;0.00439154;-0.00405594;0.00223469;0.00816568;0.036143;0;0.0320807;2.48459;3.9282
262000;263;25.8018;0.0374654;0.00145416;-2.23014;25.7052;-0.0422396;-0.0736905;0.0375895;-0.611597;-0.24771;-0.117484;-0.33083;0.429664;-7.18905;-0.000514658;0.000311311;0.00236657;0.00239982;-0.000547911;0.00147387;0.21747;4.59833;0.00181037;0.00196516;4.37995;0.228313;115.295;160.295;-0.00599976;-0.000515722;0.00211924;-0.00149143;0.00236438;0.00755909;0.0118268;0;0.0164518;-0.324039;-0.147764;-0.959287;1.02326;-7.2413;0.00011019;8.8152e-05;0.00229666;0.00230021;0.000106642;0.00109679;-0.0479784;-20.8427;0.00149919;0.00146238;-21.5695;-0.0463618;124.742;169.742;-0.00460895;0.000101514;0.00435248;-0.00416688;0.00228722;0.0085394;0.0376795;0;0.0267051;2.53156;3.93034
263000;264;25.8001;0.035769;0.00138831;-2.23038;25.7035;-0.0487965;-0.0739291;0.0358544;-0.618154;-0.24923;-0.118928;-0.33229;0.43206;-7.19051;-0.000393043;0.000402868;0.00210308;0.00216649;-0.000456454;0.00131147;0.186889;5.35076;0.00161808;0.00174863;4.74635;0.210688;113.068;158.068;-0.00558251;-0.000393879;0.00216475;-0.00135463;0.00210082;0.00745711;0.0129955;0;0.0167968;-0.325678;-0.149518;-0.962441;1.02699;-7.24446;4.76023e-05;6.97382e-05;0.00243247;0.00243451;4.55647e-05;0.00119447;-0.0195695;-51.0998;0.00160803;0.00159263;-53.4296;-0.0187162;124.99;169.99;-0.00423479;3.92e-05;0.00424943;-0.00410001;0.00242346;0.00787453;0.0380661;0;0.0248096;2.58837;3.93732
264000;265;25.8011;0.036744;0.00142616;-2.23044;25.7045;-0.0465269;-0.073991;0.036832;-0.615885;-0.251975;-0.121551;-0.334337;0.435944;-7.19256;-0.000477827;0.000353272;0.00199602;0.00204547;-0.000527287;0.00128638;0.239391;4.17727;0.00156922;0.00171517;3.87924;0.257782;115.627;160.627;-0.00604265;-0.000478824;0.00216609;-0.00145507;0.00199374;0.00728101;0.015174;0;0.0163887;-0.328369;-0.153418;-0.963645;1.02955;-7.24566;-2.90072e-05;4.8689e-05;0.00252877;0.0025297;-2.99337e-05;0.00127982;0.0114709;87.1773;0.00169653;0.00170642;84.51;0.0118329;124.92;169.92;-0.00401961;-3.6324e-05;0.00393292;-0.00382563;0.00252106;0.00789538;0.037405;0;0.0230377;2.65656;3.9452
265000;266;25.8002;0.0358688;0.00139219;-2.23046;25.7036;-0.0543131;-0.0740131;0.0359362;-0.623671;-0.254111;-0.123114;-0.333705;0.437136;-7.19193;-0.000322219;0.000332536;0.00164856;0.00170315;-0.000376817;0.00103998;0.195455;5.11625;0.00127967;0.00138665;4.51984;0.221247;116.782;161.782;-0.00586301;-0.000323679;0.00240972;-0.00174056;0.00164571;0.00739197;0.0140746;0;0.0190569;-0.330549;-0.155503;-0.965995;1.03276;-7.24801;-0.000155432;6.37471e-05;0.00258407;0.00258555;-0.000156914;0.00137123;0.0601501;16.6251;0.00177831;0.00182831;16.4774;0.060689;124.615;169.615;-0.00301919;-0.000162169;0.00380867;-0.00367095;0.00257683;0.00597226;0.0364079;0;0.0234219;2.731;3.95236
266000;267;25.8024;0.0380765;0.00147787;-2.22924;25.7059;-0.0520268;-0.0727923;0.0382629;-0.621384;-0.255902;-0.122564;-0.340419;0.443162;-7.19864;-0.000459113;0.000295018;0.00179515;0.00183312;-0.000497082;0.0011651;0.255751;3.91005;0.00141714;0.00155347;3.68777;0.271167;118.443;163.443;-0.00614612;-0.000460537;0.00230744;-0.00171288;0.00179254;0.00744387;0.0143059;0;0.0164461;-0.33233;-0.156134;-0.972327;1.03935;-7.25434;-0.000172487;-5.30997e-05;0.00276011;0.00276107;-0.000173448;0.00146726;0.0624928;16.0018;0.00190117;0.00195635;15.9187;0.0628192;126.053;171.053;-0.00269937;-0.000179078;0.00353519;-0.00363089;0.00275388;0.00639049;0.0331781;0;0.0240621;2.76699;3.95989
267000;268;25.8042;0.039868;0.00154741;-2.22934;25.7077;-0.043436;-0.0728865;0.0400689;-0.612794;-0.258022;-0.12487;-0.342632;0.446727;-7.20086;-0.000278103;0.00045338;0.001363;0.00147992;-0.000395026;0.000937474;0.204038;4.90105;0.00114131;0.00124996;3.74639;0.266924;112.514;157.514;-0.00630951;-0.000279034;0.00234761;-0.00143775;0.00136035;0.00753465;0.0145433;0;0.0168905;-0.334338;-0.15918;-0.973788;1.04182;-7.2558;-0.000327166;-8.36558e-05;0.00268297;0.00268529;-0.000329489;0.00150739;0.121942;8.20063;0.00190952;0.00200985;8.14986;0.122701;126.915;171.915;-0.00275081;-0.000333125;0.00329542;-0.00345258;0.00267756;0.00547277;0.0309256;0;0.0240953;2.83365;3.96727
268000;269;25.8051;0.0407109;0.00158012;-2.22997;25.7085;-0.0428289;-0.0735195;0.0408611;-0.612187;-0.261239;-0.127238;-0.341416;0.448331;-7.19964;-0.00057197;0.000585081;0.00145984;0.00161627;-0.000728406;0.00117234;0.391804;2.5523;0.00138568;0.00156312;2.21892;0.450669;113.199;158.199;-0.00628598;-0.000572577;0.00242085;-0.00124697;0.00145708;0.00783934;0.0144999;0;0.0181979;-0.337791;-0.16261;-0.971826;1.04163;-7.25384;-0.000629017;-0.000292708;0.0026674;0.00269319;-0.000654807;0.001674;0.235816;4.24059;0.00204891;0.002232;4.11296;0.243134;131.604;176.604;-0.00273636;-0.00063572;0.00309774;-0.003672;0.00266266;0.00641424;0.0319653;0;0.0245301;2.88979;3.97517
269000;270;25.8053;0.0409084;0.00158779;-2.22871;25.7088;-0.0413343;-0.0722615;0.0411708;-0.610692;-0.263297;-0.128252;-0.342744;0.45083;-7.20097;-0.000423402;0.00048691;0.00160403;0.00171491;-0.000534275;0.00112459;0.263961;3.78844;0.00135689;0.00149945;3.20978;0.311548;113.369;158.369;-0.00641337;-0.000424233;0.00235555;-0.00137795;0.00160138;0.00776667;0.0153243;0;0.0177365;-0.340012;-0.16498;-0.971745;1.04265;-7.25376;-0.000815233;-0.000300298;0.00271458;0.00273994;-0.000840599;0.00179027;0.300317;3.32982;0.002162;0.00238703;3.25952;0.306794;131.85;176.85;-0.00229555;-0.000821813;0.00304975;-0.00363855;0.00270999;0.00738643;0.029517;0;0.0253561;2.9493;3.98245
270000;271;25.8074;0.0430058;0.0016692;-2.22891;25.7109;-0.040914;-0.0724573;0.0432598;-0.610272;-0.264765;-0.129382;-0.349745;0.457342;-7.20797;-0.000514211;0.000189354;0.00180968;0.00182501;-0.000529538;0.00117727;0.284144;3.51934;0.00142634;0.0015697;3.44641;0.290157;120.318;165.318;-0.00637701;-0.000515447;0.0019661;-0.00158327;0.00180777;0.00739187;0.0144754;0;0.0205211;-0.341614;-0.167717;-0.977857;1.0493;-7.25987;-0.000739562;-0.000394859;0.00271253;0.00275712;-0.000784151;0.00177063;0.272647;3.66775;0.00214772;0.00236085;3.51605;0.28441;132.662;177.662;-0.00223781;-0.000745702;0.00274629;-0.00352519;0.00270885;0.00682713;0.0278727;0;0.0266712;3.01405;3.98989
271000;272;25.807;0.0426712;0.00165621;-2.22848;25.7106;-0.0452093;-0.0720308;0.0429537;-0.614567;-0.265678;-0.131409;-0.350564;0.459073;-7.20879;-0.000499263;0.000206025;0.00161694;0.00163681;-0.000519134;0.00107797;0.308771;3.23865;0.00129929;0.0014373;3.15296;0.317162;121.295;166.295;-0.00631472;-0.000500686;0.00211502;-0.00169893;0.00161473;0.00798179;0.0148875;0;0.0226007;-0.342731;-0.170874;-0.979902;1.05208;-7.26192;-0.000851271;-0.000432469;0.00277903;0.00282984;-0.000902079;0.00186596;0.306319;3.26457;0.0022484;0.00248795;3.13702;0.318774;133.403;178.403;-0.00202802;-0.00085796;0.00282847;-0.0036816;0.00277513;0.00694708;0.0258549;0;0.0311132;3.07685;3.99635
272000;273;25.8099;0.0454878;0.00176553;-2.22898;25.7134;-0.0368041;-0.072531;0.0457509;-0.606162;-0.268294;-0.133601;-0.352677;0.462831;-7.2109;-0.000520976;0.000121733;0.00146832;0.00147575;-0.000528398;0.00100207;0.35481;2.81841;0.00119941;0.0013361;2.79287;0.358055;124.088;169.088;-0.00646121;-0.000522365;0.0019173;-0.00167026;0.0014665;0.00701449;0.0140057;0;0.0222585;-0.345641;-0.17438;-0.978773;1.05256;-7.26079;-0.00105136;-0.000371766;0.00284979;0.0028849;-0.00108647;0.00198569;0.368925;2.71058;0.00236994;0.00264758;2.6553;0.376606;132.916;177.916;-0.00181606;-0.00105835;0.0030251;-0.00375542;0.00284529;0.0078807;0.0262024;0;0.0352104;3.12995;3.9994
273000;274;25.8109;0.0465081;0.00180513;-2.22885;25.7144;-0.0413248;-0.0724021;0.0467794;-0.610682;-0.270442;-0.134372;-0.353118;0.464636;-7.21134;-0.000428338;0.000273075;0.00228375;0.00231097;-0.00045556;0.00138327;0.187559;5.33165;0.00171282;0.00184436;5.07281;0.197129;115.484;160.484;-0.00605577;-0.000429427;0.00205115;-0.00150019;0.00228169;0.00635183;0.0141499;0;0.0325193;-0.348332;-0.177736;-0.978636;1.05388;-7.26065;-0.00111188;-0.000357995;0.00295908;0.00299032;-0.00114312;0.00206672;0.375753;2.66132;0.0024646;0.00275563;2.61592;0.382275;132.274;177.274;-0.00169397;-0.00111875;0.00301941;-0.00372169;0.00295459;0.00715348;0.0260465;0;0.057645;3.19748;4.00609
274000;275;25.8118;0.0474463;0.00184155;-2.22793;25.7154;-0.0453606;-0.0714813;0.0477941;-0.614718;-0.272038;-0.134547;-0.355598;0.467501;-7.21382;-0.000505566;0.000303334;0.00235355;0.00238538;-0.000537393;0.00146138;0.21481;4.65528;0.00179638;0.00194851;4.43879;0.225287;114.008;159.008;-0.00599098;-0.000506363;0.00190946;-0.00129821;0.00235178;0.00594389;0.0132902;0;0.0235324;-0.348875;-0.177584;-0.98645;1.06129;-7.26846;-0.00102394;-0.000448489;0.00300082;0.00305019;-0.00107331;0.00206175;0.341219;2.93067;0.00247022;0.002749;2.84186;0.351882;132.99;177.99;-0.00172394;-0.001031;0.00289949;-0.00378303;0.00299673;0.00745053;0.0262381;0;0.0423903;3.25727;4.0129
275000;276;25.8123;0.0479381;0.00186064;-2.22933;25.7158;-0.0418703;-0.0728757;0.0481728;-0.611228;-0.27391;-0.135153;-0.358489;0.470965;-7.21671;-0.000502132;0.000102785;0.00273591;0.00273917;-0.000505392;0.00162228;0.183534;5.44858;0.00201581;0.00216304;5.41989;0.184505;115.908;160.908;-0.00598297;-0.000503283;0.00173109;-0.00152026;0.00273442;0.00612929;0.0121924;0;0.0417813;-0.351527;-0.17961;-0.984744;1.06092;-7.26676;-0.00113372;-0.000420102;0.00300529;0.0030475;-0.00117593;0.00211171;0.37724;2.65083;0.00251694;0.00281562;2.59157;0.385866;133.38;178.38;-0.00186557;-0.00114165;0.00317817;-0.00400352;0.00300034;0.00830509;0.0265567;0;0.0518358;3.31543;4.01983
276000;277;25.8148;0.0503928;0.00195591;-2.23106;25.7181;-0.0379399;-0.0746092;0.0504925;-0.607298;-0.275429;-0.139224;-0.35949;0.47379;-7.21771;-0.000504661;0.000173514;0.00198646;0.00199849;-0.000516688;0.00125759;0.25405;3.93623;0.00153384;0.00167678;3.86788;0.25854;117.85;162.85;-0.00587293;-0.000505521;0.00167331;-0.00132255;0.00198508;0.00668958;0.0133475;0;0.0489662;-0.354524;-0.185458;-0.98053;1.05902;-7.26254;-0.00112679;-0.000447948;0.00301496;0.00306285;-0.00117468;0.00211877;0.373733;2.67571;0.0025262;0.00282502;2.60739;0.383526;133.744;178.744;-0.00181568;-0.00113495;0.00318202;-0.00406292;0.00301001;0.00809992;0.0280836;0;0.0519122;3.37828;4.02644
277000;278;25.8168;0.0524673;0.00203643;-2.23148;25.7202;-0.0394821;-0.0750334;0.0525357;-0.60884;-0.275801;-0.140527;-0.359515;0.47441;-7.21774;-0.00046377;0.000116881;0.00223939;0.00224444;-0.000468815;0.00135663;0.207096;4.82867;0.00167458;0.00180884;4.78748;0.208878;117.891;162.891;-0.00594006;-0.000464842;0.00170635;-0.0014683;0.00223795;0.00657641;0.0127734;0;0.0294309;-0.355441;-0.188055;-0.982382;1.0615;-7.2644;-0.000953909;-0.000432171;0.0029518;0.00299905;-0.00100116;0.0020001;0.323162;3.09442;0.00240362;0.0026668;2.99558;0.333825;133.45;178.45;-0.00190791;-0.000961964;0.0031849;-0.00403516;0.00294683;0.00782332;0.0278505;0;0.0412853;3.44318;4.03419
278000;279;25.8175;0.0530933;0.00206073;-2.23186;25.7208;-0.0401384;-0.0754117;0.0531302;-0.609496;-0.2781;-0.139756;-0.368958;0.482702;-7.22718;-0.000496211;0.00024387;0.00277352;0.00279161;-0.000514299;0.00165295;0.17891;5.5894;0.00205408;0.00220394;5.42798;0.184231;112.868;157.868;-0.00592606;-0.000497075;0.00182995;-0.00133704;0.00277188;0.006066;0.0122765;0;0.0301147;-0.357444;-0.187986;-0.992497;1.07152;-7.27451;-0.00100225;-0.000343828;0.00298048;0.00300994;-0.00103171;0.00202083;0.33627;2.9738;0.00242483;0.00269444;2.91743;0.342767;132.339;177.339;-0.00235912;-0.0010103;0.00335352;-0.00402649;0.00297493;0.00869945;0.0289598;0;0.0305691;3.51195;4.04064
279000;280;25.8187;0.054315;0.00210814;-2.23214;25.722;-0.0413187;-0.0756911;0.0543303;-0.610676;-0.280306;-0.142596;-0.367148;0.483428;-7.22537;-0.000530566;3.00857e-05;0.00276841;0.00276868;-0.00053084;0.00164976;0.19165;5.21785;0.00204582;0.00219968;5.21567;0.19173;116.334;161.334;-0.00587498;-0.000531683;0.00155987;-0.00149467;0.0027672;0.0064576;0.0108843;0;0.026951;-0.360002;-0.192156;-0.990615;1.07137;-7.27263;-0.000821613;-0.000363789;0.00309276;0.00312628;-0.000855136;0.00199071;0.265657;3.76425;0.00242013;0.00265428;3.65589;0.273532;131.293;176.293;-0.00238554;-0.000829107;0.00317313;-0.0038869;0.0030878;0.00896255;0.0300015;0;0.0265441;3.57105;4.04842
280000;281;25.8191;0.0547228;0.00212397;-2.23219;25.7224;-0.0452974;-0.0757446;0.0547284;-0.614655;-0.280914;-0.145235;-0.364354;0.482452;-7.22258;-0.000587494;0.000155212;0.00272871;0.00273596;-0.000594743;0.00166535;0.215301;4.64465;0.00205116;0.00222047;4.60023;0.21738;115.267;160.267;-0.00584831;-0.0005885;0.00174155;-0.00142588;0.00272721;0.00686419;0.0123616;0;0.0179474;-0.361166;-0.1965;-0.988457;1.07056;-7.27047;-0.000855222;-0.000303751;0.0031666;0.00318941;-0.000878034;0.00203372;0.270076;3.70266;0.0024715;0.00271163;3.63245;0.275297;130.447;175.447;-0.00276363;-0.000862958;0.00335066;-0.00394351;0.00316105;0.00889384;0.0312948;0;0.0224615;3.62641;4.05584
281000;282;25.8223;0.0579788;0.00225035;-2.23376;25.7255;-0.040128;-0.0773129;0.0578691;-0.609486;-0.28419;-0.146599;-0.363898;0.484435;-7.22212;-0.000562144;9.36871e-05;0.00317167;0.00317402;-0.000564493;0.00186926;0.177239;5.6421;0.00232711;0.00249234;5.62278;0.177848;113.479;158.479;-0.00551915;-0.000563195;0.00164569;-0.00145254;0.00317033;0.0057566;0.0123639;0;0.0308939;-0.364885;-0.199428;-0.987515;1.07149;-7.26953;-0.000837849;-0.000180996;0.0031491;0.0031573;-0.000846049;0.00200167;0.26606;3.75855;0.00243635;0.0026689;3.73181;0.267966;128.305;173.305;-0.00278685;-0.000844441;0.00328575;-0.00363396;0.00314373;0.00825003;0.0314966;0;0.0261212;3.70177;4.06361
282000;283;25.8233;0.0589757;0.00228904;-2.23382;25.7265;-0.0417968;-0.0773698;0.0588621;-0.611154;-0.284122;-0.148319;-0.368062;0.488051;-7.22629;-0.000543449;8.45639e-05;0.00327714;0.00327901;-0.00054532;0.00191217;0.16583;6.03027;0.00238862;0.00254956;6.01301;0.166306;112.729;157.729;-0.00545076;-0.000544474;0.00160851;-0.00143358;0.00327586;0.00622986;0.0118309;0;0.0280977;-0.365058;-0.202913;-0.991654;1.07602;-7.27367;-0.000941037;-3.53744e-05;0.0031735;0.0031738;-0.000941341;0.00205757;0.29653;3.37234;0.00248969;0.00274343;3.37158;0.296597;126.288;171.288;-0.00283343;-0.000946832;0.00334627;-0.00340314;0.00316792;0.00762215;0.030615;0;0.0210851;3.76057;4.07003
283000;284;25.8248;0.060474;0.0023472;-2.23532;25.7279;-0.0413745;-0.0788658;0.0602368;-0.610732;-0.285482;-0.149549;-0.366171;0.487797;-7.2244;-0.00057188;-7.12009e-06;0.00297324;0.00297325;-0.000571895;0.00177257;0.192343;5.19906;0.00219774;0.00236343;5.19895;0.192347;116.573;161.573;-0.00541053;-0.000573155;0.00158779;-0.0015964;0.00297198;0.00654024;0.0130582;0;0.0227403;-0.367179;-0.204895;-0.990937;1.07646;-7.27295;-0.000885409;4.92115e-05;0.00334978;0.00335035;-0.00088598;0.00211817;0.264318;3.78332;0.00258011;0.00282422;3.78152;0.264444;123.273;168.273;-0.00255895;-0.000889883;0.0031019;-0.00299059;0.00334499;0.00719311;0.029577;0;0.0215256;3.8102;4.07082
284000;285;25.8263;0.0619711;0.0024053;-2.23585;25.7293;-0.038645;-0.0794023;0.0616972;-0.608003;-0.288583;-0.152945;-0.366196;0.490685;-7.22442;-0.000580025;5.79496e-05;0.0039959;0.00399664;-0.000580759;0.0022887;0.145155;6.88919;0.00287761;0.0030516;6.88175;0.145312;110.923;155.923;-0.00583403;-0.000581228;0.00167495;-0.00155168;0.00399451;0.00683731;0.0116337;0;0.0167006;-0.370854;-0.209703;-0.991365;1.07903;-7.27338;-0.000885496;0.000210982;0.00333557;0.00334609;-0.000896015;0.00212105;0.265471;3.76689;0.00258176;0.00282807;3.73441;0.26778;121.134;166.134;-0.0024994;-0.000889471;0.00326105;-0.00282626;0.00333029;0.00741668;0.0300968;0;0.023297;3.885;4.07861
285000;286;25.8259;0.0615244;0.00238797;-2.23462;25.729;-0.0446847;-0.0781718;0.0613459;-0.614042;-0.289315;-0.153658;-0.368447;0.493018;-7.22667;-0.000606836;-0.000104107;0.0036248;0.00362736;-0.000609395;0.00211838;0.167412;5.97327;0.00264487;0.0028245;5.95238;0.168;114.363;159.363;-0.00553215;-0.000608212;0.00146049;-0.00166211;0.00362374;0.00555424;0.0121144;0;0.0203357;-0.370982;-0.209812;-0.998685;1.08583;-7.2807;-0.000912541;0.000239933;0.00331804;0.0033316;-0.000926106;0.00212885;0.275024;3.63604;0.00258566;0.00283847;3.59743;0.277976;120.931;165.931;-0.00253711;-0.000916426;0.00328904;-0.00279631;0.00331267;0.00676034;0.0301443;0;0.0226288;3.94352;4.08483
286000;287;25.8268;0.0624376;0.00242341;-2.23501;25.7299;-0.0464165;-0.0785564;0.062226;-0.615774;-0.290034;-0.155029;-0.371919;0.496465;-7.23014;-0.000679844;-2.33148e-05;0.00398465;0.00398477;-0.00067996;0.00233236;0.170616;5.86113;0.00290977;0.00310982;5.8603;0.17064;112.876;157.876;-0.00576175;-0.000681267;0.00164754;-0.00168641;0.0039833;0.0054592;0.0115236;0;0.0162068;-0.371938;-0.212187;-1.00227;1.08991;-7.28429;-0.000941304;0.000286012;0.00332969;0.00334876;-0.000960372;0.00215456;0.2827;3.53731;0.00261215;0.00287275;3.48694;0.286785;120.457;165.457;-0.00250797;-0.000945079;0.00334637;-0.00276132;0.00332415;0.00557441;0.029703;0;0.0286817;4.00269;4.09265
287000;288;25.8285;0.0640802;0.00248716;-2.23545;25.7315;-0.0474442;-0.0790031;0.0638342;-0.616802;-0.291936;-0.157533;-0.370823;0.497547;-7.22905;-0.000670448;-2.72442e-05;0.00441706;0.00441721;-0.000670594;0.0025439;0.151786;6.58822;0.0031919;0.00339187;6.58701;0.151814;111.51;156.51;-0.00576483;-0.00067196;0.00169266;-0.00173844;0.00441564;0.0058786;0.0121327;0;0.0150168;-0.374256;-0.215517;-1.00515;1.094;-7.28716;-0.000780275;0.000272462;0.00346548;0.0034829;-0.000797688;0.00214029;0.225156;4.44136;0.00262849;0.00285372;4.36624;0.22903;119.89;164.89;-0.00324658;-0.000784488;0.00347297;-0.00291451;0.00345951;0.00680792;0.0302365;0;0.022187;4.07232;4.0996
288000;289;25.83;0.0655966;0.00254602;-2.23561;25.733;-0.0419693;-0.079158;0.0653523;-0.611327;-0.293753;-0.158193;-0.373861;0.501087;-7.23208;-0.00054125;0.000239687;0.00412351;0.0041358;-0.000553534;0.00234466;0.13126;7.61849;0.00295902;0.00312622;7.47162;0.13384;108.212;153.212;-0.0052925;-0.000542188;0.00187695;-0.00138997;0.00412179;0.0053703;0.0110703;0;0.0189518;-0.376241;-0.216587;-1.0097;1.09908;-7.29172;-0.000657166;0.000342077;0.0035689;0.00359641;-0.000684676;0.00214054;0.184137;5.43074;0.00265542;0.00285406;5.25271;0.190378;118.523;163.523;-0.00404635;-0.000661537;0.00367382;-0.00297564;0.00356223;0.00797493;0.031338;0;0.0235467;4.12148;4.10739
289000;290;25.8328;0.0684141;0.00265538;-2.23682;25.7357;-0.0431722;-0.0803741;0.0680728;-0.61253;-0.294522;-0.161562;-0.374788;0.503301;-7.23301;-0.000743088;0.000209719;0.00489726;0.00490505;-0.000750875;0.00282796;0.151735;6.59042;0.00354692;0.00377062;6.53244;0.153082;107.535;152.535;-0.00589777;-0.00074418;0.00192066;-0.00149162;0.00489545;0.00691255;0.0110457;0;0.0146701;-0.377355;-0.220978;-1.01098;1.1015;-7.29299;-0.000656574;0.000201828;0.00362968;0.00363916;-0.000666056;0.00215261;0.18089;5.52821;0.0026759;0.00287014;5.46374;0.183025;121.187;166.187;-0.00372398;-0.000662496;0.00386568;-0.00344638;0.00362225;0.00723624;0.0328878;0;0.0246067;4.19929;4.11507
290000;291;25.8344;0.0700028;0.00271704;-2.2369;25.7373;-0.040565;-0.0804456;0.0696655;-0.609923;-0.295872;-0.162656;-0.380101;0.508404;-7.23833;-0.000815412;7.62196e-05;0.00478612;0.00478715;-0.000816449;0.0028018;0.17037;5.86957;0.00349551;0.00373573;5.86338;0.17055;110.065;155.065;-0.00584895;-0.000816842;0.00185421;-0.00169186;0.00478441;0.00758642;0.0123649;0;0.0155492;-0.379008;-0.223941;-1.01564;1.10694;-7.29765;-0.000599068;0.000319924;0.00363901;0.00366303;-0.000623083;0.00214305;0.164624;6.07445;0.00267402;0.00285741;5.87888;0.170101;119.979;164.979;-0.00408717;-0.000605373;0.00422059;-0.00356428;0.00363019;0.00796475;0.0338138;0;0.0332702;4.25923;4.12278
291000;292;25.8327;0.0683053;0.00265115;-2.2358;25.7357;-0.0456519;-0.0793504;0.0680483;-0.61501;-0.300033;-0.165665;-0.374239;0.507463;-7.23246;-0.00107245;-8.18653e-05;0.00462059;0.00462177;-0.00107363;0.0028477;0.232102;4.30845;0.00349447;0.00379693;4.30482;0.232298;114.639;159.639;-0.00626329;-0.0010745;0.00187409;-0.00202674;0.00461885;0.00859299;0.0128069;0;0.0157149;-0.38218;-0.225662;-1.0163;1.10898;-7.29831;-0.000402544;0.000277682;0.00371133;0.00372999;-0.000421202;0.0020756;0.108463;9.2197;0.00263829;0.00276746;8.85558;0.112923;119.855;164.855;-0.00404631;-0.000409405;0.00428572;-0.00371393;0.00370222;0.0080993;0.0333057;0;0.0401331;4.31372;4.12969
292000;293;25.8347;0.0703354;0.00272995;-2.23636;25.7377;-0.0461064;-0.0799147;0.0700362;-0.615464;-0.30105;-0.167791;-0.373699;0.508366;-7.23192;-0.000970395;-0.000381986;0.00480067;0.00482584;-0.000995569;0.0029107;0.202138;4.94713;0.00359533;0.00388094;4.84732;0.2063;116.008;161.008;-0.00653895;-0.000972883;0.00150915;-0.00226226;0.00479961;0.0100871;0.0122604;0;0.0209271;-0.38365;-0.228411;-1.01812;1.11173;-7.30014;-0.000476157;0.000269301;0.00367717;0.00369456;-0.000493546;0.00209405;0.12949;7.7226;0.00264296;0.00279207;7.48575;0.133587;120.552;165.552;-0.00383931;-0.000483387;0.00436692;-0.00381136;0.00366771;0.00678479;0.0336372;0;0.051146;4.37751;4.13635
293000;294;25.834;0.0696708;0.00270415;-2.23608;25.737;-0.0521509;-0.0796266;0.0693826;-0.621509;-0.302579;-0.170114;-0.37543;0.511313;-7.23365;-0.00106334;-9.58665e-05;0.00474552;0.0047471;-0.00106492;0.00290601;0.224073;4.46283;0.00357301;0.00387468;4.45769;0.224332;113.915;158.915;-0.00626252;-0.00106534;0.00181751;-0.00199819;0.00474388;0.0084046;0.0117145;0;0.0161425;-0.38502;-0.231233;-1.02109;1.1155;-7.3031;-0.000324557;0.000275378;0.00353331;0.00355286;-0.000344115;0.00194849;0.0918566;10.8865;0.00249122;0.00259799;10.3246;0.0968557;120.452;165.452;-0.0042181;-0.000332253;0.00449921;-0.00393223;0.00352326;0.00801423;0.0345362;0;0.0407552;4.44616;4.14379
294000;295;25.8359;0.0715736;0.00277801;-2.23696;25.7389;-0.0489506;-0.080512;0.0712219;-0.618308;-0.304684;-0.170263;-0.378029;0.514517;-7.23625;-0.00120398;-0.00022702;0.00459177;0.00460065;-0.00121286;0.00290675;0.262204;3.81383;0.00354131;0.00387567;3.79323;0.263628;117.385;162.385;-0.0062546;-0.00120653;0.00182452;-0.00226673;0.00459014;0.00951221;0.0119216;0;0.017403;-0.386979;-0.232015;-1.02645;1.12124;-7.30847;-0.000259546;0.000220879;0.00377783;0.00378988;-0.000271594;0.00203074;0.0687024;14.5555;0.00262181;0.00270765;13.9542;0.071663;120.38;165.38;-0.00387242;-0.000267299;0.00440204;-0.00394347;0.00376821;0.00681631;0.0345061;0;0.0481943;4.51037;4.1486
295000;296;25.8334;0.0690112;0.00267855;-2.2352;25.7364;-0.0620327;-0.0787537;0.0687744;-0.63139;-0.308546;-0.174417;-0.37332;0.514772;-7.23154;-0.00126277;-9.82524e-05;0.0040851;0.00408691;-0.00126457;0.00267574;0.309115;3.23504;0.00322973;0.00356765;3.23185;0.30942;119.077;164.077;-0.00637313;-0.00126517;0.00200972;-0.002195;0.00408309;0.00930253;0.0118773;0;0.0188122;-0.389488;-0.234982;-1.02936;1.12539;-7.31138;-0.00021948;0.000184715;0.00367136;0.00368011;-0.00022823;0.00195417;0.0597818;16.7275;0.00253291;0.00260556;16.1246;0.0620172;120.941;165.941;-0.00360316;-0.000227314;0.00434758;-0.00396201;0.00366196;0.00613366;0.034667;0;0.0402456;4.56285;4.15197
296000;297;25.8334;0.068998;0.00267804;-2.23524;25.7364;-0.0642027;-0.0787899;0.0687527;-0.63356;-0.307918;-0.17832;-0.368677;0.512381;-7.2269;-0.00139858;-0.000172562;0.00383095;0.00383664;-0.00140427;0.00262045;0.365075;2.73916;0.00313258;0.00349394;2.73212;0.366017;120.41;165.41;-0.00619538;-0.00140067;0.00171323;-0.00204853;0.0038295;0.0102657;0.012462;0;0.0177805;-0.389379;-0.240149;-1.0243;1.12181;-7.30631;-0.000236375;0.000190153;0.00377936;0.00378834;-0.000245359;0.00201685;0.0625437;15.9888;0.00261119;0.00268913;15.44;0.0647669;120.883;165.883;-0.00398367;-0.000244518;0.00443676;-0.00403947;0.00376957;0.00704799;0.0375209;0;0.0313339;4.63279;4.15832
297000;298;25.8316;0.0672415;0.00260986;-2.23429;25.7347;-0.067686;-0.077845;0.0670627;-0.637044;-0.310163;-0.17897;-0.37718;0.520093;-7.2354;-0.00108378;-0.000432649;0.00385525;0.00389287;-0.0011214;0.00250713;0.281119;3.55722;0.00303882;0.00334284;3.47144;0.288065;123.717;168.717;-0.00689589;-0.0010871;0.00175447;-0.002609;0.00385381;0.0102989;0.0132334;0;0.0202123;-0.391175;-0.242551;-1.0305;1.12862;-7.31252;-0.000240689;9.8466e-05;0.00387751;0.00387987;-0.000243042;0.00206145;0.0620731;16.11;0.00267128;0.00274861;15.9638;0.0626419;121.505;166.505;-0.00372973;-0.000248508;0.00416878;-0.00395515;0.00386886;0.0063314;0.036109;0;0.0242219;4.6974;4.16619
298000;299;25.8301;0.0656925;0.00254974;-2.2341;25.7332;-0.0765147;-0.0776499;0.0655001;-0.645872;-0.312881;-0.182578;-0.368394;0.516666;-7.22662;-0.000951407;6.76729e-05;0.00338015;0.0033812;-0.000952464;0.00216683;0.281469;3.55279;0.00262976;0.00288911;3.54996;0.281694;118.522;163.522;-0.00640199;-0.000953291;0.0020856;-0.00194154;0.00337798;0.00841657;0.0159145;0;0.0224942;-0.393635;-0.245364;-1.02667;1.12659;-7.30869;-0.000334319;6.69094e-05;0.00394794;0.00394899;-0.000335364;0.00214218;0.0846818;11.8089;0.00275127;0.00285624;11.7752;0.0849241;121.387;166.387;-0.00329086;-0.000341335;0.00389616;-0.00374601;0.00394039;0.00570044;0.0372673;0;0.0313308;4.75129;4.17337
299000;300;25.8324;0.0680642;0.0026418;-2.2338;25.7356;-0.0758436;-0.0773527;0.0679085;-0.645201;-0.315359;-0.182743;-0.378008;0.525106;-7.23623;-0.000927718;0.000120297;0.00248486;0.00248909;-0.000931953;0.00171052;0.373349;2.67846;0.0020422;0.0022807;2.67083;0.374415;123.585;168.585;-0.00664557;-0.000930073;0.00242114;-0.00217271;0.00248194;0.00951967;0.016216;0;0.0186347;-0.395753;-0.247763;-1.03716;1.13741;-7.31917;-0.000465459;6.25336e-05;0.00397971;0.00398059;-0.000466338;0.00222347;0.116958;8.55009;0.00282205;0.00296462;8.53585;0.117153;120.19;165.19;-0.00209813;-0.00047074;0.00338964;-0.00324984;0.00397399;0.00367892;0.035633;0;0.0272632;4.81085;4.18123
300000;301;25.8335;0.069172;0.00268479;-2.23379;25.7367;-0.0752791;-0.0773364;0.0690235;-0.644637;-0.316003;-0.18595;-0.375387;0.524738;-7.23361;-0.000935019;0.000155911;0.00241569;0.00242293;-0.000942258;0.0016826;0.38706;2.58358;0.0020046;0.00224346;2.57141;0.388891;123.084;168.084;-0.0063783;-0.000937131;0.00237931;-0.00206005;0.00241288;0.00810104;0.015831;0;0.017862;-0.396555;-0.251661;-1.03458;1.1362;-7.3166;-0.000448767;0.000129193;0.00398456;0.00398833;-0.000452529;0.00222043;0.112626;8.87891;0.00282185;0.00296057;8.81341;0.113463;118.82;163.82;-0.00210181;-0.000453457;0.00333718;-0.00306463;0.00397903;0.00449493;0.0341906;0;0.0271595;4.88126;4.18843
301000;302;25.8335;0.0691584;0.00268426;-2.23282;25.7367;-0.077258;-0.0763703;0.0690878;-0.646616;-0.31912;-0.18662;-0.380209;0.530305;-7.23843;-0.000889392;0.000130184;0.00157424;0.0015811;-0.000896252;0.00123868;0.564966;1.77002;0.0014484;0.00165157;1.76413;0.566853;127.586;172.586;-0.0064222;-0.000891585;0.00236308;-0.00209722;0.00157146;0.0081457;0.0163813;0;0.0203712;-0.399055;-0.253444;-1.04021;1.1426;-7.32223;-0.000521803;6.13236e-05;0.00390333;0.00390418;-0.000522653;0.00221342;0.133682;7.48046;0.00279335;0.00295122;7.46993;0.13387;119.27;164.27;-0.00180614;-0.000525974;0.00302393;-0.00288822;0.00389878;0.00466874;0.033138;0;0.0246636;4.94243;4.19588
302000;303;25.8352;0.0707923;0.00274768;-2.23317;25.7383;-0.0791385;-0.0767198;0.0706918;-0.648496;-0.319056;-0.191885;-0.367761;0.523321;-7.22598;-0.000943635;0.00046056;0.00157453;0.00165612;-0.00102523;0.00134067;0.599314;1.66857;0.00156229;0.00178756;1.61537;0.619054;120.773;165.773;-0.00668471;-0.000944974;0.00262585;-0.00169929;0.00157119;0.00883837;0.0158822;0;0.0249112;-0.399036;-0.258435;-1.02967;1.13413;-7.31169;-0.000704985;7.24441e-05;0.00384289;0.00384405;-0.000706139;0.00227509;0.183452;5.45103;0.00282762;0.00303346;5.44376;0.183697;121.106;166.106;-0.00201537;-0.000709972;0.00331758;-0.00315799;0.00383741;0.00436529;0.0334722;0;0.0228738;5.00509;4.20323
303000;304;25.8379;0.0735727;0.0028556;-2.23196;25.7413;-0.0731884;-0.0755073;0.0736055;-0.642546;-0.3228;-0.19;-0.381827;0.534876;-7.24005;-0.000838224;0.000351155;0.000960473;0.0010266;-0.000904348;0.000965473;0.87272;1.14584;0.00111558;0.0012873;1.13518;0.880919;123.527;168.527;-0.00658397;-0.00083997;0.00260685;-0.00190049;0.00095714;0.00849844;0.0170599;0;0.0230017;-0.402353;-0.258952;-1.04249;1.14705;-7.3245;-0.000638624;-5.89372e-05;0.0037998;0.00380059;-0.000639406;0.00222;0.168068;5.94999;0.00277155;0.00295999;5.94393;0.168239;120.97;165.97;-0.00052026;-0.000642682;0.00274303;-0.00284851;0.00379606;0.00296454;0.0305618;0;0.025388;5.06475;4.21114
304000;305;25.8383;0.07388;0.00286752;-2.23138;25.7416;-0.0761087;-0.0749292;0.0739555;-0.645466;-0.325076;-0.193997;-0.377436;0.534572;-7.23566;-0.000645321;0.000324734;0.00129716;0.00135001;-0.000698171;0.00102409;0.497489;2.01009;0.00120231;0.00136545;1.93363;0.517162;121.475;166.475;-0.00681429;-0.000646989;0.00250811;-0.0018544;0.00129407;0.00808214;0.0169593;0;0.0245936;-0.404031;-0.264044;-1.03886;1.14551;-7.32087;-0.000779802;-0.000175019;0.0038928;0.00389935;-0.000786349;0.00234285;0.200319;4.99204;0.00289747;0.0031238;4.95881;0.201661;122.145;167.145;-0.000929301;-0.000783925;0.00253841;-0.00287581;0.00388961;0.00405333;0.0280537;0;0.0251349;5.13242;4.21783
305000;306;25.8397;0.0753121;0.00292311;-2.23069;25.7431;-0.0768932;-0.0742392;0.0754505;-0.646251;-0.327329;-0.194987;-0.377367;0.536255;-7.23559;-0.000905954;0.000362128;0.00140507;0.00146049;-0.000961369;0.00121093;0.644774;1.55093;0.00140812;0.00161457;1.51917;0.658252;123.039;168.039;-0.00680711;-0.000907582;0.00256926;-0.00183992;0.00140184;0.00791598;0.0164878;0;0.0214639;-0.406302;-0.264747;-1.04431;1.15141;-7.32632;-0.000862084;-0.00023053;0.00377194;0.00378338;-0.000873524;0.00232845;0.228552;4.37538;0.00285827;0.0031046;4.33117;0.230884;123.481;168.481;-0.00127238;-0.000866237;0.00244132;-0.00289004;0.003769;0.00449121;0.0276766;0;0.024898;5.19062;4.22392
306000;307;25.8401;0.0757481;0.00294003;-2.23157;25.7434;-0.0812281;-0.0751254;0.075798;-0.650586;-0.328168;-0.198829;-0.373374;0.535383;-7.2316;-0.000674794;0.000307242;0.00123091;0.00127922;-0.000723103;0.00100116;0.548209;1.82412;0.00117081;0.00133488;1.76906;0.565271;121.995;166.995;-0.00650075;-0.000676108;0.00226765;-0.00164943;0.00122839;0.00774607;0.0165646;0;0.035051;-0.407717;-0.269779;-1.03977;1.14897;-7.32179;-0.00102156;-0.00018749;0.00395495;0.003962;-0.00102861;0.00249531;0.258299;3.87148;0.00304272;0.00332708;3.85179;0.25962;123.91;168.91;-0.00184117;-0.00102647;0.00277617;-0.00313645;0.00395113;0.0055605;0.0261017;0;0.0307117;5.24777;4.22636
307000;308;25.8444;0.0800102;0.00310546;-2.23169;25.7477;-0.0745554;-0.0752412;0.0800862;-0.643913;-0.32974;-0.1985;-0.380296;0.541069;-7.23852;-0.000720109;0.000728352;0.00180238;0.00199758;-0.000915311;0.00145644;0.399533;2.50292;0.00172002;0.00194193;2.1824;0.45821;112.151;157.151;-0.00653335;-0.000720568;0.00266454;-0.00120296;0.0017991;0.00683416;0.0165585;0;0.020772;-0.409248;-0.272303;-1.04458;1.15446;-7.3266;-0.00104466;-0.000326015;0.00403259;0.00405344;-0.00106551;0.00255947;0.259053;3.86021;0.00311874;0.00341263;3.80424;0.262864;124.968;169.968;-0.00115959;-0.00104978;0.00257819;-0.00321553;0.00402934;0.00502031;0.0255149;0;0.0264454;5.31239;4.23374
308000;309;25.8434;0.0790445;0.00306798;-2.23224;25.7467;-0.0800066;-0.0757921;0.0790529;-0.649364;-0.332387;-0.202208;-0.377117;0.541836;-7.23534;-0.000813135;0.000630032;0.00245841;0.00257555;-0.000930272;0.00175291;0.330756;3.02337;0.00209707;0.00233721;2.7686;0.361194;112.858;157.858;-0.00638269;-0.000813769;0.00255655;-0.0012902;0.00245535;0.00621957;0.0163006;0;0.0193528;-0.412183;-0.276268;-1.04176;1.1539;-7.32378;-0.00101977;-0.000375217;0.00411174;0.00413903;-0.00104706;0.00259305;0.248015;4.03201;0.00316661;0.0034574;3.95298;0.252973;125.331;170.331;-0.00132924;-0.00102525;0.00259518;-0.00333043;0.00410845;0.00714197;0.0267236;0;0.0305913;5.37304;4.24095
309000;310;25.846;0.0816689;0.00316984;-2.23112;25.7494;-0.0775154;-0.0746742;0.0817916;-0.646873;-0.334338;-0.200348;-0.387549;0.54965;-7.24577;-0.000832552;0.000490513;0.00298379;0.00304582;-0.000894589;0.00197021;0.279025;3.5839;0.00238533;0.00262694;3.40472;0.29371;111.806;156.806;-0.00635375;-0.000833193;0.00222133;-0.00123372;0.00298145;0.0063326;0.0144109;0;0.0230261;-0.41354;-0.277053;-1.05171;1.16356;-7.33372;-0.00101717;-0.000303931;0.0040846;0.00410264;-0.00103522;0.00256893;0.249026;4.01564;0.00313762;0.00342524;3.96308;0.252329;124.328;169.328;-0.000984379;-0.00102218;0.00258334;-0.00317653;0.00408132;0.00616683;0.0270308;0;0.0354423;5.43587;4.24942
310000;311;25.8467;0.0823557;0.00319649;-2.23202;25.75;-0.0798049;-0.0755694;0.0823964;-0.649163;-0.333877;-0.206523;-0.375187;0.543038;-7.23341;-0.000816394;0.000573958;0.00256362;0.00265842;-0.000911198;0.00178481;0.318454;3.14017;0.00214163;0.00237975;2.9175;0.342759;113.423;158.423;-0.00617733;-0.000817148;0.00250924;-0.00135481;0.00256064;0.00642422;0.0161536;0;0.0161949;-0.413805;-0.283451;-1.03915;1.15387;-7.32117;-0.00116543;-0.000357359;0.00405603;0.00408037;-0.00118978;0.00263507;0.287333;3.48028;0.00319164;0.00351343;3.42953;0.291585;126.814;171.814;-0.00152116;-0.00117181;0.00288851;-0.00358634;0.00405194;0.00722677;0.0288085;0;0.0345828;5.49251;4.25641
311000;312;25.8469;0.0825663;0.00320467;-2.23197;25.7503;-0.0812813;-0.0755172;0.0826077;-0.650639;-0.338168;-0.20567;-0.386425;0.553156;-7.24465;-0.000799168;0.000314902;0.00339702;0.00342052;-0.000822669;0.0021216;0.235256;4.2507;0.00259835;0.00282879;4.15784;0.24051;112.318;157.318;-0.00595026;-0.000800128;0.00205732;-0.00142023;0.00339496;0.00577667;0.0141604;0;0.0200794;-0.417986;-0.283618;-1.05015;1.16532;-7.33217;-0.00119471;-0.000397631;0.00401809;0.00404825;-0.00122487;0.00263656;0.297333;3.36323;0.00318658;0.00351541;3.30505;0.302567;127.299;172.299;-0.00135904;-0.00120099;0.00278574;-0.00356447;0.00401431;0.00789304;0.0297208;0;0.0287725;5.55334;4.26314
312000;313;25.8508;0.0864193;0.00335422;-2.23277;25.7541;-0.0801215;-0.0763172;0.0864095;-0.649479;-0.339816;-0.205838;-0.389262;0.556209;-7.24749;-0.000853298;0.000565071;0.00394533;0.00401097;-0.000918941;0.00246496;0.216281;4.62362;0.00302715;0.00328661;4.36478;0.229107;107.146;152.146;-0.00596897;-0.000853772;0.00226314;-0.00112488;0.00394294;0.00546666;0.0127652;0;0.0245717;-0.420082;-0.286469;-1.05168;1.16814;-7.33369;-0.00131829;-0.000389755;0.00418828;0.00421573;-0.00134574;0.00278074;0.314757;3.17705;0.0033504;0.00370765;3.13265;0.319219;127.261;172.261;-0.00132848;-0.00132504;0.00293133;-0.00369262;0.00418408;0.00901998;0.0314033;0;0.0440175;5.61664;4.27082
313000;314;25.8509;0.086539;0.00335886;-2.23296;25.7542;-0.0789387;-0.0765072;0.0865168;-0.648296;-0.3415;-0.208676;-0.389488;0.558452;-7.24771;-0.000722406;0.000382774;0.00419254;0.00422217;-0.000752038;0.00248711;0.172307;5.80358;0.00309606;0.00331614;5.61431;0.178116;108.071;153.071;-0.00573111;-0.000723248;0.00212635;-0.00135227;0.00419036;0.00465294;0.0126707;0;0.0191745;-0.422188;-0.290233;-1.05024;1.16853;-7.33225;-0.00145786;-0.000411824;0.00413339;0.00416356;-0.00148803;0.00282579;0.352704;2.83524;0.00338263;0.00376773;2.79803;0.357394;128.36;173.36;-0.00207591;-0.00146497;0.00298493;-0.00378966;0.00412903;0.00981409;0.0321671;0;0.0326293;5.67426;4.27717
314000;315;25.8527;0.0883007;0.00342724;-2.23384;25.7558;-0.0832771;-0.0773955;0.0881944;-0.652635;-0.34176;-0.211824;-0.390477;0.560483;-7.2487;-0.000777344;0.000567594;0.00450615;0.00456643;-0.000837631;0.00270203;0.172508;5.79685;0.0033585;0.00360271;5.4516;0.183432;104.79;149.79;-0.0055241;-0.000777781;0.00223774;-0.00109377;0.00450381;0.00522318;0.0138129;0;0.0190531;-0.422699;-0.294918;-1.05165;1.17116;-7.33366;-0.00153362;-0.000301618;0.00437146;0.00438682;-0.00154899;0.00296791;0.350827;2.85041;0.0035552;0.00395721;2.83205;0.353101;126.346;171.346;-0.00219641;-0.00154018;0.00304612;-0.00362967;0.00436688;0.00951461;0.0336586;0;0.0248513;5.74098;4.28441
315000;316;25.8531;0.0887685;0.0034454;-2.23347;25.7563;-0.0830811;-0.0770239;0.0886969;-0.652439;-0.344982;-0.213234;-0.393818;0.565309;-7.25204;-0.000762691;0.000419502;0.00513557;0.00516526;-0.000792378;0.00297882;0.148512;6.73348;0.00373575;0.00397176;6.51868;0.153405;104.993;149.993;-0.00559299;-0.000763441;0.00214278;-0.00129367;0.00513337;0.00489818;0.0116463;0;0.0167216;-0.426027;-0.297792;-1.05391;1.17512;-7.33592;-0.00168106;-0.00034112;0.00432022;0.00433954;-0.00170038;0.00301996;0.389114;2.56994;0.00359641;0.00402662;2.5521;0.391835;127.566;172.566;-0.00273371;-0.00168795;0.00306337;-0.00372526;0.0043156;0.0113312;0.0338103;0;0.0222858;5.79504;4.29036
316000;317;25.854;0.0896737;0.00348053;-2.23474;25.7572;-0.0815959;-0.0782891;0.0895004;-0.650954;-0.34611;-0.215858;-0.392016;0.565742;-7.25024;-0.000751917;0.00042405;0.00575536;0.00578287;-0.000779434;0.00328115;0.130646;7.65425;0.00413959;0.00437487;7.41932;0.134783;103.294;148.294;-0.00564192;-0.000752626;0.00212307;-0.00126398;0.00575321;0.00491302;0.0127785;0;0.0180745;-0.428143;-0.301766;-1.05298;1.17607;-7.335;-0.0016775;-0.000273934;0.00454036;0.0045524;-0.00168955;0.00312098;0.369465;2.70662;0.003728;0.0041613;2.69445;0.371133;124.877;169.877;-0.00217197;-0.00168295;0.00278037;-0.00330933;0.00453655;0.0102445;0.0312229;0;0.0230599;5.8679;4.29852
317000;318;25.8562;0.0917905;0.00356269;-2.23611;25.7592;-0.0769481;-0.0796597;0.0915206;-0.646306;-0.349223;-0.217274;-0.393445;0.569178;-7.25167;-0.000971964;0.0003062;0.00626502;0.00627795;-0.000984896;0.00363142;0.155141;6.44573;0.00454928;0.0048419;6.37423;0.156882;104.414;149.414;-0.0055728;-0.000972978;0.00208098;-0.00145582;0.00626291;0.00460484;0.0120527;0;0.0223745;-0.431946;-0.304498;-1.05191;1.17721;-7.33393;-0.00169056;-3.49827e-06;0.00447038;0.00447038;-0.00169057;0.00308048;0.37817;2.64431;0.00367574;0.0041073;2.64431;0.37817;122.611;167.611;-0.00230037;-0.0016951;0.00302194;-0.00301038;0.00446584;0.00971993;0.0316279;0;0.0218839;5.91772;4.30048
318000;319;25.8581;0.0937664;0.00363938;-2.23611;25.7612;-0.0698104;-0.0796574;0.0935244;-0.639168;-0.351191;-0.219612;-0.39672;0.573543;-7.25494;-0.00085162;0.000334863;0.00627825;0.00629394;-0.000867312;0.00358063;0.135646;7.37213;0.00451293;0.00477417;7.25683;0.137801;102.148;147.148;-0.00541249;-0.000852296;0.00189048;-0.00120973;0.00627653;0.00450385;0.0114507;0;0.0216015;-0.434288;-0.307698;-1.05545;1.18206;-7.33747;-0.00159479;-3.13762e-05;0.00451851;0.00451867;-0.00159496;0.00305681;0.352947;2.83329;0.00366178;0.00407575;2.8331;0.35297;122.594;167.594;-0.00275978;-0.00159965;0.00307124;-0.00311511;0.00451382;0.0107328;0.0324802;0;0.0211538;5.98194;4.30622
319000;320;25.8595;0.0950853;0.00369057;-2.23635;25.7625;-0.0705647;-0.0799016;0.094825;-0.639922;-0.352937;-0.222125;-0.396715;0.575575;-7.25494;-0.000847104;0.000216369;0.0064541;0.0064605;-0.00085351;0.00365701;0.131251;7.61901;0.00461787;0.00487601;7.56933;0.132112;103.739;148.739;-0.0061371;-0.000848145;0.0019039;-0.00145892;0.00645232;0.00673647;0.0110141;0;0.0181733;-0.436427;-0.310968;-1.05668;1.1848;-7.3387;-0.00148101;0.000144325;0.00450139;0.00450487;-0.00148449;0.00299468;0.329013;3.0394;0.00360154;0.00399291;3.03462;0.329531;120.266;165.266;-0.00245919;-0.00148511;0.00316884;-0.00286218;0.0044964;0.00862043;0.0322279;0;0.0243552;6.0443;4.31363
320000;321;25.8601;0.095731;0.00371563;-2.23682;25.7631;-0.0701396;-0.0803726;0.0954334;-0.639497;-0.355498;-0.22466;-0.397027;0.578344;-7.25525;-0.00109894;7.77175e-05;0.00606148;0.00606233;-0.00109978;0.00358105;0.181298;5.51577;0.00445364;0.00477474;5.5123;0.181412;107.15;152.15;-0.00579106;-0.00110037;0.00186233;-0.00169419;0.00605976;0.00610359;0.0126856;0;0.0208277;-0.439472;-0.313736;-1.05967;1.18931;-7.34169;-0.00134616;0.00024519;0.00469137;0.00470131;-0.0013561;0.0030287;0.286944;3.485;0.00367071;0.00403827;3.46679;0.288452;118.428;163.428;-0.00312478;-0.00135017;0.00334885;-0.00283982;0.00468582;0.00890283;0.032382;0;0.0201338;6.09931;4.32094
321000;322;25.8622;0.0977899;0.00379555;-2.2373;25.7651;-0.0659254;-0.0808525;0.0974696;-0.635283;-0.356891;-0.227663;-0.396324;0.579892;-7.25455;-0.00105565;-4.22286e-05;0.00582504;0.0058253;-0.00105591;0.0034406;0.181226;5.51798;0.00427915;0.00458747;5.51687;0.181262;108.53;153.53;-0.0059052;-0.00105726;0.00172456;-0.00179693;0.00582356;0.00618373;0.0115713;0;0.0189591;-0.441217;-0.3178;-1.05927;1.19068;-7.34128;-0.00123727;0.00028532;0.00478998;0.00480345;-0.00125075;0.0030271;0.258305;3.8714;0.00369056;0.00403613;3.84046;0.260385;117.771;162.771;-0.00332327;-0.0012415;0.00350813;-0.00291816;0.00478389;0.00805861;0.0330168;0;0.0205132;6.16589;4.32879
322000;323;25.8622;0.097826;0.00379695;-2.23682;25.7652;-0.0708314;-0.0803745;0.0975343;-0.640189;-0.358483;-0.230386;-0.393478;0.580011;-7.2517;-0.00108121;-0.000318689;0.00629685;0.00631059;-0.00109495;0.00370277;0.171707;5.82388;0.00461555;0.00493703;5.76335;0.17351;110.006;155.006;-0.00618842;-0.00108347;0.00152517;-0.00214902;0.00629575;0.0070313;0.0119328;0;0.0207008;-0.442794;-0.320934;-1.05834;1.19128;-7.34036;-0.00113197;0.000264633;0.00470812;0.00472009;-0.00114394;0.00293201;0.240429;4.15923;0.00358932;0.00390935;4.12618;0.242355;117.616;162.616;-0.00356493;-0.00113611;0.00343729;-0.00288959;0.00470228;0.00843814;0.0313504;0;0.0209204;6.21844;4.336
323000;324;25.8623;0.097941;0.00380141;-2.23743;25.7652;-0.0741036;-0.0809855;0.0975875;-0.643461;-0.360883;-0.232783;-0.391464;0.581092;-7.24969;-0.0012096;-0.000194117;0.00607919;0.00608435;-0.00121476;0.00364956;0.198973;5.0258;0.00451595;0.00486608;5.00868;0.199653;110.214;155.214;-0.00669792;-0.00121169;0.00167872;-0.00205338;0.00607781;0.00745541;0.0119184;0;0.0217851;-0.445208;-0.323203;-1.0599;1.19417;-7.34191;-0.000935424;0.000203286;0.00490858;0.00491564;-0.000942487;0.00292907;0.190569;5.24744;0.00363225;0.00390542;5.21561;0.191732;117.912;162.912;-0.00408504;-0.000940584;0.00364406;-0.00321748;0.00490199;0.00835155;0.0329791;0;0.025287;6.26459;4.34369
324000;325;25.8632;0.0988448;0.00383649;-2.23773;25.7661;-0.0730514;-0.0812846;0.0984717;-0.642409;-0.362393;-0.234919;-0.396407;0.58622;-7.25463;-0.00119193;-0.000286179;0.00559907;0.00561111;-0.00120397;0.00340754;0.21288;4.69749;0.00419998;0.00454338;4.66052;0.214568;112.831;157.831;-0.00673558;-0.00119429;0.00163106;-0.00219047;0.00559779;0.00803165;0.0117533;0;0.0251438;-0.447292;-0.32658;-1.06641;1.20165;-7.34843;-0.000915974;0.00021574;0.00489358;0.00490158;-0.000923975;0.00291278;0.187179;5.34249;0.00361529;0.00388371;5.30489;0.188505;118.832;163.832;-0.00406685;-0.000922154;0.00397372;-0.00352051;0.00488575;0.00963677;0.0348036;0;0.0312882;6.33023;4.35203
325000;326;25.8635;0.0990923;0.0038461;-2.23787;25.7663;-0.0783639;-0.0814176;0.0986929;-0.647721;-0.364305;-0.238091;-0.396325;0.588625;-7.25455;-0.00118461;-0.000295485;0.00536949;0.00538278;-0.00119791;0.00329034;0.220619;4.5327;0.00404735;0.00438713;4.4935;0.222544;114.26;159.26;-0.00683563;-0.00118715;0.00169349;-0.00227149;0.00536811;0.00951346;0.0128128;0;0.0208695;-0.449261;-0.330537;-1.0689;1.20567;-7.35092;-0.000783951;0.000252894;0.00485002;0.00486135;-0.00079528;0.00282831;0.161639;6.18663;0.00353593;0.00377108;6.11275;0.163593;118.617;163.617;-0.00404892;-0.000790554;0.00416912;-0.00364138;0.0048414;0.00905589;0.0360802;0;0.028167;6.37766;4.35909
326000;327;25.8651;0.100757;0.0039107;-2.23828;25.768;-0.0803854;-0.0818335;0.100321;-0.649743;-0.365863;-0.239075;-0.395163;0.589208;-7.25339;-0.00126962;-0.000187626;0.00523537;0.00524078;-0.00127502;0.0032579;0.242507;4.12359;0.0039874;0.00434387;4.11034;0.243289;114.324;159.324;-0.00672201;-0.00127201;0.00183188;-0.00219407;0.00523372;0.00905766;0.0136809;0;0.0226076;-0.450793;-0.332308;-1.07076;1.20837;-7.35277;-0.000787068;0.000240903;0.00484482;0.00485511;-0.000797354;0.00282623;0.162456;6.15553;0.00353265;0.00376831;6.08902;0.16423;118.908;163.908;-0.00397076;-0.0007939;0.00420699;-0.00370296;0.00483604;0.00763986;0.0359026;0;0.0369305;6.4269;4.36503
327000;328;25.8647;0.100377;0.00389594;-2.2384;25.7676;-0.0847926;-0.0819492;0.0999155;-0.65415;-0.366497;-0.241672;-0.398843;0.593128;-7.25707;-0.00128792;-0.000115647;0.00492933;0.00493148;-0.00129007;0.00311077;0.261277;3.82735;0.00379155;0.0041477;3.82264;0.261599;115.343;160.343;-0.00700638;-0.00129029;0.0019589;-0.00217736;0.00492742;0.0100197;0.0128903;0;0.0272068;-0.451433;-0.335988;-1.07383;1.21235;-7.35584;-0.000600662;0.000152012;0.00501756;0.00502167;-0.000604772;0.00281322;0.119712;8.35338;0.0035665;0.00375096;8.30341;0.120432;119.301;164.301;-0.0035406;-0.000608507;0.00429;-0.00396284;0.00500841;0.00724301;0.0379028;0;0.0395488;6.47436;4.37105
328000;329;25.8653;0.100928;0.00391734;-2.23823;25.7681;-0.0866369;-0.0817782;0.100478;-0.655995;-0.368172;-0.245324;-0.393546;0.592126;-7.25177;-0.00152197;-0.00033626;0.00521144;0.00522819;-0.00153872;0.00338345;0.292044;3.42415;0.00409587;0.00451127;3.39776;0.294312;117.477;162.477;-0.00729151;-0.00152498;0.00181845;-0.00247654;0.00520985;0.0104698;0.0132745;0;0.0222125;-0.453516;-0.340391;-1.07039;1.21131;-7.3524;-0.000784087;0.000182468;0.00499549;0.00500124;-0.000789842;0.00289554;0.156959;6.37109;0.00362623;0.00386072;6.33195;0.157929;118.941;163.941;-0.00403116;-0.000790942;0.00409341;-0.00370599;0.00498717;0.00737899;0.0387909;0;0.0315987;6.51407;4.37694
329000;330;25.865;0.100605;0.0039048;-2.23892;25.7677;-0.0954333;-0.0824739;0.100062;-0.664791;-0.368992;-0.246547;-0.398177;0.596226;-7.2564;-0.0012526;-0.000146443;0.00477314;0.0047767;-0.00125616;0.00301643;0.262427;3.81059;0.00367545;0.0040219;3.80263;0.262976;116.153;161.153;-0.00699415;-0.00125503;0.00192862;-0.00220906;0.0047713;0.010047;0.0141324;0;0.0163331;-0.454305;-0.341784;-1.07963;1.22016;-7.36164;-0.000797104;0.000191007;0.00508668;0.00509288;-0.000803299;0.00294809;0.156704;6.38145;0.00369226;0.00393078;6.33995;0.15773;118.943;163.943;-0.00378651;-0.000804264;0.00419279;-0.00378735;0.00507795;0.00717182;0.039779;0;0.0234765;6.55016;4.37978
330000;331;25.866;0.101599;0.0039434;-2.23996;25.7686;-0.0953011;-0.0835074;0.100971;-0.664659;-0.370284;-0.247315;-0.406604;0.602994;-7.26483;-0.00139873;-0.000203498;0.00428473;0.004292;-0.00140601;0.00284901;0.326446;3.0633;0.00342752;0.00379868;3.05262;0.327588;119.528;164.528;-0.00698728;-0.00140127;0.00186616;-0.00226144;0.00428301;0.0094186;0.0145944;0;0.0176875;-0.456088;-0.343328;-1.08976;1.23023;-7.37177;-0.000739708;0.000130719;0.00523898;0.00524183;-0.000742565;0.0029922;0.141193;7.08249;0.00376656;0.0039896;7.05909;0.141661;118.319;163.319;-0.00350749;-0.000746343;0.00392767;-0.00364365;0.00523131;0.00680108;0.0385551;0;0.02388;6.58618;4.38749
331000;332;25.8666;0.102251;0.00396871;-2.23973;25.7693;-0.0973134;-0.0832834;0.101637;-0.666671;-0.371393;-0.250043;-0.404947;0.603686;-7.26317;-0.00153217;-0.000341849;0.00435798;0.00437775;-0.00155194;0.00296485;0.351578;2.84432;0.00355073;0.00395313;2.82082;0.354506;121.902;166.902;-0.00745271;-0.00153532;0.00186238;-0.00253315;0.00435631;0.0105961;0.0147426;0;0.0229221;-0.457217;-0.346332;-1.08954;1.2313;-7.37156;-0.000730457;0.000172968;0.00521871;0.00522373;-0.000735481;0.00297961;0.139969;7.14445;0.00375176;0.00397281;7.10247;0.140796;117.289;162.289;-0.00315788;-0.00073627;0.00378014;-0.00341286;0.00521162;0.00650054;0.0383437;0;0.0227681;6.6227;4.39413
332000;333;25.868;0.103601;0.00402111;-2.24068;25.7706;-0.0979002;-0.0842318;0.102908;-0.667258;-0.372191;-0.250799;-0.411292;0.608759;-7.26952;-0.00127951;0.00016531;0.00394182;0.00394705;-0.00128474;0.0026159;0.324598;3.08073;0.00314824;0.00348786;3.07226;0.325493;117.861;162.861;-0.00750514;-0.00128167;0.00242434;-0.00208197;0.00393891;0.00961656;0.0136242;0;0.0176016;-0.458641;-0.348785;-1.09583;1.23808;-7.37784;-0.000820417;0.000180516;0.00518829;0.00519371;-0.000825835;0.00300977;0.158128;6.32397;0.00376804;0.00401303;6.28904;0.159007;116.374;161.374;-0.00210725;-0.000825164;0.00346602;-0.00308535;0.00518233;0.00437246;0.036813;0;0.0215759;6.66101;4.40204
333000;334;25.8689;0.104522;0.00405683;-2.24065;25.7715;-0.0990277;-0.0841989;0.10383;-0.668385;-0.373745;-0.252871;-0.418462;0.615418;-7.27669;-0.00147592;-4.47733e-06;0.00450707;0.00450707;-0.00147592;0.0029915;0.327468;3.05374;0.00359902;0.00398866;3.05373;0.327468;119.308;164.308;-0.00722831;-0.001479;0.0024878;-0.00248192;0.00450399;0.00950862;0.0157193;0;0.0149973;-0.459608;-0.351774;-1.10181;1.24458;-7.38383;-0.000798473;2.78421e-05;0.00518208;0.00518221;-0.000798603;0.00299041;0.154084;6.48998;0.00374946;0.00398721;6.48909;0.154105;116.882;161.882;-0.00217292;-0.000803055;0.00310003;-0.00302606;0.0051773;0.0051327;0.0342968;0;0.0236678;6.68886;4.40947
334000;335;25.8697;0.105288;0.00408658;-2.24124;25.7722;-0.101075;-0.0847939;0.10454;-0.670433;-0.374569;-0.254893;-0.416913;0.615702;-7.27514;-0.00158753;0.000131912;0.00457383;0.00457665;-0.00159035;0.0030835;0.34709;2.8811;0.00369705;0.00411134;2.87776;0.347493;117.679;162.679;-0.00764714;-0.00159004;0.00251922;-0.00224075;0.00457068;0.0105743;0.0146324;0;0.0157367;-0.461224;-0.354456;-1.10113;1.24533;-7.38314;-0.00087753;0.000139659;0.00498321;0.00498654;-0.000880856;0.0029337;0.176097;5.67868;0.00365355;0.0039116;5.66101;0.176647;115.413;160.413;-0.00177814;-0.000881016;0.00293856;-0.00264292;0.00497893;0.00478264;0.0342975;0;0.0254227;6.72793;4.41728
335000;336;25.8688;0.104429;0.00405322;-2.24193;25.7713;-0.103537;-0.085484;0.103607;-0.672894;-0.37352;-0.260556;-0.417824;0.618048;-7.27605;-0.00157385;8.16346e-05;0.00529013;0.0052911;-0.00157482;0.00343296;0.297506;3.36127;0.00415309;0.00457728;3.35982;0.297635;114.774;159.774;-0.00753513;-0.00157628;0.00238421;-0.00220522;0.00528731;0.0102506;0.012996;0;0.0176308;-0.461202;-0.359119;-1.1047;1.24981;-7.38671;-0.000953585;7.28364e-05;0.0050736;0.00507448;-0.000954465;0.00301447;0.18795;5.32055;0.00374194;0.00401929;5.31657;0.188091;115.976;160.976;-0.00130643;-0.000957223;0.00285953;-0.00269715;0.00506953;0.00441511;0.0320825;0;0.0223574;6.76072;4.42415
336000;337;25.8697;0.105334;0.00408836;-2.24056;25.7723;-0.108335;-0.0841068;0.104616;-0.677692;-0.376992;-0.261373;-0.415355;0.618836;-7.27358;-0.00147266;9.56363e-05;0.00444937;0.00445092;-0.0014742;0.00296256;0.330981;3.02132;0.00356186;0.00395008;3.01921;0.331213;118.467;163.467;-0.00729883;-0.00147545;0.00256762;-0.00236177;0.0044461;0.00918033;0.0137595;0;0.0188454;-0.463265;-0.361127;-1.10491;1.25134;-7.38693;-0.000870607;-1.89973e-05;0.00506176;0.00506182;-0.000870667;0.00296624;0.171997;5.81406;0.00369908;0.00395499;5.81372;0.172007;116.227;161.227;-0.00147751;-0.000874287;0.00268998;-0.00271198;0.00505816;0.00438344;0.0316351;0;0.0221928;6.79043;4.43164
337000;338;25.8721;0.107683;0.00417953;-2.23975;25.7747;-0.0996093;-0.083305;0.107079;-0.668967;-0.37955;-0.263504;-0.422031;0.625782;-7.28025;-0.00161148;0.000303019;0.00417456;0.00419038;-0.0016273;0.00290884;0.386024;2.59052;0.0034658;0.00387846;2.57505;0.388342;118.786;163.786;-0.00714438;-0.00161402;0.00289658;-0.0022756;0.00417042;0.00930702;0.0165908;0;0.0178548;-0.465662;-0.364292;-1.10994;1.25758;-7.39196;-0.000961773;-8.47247e-05;0.00514854;0.00514971;-0.000962948;0.00305633;0.186805;5.35317;0.00379507;0.00407511;5.34787;0.186991;116.284;161.284;-0.000992195;-0.000965336;0.00251601;-0.00266965;0.00514539;0.00378039;0.0291863;0;0.025132;6.81998;4.43811
338000;339;25.873;0.10866;0.00421746;-2.2408;25.7756;-0.0988045;-0.0843511;0.107972;-0.668162;-0.379485;-0.266346;-0.421876;0.62684;-7.2801;-0.0016959;-6.87567e-05;0.00478015;0.00478088;-0.00169663;0.00323876;0.35478;2.81864;0.00387853;0.00431834;2.81786;0.354879;120.283;165.283;-0.0069885;-0.00169948;0.0025518;-0.00267242;0.00477691;0.00972238;0.0167292;0;0.0185927;-0.465909;-0.367653;-1.11138;1.25992;-7.39339;-0.0009037;-0.000178926;0.00524599;0.00525119;-0.000908901;0.00308004;0.172265;5.80501;0.00383979;0.00410673;5.77751;0.173085;117.161;162.161;-0.00164186;-0.000907781;0.00252001;-0.00286135;0.00524284;0.0044634;0.0290821;0;0.0272565;6.85308;4.44451
339000;340;25.8748;0.110404;0.00428513;-2.24051;25.7774;-0.0946362;-0.0840617;0.109763;-0.663994;-0.380549;-0.268661;-0.426799;0.631787;-7.28502;-0.00158152;0.000151964;0.0045054;0.00450919;-0.00158531;0.00304725;0.351027;2.84878;0.00365115;0.004063;2.84436;0.351573;118.332;163.332;-0.00719044;-0.00158423;0.00265256;-0.00233348;0.00450191;0.0103495;0.016045;0;0.0170401;-0.466793;-0.37098;-1.11469;1.26414;-7.3967;-0.000902545;-0.000236509;0.00527843;0.00528747;-0.000911582;0.00309953;0.170987;5.84839;0.00386484;0.0041327;5.80032;0.172404;118.375;163.375;-0.00141636;-0.000907258;0.00262226;-0.0030777;0.00527504;0.00415018;0.0275185;0;0.0269205;6.88804;4.44898
340000;341;25.8758;0.111446;0.0043256;-2.2404;25.7785;-0.0967072;-0.0839466;0.110812;-0.666065;-0.382694;-0.270547;-0.427107;0.63409;-7.28533;-0.00171393;5.98902e-05;0.00433778;0.00433837;-0.00171453;0.00302645;0.395118;2.53089;0.00360242;0.00403526;2.53036;0.3952;120.832;165.832;-0.00690617;-0.00171705;0.00262992;-0.00249465;0.00433433;0.00954431;0.0169376;0;0.0178064;-0.468805;-0.373953;-1.11751;1.26825;-7.39953;-0.000909338;-0.000241524;0.00522919;0.00523868;-0.000918826;0.00307875;0.173896;5.75055;0.00383559;0.004105;5.70149;0.175393;119.419;164.419;-0.000845062;-0.000914611;0.00279063;-0.00325516;0.00522535;0.00334353;0.028247;0;0.0333641;6.91999;4.45557
341000;342;25.8756;0.111194;0.00431581;-2.24028;25.7782;-0.101992;-0.0838314;0.110548;-0.67135;-0.383879;-0.274443;-0.425034;0.635087;-7.28326;-0.00163981;-4.63301e-05;0.00427829;0.00427865;-0.00164018;0.00295941;0.383287;2.60901;0.0035286;0.00394588;2.60865;0.383339;121.469;166.469;-0.00676866;-0.00164303;0.00245555;-0.00253346;0.00427529;0.00909981;0.0159741;0;0.0171496;-0.470088;-0.378301;-1.11704;1.26959;-7.39905;-0.000904312;-0.000232441;0.00527237;0.0052811;-0.000913047;0.00309708;0.171519;5.83025;0.00386124;0.00412943;5.78404;0.172889;119.417;164.417;-0.000681137;-0.000909741;0.00285572;-0.00330163;0.00526834;0.00346353;0.028748;0;0.0360657;6.94429;4.46124
342000;343;25.8771;0.112755;0.00437641;-2.23987;25.7798;-0.0993017;-0.0834173;0.112162;-0.668659;-0.383728;-0.274293;-0.43448;0.641293;-7.2927;-0.00160751;0.000200164;0.00410466;0.00411167;-0.00161452;0.00286309;0.391631;2.55342;0.0034092;0.00381746;2.54668;0.392668;119.83;164.83;-0.00732717;-0.0016102;0.00273993;-0.00232516;0.00410095;0.0101586;0.0167169;0;0.0199545;-0.470113;-0.379892;-1.12407;1.27627;-7.40609;-0.000882551;-0.000225826;0.0052209;0.00522925;-0.000890896;0.00306007;0.169042;5.91569;0.00381794;0.00408009;5.86965;0.170368;119.744;164.744;-0.00078131;-0.000888168;0.00292505;-0.00335756;0.00521667;0.00342727;0.0298331;0;0.0408044;6.97844;4.46878
343000;344;25.878;0.113597;0.00440906;-2.24061;25.7806;-0.10106;-0.084164;0.112935;-0.670418;-0.385065;-0.27691;-0.431857;0.641447;-7.29008;-0.00156302;0.000243049;0.00402262;0.00403317;-0.00157357;0.00280337;0.388557;2.57363;0.00333927;0.00373783;2.56307;0.390157;119.518;164.518;-0.007186;-0.00156559;0.00278238;-0.00228216;0.00401879;0.00952089;0.0170848;0;0.0179064;-0.471666;-0.383739;-1.12315;1.27718;-7.40516;-0.000887136;-0.000248684;0.00532329;0.00533323;-0.000897079;0.00311515;0.166652;6.00053;0.00388915;0.00415354;5.94511;0.168206;119.108;164.108;-0.00109069;-0.00089244;0.0027862;-0.00326481;0.00531946;0.00448258;0.0310801;0;0.0323951;7.00699;4.47681
344000;345;25.879;0.114678;0.00445102;-2.23986;25.7817;-0.103045;-0.0834146;0.114077;-0.672402;-0.386018;-0.279529;-0.436046;0.645974;-7.29427;-0.00161301;0.00017342;0.00369514;0.0037008;-0.00161867;0.00265973;0.436521;2.29084;0.00314864;0.00354631;2.28633;0.437383;121.621;166.621;-0.0075509;-0.0016156;0.00263989;-0.00228001;0.00369168;0.00996197;0.0185317;0;0.0319315;-0.472362;-0.387977;-1.12832;1.28326;-7.41033;-0.000919684;-0.00025943;0.00549276;0.00550324;-0.000930163;0.0032167;0.167436;5.97244;0.00401496;0.00428893;5.91642;0.169021;119.017;164.017;-0.00125707;-0.000925242;0.0028437;-0.00334276;0.00548877;0.00387434;0.0315433;0;0.056013;7.03907;4.48395
345000;346;25.8759;0.111521;0.00432851;-2.23993;25.7785;-0.113867;-0.0834842;0.110857;-0.683225;-0.387044;-0.284873;-0.429134;0.644292;-7.28736;-0.00152507;0.00031568;0.00375733;0.00377613;-0.00154387;0.00266;0.405891;2.46371;0.00316034;0.00354666;2.44589;0.408849;118.723;163.723;-0.00696978;-0.00152702;0.00264521;-0.0020016;0.00375389;0.00951284;0.0186882;0;0.0285461;-0.473703;-0.392895;-1.12388;1.28136;-7.4059;-0.000900236;-0.000226586;0.00543423;0.00544232;-0.00090833;0.00317533;0.16566;6.03645;0.00396582;0.00423377;5.99157;0.166901;117.905;162.905;-0.000959325;-0.000905024;0.00266673;-0.00310167;0.00543072;0.00394715;0.0322393;0;0.0316583;7.06487;4.49097
346000;347;25.877;0.112632;0.00437161;-2.23898;25.7797;-0.112602;-0.0825326;0.11206;-0.68196;-0.388054;-0.285348;-0.43277;0.647533;-7.29099;-0.00154609;9.94008e-05;0.00368662;0.00368851;-0.00154797;0.00261824;0.419378;2.38448;0.00310634;0.00349099;2.3828;0.419675;121.779;166.779;-0.00712231;-0.00154868;0.00248854;-0.00227728;0.00368354;0.00830776;0.0181054;0;0.0259326;-0.475133;-0.39518;-1.12713;1.28544;-7.40915;-0.00100864;-0.000134365;0.00545827;0.00546106;-0.00101144;0.00323625;0.184792;5.41149;0.00402049;0.004315;5.39932;0.185209;117.224;162.224;-0.00129908;-0.00101311;0.00274105;-0.00299128;0.00545454;0.00463125;0.0332595;0;0.0251825;7.09425;4.49795
347000;348;25.8779;0.113497;0.0044052;-2.23923;25.7805;-0.116095;-0.0827844;0.112891;-0.685453;-0.388664;-0.287549;-0.43664;0.651459;-7.29486;-0.00174089;0.000203653;0.00307727;0.00308586;-0.00174948;0.00241767;0.565726;1.76764;0.002827;0.00322356;1.76387;0.566935;124.566;169.566;-0.00651355;-0.00174313;0.00254495;-0.0021264;0.00307406;0.00775385;0.0198619;0;0.0337158;-0.475767;-0.399046;-1.13099;1.29024;-7.413;-0.001102;-0.000108166;0.00538013;0.00538194;-0.0011038;0.00324287;0.204827;4.88217;0.0040069;0.00432383;4.87583;0.205093;117.215;162.215;-0.000658922;-0.0011062;0.00270145;-0.00289967;0.00537651;0.00351713;0.0316424;0;0.0244113;7.12389;4.50569
348000;349;25.8801;0.11573;0.00449185;-2.24003;25.7827;-0.111922;-0.0835814;0.115081;-0.68128;-0.389578;-0.289192;-0.439097;0.654377;-7.29732;-0.00150638;0.000462074;0.00298543;0.00303247;-0.00155342;0.00229295;0.504576;1.98186;0.00269318;0.00305726;1.95213;0.512261;120.232;165.232;-0.00685608;-0.00150795;0.00276519;-0.00183073;0.00298173;0.00785674;0.0184752;0;0.0257054;-0.477166;-0.402267;-1.13273;1.29328;-7.41474;-0.00111026;-0.000104674;0.00531522;0.00531693;-0.00111196;0.00321444;0.208882;4.78739;0.00396756;0.00428592;4.78158;0.209136;116.282;161.282;-0.000585774;-0.00111383;0.00248154;-0.00267436;0.00531216;0.00392837;0.030824;0;0.0225155;7.15301;4.51183
349000;350;25.8813;0.116969;0.00453994;-2.24055;25.7839;-0.113654;-0.0841036;0.116272;-0.683012;-0.38927;-0.293528;-0.436487;0.654378;-7.29471;-0.00145632;0.000336877;0.00339315;0.00341644;-0.00147961;0.00244802;0.429194;2.32995;0.00289952;0.00326403;2.30902;0.433085;120.181;165.181;-0.00680131;-0.00145846;0.00278265;-0.00209708;0.00338935;0.00810807;0.0182784;0;0.0221708;-0.477447;-0.407432;-1.13102;1.29351;-7.41303;-0.00121929;-0.000106402;0.00533914;0.00534087;-0.00122102;0.00328094;0.228369;4.37888;0.00402972;0.00437459;4.3741;0.228618;115.965;160.965;-0.000321736;-0.00122259;0.00237159;-0.00256822;0.00533635;0.00328997;0.0302804;0;0.0230996;7.1821;4.51893
350000;351;25.8844;0.120021;0.0046584;-2.24098;25.787;-0.110801;-0.0845309;0.119311;-0.680159;-0.390805;-0.294537;-0.439454;0.657724;-7.29768;-0.00153461;0.000266792;0.00300688;0.00302249;-0.00155023;0.00228636;0.510369;1.95937;0.00268529;0.00304849;1.9497;0.512899;122.893;167.893;-0.0069957;-0.00153673;0.00261533;-0.00207111;0.0030035;0.00817212;0.0181455;0;0.0299707;-0.479025;-0.410109;-1.13558;1.29892;-7.41759;-0.00115873;-0.000111638;0.00541623;0.00541813;-0.00116063;0.00328938;0.213937;4.67428;0.00405471;0.00438584;4.66828;0.214211;115.987;160.987;-0.000256826;-0.00116224;0.00244549;-0.00265204;0.00541327;0.00320089;0.0277929;0;0.0221622;7.20421;4.52345
351000;352;25.8871;0.122717;0.00476306;-2.24076;25.7897;-0.108588;-0.0843151;0.122046;-0.677945;-0.390428;-0.297038;-0.437324;0.657205;-7.29555;-0.00144108;0.00052909;0.00307339;0.00313457;-0.00150226;0.00231842;0.468889;2.1327;0.00273181;0.00309122;2.08657;0.479255;118.98;163.98;-0.00732158;-0.00144268;0.00293584;-0.00186684;0.00306924;0.00876339;0.0175461;0;0.0204558;-0.479338;-0.413941;-1.13523;1.29995;-7.41724;-0.00116946;-0.000155614;0.00546371;0.00546735;-0.00117311;0.00332023;0.214042;4.67198;0.00409238;0.00442698;4.66056;0.214566;115.718;160.718;-4.19394e-05;-0.00117285;0.00230951;-0.00260448;0.00546107;0.00317984;0.0272164;0;0.0228327;7.2266;4.52743
352000;353;25.8883;0.123898;0.00480889;-2.24093;25.7908;-0.113109;-0.0844841;0.123197;-0.682466;-0.391761;-0.299171;-0.434024;0.656777;-7.29225;-0.00143989;0.000385403;0.00283775;0.00287219;-0.00147434;0.00217327;0.507407;1.9708;0.00255236;0.00289769;1.94812;0.513315;121.533;166.533;-0.00702389;-0.00144172;0.00272789;-0.0019471;0.00283411;0.00775674;0.0182351;0;0.0269217;-0.480878;-0.417633;-1.1328;1.29957;-7.41481;-0.0011586;-0.000213485;0.00554548;0.00555227;-0.00116539;0.00335883;0.208927;4.78636;0.00414495;0.00447844;4.7643;0.209894;117.064;162.064;-0.000465592;-0.00116271;0.00246498;-0.00287409;0.00554248;0.00411637;0.0284115;0;0.0233519;7.25522;4.53482
353000;354;25.8914;0.12701;0.00492969;-2.24182;25.7939;-0.11197;-0.0853747;0.126248;-0.681328;-0.392245;-0.29975;-0.43913;0.660713;-7.29735;-0.0014366;0.000396643;0.00387721;0.00390665;-0.00146605;0.00268635;0.370524;2.69888;0.00320684;0.0035818;2.66476;0.375269;116.761;161.761;-0.0068113;-0.00143833;0.00270682;-0.00190131;0.00387364;0.00719999;0.0177497;0;0.0301612;-0.481892;-0.420989;-1.13773;1.30533;-7.41975;-0.00114929;-0.000252308;0.00570562;0.00571489;-0.00115857;0.00343673;0.201432;4.96446;0.0042491;0.00458231;4.93273;0.202728;117;162;-0.000814874;-0.00115361;0.00246225;-0.00294837;0.00570264;0.00403089;0.026227;0;0.029037;7.27759;4.54091
354000;355;25.8943;0.12994;0.0050434;-2.24179;25.7968;-0.113011;-0.0853365;0.129188;-0.682368;-0.393554;-0.302547;-0.436261;0.660865;-7.29448;-0.00137829;0.000557084;0.00348146;0.00354451;-0.00144133;0.00249292;0.395893;2.52594;0.00296271;0.00332389;2.45919;0.406637;115.792;160.792;-0.00688803;-0.00137949;0.00277418;-0.00164927;0.00347778;0.00715229;0.0167248;0;0.0356361;-0.483322;-0.42488;-1.13728;1.30673;-7.4193;-0.00124235;-0.000340316;0.00586214;0.0058784;-0.00125861;0.00356851;0.211927;4.7186;0.0043989;0.00475801;4.67054;0.214108;118.196;163.196;-0.00146275;-0.00124737;0.0025257;-0.00318608;0.00585902;0.00516588;0.0277323;0;0.0352148;7.30291;4.54865
355000;356;25.8984;0.134051;0.00520295;-2.24327;25.8008;-0.113856;-0.0868198;0.133182;-0.683213;-0.393658;-0.303939;-0.44029;0.664229;-7.29851;-0.00142823;0.000497639;0.00432804;0.00437075;-0.00147093;0.00292084;0.329994;3.03036;0.00350848;0.00389446;2.97141;0.336541;113.935;158.935;-0.00671553;-0.00142972;0.00280348;-0.00179499;0.00432426;0.00770015;0.0158617;0;0.015846;-0.484112;-0.430477;-1.14064;1.31176;-7.42265;-0.0012462;-0.000343306;0.00587322;0.00588973;-0.00126272;0.00357623;0.212184;4.71288;0.0044081;0.0047683;4.66432;0.214394;119.144;164.144;-0.00119764;-0.0012519;0.0027264;-0.00339128;0.00586958;0.00513162;0.0282522;0;0.034654;7.32954;4.55605
356000;357;25.9009;0.136561;0.0053004;-2.24398;25.8033;-0.116072;-0.0875328;0.13563;-0.685429;-0.394232;-0.304117;-0.443092;0.66651;-7.30132;-0.00151802;0.000511144;0.00474661;0.00478805;-0.00155945;0.00317375;0.319811;3.12685;0.00381948;0.00423166;3.07034;0.325697;112.63;157.63;-0.00727389;-0.00151943;0.00279104;-0.00175454;0.00474287;0.00775256;0.0162517;0;0.0247207;-0.48537;-0.433256;-1.14368;1.31579;-7.4257;-0.0012181;-0.000241664;0.00591535;0.00592353;-0.00122628;0.0035749;0.205922;4.85621;0.00441491;0.00476654;4.8305;0.207018;118.13;163.13;-0.00132437;-0.0012235;0.00283053;-0.00329207;0.0059114;0.00527465;0.0308109;0;0.0463914;7.34549;4.56367
357000;358;25.9036;0.139211;0.00540323;-2.24389;25.8059;-0.118379;-0.0874357;0.138287;-0.687737;-0.396183;-0.306506;-0.444412;0.669633;-7.30264;-0.00143339;0.000459757;0.00480806;0.00484175;-0.00146708;0.00315441;0.298122;3.35433;0.00381215;0.00420588;3.30027;0.303006;111.343;156.343;-0.00672892;-0.00143461;0.0025612;-0.00162864;0.0048049;0.00719823;0.0177617;0;0.0244441;-0.487403;-0.438716;-1.14457;1.31912;-7.42658;-0.00125574;-0.000335732;0.00601797;0.00603343;-0.0012712;0.00365232;0.208665;4.79238;0.00450619;0.00486976;4.74625;0.210693;118.615;163.615;-0.00121274;-0.0012614;0.00273133;-0.00338061;0.00601432;0.00539014;0.0307035;0;0.0428124;7.37524;4.57066
358000;359;25.9058;0.1414;0.0054882;-2.2451;25.808;-0.121093;-0.088649;0.140367;-0.69045;-0.396687;-0.306206;-0.44425;0.669688;-7.30247;-0.00148609;0.00057969;0.00522732;0.00527701;-0.00153577;0.00340639;0.284292;3.51751;0.00412632;0.00454185;3.43606;0.291031;109.505;154.505;-0.00684977;-0.00148713;0.00273094;-0.0015572;0.00522378;0.00689052;0.0157047;0;0.0176776;-0.488845;-0.441836;-1.143;1.31933;-7.42501;-0.00146963;-0.000184406;0.00627565;0.00628004;-0.00147402;0.00387703;0.23418;4.27022;0.00475481;0.00516937;4.26048;0.234715;117.695;162.695;-0.00171746;-0.00147519;0.00299226;-0.00333662;0.00627122;0.00609945;0.0339005;0;0.0256178;7.39077;4.57868
359000;360;25.9089;0.144577;0.00561152;-2.24537;25.8112;-0.121419;-0.0889179;0.143531;-0.690777;-0.396624;-0.306175;-0.450494;0.673794;-7.30872;-0.00166674;0.000334783;0.00567001;0.00568526;-0.00168198;0.00368362;0.293957;3.40186;0.00445789;0.00491149;3.38009;0.29585;110.64;155.64;-0.00645718;-0.00166826;0.00245805;-0.001773;0.00566706;0.00603661;0.0157831;0;0.0184673;-0.48914;-0.445569;-1.15127;1.32786;-7.43328;-0.00143737;-0.000221848;0.00623951;0.00624592;-0.00144377;0.00384484;0.230365;4.34093;0.0047194;0.00512646;4.32611;0.231155;116.824;161.824;-0.00166585;-0.00144221;0.0026975;-0.00311892;0.00623592;0.00538545;0.0336073;0;0.0269685;7.41632;4.58579
360000;361;25.9135;0.149171;0.00578983;-2.2462;25.8157;-0.119811;-0.0897484;0.148078;-0.689169;-0.396309;-0.30858;-0.451244;0.675206;-7.30947;-0.00147749;0.000838509;0.00598391;0.00607698;-0.00157056;0.00382377;0.24691;4.05005;0.00466384;0.00509836;3.86931;0.258444;105.231;150.231;-0.00682882;-0.00147795;0.00296392;-0.00127114;0.00597989;0.00723232;0.0154575;0;0.0235607;-0.489611;-0.451482;-1.15243;1.33103;-7.43444;-0.00154209;-5.66636e-05;0.00615976;0.00616017;-0.00154251;0.00385134;0.25035;3.99441;0.00470599;0.00513512;3.9936;0.250401;115.321;160.321;-0.00137166;-0.00154599;0.00269674;-0.00278899;0.00615614;0.00578718;0.0321841;0;0.0288225;7.43066;4.59281
361000;362;25.9149;0.150514;0.00584192;-2.24695;25.817;-0.124948;-0.0904984;0.149335;-0.694305;-0.397175;-0.311388;-0.447555;0.674549;-7.30578;-0.00145432;0.000662815;0.00557024;0.00563224;-0.00151631;0.00357428;0.261087;3.83013;0.00434928;0.0047657;3.71443;0.269221;106.887;151.887;-0.00717138;-0.00145502;0.00269564;-0.00135581;0.00556685;0.0083626;0.0158787;0;0.0181403;-0.491061;-0.457421;-1.14941;1.33098;-7.43143;-0.00161868;-0.000103333;0.00609336;0.00609474;-0.00162007;0.00385741;0.265647;3.76439;0.00469725;0.00514321;3.76203;0.265814;115.287;160.287;-0.000737095;-0.00162228;0.00249347;-0.00268023;0.00609027;0.00450891;0.031443;0;0.0228172;7.45429;4.59752
362000;363;25.918;0.153644;0.00596341;-2.24604;25.8202;-0.124608;-0.0895878;0.152558;-0.693966;-0.399408;-0.313836;-0.448446;0.677587;-7.30667;-0.00147236;0.000397868;0.00651769;0.00653746;-0.00149212;0.00401479;0.225902;4.4267;0.00493151;0.00535305;4.38132;0.228242;106.696;151.696;-0.00672167;-0.00147364;0.00246153;-0.00164942;0.00651476;0.00698983;0.0144127;0;0.0382016;-0.49284;-0.461006;-1.1557;1.33831;-7.43772;-0.00166251;-5.41004e-05;0.00611992;0.0061203;-0.00166288;0.00389159;0.271655;3.68114;0.00473289;0.00518879;3.68054;0.2717;115.366;160.366;-0.000872575;-0.00166617;0.00261628;-0.00270382;0.00611652;0.00492784;0.0306649;0;0.0227166;7.47321;4.60254
363000;364;25.9255;0.161111;0.00625326;-2.24792;25.8276;-0.117707;-0.0914699;0.159923;-0.687064;-0.399433;-0.311684;-0.449686;0.67743;-7.30791;-0.00157867;0.000688871;0.00652075;0.00657893;-0.00163684;0.00410789;0.2421;4.13053;0.0050213;0.00547718;4.01927;0.248801;104.515;149.515;-0.00612102;-0.00157927;0.00268185;-0.00128807;0.00651742;0.00526604;0.0145988;0;0.0186795;-0.49496;-0.466772;-1.14638;1.33306;-7.42839;-0.00176905;-0.000156979;0.00619129;0.00619438;-0.00177215;0.00398326;0.285732;3.49978;0.00482992;0.00531102;3.49541;0.286089;117.402;162.402;-0.000871903;-0.00177368;0.00275272;-0.00304365;0.00618754;0.00575346;0.0299754;0;0.0241983;7.48306;4.60738
364000;365;25.9281;0.163686;0.0063532;-2.24711;25.8302;-0.12155;-0.090658;0.16256;-0.690908;-0.399601;-0.309017;-0.456675;0.680973;-7.3149;-0.00161074;0.000281999;0.00715267;0.00716173;-0.0016198;0.00439077;0.225194;4.44062;0.00539608;0.00585436;4.42136;0.226175;105.567;150.567;-0.00688706;-0.00161205;0.0022242;-0.0016433;0.00715025;0.00773504;0.0141042;0;0.0174894;-0.494913;-0.465488;-1.16137;1.34551;-7.44338;-0.00182246;-5.55974e-05;0.00629375;0.00629413;-0.00182284;0.00405849;0.289566;3.45344;0.00491764;0.00541132;3.45293;0.289609;116.912;161.912;-0.00174787;-0.00182705;0.00294;-0.00302704;0.00628946;0.00638771;0.0287596;0;0.0303501;7.50492;4.61435
365000;366;25.934;0.169596;0.00658259;-2.24822;25.8361;-0.116391;-0.0917659;0.16842;-0.685748;-0.400223;-0.312638;-0.453062;0.680578;-7.31129;-0.00157246;0.000522907;0.00730579;0.00733648;-0.00160315;0.00446982;0.215235;4.64609;0.00550376;0.00595976;4.57629;0.218518;103.604;148.604;-0.00648651;-0.00157331;0.00246645;-0.00140351;0.00730291;0.00718703;0.0131719;0;0.0218871;-0.496724;-0.475635;-1.15276;1.34231;-7.43477;-0.00172085;-0.000366152;0.00671351;0.00672938;-0.00173672;0.00423305;0.256327;3.90127;0.00516345;0.00564406;3.87477;0.25808;117.699;162.699;-0.00199276;-0.00172653;0.0026811;-0.00338787;0.00671001;0.00793492;0.0290301;0;0.0240912;7.52008;4.62192
366000;367;25.9394;0.175072;0.00679513;-2.24906;25.8415;-0.120517;-0.0926076;0.173825;-0.689874;-0.400054;-0.312686;-0.452479;0.680113;-7.3107;-0.00144183;0.000728414;0.00750272;0.00756165;-0.00150077;0.00453121;0.192175;5.20359;0.00560869;0.00604161;5.03853;0.198471;102.071;147.071;-0.00647305;-0.00144237;0.0027424;-0.00126769;0.00749925;0.00654759;0.0128212;0;0.0181521;-0.497607;-0.480559;-1.15677;1.34784;-7.43878;-0.00184161;-0.000282078;0.00699443;0.00700343;-0.0018506;0.00442702;0.263296;3.79801;0.00539273;0.00590269;3.7844;0.264242;118.02;163.02;-0.00267674;-0.00184816;0.0030926;-0.00362714;0.00698973;0.00916887;0.0307388;0;0.0319989;7.53056;4.62897
367000;368;25.9452;0.180844;0.00701917;-2.25042;25.8472;-0.118536;-0.0939673;0.17951;-0.687894;-0.401096;-0.313396;-0.455359;0.682969;-7.31358;-0.00160107;0.000617141;0.00745988;0.00750172;-0.00164291;0.00457231;0.214624;4.65931;0.00562927;0.00609642;4.56611;0.219005;103.562;148.562;-0.00672467;-0.00160189;0.00267601;-0.00142321;0.00745651;0.00622981;0.0127681;0;0.0205166;-0.499242;-0.486202;-1.15977;1.35304;-7.44179;-0.00193652;-0.000285724;0.00705903;0.00706809;-0.00194558;0.00450684;0.274332;3.64522;0.00547702;0.00600912;3.63289;0.275263;118.974;163.974;-0.00253927;-0.00194392;0.00331448;-0.00385376;0.00705361;0.0089975;0.0326546;0;0.0311821;7.54878;4.63676
368000;369;25.9488;0.184426;0.00715818;-2.25052;25.8507;-0.119579;-0.0940664;0.183091;-0.688937;-0.402344;-0.316463;-0.447949;0.680212;-7.30617;-0.00159691;0.000657377;0.00821201;0.00825587;-0.00164077;0.00494832;0.19446;5.14245;0.00612454;0.00659776;5.03171;0.198739;101.372;146.372;-0.00698073;-0.00159751;0.00261328;-0.0012795;0.00820884;0.00732718;0.0139622;0;0.0203429;-0.50099;-0.49323;-1.15386;1.35117;-7.43587;-0.0021583;-0.000247579;0.00735848;0.00736491;-0.00216474;0.00476483;0.293308;3.40938;0.00576854;0.0063531;3.40222;0.293926;119.257;164.257;-0.00250579;-0.00216644;0.00357922;-0.00403822;0.00735215;0.00945561;0.0353211;0;0.0336444;7.55756;4.64434
369000;370;25.9523;0.187929;0.00729416;-2.25214;25.8541;-0.12983;-0.0956955;0.186417;-0.699188;-0.402297;-0.313887;-0.459065;0.686373;-7.31729;-0.001561;0.000818547;0.00900171;0.00906477;-0.00162405;0.00534441;0.173411;5.76665;0.00665096;0.00712588;5.58158;0.179161;99.0786;144.079;-0.0062552;-0.00156124;0.00272945;-0.00107236;0.00899835;0.00605041;0.0122029;0;0.0203619;-0.5027;-0.496325;-1.166;1.36331;-7.44801;-0.00212584;-0.000116625;0.00752398;0.00752539;-0.00212724;0.00482632;0.282541;3.5393;0.00585624;0.00643509;3.53762;0.282676;116.782;161.782;-0.00273682;-0.0021323;0.00339449;-0.00359411;0.00751827;0.00929959;0.0366231;0;0.0356728;7.57458;4.65164
370000;371;25.9613;0.196945;0.00764407;-2.25258;25.8631;-0.126313;-0.0961283;0.195446;-0.695671;-0.404047;-0.312425;-0.461636;0.688456;-7.31986;-0.00169893;0.000610127;0.00915527;0.00918946;-0.00173312;0.00546129;0.185569;5.38884;0.00677827;0.00728172;5.30226;0.188599;99.4342;144.434;-0.00620637;-0.00169941;0.00238791;-0.00114853;0.00915263;0.00576331;0.0121257;0;0.0336439;-0.504843;-0.503012;-1.16756;1.36787;-7.44957;-0.00242137;-2.30356e-05;0.00760752;0.00760757;-0.00242143;0.0050145;0.318287;3.14182;0.0060428;0.006686;3.14177;0.318292;117.095;162.095;-0.00312213;-0.00242781;0.00357224;-0.00358252;0.00760118;0.0100885;0.038642;0;0.0365389;7.58362;4.65846
371000;372;25.9672;0.202827;0.0078724;-2.25355;25.8689;-0.126557;-0.0971042;0.201265;-0.695914;-0.403041;-0.312975;-0.457757;0.685519;-7.31598;-0.00176946;0.000506183;0.0090846;0.00910816;-0.00179302;0.00545059;0.194776;5.1341;0.00674964;0.00726745;5.07979;0.196858;101.612;146.612;-0.00664537;-0.00177043;0.00251559;-0.00148161;0.0090816;0.00589102;0.0125477;0;0.0187453;-0.505003;-0.510361;-1.16275;1.36656;-7.44477;-0.00249252;-0.000101723;0.00747089;0.00747193;-0.00249356;0.00498274;0.333631;2.99733;0.00598811;0.00664366;2.99649;0.333723;116.844;161.844;-0.00209034;-0.00249813;0.00317568;-0.00334671;0.00746589;0.00941173;0.036197;0;0.0226223;7.59501;4.66575
372000;373;25.9736;0.209279;0.00812281;-2.25439;25.8753;-0.12135;-0.0979442;0.207693;-0.690708;-0.404405;-0.31182;-0.460087;0.687354;-7.31831;-0.0017533;0.000733629;0.00988705;0.00993311;-0.00179935;0.00586623;0.177333;5.63912;0.00729619;0.00782164;5.52038;0.181147;98.5392;143.539;-0.00638796;-0.00175363;0.00258559;-0.00109699;0.00988401;0.00513734;0.0114526;0;0.0240537;-0.507725;-0.51486;-1.16305;1.36951;-7.44507;-0.00248322;-9.31508e-05;0.00756725;0.00756811;-0.00248408;0.0050261;0.328153;3.04736;0.006046;0.00670146;3.04665;0.32823;116.643;161.643;-0.00269368;-0.00248891;0.0032188;-0.00337207;0.00756211;0.010756;0.0361664;0;0.0222898;7.60099;4.66858
373000;374;25.9796;0.215231;0.00835384;-2.25494;25.8812;-0.126997;-0.0984921;0.213593;-0.696355;-0.40365;-0.309017;-0.46153;0.686611;-7.31975;-0.00182509;0.000493278;0.00914315;0.00916529;-0.00184723;0.00550626;0.199613;5.00969;0.00680997;0.00734168;4.96163;0.201547;101.748;146.748;-0.00666928;-0.0018261;0.00251049;-0.00150201;0.00914015;0.0058072;0.0130602;0;0.0205395;-0.507866;-0.517814;-1.17018;1.37673;-7.45219;-0.00245954;3.13554e-05;0.00770501;0.0077051;-0.00245963;0.00508237;0.319213;3.13271;0.00612355;0.00677649;3.13262;0.319221;116.107;161.107;-0.00250968;-0.00246531;0.00349177;-0.00339416;0.00769896;0.00970259;0.0367024;0;0.0229941;7.60995;4.67468
374000;375;25.9872;0.222794;0.00864738;-2.25565;25.8888;-0.125489;-0.0992022;0.22113;-0.694847;-0.405143;-0.310575;-0.461373;0.688086;-7.3196;-0.00192339;0.000612941;0.0101987;0.0102296;-0.0019543;0.00609194;0.188592;5.30245;0.00755587;0.00812259;5.23439;0.191044;99.4122;144.412;-0.00657424;-0.00192402;0.00252736;-0.0012785;0.0101957;0.00607981;0.0131249;0;0.0217577;-0.510528;-0.526064;-1.16763;1.37868;-7.44965;-0.00260355;-6.01718e-05;0.00793534;0.00793568;-0.00260389;0.00526979;0.328095;3.04789;0.00633926;0.00702639;3.04762;0.328125;117.677;162.677;-0.00320752;-0.00261088;0.00374492;-0.00382548;0.00792839;0.0115855;0.0340349;0;0.0219009;7.62501;4.68205
375000;376;25.9949;0.230571;0.00894921;-2.25803;25.8964;-0.12144;-0.10158;0.228748;-0.690798;-0.404145;-0.309225;-0.461849;0.68721;-7.32007;-0.00192067;0.000665293;0.0105144;0.0105499;-0.00195617;0.00625302;0.182671;5.47432;0.00776785;0.00833737;5.39314;0.185421;98.6294;143.629;-0.00688518;-0.00192116;0.00254199;-0.00118831;0.0105114;0.0069707;0.0125587;0;0.0190593;-0.510456;-0.532693;-1.16957;1.38283;-7.45158;-0.002529;-3.81826e-05;0.00819273;0.00819286;-0.00252913;0.005361;0.308688;3.23952;0.00647183;0.007148;3.2394;0.3087;117.267;162.267;-0.00369516;-0.00253684;0.0039204;-0.00395467;0.0081851;0.0123415;0.033862;0;0.0279903;7.62873;4.688
376000;377;26.0009;0.236543;0.00918103;-2.25975;25.9022;-0.127166;-0.103305;0.234566;-0.696524;-0.403804;-0.307691;-0.461191;0.685877;-7.31941;-0.00214032;0.000525311;0.0106628;0.0106843;-0.00216184;0.00642308;0.200728;4.98188;0.00794219;0.00856411;4.94224;0.202337;100.065;145.065;-0.0071422;-0.00214122;0.00251816;-0.00144229;0.0106598;0.00646384;0.0127118;0;0.0212726;-0.511315;-0.538009;-1.17149;1.38682;-7.4535;-0.00244966;8.73322e-05;0.00812387;0.00812459;-0.00245038;0.00528749;0.301539;3.31632;0.00639172;0.00704998;3.31564;0.301601;116.874;161.874;-0.00396293;-0.00245736;0.00413756;-0.00392042;0.00811538;0.0127623;0.0359577;0;0.0367336;7.63249;4.69566
377000;378;26.0073;0.242903;0.00942786;-2.25898;25.9087;-0.129951;-0.102529;0.241003;-0.699309;-0.404116;-0.30612;-0.466043;0.688633;-7.32427;-0.00220474;0.000289246;0.0108463;0.0108527;-0.00221115;0.00653194;0.203271;4.91954;0.00807377;0.00870925;4.90818;0.203741;101.279;146.279;-0.00668854;-0.0022062;0.0023358;-0.00173089;0.0108437;0.00522551;0.0132635;0;0.0236184;-0.511955;-0.544629;-1.17772;1.3949;-7.45973;-0.00262798;7.06106e-05;0.00813616;0.00813662;-0.00262844;0.00538253;0.323;3.09597;0.00648074;0.00717671;3.0956;0.323039;117.475;162.475;-0.00363789;-0.00263587;0.00415324;-0.00396842;0.00812761;0.0120116;0.040156;0;0.0404183;7.63905;4.70284
378000;379;26.0149;0.250545;0.00972449;-2.26034;25.9162;-0.13182;-0.103895;0.248546;-0.701178;-0.405183;-0.304702;-0.4662;0.688737;-7.32442;-0.00219627;0.000454523;0.0108465;0.0108623;-0.00221209;0.00653719;0.202487;4.93859;0.00808046;0.00871625;4.91042;0.203649;99.3314;144.331;-0.0067709;-0.00219707;0.00227956;-0.00134697;0.010844;0.00528306;0.0115288;0;0.0232156;-0.514462;-0.551592;-1.17677;1.39775;-7.45878;-0.00264845;0.000134652;0.0082831;0.00828476;-0.00265011;0.00546743;0.319741;3.12753;0.00658672;0.00728991;3.1262;0.319878;116.426;161.426;-0.00343031;-0.00265561;0.00409343;-0.00378121;0.0082748;0.010723;0.0413535;0;0.0305216;7.64741;4.71056
379000;380;26.0217;0.257373;0.00998948;-2.26144;25.9229;-0.134609;-0.104987;0.25529;-0.703967;-0.405993;-0.304296;-0.465169;0.688338;-7.32339;-0.00217864;0.000426005;0.0109886;0.0110024;-0.00219241;0.00659741;0.198263;5.0438;0.00816446;0.00879654;5.0184;0.199267;99.4159;144.416;-0.00673688;-0.00217953;0.00227447;-0.00139839;0.0109862;0.0047231;0.011485;0;0.023514;-0.516415;-0.559209;-1.17706;1.40174;-7.45908;-0.0027714;0.000295337;0.00808564;0.00809367;-0.00277943;0.00543655;0.342756;2.91753;0.00652273;0.00724873;2.91199;0.343408;115.395;160.395;-0.00369613;-0.00277698;0.00397846;-0.00334813;0.00807783;0.0125909;0.0418187;0;0.0233454;7.65454;4.71708
380000;381;26.0295;0.265155;0.0102915;-2.2621;25.9307;-0.133894;-0.105653;0.263047;-0.703252;-0.406192;-0.303257;-0.46366;0.686977;-7.32188;-0.00235255;0.000278311;0.0110604;0.0110662;-0.00235832;0.00671226;0.2127;4.70146;0.00827634;0.00894968;4.6924;0.21311;100.27;145.27;-0.00636525;-0.00235373;0.00214001;-0.00155869;0.0110582;0.0038611;0.0115531;0;0.0213135;-0.517761;-0.566153;-1.17382;1.40231;-7.45584;-0.00281808;0.000298433;0.00797612;0.00798437;-0.00282633;0.00540535;0.353315;2.83034;0.00647404;0.00720713;2.825;0.353982;114.857;159.857;-0.00311715;-0.00282288;0.00374075;-0.00310702;0.00796922;0.0104549;0.0397005;0;0.0226571;7.65881;4.72427
381000;382;26.0392;0.274812;0.0106664;-2.26274;25.9403;-0.133248;-0.106293;0.272689;-0.702606;-0.40611;-0.300594;-0.468671;0.689155;-7.32689;-0.00236475;0.000171604;0.0109345;0.0109367;-0.00236696;0.00665181;0.216266;4.62393;0.00819485;0.00886909;4.62055;0.216425;100.849;145.849;-0.00651955;-0.00236612;0.00202685;-0.00165924;0.0109324;0.0049694;0.01217;0;0.0209261;-0.518855;-0.571469;-1.18102;1.41089;-7.46304;-0.00282901;0.000174882;0.0079124;0.00791525;-0.00283185;0.00537355;0.357541;2.79688;0.00643205;0.00716473;2.79508;0.357772;116;161;-0.00316124;-0.00283447;0.00369191;-0.00330467;0.00790565;0.00961001;0.0395381;0;0.0212613;7.66527;4.73099
382000;383;26.0472;0.282862;0.0109788;-2.2652;25.9482;-0.136618;-0.108753;0.280537;-0.705976;-0.405977;-0.298194;-0.471113;0.689699;-7.32934;-0.0023954;9.15225e-05;0.0112863;0.0112869;-0.00239601;0.00684145;0.21224;4.71166;0.00843744;0.00912194;4.71071;0.212282;101.607;146.607;-0.00684466;-0.00239717;0.00209218;-0.00188207;0.0112841;0.00509997;0.0118656;0;0.0273574;-0.51956;-0.577056;-1.18615;1.41771;-7.46817;-0.00282129;8.02254e-05;0.00802343;0.00802403;-0.00282189;0.00542296;0.351632;2.84389;0.00649755;0.00723061;2.8435;0.351679;116.482;161.482;-0.00337239;-0.00282734;0.00367301;-0.0034739;0.00801674;0.00982082;0.0381351;0;0.020861;7.6727;4.73831
383000;384;26.0569;0.292525;0.0113539;-2.26674;25.9578;-0.131336;-0.110287;0.290131;-0.700694;-0.406537;-0.297672;-0.469026;0.68838;-7.32725;-0.00247273;3.62529e-05;0.0112305;0.0112306;-0.00247282;0.00685173;0.220179;4.54176;0.00843309;0.00913564;4.54163;0.220185;101.361;146.361;-0.00653342;-0.00247439;0.00191882;-0.00182081;0.0112287;0.00481993;0.0116759;0;0.0225396;-0.521579;-0.584755;-1.18301;1.41898;-7.46502;-0.00272807;3.86852e-05;0.00852081;0.00852094;-0.00272821;0.00562457;0.320166;3.12338;0.00677565;0.00749943;3.12328;0.320177;116.003;161.003;-0.0041351;-0.00273501;0.00384115;-0.00372137;0.00851349;0.0107596;0.0382779;0;0.0251976;7.67228;4.74277
384000;385;26.0663;0.301973;0.0117206;-2.26845;25.9671;-0.134296;-0.112005;0.29945;-0.703654;-0.40761;-0.295913;-0.470123;0.689004;-7.32835;-0.00244341;0.000154892;0.0118684;0.0118701;-0.00244508;0.00715758;0.205875;4.85732;0.00884183;0.00954344;4.85467;0.205987;100.546;145.546;-0.00652849;-0.00244498;0.00211446;-0.00177696;0.0118662;0.00463308;0.0113391;0;0.0212806;-0.523754;-0.592904;-1.18452;1.42441;-7.46654;-0.00255872;0.000137807;0.00881228;0.00881395;-0.00256039;0.00568717;0.290359;3.44402;0.00688988;0.0075829;3.44242;0.290493;115.132;160.132;-0.00478252;-0.00256601;0.004135;-0.00381433;0.00880382;0.0114207;0.0386373;0;0.031206;7.69325;4.75297
385000;386;26.0776;0.31328;0.0121594;-2.26947;25.9783;-0.1393;-0.113021;0.310684;-0.708658;-0.408151;-0.294461;-0.471106;0.689373;-7.32933;-0.00249342;4.40901e-05;0.011812;0.0118121;-0.00249356;0.00715283;0.211093;4.73725;0.00882416;0.00953711;4.73705;0.211102;100.707;145.707;-0.00679698;-0.00249507;0.00192718;-0.00181238;0.0118101;0.00435858;0.0114407;0;0.0243421;-0.525305;-0.601588;-1.18611;1.42993;-7.46812;-0.00275769;0.000319257;0.00892462;0.00893334;-0.00276641;0.00584987;0.308998;3.23627;0.00706072;0.00779983;3.22922;0.309672;115.652;160.652;-0.00534471;-0.00276563;0.00468306;-0.00399402;0.00891381;0.0112666;0.040053;0;0.0461776;7.68659;4.7574
386000;387;26.0836;0.319218;0.0123899;-2.26917;25.9843;-0.14338;-0.112724;0.316649;-0.712738;-0.407333;-0.29109;-0.476551;0.691198;-7.33477;-0.00254107;-8.38073e-05;0.0124604;0.0124609;-0.00254153;0.00750121;0.203931;4.90362;0.0092713;0.0100016;4.9029;0.203961;100.579;145.579;-0.00667738;-0.00254294;0.00179616;-0.00193592;0.0124588;0.0049286;0.0115513;0;0.0225232;-0.525019;-0.605408;-1.19363;1.43767;-7.47564;-0.00280907;0.00015059;0.00956176;0.00956359;-0.0028109;0.00618725;0.293782;3.40389;0.00749061;0.00824966;3.40232;0.293917;114.824;159.824;-0.00493542;-0.00281718;0.00437711;-0.00402414;0.00955228;0.0111697;0.0423546;0;0.0298805;7.66801;4.7602
387000;388;26.0922;0.327849;0.0127249;-2.27145;25.9927;-0.148456;-0.115003;0.325085;-0.717814;-0.407102;-0.287634;-0.482638;0.693833;-7.34086;-0.00264185;-7.69844e-05;0.0126967;0.0126971;-0.00264224;0.00766966;0.208074;4.80598;0.00946916;0.0102262;4.80543;0.208098;99.7386;144.739;-0.00644731;-0.00264346;0.00166686;-0.00179441;0.0126953;0.00525342;0.012124;0;0.0470544;-0.526283;-0.611031;-1.20569;1.45053;-7.48771;-0.00285739;0.000266018;0.00966169;0.00966734;-0.00286304;0.00626519;0.295744;3.38131;0.00758163;0.00835359;3.37661;0.296155;114.057;159.057;-0.00432736;-0.00286485;0.00445063;-0.00386671;0.00965192;0.0104193;0.0415911;0;0.0283942;7.7021;4.76814
388000;389;26.1005;0.336135;0.0130465;-2.27171;26.001;-0.145786;-0.115264;0.333395;-0.715144;-0.40848;-0.286996;-0.476954;0.69044;-7.33518;-0.00278686;-0.000164246;0.0126212;0.0126229;-0.00278861;0.00770577;0.220808;4.52881;0.0094825;0.0102744;4.5266;0.220916;100.545;145.545;-0.00671062;-0.00278873;0.00163567;-0.00193677;0.0126199;0.0053136;0.0110805;0;0.0362773;-0.52854;-0.619018;-1.1968;1.44737;-7.47882;-0.0027788;0.000268854;0.00969378;0.00969957;-0.0027846;0.00624209;0.286659;3.48847;0.00756733;0.00832278;3.48329;0.287085;113.067;158.067;-0.00431652;-0.00278545;0.00423784;-0.00365111;0.00968492;0.0102389;0.0420379;0;0.0235822;7.70059;4.77473
389000;390;26.1087;0.34434;0.013365;-2.27334;26.0091;-0.145274;-0.11689;0.341493;-0.714631;-0.408384;-0.284961;-0.478674;0.69073;-7.3369;-0.00288015;-7.6037e-05;0.0129084;0.0129087;-0.00288052;0.00789463;0.223123;4.48184;0.00970949;0.0105262;4.4814;0.223145;99.9257;144.926;-0.00622817;-0.00288182;0.00170305;-0.0018274;0.0129069;0.00422976;0.0130113;0;0.0177114;-0.529676;-0.625178;-1.19781;1.45126;-7.47982;-0.00281719;0.000216122;0.00948013;0.00948392;-0.00282099;0.00615245;0.297168;3.3651;0.00744332;0.00820327;3.36192;0.297449;112.813;157.813;-0.00321256;-0.00282308;0.00391163;-0.00343437;0.00947257;0.00812474;0.0399094;0;0.0293716;7.69536;4.78202
390000;391;26.1175;0.353176;0.0137079;-2.27411;26.018;-0.140193;-0.117662;0.350323;-0.709551;-0.408687;-0.283406;-0.477135;0.689204;-7.33536;-0.00290856;-0.00021993;0.0134568;0.0134598;-0.00291151;0.00818564;0.21614;4.62663;0.0100848;0.0109142;4.62295;0.216312;99.7357;144.736;-0.00615811;-0.00291038;0.00151026;-0.00192218;0.0134557;0.00485714;0.0119727;0;0.01851;-0.530827;-0.630676;-1.19804;1.45425;-7.48006;-0.00264503;0.000220754;0.00962809;0.00963206;-0.002649;0.00614053;0.27472;3.64007;0.00746277;0.00818737;3.63612;0.275019;112.604;157.604;-0.00366259;-0.00265134;0.00404453;-0.00355654;0.00962001;0.00827769;0.0409318;0;0.027728;7.69851;4.78922
391000;392;26.1259;0.361576;0.014034;-2.27564;26.0263;-0.144031;-0.119188;0.358601;-0.713388;-0.40943;-0.281317;-0.479545;0.69046;-7.33777;-0.00288447;-0.000122823;0.0135244;0.0135253;-0.00288539;0.00820534;0.213279;4.68869;0.0101168;0.0109404;4.68751;0.213333;98.9855;143.985;-0.00571245;-0.00288601;0.00153772;-0.00175649;0.0135232;0.00369761;0.0121327;0;0.0252892;-0.532775;-0.636821;-1.20204;1.46092;-7.48405;-0.00258459;7.6424e-05;0.0103079;0.0103083;-0.00258504;0.00644668;0.25074;3.9882;0.00787659;0.00859558;3.98768;0.250773;112.328;157.328;-0.00445046;-0.00259194;0.00403154;-0.00382822;0.0102998;0.0095426;0.0389058;0;0.0254846;7.71242;4.7968
392000;393;26.1344;0.37006;0.0143632;-2.27744;26.0346;-0.1431;-0.120987;0.366965;-0.712458;-0.409754;-0.279716;-0.479707;0.690115;-7.33793;-0.00303901;-3.46531e-05;0.0135809;0.013581;-0.00303908;0.00831004;0.22377;4.46887;0.0102188;0.01108;4.46879;0.223774;98.4639;143.464;-0.00564101;-0.00304031;0.00156744;-0.00161047;0.0135797;0.0036336;0.0118769;0;0.0238523;-0.534125;-0.643721;-1.20327;1.46544;-7.48528;-0.00257876;5.10256e-05;0.0108857;0.0108859;-0.00257896;0.00673244;0.236894;4.2213;0.00825238;0.00897659;4.22106;0.236907;111.88;156.88;-0.00496434;-0.00258672;0.00414145;-0.00398492;0.0108773;0.0090325;0.0388994;0;0.0315921;7.71536;4.80406
393000;394;26.1429;0.378486;0.0146903;-2.27759;26.043;-0.146487;-0.121142;0.375391;-0.715845;-0.410065;-0.277074;-0.480494;0.689781;-7.33872;-0.00286363;5.86088e-05;0.0143912;0.0143914;-0.00286383;0.00862762;0.198984;5.02552;0.0106777;0.0115035;5.02524;0.198996;97.5828;142.583;-0.00583564;-0.00286482;0.00168644;-0.00154153;0.0143898;0.00480446;0.0122609;0;0.027263;-0.535297;-0.649912;-1.20537;1.47033;-7.48739;-0.00273669;-9.52759e-06;0.0115632;0.0115632;-0.0027367;0.00714995;0.236672;4.22525;0.00876463;0.00953327;4.22524;0.236673;112.018;157.018;-0.00474062;-0.0027458;0.00430446;-0.00426253;0.011554;0.00843771;0.0419421;0;0.0338154;7.71627;4.8103
394000;395;26.1529;0.388572;0.0150818;-2.27868;26.0531;-0.148361;-0.122232;0.385409;-0.717718;-0.410264;-0.275945;-0.481693;0.690283;-7.33992;-0.00305732;6.46774e-05;0.0148243;0.0148245;-0.00305755;0.00894103;0.206237;4.84879;0.0110442;0.0119214;4.84849;0.20625;97.1366;142.137;-0.00610732;-0.0030584;0.00163001;-0.00147307;0.014823;0.00513176;0.011951;0;0.0231485;-0.536261;-0.65815;-1.20805;1.47652;-7.49006;-0.00280231;-8.21163e-05;0.011906;0.0119064;-0.00280277;0.00735459;0.23537;4.24862;0.00901823;0.00980612;4.24809;0.2354;112.313;157.313;-0.00440743;-0.00281234;0.00437329;-0.00447276;0.0118965;0.00935955;0.041755;0;0.0312353;7.72733;4.81735
395000;396;26.1608;0.396474;0.0153885;-2.28003;26.0609;-0.151506;-0.12358;0.393206;-0.720863;-0.409563;-0.275308;-0.47971;0.688228;-7.33793;-0.00308792;-0.000122494;0.0148395;0.0148404;-0.00308875;0.00896456;0.208087;4.80568;0.0110678;0.0119528;4.80465;0.208132;97.5657;142.566;-0.00573682;-0.00308923;0.00140312;-0.00162116;0.0148386;0.00507366;0.0118076;0;0.0308657;-0.536514;-0.666968;-1.20669;1.47946;-7.4887;-0.00293536;7.86472e-05;0.0118136;0.011814;-0.00293578;0.00737489;0.248473;4.02458;0.00901537;0.00983319;4.02414;0.2485;112.223;157.223;-0.00465283;-0.00294492;0.00458937;-0.00436632;0.0118032;0.00970541;0.0404152;0;0.0342338;7.73179;4.82398
396000;397;26.1681;0.403752;0.0156709;-2.28102;26.0681;-0.151098;-0.124573;0.400427;-0.720455;-0.4097;-0.275307;-0.475959;0.6857;-7.33418;-0.00310925;2.50368e-05;0.0153023;0.0153023;-0.00310929;0.00920581;0.203189;4.92154;0.0113805;0.0122744;4.92149;0.20319;96.9444;141.944;-0.00568462;-0.00311037;0.00157376;-0.0014956;0.0153011;0.00407909;0.0125288;0;0.0280628;-0.537836;-0.67481;-1.20346;1.48086;-7.48547;-0.00288754;0.000160464;0.0117015;0.0117033;-0.00288931;0.0072963;0.246766;4.05242;0.00892263;0.00972841;4.05056;0.24688;110.349;155.349;-0.00415053;-0.00289476;0.00417639;-0.00379755;0.0116929;0.00852531;0.0393826;0;0.0267601;7.73107;4.82769
397000;398;26.178;0.413646;0.016055;-2.28188;26.0779;-0.152027;-0.125427;0.410279;-0.721385;-0.41004;-0.272003;-0.479259;0.686882;-7.33748;-0.0033018;-0.000193777;0.0153473;0.0153493;-0.00330381;0.00932657;0.215138;4.64817;0.0114935;0.0124354;4.64595;0.215241;97.5148;142.515;-0.0063466;-0.00330318;0.00131296;-0.00167284;0.0153465;0.00611524;0.0114312;0;0.0266263;-0.539032;-0.68005;-1.20776;1.48718;-7.48978;-0.00283333;0.000142353;0.0116584;0.0116598;-0.00283473;0.00724728;0.243028;4.11475;0.00887042;0.00966304;4.11321;0.243119;110.144;155.144;-0.0039423;-0.00284035;0.00408658;-0.00374538;0.0116502;0.00772226;0.0401498;0;0.0248637;7.73896;4.83366
398000;399;26.1863;0.421916;0.0163759;-2.28252;26.0862;-0.151329;-0.126072;0.418528;-0.720686;-0.410781;-0.26966;-0.482169;0.688436;-7.34039;-0.00337841;2.2427e-05;0.0156593;0.0156594;-0.00337843;0.0095189;0.215744;4.63512;0.0117291;0.0126919;4.6351;0.215745;96.8203;141.82;-0.0060472;-0.0033795;0.00155175;-0.00147823;0.0156582;0.00580235;0.01216;0;0.0254076;-0.540739;-0.685833;-1.2123;1.49413;-7.49432;-0.00294086;5.12116e-05;0.0118866;0.0118868;-0.00294104;0.00741391;0.24741;4.04188;0.00906531;0.00988521;4.0417;0.247421;109.621;154.621;-0.00382311;-0.00294753;0.00380628;-0.00364883;0.0118794;0.00577675;0.0400701;0;0.0254675;7.74581;4.84077
399000;400;26.1954;0.431006;0.0167288;-2.28426;26.0952;-0.150766;-0.127815;0.427504;-0.720124;-0.411227;-0.267745;-0.484509;0.689597;-7.34273;-0.00342121;9.33401e-05;0.0161371;0.0161376;-0.00342165;0.0097796;0.212009;4.71679;0.0120618;0.0130395;4.7163;0.21203;96.2253;141.225;-0.00565204;-0.00342214;0.00158484;-0.00136945;0.0161359;0.00532906;0.00929474;0;0.0237651;-0.542116;-0.69195;-1.21673;1.50104;-7.49875;-0.0028027;-0.000155408;0.0126775;0.0126791;-0.00280426;0.00774168;0.221076;4.52333;0.00952608;0.0103222;4.52137;0.221172;109.081;154.081;-0.00444454;-0.00281021;0.00361916;-0.00387227;0.0126711;0.00594243;0.0387521;0;0.0277456;7.7425;4.84767
400000;401;26.2054;0.441015;0.0171173;-2.28517;26.1051;-0.147996;-0.128725;0.437488;-0.717354;-0.411649;-0.264286;-0.488564;0.691373;-7.34679;-0.00353369;0.000159612;0.0167072;0.0167085;-0.00353495;0.0101217;0.211507;4.72798;0.0124852;0.0134956;4.72665;0.211566;95.7502;140.75;-0.00592171;-0.0035345;0.00163271;-0.00128416;0.0167059;0.0059886;0.00951624;0;0.02522;-0.543643;-0.697463;-1.22087;1.50749;-7.50288;-0.00290382;-0.000104448;0.0133737;0.0133743;-0.00290449;0.00813941;0.21713;4.60554;0.0100256;0.0108526;4.6047;0.217169;108.287;153.287;-0.00427126;-0.00291136;0.00373218;-0.00387945;0.0133668;0.0049256;0.038827;0;0.0316336;7.74471;4.85548
401000;402;26.2128;0.448479;0.017407;-2.28587;26.1125;-0.155281;-0.129421;0.444877;-0.724639;-0.411529;-0.264648;-0.486023;0.689646;-7.34425;-0.00368864;0.000123498;0.0172618;0.0172626;-0.00368937;0.010476;0.213687;4.67973;0.012915;0.013968;4.67901;0.213721;95.9492;140.949;-0.00595527;-0.00368959;0.00166361;-0.0013849;0.0172605;0.00580735;0.0113992;0;0.0259251;-0.544281;-0.706427;-1.21981;1.51104;-7.50183;-0.00295046;-0.000128285;0.0141552;0.0141561;-0.00295142;0.00855378;0.208437;4.79762;0.0105596;0.011405;4.79638;0.20849;109.655;154.655;-0.00498443;-0.00296093;0.00439102;-0.00457136;0.0141457;0.00578162;0.0415307;0;0.0320666;7.75093;4.86241
402000;403;26.223;0.458582;0.0177991;-2.28782;26.1225;-0.15457;-0.131373;0.454853;-0.723927;-0.411673;-0.262267;-0.486837;0.689397;-7.34506;-0.00376315;7.62413e-05;0.0175198;0.01752;-0.00376342;0.0106417;0.214794;4.65562;0.0131157;0.014189;4.65535;0.214807;96.0893;141.089;-0.00590664;-0.00376421;0.00163953;-0.00145435;0.0175185;0.00525302;0.0112762;0;0.0239029;-0.54546;-0.712734;-1.22269;1.51674;-7.50471;-0.00304618;-0.000260861;0.0144336;0.0144375;-0.00305007;0.00874379;0.211048;4.73827;0.0107864;0.0116584;4.7335;0.21126;109.057;154.057;-0.00444336;-0.00305609;0.00400484;-0.00445306;0.0144257;0.00655323;0.0422168;0;0.0341133;7.75359;4.87004
403000;404;26.2318;0.467447;0.0181431;-2.28952;26.1313;-0.153576;-0.13307;0.463608;-0.722934;-0.412372;-0.262213;-0.483683;0.687572;-7.34191;-0.00384396;0.000237583;0.0174783;0.0174809;-0.00384661;0.0106638;0.219928;4.54695;0.0131254;0.0142184;4.54451;0.220046;95.4141;140.414;-0.00581865;-0.00384468;0.00172545;-0.0012191;0.0174769;0.00519577;0.00995662;0;0.0230803;-0.547075;-0.720553;-1.22053;1.51927;-7.50255;-0.00310393;2.13958e-05;0.0140833;0.0140834;-0.00310396;0.00859367;0.220398;4.53726;0.0105765;0.0114582;4.53723;0.220399;108.682;153.682;-0.00448794;-0.00311272;0.00430111;-0.00418579;0.0140742;0.00586971;0.0395495;0;0.0327424;7.7645;4.87747
404000;405;26.2399;0.475485;0.0184551;-2.29049;26.1392;-0.153513;-0.134038;0.471593;-0.722871;-0.412375;-0.261228;-0.479902;0.684543;-7.33813;-0.00379519;0.00016489;0.0179657;0.017967;-0.00379644;0.0108817;0.211247;4.7338;0.0134236;0.0145089;4.73258;0.211301;95.2283;140.228;-0.00603874;-0.00379596;0.00160956;-0.0012489;0.0179644;0.00576754;0.0113497;0;0.0367437;-0.548205;-0.728734;-1.2178;1.52139;-7.49982;-0.00310902;9.7341e-05;0.0139083;0.0139089;-0.00310958;0.00850922;0.223537;4.47353;0.0104643;0.0113456;4.47291;0.223568;107.445;152.445;-0.00427664;-0.00311609;0.00401445;-0.00375403;0.0139004;0.00572814;0.039187;0;0.0328876;7.76767;4.88517
405000;406;26.2476;0.483208;0.0187549;-2.2916;26.1469;-0.159347;-0.135154;0.479213;-0.728705;-0.413158;-0.254757;-0.492389;0.69141;-7.35061;-0.00397296;0.000266533;0.0183073;0.0183104;-0.00397615;0.0111433;0.217016;4.60796;0.0137257;0.0148577;4.60507;0.217152;95.2705;140.271;-0.0060379;-0.0039737;0.00180632;-0.00123957;0.0183057;0.00512923;0.0105227;0;0.0232353;-0.549542;-0.730994;-1.23102;1.53355;-7.51304;-0.0031392;-4.85857e-05;0.0140271;0.0140273;-0.00313934;0.00858331;0.223795;4.46838;0.0105548;0.0114444;4.46823;0.223802;107.515;152.515;-0.00346941;-0.00314649;0.00377979;-0.00381215;0.0140201;0.00512115;0.0376176;0;0.0297987;7.76574;4.88943
406000;407;26.257;0.492593;0.0191192;-2.29176;26.1563;-0.158087;-0.135312;0.488628;-0.727445;-0.412831;-0.254472;-0.492839;0.69143;-7.35106;-0.00409614;0.000178724;0.0182118;0.0182132;-0.00409757;0.0111554;0.224917;4.44609;0.0137136;0.0148739;4.44488;0.224978;95.3706;140.371;-0.00615906;-0.00409694;0.00166184;-0.0012719;0.0182105;0.00591796;0.0108628;0;0.0254605;-0.5505;-0.738963;-1.2323;1.53873;-7.51432;-0.00317242;1.68885e-05;0.0140878;0.0140878;-0.00317244;0.00863012;0.22519;4.4407;0.0106087;0.0115068;4.44068;0.225191;107.279;152.279;-0.00412813;-0.00317948;0.00384997;-0.00375095;0.0140805;0.00445766;0.0393046;0;0.0284858;7.77524;4.89861
407000;408;26.2648;0.500472;0.019425;-2.29218;26.1642;-0.157086;-0.135735;0.496506;-0.726444;-0.413412;-0.253424;-0.491871;0.690703;-7.35009;-0.00416215;0.000197001;0.0187546;0.0187563;-0.00416384;0.0114601;0.221926;4.506;0.0140986;0.0152801;4.50458;0.221996;95.2819;140.282;-0.0058623;-0.00416296;0.0017161;-0.00128792;0.0187532;0.00482237;0.0111213;0;0.0242815;-0.551524;-0.746719;-1.23179;1.54243;-7.51381;-0.0031745;-0.000128713;0.0148544;0.0148553;-0.00317542;0.00901538;0.213708;4.67929;0.0111143;0.0120205;4.67822;0.213756;106.589;151.589;-0.00412315;-0.00318182;0.00363122;-0.00382185;0.0148479;0.00358796;0.0392388;0;0.0292824;7.77763;4.90092
408000;409;26.2737;0.509319;0.0197683;-2.29352;26.1729;-0.157638;-0.137074;0.505266;-0.726996;-0.413079;-0.252022;-0.490691;0.689149;-7.34891;-0.00421405;0.000130111;0.0188646;0.0188653;-0.00421478;0.01154;0.223384;4.47659;0.014192;0.0153867;4.47598;0.223415;95.4656;140.466;-0.00582061;-0.00421497;0.00165928;-0.00136442;0.0188632;0.00450663;0.0107092;0;0.0286164;-0.552391;-0.751968;-1.23355;1.54668;-7.51556;-0.00330152;-0.000165058;0.0156297;0.0156312;-0.00330296;0.00946706;0.211233;4.7341;0.0116785;0.0126227;4.73248;0.211306;106.535;151.535;-0.0041556;-0.00330961;0.00376242;-0.00401932;0.0156228;0.00393288;0.0393892;0;0.032638;7.77516;4.90707
409000;410;26.2826;0.518183;0.0201124;-2.2946;26.1817;-0.157705;-0.13815;0.51407;-0.727063;-0.41466;-0.25193;-0.484477;0.68566;-7.3427;-0.00414561;0.000380881;0.0192041;0.0192103;-0.00415182;0.0116811;0.215871;4.6324;0.0143919;0.0155748;4.62697;0.216124;94.7328;139.733;-0.00586152;-0.00414617;0.00191926;-0.00112225;0.0192024;0.00391844;0.0122005;0;0.0212364;-0.554639;-0.760434;-1.22968;1.54854;-7.51169;-0.00331969;-0.000286372;0.0166095;0.0166136;-0.0033238;0.00996871;0.199867;5.00333;0.0123339;0.0132916;4.99837;0.200065;105.758;150.758;-0.00391691;-0.00332806;0.00359759;-0.00409419;0.0166032;0.00300892;0.0426883;0;0.034027;7.78262;4.9147
410000;411;26.2923;0.527946;0.0204913;-2.29557;26.1914;-0.162215;-0.139119;0.523758;-0.731573;-0.412794;-0.249263;-0.491838;0.688793;-7.35006;-0.00434249;0.000346735;0.0196218;0.0196268;-0.00434751;0.0119872;0.221309;4.51856;0.0147489;0.0159829;4.5145;0.221508;94.8599;139.86;-0.00631683;-0.00434314;0.00191443;-0.00118411;0.0196201;0.00535792;0.0106074;0;0.0194624;-0.553643;-0.767466;-1.2349;1.55579;-7.51691;-0.00358614;-0.000299391;0.0169347;0.0169391;-0.0035905;0.0102648;0.211763;4.72227;0.0126604;0.0136864;4.71774;0.211966;106.947;151.947;-0.00403469;-0.00359624;0.00398433;-0.00449667;0.0169269;0.00413311;0.0429179;0;0.0328382;7.78953;4.92185
411000;412;26.3009;0.536549;0.0208252;-2.29677;26.1999;-0.165632;-0.140321;0.532268;-0.73499;-0.413468;-0.245721;-0.495602;0.69062;-7.35383;-0.00430251;0.000615773;0.0192853;0.0193014;-0.00431857;0.01181;0.223098;4.48234;0.0145227;0.0157466;4.46938;0.223744;94.0974;139.097;-0.00620721;-0.00430269;0.00212566;-0.000859178;0.0192833;0.00482191;0.0102581;0;0.0186679;-0.555531;-0.773392;-1.24059;1.56391;-7.5226;-0.00348249;-0.00021312;0.0166121;0.0166144;-0.00348475;0.0100496;0.209636;4.77018;0.0124021;0.0133994;4.76774;0.209743;106.551;151.551;-0.0036097;-0.00349169;0.00394401;-0.00428808;0.0166045;0.00422265;0.0400946;0;0.0364552;7.79746;4.92953
412000;413;26.3092;0.544877;0.0211485;-2.29735;26.2082;-0.162907;-0.140898;0.540595;-0.732265;-0.413196;-0.245449;-0.48996;0.686321;-7.34818;-0.00448212;0.000700824;0.0201538;0.0201737;-0.00450205;0.0123379;0.222396;4.49648;0.0151741;0.0164505;4.48101;0.223164;94.0234;139.023;-0.00640584;-0.00448225;0.00229884;-0.000858602;0.0201514;0.00563879;0.0109598;0;0.0421114;-0.555375;-0.781274;-1.23217;1.56112;-7.51419;-0.00356508;-0.000106922;0.0164158;0.0164164;-0.00356565;0.00999104;0.217173;4.60462;0.0123062;0.0133214;4.60404;0.2172;106.185;151.185;-0.00416526;-0.00357341;0.00394044;-0.00407472;0.0164082;0.00443604;0.0407433;0;0.0417149;7.79761;4.93701
413000;414;26.3147;0.550348;0.0213608;-2.29837;26.2136;-0.171676;-0.141917;0.545941;-0.741034;-0.414992;-0.24645;-0.486572;0.685353;-7.3448;-0.00457596;0.000614754;0.0196937;0.0197092;-0.00459152;0.0121504;0.232357;4.30373;0.0149076;0.0162005;4.29253;0.232963;94.2667;139.267;-0.00598455;-0.00457618;0.00217384;-0.000907226;0.0196915;0.00473775;0.0101464;0;0.0177491;-0.558377;-0.788391;-1.23743;1.5699;-7.51944;-0.00355096;-0.000136308;0.0161711;0.0161721;-0.00355191;0.00986199;0.219586;4.55401;0.0121398;0.0131493;4.55307;0.219632;105.922;150.922;-0.00407141;-0.00355869;0.00372892;-0.00392652;0.0161643;0.0031605;0.0387048;0;0.0316881;7.80132;4.94479
414000;415;26.3234;0.559024;0.0216976;-2.29915;26.2223;-0.167326;-0.142699;0.55461;-0.736684;-0.413558;-0.244349;-0.491712;0.687399;-7.34994;-0.0045252;0.000523962;0.0203601;0.0203712;-0.00453623;0.0124537;0.222258;4.49928;0.0153184;0.0166049;4.49077;0.222679;94.261;139.261;-0.00566939;-0.00452557;0.00208477;-0.000998783;0.0203581;0.00315816;0.0107072;0;0.0197198;-0.558195;-0.79484;-1.2385;1.57392;-7.52052;-0.00363616;-0.00010875;0.0163654;0.0163659;-0.00363675;0.0100013;0.222186;4.50073;0.0123034;0.0133351;4.50016;0.222214;105.278;150.278;-0.00402144;-0.00364326;0.00361982;-0.00376394;0.0163589;0.00284275;0.0396881;0;0.0316118;7.80467;4.95171
415000;416;26.3319;0.567498;0.0220265;-2.29978;26.2307;-0.170966;-0.143331;0.563038;-0.740324;-0.415577;-0.237874;-0.501503;0.693393;-7.35973;-0.00484391;0.000913236;0.019889;0.0199227;-0.00487759;0.0124001;0.243547;4.10598;0.0151713;0.0165335;4.08453;0.244826;94.0466;139.047;-0.00541898;-0.00484376;0.00258869;-0.000721585;0.0198861;0.00303064;0.0112749;0;0.0236595;-0.560388;-0.797184;-1.25207;1.58657;-7.53408;-0.0036548;-0.000325898;0.0171649;0.01717;-0.0036599;0.0104149;0.212923;4.69653;0.0128417;0.0138866;4.69138;0.213157;104.81;149.81;-0.00362984;-0.00366231;0.0033043;-0.00388179;0.0171596;0.00123429;0.0404847;0;0.034232;7.80697;4.95856
416000;417;26.3406;0.576269;0.0223669;-2.30187;26.2393;-0.172017;-0.145417;0.571653;-0.741375;-0.41505;-0.237598;-0.498968;0.69115;-7.35719;-0.00478985;0.000969898;0.019991;0.0200289;-0.00482776;0.0124283;0.2396;4.17362;0.0152193;0.0165711;4.1487;0.241039;93.5072;138.507;-0.00596648;-0.00478954;0.00254604;-0.000567952;0.0199883;0.00257599;0.00986541;0;0.0299512;-0.561272;-0.804532;-1.2511;1.58983;-7.53312;-0.00372066;-0.00032546;0.0178616;0.0178665;-0.00372557;0.010796;0.208306;4.80064;0.0133276;0.0143947;4.79563;0.208523;105.121;150.121;-0.00397198;-0.00372928;0.00358835;-0.00415628;0.0178553;0.00242031;0.0403942;0;0.0376379;7.81131;4.96525
417000;418;26.3515;0.587179;0.0227903;-2.30203;26.2503;-0.168182;-0.145581;0.582615;-0.73754;-0.416014;-0.234717;-0.50205;0.692975;-7.36027;-0.00492952;0.00131128;0.0200508;0.0201194;-0.00499817;0.0125588;0.245852;4.06749;0.0153526;0.016745;4.02536;0.248425;92.847;137.847;-0.00551157;-0.00492869;0.00290685;-0.000245229;0.0200475;0.00215473;0.0112329;0;0.0271828;-0.562819;-0.812102;-1.25152;1.59454;-7.53353;-0.00387295;-0.000483254;0.0189921;0.0190023;-0.00388316;0.0114427;0.203924;4.90379;0.0141414;0.015257;4.89353;0.204352;104.375;149.375;-0.00332219;-0.00388174;0.00333243;-0.00421331;0.0189868;0.0021398;0.0400925;0;0.0350825;7.82129;4.97151
418000;419;26.3585;0.594086;0.0230584;-2.30303;26.2571;-0.172304;-0.146583;0.589435;-0.741662;-0.416165;-0.234725;-0.499562;0.691268;-7.35779;-0.00499734;0.000972496;0.0207387;0.0207754;-0.00503403;0.0129047;0.240966;4.14996;0.0157979;0.0172063;4.12699;0.242307;93.6794;138.679;-0.00562097;-0.00499707;0.00263371;-0.000646836;0.0207358;0.00309546;0.0102473;0;0.0301582;-0.563655;-0.81839;-1.2539;1.59991;-7.53591;-0.00388071;-0.000569627;0.0193302;0.0193442;-0.00389468;0.0116194;0.200759;4.9811;0.0143714;0.0154926;4.96682;0.201336;104.76;149.76;-0.00305747;-0.00389047;0.00339612;-0.00444506;0.0193247;0.00297556;0.0406166;0;0.0364232;7.82315;4.97569
419000;420;26.369;0.604601;0.0234666;-2.3036;26.2676;-0.172626;-0.147146;0.599939;-0.741983;-0.416247;-0.233376;-0.500719;0.691697;-7.35894;-0.0051618;0.00113555;0.0209387;0.020988;-0.00521111;0.0130995;0.24652;4.05647;0.0160142;0.0174661;4.02754;0.24829;93.2964;138.296;-0.00579273;-0.00516126;0.00278399;-0.000470738;0.0209355;0.00337911;0.0112857;0;0.0266393;-0.564832;-0.825929;-1.25433;1.60454;-7.53635;-0.00396228;-0.000503808;0.0191799;0.0191909;-0.00397324;0.0115821;0.206585;4.84063;0.0143035;0.0154428;4.83004;0.207038;104.92;149.92;-0.00351979;-0.00397199;0.00351071;-0.00442716;0.019174;0.0042386;0.0420791;0;0.037186;7.82269;4.98005
420000;421;26.3743;0.609945;0.023674;-2.30523;26.2728;-0.17612;-0.148784;0.605136;-0.745478;-0.417024;-0.23268;-0.499959;0.691381;-7.35818;-0.00516394;0.00138281;0.0210168;0.0210897;-0.00523678;0.0131632;0.245705;4.06992;0.016092;0.017551;4.02723;0.24831;92.6268;137.627;-0.00525443;-0.005163;0.00299783;-0.000190793;0.0210134;0.00175697;0.0108036;0;0.0294404;-0.566679;-0.833667;-1.25379;1.60876;-7.5358;-0.00409822;-0.000409717;0.0187992;0.0188065;-0.00410555;0.011456;0.218;4.58716;0.0141068;0.0152747;4.58076;0.218305;104.41;149.41;-0.00274887;-0.0041066;0.00337194;-0.00410637;0.0187937;0.00248072;0.036778;0;0.0405489;7.82682;4.98769
421000;422;26.3837;0.619302;0.0240372;-2.30591;26.2821;-0.18003;-0.149457;0.614444;-0.749387;-0.416354;-0.228668;-0.505427;0.693611;-7.36365;-0.0053449;0.00139372;0.0215274;0.0215995;-0.00541699;0.0135083;0.248283;4.02766;0.0165044;0.018011;3.98737;0.250792;92.8519;137.852;-0.00503584;-0.00534396;0.00309455;-0.000262379;0.0215237;0.00225952;0.0111323;0;0.0300667;-0.566452;-0.839017;-1.2609;1.617;-7.54291;-0.00407366;-0.000407981;0.0186363;0.0186437;-0.00408099;0.0113623;0.218587;4.57484;0.0139893;0.0151498;4.56842;0.218894;104.578;149.578;-0.00287302;-0.00408211;0.00339076;-0.00412202;0.0186308;0.00185416;0.0351383;0;0.0359427;7.83763;4.99489
422000;423;26.3902;0.625842;0.024291;-2.30618;26.2886;-0.182509;-0.149728;0.620969;-0.751866;-0.417024;-0.226912;-0.50559;0.693556;-7.36381;-0.00555481;0.00144852;0.0209956;0.0210744;-0.0056336;0.013354;0.26457;3.77972;0.0162562;0.0178053;3.74084;0.26732;92.9204;137.92;-0.00525141;-0.00555377;0.00313407;-0.000193211;0.0209918;0.00153287;0.012088;0;0.0293159;-0.567965;-0.8447;-1.2626;1.62181;-7.54461;-0.00413818;-0.000298342;0.0186874;0.0186913;-0.00414208;0.0114167;0.221442;4.51586;0.0140467;0.0152223;4.51255;0.221604;104.137;149.137;-0.00268646;-0.004146;0.00344478;-0.00395758;0.0186817;0.000395794;0.0333416;0;0.0346836;7.83791;5.0028
423000;424;26.3984;0.634078;0.0246106;-2.30759;26.2968;-0.181273;-0.151137;0.629121;-0.75063;-0.41627;-0.224043;-0.508049;0.693967;-7.36627;-0.00551152;0.00156714;0.0220204;0.0221093;-0.00560044;0.0138549;0.250292;3.99534;0.0169182;0.0184732;3.94778;0.253307;92.2486;137.249;-0.00555718;-0.00551029;0.00320599;-2.75667e-05;0.0220166;0.00346001;0.0107572;0;0.0248341;-0.568597;-0.850193;-1.26628;1.62776;-7.5483;-0.0041137;-0.000466957;0.0194357;0.0194449;-0.00412296;0.0117839;0.211657;4.72462;0.0145339;0.0157119;4.71626;0.212033;103.643;148.643;-0.00289122;-0.00412175;0.00318051;-0.00403016;0.0194308;-0.000378616;0.0352783;0;0.0346925;7.84088;5.00936
424000;425;26.4074;0.643032;0.0249582;-2.30721;26.3058;-0.17546;-0.150757;0.638183;-0.744817;-0.417608;-0.221619;-0.51303;0.697646;-7.37125;-0.00561712;0.00170486;0.0219316;0.0220367;-0.00572222;0.0138794;0.25612;3.90442;0.0169241;0.0185059;3.85107;0.259668;92.0162;137.016;-0.00582886;-0.00561566;0.00333878;0.00011497;0.0219275;0.00314839;0.011406;0;0.0241639;-0.569865;-0.856888;-1.26943;1.63415;-7.55144;-0.00423034;-0.00048433;0.0204724;0.0204819;-0.00423983;0.0123609;0.206636;4.83942;0.0152654;0.0164811;4.83082;0.207004;102.872;147.872;-0.00354727;-0.00423827;0.00312163;-0.00400299;0.0204677;0.000821945;0.0392654;0;0.0365126;7.84372;5.01689
425000;426;26.4139;0.649517;0.0252099;-2.30866;26.3122;-0.183781;-0.152211;0.644509;-0.753138;-0.416666;-0.222437;-0.504993;0.691452;-7.36322;-0.00577086;0.00162277;0.0224705;0.0225634;-0.0058638;0.0142136;0.256819;3.89379;0.0173308;0.0189515;3.84792;0.259881;92.1044;137.104;-0.00525669;-0.00576954;0.00324615;4.42136e-05;0.0224666;0.0020481;0.0107971;0;0.0213357;-0.570246;-0.864544;-1.26604;1.63569;-7.54806;-0.00439976;-0.000465441;0.0215876;0.0215959;-0.00440809;0.013002;0.20381;4.90654;0.0160694;0.017336;4.89915;0.204117;102.547;147.547;-0.00363998;-0.00440812;0.00327187;-0.00410768;0.0215824;0.000222982;0.0433589;0;0.0358242;7.8526;5.02437
426000;427;26.4206;0.656185;0.0254687;-2.30867;26.3188;-0.186743;-0.152222;0.65118;-0.756101;-0.416804;-0.217882;-0.51342;0.696275;-7.37164;-0.00583559;0.00179954;0.0227297;0.0228426;-0.00594851;0.0143955;0.256739;3.89501;0.0175505;0.0191941;3.84005;0.260413;91.7344;136.734;-0.00515507;-0.00583398;0.00342434;0.000220126;0.0227255;0.00189239;0.0121236;0;0.0217631;-0.57099;-0.868765;-1.27558;1.64556;-7.55759;-0.00437131;-0.000519354;0.0218589;0.0218692;-0.00438159;0.0131254;0.199978;5.00054;0.0162382;0.0175005;4.99115;0.200354;103.025;148.025;-0.00321056;-0.00438071;0.00342142;-0.00435897;0.0218533;0.00117424;0.0415684;0;0.0390614;7.85256;5.03218
427000;428;26.4321;0.66777;0.0259183;-2.30963;26.3304;-0.181348;-0.153186;0.662763;-0.750706;-0.417936;-0.218152;-0.509079;0.693846;-7.3673;-0.00583135;0.00173264;0.0230087;0.0231124;-0.00593507;0.0145237;0.253441;3.94569;0.0177211;0.019365;3.89421;0.256791;91.6972;136.697;-0.00458627;-0.00582986;0.00332105;0.000189007;0.0230048;0.00122992;0.00996637;0;0.0271663;-0.572344;-0.87868;-1.26901;1.64622;-7.55103;-0.00447368;-0.000591157;0.0219473;0.0219605;-0.0044869;0.0132237;0.203838;4.90586;0.0163426;0.0176316;4.89435;0.204317;102.881;147.881;-0.00290903;-0.00448289;0.00323883;-0.00432212;0.0219423;0.00291586;0.041858;0;0.0374114;7.85923;5.03923
428000;429;26.4407;0.676336;0.0262508;-2.30977;26.339;-0.18611;-0.153322;0.671317;-0.755467;-0.416819;-0.215153;-0.51174;0.694196;-7.36996;-0.00595925;0.00188034;0.0231471;0.023268;-0.00608022;0.0146741;0.257452;3.88422;0.0178866;0.0195655;3.82684;0.261312;91.0107;136.011;-0.00468378;-0.00595758;0.00333357;0.000468457;0.0231434;0.00098074;0.0111138;0;0.0516263;-0.573142;-0.883749;-1.27537;1.65411;-7.55738;-0.00444219;-0.00053814;0.0218003;0.0218113;-0.00445322;0.0131323;0.203768;4.90755;0.0162302;0.0175097;4.89787;0.20417;102.509;147.509;-0.00279883;-0.0044507;0.00316884;-0.00414991;0.0217955;0.00280738;0.0414797;0;0.0469727;7.85966;5.04394
429000;430;26.4458;0.681435;0.0264487;-2.31131;26.3439;-0.186974;-0.154862;0.676294;-0.756331;-0.418616;-0.213085;-0.517085;0.698585;-7.37531;-0.00601485;0.00227614;0.0232345;0.0234106;-0.00619091;0.0148007;0.258876;3.86286;0.0180286;0.0197343;3.78144;0.264449;90.0222;135.022;-0.00503385;-0.00601268;0.00365444;0.000937243;0.0232305;0.00165491;0.0112927;0;0.0217952;-0.57547;-0.888639;-1.28088;1.66178;-7.5629;-0.00456089;-0.000644027;0.0214664;0.0214823;-0.00457682;0.0130296;0.212466;4.70663;0.016066;0.0173728;4.69373;0.21305;103.169;148.169;-0.00262803;-0.00457;0.00311412;-0.0043064;0.0214619;0.00268926;0.0382516;0;0.0482931;7.86329;5.04778
430000;431;26.4549;0.690562;0.026803;-2.31039;26.3532;-0.184371;-0.153939;0.685556;-0.753728;-0.417998;-0.211102;-0.515501;0.69644;-7.37372;-0.00625338;0.00200062;0.0235238;0.0236576;-0.0063872;0.0150224;0.265832;3.76177;0.0182767;0.0200299;3.70391;0.269985;90.9476;135.948;-0.00463468;-0.00625152;0.00348751;0.000556991;0.0235198;0.00116814;0.0107501;0;0.02269;-0.574922;-0.895094;-1.27957;1.66404;-7.56158;-0.00465334;-0.000506847;0.0215103;0.0215202;-0.00466315;0.0130917;0.21633;4.62256;0.0161275;0.0174555;4.61494;0.216688;102.791;147.791;-0.00287818;-0.00466179;0.0032154;-0.00413375;0.0215054;0.0010317;0.0366458;0;0.0376832;7.87036;5.05446
431000;432;26.4625;0.698125;0.0270965;-2.31183;26.3606;-0.190489;-0.155379;0.692979;-0.759846;-0.41731;-0.208351;-0.519143;0.697902;-7.37737;-0.00620634;0.00207725;0.0242238;0.024365;-0.00634748;0.0153562;0.256208;3.90308;0.0187213;0.020475;3.83853;0.260517;90.2711;135.271;-0.00510455;-0.00620447;0.00342616;0.00076841;0.0242202;0.00213832;0.0101302;0;0.021673;-0.575548;-0.901734;-1.2834;1.67077;-7.56541;-0.00460891;-0.000515787;0.021703;0.0217131;-0.00461902;0.013166;0.212363;4.70892;0.0162356;0.0175547;4.7008;0.21273;102.908;147.908;-0.0027418;-0.00461777;0.00329712;-0.00423049;0.0216978;-0.000592448;0.0352164;0;0.0376138;7.87355;5.06219
432000;433;26.4689;0.704489;0.0273435;-2.31332;26.3669;-0.190018;-0.156867;0.69924;-0.759375;-0.418012;-0.20971;-0.513128;0.694271;-7.37135;-0.00646792;0.00208142;0.0244788;0.0246182;-0.00660729;0.0156127;0.264225;3.78465;0.0190014;0.020817;3.72591;0.268391;90.3393;135.339;-0.00494136;-0.00646604;0.00343401;0.000769676;0.0244752;0.00100932;0.0108011;0;0.0224356;-0.576852;-0.90997;-1.27877;1.67214;-7.56078;-0.0048166;-0.000530499;0.0227266;0.0227369;-0.00482682;0.0137818;0.211936;4.7184;0.0169969;0.0183758;4.71053;0.21229;103.062;148.062;-0.00402608;-0.00482657;0.0035349;-0.00448641;0.0227207;0.00045257;0.0363679;0;0.0376241;7.87342;5.06901
433000;434;26.4821;0.717698;0.0278562;-2.31561;26.38;-0.178886;-0.159164;0.712376;-0.748243;-0.418587;-0.203249;-0.522565;0.699713;-7.38079;-0.00638847;0.00201936;0.0242347;0.0243673;-0.00652106;0.0154442;0.263609;3.7935;0.0187994;0.0205922;3.73671;0.267615;90.3692;135.369;-0.00453998;-0.00638669;0.00334488;0.00073348;0.0242312;0.00186012;0.00969134;0;0.0307634;-0.579174;-0.914809;-1.28326;1.67901;-7.56527;-0.00496107;-0.000592661;0.0238328;0.023845;-0.00497327;0.0144091;0.208161;4.80397;0.0177877;0.0192122;4.79464;0.208566;101.511;146.511;-0.00328843;-0.00496949;0.00305337;-0.00413615;0.0238284;-0.000773092;0.0398302;0;0.0406836;7.8826;5.07615
434000;435;26.491;0.726632;0.028203;-2.3167;26.3889;-0.185981;-0.160251;0.7212;-0.755338;-0.417982;-0.20378;-0.519275;0.697052;-7.3775;-0.00648573;0.00200798;0.0248599;0.024988;-0.00661383;0.0158009;0.260891;3.83302;0.0192459;0.0210679;3.77815;0.26468;90.1652;135.165;-0.00438005;-0.00648401;0.0032696;0.000784951;0.0248567;0.001514;0.00821323;0;0.0225314;-0.579068;-0.921875;-1.28558;1.6846;-7.5676;-0.00497597;-0.000624411;0.0244156;0.0244289;-0.00498923;0.014709;0.203803;4.9067;0.0181787;0.0196121;4.89632;0.204235;101.766;146.766;-0.0032261;-0.00498532;0.00322027;-0.00435878;0.0244107;0.00094414;0.0438779;0;0.0389015;7.89225;5.08295
435000;436;26.5018;0.737407;0.0286212;-2.31815;26.3995;-0.190068;-0.161696;0.731861;-0.759425;-0.418597;-0.200272;-0.525398;0.700982;-7.38362;-0.00656455;0.00217243;0.0249135;0.0250628;-0.00671377;0.0158883;0.263493;3.79516;0.0193389;0.0211844;3.73304;0.267878;90.086;135.086;-0.00447986;-0.00656257;0.0034992;0.000886398;0.0249099;0.00163314;0.00965164;0;0.0237557;-0.580246;-0.928537;-1.29251;1.69395;-7.57453;-0.00498382;-0.000604412;0.0246855;0.0246978;-0.00499613;0.014847;0.201892;4.95314;0.0183586;0.019796;4.9434;0.20229;102.201;147.201;-0.00320776;-0.00499419;0.00349144;-0.00458167;0.0246798;0.00249028;0.0439343;0;0.0395386;7.88781;5.09074
436000;437;26.5113;0.746885;0.0289891;-2.32002;26.4089;-0.185284;-0.163567;0.741246;-0.754642;-0.418502;-0.198822;-0.524117;0.699552;-7.38234;-0.00670526;0.00195719;0.0260639;0.0261804;-0.00682175;0.0165011;0.257262;3.88708;0.0201168;0.0220014;3.83779;0.260567;90.7115;135.712;-0.00493016;-0.0067035;0.00339468;0.000565604;0.0260602;0.00193648;0.00981325;0;0.0310518;-0.581461;-0.934815;-1.28809;1.69445;-7.57011;-0.00504893;-0.000613425;0.0247026;0.0247152;-0.00506157;0.0148884;0.204389;4.89263;0.0183976;0.0198512;4.88291;0.204796;102.324;147.324;-0.00316114;-0.00505949;0.00351689;-0.00462381;0.0246967;0.00360309;0.0412165;0;0.0408805;7.88888;5.09789
437000;438;26.5219;0.757536;0.0294025;-2.32084;26.4195;-0.183457;-0.164391;0.751878;-0.752814;-0.419141;-0.196003;-0.526055;0.700593;-7.38428;-0.00655956;0.00202267;0.0261993;0.0263237;-0.00668397;0.0165038;0.250372;3.99406;0.0201501;0.0220051;3.93833;0.253915;90.4425;135.442;-0.00492169;-0.00655772;0.00342553;0.000664583;0.0261955;0.00228452;0.00853628;0;0.0239465;-0.582845;-0.940877;-1.29103;1.7005;-7.57304;-0.00518517;-0.000676091;0.0244174;0.0244329;-0.0052006;0.0148167;0.212355;4.70909;0.0182705;0.0197556;4.69808;0.212853;102.511;147.511;-0.00213655;-0.00519568;0.00338901;-0.00462372;0.024412;0.00253813;0.0393828;0;0.0413132;7.89211;5.10458
438000;439;26.5287;0.76432;0.0296658;-2.32064;26.4264;-0.184159;-0.164186;0.758701;-0.753517;-0.41974;-0.192463;-0.535056;0.706759;-7.39328;-0.00656975;0.00186966;0.0267386;0.0268433;-0.00667437;0.0167588;0.245702;4.06996;0.020486;0.0223451;4.02184;0.248642;90.3857;135.386;-0.00462168;-0.00656818;0.00317354;0.000608087;0.0267354;0.00202388;0.00930226;0;0.0305564;-0.583317;-0.94477;-1.30213;1.71126;-7.58415;-0.00514599;-0.000749861;0.0241902;0.0242094;-0.00516515;0.0146873;0.21273;4.70079;0.0181085;0.019583;4.68706;0.213353;102.451;147.451;-0.00225487;-0.00515623;0.00318844;-0.00457535;0.0241855;0.00083859;0.0398491;0;0.041401;7.89742;5.10713
439000;440;26.5381;0.773775;0.0300327;-2.32015;26.4359;-0.18255;-0.163706;0.768246;-0.751908;-0.421537;-0.191276;-0.534344;0.706968;-7.39257;-0.00652512;0.0017696;0.0276383;0.0277297;-0.00661653;0.0171731;0.236089;4.23568;0.0210417;0.0228975;4.19098;0.238608;90.5966;135.597;-0.00456392;-0.00652365;0.00312243;0.000461736;0.0276351;0.00239633;0.00873383;0;0.030615;-0.585763;-0.952193;-1.30157;1.71577;-7.58359;-0.00522549;-0.000803146;0.0244076;0.0244293;-0.00524724;0.0148383;0.214093;4.67087;0.018288;0.0197844;4.65565;0.214793;102.102;147.102;-0.00182467;-0.00523529;0.00299116;-0.00448768;0.0244035;-0.000834271;0.0370141;0;0.0420699;7.91113;5.11797
440000;441;26.546;0.781622;0.0303373;-2.32242;26.4436;-0.185304;-0.165975;0.775905;-0.754662;-0.42149;-0.188498;-0.535349;0.706954;-7.39357;-0.00651163;0.00157201;0.0278527;0.0279244;-0.00658339;0.0172539;0.233788;4.27737;0.021155;0.0230052;4.24165;0.235757;90.7141;135.714;-0.00468844;-0.00651044;0.00285192;0.000334883;0.0278499;0.00184313;0.009324;0;0.0378793;-0.587046;-0.958645;-1.30267;1.72063;-7.58469;-0.00540347;-0.00083053;0.0251629;0.0251854;-0.00542602;0.0153057;0.21474;4.65679;0.0188609;0.0204076;4.6416;0.215443;101.968;146.968;-0.00251427;-0.00541363;0.00302471;-0.00457081;0.0251587;-0.00125551;0.0370936;0;0.0477416;7.91714;5.12336
441000;442;26.5542;0.78987;0.0306575;-2.32326;26.4518;-0.186072;-0.166806;0.784107;-0.75543;-0.419636;-0.186604;-0.533834;0.704197;-7.39206;-0.00664371;0.00188446;0.027929;0.0280315;-0.00674612;0.0173888;0.237878;4.20383;0.0212956;0.0231851;4.15519;0.240663;90.6115;135.611;-0.00463137;-0.00664205;0.00331407;0.000502935;0.0279254;0.000976689;0.00751465;0;0.0227858;-0.585739;-0.964281;-1.30554;1.7255;-7.58755;-0.00535575;-0.00072991;0.0260292;0.0260462;-0.00537271;0.0157094;0.205759;4.86005;0.0194045;0.0209459;4.84786;0.206277;101.593;146.593;-0.00335944;-0.00536603;0.00324313;-0.00458141;0.0260243;-0.000340044;0.0402863;0;0.0431879;7.91173;5.12771
442000;443;26.5638;0.799477;0.0310303;-2.32487;26.4613;-0.185783;-0.168425;0.793611;-0.75514;-0.420145;-0.185483;-0.535106;0.70517;-7.39333;-0.00673441;0.00175231;0.0284468;0.0285339;-0.00682147;0.0176777;0.236737;4.2241;0.0216575;0.0235702;4.18295;0.239066;90.7428;135.743;-0.00490647;-0.00673294;0.00315785;0.000394851;0.0284435;0.00211366;0.00774583;0;0.0253702;-0.587297;-0.971374;-1.30718;1.73125;-7.5892;-0.00547371;-0.000670946;0.026915;0.0269288;-0.0054876;0.0162082;0.203371;4.91713;0.0200339;0.021611;4.90721;0.203782;100.959;145.959;-0.00295931;-0.00548348;0.00324019;-0.00445872;0.0269101;-0.000297452;0.0418558;0;0.0425856;7.9225;5.13479
443000;444;26.5729;0.808532;0.0313818;-2.32598;26.4702;-0.188209;-0.169528;0.802587;-0.757566;-0.421693;-0.183227;-0.539757;0.709038;-7.39798;-0.00662142;0.00163291;0.0291408;0.0292152;-0.00669583;0.0179555;0.227222;4.40099;0.0220503;0.0239407;4.3632;0.22919;91.012;136.012;-0.00530261;-0.0066201;0.00310549;0.000211492;0.0291374;0.00281494;0.00738283;0;0.0308223;-0.5895;-0.978198;-1.3102;1.73811;-7.59222;-0.0054316;-0.000883415;0.0272391;0.027263;-0.00545547;0.0163592;0.199404;5.01494;0.0202404;0.0218123;4.99737;0.200105;101.767;146.767;-0.00345582;-0.00544341;0.00329384;-0.0049278;0.0272342;0.00246708;0.0420704;0;0.0413879;7.92626;5.14219
444000;445;26.5819;0.817556;0.031732;-2.32641;26.4793;-0.186136;-0.169965;0.811623;-0.755493;-0.421278;-0.181434;-0.537515;0.706622;-7.39574;-0.00681738;0.00148133;0.0291956;0.0292564;-0.00687821;0.0180673;0.233507;4.28252;0.0221558;0.0240898;4.2535;0.235101;91.228;136.228;-0.0051788;-0.00681628;0.00292787;8.54056e-05;0.0291925;0.00234136;0.00701294;0;0.0264886;-0.589847;-0.985293;-1.30838;1.74086;-7.59039;-0.00552572;-0.000777912;0.0273772;0.0273956;-0.0055441;0.0164698;0.201837;4.9545;0.0203649;0.0219598;4.94139;0.202372;101.515;146.515;-0.00299451;-0.00553702;0.00338239;-0.00480496;0.0273719;0.00301021;0.0401299;0;0.0419826;7.922;5.14973
445000;446;26.5903;0.825918;0.0320566;-2.32753;26.4875;-0.189438;-0.171082;0.819895;-0.758795;-0.421456;-0.178441;-0.541829;0.709257;-7.40005;-0.00650583;0.00136431;0.0294396;0.0294913;-0.00655754;0.0180244;0.220989;4.52511;0.0221724;0.0240326;4.49732;0.222355;91.4494;136.449;-0.0053647;-0.0065049;0.00286404;-8.30566e-05;0.0294365;0.00159461;0.00738461;0;0.0287361;-0.590673;-0.989799;-1.31497;1.74864;-7.59699;-0.00554181;-0.00084988;0.0274611;0.0274829;-0.00556368;0.0165233;0.201806;4.95525;0.0204306;0.0220311;4.9397;0.202441;101.511;146.511;-0.00227792;-0.00555321;0.00326802;-0.00483549;0.0274562;0.00253912;0.0389186;0;0.0431983;7.9272;5.15709
446000;447;26.6008;0.836456;0.0324656;-2.32841;26.4981;-0.188706;-0.171965;0.830402;-0.758063;-0.421481;-0.176445;-0.544266;0.710637;-7.40249;-0.00674838;0.0011217;0.0303271;0.030361;-0.00678229;0.0185716;0.22252;4.49398;0.0228396;0.0247622;4.47651;0.223388;91.6355;136.635;-0.00532576;-0.00674778;0.00255597;-0.000260965;0.0303245;0.00154889;0.00720256;0;0.0362654;-0.591876;-0.997003;-1.31645;1.75424;-7.59846;-0.00584009;-0.00103951;0.0273916;0.0274241;-0.00587257;0.0166483;0.213207;4.69027;0.0205223;0.0221978;4.66986;0.214139;102.133;147.133;-0.00290252;-0.00585256;0.00314414;-0.00508781;0.0273873;0.00296887;0.0395961;0;0.047152;7.93019;5.16439
447000;448;26.6096;0.845274;0.0328079;-2.32795;26.507;-0.183255;-0.171505;0.839333;-0.752613;-0.421619;-0.176782;-0.535889;0.704409;-7.39411;-0.00690993;0.00135911;0.03024;0.0302897;-0.00695959;0.0186246;0.228503;4.37631;0.0228688;0.0248329;4.35222;0.229768;91.5468;136.547;-0.00523995;-0.00690901;0.00289416;-0.000120582;0.0302369;0.0012869;0.00711768;0;0.0393354;-0.593022;-1.0049;-1.30939;1.75385;-7.59136;-0.00598221;-0.0013925;0.027355;0.0274131;-0.00604028;0.0167267;0.218688;4.57272;0.0205863;0.0223022;4.53838;0.220343;104.751;149.751;-0.00273728;-0.00600114;0.00366897;-0.0062897;0.0273494;0.00328599;0.0392082;0;0.056665;7.93007;5.17205
448000;449;26.6187;0.854366;0.0331608;-2.32946;26.516;-0.185174;-0.173007;0.848315;-0.754531;-0.420526;-0.173564;-0.544264;0.709359;-7.40249;-0.0068944;0.00115862;0.0308851;0.0309206;-0.0069299;0.0189253;0.223227;4.47974;0.0232703;0.0252337;4.46191;0.224119;91.9864;136.986;-0.00580869;-0.00689381;0.00278298;-0.00040621;0.030882;0.0024829;0.00689977;0;0.0413832;-0.59311;-1.01048;-1.31822;1.76367;-7.60023;-0.00636415;-0.00113457;0.0277709;0.0278086;-0.00640182;0.0171052;0.229166;4.36365;0.0210008;0.0228069;4.34385;0.23021;103.099;148.099;-0.00146969;-0.00637884;0.00340233;-0.00552076;0.0277659;-0.00221031;0.0391729;0;0.0546438;7.94805;5.17965
449000;450;26.6282;0.86387;0.0335297;-2.33043;26.5254;-0.188572;-0.173978;0.857747;-0.757929;-0.421855;-0.170386;-0.54752;0.711878;-7.40574;-0.00677482;0.00109985;0.0312397;0.0312715;-0.00680662;0.019039;0.216866;4.61114;0.0234482;0.0253854;4.59428;0.217662;91.9758;136.976;-0.00573687;-0.00677431;0.00270776;-0.000448782;0.0312367;0.00178747;0.00758283;0;0.0361969;-0.595119;-1.01692;-1.32106;1.77017;-7.60307;-0.00642951;-0.00097422;0.0287301;0.0287571;-0.00645648;0.0176068;0.22379;4.46848;0.0216469;0.0234757;4.45399;0.224518;102.52;147.52;-0.00242078;-0.00644384;0.00363372;-0.00542465;0.0287242;0.00136558;0.0418737;0;0.0488094;7.94349;5.18648
450000;451;26.636;0.871656;0.0338318;-2.33073;26.5332;-0.191118;-0.174285;0.865518;-0.760476;-0.421288;-0.166938;-0.551867;0.714079;-7.41009;-0.00702624;0.000814004;0.0317556;0.0317726;-0.00704331;0.019408;0.22126;4.51957;0.0238783;0.0258773;4.51103;0.221679;92.5988;137.599;-0.00593826;-0.00702625;0.0025167;-0.000824692;0.0317528;0.0028773;0.00688407;0;0.0361879;-0.594858;-1.02066;-1.32993;1.77885;-7.61195;-0.00647798;-0.000838556;0.0294434;0.029463;-0.00649754;0.0179803;0.220015;4.54515;0.0221281;0.0239737;4.53448;0.220532;101.42;146.42;-0.00245788;-0.00649037;0.00350634;-0.00503183;0.0294378;0.00257547;0.0407037;0;0.0480437;7.94703;5.19122
451000;452;26.6438;0.879438;0.0341339;-2.33132;26.5409;-0.193191;-0.174868;0.873263;-0.762549;-0.420887;-0.168149;-0.544773;0.708659;-7.403;-0.00717548;0.0010672;0.0312106;0.0312402;-0.00720513;0.0192227;0.229905;4.34962;0.0235981;0.0256302;4.33583;0.230636;92.4213;137.421;-0.00646986;-0.0071751;0.00281464;-0.000615202;0.0312073;0.00278;0.00631154;0;0.0277199;-0.595632;-1.02973;-1.32185;1.77831;-7.60387;-0.00662645;-0.000909353;0.0298176;0.0298403;-0.00664913;0.0182447;0.222233;4.49979;0.0224407;0.0243263;4.48785;0.222824;102.313;147.313;-0.00241306;-0.00664134;0.00386357;-0.00551335;0.0298108;-0.000280404;0.0428253;0;0.0472238;7.9528;5.19933
452000;453;26.6512;0.886829;0.0344207;-2.33198;26.5483;-0.192819;-0.175526;0.880627;-0.762177;-0.422011;-0.165513;-0.547001;0.710421;-7.40522;-0.00696356;0.00105061;0.0321769;0.0322051;-0.00699174;0.0195984;0.216415;4.62076;0.0241405;0.0261312;4.60617;0.2171;92.3664;137.366;-0.0065655;-0.00696322;0.00283464;-0.000665763;0.0321736;0.00295334;0.00714231;0;0.037416;-0.597684;-1.03579;-1.32251;1.78301;-7.60452;-0.00683279;-0.000911593;0.0299313;0.0299539;-0.00685538;0.0184046;0.228283;4.38054;0.0226036;0.0245395;4.3694;0.228865;102.436;147.436;-0.00228116;-0.00684792;0.00390686;-0.00555803;0.0299243;0.00300759;0.0422905;0;0.0497979;7.95218;5.20042
453000;454;26.6606;0.896225;0.0347854;-2.33288;26.5577;-0.189914;-0.17643;0.890002;-0.759271;-0.422738;-0.164836;-0.546609;0.710395;-7.40483;-0.00698418;0.000812804;0.0322619;0.0322787;-0.00700101;0.0196399;0.216484;4.61928;0.0241929;0.0261865;4.61058;0.216892;92.6962;137.696;-0.00619187;-0.00698426;0.00259188;-0.000898636;0.032259;0.00224125;0.00696394;0;0.0351777;-0.599193;-1.04287;-1.32284;1.78788;-7.60485;-0.00684068;-0.000940172;0.0303304;0.0303542;-0.00686444;0.0186093;0.225538;4.43383;0.0228703;0.0248124;4.42194;0.226145;102.633;147.633;-0.00287604;-0.00685685;0.00404512;-0.00574559;0.0303229;0.00444638;0.0385801;0;0.0487499;7.95495;5.20785
454000;455;26.6679;0.903535;0.0350692;-2.33371;26.5649;-0.194591;-0.177259;0.897233;-0.763949;-0.422021;-0.163147;-0.544988;0.708329;-7.40321;-0.00724958;0.00125953;0.0325519;0.0325917;-0.0072894;0.0199405;0.222708;4.49018;0.0245214;0.0265874;4.47111;0.223658;92.0672;137.067;-0.00622679;-0.00724888;0.00303888;-0.000451243;0.0325482;0.00163762;0.00610163;0;0.0302357;-0.599327;-1.04774;-1.32636;1.79338;-7.60838;-0.00690665;-0.000933803;0.0304109;0.0304343;-0.00693001;0.0186821;0.227111;4.40313;0.022951;0.0249095;4.39166;0.227704;102.626;147.626;-0.00231198;-0.00692284;0.00405892;-0.00574569;0.0304033;0.00286342;0.0401048;0;0.0498225;7.95585;5.21379
455000;456;26.6759;0.911568;0.035381;-2.3336;26.5729;-0.199642;-0.177151;0.90527;-0.769;-0.42232;-0.160641;-0.547904;0.710182;-7.40613;-0.00721653;0.000884749;0.0325343;0.0325539;-0.00723621;0.0198951;0.221813;4.5083;0.0244739;0.0265268;4.49876;0.222284;92.7187;137.719;-0.00649741;-0.00721652;0.00271873;-0.000878634;0.0325311;0.00297629;0.00774281;0;0.0302873;-0.600464;-1.05458;-1.33115;1.80129;-7.61316;-0.00687986;-0.00105507;0.0303125;0.0303424;-0.00690976;0.0186261;0.226965;4.40597;0.022882;0.0248348;4.39123;0.227726;102.934;147.934;-0.00236556;-0.00689687;0.00397984;-0.0059082;0.0303053;0.0028268;0.0389116;0;0.0525451;7.9696;5.22137
456000;457;26.6845;0.920125;0.0357131;-2.33457;26.5814;-0.197341;-0.178117;0.913792;-0.766698;-0.422937;-0.157112;-0.554401;0.714787;-7.41263;-0.00706757;0.000826383;0.0335188;0.0335356;-0.00708439;0.02031;0.210854;4.74261;0.0250546;0.02708;4.73373;0.21125;92.6313;137.631;-0.00633011;-0.00706766;0.00264906;-0.000924723;0.0335157;0.00302088;0.00768995;0;0.0266424;-0.601543;-1.05941;-1.33688;1.80872;-7.61889;-0.00712169;-0.00107404;0.0308567;0.030887;-0.00715204;0.0190195;0.230799;4.33278;0.0233435;0.0253594;4.31863;0.231555;102.545;147.545;-0.00192854;-0.00713807;0.00383671;-0.00580384;0.0308501;0.000415264;0.0411928;0;0.0497773;7.96445;5.22896
457000;458;26.6931;0.928692;0.0360456;-2.33584;26.5899;-0.195537;-0.179387;0.922294;-0.764895;-0.422557;-0.156768;-0.548572;0.709973;-7.4068;-0.00710702;0.0011184;0.0338499;0.0338804;-0.00713754;0.020509;0.209957;4.76288;0.0253039;0.0273453;4.74679;0.210669;92.1385;137.138;-0.00620644;-0.00710658;0.00291475;-0.0006068;0.0338464;0.00305306;0.00766086;0;0.026647;-0.602373;-1.06772;-1.33004;1.80884;-7.61206;-0.00742979;-0.00123744;0.0314563;0.0314956;-0.00746912;0.0194824;0.236194;4.23381;0.0238794;0.0259765;4.21678;0.237148;102.633;147.633;-0.00208821;-0.00744696;0.00367917;-0.00596867;0.0314505;0.00220309;0.0410006;0;0.0504959;7.97346;5.23705
458000;459;26.7011;0.936689;0.036356;-2.33717;26.5978;-0.19961;-0.18072;0.930174;-0.768967;-0.419922;-0.151933;-0.553978;0.711555;-7.4122;-0.00751323;0.00121121;0.0341444;0.0341796;-0.00754842;0.020864;0.220043;4.54457;0.0256751;0.0278187;4.52805;0.220846;92.0379;137.038;-0.00608785;-0.00751262;0.00300079;-0.000506279;0.0341408;0.00282996;0.00749476;0;0.0269571;-0.601298;-1.0713;-1.33696;1.81569;-7.61898;-0.00739497;-0.00108643;0.0321554;0.0321852;-0.00742479;0.019805;0.229976;4.34828;0.0243126;0.0264067;4.33483;0.23069;101.132;146.132;-0.0018059;-0.00740879;0.0033468;-0.00534977;0.0321505;0.000279966;0.0411702;0;0.0472836;7.98091;5.24329
459000;460;26.7102;0.94582;0.0367104;-2.3384;26.6069;-0.200785;-0.181946;0.939225;-0.770143;-0.421913;-0.149476;-0.554328;0.712484;-7.41255;-0.00717812;0.00108255;0.0345672;0.0345953;-0.00720617;0.0209007;0.207657;4.81563;0.0258032;0.0278676;4.80078;0.208299;91.7031;136.703;-0.00626914;-0.00717763;0.00266566;-0.00043668;0.0345643;0.00382444;0.00594327;0;0.0279617;-0.603815;-1.07758;-1.33762;1.82072;-7.61964;-0.00763973;-0.00109822;0.0325238;0.0325538;-0.00766974;0.0201118;0.234897;4.25719;0.02466;0.0268157;4.24445;0.235602;101.599;146.599;-0.00221038;-0.00765499;0.00359882;-0.00561252;0.0325181;0.00105904;0.0429273;0;0.0478321;7.98116;5.25092
460000;461;26.7172;0.952837;0.0369827;-2.33861;26.6138;-0.208984;-0.182158;0.946187;-0.778341;-0.421407;-0.147118;-0.55627;0.713206;-7.41449;-0.00733708;0.00111467;0.0347392;0.0347687;-0.00736659;0.0210677;0.211205;4.73474;0.0259851;0.0280902;4.71978;0.211874;91.7764;136.776;-0.00618846;-0.00733656;0.00275157;-0.000455677;0.0347361;0.00359953;0.00600276;0;0.0304582;-0.603551;-1.08378;-1.3435;1.82862;-7.62552;-0.0076059;-0.00109727;0.0327177;0.0327476;-0.00763574;0.0201916;0.23247;4.30162;0.0247724;0.0269222;4.28872;0.23317;102.253;147.253;-0.00321449;-0.00762333;0.00398679;-0.0059828;0.0327106;0.00220352;0.0432631;0;0.0557378;7.98934;5.25781
461000;462;26.7253;0.960958;0.0372979;-2.34024;26.6219;-0.20456;-0.183792;0.95423;-0.773918;-0.422056;-0.146389;-0.556132;0.713333;-7.41436;-0.00739371;0.00115251;0.0354063;0.0354373;-0.00742472;0.021431;0.208825;4.78871;0.0264495;0.0285747;4.77288;0.209517;91.7115;136.711;-0.00621275;-0.00739314;0.00280644;-0.000433058;0.0354032;0.00400548;0.00609082;0;0.041772;-0.605856;-1.0916;-1.34033;1.8317;-7.62235;-0.00776274;-0.000977816;0.0329698;0.0329932;-0.0077862;0.0203897;0.23545;4.24718;0.0249984;0.0271863;4.2374;0.235994;102.207;147.207;-0.00302845;-0.0077801;0.00419913;-0.0059506;0.0329617;0.00398521;0.0442853;0;0.0588444;7.98756;5.2657
462000;463;26.7361;0.971761;0.0377172;-2.33987;26.6328;-0.203697;-0.183422;0.965115;-0.773055;-0.422456;-0.14311;-0.558605;0.714835;-7.41683;-0.00741465;0.000934034;0.0356683;0.0356886;-0.00743489;0.0215617;0.207877;4.81053;0.0266191;0.028749;4.80015;0.208327;91.6862;136.686;-0.00614603;-0.00741433;0.00243452;-0.000504033;0.0356659;0.00504329;0.00619113;0;0.0273922;-0.606434;-1.09761;-1.34481;1.83876;-7.62683;-0.0075493;-0.00106086;0.0332924;0.03332;-0.00757684;0.0204484;0.226757;4.41;0.0251227;0.0272645;4.39761;0.227396;102.224;147.224;-0.00393625;-0.00756743;0.00417627;-0.00609096;0.0332845;0.00449357;0.043516;0;0.0529601;7.98336;5.26779
463000;464;26.744;0.979654;0.0380236;-2.3414;26.6406;-0.201559;-0.184949;0.97292;-0.770916;-0.421903;-0.141303;-0.558881;0.714365;-7.41711;-0.00732437;0.00108916;0.0362003;0.0362275;-0.00735161;0.0217896;0.202329;4.94244;0.0269387;0.0290528;4.92784;0.202929;91.4649;136.465;-0.00564698;-0.00732384;0.00260757;-0.000365482;0.0361976;0.0041953;0.00650143;0;0.0337732;-0.607106;-1.10335;-1.34454;1.84221;-7.62655;-0.00769237;-0.00105087;0.0334452;0.0334721;-0.0077192;0.0205956;0.229999;4.34785;0.0252837;0.0274608;4.33621;0.230616;102.602;147.602;-0.00301281;-0.00771176;0.0044072;-0.00629164;0.0334364;0.00264318;0.0438302;0;0.0557167;7.99041;5.27289
464000;465;26.7524;0.988025;0.0383485;-2.34156;26.6489;-0.205672;-0.185113;0.981278;-0.77503;-0.42262;-0.139933;-0.557985;0.713818;-7.41621;-0.00738241;0.00111342;0.0367094;0.0367375;-0.00741051;0.022074;0.201104;4.97255;0.0272992;0.029432;4.95748;0.201715;91.2242;136.224;-0.00575013;-0.00738182;0.00253436;-0.000247097;0.0367069;0.0044093;0.003968;0;0.0328834;-0.608711;-1.11035;-1.34594;1.84796;-7.62795;-0.00794895;-0.00119853;0.0337296;0.033764;-0.00798339;0.0208737;0.235667;4.24327;0.025589;0.0278316;4.22928;0.236447;103.082;148.082;-0.00272982;-0.00797018;0.00442911;-0.00659924;0.0337208;0.00451055;0.0404953;0;0.0565972;7.99704;5.28036
465000;466;26.7615;0.997145;0.0387025;-2.34297;26.658;-0.204977;-0.186516;0.990315;-0.774334;-0.421877;-0.136643;-0.562719;0.716452;-7.42094;-0.00735158;0.00102017;0.0371304;0.0371538;-0.00737496;0.0222644;0.197993;5.05067;0.0275585;0.0296859;5.03783;0.198498;91.3975;136.398;-0.00579522;-0.00735113;0.00248577;-0.000382578;0.0371279;0.00532004;0.00372651;0;0.0452546;-0.609213;-1.11528;-1.35254;1.8559;-7.63456;-0.00811677;-0.00130498;0.0342024;0.0342426;-0.00815697;0.0211998;0.237316;4.21379;0.0259778;0.0282664;4.19796;0.238211;102.399;147.399;-0.00344392;-0.00813621;0.00395097;-0.00634582;0.0341957;0.00430714;0.0429247;0;0.0646154;7.99582;5.28791
466000;467;26.7695;1.0051;0.0390111;-2.34367;26.6658;-0.211512;-0.187217;0.998185;-0.780869;-0.422833;-0.134823;-0.561722;0.715888;-7.41995;-0.00732891;0.00114475;0.037294;0.0373234;-0.00735825;0.0223408;0.196517;5.08862;0.0276631;0.0297877;5.07231;0.197149;91.1289;136.129;-0.00614338;-0.00732827;0.00255784;-0.000207558;0.0372915;0.00476923;0.00331135;0;0.0328538;-0.610907;-1.12256;-1.35204;1.86047;-7.63405;-0.00856824;-0.00126748;0.0347504;0.0347874;-0.00860529;0.0216964;0.246565;4.05572;0.0265294;0.0289285;4.04256;0.247368;102.083;147.083;-0.00262303;-0.00858686;0.00388782;-0.00620694;0.0347438;0.0031329;0.0418394;0;0.0578151;8.00272;5.29547
467000;468;26.778;1.01366;0.0393435;-2.34572;26.6742;-0.2126;-0.189275;1.00659;-0.781957;-0.422095;-0.133703;-0.560995;0.714672;-7.41922;-0.00727241;0.00120677;0.038153;0.038185;-0.00730445;0.0227447;0.190612;5.24626;0.0282085;0.0303263;5.22764;0.191291;90.8794;135.879;-0.00621904;-0.00727168;0.00255289;-8.04493e-05;0.0381505;0.00562262;0.00244686;0;0.0286835;-0.611148;-1.12898;-1.35301;1.86514;-7.63502;-0.0086172;-0.0012895;0.0353416;0.0353794;-0.008655;0.0220172;0.243826;4.10128;0.0269387;0.0293562;4.08774;0.244634;101.509;146.509;-0.0023716;-0.00863468;0.00365759;-0.00602652;0.0353359;0.00466961;0.0423421;0;0.052728;8.00647;5.30194
468000;469;26.7889;1.02451;0.0397647;-2.34668;26.6851;-0.210093;-0.190228;1.01742;-0.779451;-0.423034;-0.131481;-0.559697;0.713797;-7.41792;-0.00735038;0.00133185;0.038305;0.0383438;-0.0073892;0.0228665;0.191891;5.21129;0.0283484;0.0304887;5.18916;0.192709;90.6633;135.663;-0.00666756;-0.00734949;0.00264343;7.79373e-05;0.0383024;0.00570477;0.00276896;0;0.0245043;-0.612665;-1.13565;-1.35071;1.86802;-7.63273;-0.00867146;-0.0013968;0.0356336;0.0356776;-0.00871546;0.0221965;0.243351;4.1093;0.0271604;0.0295954;4.0936;0.244284;102.373;147.373;-0.00222062;-0.00869225;0.00400684;-0.00656923;0.0356268;0.00516813;0.0454558;0;0.0518559;8.01203;5.30933
469000;470;26.7961;1.03178;0.0400466;-2.34691;26.6923;-0.213709;-0.190458;1.02467;-0.783066;-0.422966;-0.128515;-0.562859;0.715701;-7.42108;-0.00721681;0.00136969;0.0383508;0.0383919;-0.00725795;0.0228249;0.188179;5.31409;0.0283256;0.0304332;5.28964;0.189049;90.2972;135.297;-0.00606633;-0.00721591;0.00250986;0.000279549;0.0383486;0.00530553;0.0031976;0;0.0356658;-0.613189;-1.14153;-1.35466;1.87462;-7.63668;-0.00856836;-0.00130986;0.0357249;0.0357636;-0.00860706;0.0221853;0.239843;4.1694;0.0271697;0.0295805;4.15515;0.240665;102.725;147.725;-0.00400492;-0.00859063;0.00439693;-0.00677255;0.0357164;0.00389623;0.0476211;0;0.058365;8.01278;5.31633
470000;471;26.8046;1.04022;0.0403743;-2.34811;26.7007;-0.211098;-0.191658;1.03306;-0.780456;-0.422724;-0.127019;-0.563501;0.715795;-7.42172;-0.00731276;0.00134736;0.0392838;0.0393227;-0.00735169;0.0233372;0.186152;5.37195;0.0289783;0.0311163;5.3488;0.186958;90.5172;135.517;-0.00673048;-0.00731186;0.00260944;0.000141857;0.0392814;0.00615177;0.00210503;0;0.0314509;-0.61385;-1.14867;-1.35527;1.87962;-7.63728;-0.00862418;-0.00115734;0.0361285;0.0361584;-0.00865409;0.0224063;0.238708;4.18921;0.0274489;0.029875;4.17819;0.239338;102.695;147.695;-0.00363585;-0.00864677;0.00473113;-0.00679143;0.0361184;0.00356907;0.0466004;0;0.0561603;8.01749;5.32382
471000;472;26.8143;1.04997;0.0407528;-2.35001;26.7103;-0.210271;-0.193564;1.04269;-0.779628;-0.423346;-0.125018;-0.563031;0.715441;-7.42125;-0.00727238;0.0012869;0.0393707;0.0394062;-0.00730786;0.023357;0.184716;5.41373;0.0290152;0.0311427;5.3923;0.18545;90.6237;135.624;-0.00664235;-0.00727155;0.00257219;5.92941e-05;0.0393683;0.00611031;0.00307965;0;0.0267004;-0.615379;-1.1548;-1.35654;1.8848;-7.63856;-0.00856675;-0.0011722;0.0363342;0.0363647;-0.00859733;0.022481;0.235777;4.2413;0.0275596;0.0299747;4.22977;0.236419;103.051;148.051;-0.00470795;-0.00859115;0.00497633;-0.00705429;0.0363229;0.00572256;0.0462661;0;0.0542199;8.0213;5.33049
472000;473;26.8242;1.05987;0.0411371;-2.35012;26.7203;-0.210443;-0.193666;1.05261;-0.7798;-0.423375;-0.122883;-0.566448;0.717781;-7.42467;-0.00737318;0.00114061;0.0392257;0.0392536;-0.00740108;0.0233273;0.187968;5.32005;0.0289531;0.0311031;5.30376;0.188545;90.577;135.577;-0.00696202;-0.00737252;0.0022854;4.71516e-05;0.0392238;0.00733463;0.00309066;0;0.0282751;-0.616292;-1.16122;-1.36;1.89152;-7.64201;-0.00853437;-0.00122495;0.0364404;0.0364737;-0.00856771;0.0225207;0.234201;4.26984;0.0276183;0.0300276;4.25711;0.234901;102.7;147.7;-0.00368282;-0.00855762;0.00470792;-0.00690033;0.0364304;0.00516492;0.0452479;0;0.0569929;8.02072;5.33618
473000;474;26.833;1.06858;0.0414752;-2.3518;26.7289;-0.211015;-0.195347;1.06121;-0.780373;-0.422712;-0.121356;-0.566795;0.717404;-7.42502;-0.00749832;0.00114368;0.0398008;0.0398284;-0.00752596;0.0236772;0.188396;5.30796;0.029384;0.0315696;5.29214;0.18896;90.7427;135.743;-0.00700697;-0.00749766;0.00239293;-4.87411e-05;0.0397986;0.00662436;0.00270972;0;0.0349856;-0.617002;-1.16819;-1.36033;1.89628;-7.64235;-0.00877302;-0.00136991;0.0372376;0.0372784;-0.00881377;0.0230461;0.235596;4.24456;0.0282522;0.0307281;4.22956;0.236431;102.777;147.777;-0.0032021;-0.00879764;0.00464544;-0.00711839;0.0372281;0.00313042;0.044208;0;0.0591332;8.02172;5.3386
474000;475;26.8403;1.07591;0.0417594;-2.35192;26.7362;-0.212253;-0.195473;1.06854;-0.78161;-0.423797;-0.118187;-0.566578;0.717345;-7.4248;-0.00744228;0.0012967;0.0392841;0.03932;-0.00747823;0.0233991;0.189448;5.2785;0.029029;0.0311988;5.25793;0.190189;90.6445;135.644;-0.00656874;-0.00744143;0.00258902;6.24726e-05;0.0392817;0.00583376;0.00416201;0;0.0335168;-0.618682;-1.17301;-1.36145;1.9006;-7.64347;-0.00911735;-0.0016292;0.0378138;0.0378703;-0.00917384;0.0235221;0.241111;4.14746;0.0287961;0.0313628;4.12808;0.242243;102.794;147.794;-0.00315709;-0.00914267;0.00427825;-0.00726946;0.0378063;0.00324148;0.0450514;0;0.059792;8.02853;5.34581
475000;476;26.8484;1.08402;0.0420743;-2.35287;26.7442;-0.214423;-0.196423;1.07658;-0.78378;-0.42184;-0.118635;-0.561851;0.712531;-7.42007;-0.00753468;0.00111453;0.0401301;0.0401562;-0.00756073;0.0238585;0.187756;5.32606;0.0296145;0.0318113;5.31116;0.188283;91.1584;136.158;-0.00708868;-0.0075341;0.002596;-0.000299064;0.0401275;0.00634914;0.00424372;0;0.0271975;-0.617374;-1.18123;-1.35963;1.90396;-7.64164;-0.00933911;-0.00161966;0.0382919;0.0383469;-0.00939412;0.0238705;0.243892;4.10017;0.029204;0.0318274;4.08201;0.244977;102.236;147.236;-0.00240073;-0.00936259;0.00403031;-0.00701041;0.0382853;0.00556709;0.0466863;0;0.0561945;8.03332;5.3534
476000;477;26.8576;1.09325;0.0424325;-2.35521;26.7533;-0.215207;-0.198762;1.08563;-0.784565;-0.422064;-0.115075;-0.567364;0.716437;-7.42559;-0.00759073;0.0010017;0.0399094;0.0399305;-0.00761185;0.0237712;0.190199;5.25764;0.0294869;0.0316949;5.24583;0.190628;91.3332;136.333;-0.00748087;-0.00759032;0.00249609;-0.000424424;0.0399068;0.00701077;0.00347704;0;0.0275988;-0.618736;-1.18576;-1.36626;1.91195;-7.64828;-0.00940768;-0.00152551;0.0382798;0.0383286;-0.00945644;0.0238925;0.245761;4.069;0.0292192;0.0318567;4.05318;0.24672;102.706;147.706;-0.0024695;-0.00943295;0.00446136;-0.00723735;0.0382714;0.00627319;0.0477358;0;0.0561359;8.0359;5.36016
477000;478;26.8653;1.1009;0.0427296;-2.35516;26.7609;-0.221399;-0.198709;1.09327;-0.790757;-0.422674;-0.114595;-0.562518;0.712889;-7.42074;-0.00767062;0.00114349;0.0404129;0.04044;-0.0076978;0.0240689;0.189806;5.26853;0.0298586;0.0320919;5.25346;0.190351;91.1432;136.143;-0.00684048;-0.00767;0.00263659;-0.000280611;0.0404101;0.00605335;0.00318601;0;0.0263155;-0.619715;-1.19221;-1.36404;1.91469;-7.64606;-0.00936608;-0.00144786;0.0385312;0.038575;-0.0094098;0.0239924;0.243078;4.11391;0.0293603;0.0319898;4.09944;0.243936;102.57;147.57;-0.00221119;-0.00939117;0.00457989;-0.00719755;0.0385221;0.00745325;0.0477334;0;0.0571549;8.03905;5.36752
478000;479;26.8742;1.1098;0.043075;-2.35566;26.7698;-0.221535;-0.199215;1.10216;-0.790892;-0.422203;-0.109556;-0.571815;0.719188;-7.43004;-0.00768072;0.00113319;0.0405367;0.0405633;-0.00770734;0.0241353;0.189476;5.27771;0.0299438;0.0321804;5.26294;0.190008;91.2678;136.268;-0.0070152;-0.00768014;0.00269703;-0.000358185;0.0405338;0.00570251;0.00374069;0;0.037593;-0.620299;-1.19761;-1.37082;1.92307;-7.65284;-0.00930802;-0.00125855;0.0383049;0.0383382;-0.00934127;0.0238397;0.242998;4.11526;0.0291753;0.0317863;4.10417;0.243655;102.68;147.68;-0.0014677;-0.00933315;0.00493349;-0.0071666;0.038294;0.00626966;0.0482145;0;0.0601759;8.04106;5.37492
479000;480;26.8812;1.11681;0.0433471;-2.35636;26.7768;-0.220937;-0.199915;1.10914;-0.790294;-0.421966;-0.108926;-0.56872;0.716493;-7.42694;-0.00764411;0.000990366;0.0408438;0.0408641;-0.00766433;0.0242642;0.187155;5.34318;0.0301242;0.0323523;5.33172;0.187557;91.5777;136.578;-0.00705358;-0.00764379;0.00265253;-0.00059437;0.0408409;0.00544057;0.00358958;0;0.0319362;-0.620844;-1.20484;-1.36907;1.92651;-7.65108;-0.00920919;-0.00114521;0.0385505;0.038578;-0.00923663;0.0239073;0.238886;4.1861;0.0292871;0.0318764;4.17663;0.239428;102.508;147.508;-0.00290271;-0.009234;0.00510208;-0.00710517;0.0385386;0.00636696;0.048115;0;0.0599776;8.04281;5.38248
480000;481;26.8886;1.12428;0.043637;-2.35793;26.7842;-0.220252;-0.201484;1.11651;-0.789609;-0.423225;-0.107327;-0.569707;0.717777;-7.42793;-0.00774834;0.000979677;0.0415197;0.0415392;-0.00776781;0.0246535;0.186618;5.35853;0.0306123;0.0328713;5.3476;0.187;91.5676;136.568;-0.0070861;-0.00774804;0.00264615;-0.000607969;0.0415168;0.00550165;0.0030834;0;0.0369167;-0.623069;-1.21118;-1.37096;1.93254;-7.65297;-0.00932944;-0.00102618;0.0390427;0.0390645;-0.0093512;0.0242079;0.238955;4.1849;0.0296557;0.0322771;4.17748;0.239378;102.429;147.429;-0.0030092;-0.00935441;0.00535324;-0.00710857;0.0390295;0.00386524;0.0471915;0;0.0619132;8.049;5.38981
481000;482;26.8972;1.13284;0.0439692;-2.35634;26.7929;-0.220941;-0.199892;1.12523;-0.790299;-0.422327;-0.10401;-0.576305;0.722015;-7.43453;-0.00783267;0.000772482;0.0419097;0.0419217;-0.00784466;0.0248832;0.186894;5.35063;0.0308965;0.0331776;5.34398;0.187126;91.9428;136.943;-0.00694692;-0.00783278;0.00253349;-0.000904457;0.0419069;0.00531483;0.00336086;0;0.0386013;-0.622347;-1.21639;-1.37864;1.94102;-7.66066;-0.00933295;-0.00129397;0.0395679;0.0396022;-0.00936717;0.0244847;0.235872;4.2396;0.0300151;0.0326462;4.22776;0.236532;102.437;147.437;-0.0034166;-0.00935904;0.00501372;-0.0073049;0.0395567;0.00217406;0.044685;0;0.0610989;8.04922;5.39752
482000;483;26.9066;1.14225;0.0443346;-2.35877;26.8021;-0.21979;-0.202317;1.13448;-0.789148;-0.422949;-0.102559;-0.572564;0.71919;-7.43079;-0.00745399;0.000668175;0.0415762;0.0415854;-0.0074631;0.0245242;0.179285;5.57771;0.030517;0.032699;5.57213;0.179465;91.6974;136.697;-0.00675812;-0.00745409;0.00220923;-0.000800338;0.0415741;0.00543647;0.00412358;0;0.0362399;-0.624095;-1.22342;-1.37598;1.94412;-7.658;-0.00965438;-0.00155014;0.0405988;0.0406466;-0.00970215;0.0251744;0.2378;4.20522;0.0308447;0.0335658;4.18944;0.238695;102.321;147.321;-0.00369311;-0.00968136;0.00467361;-0.00747328;0.0405894;0.00430847;0.0456438;0;0.0625932;8.05754;5.40526
483000;484;26.9133;1.14894;0.0445941;-2.35979;26.8087;-0.225913;-0.203336;1.14105;-0.795271;-0.422784;-0.101393;-0.572033;0.718504;-7.43026;-0.00758435;0.000573484;0.0423386;0.0423452;-0.00759094;0.0249681;0.179136;5.58236;0.0310711;0.0332908;5.57839;0.179263;91.9144;136.914;-0.00655441;-0.00758467;0.00220445;-0.00097937;0.0423365;0.0043198;0.00378798;0;0.033845;-0.624737;-1.23067;-1.37759;1.95002;-7.65961;-0.0100089;-0.00166408;0.0411326;0.0411867;-0.010063;0.0256249;0.243333;4.1096;0.0313551;0.0341665;4.09289;0.244326;102.483;147.483;-0.00206904;-0.0100371;0.0046414;-0.00765978;0.0411236;0.0036044;0.0433354;0;0.0629801;8.06085;5.41258
484000;485;26.9225;1.15813;0.0449506;-2.3611;26.8178;-0.230787;-0.204654;1.15012;-0.800145;-0.422116;-0.0987085;-0.573946;0.719263;-7.43217;-0.00753509;0.000742239;0.0427191;0.04273;-0.00754605;0.025138;0.176387;5.66935;0.0313067;0.0335174;5.66257;0.176598;91.4563;136.456;-0.00637963;-0.00753504;0.00221968;-0.000664;0.042717;0.00464216;0.00297887;0;0.0307191;-0.625227;-1.23752;-1.37995;1.95618;-7.66197;-0.0100322;-0.0017027;0.0412654;0.0413218;-0.0100886;0.0257052;0.243114;4.1133;0.0314548;0.0342736;4.09588;0.244148;102.207;147.207;-0.00179733;-0.0100593;0.0044214;-0.00752505;0.0412574;0.00604982;0.0456597;0;0.0614158;8.06073;5.4188
485000;486;26.9313;1.16689;0.045291;-2.36208;26.8265;-0.228502;-0.205631;1.15885;-0.797859;-0.423455;-0.0948682;-0.577618;0.722465;-7.43584;-0.00748374;0.0010344;0.0435002;0.0435212;-0.00750472;0.025513;0.172039;5.81263;0.0318122;0.0340173;5.79918;0.172438;91.1479;136.148;-0.00609527;-0.00748329;0.00255285;-0.000409854;0.0434976;0.00361898;0.00209079;0;0.0314462;-0.627459;-1.24163;-1.3843;1.96256;-7.66632;-0.0100858;-0.0017151;0.0415068;0.0415638;-0.0101428;0.0258533;0.242992;4.11536;0.0316368;0.034471;4.09787;0.244029;102.551;147.551;-0.00244134;-0.010115;0.00467146;-0.00778523;0.0414977;0.00703431;0.0472393;0;0.0597663;8.06248;5.42168
486000;487;26.9417;1.17732;0.0456957;-2.3634;26.8369;-0.224435;-0.206953;1.16924;-0.793793;-0.423292;-0.0912299;-0.581689;0.725163;-7.43991;-0.00767567;0.0011224;0.043521;0.0435456;-0.00770027;0.0256229;0.176367;5.66999;0.0319084;0.0341639;5.65507;0.176832;91.0951;136.095;-0.00573094;-0.00767509;0.00266038;-0.000340124;0.0435182;0.00237033;0.00227535;0;0.03542;-0.628022;-1.24666;-1.38933;1.96947;-7.67134;-0.0101344;-0.0017702;0.0415519;0.0416125;-0.0101949;0.0259037;0.243896;4.10011;0.0316914;0.0345383;4.08169;0.244996;102.814;147.814;-0.00239306;-0.0101648;0.0047524;-0.00796905;0.0415426;0.00600476;0.0475487;0;0.0602145;8.06084;5.42699
487000;488;26.9458;1.18142;0.0458549;-2.36401;26.8409;-0.228741;-0.207562;1.17327;-0.798098;-0.422947;-0.0897363;-0.578538;0.722249;-7.43676;-0.00768967;0.00097502;0.0441631;0.0441814;-0.007708;0.0259447;0.17412;5.74317;0.0323314;0.034593;5.73189;0.174462;91.0252;136.025;-0.00571136;-0.00768926;0.00237485;-0.000355294;0.0441609;0.00314348;0.00086836;0;0.0360084;-0.628718;-1.25273;-1.38802;1.97262;-7.67003;-0.0100665;-0.00150149;0.0413494;0.0413932;-0.0101104;0.0257518;0.243451;4.10761;0.031511;0.0343357;4.09414;0.244251;102.401;147.401;-0.00214812;-0.0100945;0.00490898;-0.0075954;0.0413389;0.00729881;0.0490055;0;0.0700856;8.0641;5.43353
488000;489;26.9547;1.19037;0.0462021;-2.36403;26.8499;-0.226663;-0.207582;1.18226;-0.796021;-0.422607;-0.0893482;-0.575922;0.719907;-7.43415;-0.00775043;0.000950725;0.0445934;0.0446107;-0.00776769;0.0261892;0.173802;5.75367;0.0326393;0.0349189;5.74311;0.174122;90.8839;135.884;-0.00506471;-0.00775002;0.00224515;-0.000278837;0.0445914;0.00305591;0.00213782;0;0.0302409;-0.62889;-1.26085;-1.38517;1.97584;-7.66736;-0.00981957;-0.00103134;0.0415988;0.0416195;-0.00984025;0.0257299;0.236054;4.23632;0.0315423;0.0343065;4.22952;0.236434;102.189;147.189;-0.00134717;-0.00984686;0.00569186;-0.0074226;0.0415838;0.0114635;0.0461459;0;0.0655535;8.06789;5.44135
489000;490;26.9626;1.19825;0.0465082;-2.3646;26.8578;-0.228916;-0.20815;1.19011;-0.798273;-0.42269;-0.0863652;-0.579835;0.722727;-7.43806;-0.00770843;0.000828838;0.0448977;0.0449107;-0.00772148;0.0263161;0.171689;5.82449;0.0328185;0.0350881;5.81634;0.17193;90.8483;135.848;-0.00564133;-0.00770813;0.00201772;-0.000300193;0.0448961;0.00368289;0.00221984;0;0.0309014;-0.629773;-1.26597;-1.38915;1.98217;-7.67116;-0.0100104;-0.00126855;0.0421347;0.0421655;-0.0100412;0.0261034;0.237581;4.20909;0.0319872;0.0348045;4.19923;0.238139;101.975;146.975;-0.00250417;-0.0100375;0.00522001;-0.00743239;0.0421224;0.00231265;0.0500598;0;0.0659186;8.0699;5.44779
490000;491;26.9709;1.20657;0.0468311;-2.36482;26.8661;-0.229766;-0.208369;1.19844;-0.799124;-0.423816;-0.0842549;-0.580996;0.724069;-7.43922;-0.00773678;0.00123327;0.0452908;0.0453195;-0.00776545;0.0265425;0.170824;5.85396;0.0331065;0.03539;5.83604;0.171349;90.5109;135.511;-0.00525138;-0.00773602;0.00249736;3.32931e-05;0.0452886;0.00314055;0.00226392;0;0.0310392;-0.631453;-1.27233;-1.38964;1.98712;-7.67165;-0.0103065;-0.00144889;0.0428913;0.0429307;-0.010346;0.0266383;0.240294;4.16157;0.0326207;0.0355178;4.14952;0.240992;101.925;146.925;-0.00330204;-0.0103343;0.00499024;-0.00755951;0.0428804;0.00175595;0.0493234;0;0.0660151;8.07913;5.45541
491000;492;26.9821;1.21775;0.047265;-2.36626;26.8772;-0.227428;-0.209808;1.20955;-0.796786;-0.423514;-0.0790343;-0.587009;0.728142;-7.44523;-0.00779407;0.00144687;0.0455924;0.0456315;-0.00783326;0.0267324;0.170951;5.84962;0.0333403;0.0356432;5.82536;0.171663;89.9639;134.964;-0.00537276;-0.00779312;0.00249306;0.000454101;0.0455904;0.00310159;-0.000263948;0;0.03267;-0.632834;-1.27754;-1.39768;1.99652;-7.67969;-0.0104051;-0.00171903;0.0439714;0.0440257;-0.0104594;0.0272425;0.236633;4.22596;0.0333876;0.0363234;4.20921;0.237574;101.956;146.956;-0.00372419;-0.0104349;0.00476797;-0.00786808;0.0439619;0.0028215;0.0500834;0;0.0667718;8.08464;5.46283
492000;493;26.9883;1.22388;0.047503;-2.36769;26.8832;-0.232136;-0.211238;1.21554;-0.801494;-0.424028;-0.0809518;-0.579002;0.722216;-7.43723;-0.00772122;0.00129236;0.0460221;0.0460532;-0.00775227;0.0269027;0.167772;5.96048;0.0335858;0.0358703;5.9406;0.168333;90.1016;135.102;-0.00531927;-0.00772042;0.00232703;0.00031084;0.0460203;0.00239854;0.000682269;0;0.0299556;-0.633441;-1.2858;-1.39158;1.99775;-7.67359;-0.0105853;-0.00190934;0.0443573;0.0444235;-0.0106515;0.0275375;0.238637;4.19047;0.0337315;0.0367167;4.17062;0.239772;101.992;146.992;-0.00356868;-0.0106158;0.00451964;-0.00800003;0.0443492;0.00411322;0.0475253;0;0.0658008;8.08124;5.47093
493000;494;27.0007;1.23632;0.0479856;-2.37013;26.8955;-0.223315;-0.213684;1.22788;-0.792673;-0.423357;-0.077551;-0.582119;0.723953;-7.44034;-0.00779827;0.00164219;0.0466091;0.0466586;-0.00784779;0.0272532;0.167312;5.97684;0.0340247;0.0363376;5.94544;0.168196;89.5568;134.557;-0.00552986;-0.00779722;0.00255315;0.000778587;0.0466072;0.00327428;-0.00213997;0;0.0314021;-0.634474;-1.29241;-1.39221;2.00278;-7.67423;-0.0106477;-0.00200971;0.0444923;0.0445655;-0.0107209;0.0276432;0.239315;4.17859;0.0338546;0.0368576;4.1569;0.240564;102.32;147.32;-0.00408779;-0.0106802;0.00459629;-0.0082669;0.0444842;0.00786743;0.0487739;0;0.0652851;8.08534;5.47729
494000;495;27.0087;1.24428;0.0482946;-2.36984;26.9035;-0.230385;-0.213388;1.23584;-0.799743;-0.424121;-0.0720031;-0.591604;0.731477;-7.44983;-0.00795741;0.00164305;0.0472152;0.0472641;-0.0080063;0.0276352;0.168535;5.93349;0.0344893;0.0368469;5.90337;0.169395;89.598;134.598;-0.0052427;-0.00795634;0.00257813;0.000757224;0.0472133;0.0036836;-0.000481023;0;0.0323681;-0.635262;-1.29511;-1.40523;2.01383;-7.68724;-0.0107413;-0.00198106;0.0444222;0.0444933;-0.0108123;0.0276528;0.241799;4.13566;0.0338469;0.0368704;4.11505;0.24301;102.415;147.415;-0.00328146;-0.010774;0.00468079;-0.00829097;0.0444136;0.00653441;0.0513783;0;0.0675649;8.08531;5.48385
495000;496;27.0173;1.25289;0.0486289;-2.37101;26.912;-0.232628;-0.214561;1.24437;-0.801986;-0.423887;-0.0697681;-0.591095;0.730713;-7.44932;-0.00799085;0.00175889;0.0476937;0.0477492;-0.00804635;0.0278978;0.167545;5.96854;0.0348262;0.037197;5.93427;0.168513;89.2085;134.208;-0.00487408;-0.00798985;0.00249672;0.00106026;0.0476922;0.00369287;-0.00107511;0;0.0319514;-0.63566;-1.30079;-1.406;2.01816;-7.68802;-0.0107538;-0.00200839;0.0442789;0.0443521;-0.010827;0.0275895;0.242864;4.11752;0.0337608;0.036786;4.09645;0.244114;102.759;147.759;-0.00306352;-0.0107882;0.00484036;-0.00849613;0.0442696;0.00540935;0.0524223;0;0.0660185;8.08698;5.48565
496000;497;27.0262;1.26186;0.048977;-2.37109;26.9211;-0.226548;-0.214638;1.25342;-0.795906;-0.42449;-0.0686362;-0.588978;0.729245;-7.4472;-0.00796444;0.00193306;0.0484418;0.048508;-0.00803061;0.0282693;0.164412;6.08227;0.0353212;0.0376924;6.04039;0.165552;88.9884;133.988;-0.00531937;-0.00796337;0.00263612;0.00126784;0.0484403;0.00516269;-0.00224787;0;0.0337965;-0.636981;-1.30817;-1.40312;2.02134;-7.68514;-0.0104761;-0.00203142;0.0444323;0.0445073;-0.0105512;0.0275293;0.235777;4.24129;0.033743;0.0367057;4.21824;0.237066;102.686;147.686;-0.00435565;-0.0105108;0.00483439;-0.00853619;0.0444231;0.00839881;0.0553223;0;0.067693;8.09325;5.49258
497000;498;27.0369;1.2725;0.0493899;-2.37287;26.9316;-0.224614;-0.21642;1.26395;-0.793972;-0.423918;-0.064859;-0.591464;0.730577;-7.44969;-0.00799316;0.00183779;0.048686;0.0487455;-0.00805269;0.0283991;0.164178;6.09096;0.0354871;0.0378655;6.05332;0.165199;89.0704;134.07;-0.00554333;-0.00799217;0.0025274;0.00118545;0.0486846;0.00538751;-0.00122933;0;0.0361129;-0.637435;-1.31363;-1.40684;2.0276;-7.68886;-0.0107054;-0.0015529;0.0446173;0.0446609;-0.0107489;0.0277049;0.239938;4.16774;0.0339293;0.0369399;4.15491;0.240679;101.859;146.859;-0.00269677;-0.0107352;0.00507894;-0.00783345;0.0446061;0.00657824;0.0549702;0;0.066838;8.09673;5.49979
498000;499;27.0463;1.28196;0.049757;-2.37359;26.941;-0.223548;-0.217145;1.27339;-0.792906;-0.42436;-0.0614087;-0.595942;0.734165;-7.45417;-0.00821311;0.00224482;0.0494029;0.0494903;-0.00830044;0.0288953;0.166247;6.01513;0.03608;0.0385271;5.96237;0.167719;88.81;133.81;-0.00563985;-0.00821171;0.00302813;0.00150451;0.049401;0.00463628;-0.00149049;0;0.0327595;-0.638697;-1.31983;-1.41026;2.03439;-7.69228;-0.0106863;-0.00164542;0.0450742;0.0451227;-0.0107348;0.0279288;0.237083;4.21794;0.0342259;0.0372384;4.2034;0.237903;101.806;146.806;-0.00329662;-0.0107167;0.00498574;-0.0079227;0.0450636;0.00475795;0.0532888;0;0.0711217;8.09765;5.50696
499000;500;27.055;1.29067;0.0500953;-2.37385;26.9498;-0.224521;-0.217397;1.28211;-0.793879;-0.423755;-0.0605245;-0.590864;0.729624;-7.44909;-0.00818028;0.00182029;0.0492438;0.0493014;-0.00823792;0.0287697;0.166118;6.01982;0.0359298;0.0383596;5.98469;0.167093;89.1079;134.108;-0.00595572;-0.00817929;0.00251362;0.0011649;0.0492423;0.00598044;-0.00103546;0;0.0362135;-0.638738;-1.32686;-1.40772;2.03721;-7.68974;-0.0107211;-0.00176535;0.0463271;0.0463817;-0.0107757;0.0285787;0.231423;4.3211;0.0350693;0.0381049;4.30428;0.232327;101.919;146.919;-0.004739;-0.0107543;0.00513211;-0.00828667;0.046316;0.00192019;0.0529332;0;0.0681669;8.10114;5.51452
500000;501;27.0638;1.29942;0.0504348;-2.37515;26.9584;-0.226565;-0.218697;1.29076;-0.795922;-0.423792;-0.0593503;-0.588468;0.727611;-7.44669;-0.00825561;0.00181879;0.0496631;0.0497202;-0.00831267;0.0290164;0.166232;6.01568;0.0362369;0.0386886;5.98125;0.167189;89.124;134.124;-0.00577913;-0.00825462;0.00251761;0.00115852;0.0496617;0.00699018;-0.000588462;0;0.0309678;-0.639845;-1.33335;-1.40629;2.0408;-7.68831;-0.0109847;-0.00198108;0.0471327;0.0472002;-0.0110521;0.0291261;0.233059;4.29077;0.0357253;0.0388349;4.27068;0.234155;101.945;146.945;-0.00562628;-0.0110192;0.00491222;-0.00849171;0.0471231;0.00391314;0.053567;0;0.0665861;8.1003;5.52189
501000;502;27.0746;1.31019;0.0508526;-2.37778;26.969;-0.228002;-0.221331;1.30133;-0.79736;-0.423308;-0.0562583;-0.590384;0.728634;-7.44861;-0.00830891;0.00174738;0.0497311;0.0497837;-0.00836147;0.0290726;0.167077;5.98528;0.0362987;0.0387634;5.95394;0.167956;89.1532;134.153;-0.0059168;-0.008308;0.0024125;0.00111904;0.0497298;0.00742058;0.000370642;0;0.0316384;-0.640248;-1.33887;-1.41101;2.04779;-7.69302;-0.011143;-0.00202979;0.0472807;0.0473512;-0.0112135;0.0292823;0.235678;4.24308;0.0358939;0.0390431;4.2227;0.236815;101.918;146.918;-0.00518021;-0.0111774;0.00481355;-0.00849128;0.0472716;0.00484957;0.0534349;0;0.0677459;8.1134;5.52924
502000;503;27.0858;1.32141;0.0512885;-2.38;26.98;-0.232352;-0.223549;1.31237;-0.801709;-0.423535;-0.0521556;-0.592936;0.73053;-7.45116;-0.0084133;0.00208654;0.0499268;0.0500013;-0.00848783;0.0292446;0.168513;5.93428;0.036494;0.0389928;5.89095;0.169752;88.7955;133.795;-0.00625052;-0.00841221;0.00272661;0.00148203;0.0499253;0.00786048;-0.000492837;0;0.0431605;-0.641402;-1.34437;-1.41446;2.05412;-7.69647;-0.011256;-0.00226445;0.0476224;0.0477094;-0.011343;0.0295262;0.23636;4.23083;0.0361848;0.0393682;4.20606;0.237752;102.059;147.059;-0.00498077;-0.0112919;0.00457155;-0.00871615;0.0476149;0.00624973;0.0542937;0;0.0735664;8.11179;5.53593
503000;504;27.095;1.33061;0.0516455;-2.38111;26.9891;-0.237916;-0.224659;1.32145;-0.807274;-0.424148;-0.0497812;-0.596125;0.733311;-7.45435;-0.00844816;0.00200204;0.0500018;0.0500703;-0.00851665;0.0292935;0.168957;5.91867;0.0365514;0.039058;5.87911;0.170094;88.7983;133.798;-0.00556655;-0.00844721;0.00257917;0.00145703;0.0500006;0.00643086;0.00126951;0;0.048398;-0.643036;-1.3513;-1.4167;2.06072;-7.69872;-0.0112538;-0.00234764;0.0474144;0.0475082;-0.0113476;0.0294279;0.237351;4.21317;0.0360549;0.0392372;4.18661;0.238857;102.326;147.326;-0.00357686;-0.011291;0.00458243;-0.00888945;0.047407;0.00754051;0.0527965;0;0.0730996;8.11195;5.54357
504000;505;27.1036;1.33928;0.0519818;-2.38165;26.9978;-0.23538;-0.225196;1.33013;-0.804737;-0.424467;-0.0441884;-0.602988;0.738729;-7.46121;-0.00881882;0.00205433;0.0500246;0.0500962;-0.00889045;0.0294933;0.17629;5.67248;0.0367215;0.0393245;5.63484;0.177467;88.9725;133.973;-0.00583114;-0.00881762;0.00278681;0.0013629;0.0500229;0.00741166;0.000620058;0;0.040643;-0.644189;-1.35455;-1.42429;2.06843;-7.7063;-0.0113912;-0.00230174;0.047446;0.0475359;-0.0114811;0.0295085;0.240088;4.16514;0.0361309;0.0393447;4.14036;0.241525;102.529;147.529;-0.00489638;-0.0114295;0.00479909;-0.00900361;0.0474375;0.0083274;0.0539714;0;0.0720597;8.1084;5.5506
505000;506;27.1106;1.34624;0.052252;-2.38211;27.0047;-0.238264;-0.225658;1.33705;-0.807621;-0.424372;-0.0432726;-0.600994;0.736993;-7.45922;-0.00883131;0.00244385;0.0503831;0.0504838;-0.008932;0.0297079;0.175283;5.70506;0.0369944;0.0396105;5.65202;0.176928;88.5992;133.599;-0.00565471;-0.00882985;0.00317431;0.00175456;0.0503812;0.0059309;0.000322139;0;0.0352737;-0.644938;-1.3615;-1.42247;2.07197;-7.70449;-0.0113866;-0.00208543;0.0473435;0.0474175;-0.0114606;0.029439;0.240511;4.15781;0.0360444;0.0392521;4.13744;0.241696;102.141;147.141;-0.00340217;-0.0114222;0.00485871;-0.00864008;0.0473343;0.00659555;0.0567217;0;0.0709728;8.11043;5.55575
506000;507;27.117;1.35267;0.0525015;-2.38253;27.0111;-0.236507;-0.226081;1.34348;-0.805865;-0.425037;-0.0403524;-0.601846;0.737905;-7.46007;-0.00898483;0.00239777;0.0502625;0.0503594;-0.00908172;0.0297206;0.178758;5.59415;0.0369739;0.0396274;5.54514;0.180338;88.6941;133.694;-0.00527688;-0.00898335;0.00316068;0.0016779;0.0502605;0.00513607;-9.15748e-05;0;0.0310785;-0.646062;-1.36803;-1.42259;2.0767;-7.70461;-0.0115691;-0.00174346;0.0475633;0.0476147;-0.0116205;0.0296176;0.243236;4.11123;0.036243;0.0394901;4.09748;0.244053;101.388;146.388;-0.00168756;-0.0116001;0.00490389;-0.0080155;0.0475533;0.00550044;0.0574334;0;0.069775;8.11584;5.55959
507000;508;27.1246;1.36028;0.0527969;-2.38346;27.0187;-0.237447;-0.227013;1.35103;-0.806804;-0.424948;-0.0374454;-0.607778;0.742547;-7.466;-0.00928358;0.00260107;0.0505112;0.0506241;-0.00939652;0.0300103;0.183793;5.44091;0.0372784;0.0400138;5.38754;0.185613;88.5428;133.543;-0.0054051;-0.00928193;0.00337919;0.00186724;0.050509;0.00552763;0.000468341;0;0.0440146;-0.646622;-1.37364;-1.42983;2.08552;-7.71184;-0.0116606;-0.00176926;0.04839;0.0484421;-0.0117127;0.0300774;0.240972;4.14986;0.0368252;0.0401032;4.13585;0.241788;101.233;146.233;-0.00294785;-0.0116919;0.00490281;-0.00805909;0.04838;0.00220255;0.054744;0;0.072089;8.12304;5.5667
508000;509;27.1334;1.36901;0.0531359;-2.38239;27.0275;-0.239999;-0.225938;1.35987;-0.809357;-0.425189;-0.0345108;-0.609203;0.74371;-7.46743;-0.00939489;0.0025602;0.0511565;0.0512646;-0.00950295;0.0303838;0.18365;5.44514;0.0377449;0.0405117;5.39459;0.185371;88.7115;133.711;-0.00508323;-0.00939312;0.00342509;0.00174513;0.051154;0.00385019;0.000732313;0;0.0477564;-0.647432;-1.37995;-1.43111;2.09081;-7.71312;-0.0117166;-0.00194032;0.0495832;0.0496445;-0.011778;0.0307112;0.236302;4.23187;0.0376416;0.0409483;4.21504;0.237246;101.314;146.314;-0.00348946;-0.0117503;0.00491211;-0.00839247;0.0495735;0.000617995;0.0553305;0;0.0728463;8.12309;5.57281
509000;510;27.141;1.37665;0.0534323;-2.38299;27.0351;-0.239019;-0.226541;1.36749;-0.808377;-0.425138;-0.0323787;-0.609845;0.744111;-7.46807;-0.00943287;0.00253626;0.0513737;0.0514793;-0.00953847;0.0305089;0.183613;5.44624;0.0379012;0.0406785;5.39702;0.185288;88.7174;133.717;-0.00506689;-0.00943114;0.00338456;0.00173701;0.0513713;0.00461408;0.00141818;0;0.0470395;-0.6483;-1.38568;-1.43389;2.09677;-7.7159;-0.0118647;-0.00211955;0.0505382;0.0506101;-0.0119366;0.0312733;0.234767;4.25954;0.0383433;0.0416978;4.2399;0.235855;101.128;146.128;-0.00506068;-0.0118988;0.00463367;-0.00847155;0.0505301;0.00151139;0.0552497;0;0.0665787;8.12508;5.58009
510000;511;27.1505;1.38613;0.0538003;-2.38357;27.0446;-0.237014;-0.227125;1.37698;-0.806371;-0.424837;-0.0298088;-0.609462;0.743518;-7.46769;-0.00954077;0.00248886;0.0523168;0.0524168;-0.00964075;0.0310288;0.182365;5.48349;0.0385619;0.0413717;5.437;0.183925;89.0246;134.025;-0.00491562;-0.0095388;0.00353057;0.00150838;0.0523138;0.00305908;9.10488e-05;0;0.0412553;-0.649056;-1.39176;-1.43328;2.10061;-7.71529;-0.0116894;-0.00230424;0.0509071;0.0509918;-0.0117741;0.031383;0.229623;4.35497;0.0385237;0.0418439;4.33084;0.230902;101.477;146.477;-0.00560638;-0.0117267;0.00469661;-0.00888798;0.0508991;0.0026821;0.0524272;0;0.0666111;8.1267;5.58766
511000;512;27.1583;1.39395;0.0541037;-2.38429;27.0524;-0.242799;-0.227845;1.38471;-0.812157;-0.424768;-0.028413;-0.608183;0.742376;-7.46641;-0.00956743;0.00251522;0.0527276;0.052829;-0.00966882;0.0312489;0.18145;5.51116;0.0388455;0.0416652;5.46385;0.183021;89.0313;134.031;-0.00534853;-0.0095654;0.00357841;0.00151495;0.0527246;0.0038381;0.000510156;0;0.0446154;-0.649458;-1.39899;-1.43202;2.10467;-7.71403;-0.0116186;-0.00247443;0.0506244;0.0507226;-0.0117168;0.0312197;0.229505;4.3572;0.0383224;0.0416263;4.32906;0.230997;102.165;147.165;-0.00573552;-0.0116603;0.00490581;-0.00941731;0.0506159;0.00307959;0.0545302;0;0.0700575;8.12913;5.59444
512000;513;27.1667;1.40231;0.0544281;-2.38564;27.0606;-0.24228;-0.229194;1.39299;-0.811637;-0.424452;-0.0237918;-0.614553;0.747262;-7.47278;-0.00984341;0.00240308;0.0532219;0.0533133;-0.00993485;0.0316241;0.18495;5.40685;0.0392749;0.0421654;5.3663;0.186348;89.1558;134.156;-0.00505751;-0.00984149;0.00346823;0.00140171;0.0532189;0.00354479;-0.00101416;0;0.043152;-0.650294;-1.40265;-1.439;2.11212;-7.72102;-0.011936;-0.00254748;0.050824;0.0509272;-0.0120393;0.0314832;0.234851;4.25803;0.0385956;0.0419776;4.23009;0.236402;102.15;147.15;-0.00508509;-0.0119776;0.00476065;-0.00941901;0.0508163;0.00510917;0.0527542;0;0.0728128;8.13064;5.60213
513000;514;27.1774;1.41307;0.0548461;-2.38563;27.0715;-0.238461;-0.229177;1.40384;-0.807819;-0.425229;-0.0209696;-0.618322;0.750721;-7.47655;-0.0100452;0.00276615;0.0528106;0.052932;-0.0101667;0.0315494;0.190212;5.25729;0.0391198;0.0420658;5.20641;0.192071;88.6162;133.616;-0.00403279;-0.0100432;0.00365556;0.00192985;0.0528078;0.0017951;-0.000778827;0;0.0443799;-0.651691;-1.40861;-1.44213;2.11864;-7.72415;-0.0120017;-0.00239564;0.0506961;0.0507875;-0.0120931;0.0314403;0.236737;4.22409;0.0385273;0.0419204;4.19972;0.238111;101.851;146.851;-0.00469269;-0.0120408;0.00474433;-0.00910945;0.0506881;0.00731085;0.0547489;0;0.0713345;8.14124;5.60954
514000;515;27.1823;1.41793;0.0550347;-2.38654;27.0762;-0.245623;-0.230086;1.40857;-0.814981;-0.424374;-0.0184739;-0.616202;0.748425;-7.47443;-0.00996337;0.00283616;0.0537779;0.0539039;-0.0100893;0.0319966;0.185269;5.39756;0.0397284;0.0426621;5.34267;0.187172;88.4037;133.404;-0.00405119;-0.00996158;0.00359903;0.00211943;0.0537756;0.00257603;-0.0027306;0;0.0406951;-0.651694;-1.41539;-1.44252;2.12342;-7.72453;-0.0118563;-0.00227165;0.0504589;0.0505417;-0.011939;0.0312403;0.234969;4.25589;0.0382995;0.0416537;4.23333;0.23622;102.025;147.025;-0.00340508;-0.0118963;0.00506962;-0.00917732;0.0504492;0.00613973;0.0563722;0;0.0710553;8.13799;5.61719
515000;516;27.1939;1.4295;0.0554836;-2.38543;27.088;-0.234884;-0.228978;1.42037;-0.804242;-0.424562;-0.0154927;-0.619219;0.75095;-7.47744;-0.0101083;0.00260367;0.0540463;0.0541518;-0.0102138;0.0321828;0.18703;5.34674;0.0399435;0.0429104;5.30184;0.188614;88.6951;133.695;-0.00348699;-0.0101065;0.0034247;0.0018326;0.054044;0.000704503;-0.00351885;0;0.0377169;-0.652694;-1.42437;-1.44495;2.13136;-7.72696;-0.0119785;-0.00200911;0.0511605;0.0512244;-0.0120424;0.0316334;0.234136;4.27102;0.0387919;0.0421779;4.25368;0.235091;101.301;146.301;-0.003602;-0.0120145;0.00507379;-0.00866647;0.0511502;0.00327738;0.0552507;0;0.0722799;8.15891;5.62437
516000;517;27.2015;1.43716;0.055781;-2.38603;27.0957;-0.235015;-0.229582;1.42801;-0.804373;-0.42496;-0.0123526;-0.619382;0.751251;-7.47761;-0.0100263;0.00293711;0.0549842;0.0551166;-0.0101588;0.0326377;0.18235;5.48397;0.040557;0.0435169;5.42552;0.184314;88.297;133.297;-0.00397415;-0.0100246;0.0036646;0.00225445;0.0549819;0.00133141;-0.00454558;0;0.0426329;-0.65406;-1.42999;-1.44662;2.13667;-7.72864;-0.0121059;-0.00209017;0.0520993;0.0521673;-0.0121738;0.0321706;0.232361;4.30364;0.039467;0.0428941;4.2852;0.233362;100.8;145.8;-0.0049292;-0.01214;0.00470218;-0.00846794;0.0520909;0.00381335;0.0598613;0;0.0744461;8.13783;5.63164
517000;518;27.2124;1.44803;0.0562029;-2.38651;27.1066;-0.227813;-0.230065;1.43894;-0.797171;-0.425276;-0.00816374;-0.623436;0.754717;-7.48166;-0.0100326;0.00318005;0.0557953;0.0559486;-0.0101858;0.0330672;0.17981;5.56142;0.0411171;0.0440896;5.49279;0.182057;88.005;133.005;-0.00413556;-0.0100308;0.00382472;0.00257557;0.0557932;0.0014438;-0.00421694;0;0.0360665;-0.654646;-1.4334;-1.44943;2.14104;-7.73145;-0.0120665;-0.00211637;0.0527083;0.0527773;-0.0121356;0.0324565;0.228931;4.36813;0.0398509;0.0432753;4.34896;0.22994;101.161;146.161;-0.0048594;-0.0121041;0.00508389;-0.00887348;0.0526981;0.000596507;0.056054;0;0.0723663;8.10365;5.63188
518000;519;27.2186;1.45427;0.0564451;-2.3864;27.1129;-0.229135;-0.229947;1.44521;-0.798493;-0.425098;-0.00672603;-0.623117;0.754339;-7.48134;-0.0101887;0.00308319;0.0564363;0.0565787;-0.010331;0.0334548;0.180534;5.53913;0.0415927;0.0446065;5.47658;0.182596;88.2575;133.257;-0.00410901;-0.0101867;0.00385209;0.00236277;0.0564338;0.000691856;-0.0053183;0;0.0333846;-0.655272;-1.43864;-1.44874;2.14427;-7.73075;-0.0121677;-0.00213901;0.0534575;0.0535271;-0.0122374;0.0328822;0.227615;4.39338;0.0403867;0.043843;4.37407;0.22862;100.931;145.931;-0.00394047;-0.0122048;0.004991;-0.00882476;0.0534478;-0.0012358;0.054399;0;0.0716602;8.1302;5.63917
519000;520;27.2289;1.46453;0.0568432;-2.38767;27.123;-0.235389;-0.231222;1.45534;-0.804747;-0.426475;-0.00355524;-0.630826;0.761468;-7.48905;-0.0101211;0.00310351;0.0566796;0.0568234;-0.010265;0.0335442;0.178567;5.60013;0.041727;0.0447256;5.53565;0.180647;88.153;133.153;-0.00465011;-0.0101193;0.00379689;0.00245397;0.0566773;0.00232587;-0.00318654;0;0.0426474;-0.656993;-1.44469;-1.45834;2.15535;-7.74036;-0.0121562;-0.00224665;0.0540572;0.0541334;-0.0122323;0.0331829;0.224876;4.44689;0.0407825;0.0442438;4.42543;0.225967;100.962;145.962;-0.0061912;-0.0121946;0.00495438;-0.00899522;0.054048;0.00199593;0.056125;0;0.0726597;8.16032;5.65046
520000;521;27.2405;1.47617;0.0572951;-2.38938;27.1346;-0.23086;-0.232935;1.46692;-0.800217;-0.425777;-0.000473343;-0.627935;0.758675;-7.48616;-0.0101434;0.00321103;0.0570302;0.0571834;-0.0102965;0.03374;0.17786;5.6224;0.0419775;0.0449866;5.55365;0.180062;88.0497;133.05;-0.00410075;-0.0101415;0.00388607;0.00257888;0.057028;0.000985939;-0.00446748;0;0.0385267;-0.657739;-1.45063;-1.45534;2.15753;-7.73735;-0.0120626;-0.00243999;0.054133;0.0542228;-0.0121524;0.0331876;0.222832;4.48769;0.040807;0.0442501;4.46191;0.224119;101.459;146.459;-0.00685986;-0.0121051;0.0050753;-0.00948323;0.0541236;0.00467353;0.0557828;0;0.0710203;8.15497;5.65329
521000;522;27.2488;1.48444;0.0576158;-2.39041;27.1427;-0.234865;-0.233956;1.47509;-0.804222;-0.425426;0.00280111;-0.62918;0.759515;-7.4874;-0.0101471;0.00310752;0.0572959;0.0574388;-0.0102899;0.0338643;0.177099;5.64655;0.0421433;0.0451525;5.58203;0.179146;88.1095;133.11;-0.00461866;-0.0101453;0.00375332;0.00250292;0.0572938;0.0011025;-0.00217124;0;0.0491426;-0.658126;-1.45493;-1.45665;2.16143;-7.73867;-0.0122096;-0.00262657;0.0539875;0.0540915;-0.0123136;0.0332026;0.226156;4.42173;0.0407899;0.0442701;4.39281;0.227645;101.402;146.402;-0.00698577;-0.0122513;0.00464932;-0.00944535;0.0539805;0.00635097;0.0571246;0;0.076334;8.14172;5.66043
522000;523;27.2593;1.4949;0.0580219;-2.39195;27.1531;-0.234448;-0.235505;1.48546;-0.803806;-0.425861;0.00483897;-0.630275;0.760675;-7.4885;-0.0102123;0.00331743;0.0574336;0.0575959;-0.0103746;0.0339852;0.17781;5.62397;0.0422819;0.0453136;5.55163;0.180127;87.7751;132.775;-0.00482871;-0.0102108;0.00381945;0.00284753;0.0574319;0.00325836;-0.0043325;0;0.0446379;-0.659438;-1.46162;-1.45766;2.16702;-7.73968;-0.0122831;-0.00268321;0.054031;0.0541394;-0.0123915;0.0332654;0.227334;4.39881;0.0408547;0.0443539;4.36908;0.228881;101.469;146.469;-0.00676242;-0.0123252;0.00460612;-0.0095138;0.0540243;0.00657412;0.0581407;0;0.0725192;8.15989;5.66723
523000;524;27.2711;1.5067;0.0584801;-2.39351;27.1649;-0.228703;-0.237065;1.49722;-0.79806;-0.425888;0.00948148;-0.63495;0.764613;-7.49317;-0.0101494;0.00311949;0.0578954;0.0580381;-0.0102921;0.0341651;0.175306;5.70432;0.0425398;0.0455535;5.63909;0.177334;87.946;132.946;-0.0050323;-0.010148;0.003618;0.00265304;0.0578938;0.00435676;-0.00310349;0;0.0567803;-0.660211;-1.46741;-1.46233;2.1743;-7.74434;-0.0123149;-0.00245709;0.0541606;0.0542513;-0.0124056;0.0333284;0.227377;4.39799;0.0409342;0.0444379;4.37315;0.228668;101.289;146.289;-0.00495659;-0.0123558;0.00486685;-0.00931906;0.0541522;0.00466736;0.0545786;0;0.0797952;8.16047;5.67467
524000;525;27.2795;1.51513;0.0588071;-2.39454;27.1732;-0.22792;-0.238094;1.50559;-0.797278;-0.425655;0.0112037;-0.632949;0.762845;-7.49117;-0.0101639;0.00312734;0.0580687;0.0582118;-0.0103069;0.0342593;0.175032;5.71324;0.0426605;0.0456791;5.64783;0.177059;87.8993;132.899;-0.00521762;-0.0101626;0.00358566;0.00269858;0.0580673;0.00489257;-0.00319636;0;0.0388756;-0.661125;-1.47342;-1.46332;2.1793;-7.74533;-0.0124886;-0.00207596;0.0543429;0.0544073;-0.012553;0.0334802;0.229811;4.3514;0.0411;0.0446402;4.3342;0.230723;100.448;145.448;-0.00453591;-0.0125233;0.00482055;-0.00853524;0.0543339;0.00263839;0.0571554;0;0.0744042;8.15284;5.68104
525000;526;27.2855;1.5211;0.0590391;-2.39539;27.1792;-0.228237;-0.238939;1.51152;-0.797595;-0.425656;0.0131076;-0.634084;0.763818;-7.49231;-0.0103036;0.00304947;0.0581238;0.0582594;-0.0104393;0.0343493;0.177271;5.64109;0.0427464;0.0457991;5.5808;0.179186;88.0136;133.014;-0.00537671;-0.0103023;0.00354436;0.00258659;0.0581222;0.00589022;-0.0021902;0;0.0396179;-0.66166;-1.48065;-1.46519;2.18561;-7.74721;-0.0126319;-0.00213947;0.0551568;0.0552242;-0.0126994;0.0339618;0.229018;4.36646;0.0416989;0.0452824;4.34858;0.22996;99.9705;144.971;-0.00395253;-0.0126644;0.0044395;-0.0082957;0.0551496;6.88369e-05;0.0575509;0;0.0751438;8.15932;5.68883
526000;527;27.2929;1.52848;0.0593253;-2.39611;27.1865;-0.229118;-0.239658;1.51885;-0.798475;-0.425352;0.0161375;-0.632709;0.762565;-7.49093;-0.010193;0.00318355;0.0582029;0.0583508;-0.0103409;0.0343458;0.175129;5.71008;0.0427663;0.0457944;5.64273;0.177219;87.9058;132.906;-0.00541676;-0.0101916;0.00368465;0.00271483;0.0582013;0.00566875;-0.00345368;0;0.0408457;-0.662095;-1.48518;-1.46274;2.18717;-7.74475;-0.012609;-0.00209259;0.0557103;0.0557744;-0.0126731;0.0342237;0.226332;4.41829;0.0420487;0.0456316;4.40102;0.22722;99.8683;144.868;-0.00386163;-0.0126416;0.00453674;-0.00829283;0.0557026;-3.93107e-05;0.0587653;0;0.0708463;8.16345;5.69586
527000;528;27.3074;1.54302;0.0598895;-2.39706;27.201;-0.22682;-0.240607;1.53338;-0.796178;-0.425843;0.0204945;-0.636482;0.766076;-7.49471;-0.0104245;0.00330809;0.0582535;0.0584125;-0.0105834;0.034498;0.17895;5.58816;0.0429068;0.0459973;5.51924;0.181184;87.8954;132.895;-0.00546696;-0.0104228;0.00387956;0.00277371;0.0582516;0.00497284;-0.00290564;0;0.0461301;-0.663469;-1.49131;-1.46841;2.19555;-7.75043;-0.012627;-0.00207392;0.056472;0.0565341;-0.0126892;0.0346117;0.223598;4.47231;0.0425545;0.0461489;4.45529;0.224452;99.9903;144.99;-0.00510448;-0.0126615;0.00481321;-0.00851051;0.056463;-0.000760926;0.0576441;0;0.0747609;8.16041;5.70196
528000;529;27.3165;1.55211;0.0602425;-2.39794;27.21;-0.231363;-0.241487;1.54239;-0.800721;-0.42496;0.0202865;-0.629371;0.759677;-7.48759;-0.0102745;0.00341455;0.0582009;0.0583707;-0.0104443;0.0344075;0.176535;5.6646;0.0428219;0.0458767;5.58874;0.178931;87.6224;132.622;-0.00524192;-0.0102732;0.00383064;0.00302538;0.0581994;0.00448065;-0.00322403;0;0.0333938;-0.663434;-1.49889;-1.46243;2.1967;-7.74444;-0.0124598;-0.00225335;0.0567538;0.0568271;-0.0125331;0.0346801;0.219541;4.55495;0.0426803;0.0462401;4.53416;0.220548;100.283;145.283;-0.00585295;-0.0124972;0.00483795;-0.00888009;0.0567451;0.0019021;0.0558692;0;0.0734843;8.16547;5.70481
529000;530;27.3269;1.56256;0.0606482;-2.40045;27.2203;-0.233322;-0.244003;1.55265;-0.802679;-0.426002;0.023732;-0.632415;0.762882;-7.49064;-0.0103753;0.00334618;0.0586955;0.0588572;-0.010537;0.0346971;0.176764;5.65726;0.0431812;0.0462628;5.58578;0.179026;87.7616;132.762;-0.00484405;-0.0103739;0.0038183;0.00290486;0.0586939;0.00396937;-0.00377953;0;0.0364426;-0.665226;-1.50499;-1.46621;2.20393;-7.74823;-0.012339;-0.00266083;0.0572192;0.0573208;-0.0124406;0.0348807;0.215644;4.63726;0.0429654;0.0465076;4.60755;0.217035;100.547;145.547;-0.00838952;-0.0123794;0.0044722;-0.00932442;0.057213;0.00413518;0.0611919;0;0.0729051;8.17298;5.71508
530000;531;27.3378;1.57343;0.0610702;-2.40097;27.2311;-0.237792;-0.244525;1.56348;-0.807149;-0.425955;0.0294608;-0.640491;0.769763;-7.49872;-0.0105301;0.00308227;0.0589943;0.0591307;-0.0106665;0.0348986;0.178494;5.60244;0.0434149;0.0465315;5.54359;0.180388;87.9937;132.994;-0.00510226;-0.0105288;0.00355458;0.00264097;0.0589928;0.00502569;-0.00419306;0;0.0396215;-0.666069;-1.50898;-1.47396;2.21206;-7.75597;-0.0123957;-0.00283948;0.0573018;0.0574172;-0.0125111;0.0349642;0.216323;4.62273;0.0430587;0.0466189;4.58929;0.217899;101.038;146.038;-0.00850211;-0.0124402;0.00461621;-0.00980355;0.0572955;0.00699225;0.0619096;0;0.073259;8.1705;5.71834
531000;532;27.3438;1.57939;0.0613013;-2.40146;27.237;-0.24655;-0.245015;1.56933;-0.815907;-0.426026;0.0329115;-0.645135;0.773809;-7.50336;-0.010549;0.00292632;0.0592355;0.059358;-0.0106715;0.0350147;0.178085;5.6153;0.043567;0.0466863;5.56232;0.179781;88.2237;133.224;-0.00573348;-0.0105476;0.00348507;0.00240438;0.0592338;0.00613465;-0.00248558;0;0.0458115;-0.666859;-1.51389;-1.47997;2.21966;-7.76199;-0.0126365;-0.00273515;0.0571366;0.0572436;-0.0127436;0.0349936;0.221164;4.52154;0.0430438;0.0466582;4.49195;0.22262;100.437;145.437;-0.00797297;-0.0126757;0.00419012;-0.00920322;0.0571318;0.00508825;0.0632766;0;0.0712144;8.17098;5.72516
532000;533;27.3519;1.58754;0.0616177;-2.40126;27.2452;-0.240752;-0.244808;1.57759;-0.81011;-0.426726;0.035431;-0.644297;0.773607;-7.50252;-0.0104568;0.00316244;0.0588994;0.0590433;-0.0106007;0.034822;0.177537;5.63262;0.0433302;0.0464294;5.56974;0.179542;88.2031;133.203;-0.00552546;-0.0104549;0.00388641;0.00248589;0.058897;0.0057463;-0.00237265;0;0.0431021;-0.668518;-1.52029;-1.47994;2.22451;-7.76195;-0.0126895;-0.0026201;0.0569842;0.0570826;-0.0127879;0.0349352;0.222684;4.49066;0.0429569;0.0465803;4.46381;0.224024;100.195;145.195;-0.00731507;-0.0127264;0.00413769;-0.00893233;0.0569794;0.00234969;0.0609667;0;0.0730895;8.17352;5.73259
533000;534;27.3562;1.59183;0.0617843;-2.40154;27.2495;-0.245043;-0.245086;1.58184;-0.814401;-0.425979;0.0370253;-0.643048;0.772231;-7.50127;-0.0104921;0.00296104;0.0601773;0.0603012;-0.0106159;0.0354586;0.174353;5.73549;0.0441668;0.0472781;5.68025;0.176049;88.4822;133.482;-0.00555825;-0.0104901;0.00376785;0.00220801;0.0601748;0.00531644;-0.00276438;0;0.0366523;-0.668368;-1.52778;-1.47919;2.22908;-7.7612;-0.0128104;-0.002422;0.057797;0.05788;-0.0128934;0.0353867;0.221646;4.51171;0.0435257;0.0471823;4.48911;0.222762;100.544;145.544;-0.00751703;-0.0128512;0.00493453;-0.00928736;0.0577883;0.00550187;0.0571026;0;0.0763852;8.17932;5.73975
534000;535;27.367;1.60265;0.0622043;-2.40248;27.2603;-0.237122;-0.246032;1.59268;-0.80648;-0.426411;0.0416371;-0.648022;0.776848;-7.50625;-0.0105884;0.00251656;0.0599452;0.0600349;-0.0106781;0.0353565;0.176635;5.6614;0.0440165;0.047142;5.62225;0.177865;88.7113;133.711;-0.00521359;-0.010587;0.00320345;0.00187537;0.0599433;0.00521673;-0.0022924;0;0.0415866;-0.669625;-1.53345;-1.48517;2.23732;-7.76718;-0.0132911;-0.00224324;0.0583757;0.0584459;-0.0133612;0.0359035;0.227681;4.39211;0.0440976;0.0478714;4.3743;0.228608;99.3084;144.308;-0.0045507;-0.0133228;0.0041703;-0.00822242;0.0583699;0.000163294;0.0613036;0;0.0759237;8.17623;5.74755
535000;536;27.3698;1.60542;0.0623115;-2.40178;27.2631;-0.246563;-0.24533;1.59543;-0.815921;-0.426475;0.0452963;-0.651085;0.779644;-7.50931;-0.0104929;0.00261045;0.0600896;0.0601861;-0.0105893;0.0353877;0.174621;5.72668;0.0440799;0.0471836;5.68365;0.175943;88.7864;133.786;-0.00553845;-0.0104912;0.00343804;0.00183797;0.0600873;0.0054118;-0.00221066;0;0.0395464;-0.670385;-1.53803;-1.48846;2.24287;-7.77048;-0.0131511;-0.00221153;0.0588843;0.0589522;-0.0132189;0.0360855;0.223338;4.47752;0.0443691;0.0481141;4.45967;0.224232;99.4144;144.414;-0.00536824;-0.0131843;0.00442509;-0.00839658;0.0588774;-0.000986822;0.0636982;0;0.0777215;8.17368;5.75492
536000;537;27.3817;1.61731;0.0627731;-2.40209;27.275;-0.241161;-0.245644;1.6074;-0.810519;-0.426295;0.0469219;-0.648184;0.777221;-7.50641;-0.0105822;0.00273898;0.060337;0.0604426;-0.0106878;0.0355652;0.175385;5.70175;0.0442896;0.0474203;5.65529;0.176826;88.5401;133.54;-0.00510887;-0.0105806;0.00342837;0.00209571;0.060335;0.00467014;-0.00241122;0;0.0384085;-0.671054;-1.54554;-1.48401;2.24529;-7.76603;-0.0129589;-0.00216244;0.0595264;0.0595909;-0.0130234;0.0363071;0.217701;4.59347;0.0447053;0.0484095;4.57568;0.218547;99.1491;144.149;-0.00564348;-0.0129913;0.00439963;-0.0082755;0.0595195;-0.000783444;0.0601759;0;0.0732224;8.18166;5.76249
537000;538;27.3934;1.629;0.0632269;-2.40267;27.2867;-0.239705;-0.246222;1.61909;-0.809063;-0.426311;0.0515346;-0.653206;0.781713;-7.51143;-0.0105574;0.00250962;0.0610134;0.0611012;-0.0106453;0.0358733;0.173034;5.77922;0.0447071;0.047831;5.73976;0.174223;88.786;133.786;-0.00541302;-0.0105559;0.00324966;0.0018195;0.0610113;0.0047478;-0.00322584;0;0.0406621;-0.672047;-1.55013;-1.49098;2.25334;-7.77299;-0.0129686;-0.00239423;0.0600018;0.0600802;-0.013047;0.0365636;0.216137;4.6267;0.0450369;0.0487515;4.60489;0.21716;99.6963;144.696;-0.00566647;-0.0130058;0.00459002;-0.00889758;0.0599945;0.00050864;0.0619022;0;0.0740817;8.18496;5.76908
538000;539;27.4028;1.63841;0.0635922;-2.40359;27.2961;-0.242518;-0.247139;1.62844;-0.811876;-0.426898;0.054973;-0.656923;0.785374;-7.51515;-0.0105301;0.00254666;0.0616306;0.0617204;-0.0106199;0.0361701;0.170859;5.85278;0.0451056;0.0482268;5.81176;0.172065;88.9263;133.926;-0.00589019;-0.0105283;0.00344176;0.00171239;0.0616281;0.00608742;-0.00424707;0;0.0449988;-0.673243;-1.55564;-1.4949;2.26009;-7.77691;-0.0129155;-0.00271618;0.0598976;0.0599988;-0.0130167;0.0365077;0.215626;4.63767;0.0449705;0.048677;4.60939;0.216948;100.148;145.148;-0.0083148;-0.0129563;0.00444357;-0.00938395;0.0598918;0.00522461;0.0638778;0;0.0732708;8.18141;5.77465
539000;540;27.412;1.6476;0.0639487;-2.40378;27.3053;-0.240554;-0.247332;1.63766;-0.809912;-0.426503;0.0577934;-0.65811;0.786355;-7.51633;-0.0106207;0.00242953;0.0626945;0.0627749;-0.0107011;0.036738;0.169403;5.90307;0.0458352;0.048984;5.86622;0.170468;88.8789;133.879;-0.00553666;-0.0106192;0.003178;0.00173269;0.0626925;0.00630864;-0.00541295;0;0.043146;-0.67374;-1.5613;-1.49506;2.26424;-7.77707;-0.0127695;-0.00280239;0.0598237;0.0599317;-0.0128775;0.0364046;0.213452;4.6849;0.0448673;0.0485395;4.65399;0.214869;100.368;145.368;-0.00850872;-0.0128123;0.00450614;-0.00961019;0.0598178;0.00508696;0.068746;0;0.075349;8.185;5.78002
540000;541;27.4209;1.65653;0.0642954;-2.40539;27.3141;-0.244487;-0.248939;1.64645;-0.813845;-0.425814;0.0593742;-0.655865;0.78422;-7.51409;-0.0106814;0.0025385;0.0627887;0.0628763;-0.010769;0.0368227;0.170117;5.8783;0.04593;0.0490969;5.83862;0.171273;88.7276;133.728;-0.00520129;-0.01068;0.0032192;0.00190486;0.0627868;0.00489552;-0.00425405;0;0.0392442;-0.673719;-1.56766;-1.49564;2.26901;-7.77766;-0.0127595;-0.00271265;0.0602456;0.0603462;-0.0128602;0.0366032;0.211792;4.72162;0.0451325;0.0488043;4.6925;0.213106;100.632;145.632;-0.0107448;-0.0128054;0.00499943;-0.00989356;0.0602373;0.010416;0.0690652;0;0.0737307;8.19232;5.78635
541000;542;27.4266;1.66227;0.0645181;-2.40523;27.3198;-0.248364;-0.248779;1.65219;-0.817722;-0.425713;0.0620037;-0.658675;0.78672;-7.5169;-0.0106464;0.00240224;0.0633477;0.0634257;-0.0107243;0.037075;0.168063;5.95014;0.0462746;0.0494333;5.91418;0.169085;88.8352;133.835;-0.00582798;-0.0106451;0.00307987;0.00177176;0.063346;0.00751077;-0.00448768;0;0.0378807;-0.674954;-1.57493;-1.49886;2.27652;-7.78162;-0.0129256;-0.00250039;0.0602486;0.060334;-0.013011;0.0366725;0.214538;4.66118;0.0451884;0.0488966;4.63716;0.215649;99.9535;144.954;-0.00672703;-0.0129654;0.00469907;-0.00920286;0.0602412;0.0011142;0.050998;0;0.07955;8.19201;5.79179
542000;543;27.4339;1.66951;0.0647992;-2.40546;27.327;-0.253112;-0.249009;1.6594;-0.822469;-0.425378;0.0663608;-0.659948;0.787961;-7.51817;-0.0107579;0.00225041;0.0636565;0.0637245;-0.0108259;0.0372752;0.169;5.91716;0.0465135;0.0497003;5.88628;0.169887;89.0167;134.017;-0.00599898;-0.0107566;0.00298448;0.0015677;0.0636547;0.00727039;-0.00602735;0;0.0417641;-0.67507;-1.57929;-1.50145;2.28127;-7.78346;-0.013402;-0.00261267;0.0605278;0.06062;-0.0134942;0.0370571;0.221419;4.51632;0.0455822;0.0494095;4.49229;0.222604;99.8056;144.806;-0.00708153;-0.0134405;0.00435597;-0.00909542;0.0605221;0.0011548;0.0613062;0;0.0754924;8.18924;5.79791
543000;544;27.4449;1.68052;0.0652264;-2.40649;27.3381;-0.245743;-0.250039;1.67042;-0.815101;-0.42555;0.0691955;-0.662877;0.790751;-7.5211;-0.0106037;0.00212138;0.064737;0.0647967;-0.0106634;0.0377301;0.163797;6.10511;0.0471559;0.0503068;6.07654;0.164567;89.1257;134.126;-0.0059437;-0.0106025;0.00286328;0.00143198;0.0647353;0.00656794;-0.00560459;0;0.0392441;-0.676323;-1.58647;-1.5035;2.28797;-7.78552;-0.0133162;-0.00233278;0.0615299;0.0616025;-0.0133889;0.0374957;0.216419;4.62067;0.0461828;0.0499943;4.60103;0.217343;99.1156;144.116;-0.0059597;-0.0133506;0.00436924;-0.00856216;0.0615235;0.00161344;0.0598093;0;0.0748102;8.19362;5.80558
544000;545;27.4553;1.69096;0.0656319;-2.40934;27.3483;-0.241983;-0.252888;1.68069;-0.811341;-0.425511;0.0724687;-0.663025;0.791147;-7.52125;-0.0105499;0.00234267;0.064726;0.0647988;-0.0106228;0.0377108;0.162994;6.1352;0.0471408;0.050281;6.09999;0.163935;88.9527;133.953;-0.00603656;-0.0105486;0.0030813;0.00165627;0.0647241;0.00747527;-0.00463758;0;0.0300409;-0.677251;-1.59319;-1.50213;2.29201;-7.78414;-0.0133896;-0.00226039;0.0618981;0.0619659;-0.0134574;0.0377117;0.216316;4.62286;0.0464508;0.0502822;4.60461;0.217174;99.2968;144.297;-0.00594571;-0.0134258;0.00472288;-0.00874846;0.06189;-0.00123314;0.0621423;0;0.0736927;8.19399;5.81312
545000;546;27.4691;1.70469;0.0661647;-2.41001;27.3622;-0.231324;-0.253564;1.69451;-0.800681;-0.425448;0.0752787;-0.66412;0.792293;-7.52234;-0.010594;0.00199262;0.0652298;0.0652822;-0.0106463;0.0379642;0.16241;6.15724;0.0474698;0.050619;6.13189;0.163082;89.2178;134.218;-0.00591012;-0.0105929;0.00272628;0.00131118;0.0652282;0.00758899;-0.00459374;0;0.0326567;-0.6781;-1.59952;-1.5025;2.29691;-7.78452;-0.0132182;-0.00225783;0.062326;0.0623934;-0.0132856;0.0378395;0.212081;4.71518;0.0466589;0.0504526;4.69633;0.212932;99.2255;144.226;-0.00700381;-0.0132545;0.00475247;-0.00876951;0.0623177;0.00318745;0.0615373;0;0.0747675;8.19642;5.82092
546000;547;27.4811;1.71671;0.0666312;-2.4115;27.3741;-0.233706;-0.255052;1.70642;-0.803064;-0.42448;0.0793238;-0.668548;0.795884;-7.52677;-0.0107139;0.00207247;0.0654772;0.0655335;-0.0107702;0.0381519;0.163628;6.11144;0.0476862;0.0508692;6.0847;0.164347;89.1638;134.164;-0.00682527;-0.0107127;0.00280662;0.00139081;0.0654755;0.0081728;-0.00555263;0;0.0311493;-0.678298;-1.6041;-1.50867;2.30419;-7.79069;-0.0132748;-0.00209383;0.0624423;0.0625002;-0.0133327;0.0379164;0.212594;4.70381;0.0467491;0.0505553;4.68774;0.213323;98.8939;143.894;-0.00481609;-0.0133086;0.00472618;-0.0084277;0.0624339;0.0109001;0.0566506;0;0.0783519;8.19633;5.8277
547000;548;27.4915;1.72712;0.0670353;-2.41275;27.3844;-0.234185;-0.256297;1.71676;-0.803543;-0.426257;0.078782;-0.662661;0.791847;-7.52089;-0.0106863;0.00185118;0.0652947;0.0653398;-0.0107314;0.0380356;0.163663;6.11012;0.0475425;0.0507141;6.08865;0.16424;89.304;134.304;-0.0064693;-0.0106853;0.00256093;0.00119206;0.0652933;0.00806357;-0.00623687;0;0.0393642;-0.680618;-1.61214;-1.50417;2.30755;-7.78619;-0.0128654;-0.00239286;0.0623918;0.0624678;-0.0129414;0.0377046;0.206202;4.8496;0.0465624;0.0502728;4.82699;0.207168;99.1519;144.152;-0.00497381;-0.0129016;0.0044978;-0.00879531;0.062385;0.011554;0.0536831;0;0.0806543;8.19886;5.83508
548000;549;27.4985;1.7341;0.067306;-2.41585;27.3911;-0.244358;-0.259404;1.7234;-0.813716;-0.425791;0.0845717;-0.670758;0.798978;-7.52898;-0.0105269;0.00207472;0.0658141;0.0658704;-0.0105832;0.0382268;0.159949;6.252;0.0478332;0.0509691;6.22404;0.160667;89.0663;134.066;-0.00618524;-0.0105258;0.00271446;0.00148081;0.0658126;0.00770528;-0.00695772;0;0.0378174;-0.681383;-1.61437;-1.51771;2.31817;-7.79972;-0.0129327;-0.00258427;0.0624645;0.062553;-0.0130211;0.0377871;0.20704;4.82998;0.0466521;0.0503828;4.80396;0.208162;99.565;144.565;-0.00641369;-0.0129725;0.00457562;-0.00923595;0.0624578;0.011897;0.0637817;0;0.0814938;8.20026;5.8425
549000;550;27.5125;1.74816;0.0678518;-2.41599;27.4052;-0.239485;-0.25954;1.73755;-0.808843;-0.425853;0.0889678;-0.673151;0.801498;-7.53137;-0.0106017;0.00186652;0.0659479;0.0659934;-0.0106472;0.0383203;0.160759;6.22049;0.0479404;0.0510937;6.19819;0.161338;89.2137;134.214;-0.00611399;-0.0106008;0.00249432;0.0012838;0.0659466;0.00885891;-0.00616706;0;0.0385074;-0.681554;-1.61994;-1.51619;2.32111;-7.7982;-0.0130243;-0.00300863;0.0627931;0.0629123;-0.0131435;0.0380279;0.207417;4.82122;0.0469402;0.0507039;4.78656;0.208918;100.371;145.371;-0.0114353;-0.013072;0.00468544;-0.0101537;0.0627871;0.00861029;0.0729759;0;0.0763637;8.19652;5.84933
550000;551;27.5157;1.75134;0.0679753;-2.41772;27.4081;-0.250281;-0.261266;1.74049;-0.819639;-0.42594;0.0912572;-0.670689;0.799736;-7.52891;-0.0106409;0.00199913;0.0665359;0.0665877;-0.0106926;0.0386402;0.159927;6.25286;0.0483517;0.0515202;6.22743;0.16058;89.1298;134.13;-0.00588298;-0.0106399;0.00263665;0.00140773;0.0665346;0.010083;-0.00703106;0;0.0350339;-0.682471;-1.62588;-1.51598;2.32539;-7.798;-0.013126;-0.00289491;0.0630788;0.0631886;-0.0132358;0.0382122;0.208089;4.80563;0.0471609;0.0509496;4.77406;0.209465;100.163;145.163;-0.0119799;-0.013172;0.00471682;-0.00996087;0.0630722;0.00778983;0.0730087;0;0.07993;8.20534;5.85645
551000;552;27.5247;1.76028;0.0683224;-2.41965;27.4169;-0.255234;-0.263197;1.74925;-0.824592;-0.42586;0.0936252;-0.671604;0.800734;-7.52983;-0.0108135;0.00185284;0.0671419;0.0671859;-0.0108576;0.0390217;0.161055;6.20906;0.048814;0.052029;6.18794;0.161605;89.2949;134.295;-0.00516905;-0.0108126;0.00254086;0.00121507;0.0671405;0.0093058;-0.00833008;0;0.0396057;-0.683465;-1.63399;-1.51776;2.33252;-7.79978;-0.0134896;-0.00296198;0.0637028;0.0638162;-0.0136031;0.0387097;0.211758;4.72236;0.0477291;0.0516129;4.69131;0.21316;99.5576;144.558;-0.0116523;-0.0135307;0.00406366;-0.00947764;0.0636991;0.00440734;0.0685985;0;0.0769673;8.2107;5.86407
552000;553;27.5308;1.76645;0.0685615;-2.4189;27.4231;-0.256103;-0.262452;1.7555;-0.825461;-0.426102;0.0956847;-0.670211;0.799939;-7.52844;-0.010901;0.00213894;0.0669766;0.0670353;-0.0109597;0.0389975;0.162759;6.14406;0.0487558;0.0519967;6.11651;0.163492;88.9892;133.989;-0.00561432;-0.0109;0.0027251;0.00159556;0.0669752;0.00911804;-0.00857471;0;0.0370272;-0.684515;-1.6413;-1.51739;2.33771;-7.79941;-0.013797;-0.0026816;0.0643616;0.0644535;-0.0138889;0.0391712;0.214367;4.66489;0.0482693;0.0522282;4.64065;0.215487;98.733;143.733;-0.00753565;-0.0138317;0.0038037;-0.00869058;0.0643582;-0.00212605;0.0598911;0;0.074352;8.20402;5.86711
553000;554;27.5399;1.77555;0.0689149;-2.42075;27.4321;-0.255995;-0.264303;1.76447;-0.825353;-0.425925;0.0999108;-0.673376;0.803013;-7.5316;-0.0107689;0.00230657;0.0677393;0.067807;-0.0108366;0.0393218;0.158976;6.29027;0.0492162;0.0524291;6.25721;0.159816;88.7457;133.746;-0.00480204;-0.010768;0.00276007;0.00188642;0.0677383;0.0054979;-0.00774394;0;0.0392195;-0.685403;-1.64687;-1.52197;2.34485;-7.80398;-0.0138289;-0.00243174;0.0650756;0.0651505;-0.0139038;0.0395271;0.212506;4.70576;0.0487339;0.0527029;4.6858;0.213411;98.4604;143.46;-0.00755457;-0.0138622;0.00407147;-0.00845309;0.0650706;-0.00230907;0.0625059;0;0.076472;8.21084;5.87296
554000;555;27.5461;1.78177;0.0691565;-2.42064;27.4384;-0.258099;-0.264189;1.77072;-0.827457;-0.425767;0.103065;-0.672701;0.802762;-7.53092;-0.0108509;0.00228638;0.0683981;0.068464;-0.0109168;0.0396904;0.158643;6.30346;0.049683;0.0529205;6.27144;0.159453;88.8296;133.83;-0.0041093;-0.0108499;0.00280238;0.00180865;0.0683968;0.00544281;-0.00862547;0;0.0355763;-0.685536;-1.65195;-1.52377;2.34963;-7.80579;-0.0137881;-0.00233655;0.0651268;0.0651959;-0.0138572;0.0395265;0.211711;4.72342;0.048744;0.0527021;4.70484;0.212547;98.3983;143.398;-0.00744574;-0.0138209;0.00418572;-0.0083755;0.0651211;-0.00220916;0.0656491;0;0.0737167;8.20424;5.88018
555000;556;27.5565;1.79208;0.0695566;-2.42076;27.4487;-0.263295;-0.264309;1.781;-0.832652;-0.425065;0.108496;-0.679777;0.809041;-7.538;-0.0111051;0.00200182;0.0684207;0.068471;-0.0111555;0.0398133;0.162307;6.16117;0.0497842;0.0530844;6.13788;0.162923;88.8916;133.892;-0.00414097;-0.0111045;0.00235731;0.00167279;0.06842;0.00594496;-0.0080799;0;0.0369623;-0.685874;-1.65636;-1.52998;2.35686;-7.81199;-0.0133639;-0.00195474;0.0650754;0.0651241;-0.0134126;0.0392684;0.205361;4.86948;0.048509;0.0523578;4.85544;0.205955;98.5978;143.598;-0.00534456;-0.0133985;0.00509238;-0.00848279;0.065065;0.0108627;0.0595503;0;0.0814047;8.20391;5.88754
556000;557;27.5636;1.79922;0.0698335;-2.42101;27.4558;-0.264902;-0.264564;1.78813;-0.834259;-0.425734;0.110323;-0.676514;0.806902;-7.53474;-0.0108247;0.00219567;0.0688598;0.0689202;-0.0108852;0.0399027;0.1572;6.36134;0.049972;0.0532036;6.33156;0.157939;88.7339;133.734;-0.00412309;-0.0108241;0.0025325;0.00188394;0.068859;0.00437534;-0.00715302;0;0.0369621;-0.687321;-1.66215;-1.52873;2.36054;-7.81074;-0.0133432;-0.00250862;0.065063;0.0651432;-0.0134234;0.0392833;0.205081;4.87611;0.0485261;0.0523777;4.85296;0.20606;98.7432;143.743;-0.00605386;-0.0133792;0.0042746;-0.00879238;0.0650574;0.00759064;0.0607534;0;0.0808302;8.20771;5.89467
557000;558;27.5732;1.80887;0.0702082;-2.42129;27.4654;-0.266056;-0.264838;1.79778;-0.835414;-0.425205;0.113374;-0.67865;0.808838;-7.53687;-0.0109473;0.00205952;0.0691857;0.0692386;-0.0110002;0.0401194;0.15823;6.31991;0.0502289;0.0534925;6.29432;0.158873;88.8291;133.829;-0.00497586;-0.0109467;0.00238599;0.00175752;0.069185;0.0059927;-0.00871664;0;0.0356865;-0.687169;-1.66802;-1.53047;2.36576;-7.81249;-0.0131183;-0.0025731;0.0650289;0.0651135;-0.013203;0.0391583;0.201731;4.9571;0.0484139;0.052211;4.93173;0.202769;99.4661;144.466;-0.00591939;-0.0131609;0.00492624;-0.00952206;0.0650206;0.0107413;0.0604348;0;0.0844232;8.21077;5.90171
558000;559;27.582;1.81758;0.0705464;-2.42218;27.474;-0.273338;-0.265726;1.80638;-0.842696;-0.426108;0.115613;-0.677126;0.808352;-7.53535;-0.0109593;0.00225026;0.0692714;0.0693345;-0.0110224;0.0401784;0.158209;6.32077;0.0503013;0.0535712;6.29032;0.158974;88.586;133.586;-0.00489855;-0.0109589;0.00245848;0.00205766;0.0692709;0.00688887;-0.00834622;0;0.0408039;-0.688784;-1.67431;-1.53126;2.37118;-7.81327;-0.012966;-0.00275313;0.0651699;0.0652667;-0.0130629;0.0391648;0.198957;5.02621;0.048456;0.0522198;4.99635;0.200146;99.7952;144.795;-0.00919235;-0.0130122;0.00499633;-0.00993399;0.0651617;0.0150965;0.0688508;0;0.0874463;8.21644;5.90955
559000;560;27.5913;1.82693;0.0709092;-2.42353;27.4833;-0.274347;-0.267084;1.81564;-0.843704;-0.425617;0.11982;-0.680967;0.811925;-7.53919;-0.0111796;0.00219785;0.0705927;0.0706517;-0.0112387;0.0409452;0.158368;6.31439;0.0512597;0.0545936;6.28648;0.159072;88.7798;133.78;-0.00524783;-0.011179;0.00255126;0.00187143;0.0705919;0.00596482;-0.00896537;0;0.0461386;-0.689769;-1.67961;-1.537;2.37891;-7.81976;-0.0134057;-0.00307392;0.0658644;0.0659835;-0.0135247;0.0397541;0.203534;4.91318;0.0491218;0.0530054;4.87874;0.204971;99.1034;144.103;-0.00993002;-0.0134459;0.00378402;-0.0094217;0.0658621;0.00530715;0.0627631;0;0.0840769;8.22302;5.91572
560000;561;27.5971;1.83271;0.0711335;-2.42264;27.4891;-0.277459;-0.266193;1.82149;-0.846817;-0.4243;0.124118;-0.68367;0.81415;-7.54189;-0.0111351;0.00191486;0.071174;0.0712185;-0.0111796;0.0411991;0.156449;6.39186;0.0516108;0.0549321;6.37038;0.156976;89.2116;134.212;-0.00556109;-0.0111342;0.00252505;0.00135156;0.0711727;0.00607027;-0.00985523;0;0.0466201;-0.68886;-1.68536;-1.53845;2.38365;-7.82047;-0.0138535;-0.00310113;0.0667169;0.0668361;-0.0139727;0.0404044;0.207646;4.81589;0.0498717;0.0538725;4.78334;0.209059;99.1129;144.113;-0.0117646;-0.0138946;0.00384231;-0.00952;0.0667145;0.00560155;0.0682757;0;0.079081;8.22178;5.92339
561000;562;27.6058;1.84146;0.071473;-2.42313;27.4979;-0.277518;-0.266677;1.83022;-0.846875;-0.425619;0.126779;-0.682724;0.814455;-7.54095;-0.0111857;0.00199081;0.071875;0.0719227;-0.0112334;0.0415781;0.155628;6.42559;0.0520982;0.0554374;6.40256;0.156188;89.0271;134.027;-0.00524246;-0.011185;0.00244425;0.0015725;0.0718741;0.00533092;-0.00960589;0;0.0417498;-0.691185;-1.69362;-1.53776;2.38972;-7.81977;-0.0140325;-0.00283975;0.0674236;0.0675225;-0.0141314;0.0408269;0.208124;4.80482;0.0503903;0.0544359;4.7782;0.209284;98.3437;143.344;-0.00792095;-0.0140674;0.0035858;-0.00877486;0.0674214;-0.00340749;0.0632616;0;0.0744235;8.22877;5.93052
562000;563;27.6157;1.8513;0.0718551;-2.42348;27.5078;-0.274426;-0.267026;1.84011;-0.843784;-0.424907;0.131192;-0.684453;0.816231;-7.54268;-0.0111883;0.00182912;0.0722111;0.0722512;-0.0112284;0.0417398;0.154939;6.45415;0.0523135;0.0556531;6.43467;0.155408;89.1981;134.198;-0.00580014;-0.0111876;0.00234746;0.0013511;0.0722101;0.00718843;-0.00912869;0;0.0556483;-0.691265;-1.69937;-1.5406;2.39565;-7.82261;-0.0140744;-0.00246468;0.0679188;0.0679928;-0.0141484;0.0410706;0.207224;4.82569;0.0507069;0.0547608;4.80568;0.208087;98.102;143.102;-0.00739318;-0.0141078;0.00405261;-0.00848149;0.0679139;-0.00257266;0.0611919;0;0.0785181;8.21907;5.93765
563000;564;27.6227;1.85832;0.0721277;-2.4239;27.5148;-0.27588;-0.267446;1.84711;-0.845238;-0.425573;0.133851;-0.686947;0.8191;-7.54517;-0.0110961;0.0018105;0.0721749;0.0722142;-0.0111355;0.0416748;0.153739;6.50452;0.0522517;0.0555664;6.48507;0.1542;89.1061;134.106;-0.00530682;-0.0110955;0.00221182;0.00144035;0.0721741;0.00721244;-0.007813;0;0.0444928;-0.692761;-1.70559;-1.54244;2.40168;-7.82445;-0.0139107;-0.0024827;0.0678724;0.0679476;-0.013986;0.0409668;0.204954;4.87915;0.0506088;0.0546224;4.85827;0.205835;98.5819;143.582;-0.0101465;-0.0139483;0.00454101;-0.00896839;0.0678656;0.00412019;0.0693167;0;0.074776;8.21437;5.94021
564000;565;27.6343;1.86993;0.072578;-2.42527;27.5263;-0.271259;-0.268822;1.85868;-0.840617;-0.424887;0.137227;-0.691454;0.823085;-7.54968;-0.011458;0.00171736;0.0727919;0.0728269;-0.011493;0.0421599;0.157408;6.35293;0.0528009;0.0562133;6.33663;0.157813;89.3938;134.394;-0.00541325;-0.0114572;0.00236183;0.0011235;0.0727907;0.00774459;-0.00882957;0;0.0421215;-0.692872;-1.71045;-1.54632;2.40766;-7.82834;-0.0138125;-0.00245753;0.0676684;0.0677425;-0.0138865;0.0408145;0.20412;4.89907;0.0504318;0.0544193;4.87828;0.20499;98.8642;143.864;-0.0105181;-0.0138525;0.00486457;-0.00922073;0.0676602;0.00658375;0.0683894;0;0.0795258;8.21465;5.94535
565000;566;27.6476;1.88322;0.073094;-2.42841;27.5395;-0.26266;-0.271958;1.87183;-0.832018;-0.424351;0.140412;-0.692043;0.82384;-7.55027;-0.0114656;0.00134995;0.0732994;0.0733209;-0.0114871;0.042404;0.156421;6.39299;0.0531252;0.0565387;6.3829;0.156669;89.6534;134.653;-0.00596289;-0.011465;0.00200516;0.00074648;0.0732984;0.00917214;-0.00798963;0;0.0450913;-0.693539;-1.71657;-1.54582;2.41188;-7.82783;-0.0140428;-0.00281462;0.0678283;0.0679249;-0.0141395;0.0410322;0.207035;4.8301;0.0506585;0.0547096;4.80392;0.208163;98.5067;143.507;-0.00857123;-0.0140797;0.00386241;-0.00897961;0.067825;0.00195693;0.0642389;0;0.0794177;8.21914;5.95261
566000;567;27.6665;1.90211;0.0738273;-2.42705;27.5587;-0.245892;-0.270605;1.89107;-0.81525;-0.424997;0.14406;-0.691969;0.82474;-7.55019;-0.0114173;0.00190497;0.073759;0.0738016;-0.0114599;0.0426307;0.154792;6.46028;0.0534322;0.056841;6.43999;0.15528;89.2016;134.202;-0.0052494;-0.0114164;0.00246835;0.00138629;0.0737578;0.0061058;-0.00719495;0;0.0482062;-0.694829;-1.72105;-1.54778;2.41669;-7.82979;-0.0137991;-0.00286979;0.0677088;0.0678097;-0.0139;0.0408549;0.203801;4.90675;0.0504818;0.0544732;4.87839;0.204986;98.5289;143.529;-0.00630884;-0.0138362;0.00379525;-0.00902591;0.0677059;0.00930985;0.0605629;0;0.0875909;8.22158;5.95981
567000;568;27.6781;1.91371;0.0742773;-2.42905;27.5701;-0.253739;-0.272604;1.90246;-0.823097;-0.423291;0.145905;-0.690907;0.823296;-7.54913;-0.0115374;0.00143717;0.0745124;0.0745364;-0.0115614;0.0430489;0.154839;6.45832;0.0539592;0.0573986;6.44699;0.155111;89.6031;134.603;-0.00588;-0.0115367;0.00209823;0.000829045;0.0745113;0.00769168;-0.0092167;0;0.039284;-0.694265;-1.72842;-1.54568;2.42045;-7.8277;-0.0134232;-0.0033876;0.0680509;0.0681915;-0.0135638;0.0408776;0.197252;5.06965;0.050592;0.0545035;5.02746;0.198908;100.074;145.074;-0.0135642;-0.0134767;0.00465308;-0.0108147;0.0680461;0.0119309;0.0760631;0;0.0836379;8.22015;5.96759
568000;569;27.6799;1.91556;0.0743493;-2.43254;27.5715;-0.271165;-0.276092;1.90385;-0.840522;-0.424103;0.151223;-0.698178;0.830773;-7.5564;-0.0115913;0.00156453;0.0750001;0.0750284;-0.0116195;0.0433239;0.15455;6.4704;0.054308;0.0577653;6.45709;0.154868;89.4463;134.446;-0.00518608;-0.0115906;0.00213696;0.00103821;0.0749991;0.00579335;-0.00939214;0;0.0472365;-0.696255;-1.73071;-1.55664;2.42967;-7.83958;-0.0136918;-0.00368359;0.068091;0.0682566;-0.0138574;0.041057;0.201081;4.97313;0.050758;0.0547427;4.92566;0.203019;99.6617;144.662;-0.009224;-0.0137404;0.00366115;-0.0104658;0.0680911;0.00425369;0.0739264;0;0.0834167;8.22166;5.97461
569000;570;27.6866;1.92227;0.0746098;-2.43339;27.5781;-0.275795;-0.276937;1.91047;-0.845153;-0.423105;0.154645;-0.704197;0.835958;-7.56242;-0.0116232;0.00166931;0.0752796;0.0753116;-0.0116553;0.0434834;0.154401;6.47665;0.0545098;0.0579779;6.46159;0.154761;89.3696;134.37;-0.00524113;-0.0116225;0.00223048;0.0011535;0.0752785;0.00646112;-0.0118176;0;0.0351252;-0.695967;-1.73722;-1.56312;2.43837;-7.84513;-0.0138911;-0.00315083;0.0696812;0.0697999;-0.0140098;0.0419048;0.199352;5.01624;0.0518381;0.0558731;4.98223;0.200713;98.2468;143.247;-0.00819838;-0.013928;0.00329469;-0.00909266;0.0696808;0.0113862;0.0647194;0;0.0799824;8.22931;5.98234
570000;571;27.6964;1.93204;0.0749887;-2.43473;27.5878;-0.27463;-0.27828;1.92016;-0.843987;-0.424878;0.156944;-0.699497;0.833336;-7.55772;-0.0115859;0.00166891;0.0758744;0.0759062;-0.0116177;0.043762;0.152698;6.54886;0.0548881;0.0583493;6.53366;0.153054;89.3331;134.333;-0.00481653;-0.0115852;0.00218312;0.0011965;0.0758735;0.00709228;-0.0101657;0;0.0445456;-0.698385;-1.74501;-1.55855;2.4417;-7.84057;-0.0141859;-0.00314612;0.0705919;0.0707085;-0.0143025;0.0425055;0.200957;4.97619;0.0525593;0.056674;4.94378;0.202274;97.9426;142.943;-0.00906797;-0.0142209;0.00307786;-0.00887713;0.0705921;-0.00174832;0.0645899;0;0.0739079;8.23348;5.99007
571000;572;27.7014;1.93705;0.0751831;-2.43518;27.5927;-0.280677;-0.278726;1.92509;-0.850035;-0.423625;0.160642;-0.704382;0.837507;-7.56261;-0.0117552;0.00182161;0.0764272;0.0764648;-0.0117928;0.0441288;0.153809;6.50158;0.055328;0.0588384;6.48403;0.154225;89.1756;134.176;-0.00460653;-0.0117545;0.00225727;0.00142163;0.0764264;0.00657691;-0.0114528;0;0.0364234;-0.697673;-1.75144;-1.56421;2.4497;-7.84623;-0.0143091;-0.00282603;0.070637;0.0707309;-0.014403;0.0425669;0.202572;4.93652;0.0526162;0.0567559;4.91085;0.203631;98.1147;143.115;-0.00824253;-0.0143456;0.00382071;-0.00894531;0.0706339;-7.62738e-05;0.0633173;0;0.0763836;8.22917;5.99723
572000;573;27.7108;1.94647;0.075549;-2.43667;27.602;-0.284166;-0.280216;1.93439;-0.853524;-0.424695;0.165583;-0.701895;0.836923;-7.56012;-0.0117768;0.00203366;0.0769495;0.076996;-0.0118234;0.0444097;0.153046;6.53399;0.0556918;0.059213;6.51218;0.153558;88.8702;133.87;-0.00345651;-0.0117764;0.00225726;0.00182847;0.076949;0.00488119;-0.0114967;0;0.0462752;-0.699229;-1.75556;-1.56457;2.45333;-7.84659;-0.0142851;-0.00268295;0.0710605;0.0711448;-0.0143694;0.0427571;0.201028;4.97444;0.0528746;0.0570095;4.95113;0.201974;98.0596;143.06;-0.00785675;-0.0143217;0.00407453;-0.00890186;0.0710561;-0.000427789;0.0626021;0;0.0774248;8.22634;6.003
573000;574;27.7212;1.95688;0.0759529;-2.43742;27.6125;-0.279777;-0.280973;1.94481;-0.849135;-0.424248;0.167403;-0.701366;0.836614;-7.55959;-0.0117451;0.00213729;0.0772095;0.0772609;-0.0117965;0.0445287;0.15212;6.57374;0.0558562;0.0593716;6.5495;0.152684;88.951;133.951;-0.00293737;-0.0117444;0.0025392;0.00176856;0.0772087;0.00420227;-0.0137858;0;0.0470168;-0.700153;-1.76298;-1.56343;2.45818;-7.84545;-0.0141301;-0.00268224;0.0707173;0.070802;-0.0142148;0.0425084;0.199811;5.00473;0.052584;0.0566778;4.98086;0.200768;98.4713;143.471;-0.0105205;-0.0141702;0.00449871;-0.00929403;0.0707112;0.00582448;0.0708962;0;0.0808203;8.23305;6.00882
574000;575;27.7321;1.96774;0.0763744;-2.43757;27.6233;-0.28032;-0.281124;1.9557;-0.849678;-0.424736;0.171614;-0.706496;0.842015;-7.56472;-0.011953;0.00249623;0.077981;0.0780503;-0.0120223;0.0450363;0.153281;6.52395;0.0564692;0.0600484;6.49213;0.154033;88.4868;133.487;-0.00304204;-0.0119528;0.00258997;0.00241031;0.0779808;0.00541764;-0.0150694;0;0.0361768;-0.701147;-1.76799;-1.56844;2.46524;-7.85046;-0.014314;-0.00287873;0.0704469;0.0705446;-0.0144116;0.0424781;0.203188;4.92155;0.0524972;0.0566375;4.89498;0.204291;98.4473;143.447;-0.00912088;-0.0143534;0.00406747;-0.00927479;0.0704431;0.000898468;0.0608194;0;0.0849416;8.23283;6.01356
575000;576;27.7469;1.98251;0.0769479;-2.43702;27.6383;-0.275563;-0.280572;1.97063;-0.844921;-0.424319;0.175771;-0.707479;0.843486;-7.5657;-0.0121819;0.00246443;0.0782169;0.078284;-0.0122491;0.0452666;0.155746;6.42072;0.056715;0.0603554;6.39101;0.15647;88.5102;133.51;-0.00358064;-0.0121817;0.0025522;0.00238401;0.0782167;0.00701136;-0.0175039;0;0.0361034;-0.701288;-1.7731;-1.57134;2.47079;-7.85336;-0.0143863;-0.00319176;0.0704766;0.0705965;-0.0145061;0.0425513;0.204128;4.89889;0.0525711;0.0567351;4.86667;0.205479;98.489;143.489;-0.0083936;-0.014426;0.00356575;-0.00941344;0.0704755;0.00218621;0.060317;0;0.0834393;8.23313;6.01905
576000;577;27.7553;1.99097;0.0772763;-2.43784;27.6466;-0.285559;-0.281389;1.97895;-0.854917;-0.424848;0.180129;-0.709547;0.846404;-7.56777;-0.0120986;0.00307792;0.078577;0.0786813;-0.0122029;0.0454421;0.153971;6.49474;0.0569593;0.0605895;6.44775;0.155093;87.9945;132.995;-0.00233105;-0.0120988;0.00299836;0.00315079;0.0785772;0.00355688;-0.0187524;0;0.0395869;-0.702691;-1.77817;-1.5743;2.47671;-7.85632;-0.0143384;-0.00362444;0.0704126;0.0705673;-0.0144931;0.0425302;0.203634;4.91077;0.0525464;0.056707;4.86902;0.20538;98.4755;143.476;-0.00821101;-0.0143778;0.00279299;-0.00953364;0.0704151;-0.00268053;0.0680646;0;0.0867721;8.23321;6.02608
577000;578;27.7599;1.9955;0.0774521;-2.43906;27.6509;-0.296428;-0.282606;1.98328;-0.865785;-0.425208;0.183338;-0.708913;0.846742;-7.56714;-0.0121155;0.00279638;0.0793757;0.079461;-0.0122009;0.045831;0.152635;6.55157;0.0574743;0.061108;6.51272;0.153546;88.1944;133.194;-0.00309811;-0.0121157;0.00272467;0.00286202;0.0793758;0.00691536;-0.018637;0;0.0423448;-0.704134;-1.78432;-1.57444;2.48163;-7.85729;-0.0139601;-0.00384223;0.0710698;0.071243;-0.0141334;0.0426882;0.196428;5.09092;0.0528403;0.0569176;5.04077;0.198382;98.715;143.715;-0.00802499;-0.014003;0.00281181;-0.00996788;0.071073;0.00224145;0.0678024;0;0.0893693;8.23293;6.03334
578000;579;27.7657;2.00137;0.0776798;-2.43842;27.6568;-0.301544;-0.28197;1.98917;-0.870901;-0.424792;0.186578;-0.714132;0.851613;-7.57236;-0.0124044;0.00284546;0.0803851;0.0804723;-0.0124916;0.046482;0.154313;6.48035;0.0582602;0.0619759;6.4421;0.155229;88.2751;133.275;-0.00380136;-0.0124043;0.00288376;0.00281046;0.080385;0.0058705;-0.0191672;0;0.0580483;-0.704284;-1.78919;-1.58291;2.49054;-7.86584;-0.0144335;-0.0038611;0.0722961;0.0724677;-0.0146051;0.0435364;0.199644;5.00891;0.0538445;0.0580485;4.96182;0.201539;98.1344;143.134;-0.00773496;-0.0144717;0.00227428;-0.00950012;0.0723006;0.00125505;0.0725496;0;0.0814554;8.23589;6.04099
579000;580;27.7736;2.00922;0.0779845;-2.44;27.6646;-0.300517;-0.283548;1.99692;-0.869874;-0.425197;0.191596;-0.71722;0.855515;-7.57544;-0.0125663;0.00304365;0.0802478;0.0803475;-0.012666;0.0465068;0.156594;6.38594;0.0582479;0.062009;6.34354;0.157641;88.15;133.15;-0.00339594;-0.0125662;0.00307704;0.00301313;0.0802477;0.00617496;-0.0191258;0;0.0498359;-0.705236;-1.79481;-1.58552;2.49651;-7.86754;-0.0142961;-0.0033244;0.0732248;0.0733509;-0.0144222;0.0438866;0.195236;5.122;0.0543496;0.0585154;5.08596;0.19662;97.7231;142.723;-0.00772843;-0.0143319;0.00288428;-0.00902665;0.0732261;0.00619449;0.0629746;0;0.0781246;8.23437;6.04842
580000;581;27.7824;2.01799;0.0783248;-2.44156;27.6733;-0.290021;-0.285106;2.0057;-0.859379;-0.424475;0.194506;-0.716618;0.855309;-7.57484;-0.0125571;0.00287279;0.0805872;0.0806758;-0.0126457;0.0466607;0.15582;6.41765;0.0584568;0.0622143;6.37972;0.156747;88.2558;133.256;-0.00467671;-0.0125571;0.00289929;0.00284857;0.0805872;0.00674146;-0.0181494;0;0.0455176;-0.705218;-1.80275;-1.58196;2.49997;-7.86397;-0.0144593;-0.00318258;0.0735781;0.073693;-0.0145742;0.0441336;0.196516;5.08865;0.0546385;0.0588448;5.05641;0.197769;97.5425;142.543;-0.00824249;-0.0144936;0.00296049;-0.0088218;0.0735788;-0.00229796;0.065652;0;0.0765456;8.24166;6.05621
581000;582;27.7914;2.02702;0.0786751;-2.44011;27.6825;-0.297389;-0.283658;2.01481;-0.866746;-0.424641;0.198172;-0.715597;0.855378;-7.57382;-0.012736;0.00296343;0.0810402;0.0811338;-0.0128296;0.0469817;0.157157;6.36308;0.0588338;0.0626422;6.32397;0.158129;88.092;133.092;-0.00393814;-0.0127364;0.00283487;0.00308084;0.0810406;0.00688842;-0.0177763;0;0.0419379;-0.706427;-1.80836;-1.58114;2.50384;-7.86315;-0.0142998;-0.00285951;0.0739862;0.0740787;-0.0143923;0.0442355;0.193277;5.17393;0.0548167;0.0589807;5.1471;0.194284;97.9685;142.969;-0.0101435;-0.014339;0.00409311;-0.00924049;0.0739822;0.00524402;0.0675043;0;0.0764887;8.24576;6.06309
582000;583;27.802;2.0376;0.079086;-2.44046;27.6931;-0.294424;-0.284008;2.02543;-0.863782;-0.425053;0.202394;-0.720544;0.860708;-7.57877;-0.0129544;0.00281053;0.0819715;0.0820547;-0.0130376;0.0475461;0.158036;6.32769;0.0595268;0.0633948;6.29371;0.158889;88.3606;133.361;-0.00385932;-0.0129542;0.00288223;0.00274513;0.0819713;0.00562034;-0.0173345;0;0.0428409;-0.707558;-1.81431;-1.58486;2.51081;-7.86687;-0.0145917;-0.00303243;0.0733386;0.0734431;-0.0146962;0.0440697;0.198964;5.02603;0.054525;0.0587595;4.99742;0.200103;98.1817;143.182;-0.0106764;-0.014632;0.00391466;-0.00941028;0.0733358;0.00539944;0.0621499;0;0.0807779;8.24396;6.0707
583000;584;27.8191;2.05477;0.0797525;-2.4408;27.7106;-0.267742;-0.284354;2.04292;-0.837099;-0.424744;0.206137;-0.721096;0.861904;-7.57932;-0.0130503;0.00304364;0.0823021;0.0823992;-0.0131474;0.0477733;0.158566;6.30651;0.059799;0.0636977;6.26734;0.159557;88.1497;133.15;-0.00425198;-0.0130504;0.00301242;0.00307211;0.0823022;0.00563246;-0.016265;0;0.041065;-0.708169;-1.82064;-1.58474;2.51547;-7.86675;-0.0145228;-0.00300415;0.0734799;0.0735823;-0.0146252;0.0441038;0.197643;5.05962;0.054587;0.058805;5.03119;0.19876;98.8649;143.865;-0.0112534;-0.0145706;0.00478969;-0.0101589;0.0734734;0.00550761;0.0670919;0;0.0846965;8.2426;6.07804
584000;585;;;;;;;;;;-0.424185;0.20964;-0.725715;0.86634;-7.58277;-0.0131085;0.00288079;0.0818724;0.0819597;-0.0131958;0.0475778;0.160109;6.24576;0.059528;0.063437;6.21106;0.161003;88.2964;133.296;-0.0065551;-0.0131084;0.00292249;0.00284276;0.0818723;0.00709905;-0.0139421;0;0.0376503;-0.708218;-1.82546;-1.59099;2.52292;-7.87301;-0.0144978;-0.00320361;0.0731656;0.0732825;-0.0146148;0.0439486;0.198151;5.04665;0.0543851;0.0585982;5.01428;0.19943;98.5278;143.528;-0.00876373;-0.0145415;0.00399763;-0.00981646;0.0731629;0.00209332;0.0605931;0;0.0865005;8.24038;6.08453
585000;586;27.8448;2.08046;0.0807495;-2.44272;27.7361;-0.273193;-0.286273;2.06848;-0.842551;-0.42451;0.215343;-0.729725;0.871252;-7.58795;-0.0132452;0.00312433;0.0830962;0.0831974;-0.0133464;0.0482719;0.159396;6.27367;0.0604073;0.0643626;6.23368;0.160419;88.1744;133.174;-0.00426722;-0.0132451;0.00316376;0.0030884;0.0830961;0.00590001;-0.0158768;0;0.039058;-0.71013;-1.83023;-1.59438;2.52905;-7.8764;-0.0144594;-0.00339645;0.0730442;0.0731758;-0.014591;0.0438834;0.197954;5.05168;0.054305;0.0585113;5.01512;0.199397;98.5526;143.553;-0.00990555;-0.0145032;0.00367295;-0.00988922;0.0730433;0.00378322;0.0655378;0;0.0869989;8.24021;6.08707
586000;587;27.8551;2.09074;0.0811484;-2.44523;27.7462;-0.273655;-0.288782;2.07857;-0.843012;-0.423876;0.218103;-0.728087;0.870258;-7.58631;-0.01331;0.00317512;0.0830508;0.0831553;-0.0134145;0.0482849;0.160263;6.23972;0.0604069;0.0643799;6.1989;0.161319;88.2382;133.238;-0.00414186;-0.0133095;0.00333776;0.00302694;0.0830503;0.0061217;-0.0158201;0;0.0421612;-0.710855;-1.836;-1.59638;2.53469;-7.87924;-0.014669;-0.00393375;0.0736459;0.0738208;-0.0148439;0.0443323;0.199183;5.02052;0.0548357;0.0591098;4.97315;0.20108;98.8993;143.899;-0.00706228;-0.014717;0.00321118;-0.0104908;0.0736483;-0.0010642;0.0727754;0;0.087636;8.24042;6.093
587000;588;27.8652;2.1008;0.081539;-2.447;27.7561;-0.279436;-0.290553;2.08846;-0.848794;-0.424162;0.223091;-0.732958;0.875734;-7.59118;-0.0134519;0.00335769;0.0839654;0.0840809;-0.0135675;0.0488242;0.160207;6.24191;0.0610808;0.0650989;6.19725;0.161362;88.1669;133.167;-0.00365563;-0.0134513;0.00354254;0.00318946;0.0839648;0.00515493;-0.0166065;0;0.0428619;-0.711895;-1.8415;-1.59974;2.54108;-7.88268;-0.0145169;-0.003965;0.0745513;0.0747274;-0.0146931;0.0447102;0.194724;5.13548;0.0553697;0.0596136;5.0859;0.196622;98.3464;143.346;-0.00727938;-0.0145601;0.00266325;-0.0100437;0.0745553;0.00133122;0.0673998;0;0.0815903;8.23772;6.10053
588000;589;27.8643;2.09993;0.0815053;-2.4486;27.7549;-0.296776;-0.292154;2.08727;-0.866134;-0.424441;0.22438;-0.728669;0.872614;-7.58689;-0.0134394;0.00300494;0.0839901;0.0840827;-0.013532;0.0488074;0.160012;6.24955;0.0610676;0.0650765;6.21363;0.160937;88.3164;133.316;-0.0030591;-0.0134391;0.00311345;0.00290617;0.0839898;0.00586202;-0.0141643;0;0.0388888;-0.712465;-1.84846;-1.59576;2.54379;-7.87794;-0.0146588;-0.00403701;0.0758408;0.0760205;-0.0148386;0.0454295;0.193284;5.17372;0.0562824;0.0605727;5.12317;0.195192;98.148;143.148;-0.0095395;-0.0147014;0.00248225;-0.0100077;0.0758455;-0.00158377;0.0647273;0;0.0766304;8.24327;6.10804
589000;590;27.875;2.11064;0.0819207;-2.44912;27.7656;-0.296993;-0.292675;2.09797;-0.866351;-0.425241;0.228909;-0.732887;0.877697;-7.59111;-0.0134568;0.00335129;0.0846178;0.0847322;-0.0135712;0.0491517;0.159031;6.28809;0.0615129;0.0655356;6.24352;0.160166;87.9617;132.962;-0.00340903;-0.0134572;0.00323887;0.00345354;0.0846182;0.00520469;-0.0164182;0;0.0400177;-0.714155;-1.85437;-1.602;2.55247;-7.88418;-0.0145724;-0.00392211;0.075742;0.075912;-0.0147424;0.0453272;0.192396;5.19762;0.0561708;0.0604363;5.14922;0.194204;97.7862;142.786;-0.0112608;-0.0146111;0.00224359;-0.00957004;0.0757468;-0.0017888;0.0721936;0;0.0763625;8.24776;6.11547
590000;591;27.8868;2.12241;0.0823778;-2.45281;27.7773;-0.280982;-0.29636;2.10963;-0.85034;-0.423488;0.233605;-0.735007;0.879857;-7.59323;-0.0136322;0.00355638;0.0850895;0.0852175;-0.0137601;0.0494888;0.16021;6.24181;0.0619102;0.0659851;6.19307;0.161471;87.8453;132.845;-0.00298045;-0.0136326;0.00342887;0.0036723;0.0850899;0.00578889;-0.017855;0;0.0378902;-0.713789;-1.85976;-1.60237;2.55652;-7.88439;-0.0147587;-0.00345052;0.0761917;0.0763224;-0.0148894;0.0456059;0.193704;5.16251;0.0565025;0.0608079;5.12596;0.195085;97.6623;142.662;-0.00935704;-0.0147968;0.00297019;-0.00932849;0.0761931;0.000163502;0.0681173;0;0.0798597;8.24385;6.12395
591000;592;27.8945;2.13013;0.0826772;-2.45033;27.7851;-0.29172;-0.293884;2.11748;-0.861078;-0.424352;0.23559;-0.735386;0.881118;-7.59361;-0.0136768;0.00352501;0.0855175;0.0856426;-0.0138019;0.0497223;0.15993;6.25274;0.0622082;0.0662964;6.20513;0.161157;87.8451;132.845;-0.00266552;-0.0136774;0.00335868;0.00367613;0.085518;0.00698218;-0.0178466;0;0.0430072;-0.714923;-1.86672;-1.60463;2.56331;-7.88664;-0.0149772;-0.00335357;0.0761562;0.0762794;-0.0151004;0.0456899;0.196664;5.08482;0.0565624;0.0609199;5.05148;0.197962;97.4905;142.49;-0.0104911;-0.0150134;0.00291278;-0.00908915;0.0761575;0.00100772;0.0701916;0;0.0855449;8.24666;6.131
592000;593;27.9055;2.1411;0.0831033;-2.45124;27.7961;-0.285052;-0.294786;2.12849;-0.85441;-0.423988;0.241046;-0.739832;0.886127;-7.59806;-0.0135722;0.00352341;0.085613;0.0857381;-0.0136972;0.0497176;0.158529;6.30799;0.0622289;0.0662901;6.25955;0.159756;87.8546;132.855;-0.00270155;-0.0135727;0.00336853;0.00366414;0.0856135;0.00422035;-0.0197083;0;0.0436884;-0.714708;-1.87172;-1.60818;2.56913;-7.8902;-0.0148252;-0.00342737;0.0758223;0.0759517;-0.0149546;0.0454532;0.195525;5.11443;0.0562855;0.0606042;5.07883;0.196896;98.5621;143.562;-0.0102785;-0.0148726;0.00403288;-0.0102589;0.0758202;0.00207829;0.0667025;0;0.0915226;8.24596;6.13752
593000;594;27.9082;2.14379;0.0832074;-2.45173;27.7988;-0.2855;-0.295283;2.13114;-0.854858;-0.424376;0.244321;-0.738836;0.886378;-7.59706;-0.0135366;0.00337032;0.08686;0.086973;-0.0136497;0.0503113;0.155844;6.41666;0.0630265;0.0670818;6.37181;0.156941;87.8722;132.872;-0.00131694;-0.0135376;0.0030821;0.00363192;0.0868608;0.00193381;-0.0168504;0;0.0395067;-0.715992;-1.87759;-1.60859;2.57402;-7.89061;-0.0149742;-0.00335806;0.0754661;0.0755906;-0.0150987;0.0453447;0.198422;5.03975;0.056108;0.0604595;5.00644;0.199743;98.4775;143.477;-0.00814349;-0.01502;0.00398304;-0.0100817;0.075464;4.74372e-05;0.0639313;0;0.0912345;8.24491;6.14505
594000;595;27.9325;2.16815;0.0841529;-2.45031;27.8235;-0.277245;-0.293856;2.1558;-0.846603;-0.424033;0.248175;-0.740301;0.888505;-7.59852;-0.0134875;0.00384485;0.0875468;0.0876929;-0.0136336;0.0506632;0.15406;6.49097;0.0634962;0.067551;6.43213;0.15547;87.7722;132.772;-0.00248394;-0.0134877;0.00377227;0.00391069;0.0875471;0.00205927;-0.0195779;0;0.0395164;-0.716687;-1.8828;-1.61048;2.57918;-7.89249;-0.0151361;-0.00340244;0.075249;0.0753769;-0.015264;0.0453205;0.201147;4.97148;0.0560366;0.0604273;4.9382;0.202503;98.1528;143.153;-0.00952145;-0.015178;0.00347174;-0.00969865;0.0752488;0.000721339;0.064641;0;0.0892257;8.24908;6.15092
595000;596;27.9429;2.17853;0.084556;-2.45196;27.8337;-0.284892;-0.295512;2.16601;-0.85425;-0.423527;0.252166;-0.742431;0.89116;-7.60065;-0.0135198;0.00363693;0.0879318;0.088062;-0.01365;0.050856;0.153754;6.50391;0.063747;0.067808;6.45141;0.155005;87.913;132.913;-0.00253186;-0.01352;0.00358534;0.00368371;0.0879319;0.00404297;-0.0208908;0;0.0488879;-0.717004;-1.88863;-1.61287;2.58503;-7.89489;-0.0151643;-0.00387385;0.0758954;0.0760599;-0.0153288;0.0456944;0.199805;5.00487;0.0565135;0.0609258;4.96189;0.201536;98.2155;143.215;-0.0101021;-0.0152075;0.00281753;-0.00999876;0.0758987;0.00225741;0.0661177;0;0.0900524;8.24879;6.15757
596000;597;27.9434;2.179;0.0845741;-2.45196;27.834;-0.300821;-0.29551;2.16631;-0.870179;-0.423421;0.257166;-0.744865;0.894563;-7.60309;-0.013924;0.003727;0.0873742;0.0875111;-0.0140609;0.050786;0.15936;6.27509;0.0635484;0.0677147;6.22371;0.160676;87.7878;132.788;-0.00313724;-0.0139245;0.00357648;0.00386349;0.0873747;0.00280656;-0.0226229;0;0.0429857;-0.718198;-1.89427;-1.61595;2.5914;-7.89889;-0.0147482;-0.00443951;0.0768092;0.0770239;-0.0149629;0.0459934;0.19201;5.20805;0.0569954;0.0613246;5.14765;0.194263;98.7959;143.796;-0.0108197;-0.0147992;0.00270015;-0.0109719;0.0768149;0.00474832;0.0739921;0;0.0866122;8.24694;6.16054
597000;598;27.9507;2.18633;0.0848587;-2.45293;27.8412;-0.302706;-0.296484;2.17356;-0.872063;-0.423774;0.259711;-0.743435;0.894276;-7.60166;-0.0137466;0.00395416;0.087564;0.0877181;-0.0139007;0.0508094;0.156989;6.36988;0.0636205;0.0677458;6.31036;0.15847;87.6178;132.618;-0.00286669;-0.0137473;0.00374328;0.00414539;0.0875647;0.00272178;-0.022398;0;0.0409573;-0.718976;-1.90128;-1.6141;2.5956;-7.89628;-0.014926;-0.00399815;0.0780662;0.0782378;-0.0150976;0.0466677;0.191197;5.23021;0.0578515;0.0622236;5.18213;0.192971;97.7726;142.773;-0.00821671;-0.014967;0.00239366;-0.00983847;0.0780709;-0.00115864;0.0665626;0;0.0792582;8.25137;6.16754
598000;599;27.9624;2.19804;0.0853133;-2.45008;27.8533;-0.295904;-0.293633;2.18565;-0.865261;-0.42461;0.264093;-0.745225;0.89744;-7.60345;-0.0139039;0.00387777;0.0879818;0.0881292;-0.0140512;0.0510902;0.158031;6.32787;0.0639532;0.0681203;6.27199;0.159439;87.8626;132.863;-0.00327335;-0.0139037;0.0039327;0.00382799;0.0879816;0.00426956;-0.0224487;0;0.0379577;-0.720366;-1.90689;-1.61545;2.60093;-7.89747;-0.0151393;-0.00398819;0.0782483;0.0784183;-0.0153093;0.0468638;0.193478;5.16855;0.0580587;0.0624851;5.12226;0.195226;97.5686;142.569;-0.010008;-0.0151782;0.00217079;-0.00961361;0.0782535;-0.00261677;0.0724406;0;0.0786494;8.25118;6.17418
599000;600;27.9737;2.20937;0.0857531;-2.45441;27.8645;-0.279674;-0.297956;2.19681;-0.849031;-0.424673;0.268133;-0.748321;0.901237;-7.60655;-0.0137053;0.0042419;0.0870372;0.0872155;-0.0138836;0.0505495;0.157465;6.35063;0.0632812;0.0673994;6.28192;0.159187;87.5715;132.572;-0.00363375;-0.0137054;0.00421183;0.00426919;0.0870373;0.00343752;-0.0188396;0;0.0451135;-0.721467;-1.91266;-1.61866;2.60746;-7.90068;-0.0148545;-0.00366936;0.0783193;0.0784636;-0.0149988;0.0467312;0.189667;5.27241;0.0579592;0.0623083;5.23131;0.191157;97.3591;142.359;-0.00896168;-0.0148917;0.0024997;-0.00930525;0.0783226;-0.00135555;0.0763395;0;0.0779192;8.24814;6.18068
600000;601;27.983;2.2186;0.086111;-2.45352;27.8738;-0.280438;-0.297068;2.20614;-0.849795;-0.424912;0.271163;-0.751779;0.905125;-7.61;-0.0139945;0.00422618;0.0873243;0.0875002;-0.0141705;0.0508354;0.16026;6.23988;0.0635855;0.0677805;6.17481;0.161948;87.6931;132.693;-0.00381802;-0.0139941;0.00433403;0.00412839;0.0873238;0.00484139;-0.0183661;0;0.0450451;-0.722578;-1.91988;-1.62049;2.6142;-7.9025;-0.0151057;-0.00345983;0.0785452;0.0786729;-0.0152333;0.0469531;0.192318;5.19972;0.0581948;0.0626041;5.16453;0.193629;97.5829;142.583;-0.00944724;-0.0151454;0.00315697;-0.00950197;0.0785461;-0.00454775;0.0730969;0;0.082651;8.25625;6.18821
601000;602;27.9965;2.23216;0.0866376;-2.45496;27.8874;-0.268574;-0.298506;2.21975;-0.837932;-0.424691;0.276175;-0.756641;0.910572;-7.61487;-0.0141075;0.0039761;0.0867057;0.0868623;-0.014264;0.0505632;0.162705;6.14609;0.0632017;0.0674176;6.0896;0.164214;87.9227;132.923;-0.00266101;-0.0141066;0.00422088;0.00375403;0.0867048;0.0022823;-0.0157848;0;0.0407554;-0.722577;-1.92489;-1.62463;2.62045;-7.90665;-0.0148872;-0.00351134;0.0784846;0.0786165;-0.0150191;0.0468178;0.189683;5.27194;0.0580684;0.0624237;5.23443;0.191043;98.4643;143.464;-0.0110434;-0.0149373;0.00417785;-0.0105346;0.0784823;0.00241505;0.0747102;0;0.0853183;8.25539;6.19518
602000;603;28.0115;2.24709;0.0872168;-2.45566;27.9022;-0.276306;-0.299208;2.23459;-0.845663;-0.425485;0.27783;-0.754786;0.909906;-7.61301;-0.014247;0.00418293;0.0864656;0.0866391;-0.0144204;0.0505297;0.16477;6.06905;0.0631177;0.067373;6.00809;0.166442;87.8472;132.847;-0.00401816;-0.0142458;0.00448625;0.00390773;0.0864644;0.00522037;-0.016614;0;0.0468799;-0.724109;-1.93177;-1.6252;2.62627;-7.90721;-0.0151842;-0.0034849;0.0775474;0.0776782;-0.015315;0.0464966;0.195806;5.1071;0.0575735;0.0619955;5.07203;0.19716;98.1441;143.144;-0.00919432;-0.015229;0.0036558;-0.0100109;0.0775469;0.00150494;0.0697566;0;0.0882883;8.25536;6.2033
603000;604;28.0159;2.25158;0.0873912;-2.45777;27.9065;-0.27789;-0.301325;2.2389;-0.847248;-0.42369;0.284522;-0.758605;0.914302;-7.61683;-0.0142123;0.00404241;0.0872334;0.0873943;-0.0143731;0.0508837;0.162922;6.1379;0.0635976;0.0678449;6.08041;0.164463;88.0966;133.097;-0.00425549;-0.0142104;0.00456192;0.00357136;0.0872314;0.00647338;-0.016053;0;0.0379782;-0.724142;-1.93518;-1.62829;2.63071;-7.91031;-0.0152477;-0.00362061;0.0775809;0.0777219;-0.0153887;0.0465553;0.196539;5.08804;0.0576331;0.0620738;5.05058;0.197997;98.1515;143.151;-0.0104461;-0.0152924;0.00342651;-0.0100605;0.0775816;0.00370199;0.0661269;0;0.0899445;8.25202;6.21047
604000;605;28.0286;2.26424;0.0878825;-2.45892;27.9191;-0.282567;-0.302468;2.25146;-0.851924;-0.423139;0.287649;-0.756518;0.913296;-7.61474;-0.0144294;0.00411855;0.0867208;0.0868882;-0.0145968;0.0507425;0.166389;6.01001;0.0633541;0.0676567;5.95255;0.167995;87.8197;132.82;-0.00391589;-0.0144286;0.00432079;0.00393513;0.08672;0.00471872;-0.016063;0;0.0405561;-0.724593;-1.9417;-1.63048;2.63699;-7.9125;-0.0157685;-0.00371181;0.0784963;0.0786422;-0.0159144;0.0472783;0.200882;4.97805;0.0584595;0.0630378;4.94157;0.202365;98.3278;143.328;-0.0103415;-0.015816;0.00357776;-0.0103641;0.0784967;0.00338439;0.063921;0;0.0836663;8.25115;6.21826
605000;606;28.0351;2.27069;0.0881328;-2.45973;27.9254;-0.296849;-0.303279;2.25771;-0.866207;-0.425004;0.289328;-0.754952;0.913395;-7.61318;-0.0142515;0.00418383;0.0870099;0.0871825;-0.014424;0.0508033;0.163791;6.10534;0.0634783;0.0677377;6.04426;0.165446;87.7316;132.732;-0.0040673;-0.014251;0.00431295;0.00406674;0.0870094;0.00687382;-0.0155503;0;0.0412944;-0.727614;-1.94798;-1.63245;2.64366;-7.91531;-0.015342;-0.00423071;0.0792151;0.079404;-0.0155309;0.0474675;0.193675;5.16329;0.0588007;0.06329;5.11265;0.195593;98.373;143.373;-0.0100215;-0.0153911;0.00286949;-0.0107086;0.0792196;0.003153;0.066845;0;0.088848;8.25213;6.2252
606000;607;28.0517;2.2873;0.0887774;-2.46156;27.9419;-0.291564;-0.305111;2.27428;-0.860922;-0.423635;0.294947;-0.762181;0.920533;-7.62041;-0.0144161;0.00412958;0.0881636;0.0883296;-0.0145821;0.0514559;0.163516;6.11562;0.0643006;0.0686078;6.05739;0.165087;87.8381;132.838;-0.00401223;-0.0144154;0.00432523;0.00395238;0.0881629;0.00728936;-0.0154575;0;0.0540882;-0.726875;-1.95394;-1.63605;2.65007;-7.91823;-0.0154719;-0.00435583;0.0801678;0.0803658;-0.0156699;0.0480178;0.192994;5.18151;0.0594924;0.0640238;5.12868;0.194982;98.3435;143.343;-0.0103441;-0.0155218;0.00274668;-0.0108293;0.0801731;0.00128099;0.0664127;0;0.0828897;8.2534;6.22908
607000;608;28.0596;2.29524;0.0890858;-2.46359;27.9497;-0.295022;-0.307139;2.28204;-0.864379;-0.424448;0.298885;-0.760627;0.920892;-7.61885;-0.0142684;0.00433053;0.087848;0.0880313;-0.0144517;0.0512415;0.162421;6.15684;0.0640505;0.068322;6.09143;0.164165;87.6184;132.618;-0.00344794;-0.0142681;0.00438978;0.00427684;0.0878477;0.00658657;-0.0161855;0;0.0487422;-0.729011;-1.96059;-1.63256;2.65342;-7.91458;-0.0151782;-0.0045805;0.0807704;0.0809886;-0.0153964;0.0481925;0.187918;5.32146;0.059789;0.0642567;5.26022;0.190106;98.8676;143.868;-0.00760115;-0.0152361;0.00314179;-0.011617;0.0807756;-0.00695166;0.0678083;0;0.0843649;8.25137;6.23436
608000;609;28.0662;2.30187;0.089343;-2.46775;27.956;-0.29005;-0.311296;2.28838;-0.859408;-0.422802;0.30258;-0.76448;0.924525;-7.6227;-0.0146124;0.00399325;0.0892121;0.0893654;-0.0147657;0.0520656;0.163793;6.10525;0.0650598;0.0694208;6.05223;0.165228;87.7036;132.704;-0.00391586;-0.0146129;0.00385568;0.0041177;0.0892126;0.0074183;-0.0155025;0;0.0415071;-0.728153;-1.96595;-1.63766;2.66028;-7.91967;-0.0153722;-0.00419085;0.0805409;0.0807236;-0.015555;0.0481393;0.190862;5.23937;0.0596803;0.0641857;5.18956;0.192694;98.3255;143.326;-0.0119624;-0.0154227;0.00307796;-0.0108143;0.0805446;0.000206908;0.0760854;0;0.0803937;8.25487;6.23972
609000;610;28.0716;2.30723;0.0895512;-2.4675;27.9614;-0.294803;-0.311047;2.29374;-0.864161;-0.423414;0.304435;-0.761518;0.922968;-7.61974;-0.0142262;0.00479613;0.0890653;0.0892875;-0.0144484;0.0518679;0.159727;6.26067;0.0648796;0.0691573;6.17976;0.161819;87.1842;132.184;-0.00217559;-0.0142272;0.00456427;0.00500601;0.0890663;0.00450031;-0.0167145;0;0.0470897;-0.729043;-1.9732;-1.63777;2.66595;-7.91979;-0.0148603;-0.00395717;0.0807388;0.0809023;-0.0150238;0.0479631;0.184054;5.43318;0.0595776;0.0639508;5.38493;0.185704;99.2318;144.232;-0.00621905;-0.0149242;0.00474995;-0.0118938;0.0807356;-0.0031094;0.078523;0;0.0907881;8.25558;6.24682
610000;611;28.0856;2.32125;0.0900954;-2.46842;27.9755;-0.286756;-0.311969;2.30782;-0.856114;-0.422509;0.30938;-0.767191;0.928877;-7.62542;-0.014293;0.0043216;0.0905277;0.0907056;-0.0144709;0.0525882;0.157886;6.3337;0.0658264;0.0701177;6.26814;0.159537;87.6038;132.604;-0.00278222;-0.0142932;0.00426456;0.00437315;0.090528;0.00439738;-0.0158587;0;0.0460696;-0.728943;-1.97935;-1.64097;2.67245;-7.92298;-0.0152043;-0.00341704;0.08034;0.080462;-0.0153263;0.0478942;0.189249;5.28403;0.0594128;0.0638589;5.24992;0.190479;98.587;143.587;-0.0123565;-0.0152584;0.00476678;-0.0108769;0.0803349;0.00555189;0.0774766;0;0.0917661;8.25553;6.2537
611000;612;28.0989;2.33457;0.0906122;-2.46679;27.9891;-0.276062;-0.310345;2.32144;-0.845419;-0.423441;0.315943;-0.771265;0.934864;-7.62949;-0.0141377;0.00371329;0.0909221;0.0910531;-0.0142688;0.052661;0.155493;6.43116;0.0659747;0.0702146;6.38127;0.156709;87.9247;132.925;-0.00295967;-0.014138;0.00363497;0.00378407;0.0909223;0.00646074;-0.0166908;0;0.0468545;-0.730354;-1.98233;-1.64442;2.67716;-7.92644;-0.0148248;-0.00383816;0.0803303;0.0804849;-0.0149794;0.0477321;0.184548;5.41863;0.0592839;0.0636429;5.37304;0.186114;99.5805;144.58;-0.00961862;-0.0148932;0.00535516;-0.0122215;0.0803239;0.00233213;0.0740871;0;0.0947846;8.25539;6.26161
612000;613;28.0984;2.334;0.0905902;-2.46551;27.9885;-0.284053;-0.309063;2.3209;-0.853411;-0.423213;0.319122;-0.773742;0.937883;-7.63197;-0.014312;0.00417974;0.0915064;0.0916713;-0.0144768;0.053074;0.156404;6.3937;0.0664674;0.0707654;6.33228;0.157921;87.6665;132.666;-0.00322739;-0.0143124;0.0040693;0.00427947;0.0915069;0.00540612;-0.0158943;0;0.0437862;-0.73133;-1.98885;-1.64671;2.68366;-7.92872;-0.0157497;-0.00337896;0.0799188;0.080038;-0.0158689;0.0479534;0.197071;5.0743;0.0593596;0.0639379;5.0437;0.198267;98.2552;143.255;-0.00971593;-0.0157985;0.00428943;-0.0103679;0.0799155;0.00332542;0.0674829;0;0.0931817;8.25433;6.26837
613000;614;28.1171;2.35277;0.0913189;-2.46417;28.0074;-0.297776;-0.307724;2.33972;-0.867134;-0.422809;0.323208;-0.773717;0.939079;-7.63194;-0.0141346;0.00386257;0.0922856;0.0924256;-0.0142747;0.0533501;0.153162;6.52903;0.066885;0.0711335;6.4748;0.154445;88.0084;133.008;-0.00371357;-0.0141342;0.00398828;0.00374911;0.0922851;0.00509174;-0.0165393;0;0.0468584;-0.731693;-1.99536;-1.64825;2.68953;-7.93027;-0.0162071;-0.00375212;0.0808735;0.0810183;-0.0163519;0.0486851;0.200401;4.99001;0.0602076;0.0649134;4.95467;0.20183;98.2341;143.234;-0.0112158;-0.0162565;0.00371263;-0.0105462;0.0808736;0.00473711;0.0675845;0;0.0884359;8.25903;6.27575
614000;615;28.1232;2.35879;0.0915525;-2.46451;28.0133;-0.308293;-0.30806;2.34562;-0.877651;-0.422836;0.325709;-0.770589;0.937381;-7.62881;-0.0139596;0.00380192;0.0922643;0.0924002;-0.0140955;0.0532478;0.1513;6.60939;0.0667962;0.0709971;6.55531;0.152548;87.9045;132.905;-0.00316868;-0.0139598;0.00372987;0.00386697;0.0922645;0.00526307;-0.0157931;0;0.0444518;-0.732846;-2.00321;-1.64562;2.69407;-7.92764;-0.0160928;-0.00407834;0.0815898;0.0817597;-0.0162628;0.0490113;0.197241;5.06995;0.0606585;0.0653484;5.02741;0.19891;98.3133;143.313;-0.0105232;-0.0161441;0.00336131;-0.0108459;0.0815922;0.00341083;0.0622499;0;0.0880841;8.25885;6.28301
615000;616;28.1395;2.37509;0.0921849;-2.46548;28.0297;-0.294928;-0.309027;2.36204;-0.864286;-0.421312;0.329897;-0.774386;0.941281;-7.63261;-0.0140404;0.0039172;0.0922103;0.0923545;-0.0141846;0.0532695;0.152265;6.56751;0.0668017;0.0710261;6.51091;0.153588;87.9262;132.926;-0.00373938;-0.0140402;0.00396903;0.0038704;0.0922101;0.00383067;-0.0176967;0;0.0427255;-0.73233;-2.00882;-1.64876;2.70002;-7.93095;-0.0158656;-0.0042464;0.0823271;0.0825104;-0.0160489;0.0492797;0.192714;5.18903;0.0610637;0.0657062;5.14119;0.194508;98.3599;143.36;-0.0105827;-0.0159187;0.00325754;-0.0110694;0.0823306;0.000479853;0.0623093;0;0.0925482;8.25539;6.29051
616000;617;28.1387;2.37429;0.0921542;-2.46411;28.0289;-0.306124;-0.307659;2.36124;-0.875481;-0.421741;0.330287;-0.764134;0.933197;-7.62236;-0.0143026;0.00432939;0.0921223;0.0922981;-0.0144785;0.0533883;0.155257;6.44093;0.0668827;0.0711844;6.37485;0.156866;87.5546;132.555;-0.0034957;-0.0143034;0.00415184;0.00448964;0.092123;0.00577773;-0.019218;0;0.0467526;-0.732445;-2.01525;-1.6456;2.70291;-7.92762;-0.015938;-0.00414917;0.0825104;0.0826849;-0.0161125;0.0493987;0.193163;5.17697;0.0612052;0.065865;5.13172;0.194867;98.0754;143.075;-0.0108656;-0.0159876;0.00307714;-0.0107181;0.0825139;0.0026662;0.0720704;0;0.0885779;8.25916;6.29616
617000;618;;;;;;;;;;-0.423634;0.338578;-0.781396;0.951147;-7.63845;-0.0139718;0.00408313;0.0924239;0.0925804;-0.0141283;0.0533543;0.151171;6.61503;0.0669286;0.0711391;6.55284;0.152606;87.9564;132.956;-0.00444795;-0.013971;0.00430894;0.00387932;0.0924231;0.0019909;-0.0160639;0;0.0378739;-0.735998;-2.01974;-1.65703;2.71418;-7.93905;-0.0154392;-0.00418872;0.0824174;0.0825964;-0.0156182;0.0491073;0.18733;5.33818;0.0609411;0.0654764;5.28847;0.189091;98.9218;143.922;-0.0140826;-0.0155008;0.00415452;-0.0117774;0.0824176;0.00376344;0.0832564;0;0.0876962;8.26514;6.3045
618000;619;28.1649;2.40056;0.0931738;-2.46953;28.0549;-0.2983;-0.313085;2.38722;-0.867658;-0.42156;0.341898;-0.779726;0.950042;-7.63795;-0.0144258;0.00436211;0.092943;0.0931199;-0.0146028;0.0538613;0.155212;6.44282;0.0674763;0.0718151;6.37687;0.156817;87.9043;132.904;-0.00294277;-0.0144245;0.00470213;0.0040555;0.0929416;0.00257372;-0.0198614;0;0.0443026;-0.735353;-2.02602;-1.65704;2.71869;-7.93905;-0.0158599;-0.00416058;0.0822431;0.0824192;-0.016036;0.0492276;0.192842;5.1856;0.0609982;0.0656368;5.13963;0.194566;98.4537;143.454;-0.010776;-0.0159142;0.00351948;-0.0111442;0.0822454;0.00212453;0.0759309;0;0.0920791;8.25524;6.30886
619000;620;28.1637;2.39932;0.0931253;-2.47013;28.0534;-0.31204;-0.313685;2.38577;-0.881398;-0.422432;0.346172;-0.780812;0.952864;-7.63904;-0.0144413;0.00441451;0.0919696;0.0921524;-0.0146241;0.0533883;0.157022;6.36853;0.066845;0.0711844;6.30141;0.158695;87.7843;132.784;-0.00350558;-0.0144404;0.00464469;0.00420675;0.0919687;0.00249626;-0.0190685;0;0.0435958;-0.737207;-2.03108;-1.66017;2.72488;-7.94219;-0.0159981;-0.00364511;0.0824611;0.0825958;-0.0161329;0.0493644;0.194008;5.15441;0.061155;0.0658192;5.11971;0.195324;97.7513;142.751;-0.00969241;-0.0160439;0.00352663;-0.0101644;0.0824615;0.000966687;0.0752413;0;0.0879967;8.25635;6.31266
620000;621;28.1827;2.41838;0.0938652;-2.47304;28.0726;-0.28596;-0.316595;2.40493;-0.855317;-0.422145;0.349785;-0.785867;0.958198;-7.64409;-0.0144714;0.0042073;0.0923755;0.0925409;-0.0146368;0.0535889;0.156658;6.38333;0.0671071;0.0714518;6.32249;0.158166;87.978;132.978;-0.00288452;-0.0144701;0.00454822;0.00389972;0.0923741;0.00191667;-0.0178094;0;0.0394751;-0.737622;-2.03619;-1.66567;2.73214;-7.94769;-0.015818;-0.00337532;0.0815383;0.0816552;-0.0159349;0.048795;0.193995;5.15478;0.0604526;0.0650601;5.12431;0.195148;98.6309;143.631;-0.0108572;-0.015874;0.00503054;-0.0110243;0.0815319;0.00772991;0.0812409;0;0.0956106;8.25829;6.32032
621000;622;28.1838;2.41946;0.0939074;-2.4743;28.0736;-0.278255;-0.317847;2.40598;-0.847613;-0.421683;0.352888;-0.784168;0.95774;-7.64239;-0.0145031;0.00404867;0.0919818;0.0921355;-0.0146568;0.0533962;0.157674;6.34221;0.0668471;0.0711949;6.28619;0.159079;87.9424;132.942;-0.00385237;-0.0145025;0.00422087;0.00389326;0.0919812;0.00711249;-0.0192416;0;0.0427364;-0.738032;-2.04322;-1.66409;2.73653;-7.9461;-0.0160795;-0.00373349;0.0819837;0.0821256;-0.0162214;0.0491735;0.19613;5.09865;0.0608822;0.0655647;5.06279;0.19752;98.5905;143.59;-0.0092448;-0.0161353;0.00439126;-0.0111217;0.0819812;0.00421619;0.0736843;0;0.0966968;8.25895;6.32719
622000;623;28.198;2.4336;0.094456;-2.47007;28.0881;-0.284346;-0.313617;2.42048;-0.853703;-0.421728;0.357949;-0.784398;0.959824;-7.64262;-0.0144545;0.00467677;0.092747;0.0929506;-0.0146582;0.0538044;0.155849;6.41647;0.0673867;0.0717392;6.34122;0.157698;87.5651;132.565;-0.00251995;-0.0144542;0.00476387;0.00459822;0.0927466;0.0064671;-0.0188094;0;0.0418686;-0.739733;-2.04824;-1.66413;2.74078;-7.94615;-0.016528;-0.00413537;0.0832956;0.0834666;-0.016699;0.0500828;0.198426;5.03966;0.0619654;0.0667771;4.99829;0.200068;98.8491;143.849;-0.00415543;-0.0165889;0.00419601;-0.0116988;0.0832954;-0.000833693;0.0717286;0;0.0979727;8.25547;6.33476
623000;624;28.2099;2.44548;0.0949172;-2.47229;28.0997;-0.297788;-0.315839;2.43208;-0.867146;-0.422279;0.362196;-0.786614;0.963467;-7.64484;-0.0145389;0.00455577;0.0920444;0.0922387;-0.0147333;0.053486;0.157956;6.33089;0.0669462;0.0713147;6.26056;0.15973;87.3576;132.358;-0.00252233;-0.0145402;0.00426136;0.00482145;0.0920455;0.00543009;-0.0203057;0;0.0436219;-0.740896;-2.05596;-1.6639;2.74672;-7.94591;-0.016461;-0.0038594;0.0835405;0.0836892;-0.0166097;0.0501495;0.197042;5.07506;0.0620746;0.066866;5.03857;0.198469;98.5754;143.575;-0.0124582;-0.0165186;0.00436243;-0.0113222;0.0835386;0.0102799;0.0706782;0;0.0893172;8.25885;6.34214
624000;625;28.2235;2.45909;0.0954452;-2.47336;28.1132;-0.30497;-0.316915;2.44556;-0.874328;-0.421978;0.367801;-0.794013;0.971493;-7.65224;-0.0145021;0.00449739;0.0935492;0.093736;-0.014689;0.0542125;0.155021;6.45072;0.0679186;0.0722834;6.38138;0.156706;87.3625;132.363;-0.00318772;-0.0145038;0.00410791;0.00484838;0.0935507;0.00723482;-0.0238095;0;0.0433697;-0.742174;-2.05939;-1.67461;2.75613;-7.95754;-0.016482;-0.00449803;0.0840818;0.0842826;-0.0166828;0.0504827;0.196023;5.10143;0.062496;0.0673102;5.05207;0.197939;99.0791;144.079;-0.0111719;-0.0165475;0.00400054;-0.012208;0.0840837;0.00615098;0.0707562;0;0.0920084;8.25914;6.35015
625000;626;28.2357;2.47135;0.0959212;-2.48;28.1248;-0.314233;-0.323552;2.45719;-0.88359;-0.420906;0.370379;-0.789331;0.968187;-7.64755;-0.0147149;0.00477024;0.093904;0.0941131;-0.014924;0.0545186;0.156702;6.38154;0.0682627;0.0726914;6.30614;0.158576;87.0892;132.089;-0.00233955;-0.0147177;0.00416392;0.00531636;0.0939065;0.00527506;-0.0234499;0;0.0489229;-0.741881;-2.06596;-1.67355;2.76032;-7.95557;-0.0162289;-0.00435257;0.0845394;0.0847271;-0.0164165;0.0505718;0.191968;5.20921;0.0626777;0.0674291;5.16109;0.193757;98.7566;143.757;-0.0125769;-0.0162907;0.00391822;-0.0118547;0.0845411;0.00275964;0.0746547;0;0.0865897;8.25721;6.35733
626000;627;28.2465;2.48215;0.0963405;-2.47923;28.1358;-0.306107;-0.322783;2.46819;-0.875464;-0.421809;0.375863;-0.793342;0.973954;-7.65157;-0.0143923;0.00418455;0.0953874;0.0955467;-0.0145516;0.0550491;0.150883;6.62765;0.0690613;0.0733989;6.56606;0.152298;87.4344;132.434;-0.00218102;-0.0143948;0.00358707;0.00472215;0.0953895;0.00646565;-0.0198631;0;0.0472211;-0.743042;-2.07285;-1.67263;2.76523;-7.95534;-0.0163907;-0.00455315;0.0840111;0.0842172;-0.0165967;0.050407;0.195101;5.12554;0.062417;0.0672093;5.07432;0.197071;99.2485;144.248;-0.0136881;-0.0164587;0.00412887;-0.0124308;0.0840128;0.00753213;0.0819263;0;0.0912727;8.25735;6.36408
627000;628;28.242;2.47763;0.096165;-2.47597;28.1315;-0.317316;-0.319517;2.46382;-0.886673;-0.420445;0.379812;-0.79258;0.974276;-7.6508;-0.0142901;0.00420498;0.0964114;0.0965709;-0.0144496;0.0555102;0.14822;6.74674;0.0696982;0.0740136;6.68331;0.149627;87.5327;132.533;-0.00191815;-0.0142919;0.00374118;0.00462195;0.0964131;0.00396717;-0.0193403;0;0.0487365;-0.742763;-2.07915;-1.67062;2.76867;-7.95264;-0.0161166;-0.00394876;0.0844797;0.0846345;-0.0162713;0.0504529;0.190774;5.2418;0.0625562;0.0672705;5.20145;0.192254;98.5983;143.598;-0.0140561;-0.0161763;0.00441781;-0.011539;0.0844779;0.0106723;0.0880456;0;0.0910284;8.26391;6.37072
628000;629;28.268;2.50367;0.0971755;-2.47766;28.1576;-0.302073;-0.321215;2.48997;-0.871431;-0.421925;0.384124;-0.793658;0.977479;-7.65188;-0.0141562;0.00372867;0.0965498;0.0966753;-0.0142816;0.0554784;0.14662;6.82033;0.0697002;0.0739713;6.76921;0.147728;87.737;132.737;-0.00262306;-0.0141581;0.00319865;0.00420518;0.0965515;0.00369523;-0.0212487;0;0.0497315;-0.744566;-2.08571;-1.67139;2.77454;-7.9534;-0.0163434;-0.00367652;0.0840997;0.0842341;-0.0164778;0.0503559;0.194333;5.1458;0.0623784;0.0671412;5.11198;0.195619;98.5581;143.558;-0.0116689;-0.0164018;0.00476251;-0.0113335;0.0840954;0.00185383;0.0785091;0;0.0953699;8.26877;6.37856
629000;630;28.2736;2.50921;0.0973908;-2.47902;28.1632;-0.286868;-0.322566;2.49558;-0.856226;-0.420571;0.388997;-0.797153;0.981657;-7.65538;-0.014485;0.00375988;0.0976198;0.0977457;-0.014611;0.0561784;0.148382;6.73935;0.0705404;0.0749045;6.68987;0.14948;87.9179;132.918;-0.00218749;-0.014486;0.0034997;0.00399349;0.0976206;0.00382537;-0.020897;0;0.0437153;-0.745044;-2.09052;-1.67851;2.78259;-7.96222;-0.0159065;-0.00361859;0.0841741;0.0843048;-0.0160372;0.050171;0.188972;5.2918;0.0622415;0.0668946;5.25683;0.190229;99.3739;144.374;-0.0132124;-0.0159778;0.00604041;-0.0123857;0.0841633;0.0115398;0.0751836;0;0.0993445;8.26049;6.3846
630000;631;28.2927;2.52831;0.0981322;-2.48146;28.1823;-0.277251;-0.325007;2.51464;-0.846609;-0.420299;0.391246;-0.795803;0.98134;-7.65403;-0.014174;0.00377816;0.0979752;0.0981024;-0.0143012;0.0562018;0.14467;6.9123;0.0706528;0.0749357;6.85974;0.145778;87.8026;132.803;-0.00299411;-0.0141756;0.00334443;0.00416758;0.0979766;0.00392166;-0.0216427;0;0.0437056;-0.744767;-2.0976;-1.67459;2.78548;-7.95661;-0.0164735;-0.00407408;0.0847394;0.0849031;-0.0166372;0.0507702;0.194401;5.14399;0.0628858;0.0676936;5.10321;0.195955;99.0559;144.056;-0.00580872;-0.01654;0.00483012;-0.0121472;0.0847363;-0.00520076;0.0709446;0;0.0953255;8.25338;6.38721
631000;632;28.2971;2.53276;0.0983047;-2.48053;28.1869;-0.27333;-0.324082;2.51922;-0.842688;-0.42101;0.398032;-0.799648;0.98748;-7.65787;-0.0143901;0.00387148;0.0981121;0.0982452;-0.0145231;0.0563842;0.14667;6.81804;0.0708359;0.0751789;6.76473;0.147825;87.7979;132.798;-0.00265358;-0.0143914;0.00349677;0.00420781;0.0981134;0.00370259;-0.0241974;0;0.051248;-0.746584;-2.10172;-1.6825;2.79382;-7.96508;-0.0169018;-0.0041573;0.0850247;0.085194;-0.017071;0.0511325;0.198786;5.03053;0.0632589;0.0681767;4.99056;0.200378;98.7757;143.776;-0.0120785;-0.0169641;0.00430661;-0.0118259;0.0850242;0.00663543;0.0798956;0;0.0974053;8.26268;6.39326
632000;633;;;;;;;;;;-0.422719;0.397973;-0.792888;0.982723;-7.64994;-0.0142126;0.00413507;0.097965;0.0981172;-0.0143648;0.056241;0.145079;6.89282;0.070688;0.074988;6.83037;0.146405;87.5455;132.545;-0.00267472;-0.0142148;0.00357927;0.00463409;0.0979669;0.00343894;-0.0195353;0;0.0539727;-0.749192;-2.11106;-1.6749;2.79699;-7.95692;-0.0169103;-0.00400511;0.0858646;0.0860205;-0.0170661;0.0515433;0.196941;5.07766;0.0638011;0.0687244;5.04043;0.198396;98.6289;143.629;-0.0149791;-0.0169719;0.00450899;-0.0117131;0.0858627;0.0113113;0.0764729;0;0.0953043;8.25492;6.40013
633000;634;;;;;;;;;;-0.421887;0.402023;-0.797048;0.987369;-7.6541;-0.0142008;0.00405671;0.0984015;0.0985475;-0.0143467;0.0564471;0.144315;6.9293;0.0709656;0.0752628;6.86898;0.145582;87.595;132.595;-0.00241123;-0.014203;0.00350087;0.00455557;0.0984034;-0.00022376;-0.0207107;0;0.0516515;-0.749099;-2.11647;-1.67783;2.80281;-7.95985;-0.0168437;-0.00374457;0.0858413;0.0859777;-0.0169801;0.0514789;0.196219;5.09635;0.0637369;0.0686385;5.06345;0.197494;98.5213;143.521;-0.0116551;-0.0169038;0.00482306;-0.0115018;0.0858371;0.0102838;0.0760714;0;0.100144;8.25504;6.40777
634000;635;;;;;;;;;;-0.421115;0.409164;-0.806603;0.997678;-7.66366;-0.0143732;0.00400848;0.0984034;0.0985457;-0.0145155;0.0565306;0.146064;6.84634;0.0710317;0.0753741;6.78902;0.147297;87.7761;132.776;-0.00363532;-0.0143743;0.00370107;0.00428433;0.0984045;0.00326885;-0.02148;0;0.0415602;-0.748826;-2.11973;-1.69299;2.81428;-7.975;-0.0169002;-0.00408326;0.0863654;0.0865266;-0.0170614;0.051794;0.195683;5.11031;0.0641325;0.0690587;5.07147;0.197181;98.8544;143.854;-0.0107599;-0.0169661;0.00476634;-0.0120914;0.0863626;0.011807;0.0763947;0;0.0921272;8.26218;6.41433
635000;636;28.3297;2.56528;0.0995667;-2.48502;28.2186;-0.325592;-0.32857;2.55095;-0.896334;-0.419355;0.411243;-0.804874;0.996395;-7.6631;-0.0145033;0.00407202;0.0991164;0.0992621;-0.0146491;0.0569556;0.146326;6.83404;0.0715594;0.0759408;6.77599;0.14758;88.0446;133.045;-0.00128594;-0.0145028;0.00422552;0.00393439;0.0991158;0.000496002;-0.0218555;0;0.042193;-0.749139;-2.12676;-1.68754;2.8164;-7.96719;-0.016353;-0.004493;0.0868093;0.0870046;-0.0165484;0.0517765;0.188379;5.30845;0.0642337;0.0690353;5.2576;0.190201;98.6078;143.608;-0.0151855;-0.0164162;0.00381794;-0.0120148;0.0868119;0.00548901;0.0766881;0;0.0958059;8.25911;6.42176
636000;637;28.3346;2.57022;0.0997587;-2.48562;28.2235;-0.327614;-0.329172;2.5558;-0.896971;-0.416996;0.412132;-0.804501;0.99547;-7.66272;-0.0146094;0.00440969;0.0981178;0.0982901;-0.0147817;0.0565359;0.148897;6.71605;0.0709689;0.0753812;6.64945;0.150388;87.7192;132.719;-0.00157465;-0.0146097;0.00433913;0.004473;0.0981181;0.000528686;-0.022798;0;0.0452543;-0.747243;-2.13677;-1.6886;2.8241;-7.97061;-0.0165526;-0.00364328;0.0858911;0.0860205;-0.016682;0.0513513;0.192716;5.18898;0.0636407;0.0684684;5.15649;0.19393;98.4987;143.499;-0.0134202;-0.0166128;0.00500715;-0.0114774;0.0858857;0.00660327;0.0835893;0;0.0929187;8.25539;6.42906
637000;638;28.353;2.58861;0.100473;-2.48425;28.2423;-0.306703;-0.327801;2.57462;-0.876061;-0.419659;0.419956;-0.81022;1.00446;-7.66844;-0.0147435;0.00422419;0.0990391;0.0991957;-0.0149001;0.0570479;0.148865;6.71747;0.0716157;0.0760639;6.65738;0.150209;87.8143;132.814;-0.00137989;-0.0147439;0.00412308;0.00431482;0.0990395;0.000545057;-0.0239096;0;0.0425637;-0.750504;-2.14007;-1.69056;2.82864;-7.97258;-0.0167165;-0.00394823;0.085794;0.0859459;-0.0168684;0.0514071;0.194845;5.13229;0.0636693;0.0685428;5.09509;0.196267;98.6555;143.656;-0.00828744;-0.0167786;0.00465311;-0.0117373;0.0857913;0.000119553;0.0837437;0;0.100017;8.25917;6.43662
638000;639;28.3652;2.60084;0.100947;-2.48834;28.2544;-0.284423;-0.331886;2.58677;-0.85378;-0.419172;0.424739;-0.810885;1.0068;-7.66911;-0.0149936;0.00479399;0.0989887;0.09919;-0.0151949;0.0571924;0.151468;6.60205;0.0717301;0.0762566;6.52784;0.15319;87.2815;132.282;-0.000602825;-0.014996;0.00428758;0.00524788;0.0989908;0.0011877;-0.0309099;0;0.048465;-0.75158;-2.14509;-1.69161;2.83334;-7.97363;-0.0168441;-0.0038417;0.0856463;0.0857901;-0.0169879;0.051389;0.19667;5.08465;0.0636166;0.0685186;5.05007;0.198017;98.3818;143.382;-0.00963798;-0.0169019;0.00442894;-0.0113313;0.085644;0.00286858;0.0791883;0;0.0990621;8.26282;6.44339
639000;640;28.3835;2.61909;0.101656;-2.48714;28.2728;-0.293355;-0.330688;2.60511;-0.862713;-0.421498;0.427583;-0.808489;1.00705;-7.66671;-0.0153065;0.00469185;0.100467;0.100657;-0.0154963;0.0580768;0.152353;6.56371;0.0728219;0.0774357;6.49556;0.153951;87.3207;132.321;0.000286938;-0.0153092;0.0040991;0.00522224;0.10047;0.0010889;-0.0300016;0;0.0506714;-0.753574;-2.15243;-1.68954;2.8382;-7.97156;-0.0170702;-0.0039487;0.0856072;0.0857589;-0.0172219;0.0514904;0.199402;5.015;0.0636941;0.0686538;4.97965;0.200817;98.6341;143.634;-0.0103592;-0.0171314;0.00455902;-0.0116515;0.0856049;0.00700652;0.0784531;0;0.0986672;8.25838;6.44925
640000;641;28.3746;2.61027;0.101313;-2.48734;28.264;-0.281641;-0.330889;2.59636;-0.850998;-0.418151;0.432257;-0.819032;1.01612;-7.67726;-0.0152004;0.00487405;0.10149;0.101693;-0.0154036;0.0585485;0.149772;6.6768;0.0734703;0.0780646;6.6019;0.151472;87.3263;132.326;-0.000377049;-0.0152026;0.00439951;0.00529831;0.101492;0.00157667;-0.0329998;0;0.0562477;-0.752876;-2.15653;-1.70733;2.85174;-7.98991;-0.0176247;-0.00424356;0.087129;0.0873006;-0.0177963;0.0525485;0.202282;4.94359;0.0649504;0.0700646;4.90555;0.203851;98.4503;143.45;-0.0125825;-0.0176849;0.00397898;-0.0116736;0.08713;0.00733278;0.0779923;0;0.0956372;8.26013;6.45352
641000;642;28.3858;2.62142;0.101746;-2.48585;28.2751;-0.306073;-0.329398;2.60743;-0.87543;-0.419884;0.442371;-0.829541;1.02963;-7.68776;-0.0154399;0.00520395;0.10304;0.103269;-0.015668;0.0594683;0.149843;6.67365;0.0746187;0.079291;6.59104;0.151721;86.78;131.78;0.00100767;-0.0154461;0.00400655;0.00627273;0.103045;-0.00189249;-0.0302103;0;0.0546026;-0.755018;-2.16002;-1.71574;2.85998;-7.99832;-0.0171941;-0.00413707;0.0877859;0.0879487;-0.0173569;0.0526528;0.195864;5.10559;0.0651929;0.0702037;5.06708;0.197352;99.0791;144.079;-0.0149349;-0.0172658;0.00519803;-0.012571;0.0877814;0.0130468;0.0779062;0;0.0984723;8.26258;6.45945
642000;643;28.4199;2.65556;0.103071;-2.49047;28.3091;-0.288467;-0.334019;2.64148;-0.857825;-0.418858;0.443893;-0.828084;1.02869;-7.68631;-0.0151072;0.00462895;0.104747;0.104926;-0.0152857;0.0601058;0.144225;6.93362;0.075563;0.0801411;6.86432;0.145681;87.3163;132.316;0.000440845;-0.0151109;0.00380754;0.00536125;0.104751;-0.00128087;-0.0299901;0;0.059639;-0.755632;-2.17004;-1.70676;2.86236;-7.98877;-0.017324;-0.0040351;0.0880322;0.0881865;-0.0174783;0.0528324;0.196791;5.08153;0.0654003;0.0704432;5.04549;0.198197;98.9095;143.909;-0.0119629;-0.0173932;0.0051658;-0.0123448;0.0880274;0.010155;0.0780604;0;0.0999602;8.25918;6.46671
643000;644;28.4169;2.65248;0.102952;-2.49048;28.3059;-0.298547;-0.334035;2.63828;-0.867905;-0.419832;0.451067;-0.827512;1.03174;-7.68574;-0.015013;0.00445429;0.104652;0.104817;-0.0151786;0.059998;0.143457;6.97075;0.0754485;0.0799973;6.90561;0.14481;87.1258;132.126;0.00105133;-0.0150189;0.00316582;0.00560318;0.104656;-0.000245164;-0.0295995;0;0.0486032;-0.756927;-2.17216;-1.71048;2.86653;-7.9925;-0.0175963;-0.00442571;0.0880388;0.0882239;-0.0177814;0.0530027;0.19987;5.00325;0.065552;0.0706702;4.96158;0.201549;98.3597;143.36;-0.00829193;-0.0176565;0.00367726;-0.0117417;0.0880416;0.00651792;0.0706885;0;0.0982997;8.25938;6.47365
644000;645;28.4268;2.66248;0.103339;-2.48731;28.316;-0.321292;-0.33086;2.64835;-0.89065;-0.421164;0.4543;-0.825875;1.03239;-7.6841;-0.0148601;0.00416575;0.105964;0.106107;-0.0150035;0.0605553;0.140238;7.13076;0.076233;0.0807404;7.07214;0.1414;87.2101;132.21;0.00122658;-0.0148663;0.00272753;0.00544684;0.105968;0.000179333;-0.0287236;0;0.0462658;-0.758634;-2.1791;-1.71021;2.87208;-7.99223;-0.0170779;-0.00430506;0.08828;0.0884557;-0.0172535;0.0528546;0.193452;5.16925;0.0654837;0.0704728;5.12681;0.195053;99.0507;144.051;-0.0104756;-0.0171501;0.00495566;-0.0126689;0.0882773;0.00939574;0.0766131;0;0.0972672;8.26044;6.48089
645000;646;28.4474;2.68299;0.104135;-2.49141;28.3363;-0.316795;-0.33496;2.66862;-0.886153;-0.419434;0.458498;-0.831025;1.03766;-7.68925;-0.0148629;0.00411552;0.105895;0.106035;-0.015003;0.0605191;0.140355;7.12478;0.0761851;0.0806921;7.06759;0.141491;87.2338;132.234;0.000240354;-0.0148691;0.00268032;0.005394;0.105899;-0.000173302;-0.0321924;0;0.0448098;-0.75774;-2.18714;-1.71333;2.8798;-7.99535;-0.016725;-0.00401381;0.0877889;0.0879429;-0.016879;0.0524109;0.190514;5.24895;0.0649897;0.0698812;5.2102;0.191931;98.9999;144;-0.0131718;-0.0167961;0.00535228;-0.0124797;0.0877832;0.007793;0.0888801;0;0.0959491;8.25637;6.48819
646000;647;28.4458;2.68147;0.104077;-2.48817;28.335;-0.320148;-0.331716;2.66735;-0.889506;-0.420934;0.462142;-0.832891;1.04138;-7.69111;-0.0149528;0.00415299;0.106519;0.106661;-0.0150946;0.0608778;0.140376;7.12371;0.076636;0.0811704;7.06618;0.141519;87.1759;132.176;0.00105997;-0.0149595;0.00261701;0.00552033;0.106524;-0.00158312;-0.0312475;0;0.044877;-0.760142;-2.19318;-1.71363;2.8852;-7.99564;-0.0168227;-0.00418064;0.0876082;0.0877753;-0.0169898;0.0523825;0.192022;5.20775;0.0649254;0.0698434;5.16637;0.19356;99.4723;144.472;-0.0110035;-0.0169011;0.00569082;-0.0131039;0.0876013;0.00849778;0.0840337;0;0.102117;8.25907;6.4959
647000;648;28.4716;2.70723;0.105076;-2.49426;28.3607;-0.289554;-0.337812;2.69304;-0.860296;-0.420131;0.467415;-0.835062;1.04514;-7.69329;-0.0147999;0.00430384;0.106221;0.106374;-0.0149527;0.0606634;0.139331;7.17717;0.0763897;0.0808846;7.11402;0.140567;87.1674;132.167;0.000918722;-0.0148062;0.00289412;0.00555934;0.106226;-0.00162881;-0.031986;0;0.0438334;-0.76094;-2.19729;-1.7229;2.89405;-8.00393;-0.01663;-0.00454357;0.0888763;0.0890717;-0.0168253;0.0529485;0.187114;5.34434;0.0657115;0.070598;5.29391;0.188896;99.9624;144.962;-0.0138873;-0.0167202;0.00601132;-0.0140753;0.0888692;0.0188947;0.061801;0;0.111146;8.25881;6.50284
648000;649;;;;;;;;;;-0.42147;0.4706;-0.836818;1.04851;-7.69387;-0.0151424;0.00406208;0.106801;0.106936;-0.0152776;0.0611067;0.141782;7.05309;0.0768907;0.0814756;6.99954;0.142867;87.2491;132.249;-0.00123314;-0.0151488;0.00256527;0.00539396;0.106805;-0.000662949;-0.0325715;0;0.0533011;-0.762445;-2.20398;-1.72233;2.89918;-8.00603;-0.0168473;-0.00424963;0.0880245;0.0881964;-0.0170193;0.0526078;0.191394;5.22483;0.0652152;0.0701438;5.18215;0.19297;99.8833;144.883;-0.0134505;-0.016934;0.00623609;-0.0137243;0.0880149;0.0152324;0.0816351;0;0.104194;8.25398;6.51025
649000;650;;;;;;;;;;-0.420155;0.474714;-0.837777;1.0506;-7.69483;-0.015179;0.00471776;0.106898;0.10708;-0.0153611;0.0612207;0.141995;7.04251;0.0770195;0.0816275;6.97089;0.143454;86.888;131.888;0.000831477;-0.0151868;0.0031186;0.00614054;0.106904;-0.00242831;-0.0271022;0;0.0494154;-0.761812;-2.20987;-1.72252;2.90361;-8.00454;-0.0175043;-0.00409452;0.0885203;0.0886781;-0.0176622;0.0531702;0.197743;5.05706;0.0658011;0.0708936;5.02079;0.199172;98.5183;143.518;-0.012526;-0.017568;0.00456707;-0.0119122;0.0885184;0.00822979;0.0874017;0;0.100712;8.25359;6.51746
650000;651;28.4971;2.73276;0.106067;-2.496;28.3861;-0.288841;-0.339548;2.71849;-0.858198;-0.419777;0.479981;-0.836689;1.05197;-7.69704;-0.0160199;0.00519316;0.106425;0.106645;-0.0162398;0.0614424;0.150528;6.64328;0.0770822;0.0819232;6.56688;0.152279;86.791;131.791;0.0019988;-0.0160271;0.00382278;0.00641188;0.106431;0.0021182;-0.0351907;0;0.0508884;-0.763085;-2.21531;-1.72455;2.90929;-8.00656;-0.0177114;-0.004102;0.0893921;0.089549;-0.0178683;0.0537086;0.198131;5.04716;0.0664609;0.0716115;5.01162;0.199536;98.7916;143.792;-0.0136854;-0.0177807;0.00506708;-0.0123693;0.089388;0.0110959;0.0846607;0;0.100166;8.25515;6.52299
651000;652;28.5055;2.74109;0.106391;-2.49263;28.3946;-0.304102;-0.336182;2.72699;-0.873459;-0.419544;0.484611;-0.839771;1.05645;-7.70012;-0.0159656;0.00540807;0.106855;0.107093;-0.0162033;0.061648;0.149414;6.69284;0.0773639;0.0821973;6.60933;0.151301;86.7987;131.799;0.00152824;-0.015972;0.0042052;0.00647746;0.10686;0.00170777;-0.0310691;0;0.0482403;-0.763853;-2.22131;-1.72679;2.91539;-8.0088;-0.0176948;-0.00408751;0.0901645;0.0903191;-0.0178495;0.0540843;0.196251;5.09552;0.0669604;0.0721124;5.06003;0.197627;98.7174;143.717;-0.0119582;-0.0177643;0.0051144;-0.0123787;0.0901601;0.0117251;0.0781802;0;0.101116;8.25915;6.53016
652000;653;28.5164;2.75207;0.106817;-2.49535;28.4055;-0.300284;-0.338899;2.73781;-0.869642;-0.41958;0.487303;-0.836316;1.05496;-7.69666;-0.016206;0.00572622;0.106951;0.107217;-0.0164717;0.0618444;0.151527;6.59949;0.077554;0.0824592;6.50918;0.153629;86.7684;131.768;0.00149769;-0.0162116;0.00471746;0.00662273;0.106956;0.00267474;-0.0367394;0;0.0520268;-0.76489;-2.22815;-1.72626;2.92056;-8.00828;-0.0178382;-0.00463476;0.0902961;0.0904944;-0.0180365;0.0542654;0.197552;5.06196;0.0671541;0.0723539;5.01731;0.19931;98.5933;143.593;-0.0104296;-0.0179054;0.00397586;-0.0123911;0.0902988;0.00680547;0.0751372;0;0.0975137;8.25821;6.5334
653000;654;28.5289;2.7645;0.1073;-2.49846;28.4176;-0.304905;-0.342011;2.74997;-0.874263;-0.419182;0.492942;-0.842878;1.06261;-7.7011;-0.016122;0.00603015;0.10751;0.107803;-0.0164154;0.0621094;0.149958;6.66853;0.0779192;0.0828125;6.5672;0.152272;86.6414;131.641;0.00225248;-0.0161279;0.00501818;0.00692914;0.107515;-0.00472686;-0.0412987;0;0.0602158;-0.764879;-2.23237;-1.73005;2.92602;-8.01207;-0.0173544;-0.00438934;0.090219;0.0903978;-0.0175332;0.0539655;0.192359;5.19862;0.0668801;0.071954;5.1558;0.193956;98.7479;143.748;-0.0138061;-0.0174248;0.00466549;-0.0125504;0.0902179;0.0165854;0.0806635;0;0.0986659;8.25478;6.54024
654000;655;28.5424;2.778;0.107823;-2.50335;28.4309;-0.29065;-0.346899;2.76324;-0.860007;-0.419981;0.499111;-0.852676;1.07357;-7.7109;-0.0160717;0.00600543;0.10691;0.107202;-0.0163642;0.0617832;0.15033;6.65205;0.0775008;0.0823775;6.551;0.152648;86.5668;131.567;0.00314691;-0.0160783;0.00487481;0.00701043;0.106915;-0.00710939;-0.0356337;0;0.054849;-0.766626;-2.23842;-1.73739;2.93543;-8.01941;-0.0169835;-0.00467501;0.0899884;0.0901923;-0.0171874;0.0536899;0.18873;5.29858;0.0666007;0.0715865;5.24758;0.190564;99.5046;144.505;-0.0136933;-0.017067;0.00526687;-0.0136408;0.0899857;0.0132031;0.0809067;0;0.0952183;8.25554;6.54729
655000;656;28.539;2.77463;0.107692;-2.49699;28.4277;-0.323402;-0.340544;2.76006;-0.892759;-0.419303;0.501739;-0.840852;1.06517;-7.69908;-0.0161683;0.0057575;0.109214;0.109478;-0.0164321;0.0629551;0.148042;6.75483;0.0790342;0.0839401;6.66243;0.150095;86.5667;131.567;0.00326484;-0.0161767;0.0042987;0.0070514;0.109221;-0.00540666;-0.0407863;0;0.0530303;-0.767228;-2.24909;-1.73225;2.94071;-8.01192;-0.0174165;-0.00435106;0.0901724;0.0903481;-0.0175922;0.0539701;0.193147;5.1774;0.066872;0.0719602;5.13568;0.194716;99.1065;144.107;-0.0115065;-0.0174929;0.00524548;-0.0130002;0.0901685;0.0107307;0.0769399;0;0.117205;8.2876;6.56214
656000;657;28.5751;2.81075;0.109094;-2.5049;28.4638;-0.275735;-0.348455;2.79613;-0.845092;-0.420381;0.507806;-0.846329;1.07278;-7.70455;-0.0158358;0.00574688;0.108882;0.109146;-0.0161;0.0626231;0.14544;6.8757;0.0786817;0.0834974;6.77926;0.147509;86.529;131.529;0.0037068;-0.0158445;0.00423682;0.00708709;0.108889;-0.0113733;-0.0354188;0;0.053893;-0.768788;-2.25612;-1.73776;2.94974;-8.01743;-0.0170826;-0.00493725;0.0909133;0.0911386;-0.0173078;0.0542232;0.1879;5.32199;0.0672746;0.0722976;5.26575;0.189907;100.008;145.008;-0.00707144;-0.0171776;0.0057113;-0.0145312;0.0909096;0.00871607;0.0737718;0;0.118203;8.25549;6.56698
657000;658;28.5798;2.81547;0.109278;-2.5044;28.4684;-0.291515;-0.347952;2.80076;-0.860873;-0.418846;0.514203;-0.849825;1.07798;-7.70805;-0.0154711;0.00466909;0.110886;0.111058;-0.0156434;0.063351;0.139523;7.16729;0.0797664;0.084468;7.09936;0.140858;86.9926;131.993;0.00274515;-0.0154792;0.00301445;0.00613552;0.110892;-0.00988193;-0.0331619;0;0.0630858;-0.767934;-2.25585;-1.74452;2.9533;-8.02449;-0.0171587;-0.00507764;0.0911397;0.0913773;-0.0173962;0.0543867;0.188268;5.31159;0.0674687;0.0725156;5.25271;0.190378;100.307;145.307;-0.013884;-0.0172601;0.0059475;-0.015008;0.0911353;0.0100806;0.0773185;0;0.116921;8.21841;6.5699
658000;659;28.5845;2.82012;0.109458;-2.50139;28.4734;-0.281873;-0.34494;2.80579;-0.85123;-0.418185;0.518527;-0.8507;1.08048;-7.70892;-0.015548;0.0050799;0.110566;0.11077;-0.0157522;0.0632612;0.140622;7.11128;0.0796186;0.0843483;7.03202;0.142207;86.7001;131.7;0.00334091;-0.0155577;0.00324293;0.00670826;0.110573;-0.0101744;-0.0378582;0;0.0494484;-0.768426;-2.26357;-1.73694;2.95486;-8.01896;-0.0177524;-0.0044403;0.0902873;0.0904695;-0.0179346;0.054202;0.196621;5.08592;0.067095;0.0722694;5.04442;0.198239;98.8445;143.844;-0.0147838;-0.017824;0.00469036;-0.0126659;0.0902862;0.0117307;0.0881997;0;0.100388;8.21912;6.57326
659000;660;28.5804;2.81604;0.1093;-2.49891;28.4696;-0.27985;-0.342458;2.80193;-0.849208;-0.418152;0.520229;-0.851233;1.08171;-7.70946;-0.0155076;0.00441653;0.11073;0.110885;-0.0156619;0.0632733;0.140048;7.14039;0.0796587;0.0843644;7.07989;0.141245;87.1422;132.142;0.00410902;-0.0155149;0.00283483;0.00581846;0.110736;-0.00604519;-0.0354811;0;0.0627528;-0.767546;-2.26656;-1.74396;2.96105;-8.02598;-0.0177649;-0.00414198;0.0909491;0.0911066;-0.0179225;0.0545145;0.195328;5.1196;0.0675096;0.0726861;5.08338;0.19672;98.6229;143.623;-0.0153754;-0.0178341;0.00500126;-0.0123738;0.0909455;0.0125343;0.0879376;0;0.104328;8.2446;6.58123
660000;661;28.5863;2.82189;0.109527;-2.49667;28.4754;-0.300301;-0.340224;2.80779;-0.869659;-0.419125;0.524742;-0.852317;1.08511;-7.71054;-0.0155526;0.00490739;0.111036;0.111226;-0.0157426;0.0634842;0.140068;7.13938;0.0799167;0.0846457;7.0653;0.141537;86.8577;131.858;0.00352755;-0.0155613;0.00319298;0.00642645;0.111042;-0.00502407;-0.0319153;0;0.0591306;-0.770719;-2.2755;-1.74156;2.96731;-8.02357;-0.0177272;-0.00422961;0.091459;0.0916226;-0.0178908;0.0547567;0.193826;5.15926;0.0678363;0.0730089;5.12122;0.195266;98.614;143.614;-0.0153497;-0.0177971;0.00491946;-0.0124632;0.0914561;0.0135088;0.0855063;0;0.111099;8.24796;6.58566
661000;662;28.6206;2.85625;0.11086;-2.50807;28.5092;-0.276319;-0.351623;2.84152;-0.845677;-0.418418;0.530495;-0.863957;1.09678;-7.72218;-0.0158025;0.00491592;0.111616;0.111805;-0.0159919;0.0638985;0.14158;7.06315;0.0803993;0.085198;6.99135;0.143034;86.9964;131.996;0.00236924;-0.01581;0.00343323;0.00622866;0.111621;-0.00401817;-0.0377931;0;0.0623716;-0.771307;-2.27891;-1.75328;2.97697;-8.03529;-0.0181059;-0.0040184;0.0911218;0.0912695;-0.0182535;0.0547615;0.1987;5.03271;0.0677554;0.0730153;5.0001;0.199996;98.2692;143.269;-0.00979581;-0.0181693;0.00469678;-0.0118609;0.0911191;0.012051;0.0799487;0;0.105041;8.25162;6.59171
662000;663;28.6279;2.86357;0.111145;-2.50663;28.5161;-0.329452;-0.350179;2.84843;-0.898809;-0.418327;0.531418;-0.85889;1.0932;-7.71711;-0.0158491;0.00563935;0.110877;0.111127;-0.0160996;0.0636135;0.142943;6.99577;0.0799933;0.084818;6.9025;0.144875;86.5497;131.55;0.00189465;-0.0158587;0.00396708;0.00712084;0.110884;-0.00564738;-0.0326785;0;0.078328;-0.771778;-2.28817;-1.74795;2.98105;-8.02996;-0.017584;-0.00436772;0.0914179;0.0915927;-0.0177588;0.0546757;0.192348;5.19892;0.0677616;0.072901;5.15761;0.193888;98.6886;143.689;-0.011216;-0.0176553;0.00479176;-0.0126121;0.0914162;0.0120074;0.0801826;0;0.101922;8.26501;6.60032
663000;664;;;;;;;;;;-0.418898;0.534957;-0.85465;1.09182;-7.7117;-0.0156994;0.00536746;0.111255;0.111481;-0.0159259;0.0637035;0.141112;7.08656;0.0801585;0.084938;6.99998;0.142857;86.6542;131.654;0.00171142;-0.0157089;0.0036449;0.00689322;0.111262;-0.00592833;-0.0360602;0;0.0547239;-0.773358;-2.29393;-1.74814;2.986;-8.02779;-0.0174059;-0.00466204;0.091834;0.0920326;-0.0176045;0.0548186;0.189537;5.27602;0.0679873;0.0730914;5.22778;0.191286;99.2312;144.231;-0.0153852;-0.0174877;0.00516647;-0.0135068;0.0918318;0.0135152;0.0784048;0;0.10615;8.25974;6.60656
664000;665;28.6468;2.88248;0.111878;-2.50703;28.5353;-0.307497;-0.350582;2.86763;-0.876855;-0.417169;0.54846;-0.870634;1.11033;-7.73994;-0.016155;0.00601691;0.111508;0.11179;-0.016438;0.0641142;0.144878;6.90234;0.0805672;0.0854856;6.80074;0.147043;86.1962;131.196;0.00442632;-0.0161679;0.00396015;0.00783741;0.111517;-0.000893763;-0.0367574;0;0.0664795;-0.773137;-2.2985;-1.76079;2.99687;-8.03941;-0.0172126;-0.00464164;0.0922362;0.0924327;-0.0174091;0.0549209;0.186614;5.35865;0.0681698;0.0732278;5.30946;0.188343;99.3003;144.3;-0.0070755;-0.0172967;0.00539747;-0.0136744;0.0922327;-0.00119589;0.0690704;0;0.110055;8.2625;6.61374
665000;666;28.6726;2.90818;0.112876;-2.50978;28.5612;-0.269337;-0.353328;2.89358;-0.838695;-0.417069;0.552927;-0.873369;1.11465;-7.74268;-0.0160668;0.00618549;0.110783;0.111084;-0.0163677;0.0637258;0.145029;6.89516;0.0800714;0.0849677;6.78678;0.147345;86.0789;131.079;0.00211409;-0.0160801;0.0040983;0.00803431;0.110793;0.000298552;-0.0322166;0;0.0485421;-0.774272;-2.30593;-1.76007;3.00244;-8.03869;-0.0173828;-0.00506527;0.0923612;0.0925945;-0.0176161;0.0551053;0.188205;5.31336;0.0683625;0.0734737;5.25624;0.19025;99.5367;144.537;-0.0062427;-0.0174713;0.00500453;-0.014123;0.0923615;-0.00228748;0.067552;0;0.118696;8.25862;6.61954
666000;667;28.6819;2.91752;0.113239;-2.51356;28.5703;-0.26237;-0.357107;2.90268;-0.831728;-0.416504;0.550718;-0.867233;1.10854;-7.72546;-0.0162752;0.00624259;0.110479;0.110786;-0.0165819;0.0636838;0.147315;6.78818;0.0799596;0.0849117;6.68112;0.149675;86.404;131.404;0.00473628;-0.016284;0.00481215;0.00750973;0.110486;-0.00709419;-0.0340013;0;0.0516892;-0.77618;-2.31497;-1.75457;3.00667;-8.0373;-0.0174727;-0.00524636;0.0921696;0.0924201;-0.0177231;0.0550716;0.189571;5.27507;0.0682921;0.0734288;5.21465;0.191767;99.9562;144.956;-0.0118703;-0.0175688;0.00527501;-0.014711;0.0921695;0.00129824;0.081417;0;0.111084;8.24971;6.62636
667000;668;28.6823;2.91795;0.113255;-2.51248;28.5708;-0.264303;-0.356034;2.90319;-0.83366;-0.416913;0.556617;-0.868909;1.11294;-7.72713;-0.0162181;0.00651439;0.111527;0.111859;-0.0165495;0.0642041;0.145418;6.87671;0.0806569;0.0856054;6.75905;0.14795;86.5203;131.52;0.00492047;-0.0162247;0.00546412;0.00744395;0.111533;-0.0065035;-0.0311062;0;0.0564484;-0.776747;-2.32133;-1.7549;3.01191;-8.03691;-0.0178813;-0.00444383;0.0924326;0.0926113;-0.01806;0.0553357;0.193452;5.16923;0.0685584;0.0737809;5.12797;0.195009;98.8843;143.884;-0.0141901;-0.0179575;0.00508889;-0.0130136;0.0924298;0.011275;0.0867694;0;0.103426;8.24836;6.6336
668000;669;28.6776;2.91321;0.113071;-2.51001;28.5664;-0.255769;-0.353561;2.89873;-0.825126;-0.417578;0.561888;-0.866773;1.11418;-7.72712;-0.0172546;0.00695571;0.110398;0.110775;-0.0176325;0.064204;0.156295;6.39816;0.0803751;0.0856053;6.28247;0.159173;86.1847;131.185;0.0028229;-0.0172632;0.00568191;0.00808307;0.110405;0.00166156;-0.0354095;0;0.0550486;-0.777204;-2.32475;-1.76015;3.01772;-8.03998;-0.0182088;-0.00370243;0.0912763;0.0914013;-0.0183338;0.0548676;0.199491;5.01276;0.0678759;0.0731568;4.98539;0.200586;98.8352;143.835;-0.0132435;-0.0182817;0.00610196;-0.0125229;0.0912655;0.015077;0.0854892;0;0.111844;8.24793;6.64146
669000;670;28.7099;2.94556;0.114327;-2.5166;28.598;-0.285079;-0.36015;2.93035;-0.854437;-0.416328;0.567347;-0.872193;1.12068;-7.73254;-0.0169859;0.00693246;0.110735;0.111111;-0.0173611;0.0642358;0.153392;6.51924;0.0804873;0.0856478;6.39997;0.156251;86.0743;131.074;0.00169781;-0.0169962;0.00542738;0.00826446;0.110744;0.000805238;-0.0363027;0;0.0522712;-0.777213;-2.33242;-1.76204;3.02474;-8.04405;-0.0180426;-0.00425766;0.0926692;0.0928327;-0.0182061;0.0555194;0.194699;5.13613;0.0687653;0.0740258;5.09899;0.196117;98.5112;143.511;-0.0126128;-0.0181126;0.00488247;-0.0124714;0.0926666;0.0119023;0.08131;0;0.0981185;8.24817;6.64784
670000;671;28.7278;2.96347;0.115022;-2.51563;28.6163;-0.26393;-0.359184;2.94861;-0.833287;-0.417839;0.574081;-0.881563;1.13195;-7.73979;-0.0159705;0.00636903;0.111568;0.111885;-0.0162878;0.0640864;0.143147;6.98585;0.0805699;0.0854485;6.86925;0.145576;86.4998;131.5;0.00407288;-0.015978;0.0051662;0.00743384;0.111574;-0.00633807;-0.0334975;0;0.0553988;-0.779123;-2.33624;-1.76921;3.03235;-8.05122;-0.0180273;-0.00418063;0.0929912;0.0931485;-0.0181845;0.0556665;0.19386;5.15836;0.0689643;0.074222;5.12241;0.195221;98.4169;143.417;-0.012968;-0.0180963;0.00493022;-0.0123658;0.0929881;0.0161577;0.0865135;0;0.101603;8.24394;6.65521
671000;672;28.7348;2.97035;0.115289;-2.52066;28.6225;-0.289151;-0.364206;2.95487;-0.859893;-0.415689;0.577213;-0.874437;1.12721;-7.73266;-0.0161031;0.00638728;0.112689;0.113005;-0.0164191;0.064712;0.142899;6.99794;0.0813637;0.0862827;6.88251;0.145296;86.4233;131.423;0.00330411;-0.0161119;0.00499055;0.00762233;0.112696;-0.00603393;-0.0282905;0;0.0568156;-0.778551;-2.34098;-1.76908;3.03578;-8.04873;-0.0178004;-0.0045564;0.0932629;0.0934495;-0.017987;0.0557182;0.190862;5.23938;0.0690803;0.074291;5.1954;0.192478;98.5172;143.517;-0.0196134;-0.0178716;0.00447899;-0.0126736;0.0932632;0.0136191;0.0868403;0;0.109306;8.24194;6.66266
672000;673;28.737;2.97268;0.115379;-2.51453;28.6252;-0.308656;-0.358079;2.95751;-0.878014;-0.417435;0.584939;-0.882501;1.13807;-7.74285;-0.016484;0.00612085;0.112267;0.112557;-0.0167743;0.0646657;0.146828;6.81067;0.0812091;0.086221;6.7101;0.149029;86.5417;131.542;0.000730517;-0.0164923;0.00473979;0.00734204;0.112274;-0.00128704;-0.0296438;0;0.0577651;-0.780718;-2.34643;-1.77483;3.04389;-8.05586;-0.0172389;-0.00466145;0.0932483;0.0934446;-0.0174352;0.0554399;0.184871;5.40918;0.068848;0.0739199;5.35953;0.186583;99.2686;144.269;-0.0147209;-0.0173245;0.00548955;-0.0137862;0.0932445;0.00695239;0.0845926;0;0.103259;8.24362;6.6695
673000;674;28.7481;2.98375;0.115809;-2.52096;28.6359;-0.291467;-0.364513;2.96824;-0.860825;-0.416438;0.5865;-0.878709;1.13558;-7.73693;-0.0156357;0.00633325;0.113086;0.113396;-0.0159465;0.0646715;0.138264;7.23254;0.0814353;0.0862287;7.11104;0.140626;86.4789;131.479;0.00322916;-0.0156441;0.00498676;0.00752401;0.113092;-0.010198;-0.0291878;0;0.0583045;-0.780834;-2.35577;-1.76709;3.04663;-8.04812;-0.0168342;-0.00492905;0.0930764;0.093297;-0.0170548;0.0551759;0.180864;5.529;0.0685934;0.0735679;5.47042;0.182801;99.6728;144.673;-0.0111991;-0.0169279;0.0056439;-0.0144384;0.093073;-0.00141058;0.0810959;0;0.101449;8.24343;6.67402
674000;675;28.7557;2.99131;0.116103;-2.52034;28.6435;-0.294755;-0.363892;2.97585;-0.864113;-0.416187;0.591096;-0.880758;1.13945;-7.74111;-0.0162581;0.00579656;0.113507;0.113765;-0.0165165;0.0651409;0.143235;6.98155;0.081906;0.0868545;6.88796;0.145181;86.7159;131.716;0.00132092;-0.0162661;0.00441383;0.00701815;0.113513;-0.00171663;-0.0308615;0;0.0566146;-0.781222;-2.36027;-1.77787;3.05647;-8.05649;-0.0174412;-0.00523092;0.0938748;0.09412;-0.0176865;0.0559033;0.185793;5.38235;0.0693976;0.0745377;5.32158;0.187914;99.7351;144.735;-0.00456847;-0.0175369;0.00528349;-0.0146749;0.0938745;-0.00524399;0.0735595;0;0.115798;8.2439;6.67844
675000;676;28.755;2.99063;0.116076;-2.51932;28.6431;-0.277227;-0.362869;2.97544;-0.846585;-0.415829;0.596097;-0.884064;1.14447;-7.74229;-0.0161721;0.00568018;0.113193;0.113442;-0.0164211;0.0649313;0.142873;6.99924;0.0816537;0.0865751;6.9083;0.144753;86.7792;131.779;0.0011157;-0.0161797;0.00433873;0.00686573;0.113199;-0.00563383;-0.0357904;0;0.0531878;-0.782133;-2.36675;-1.77477;3.05991;-8.05579;-0.0173817;-0.00510006;0.0933251;0.0935596;-0.0176162;0.0555879;0.186249;5.36915;0.0689988;0.0741172;5.311;0.188289;99.7764;144.776;-0.00822546;-0.0174772;0.0054866;-0.0146143;0.0933232;0.00589882;0.0866353;0;0.105003;8.24392;6.68567
676000;677;28.7676;3.00325;0.116566;-2.5198;28.6558;-0.26887;-0.363349;2.98813;-0.838228;-0.416812;0.603228;-0.893572;1.15589;-7.75392;-0.0167334;0.00538604;0.113373;0.113596;-0.0169559;0.065276;0.147595;6.77529;0.0819693;0.0870346;6.69948;0.149265;87.0419;132.042;0.000900186;-0.0167392;0.00427479;0.00636742;0.113378;0.00410324;-0.0339823;0;0.0557197;-0.784031;-2.37031;-1.78359;3.06827;-8.06462;-0.0176621;-0.00516775;0.094007;0.0942456;-0.0179007;0.0560732;0.187881;5.32253;0.0695693;0.0747642;5.2649;0.189937;99.8648;144.865;-0.0116042;-0.0177605;0.00560099;-0.0148368;0.0940049;-8.05339e-05;0.0836771;0;0.107627;8.24433;6.69268
677000;678;28.7668;3.00239;0.116533;-2.51741;28.6552;-0.259513;-0.360962;2.98757;-0.828871;-0.417011;0.607169;-0.89229;1.15704;-7.75264;-0.0167111;0.00612626;0.112031;0.112322;-0.0170019;0.0646621;0.149164;6.70403;0.0811447;0.0862161;6.60644;0.151367;86.5593;131.559;0.00180899;-0.0167191;0.00478933;0.00730841;0.112038;-0.000844323;-0.0330306;0;0.0510022;-0.785644;-2.37744;-1.78788;3.07668;-8.07061;-0.0175862;-0.00463669;0.0940227;0.094215;-0.0177785;0.0559968;0.187042;5.34639;0.0694984;0.0746623;5.29938;0.188701;99.5324;144.532;-0.014882;-0.0176783;0.0060463;-0.0142294;0.0940158;0.0100977;0.0854562;0;0.111985;8.24395;6.70017
678000;679;28.8036;3.03925;0.117963;-2.51981;28.6919;-0.268245;-0.363364;3.02428;-0.837603;-0.417319;0.60641;-0.88316;1.14972;-7.74138;-0.0164895;0.00610518;0.112138;0.112427;-0.0167786;0.0646026;0.147047;6.80056;0.0811244;0.0861369;6.7006;0.14924;86.5701;131.57;0.00175025;-0.0164975;0.00477094;0.00728509;0.112144;-0.00438241;-0.0320141;0;0.0565475;-0.786174;-2.3863;-1.7758;3.07668;-8.05782;-0.0184258;-0.00413392;0.0942262;0.0943777;-0.0185773;0.0564775;0.195549;5.11381;0.0699383;0.0753034;5.08026;0.19684;98.2239;143.224;-0.0148953;-0.0184932;0.00487878;-0.0122185;0.0942232;0.0162985;0.0901444;0;0.102923;8.24425;6.70684
679000;680;28.8102;3.04582;0.118218;-2.5233;28.6981;-0.280405;-0.36685;3.03045;-0.849763;-0.415553;0.614419;-0.889448;1.15815;-7.7498;-0.0168805;0.0063198;0.111637;0.111947;-0.0171905;0.0645687;0.151209;6.61336;0.080972;0.0860917;6.51213;0.15356;86.3155;131.316;0.00181489;-0.0168907;0.00470873;0.0077446;0.111645;0.00328572;-0.0306395;0;0.0573339;-0.786577;-2.39018;-1.78302;3.08396;-8.06595;-0.0180105;-0.00442461;0.0945976;0.0947712;-0.0181841;0.0564776;0.190391;5.25236;0.0700335;0.0753035;5.21177;0.191874;99.0172;144.017;-0.0151394;-0.0180932;0.00568175;-0.0134909;0.0945918;0.0238977;0.0879973;0;0.0996399;8.24388;6.71422
680000;681;28.8212;3.0568;0.118644;-2.52298;28.7088;-0.315652;-0.366533;3.04114;-0.885009;-0.415487;0.619382;-0.890053;1.16123;-7.7504;-0.0169629;0.0065645;0.111947;0.11228;-0.0172963;0.0647883;0.151526;6.59951;0.081235;0.0863844;6.49157;0.154046;86.2483;131.248;0.00132246;-0.016973;0.00500815;0.00794042;0.111955;0.00374141;-0.0306933;0;0.0528808;-0.786781;-2.39641;-1.78297;3.08881;-8.06399;-0.0183636;-0.00430516;0.0944254;0.0945894;-0.0185277;0.0565586;0.194478;5.14198;0.070057;0.0754114;5.1053;0.195875;98.5762;143.576;-0.0137764;-0.0184374;0.00515061;-0.0127861;0.0944217;0.00190777;0.0921513;0;0.103416;8.24224;6.72118
681000;682;28.8339;3.06949;0.119137;-2.52309;28.7216;-0.309832;-0.36664;3.05394;-0.87919;-0.415487;0.624196;-0.896147;1.16847;-7.75649;-0.0172979;0.00663513;0.11163;0.111971;-0.0176385;0.0648046;0.154957;6.45338;0.081168;0.0864061;6.34809;0.157528;86.2675;131.267;0.00173868;-0.0173074;0.0051812;0.00792042;0.111638;0.00252531;-0.031162;0;0.0524754;-0.78775;-2.40202;-1.78962;3.09726;-8.07065;-0.0175125;-0.0049624;0.0947098;0.0949289;-0.0177316;0.0563302;0.184907;5.40811;0.0699496;0.0751069;5.35367;0.186788;99.2036;144.204;-0.00919643;-0.0175994;0.00507863;-0.0139737;0.0947093;-0.00222881;0.0835834;0;0.102237;8.24332;6.72916
682000;683;28.8488;3.08442;0.119717;-2.52732;28.7364;-0.291647;-0.370871;3.06874;-0.861005;-0.415967;0.627062;-0.894193;1.16868;-7.75242;-0.016863;0.00677226;0.112801;0.113154;-0.0172158;0.0651849;0.149493;6.68926;0.0817809;0.0869132;6.57269;0.152145;86.385;131.385;0.00394786;-0.0168708;0.00559195;0.00781503;0.112808;-0.00185781;-0.0291899;0;0.0529179;-0.788735;-2.40943;-1.78932;3.10308;-8.07035;-0.0174164;-0.00468287;0.0940449;0.0942413;-0.0176128;0.055927;0.185192;5.3998;0.069447;0.0745694;5.35073;0.18689;99.9814;144.981;-0.011457;-0.0175181;0.00669053;-0.0148971;0.0940344;-0.00201603;0.0901226;0;0.108648;8.24393;6.73584
683000;684;;;;;;;;;;-0.416016;0.631058;-0.894425;1.17102;-7.7509;-0.0165713;0.00628546;0.114296;0.114597;-0.0168725;0.0657347;0.144986;6.8972;0.0825985;0.0876462;6.79192;0.147234;86.5474;131.547;-0.00050669;-0.0165796;0.00493732;0.00747526;0.114302;0.000838413;-0.0258458;0;0.0558815;-0.788932;-2.41553;-1.79088;3.10877;-8.07154;-0.0174415;-0.00504073;0.0942839;0.0945109;-0.0176685;0.0560897;0.184989;5.40573;0.0696478;0.0747862;5.34913;0.186946;99.4212;144.421;-0.00572335;-0.0175318;0.00520966;-0.0142442;0.0942831;-0.0143363;0.0838243;0;0.116382;8.24345;6.74284
684000;685;28.881;3.11667;0.120968;-2.52725;28.7688;-0.285014;-0.370803;3.10119;-0.854371;-0.416208;0.636902;-0.896057;1.1755;-7.75428;-0.016154;0.00667958;0.114044;0.114385;-0.0164958;0.0654406;0.141647;7.05979;0.0823084;0.0872542;6.93424;0.144212;86.3885;131.388;0.00179346;-0.0161624;0.00538068;0.00782667;0.114051;-0.00243601;-0.0272539;0;0.0557479;-0.790656;-2.42409;-1.79045;3.11562;-8.07148;-0.0180648;-0.00516337;0.0948224;0.0950581;-0.0183004;0.0566793;0.190512;5.24903;0.0702711;0.0755723;5.19431;0.192518;99.4995;144.499;-0.0123118;-0.0181569;0.00514775;-0.0144109;0.0948225;0.00145711;0.0926329;0;0.103704;8.24039;6.7501
685000;686;28.8962;3.13184;0.121557;-2.53097;28.7839;-0.270114;-0.374525;3.11624;-0.839472;-0.415199;0.647536;-0.905315;1.18798;-7.76566;-0.0166134;0.005802;0.114545;0.114802;-0.0168695;0.0658355;0.145037;6.89478;0.0827328;0.0877807;6.80527;0.146945;86.6905;131.69;0.00038518;-0.016622;0.00431275;0.00711598;0.114552;0.00436895;-0.0281917;0;0.0675467;-0.791215;-2.42636;-1.80085;3.12351;-8.08188;-0.0180196;-0.00545143;0.0953553;0.0956169;-0.0182811;0.056949;0.188973;5.29175;0.0706313;0.075932;5.23036;0.191192;99.7705;144.77;-0.00907281;-0.0181185;0.00515966;-0.0149637;0.0953568;-0.0016502;0.087359;0;0.109563;8.23987;6.75495
686000;687;;;;;;;;;;-0.415607;0.649932;-0.908815;1.19209;-7.76529;-0.0153945;0.00560009;0.114181;0.114423;-0.0156361;0.0650293;0.134825;7.417;0.0819922;0.0867057;7.31786;0.136652;86.7073;131.707;-0.000774527;-0.0154034;0.00401943;0.00699692;0.114188;-0.00435225;-0.0268666;0;0.0631685;-0.791949;-2.43364;-1.80515;3.13183;-8.08616;-0.0181369;-0.00492839;0.0958207;0.0960335;-0.0183496;0.0571915;0.189279;5.2832;0.0709344;0.0762554;5.23354;0.191075;99.156;144.156;-0.00892662;-0.0182243;0.00519832;-0.0140016;0.0958195;-0.00359256;0.0964868;0;0.109925;8.23953;6.75947
687000;688;28.9093;3.14492;0.122065;-2.53359;28.7968;-0.271696;-0.377144;3.12912;-0.841054;-0.416032;0.656572;-0.905074;1.19303;-7.76542;-0.0164323;0.00539711;0.115442;0.115663;-0.0166529;0.0661579;0.142342;7.02531;0.0832168;0.0882105;6.94553;0.143978;86.8165;131.817;0.000158589;-0.0164413;0.00377013;0.00683173;0.115449;-0.000286221;-0.0345853;0;0.0608786;-0.793647;-2.43942;-1.80161;3.13471;-8.08263;-0.0185206;-0.00479126;0.0962577;0.0964573;-0.0187203;0.0575888;0.192407;5.19733;0.0713681;0.0767851;5.15256;0.194078;98.9455;143.945;-0.0136173;-0.0186044;0.00514965;-0.013691;0.096256;0.0015648;0.0963917;0;0.112953;8.23546;6.76579
688000;689;28.9118;3.14743;0.122162;-2.53234;28.7989;-0.318479;-0.375891;3.13127;-0.887836;-0.414441;0.660926;-0.907867;1.197;-7.76821;-0.0168664;0.00509341;0.116268;0.116462;-0.017061;0.0667617;0.145065;6.89345;0.0839088;0.0890157;6.82624;0.146494;87.1751;132.175;0.000493152;-0.0168727;0.00385922;0.00618039;0.116273;0.00238016;-0.0276576;0;0.0677665;-0.793653;-2.44674;-1.80407;3.14183;-8.08594;-0.018074;-0.00471911;0.0962357;0.0964302;-0.0182685;0.0573493;0.187809;5.32455;0.0711623;0.0764658;5.27851;0.189447;99.6184;144.618;-0.0162959;-0.0181722;0.00638877;-0.0146683;0.0962273;0.0107142;0.0905237;0;0.112097;8.23449;6.77334
689000;690;28.9243;3.15989;0.122646;-2.53255;28.8115;-0.308809;-0.376104;3.14387;-0.878167;-0.414006;0.666405;-0.912825;1.20364;-7.77317;-0.0168281;0.00515563;0.116324;0.116524;-0.0170274;0.0667755;0.144666;6.9125;0.0839359;0.089034;6.84328;0.146129;87.1346;132.135;0.000701672;-0.0168346;0.00389267;0.00626793;0.116329;0.00151154;-0.0280377;0;0.0566012;-0.793564;-2.45094;-1.80929;3.14807;-8.08923;-0.0180632;-0.00526279;0.0967556;0.0969963;-0.0183039;0.0576501;0.186689;5.3565;0.0715502;0.0768668;5.29921;0.188707;99.1804;144.18;-0.0134446;-0.0181529;0.00480857;-0.0142794;0.0967577;-0.00220306;0.0884287;0;0.106239;8.2333;6.7805
690000;691;28.9297;3.1653;0.122856;-2.538;28.8166;-0.296612;-0.381553;3.14894;-0.86597;-0.415742;0.671834;-0.917145;1.21052;-7.77749;-0.0171375;0.00536759;0.116162;0.116378;-0.0173532;0.0668657;0.14753;6.77827;0.0839697;0.0891542;6.70642;0.149111;87.0224;132.022;0.00112218;-0.0171444;0.00406435;0.00651518;0.116168;0.00227171;-0.0355187;0;0.0514091;-0.796631;-2.45609;-1.81506;3.15617;-8.09609;-0.0178548;-0.00491595;0.0958071;0.0960193;-0.018067;0.0570432;0.186362;5.36591;0.0708077;0.0760575;5.31463;0.18816;99.4067;144.407;-0.00525193;-0.0179477;0.00564255;-0.0143788;0.0958036;-0.0113725;0.0866801;0;0.113439;8.2345;6.78793
691000;692;28.9483;3.18393;0.123579;-2.53478;28.8357;-0.286358;-0.378328;3.16804;-0.855716;-0.412709;0.675466;-0.918929;1.21285;-7.77928;-0.0172596;0.00577255;0.115904;0.116154;-0.0175094;0.0668317;0.148913;6.71533;0.0838838;0.0891089;6.6338;0.150743;86.7802;131.78;0.0012697;-0.0172678;0.00434612;0.00702875;0.115911;0.00111273;-0.0314926;0;0.0531779;-0.794916;-2.46485;-1.81384;3.16186;-8.09487;-0.0178081;-0.00495537;0.0954822;0.0956986;-0.0180245;0.0568615;0.186507;5.36172;0.0705786;0.0758154;5.30937;0.188346;99.8965;144.897;-0.00859295;-0.0179108;0.0062959;-0.0150426;0.0954754;-0.00676053;0.095477;0;0.110709;8.23249;6.79511
692000;693;28.9396;3.17521;0.12324;-2.53417;28.8271;-0.273819;-0.377723;3.15949;-0.844561;-0.413218;0.680375;-0.919005;1.21582;-7.77935;-0.0173182;0.00546291;0.116256;0.11648;-0.0175412;0.0670104;0.148965;6.71298;0.084112;0.0893472;6.64033;0.150595;86.9448;131.945;0.00103666;-0.0173257;0.00408023;0.00668012;0.116262;0.00596166;-0.0313641;0;0.0538925;-0.797346;-2.47048;-1.81637;3.16831;-8.09619;-0.0179586;-0.00516956;0.0971799;0.0974115;-0.0181902;0.0578009;0.184797;5.41133;0.0717769;0.0770678;5.35516;0.186736;99.8816;144.882;-0.00719618;-0.0180648;0.00619239;-0.0153387;0.0971746;0.000463287;0.0695359;0;0.125935;8.23194;6.80294
693000;694;28.9758;3.21142;0.124646;-2.53804;28.8632;-0.267722;-0.381588;3.19552;-0.83708;-0.413207;0.684065;-0.917372;1.21666;-7.77772;-0.0174773;0.00619226;0.116057;0.116343;-0.0177638;0.0670536;0.150592;6.64045;0.0841112;0.0894048;6.54947;0.152684;86.4455;131.446;0.00258925;-0.0174881;0.00445361;0.00772287;0.116065;0.00261948;-0.0331484;0;0.0555132;-0.797303;-2.47781;-1.8148;3.17312;-8.09582;-0.0182075;-0.00529072;0.0962697;0.0965137;-0.0184515;0.0574826;0.18913;5.28738;0.0712934;0.0766435;5.23069;0.19118;99.8561;144.856;-0.00967769;-0.0183103;0.00573494;-0.0151645;0.0962675;-0.00172782;0.0951196;0;0.116286;8.2293;6.81119
694000;695;28.9872;3.22287;0.12509;-2.53815;28.8746;-0.270893;-0.381697;3.20698;-0.840251;-0.413652;0.688689;-0.919887;1.22131;-7.78023;-0.0175862;0.00612805;0.117535;0.117812;-0.0178635;0.067838;0.149625;6.68337;0.0851232;0.0904506;6.59513;0.151627;86.605;131.605;0.00153273;-0.0175957;0.00456111;0.00750553;0.117543;0.00509622;-0.03247;0;0.0512829;-0.798378;-2.48366;-1.81786;3.17972;-8.09889;-0.0184486;-0.00480197;0.0961696;0.0963705;-0.0186494;0.0575099;0.191834;5.21284;0.0712814;0.0766799;5.16747;0.193518;99.0227;144.023;-0.00880789;-0.0185338;0.00524398;-0.0137971;0.0961676;-0.00412694;0.0961985;0;0.111327;8.22626;6.81778
695000;696;;;;;;;;;;-0.414031;0.694302;-0.925449;1.22879;-7.78411;-0.0171983;0.00627254;0.117539;0.117831;-0.0174897;0.0676601;0.14632;6.83435;0.0849857;0.0902135;6.73715;0.148431;86.2242;131.224;-0.0001954;-0.0172124;0.00408688;0.00819466;0.117549;0.00611947;-0.0316981;0;0.0577625;-0.799151;-2.48723;-1.82516;3.18688;-8.10512;-0.0180024;-0.00558112;0.0975276;0.0977966;-0.0182714;0.058034;0.184588;5.41747;0.0720645;0.0773787;5.35244;0.186831;99.6446;144.645;-0.0105062;-0.0181036;0.00512728;-0.0151618;0.0975299;-2.74484e-05;0.0884154;0;0.123077;8.22942;6.82419
696000;697;29.0136;3.24924;0.126114;-2.53484;28.9012;-0.286534;-0.378386;3.23359;-0.855892;-0.413598;0.69844;-0.920572;1.22733;-7.78092;-0.0176304;0.00648612;0.119052;0.119359;-0.0179375;0.0686481;0.14809;6.75265;0.0861762;0.0915308;6.65416;0.150282;86.3736;131.374;0.00232216;-0.0176422;0.00467167;0.00807894;0.119061;0.00556095;-0.0296893;0;0.0554239;-0.800114;-2.49663;-1.82048;3.19179;-8.1038;-0.0186369;-0.00463964;0.0959534;0.096141;-0.0188245;0.0574827;0.194229;5.14857;0.0712032;0.0766436;5.10723;0.195801;99.1033;144.103;-0.0138667;-0.0187232;0.005604;-0.0138118;0.0959489;-0.00229111;0.0956667;0;0.115828;8.22393;6.82759
697000;698;29.0257;3.26135;0.126584;-2.53818;28.9131;-0.291079;-0.381729;3.24542;-0.860437;-0.413015;0.706464;-0.930942;1.23949;-7.78917;-0.0164371;0.00590476;0.11953;0.119786;-0.016693;0.0682397;0.137514;7.272;0.0859639;0.0909863;7.17583;0.139357;86.5057;131.506;0.00137558;-0.0164495;0.00386471;0.00769702;0.119539;0.00272049;-0.0347052;0;0.0609045;-0.800287;-2.49916;-1.82561;3.19674;-8.10639;-0.0179262;-0.00523787;0.0974637;0.097701;-0.0181635;0.0579322;0.183927;5.43695;0.0719567;0.0772429;5.37898;0.185909;99.7089;144.709;-0.0153839;-0.0180292;0.00584498;-0.0151549;0.0974606;0.0100814;0.0952577;0;0.110954;8.21491;6.83343
698000;699;29.0181;3.2537;0.126287;-2.54231;28.9047;-0.323286;-0.38586;3.23703;-0.892644;-0.413154;0.708735;-0.929144;1.23948;-7.78737;-0.0168893;0.005739;0.121044;0.121282;-0.0171276;0.0692048;0.13953;7.1669;0.0871269;0.0922731;7.08107;0.141222;86.7106;131.711;0.00203886;-0.0169001;0.00388183;0.00736764;0.121052;0.000529354;-0.0341783;0;0.0629845;-0.801095;-2.50597;-1.82581;3.20238;-8.10684;-0.0184148;-0.00500565;0.0977685;0.0979838;-0.0186301;0.0583069;0.188351;5.30922;0.0723367;0.0777426;5.25943;0.190135;99.3928;144.393;-0.013539;-0.0185111;0.00575486;-0.0146269;0.0977648;0.00245644;0.090736;0;0.108003;8.21997;6.83927
699000;700;;;;;;;;;;-0.413056;0.714245;-0.934722;1.24678;-7.7912;-0.0158756;0.00570934;0.120591;0.120829;-0.016114;0.0684716;0.131648;7.59601;0.0864264;0.0912955;7.4984;0.133362;86.5535;131.553;0.000497582;-0.0158884;0.00354756;0.00760784;0.1206;4.53119e-05;-0.0272414;0;0.0582154;-0.800776;-2.51195;-1.82927;3.20895;-8.1103;-0.0178776;-0.00486643;0.0971886;0.097394;-0.018083;0.0577385;0.183947;5.43635;0.071721;0.0769847;5.38594;0.185668;99.3139;144.314;-0.00648955;-0.0179716;0.00582795;-0.0144388;0.0971839;-0.00395982;0.0882524;0;0.103453;8.22728;6.84679
700000;701;;;;;;;;;;-0.414436;0.718626;-0.93237;1.248;-7.78884;-0.0159974;0.0053777;0.121447;0.121657;-0.0162075;0.0689322;0.131723;7.59167;0.0870118;0.0919097;7.50623;0.133223;86.6572;131.657;-0.000527021;-0.0160104;0.00309466;0.00738092;0.121456;-0.0018256;-0.0327948;0;0.0566659;-0.804297;-2.51868;-1.8274;3.21404;-8.10966;-0.017687;-0.00518286;0.0972721;0.0975053;-0.0179202;0.0577128;0.181831;5.49963;0.071727;0.0769503;5.44107;0.183787;100.006;145.006;-0.0104226;-0.0177967;0.00641924;-0.0155689;0.0972656;-0.0017437;0.0829895;0;0.113217;8.22791;6.85351
701000;702;29.0401;3.27571;0.127141;-2.54112;28.9271;-0.304189;-0.384674;3.25946;-0.874931;-0.41281;0.726303;-0.937237;1.25552;-7.79758;-0.0171524;0.00594922;0.121205;0.12146;-0.0174077;0.0694341;0.141516;7.06636;0.0873563;0.0925788;6.97738;0.14332;86.4417;131.442;0.0032816;-0.0171663;0.0037069;0.00791481;0.121215;-0.000665963;-0.0318557;0;0.0545573;-0.803722;-2.52479;-1.83552;3.2233;-8.11534;-0.0180144;-0.00564043;0.0987115;0.0989834;-0.0182863;0.0586349;0.182495;5.4796;0.0728534;0.0781798;5.41298;0.184741;99.8079;144.808;-0.0069904;-0.0181221;0.00550581;-0.015602;0.0987122;-0.00493805;0.0749107;0;0.127181;8.22919;6.86117
702000;703;;;;;;;;;;-0.412655;0.727185;-0.926203;1.24777;-7.78486;-0.016973;0.00540507;0.121693;0.121903;-0.0171834;0.0695433;0.139474;7.16978;0.0875604;0.0927244;7.09424;0.140959;86.9247;131.925;0.00107505;-0.0169826;0.00366924;0.00692629;0.1217;0.00151647;-0.0303168;0;0.0718884;-0.803962;-2.53241;-1.83014;3.22628;-8.11117;-0.0184133;-0.0053118;0.0972097;0.0974532;-0.0186568;0.058055;0.189418;5.27932;0.0719981;0.0774067;5.22346;0.191444;99.5518;144.552;-0.00858276;-0.0185114;0.00536223;-0.0148605;0.0972095;-0.00391326;0.0952697;0;0.11246;8.23298;6.86842
703000;704;;;;;;;;;;-0.413306;0.73347;-0.939989;1.26189;-7.79646;-0.0161731;0.00518804;0.121587;0.121782;-0.0163682;0.0690753;0.133017;7.51786;0.0871582;0.0921004;7.44017;0.134406;86.9143;131.914;0.00256745;-0.0161835;0.00326407;0.00687567;0.121595;-0.00684045;-0.0317308;0;0.0547558;-0.805461;-2.53854;-1.83879;3.23637;-8.11982;-0.0184913;-0.00523159;0.098028;0.0982624;-0.0187257;0.0584941;0.188632;5.30131;0.0725601;0.0779921;5.24747;0.190568;99.2702;144.27;-0.00809194;-0.0185851;0.00519065;-0.0145474;0.0980282;-0.00626048;0.0970932;0;0.116446;8.22785;6.8763
704000;705;;;;;;;;;;-0.413592;0.737555;-0.94023;1.26455;-7.7967;-0.0166245;0.00493093;0.121416;0.121592;-0.0168004;0.0691961;0.136922;7.30344;0.0872025;0.0922615;7.23744;0.13817;87.0878;132.088;0.00208561;-0.0166336;0.00314801;0.00649436;0.121422;-0.00215647;-0.0326845;0;0.054873;-0.806255;-2.54365;-1.84149;3.24211;-8.11967;-0.0183186;-0.00526706;0.0983764;0.0986136;-0.0185558;0.0585847;0.186209;5.37031;0.0727211;0.078113;5.31443;0.188167;98.8655;143.865;-0.0119629;-0.0184048;0.00454873;-0.0140396;0.0983796;0.00285864;0.0909082;0;0.122953;8.22563;6.88307
705000;706;29.0934;3.32907;0.129212;-2.5499;28.98;-0.294521;-0.393452;3.31234;-0.863878;-0.411444;0.742613;-0.937096;1.26448;-7.79744;-0.0177923;0.00567119;0.120835;0.121066;-0.0180239;0.0695451;0.147245;6.79141;0.087341;0.0927268;6.71698;0.148876;86.6874;131.687;0.00332792;-0.0178037;0.00370731;0.00739215;0.120843;-0.000685087;-0.034374;0;0.053172;-0.806897;-2.55384;-1.83544;3.24685;-8.11647;-0.0185067;-0.00516336;0.0984939;0.0987214;-0.0187341;0.0587277;0.187897;5.32207;0.0728662;0.0783037;5.2696;0.189768;99.5567;144.557;-0.0118784;-0.0186079;0.00586095;-0.015013;0.0984904;-0.000226275;0.0973084;0;0.113718;8.22475;6.89055
706000;707;29.1069;3.34249;0.129733;-2.55232;28.9932;-0.297254;-0.395873;3.32557;-0.866612;-0.411579;0.749018;-0.941362;1.27145;-7.80171;-0.017963;0.00585667;0.121676;0.121921;-0.0182082;0.0700645;0.147631;6.77366;0.0879802;0.0934193;6.69591;0.149345;86.7779;131.778;0.00454713;-0.0179729;0.00418185;0.00732299;0.121683;0.00502894;-0.0372974;0;0.0589129;-0.80845;-2.55939;-1.84067;3.25456;-8.1217;-0.0184168;-0.00515363;0.0985976;0.0988242;-0.0186434;0.0587338;0.186788;5.35367;0.0728963;0.0783117;5.30077;0.188652;99.5962;144.596;-0.0142233;-0.0185193;0.00597153;-0.0150933;0.0985935;0.00477284;0.0927058;0;0.114908;8.22148;6.89749
707000;708;29.1284;3.36403;0.130569;-2.55494;29.0146;-0.298077;-0.398491;3.34695;-0.867435;-0.412433;0.754768;-0.943808;1.27693;-7.80416;-0.0179169;0.00613369;0.121567;0.121836;-0.0181861;0.0700111;0.147383;6.78502;0.0879153;0.0933481;6.69939;0.149267;86.3651;131.365;0.00387175;-0.0179314;0.00385621;0.00812791;0.121577;0.00164598;-0.0400847;0;0.0587475;-0.810075;-2.56651;-1.83957;3.25994;-8.12059;-0.0185475;-0.00454229;0.09771;0.0978872;-0.0187247;0.0583059;0.189822;5.2681;0.0723124;0.0777413;5.2277;0.191289;99.0438;144.044;-0.0104124;-0.0186363;0.00599718;-0.0139651;0.097703;0.00071061;0.0885973;0;0.10751;8.21774;6.90482
708000;709;;;;;;;;;;-0.412257;0.759749;-0.949668;1.28415;-7.80614;-0.0171462;0.00599974;0.123893;0.124148;-0.017401;0.0707743;0.138395;7.22567;0.0891334;0.0943657;7.13452;0.140164;86.538;131.538;0.00387958;-0.0171595;0.00384092;0.00788762;0.123902;-0.00381297;-0.0379549;0;0.057993;-0.809817;-2.57197;-1.84745;3.26862;-8.12971;-0.0176645;-0.0050449;0.0979145;0.0981343;-0.0178843;0.0580093;0.180407;5.54302;0.0721272;0.0773457;5.48719;0.182243;99.9976;144.998;-0.0122344;-0.0177758;0.00678169;-0.0156259;0.0979052;-3.54349e-06;0.0831052;0;0.116631;8.21443;6.90907
709000;710;;;;;;;;;;-0.412411;0.763679;-0.946869;1.28446;-7.80334;-0.0171846;0.00577723;0.124062;0.124298;-0.0174205;0.0708591;0.138516;7.21937;0.0892405;0.0944787;7.13515;0.140151;86.4007;131.401;0.00412351;-0.0172009;0.00313137;0.00809059;0.124072;-0.00281349;-0.0447244;0;0.0615936;-0.810342;-2.57991;-1.84393;3.27302;-8.12496;-0.0180311;-0.00533864;0.097939;0.0981842;-0.0182764;0.0582303;0.184106;5.43166;0.0723222;0.0776404;5.37219;0.186144;100.341;145.341;-0.00904298;-0.0181499;0.00678118;-0.0161777;0.097931;-0.00362113;0.0948663;0;0.116365;8.21375;6.91338
710000;711;29.1536;3.38918;0.131545;-2.55193;29.0401;-0.29813;-0.395476;3.3725;-0.868872;-0.409819;0.771261;-0.947592;1.28869;-7.80582;-0.0170111;0.00582251;0.125793;0.12603;-0.0172481;0.0716392;0.135231;7.39476;0.0903202;0.095519;7.30689;0.136857;86.4483;131.448;0.00482156;-0.0170273;0.00321146;0.00810232;0.125804;-0.000763524;-0.0363628;0;0.0599137;-0.810627;-2.58667;-1.84422;3.27859;-8.12648;-0.017941;-0.00511327;0.0980025;0.0982276;-0.0181661;0.0581968;0.183067;5.46249;0.0723051;0.0775958;5.4072;0.184939;99.5899;144.59;-0.0118971;-0.0180427;0.00597351;-0.0150288;0.0979982;0.00560815;0.0864481;0;0.110716;8.21058;6.92021
711000;712;29.1865;3.42209;0.132823;-2.55312;29.0731;-0.296674;-0.396667;3.40542;-0.866031;-0.412208;0.777288;-0.952504;1.29667;-7.81073;-0.0166948;0.00598243;0.125728;0.125979;-0.0169456;0.0714624;0.132784;7.53101;0.090167;0.0952832;7.43433;0.134511;86.2624;131.262;0.0041474;-0.0167132;0.00311692;0.00848537;0.12574;0.00199736;-0.0389056;0;0.06032;-0.812776;-2.59152;-1.85006;3.28623;-8.13109;-0.0182663;-0.00544265;0.0982735;0.0985271;-0.0185199;0.0585235;0.185872;5.38005;0.0726492;0.0780314;5.32007;0.187968;100.043;145.043;-0.00845512;-0.0183783;0.00613986;-0.0157956;0.0982698;-0.00135056;0.0851987;0;0.115285;8.20458;6.92774
712000;713;29.1815;3.41713;0.13263;-2.55568;29.0682;-0.263738;-0.399235;3.40052;-0.833095;-0.412395;0.783826;-0.959652;1.3059;-7.81788;-0.0166956;0.00590746;0.125788;0.126033;-0.0169401;0.0714864;0.132728;7.5342;0.0902002;0.0953151;7.43988;0.134411;86.3697;131.37;0.00444066;-0.0167126;0.00320424;0.00826852;0.125799;0.000472536;-0.0350421;0;0.0624517;-0.813731;-2.59431;-1.85539;3.29167;-8.13186;-0.0185514;-0.00518284;0.0984319;0.0986611;-0.0187805;0.0587208;0.188469;5.30591;0.0728457;0.0782944;5.25337;0.190354;99.6778;144.678;-0.00981368;-0.0186551;0.00600815;-0.0151815;0.0984277;-0.00533554;0.0966426;0;0.123918;8.20748;6.93525
713000;714;;;;;;;;;;-0.413194;0.788983;-0.96578;1.31376;-7.82225;-0.0166776;0.00598458;0.126101;0.126351;-0.016928;0.0716396;0.132256;7.56109;0.0904066;0.0955194;7.46403;0.133976;86.4048;131.405;0.00290334;-0.0166939;0.00340379;0.00823812;0.126111;-0.00377814;-0.0344358;0;0.0548446;-0.815255;-2.6014;-1.864;3.30248;-8.14259;-0.0186803;-0.0052393;0.0990905;0.0993232;-0.0189129;0.059118;0.188518;5.30454;0.0733372;0.0788241;5.2516;0.190418;99.4743;144.474;-0.0133708;-0.0187808;0.00568072;-0.0149887;0.0990883;-0.00762641;0.0917276;0;0.122615;8.20742;6.94254
714000;715;;;;;;;;;;-0.412656;0.795581;-0.972096;1.3222;-7.82857;-0.0165734;0.00537502;0.124284;0.124488;-0.0167782;0.0706333;0.133352;7.49897;0.089113;0.0941777;7.41964;0.134777;86.5698;131.57;0.00329329;-0.0165887;0.00273548;0.00768383;0.124293;-0.00386115;-0.0323222;0;0.0629496;-0.815846;-2.60549;-1.86852;3.30841;-8.14711;-0.0187289;-0.00493075;0.099162;0.0993678;-0.0189348;0.0591513;0.188872;5.29459;0.0733757;0.0788684;5.2479;0.190552;99.4352;144.435;-0.014129;-0.0188289;0.00617772;-0.0148473;0.0991557;-0.00867611;0.0956798;0;0.128811;8.20422;6.94941
715000;716;;;;;;;;;;-0.412931;0.797595;-0.962324;1.31634;-7.8188;-0.0167316;0.00506194;0.124616;0.124797;-0.0169127;0.0708549;0.134266;7.44793;0.0893707;0.0944732;7.3789;0.135521;86.9924;131.992;0.00203616;-0.0167424;0.00302982;0.00683863;0.124623;-0.00546809;-0.0310381;0;0.0563912;-0.816315;-2.61311;-1.85919;3.30927;-8.14022;-0.0186824;-0.00482032;0.0988609;0.0990583;-0.0188798;0.058969;0.188977;5.29165;0.0731488;0.0786254;5.2468;0.190593;99.5332;144.533;-0.0140147;-0.018784;0.00648731;-0.0149179;0.0988524;0.00351223;0.0986397;0;0.120958;8.20497;6.95645
716000;717;;;;;;;;;;-0.412776;0.802589;-0.966351;1.32226;-7.82283;-0.0166631;0.00481672;0.124944;0.125108;-0.0168268;0.0709673;0.133365;7.49824;0.0895427;0.094623;7.43504;0.134498;87.1581;132.158;0.00214284;-0.0166727;0.00291111;0.00648243;0.124951;-0.00359708;-0.038206;0;0.0623294;-0.817974;-2.61976;-1.86341;3.3173;-8.14567;-0.0179164;-0.00506736;0.0987766;0.0989962;-0.0181361;0.0585661;0.181383;5.51318;0.0727998;0.0780882;5.45853;0.1832;99.7401;144.74;-0.0117023;-0.0180235;0.0064509;-0.0153618;0.0987693;-0.00218686;0.089092;0;0.121868;8.20637;6.96422
717000;718;29.2439;3.47954;0.135052;-2.56249;29.1302;-0.273805;-0.406041;3.46252;-0.844547;-0.411397;0.807694;-0.966763;1.32523;-7.82499;-0.0169394;0.0048378;0.124472;0.124637;-0.0171047;0.070871;0.13609;7.34807;0.0893405;0.0944946;7.28672;0.137236;87.2177;132.218;0.00576138;-0.0169481;0.00309575;0.00636075;0.124478;-0.00871059;-0.0393744;0;0.05684;-0.818493;-2.62779;-1.8625;3.32327;-8.14476;-0.0175021;-0.00516113;0.098732;0.0989607;-0.0177309;0.0583458;0.177269;5.64114;0.0726093;0.0777944;5.58127;0.179171;100.561;145.561;-0.011792;-0.0176298;0.00769701;-0.0166583;0.0987171;0.0010885;0.0898046;0;0.125004;8.20441;6.97047
718000;719;29.2697;3.50533;0.136053;-2.55687;29.1565;-0.276304;-0.400419;3.48884;-0.845662;-0.411728;0.810054;-0.962033;1.32334;-7.82026;-0.0174677;0.00507189;0.124447;0.124628;-0.0176487;0.0711385;0.140362;7.12443;0.08955;0.0948513;7.06161;0.141611;87.1097;132.11;0.00611154;-0.0174769;0.00329499;0.00662451;0.124454;-0.00392654;-0.039317;0;0.059039;-0.819203;-2.63659;-1.86017;3.32911;-8.1412;-0.0179209;-0.00540022;0.0988546;0.0991038;-0.0181701;0.058637;0.181285;5.51617;0.0728848;0.0781826;5.45423;0.183344;100.515;145.515;-0.0080953;-0.0180467;0.00715829;-0.0166235;0.0988446;-0.00360537;0.0942887;0;0.116133;8.20429;6.97713
719000;720;29.2761;3.51172;0.136301;-2.56321;29.1624;-0.270664;-0.406757;3.49475;-0.840021;-0.40945;0.817916;-0.972508;1.33507;-7.83073;-0.0176197;0.0053803;0.125034;0.125236;-0.0178224;0.0715293;0.14092;7.09623;0.0900217;0.0953725;7.02692;0.14231;86.9665;131.966;0.00721604;-0.0176299;0.00353066;0.00699539;0.125041;-0.00576675;-0.0315262;0;0.061017;-0.817634;-2.64011;-1.87278;3.33856;-8.15381;-0.0182098;-0.00560717;0.098997;0.0992646;-0.0184774;0.058871;0.183943;5.43647;0.073118;0.0784947;5.37221;0.186143;100.22;145.22;-0.00770639;-0.0183279;0.00628448;-0.01623;0.0989933;-0.00190359;0.0917521;0;0.115899;8.2015;6.98067
720000;721;29.2965;3.53213;0.137094;-2.56162;29.1832;-0.248074;-0.405173;3.51559;-0.817431;-0.409716;0.821665;-0.96751;1.33382;-7.82573;-0.0177701;0.00619523;0.124322;0.124592;-0.0180397;0.0713156;0.142936;6.99615;0.0896811;0.0950875;6.90654;0.14479;86.406;131.406;0.00716828;-0.0177848;0.00388946;0.00820957;0.124332;-0.0092117;-0.0409551;0;0.0603236;-0.820044;-2.64627;-1.86799;3.34134;-8.14901;-0.0183839;-0.00519005;0.0993523;0.0995806;-0.0186123;0.0590965;0.185038;5.4043;0.0733822;0.0787953;5.35026;0.186907;99.7861;144.786;-0.00661824;-0.0184927;0.00636406;-0.0155062;0.0993461;-0.00726189;0.0955744;0;0.118165;8.20046;6.98625
721000;722;;;;;;;;;;-0.409788;0.82843;-0.976658;1.34465;-7.83313;-0.0173288;0.00619481;0.124319;0.12459;-0.0175992;0.0710944;0.13939;7.17413;0.0895047;0.0947925;7.07927;0.141258;86.2211;131.221;0.00368566;-0.0173464;0.00350652;0.00854439;0.124331;-0.00944824;-0.0350198;0;0.0688032;-0.820459;-2.65322;-1.86963;3.34787;-8.15064;-0.0182223;-0.00567849;0.0988928;0.0991674;-0.018497;0.0588322;0.184264;5.42701;0.073062;0.078443;5.36126;0.186523;100.268;145.268;-0.0115344;-0.0183413;0.00621364;-0.0163026;0.0988899;-0.00413394;0.096549;0;0.11937;8.19989;6.99389
722000;723;;;;;;;;;;-0.409974;0.832569;-0.970588;1.34287;-7.82706;-0.0173871;0.00558412;0.127587;0.127802;-0.0176018;0.072702;0.136276;7.33807;0.091634;0.096936;7.26074;0.137727;86.6822;131.682;0.00389085;-0.0174013;0.00316416;0.00769292;0.127597;-0.0042192;-0.0283964;0;0.0598263;-0.822331;-2.65983;-1.86974;3.35363;-8.152;-0.018338;-0.00508952;0.0995571;0.0997764;-0.0185573;0.0591669;0.184196;5.42901;0.0734886;0.0788891;5.37667;0.185989;99.6842;144.684;-0.0118283;-0.018445;0.00641911;-0.0153637;0.0995501;-0.00335383;0.0939022;0;0.125501;8.20035;7.00095
723000;724;29.3155;3.55115;0.137832;-2.56522;29.2014;-0.315288;-0.408776;3.53371;-0.884646;-0.411221;0.836547;-0.971718;1.34653;-7.82644;-0.017322;0.00646634;0.127172;0.127461;-0.0176108;0.0725361;0.136209;7.34165;0.0914117;0.0967148;7.23766;0.138166;86.309;131.309;0.00786576;-0.0173384;0.00401484;0.00860355;0.127184;-0.00564033;-0.0285567;0;0.0633972;-0.82343;-2.66618;-1.87313;3.36083;-8.15508;-0.0182416;-0.00476211;0.0993689;0.0995614;-0.0184341;0.0589977;0.183574;5.44739;0.0732958;0.0786636;5.40095;0.185153;100.071;145.071;-0.0171468;-0.0183577;0.00763473;-0.0158322;0.0993527;0.00883122;0.105858;0;0.112401;8.19683;7.0083
724000;725;;;;;;;;;;-0.410691;0.844657;-0.979752;1.35721;-7.83623;-0.0172116;0.00635341;0.127925;0.128203;-0.0174892;0.0728459;0.134545;7.43246;0.0918548;0.0971278;7.33037;0.136419;86.299;131.299;0.00601659;-0.017229;0.00373802;0.00863224;0.127937;-0.00588297;-0.0276953;0;0.0602857;-0.823836;-2.6717;-1.88296;3.37079;-8.16522;-0.0183563;-0.0048717;0.0997094;0.0999101;-0.018557;0.0592335;0.184098;5.43188;0.0735766;0.0789781;5.38395;0.185737;99.4462;144.446;-0.0141694;-0.0184584;0.00644132;-0.0149697;0.0997013;-0.0016247;0.0946211;0;0.119618;8.19535;7.0153
725000;726;;;;;;;;;;-0.41136;0.846016;-0.970874;1.35187;-7.82735;-0.0169632;0.00639351;0.126963;0.127247;-0.0172467;0.0722467;0.133607;7.48464;0.0911258;0.096329;7.37806;0.135537;86.159;131.159;0.00696192;-0.0169823;0.00357329;0.00885351;0.126976;-0.0103799;-0.0359908;0;0.0581058;-0.824786;-2.6808;-1.87482;3.37371;-8.15708;-0.0178832;-0.00516255;0.0996346;0.099861;-0.0181095;0.0589853;0.179488;5.57142;0.0733594;0.078647;5.51428;0.181347;100.488;145.488;-0.0126962;-0.0180109;0.00771;-0.0166587;0.0996197;-0.00243358;0.0876585;0;0.122963;8.19291;7.02315
726000;727;;;;;;;;;;-0.410642;0.85555;-0.983789;1.36691;-7.84026;-0.0164778;0.00634569;0.126161;0.126443;-0.0167596;0.0716012;0.130609;7.65641;0.0904011;0.0954682;7.54451;0.132547;86.1677;131.168;0.0044519;-0.0164965;0.00356254;0.00877629;0.126173;-0.0038802;-0.0325538;0;0.0606101;-0.825527;-2.68482;-1.88512;3.38282;-8.16738;-0.017745;-0.00502962;0.0998133;0.100028;-0.0179598;0.0589939;0.177782;5.62487;0.073408;0.0786586;5.56956;0.179547;100.162;145.162;-0.00664471;-0.0178653;0.00744954;-0.0161743;0.0997996;-0.00394471;0.0885354;0;0.121912;8.19266;7.03024
727000;728;;;;;;;;;;-0.409754;0.860514;-0.9835;1.36955;-7.83997;-0.0169139;0.00580534;0.124928;0.125166;-0.0171511;0.0711584;0.135389;7.38615;0.089709;0.0948778;7.29783;0.137027;86.3935;131.393;0.00450349;-0.0169306;0.00311704;0.00815465;0.124939;-0.00640603;-0.0346147;0;0.0578773;-0.826096;-2.69295;-1.88306;3.38827;-8.16532;-0.0177593;-0.00553414;0.0997169;0.0999771;-0.0180194;0.0589983;0.178097;5.61491;0.0733989;0.0786643;5.54829;0.180236;100.407;145.407;-0.0109771;-0.0178851;0.00692595;-0.0166625;0.0997091;-0.00604088;0.0898141;0;0.116693;8.19272;7.03782
728000;729;;;;;;;;;;-0.408003;0.865402;-0.986529;1.37427;-7.843;-0.0166476;0.00535738;0.125675;0.125876;-0.0168489;0.0713627;0.132465;7.54916;0.0900608;0.0951502;7.47088;0.133853;86.8025;131.802;0.00528888;-0.0166602;0.00311827;0.00731338;0.125683;-0.00668041;-0.0346153;0;0.0658369;-0.824701;-2.70009;-1.89204;3.3986;-8.17477;-0.0180175;-0.00533742;0.10003;0.100271;-0.0182583;0.0592644;0.180121;5.55181;0.073691;0.0790192;5.49177;0.182091;100.139;145.139;-0.0126748;-0.0181371;0.00686095;-0.0162261;0.100021;-0.00110918;0.088154;0;0.11899;8.18539;7.04499
729000;730;29.3843;3.61993;0.140501;-2.56803;29.2707;-0.263973;-0.411579;3.60303;-0.833331;-0.409198;0.86946;-0.983739;1.37519;-7.84196;-0.0174392;0.00559294;0.125523;0.125742;-0.0176577;0.0716997;0.138932;7.19775;0.0902911;0.0955996;7.12107;0.140428;86.7804;131.78;0.00741476;-0.0174513;0.00350577;0.00741498;0.125532;-0.00925987;-0.0384579;0;0.0587482;-0.828552;-2.70302;-1.88625;3.39864;-8.16271;-0.0188097;-0.00543786;0.10014;0.100388;-0.0190578;0.0597229;0.187835;5.32384;0.0740994;0.0796305;5.26755;0.189842;99.7582;144.758;-0.00990123;-0.0189189;0.00597451;-0.0156157;0.100137;-0.00580565;0.0970077;0;0.124906;8.18376;7.05066
730000;731;;;;;;;;;;-0.40836;0.876472;-0.989508;1.38351;-7.84598;-0.0172597;0.00505042;0.124726;0.124906;-0.0174392;0.0711725;0.138381;7.22644;0.0896508;0.0948967;7.16238;0.139618;86.979;131.979;0.0063047;-0.0172708;0.00296852;0.00686949;0.124734;-0.00774513;-0.0336001;0;0.0583112;-0.827829;-2.70859;-1.89344;3.40689;-8.17447;-0.0184518;-0.00526319;0.0995778;0.0998121;-0.0186861;0.0592491;0.185301;5.39663;0.0735654;0.0789988;5.34152;0.187213;99.9511;144.951;-0.0105378;-0.0185649;0.00654305;-0.0158016;0.099571;-0.00192367;0.0965758;0;0.113651;8.18207;7.05519
731000;732;29.4042;3.63979;0.141272;-2.57138;29.29;-0.296872;-0.414935;3.62235;-0.866229;-0.407126;0.882253;-0.989715;1.38696;-7.84794;-0.0176273;0.00558214;0.124566;0.124785;-0.0178461;0.0713155;0.141509;7.06667;0.0897322;0.0950873;6.99228;0.143015;86.7181;131.718;0.00591551;-0.0176399;0.00340414;0.00748472;0.124575;-0.00479085;-0.0317183;0;0.0586845;-0.829224;-2.71738;-1.88916;3.41184;-8.17019;-0.0184332;-0.00519;0.10018;0.100406;-0.0186598;0.059533;0.184001;5.43474;0.0739464;0.0793773;5.38088;0.185843;99.7698;144.77;-0.0113755;-0.0185435;0.00648791;-0.0156083;0.100173;0.000685264;0.102288;0;0.120282;8.18176;7.06059
732000;733;29.434;3.6696;0.142429;-2.56953;29.3202;-0.290779;-0.413085;3.65253;-0.861521;-0.408647;0.885582;-0.9864;1.38717;-7.84462;-0.0179579;0.00564934;0.124816;0.12504;-0.0181811;0.0716104;0.143875;6.9505;0.0900341;0.0954805;6.87745;0.145403;86.8231;131.823;0.00554229;-0.017969;0.00373023;0.00732484;0.124824;-0.00454709;-0.0323866;0;0.0573888;-0.831103;-2.72432;-1.89107;3.41889;-8.17333;-0.0182092;-0.00498889;0.100392;0.100602;-0.0184187;0.0595101;0.181381;5.51324;0.0739756;0.0793468;5.46191;0.183086;99.6897;144.69;-0.0126582;-0.0183188;0.00678096;-0.0154896;0.100382;0.00106329;0.0864442;0;0.12087;8.17968;7.06711
733000;734;;;;;;;;;;-0.409107;0.894113;-0.994748;1.39869;-7.8534;-0.0184318;0.00670683;0.124877;0.12519;-0.0187449;0.0719674;0.1476;6.77508;0.0903586;0.0959565;6.67859;0.149732;85.9948;130.995;0.00280657;-0.0184514;0.00392204;0.0091368;0.12489;0.0009996;-0.029617;0;0.0635137;-0.833024;-2.72796;-1.89778;3.42597;-8.18004;-0.0179796;-0.00507833;0.100575;0.100792;-0.0181967;0.0594944;0.178768;5.59383;0.0740097;0.0793258;5.53901;0.180538;99.9161;144.916;-0.0165925;-0.0180954;0.0070636;-0.0159117;0.100564;-0.00243038;0.0875736;0;0.124656;8.17667;7.07351
734000;735;;;;;;;;;;-0.408268;0.898941;-0.998565;1.40425;-7.85504;-0.0176475;0.00639232;0.125985;0.126269;-0.0179314;0.0721002;0.140076;7.13897;0.090749;0.0961337;7.04177;0.14201;86.269;131.269;0.00210506;-0.0176644;0.00386185;0.00859998;0.125997;-0.00384601;-0.0295188;0;0.0645985;-0.831822;-2.7344;-1.90269;3.43353;-8.18495;-0.0175887;-0.00494421;0.100151;0.100359;-0.017796;0.0590773;0.175621;5.69407;0.0735589;0.0787698;5.63941;0.177324;100.146;145.146;-0.0157223;-0.0177099;0.00766431;-0.0162027;0.100136;-0.00215082;0.0978173;0;0.123941;8.17799;7.08097
735000;736;;;;;;;;;;-0.407902;0.901487;-0.991353;1.40066;-7.84783;-0.0175241;0.00623108;0.126364;0.126633;-0.0177934;0.0722132;0.13868;7.21085;0.0909352;0.0962842;7.11684;0.140512;86.2211;131.221;0.00524096;-0.0175426;0.0034391;0.00866635;0.126376;-0.00789928;-0.0248808;0;0.0626722;-0.832757;-2.74219;-1.89682;3.43672;-8.17432;-0.0181257;-0.00528748;0.100854;0.101089;-0.0183602;0.0597244;0.179722;5.56415;0.0742728;0.0796325;5.50585;0.181625;100.269;145.269;-0.00612347;-0.0182507;0.00732672;-0.0165377;0.100842;-0.00567594;0.0775662;0;0.123785;8.17511;7.08751
736000;737;;;;;;;;;;-0.407628;0.909201;-0.998753;1.41079;-7.85523;-0.0168806;0.00651164;0.126719;0.127013;-0.0171752;0.0720942;0.133213;7.50677;0.0909428;0.0961256;7.39514;0.135224;86.0687;131.069;0.0060889;-0.0169006;0.00361451;0.0090395;0.126732;-0.0116016;-0.0290982;0;0.0692051;-0.833081;-2.74965;-1.90133;3.44523;-8.18236;-0.0183262;-0.00519012;0.100401;0.100627;-0.0185526;0.0595899;0.18253;5.47855;0.0740478;0.0794531;5.42388;0.18437;99.8849;144.885;-0.00343329;-0.0184401;0.00673566;-0.0158286;0.100392;-0.00765632;0.0942582;0;0.114119;8.17492;7.09518
737000;738;;;;;;;;;;-0.406087;0.913634;-0.993562;1.40954;-7.85004;-0.0170235;0.00662516;0.126688;0.126993;-0.0173283;0.0721606;0.134373;7.44197;0.0909897;0.0962141;7.32867;0.13645;85.9896;130.99;0.0068282;-0.0170444;0.00365423;0.0092171;0.126702;-0.0114311;-0.031287;0;0.0584668;-0.832415;-2.7573;-1.89636;3.44845;-8.17739;-0.0183821;-0.00539244;0.100714;0.100958;-0.0186257;0.0597918;0.182517;5.47893;0.0742961;0.0797224;5.42034;0.18449;99.8169;144.817;-0.00809121;-0.0184949;0.00630813;-0.0158264;0.100709;-0.00756427;0.0982729;0;0.11752;8.17514;7.10233
738000;739;;;;;;;;;;-0.407659;0.918525;-0.994717;1.41398;-7.85119;-0.0167466;0.00662596;0.125233;0.125541;-0.0170552;0.0712983;0.133724;7.4781;0.0899201;0.0950644;7.3609;0.135853;85.8815;130.881;0.00328176;-0.0167686;0.00352872;0.00933235;0.125247;-0.00467749;-0.0282651;0;0.0633527;-0.83383;-2.76191;-1.90199;3.45557;-8.18222;-0.0178784;-0.00621821;0.100647;0.100972;-0.0182037;0.0595881;0.177634;5.62954;0.0741317;0.0794508;5.5468;0.180284;100.364;145.364;-0.0139282;-0.0180046;0.00578162;-0.0169251;0.100649;-0.00679918;0.0974969;0;0.115723;8.17092;7.11039
739000;740;;;;;;;;;;-0.406699;0.92507;-1.00412;1.42457;-7.86059;-0.0166428;0.0059005;0.125112;0.125357;-0.016888;0.0711226;0.133023;7.51749;0.0897321;0.0948302;7.42287;0.134719;86.3786;131.379;0.0020718;-0.0166594;0.00325332;0.00821413;0.125123;0.000545013;-0.0260228;0;0.0583224;-0.835873;-2.76684;-1.91226;3.46566;-8.19452;-0.018292;-0.00526317;0.100398;0.100631;-0.018525;0.0595778;0.182195;5.48861;0.0740387;0.0794371;5.43217;0.184088;99.9931;144.993;-0.0122224;-0.0184086;0.00678999;-0.0160157;0.100389;-0.00167886;0.0893636;0;0.125959;8.16853;7.11633
740000;741;29.5228;3.75839;0.145875;-2.58053;29.4082;-0.307333;-0.424081;3.74053;-0.878075;-0.406055;0.932396;-1.00402;1.42909;-7.86224;-0.0172799;0.00584394;0.126756;0.126993;-0.0175166;0.0722547;0.136324;7.33544;0.091064;0.0963396;7.24983;0.137934;86.7442;131.744;0.0067963;-0.017292;0.00382756;0.00760255;0.126765;-0.0109966;-0.0274137;0;0.0624326;-0.836546;-2.77395;-1.91137;3.47102;-8.19363;-0.018535;-0.00539203;0.100597;0.100841;-0.0187785;0.0598096;0.18425;5.42742;0.0742821;0.0797461;5.37;0.18622;99.8095;144.809;-0.0104622;-0.018647;0.00625801;-0.0157805;0.100593;-0.0110512;0.0870719;0;0.126604;8.16692;7.12172
741000;742;29.523;3.75857;0.145882;-2.57766;29.4086;-0.31061;-0.421215;3.74094;-0.881353;-0.406158;0.935329;-1.00182;1.42949;-7.86004;-0.0174539;0.00577788;0.12556;0.125793;-0.0176869;0.07174;0.139008;7.19381;0.0903367;0.0956533;7.1122;0.140603;86.7481;131.748;0.00511978;-0.0174657;0.00377622;0.00752519;0.125568;-0.00583331;-0.0265526;0;0.0558355;-0.837612;-2.78054;-1.91114;3.47642;-8.1934;-0.0183187;-0.00489848;0.100843;0.101044;-0.0185198;0.0597819;0.181656;5.50491;0.0743092;0.0797092;5.45601;0.183284;99.5157;144.516;-0.0120863;-0.0184251;0.00672212;-0.0152607;0.100833;-0.000749953;0.086323;0;0.123557;8.1632;7.12545
742000;743;29.5487;3.7843;0.146881;-2.58641;29.434;-0.275459;-0.429964;3.76634;-0.846201;-0.403402;0.942285;-1.00436;1.43505;-7.86259;-0.0176672;0.00582486;0.125157;0.125394;-0.0179044;0.0716494;0.14116;7.08417;0.090159;0.0955325;7.00357;0.142784;86.8318;131.832;0.00577896;-0.0176775;0.00405829;0.00736718;0.125165;-0.0100546;-0.0283184;0;0.0590332;-0.836188;-2.78674;-1.91338;3.48226;-8.19564;-0.017948;-0.00506773;0.100597;0.100813;-0.0181642;0.0594888;0.178414;5.60493;0.0740104;0.0793184;5.55011;0.180177;100.068;145.068;-0.0119647;-0.0180677;0.00735049;-0.0161478;0.100584;0.000590986;0.0834214;0;0.133004;8.1617;7.13225
743000;744;29.5645;3.80005;0.147492;-2.58169;29.4501;-0.284539;-0.425236;3.78249;-0.855281;-0.405868;0.949011;-1.0128;1.44607;-7.87103;-0.0177372;0.00573606;0.125814;0.126043;-0.017966;0.0720043;0.14098;7.09322;0.0906127;0.0960058;7.01561;0.142539;86.9361;131.936;0.00578006;-0.0177467;0.00408076;0.00718029;0.125821;-0.00587573;-0.0280123;0;0.0706799;-0.839458;-2.79496;-1.91613;3.49114;-8.19839;-0.0177267;-0.00480664;0.100939;0.101133;-0.017921;0.059527;0.175618;5.69416;0.0741213;0.0793693;5.64325;0.177203;100.02;145.02;-0.00975749;-0.0178466;0.00783731;-0.0160872;0.100921;-0.00988424;0.0919595;0;0.124227;8.15776;7.13851
744000;745;29.5684;3.80401;0.147646;-2.58216;29.454;-0.287174;-0.425711;3.78637;-0.856532;-0.405197;0.95241;-1.00944;1.44577;-7.86767;-0.0181727;0.00605991;0.124848;0.125105;-0.018429;0.0717668;0.145558;6.87009;0.090176;0.0956891;6.78845;0.147309;86.6146;131.615;0.00673129;-0.0181852;0.00404124;0.0078219;0.124857;-0.00710359;-0.0276674;0;0.0647655;-0.839432;-2.80255;-1.91619;3.49725;-8.19722;-0.0181036;-0.00532968;0.101057;0.101295;-0.0183415;0.0598184;0.179142;5.58216;0.0744014;0.0797578;5.52272;0.18107;100.218;145.218;-0.00784273;-0.0182279;0.0072044;-0.0165066;0.101047;-0.005956;0.0952103;0;0.118134;8.15912;7.14535
745000;746;;;;;;;;;;-0.405155;0.957993;-1.01325;1.45209;-7.86972;-0.0179179;0.00607497;0.126426;0.126681;-0.0181732;0.0724273;0.141727;7.05584;0.0911181;0.0965697;6.97079;0.143456;86.5523;131.552;0.00378432;-0.0179319;0.00385107;0.00801386;0.126436;-0.00184291;-0.0244669;0;0.0659408;-0.839196;-2.80862;-1.91642;3.50218;-8.19745;-0.0185366;-0.00533955;0.101067;0.101305;-0.0187745;0.0600397;0.183409;5.45229;0.0745866;0.0800529;5.39587;0.185327;99.851;144.851;-0.00704774;-0.0186509;0.00651234;-0.0159034;0.101061;-0.00932611;0.0966048;0;0.114651;8.14972;7.15351
746000;747;;;;;;;;;;-0.405208;0.964305;-1.01301;1.45612;-7.86949;-0.01739;0.00633487;0.125697;0.125977;-0.0176699;0.0718234;0.138348;7.22813;0.0904517;0.0957645;7.12947;0.140263;86.3135;131.313;0.0015949;-0.0174062;0.00387247;0.00848425;0.125708;-0.00310378;-0.0304006;0;0.0655237;-0.841215;-2.81316;-1.91984;3.50818;-8.20009;-0.0181358;-0.0058259;0.101416;0.101699;-0.018419;0.0600592;0.178826;5.59204;0.0747001;0.0800789;5.52142;0.181113;99.5564;144.556;-0.00848677;-0.0182439;0.00523764;-0.015688;0.101419;-0.00346996;0.0960761;0;0.112002;8.15026;7.16086
747000;748;;;;;;;;;;-0.404904;0.967848;-1.00881;1.45546;-7.86528;-0.0172367;0.00578168;0.12659;0.126823;-0.0174688;0.0721456;0.136161;7.34424;0.0909323;0.0961942;7.25996;0.137742;86.5348;131.535;0.00308918;-0.017252;0.00327101;0.00797179;0.126601;-0.0039391;-0.0264177;0;0.0657488;-0.841572;-2.81868;-1.91958;3.51254;-8.19684;-0.018009;-0.005004;0.100195;0.100407;-0.0182205;0.0593136;0.17974;5.5636;0.0737652;0.0790847;5.51064;0.181467;99.9316;144.932;-0.0160683;-0.0181242;0.00714842;-0.0158502;0.100183;0.0100256;0.0970747;0;0.123035;8.15274;7.16832
748000;749;;;;;;;;;;-0.406219;0.975691;-1.01868;1.46789;-7.87515;-0.0171541;0.00584215;0.128016;0.12825;-0.0173888;0.0728196;0.134;7.46269;0.0918469;0.0970928;7.37545;0.135585;86.4537;131.454;0.00455379;-0.017171;0.00312186;0.00821232;0.128026;-0.00702137;-0.0265059;0;0.0642482;-0.843185;-2.82686;-1.92374;3.52177;-8.206;-0.0179055;-0.00515011;0.101129;0.101351;-0.0181279;0.0597396;0.177057;5.64791;0.0743505;0.0796528;5.59089;0.178862;99.9377;144.938;-0.013606;-0.0180234;0.00708567;-0.0160626;0.101118;-0.00297918;0.0908896;0;0.127839;8.14863;7.17473
749000;750;;;;;;;;;;-0.405756;0.979913;-1.01308;1.46669;-7.86955;-0.0172162;0.00682318;0.12818;0.128499;-0.0175357;0.0730175;0.134313;7.44529;0.0920698;0.0973567;7.32786;0.136466;85.9593;130.959;0.00361286;-0.0172376;0.00384974;0.00941337;0.128194;-0.00564665;-0.0204829;0;0.0563741;-0.845223;-2.83445;-1.92221;3.52752;-8.20447;-0.0182028;-0.00478969;0.100719;0.100912;-0.0183954;0.0596536;0.180728;5.53318;0.0741706;0.0795381;5.48571;0.182292;99.602;144.602;-0.0135302;-0.0183112;0.00705542;-0.0153545;0.100707;0.0029768;0.0855521;0;0.128687;8.14955;7.1818
750000;751;;;;;;;;;;-0.406031;0.990354;-1.02841;1.48435;-7.88489;-0.0168589;0.00597698;0.127603;0.12785;-0.0171058;0.0724777;0.13212;7.56885;0.0914698;0.096637;7.47405;0.133796;86.2544;131.254;0.00149008;-0.0168784;0.00296577;0.00860238;0.127615;-0.000121311;-0.0247757;0;0.0602222;-0.845558;-2.83861;-1.93646;3.53873;-8.21872;-0.0177812;-0.00509469;0.101624;0.101841;-0.0179982;0.0599198;0.17497;5.71526;0.0746208;0.0798931;5.65842;0.176728;100.132;145.132;-0.0141151;-0.0179057;0.00763483;-0.0164438;0.10161;-0.00066109;0.092937;0;0.130293;8.14536;7.18854
751000;752;;;;;;;;;;-0.407246;0.992279;-1.01732;1.47831;-7.8738;-0.0164703;0.00586922;0.127346;0.127585;-0.0167095;0.0721474;0.129335;7.73185;0.0911387;0.0961965;7.63551;0.130967;86.4343;131.434;0.00351827;-0.0164872;0.0031783;0.00821682;0.127357;0.00160257;-0.0253323;0;0.065041;-0.848217;-2.84538;-1.92153;3.53666;-8.20379;-0.0179109;-0.00509063;0.100941;0.101158;-0.0181286;0.0596434;0.17744;5.6357;0.0742233;0.0795245;5.58004;0.17921;100.03;145.03;-0.0138869;-0.0180306;0.007315;-0.0161564;0.100928;-0.00269926;0.0897067;0;0.13094;8.10129;7.18896
752000;753;29.676;3.91156;0.15182;-2.59699;29.5608;-0.27509;-0.440545;3.89318;-0.845832;-0.404141;0.999138;-1.0226;1.4857;-7.88082;-0.0170183;0.00542168;0.127139;0.127343;-0.0172219;0.0722822;0.133856;7.47074;0.0911794;0.0963763;7.39423;0.135241;86.8945;131.895;0.00569933;-0.0170299;0.00335274;0.007226;0.127147;-0.00544163;-0.0304105;0;0.069764;-0.847123;-2.8541;-1.93296;3.54962;-8.21522;-0.0176092;-0.00527062;0.101596;0.101828;-0.0178418;0.0598351;0.173326;5.76947;0.074548;0.0797802;5.7073;0.175214;100.409;145.409;-0.0111351;-0.0177411;0.00781042;-0.0169354;0.101581;0.000541477;0.0887636;0;0.12765;8.16639;7.20328
753000;754;29.6801;3.91572;0.151982;-2.59426;29.5649;-0.304621;-0.437807;3.89727;-0.873979;-0.404287;1.0031;-1.02162;1.48774;-7.87984;-0.0174411;0.00555428;0.126899;0.127112;-0.0176545;0.0723834;0.137441;7.27586;0.0911978;0.0965113;7.19999;0.138889;86.9214;131.921;0.00562823;-0.0174518;0.00366316;0.00720315;0.126907;-0.00820793;-0.0267754;0;0.0601939;-0.847727;-2.86033;-1.93703;3.55699;-8.21806;-0.0181568;-0.00504937;0.101536;0.101748;-0.0183694;0.0600589;0.178821;5.59218;0.074712;0.0800786;5.53902;0.180537;99.8947;144.895;-0.0101637;-0.0182743;0.00724561;-0.0160078;0.101524;-0.00400938;0.101393;0;0.1155;8.12217;7.20351
754000;755;29.6937;3.92931;0.15251;-2.59942;29.5785;-0.267857;-0.442968;3.91082;-0.837215;-0.404922;1.01141;-1.03315;1.50143;-7.89137;-0.0177101;0.00608746;0.126954;0.127209;-0.0179658;0.0725876;0.139501;7.16841;0.0913854;0.0967834;7.08062;0.141231;86.6448;131.645;0.00804895;-0.0177228;0.00404566;0.00786713;0.126963;-0.0123786;-0.0356494;0;0.0592637;-0.848948;-2.86251;-1.94271;3.56214;-8.21918;-0.018759;-0.00563563;0.101383;0.101646;-0.0190228;0.0603346;0.185032;5.40448;0.0749146;0.0804461;5.34341;0.187146;99.9119;144.912;-0.00475575;-0.018875;0.00611759;-0.0161062;0.10138;-0.00929062;0.0882842;0;0.129285;8.115;7.21102
755000;756;29.6975;3.93315;0.152658;-2.59969;29.5823;-0.271681;-0.443238;3.91462;-0.841039;-0.404326;1.01522;-1.03072;1.50217;-7.88894;-0.0182554;0.00619774;0.127364;0.127627;-0.0185187;0.0730729;0.143333;6.97677;0.0918818;0.0974305;6.89179;0.1451;86.6333;131.633;0.00641252;-0.018268;0.00419187;0.00794449;0.127373;-0.00611517;-0.0344987;0;0.0698564;-0.849619;-2.86895;-1.93889;3.56539;-8.2153;-0.0182235;-0.00572095;0.101313;0.101586;-0.0184967;0.0600412;0.179874;5.55946;0.0746572;0.080055;5.49212;0.182079;100.394;145.394;-0.00841035;-0.0183525;0.00683333;-0.0169119;0.101306;-0.00816128;0.0962188;0;0.126195;8.13063;7.21853
756000;757;29.709;3.94464;0.153104;-2.60077;29.5936;-0.281635;-0.444321;3.92599;-0.852377;-0.402815;1.02166;-1.03377;1.50822;-7.89199;-0.018284;0.00592318;0.127606;0.127846;-0.0185241;0.073185;0.143285;6.9791;0.0920288;0.09758;6.90161;0.144894;86.6612;131.661;0.00545841;-0.0182973;0.00373264;0.0078303;0.127615;0.000122938;-0.0318361;0;0.0640309;-0.849707;-2.876;-1.94111;3.5723;-8.21873;-0.018246;-0.00531396;0.101833;0.102067;-0.0184807;0.0602741;0.179176;5.5811;0.0749684;0.0803654;5.52292;0.181064;99.9864;144.986;-0.0114456;-0.0183662;0.0069702;-0.0162588;0.101823;-0.00508096;0.0984765;0;0.131337;8.12727;7.22622
757000;758;29.7142;3.94976;0.153303;-2.6006;29.5989;-0.273995;-0.444156;3.93122;-0.844737;-0.40343;1.02607;-1.0315;1.50983;-7.88973;-0.0182151;0.00641034;0.12816;0.12844;-0.0184953;0.0734677;0.142128;7.0359;0.0924108;0.0979569;6.94446;0.144;86.338;131.338;0.00488796;-0.0182318;0.00389941;0.00859546;0.128171;-0.00367661;-0.0347179;0;0.0609183;-0.851765;-2.88385;-1.94423;3.5808;-8.22649;-0.0184601;-0.00523068;0.101087;0.101316;-0.0186885;0.0600021;0.182615;5.47599;0.0745582;0.0800028;5.42128;0.184458;99.1226;144.123;-0.00604181;-0.0185575;0.00548834;-0.0147854;0.101086;-0.0100489;0.0837608;0;0.126394;8.12385;7.23284
758000;759;;;;;;;;;;-0.40427;1.0314;-1.03581;1.51662;-7.89228;-0.0177192;0.00607812;0.129013;0.129265;-0.0179705;0.0736175;0.137344;7.281;0.0927487;0.0981567;7.19315;0.139021;86.2228;131.223;0.00340269;-0.0177395;0.00298488;0.00876931;0.129026;0.000443276;-0.0373625;0;0.0634628;-0.852421;-2.89236;-1.94549;3.5885;-8.22775;-0.0179639;-0.00469042;0.101464;0.101648;-0.0181478;0.059898;0.177046;5.64825;0.0745547;0.079864;5.60114;0.178535;99.7367;144.737;-0.0136514;-0.0180778;0.00763492;-0.0156788;0.101448;-0.00394895;0.0864622;0;0.126174;8.12767;7.24062
759000;760;;;;;;;;;;-0.404672;1.03836;-1.03647;1.52191;-7.89294;-0.0172962;0.00565063;0.131285;0.1315;-0.0175108;0.0745052;0.131746;7.59039;0.0940483;0.0993403;7.50963;0.133162;86.3639;131.364;0.00488339;-0.0173168;0.00235854;0.0085103;0.131297;-0.0067549;-0.0334572;0;0.0618113;-0.853777;-2.90006;-1.94737;3.59604;-8.22963;-0.0177958;-0.00482588;0.101349;0.101544;-0.017991;0.0597675;0.17559;5.69509;0.0744215;0.07969;5.64416;0.177174;100.023;145.023;-0.0163778;-0.0179169;0.00788038;-0.016157;0.101331;0.00277716;0.0887561;0;0.125583;8.12388;7.24806
760000;761;;;;;;;;;;-0.406226;1.04731;-1.04574;1.53475;-7.90222;-0.016919;0.00570585;0.13218;0.132398;-0.0171371;0.0747676;0.128;7.8125;0.0944971;0.0996901;7.72583;0.129436;86.378;131.378;0.00439251;-0.0169396;0.00243771;0.00854356;0.132192;-0.00322262;-0.0293471;0;0.0614119;-0.855717;-2.90675;-1.95302;3.60497;-8.23528;-0.0178391;-0.00531177;0.101501;0.101737;-0.0180751;0.0599062;0.175752;5.68983;0.0745836;0.079875;5.6286;0.177664;100.269;145.269;-0.0139629;-0.0179665;0.0074456;-0.0166863;0.101489;-0.00323636;0.100929;0;0.124841;8.1186;7.25542
761000;762;;;;;;;;;;-0.403677;1.0552;-1.03843;1.53452;-7.90632;-0.017111;0.0062745;0.131981;0.132245;-0.0173745;0.0748098;0.129647;7.71327;0.0944888;0.0997464;7.61142;0.131381;85.6955;130.696;5.80067e-06;-0.017142;0.00195809;0.0100223;0.131997;0.0133113;-0.0340445;0;0.0604076;-0.854942;-2.91712;-1.94698;3.60988;-8.228;-0.0184229;-0.00511536;0.101246;0.101464;-0.0186411;0.0600527;0.181962;5.49566;0.0746366;0.0800703;5.44302;0.183721;99.9223;144.922;-0.0086002;-0.0185398;0.00708698;-0.0159911;0.101235;-0.00550927;0.0994061;0;0.116913;8.11596;7.26245
762000;763;29.8008;4.03643;0.156667;-2.60965;29.685;-0.284573;-0.453202;4.0173;-0.85393;-0.403712;1.06063;-1.04679;1.54392;-7.90502;-0.0170488;0.00645923;0.130039;0.130322;-0.0173319;0.0738271;0.131105;7.62745;0.0931975;0.0984361;7.51919;0.132993;85.9696;130.97;0.00492799;-0.0170726;0.0030668;0.00941004;0.130053;0.000446289;-0.0409865;0;0.0539868;-0.856349;-2.92239;-1.95611;3.6194;-8.23713;-0.0181527;-0.00516015;0.101531;0.101753;-0.0183747;0.0600641;0.178789;5.59319;0.0747175;0.0800855;5.53768;0.180581;100.087;145.087;-0.00843274;-0.018275;0.00737646;-0.016334;0.101519;-0.00587173;0.0962876;0;0.118511;8.10778;7.26974
763000;764;29.8179;4.05345;0.157328;-2.61291;29.7018;-0.283463;-0.45646;4.03414;-0.854206;-0.403538;1.06643;-1.0485;1.54902;-7.90672;-0.0173006;0.00643586;0.129686;0.129967;-0.0175819;0.0737743;0.133404;7.496;0.0930604;0.0983658;7.39208;0.13528;86.0874;131.087;0.00854312;-0.0173222;0.00330805;0.00915665;0.129699;-0.00933567;-0.0320814;0;0.0554318;-0.859533;-2.92505;-1.95949;3.62414;-8.23783;-0.0180056;-0.00613834;0.10173;0.102044;-0.0183195;0.0601819;0.176993;5.64993;0.0748867;0.0802425;5.57027;0.179525;100.306;145.306;-0.0136286;-0.0181333;0.00602928;-0.0169829;0.101731;-0.00590836;0.0889287;0;0.130885;8.09736;7.27628
764000;765;29.8239;4.05952;0.157563;-2.61085;29.7081;-0.27505;-0.454404;4.04049;-0.845793;-0.4034;1.07149;-1.04916;1.55292;-7.90738;-0.017525;0.00610329;0.129277;0.12953;-0.0177783;0.0736544;0.135561;7.37674;0.0928488;0.0982058;7.28588;0.137252;86.4008;131.401;0.0086432;-0.0175423;0.00340852;0.00844771;0.129288;-0.00847942;-0.0321048;0;0.0609216;-0.858771;-2.93427;-1.9632;3.6334;-8.24546;-0.0182778;-0.00545633;0.101499;0.101747;-0.0185258;0.0601366;0.180078;5.55316;0.0747757;0.0801821;5.49219;0.182077;99.4906;144.491;-0.0110206;-0.0183847;0.00579514;-0.0154838;0.101498;-0.0116111;0.0884513;0;0.129524;8.10093;7.28288
765000;766;29.8386;4.07415;0.158131;-2.60931;29.7229;-0.279076;-0.452856;4.05528;-0.849818;-0.403096;1.07794;-1.05529;1.56143;-7.91351;-0.0177207;0.00612558;0.129069;0.129324;-0.0179759;0.0736501;0.137296;7.28351;0.0927905;0.0982002;7.19431;0.138999;86.5153;131.515;0.00744035;-0.0177361;0.00371217;0.0082252;0.12908;-0.00796806;-0.0299951;0;0.0552912;-0.858862;-2.94112;-1.96993;3.64259;-8.25219;-0.0185305;-0.00471978;0.101263;0.101448;-0.0187162;0.0600823;0.182994;5.46466;0.0746572;0.0801097;5.42037;0.184489;99.038;144.038;-0.0131776;-0.0186267;0.00628977;-0.0145313;0.101255;-0.00167824;0.0938278;0;0.122155;8.09042;7.28644
766000;767;29.8445;4.08011;0.158362;-2.60846;29.7287;-0.312677;-0.452006;4.06101;-0.883419;-0.402351;1.08385;-1.05858;1.56755;-7.91681;-0.0174956;0.00636743;0.128373;0.128651;-0.017773;0.0732118;0.136287;7.33744;0.0922638;0.0976157;7.23852;0.13815;86.3364;131.336;0.00725988;-0.0175126;0.00381347;0.0085912;0.128385;-0.0104492;-0.0341812;0;0.0574602;-0.859929;-2.94675;-1.97114;3.64804;-8.2534;-0.0181125;-0.00494436;0.101715;0.101919;-0.0183162;0.0601176;0.17807;5.61576;0.0748026;0.0801568;5.56443;0.179713;99.6958;144.696;-0.012829;-0.0182257;0.00713278;-0.0157074;0.101703;-0.00506675;0.0910788;0;0.132899;8.07912;7.29298
767000;768;29.8519;4.08746;0.158648;-2.61247;29.7359;-0.28737;-0.456025;4.06829;-0.858112;-0.401046;1.08833;-1.0566;1.56898;-7.91483;-0.0179429;0.00606874;0.128898;0.129148;-0.0181933;0.0736707;0.139202;7.18379;0.0927599;0.0982277;7.09869;0.140871;86.5396;131.54;0.00604173;-0.017958;0.00366753;0.00815759;0.128908;-0.00825541;-0.0411015;0;0.0608448;-0.859147;-2.95401;-1.97259;3.6545;-8.25484;-0.0179643;-0.00507121;0.101855;0.102069;-0.0181785;0.0601237;0.176372;5.66984;0.074845;0.080165;5.6148;0.178101;100.07;145.07;-0.0174237;-0.0180874;0.00759337;-0.016358;0.10184;0.00613959;0.0952502;0;0.12879;8.08503;7.29996
768000;769;;;;;;;;;;-0.403956;1.0933;-1.0539;1.57137;-7.91038;-0.017699;0.00545832;0.131056;0.131256;-0.0178991;0.0745773;0.13505;7.40467;0.0940396;0.0994364;7.3331;0.136368;86.6093;131.609;0.00583651;-0.0177162;0.0025649;0.00797116;0.131066;-0.00395956;-0.040716;0;0.0618386;-0.862653;-2.96106;-1.96717;3.65812;-8.24943;-0.0177796;-0.00507715;0.101619;0.101834;-0.0179951;0.0599146;0.174964;5.71546;0.0746146;0.0798861;5.65899;0.17671;99.9736;144.974;-0.0096132;-0.0179;0.00739038;-0.0161928;0.101606;-0.00959237;0.0966748;0;0.124936;8.08095;7.3071
769000;770;;;;;;;;;;-0.402847;1.10045;-1.06202;1.58151;-7.9185;-0.0174812;0.0059768;0.130762;0.131002;-0.0177218;0.0743621;0.133687;7.48013;0.0938019;0.0991495;7.39216;0.135278;86.2335;131.233;0.00563437;-0.0175026;0.00270637;0.00881842;0.130774;-0.00300316;-0.0363637;0;0.0629822;-0.862639;-2.9678;-1.97672;3.66871;-8.25898;-0.018042;-0.00552608;0.101973;0.102227;-0.0182959;0.0602615;0.176928;5.652;0.0749977;0.0803487;5.58744;0.178973;99.9198;144.92;-0.00891424;-0.018161;0.00651843;-0.0162582;0.101968;-0.00763747;0.0872121;0;0.125167;8.07563;7.31456
770000;771;;;;;;;;;;-0.403638;1.10716;-1.06219;1.5865;-7.91867;-0.017747;0.00645679;0.132333;0.13261;-0.0180243;0.0753173;0.134109;7.45664;0.0949867;0.100423;7.35731;0.135919;86.0795;131.08;0.00712793;-0.0177701;0.00314392;0.00933052;0.132347;-0.00586776;-0.0404152;0;0.0590673;-0.865294;-2.97397;-1.97777;3.67488;-8.26197;-0.0180076;-0.00582752;0.101912;0.102195;-0.0182901;0.0602424;0.176697;5.65942;0.0749739;0.0803233;5.58744;0.178973;100.615;145.615;-0.0189435;-0.0181446;0.00716938;-0.0174092;0.101904;0.00203109;0.0741771;0;0.118631;8.07877;7.32074
771000;772;;;;;;;;;;-0.403489;1.1148;-1.06584;1.59424;-7.92231;-0.0171379;0.00582591;0.131539;0.131767;-0.0173659;0.0745665;0.130288;7.67533;0.0941686;0.0994219;7.58771;0.131792;86.222;131.222;0.00825882;-0.0171605;0.00234864;0.00884623;0.131552;-0.00702522;-0.0370153;0;0.0599359;-0.865873;-2.98014;-1.98176;3.68217;-8.26502;-0.0180949;-0.0057862;0.102237;0.102514;-0.0183725;0.0604435;0.17699;5.65003;0.0752188;0.0805913;5.57977;0.179219;99.6646;144.665;-0.0125488;-0.0182078;0.00564968;-0.015973;0.102238;-0.0030918;0.0906384;0;0.126886;8.07206;7.32852
772000;773;;;;;;;;;;-0.403222;1.12506;-1.06593;1.60142;-7.93365;-0.0172651;0.00661283;0.133473;0.133763;-0.0175547;0.0756586;0.129353;7.73079;0.0955656;0.100878;7.61977;0.131238;85.4953;130.495;0.00204832;-0.0173001;0.00201241;0.0106014;0.133491;0.00617411;-0.0360042;0;0.0577084;-0.866698;-2.98724;-1.97942;3.68685;-8.26168;-0.0183497;-0.00537343;0.101785;0.102025;-0.0185896;0.0603072;0.180279;5.54696;0.0749852;0.0804096;5.48828;0.182206;99.0302;144.03;-0.00735185;-0.0184466;0.00520654;-0.0147993;0.101786;-0.0173348;0.0855164;0;0.125158;8.06852;7.33595
773000;774;29.9363;4.17195;0.161927;-2.62123;29.8199;-0.297238;-0.464784;4.15223;-0.867981;-0.402716;1.12932;-1.06702;1.60501;-7.92524;-0.0173596;0.00678098;0.129791;0.130103;-0.0176714;0.073887;0.13375;7.47661;0.0931858;0.0985161;7.36233;0.135827;85.8626;130.863;0.00715542;-0.0173839;0.0034422;0.00968485;0.129806;-0.00278602;-0.0421347;0;0.0562418;-0.867531;-2.99364;-1.98315;3.69423;-8.2654;-0.0187876;-0.00515918;0.100933;0.101155;-0.0190095;0.0600824;0.186138;5.37236;0.0745853;0.0801099;5.32131;0.187924;98.9374;143.937;-0.00926276;-0.0188802;0.00524931;-0.0144354;0.100933;-0.00559886;0.0845677;0;0.125544;8.05899;7.34361
774000;775;29.9581;4.19367;0.16277;-2.61593;29.8422;-0.295834;-0.459476;4.17452;-0.866577;-0.401313;1.13471;-1.06498;1.60711;-7.92321;-0.0172931;0.00638634;0.129055;0.129333;-0.0175712;0.0734521;0.133998;7.46281;0.0926363;0.0979362;7.3605;0.13586;86.0702;131.07;0.00716759;-0.0173148;0.00322131;0.00914107;0.129068;-0.00285832;-0.0366342;0;0.0543551;-0.867721;-3.00108;-1.98132;3.69933;-8.26358;-0.0183428;-0.00515367;0.102115;0.102335;-0.0185628;0.060449;0.179628;5.56705;0.0751788;0.0805986;5.5129;0.181393;99.3139;144.314;-0.0112246;-0.0184472;0.00614572;-0.0152176;0.10211;-0.0116742;0.0833792;0;0.130604;8.04974;7.34891
775000;776;29.9694;4.20502;0.16321;-2.62274;29.8531;-0.277377;-0.466292;4.18549;-0.848119;-0.401656;1.13996;-1.06741;1.61251;-7.92563;-0.0172337;0.00580213;0.129492;0.129722;-0.0174628;0.0735921;0.133087;7.5139;0.0928509;0.0981229;7.42845;0.134618;86.5203;131.52;0.00639569;-0.0172504;0.00310339;0.00815026;0.129503;-0.00142594;-0.0395308;0;0.0569362;-0.868718;-3.00857;-1.98528;3.70776;-8.26754;-0.0183422;-0.00505324;0.102277;0.102489;-0.0185535;0.0605211;0.179338;5.57607;0.0752763;0.0806948;5.52395;0.18103;99.4177;144.418;-0.0158925;-0.0184496;0.00653548;-0.0153733;0.10227;0.000551277;0.0929182;0;0.124149;8.04302;7.35184
776000;777;29.9852;4.2208;0.163823;-2.62107;29.8692;-0.275589;-0.464617;4.2015;-0.846331;-0.401379;1.14416;-1.06612;1.61457;-7.92435;-0.0174686;0.00592535;0.128286;0.128527;-0.0177091;0.0731179;0.136169;7.34381;0.0921565;0.0974906;7.25766;0.137785;86.586;131.586;0.00569907;-0.0174833;0.00354568;0.00799758;0.128296;-0.00565904;-0.0404523;0;0.058276;-0.869703;-3.01766;-1.98197;3.71361;-8.26423;-0.0178579;-0.00506384;0.102337;0.10255;-0.0180708;0.0603105;0.1745;5.73066;0.0751184;0.080414;5.67491;0.176214;99.9855;144.985;-0.0101492;-0.0179803;0.00756713;-0.0163169;0.102323;-0.00221815;0.0975398;0;0.123807;8.03064;7.35762
777000;778;29.989;4.22455;0.163968;-2.61715;29.873;-0.304079;-0.460703;4.20533;-0.874821;-0.401783;1.15062;-1.0689;1.62108;-7.92712;-0.0177876;0.00619814;0.128115;0.128378;-0.0180504;0.0732142;0.138841;7.2025;0.0921931;0.097619;7.11219;0.140604;86.5304;131.53;0.00719411;-0.017802;0.00393476;0.00816877;0.128125;-0.00775031;-0.0439947;0;0.0636645;-0.871156;-3.02074;-1.99098;3.72126;-8.27324;-0.0183926;-0.00522527;0.102405;0.10263;-0.0186182;0.0606242;0.179607;5.56772;0.0753964;0.0808323;5.51237;0.18141;99.5173;144.517;-0.00818537;-0.0185024;0.00641353;-0.0155882;0.102398;-0.0147293;0.0904238;0;0.120695;8.02429;7.36501
778000;779;29.9935;4.22908;0.164145;-2.622;29.8773;-0.28292;-0.465555;4.20964;-0.852278;-0.402173;1.15497;-1.07243;1.62659;-7.93066;-0.017985;0.00677226;0.128241;0.128554;-0.018298;0.0734261;0.140243;7.13046;0.092408;0.0979015;7.0256;0.142337;86.206;131.206;0.00840902;-0.0180024;0.00427841;0.00894287;0.128254;-0.00979622;-0.0424026;0;0.0552368;-0.873452;-3.02722;-1.99694;3.73025;-8.28081;-0.0182564;-0.00559579;0.102109;0.102368;-0.018516;0.0604422;0.178794;5.59304;0.0751815;0.0805896;5.52864;0.180876;99.5959;144.596;-0.0173069;-0.0183673;0.00583684;-0.0157793;0.102108;0.00907945;0.0876219;0;0.109451;8.02904;7.37246
779000;780;;;;;;;;;;-0.39947;1.15948;-1.06683;1.62545;-7.92331;-0.0176181;0.00660034;0.12917;0.129466;-0.0179143;0.07369;0.136395;7.33164;0.0928597;0.0982533;7.22696;0.138371;85.9362;130.936;0.00493862;-0.0176415;0.00331167;0.00946145;0.129184;-0.000989599;-0.047681;0;0.0594214;-0.870705;-3.03314;-1.98588;3.72851;-8.26345;-0.0182148;-0.00561553;0.101551;0.101813;-0.0184775;0.0601454;0.179367;5.57517;0.0747993;0.0801938;5.51012;0.181484;99.5968;144.597;-0.00845103;-0.0183243;0.0057039;-0.0157037;0.10155;-0.0103126;0.0845432;0;0.128588;8.03271;7.37968
780000;781;;;;;;;;;;-0.400341;1.16869;-1.07807;1.63961;-7.93454;-0.0177372;0.00674166;0.129362;0.129671;-0.0180455;0.073858;0.137113;7.29328;0.0930473;0.0984774;7.18575;0.139164;85.776;130.776;0.00680412;-0.0177631;0.0032054;0.00981727;0.129378;-0.00719447;-0.0401418;0;0.0602418;-0.872588;-3.04157;-1.99872;3.74265;-8.28098;-0.0183615;-0.00544701;0.10165;0.101896;-0.0186083;0.0602523;0.180636;5.536;0.074908;0.0803364;5.47586;0.18262;99.2175;144.218;-0.0144362;-0.0184623;0.00536686;-0.0150823;0.10165;-0.0101879;0.0879178;0;0.123152;8.02861;7.38751
781000;782;;;;;;;;;;-0.401735;1.18157;-1.08053;1.65077;-7.94841;-0.0175851;0.00717136;0.132081;0.132424;-0.0179279;0.0751757;0.133139;7.51094;0.094825;0.100234;7.38643;0.135383;85.451;130.451;0.00578433;-0.0176176;0.00306625;0.0107337;0.132099;0.0019654;-0.0397363;0;0.0595009;-0.875529;-3.04916;-2.0005;3.75046;-8.28276;-0.0185487;-0.00538422;0.101624;0.101865;-0.0187895;0.060327;0.182524;5.47874;0.0749619;0.080436;5.42136;0.184456;99.1197;144.12;-0.0112698;-0.018647;0.00529247;-0.0148957;0.101624;7.16142e-05;0.0850263;0;0.126215;8.01639;7.39511
782000;783;;;;;;;;;;-0.402053;1.18164;-1.07714;1.64868;-7.93361;-0.0171174;0.00677056;0.13063;0.13094;-0.017427;0.0741836;0.131037;7.63145;0.0936445;0.0989114;7.51363;0.133091;85.7843;130.784;0.00493757;-0.0171438;0.00318831;0.00988463;0.130646;-0.00269017;-0.0392076;0;0.0619927;-0.876048;-3.06133;-1.99841;3.75937;-8.28067;-0.0181873;-0.00497977;0.10241;0.102615;-0.0183926;0.0605039;0.177593;5.63086;0.0752937;0.0806719;5.57918;0.179238;99.5758;144.576;-0.0174313;-0.0182991;0.00698323;-0.0156335;0.102399;-0.00348536;0.0931163;0;0.123146;8.01762;7.4025
783000;784;;;;;;;;;;-0.400909;1.18943;-1.07548;1.65291;-7.93195;-0.0169999;0.0066703;0.128389;0.128694;-0.0173053;0.0729998;0.132409;7.55235;0.0921082;0.0973331;7.43673;0.134468;85.7371;130.737;0.0063426;-0.0170262;0.00306493;0.00981106;0.128405;-0.00446564;-0.0383916;0;0.0615366;-0.877035;-3.07215;-1.99505;3.76663;-8.27731;-0.018171;-0.00470874;0.102183;0.102367;-0.018355;0.0603609;0.177828;5.6234;0.0751142;0.0804812;5.57707;0.179306;99.7543;144.754;-0.0136409;-0.0182869;0.00774583;-0.0158028;0.102166;-0.000795785;0.0944533;0;0.130474;8.00162;7.40898
784000;785;30.097;4.33256;0.168161;-2.62708;29.9805;-0.304951;-0.470626;4.31289;-0.875693;-0.401219;1.19728;-1.06965;1.65488;-7.92788;-0.0173892;0.00738985;0.128274;0.128648;-0.0177631;0.0732056;0.135563;7.37666;0.0922582;0.0976074;7.24242;0.138075;85.6644;130.664;0.00799873;-0.0174136;0.00424535;0.0101283;0.12829;-0.00455628;-0.0455958;0;0.0622937;-0.879588;-3.07857;-1.99651;3.77324;-8.27877;-0.0182215;-0.00539265;0.102475;0.102716;-0.0184619;0.0605888;0.177813;5.62387;0.0753885;0.0807851;5.56365;0.179738;99.4829;144.483;-0.00865201;-0.0183308;0.00608125;-0.0156099;0.102472;-0.00781896;0.0908601;0;0.122266;7.97396;7.41633
785000;786;30.1084;4.34396;0.168603;-2.6331;29.9918;-0.268393;-0.476652;4.32415;-0.839136;-0.399105;1.20551;-1.08512;1.67033;-7.94334;-0.0174495;0.00681934;0.126707;0.127029;-0.0177714;0.0724001;0.137715;7.26135;0.0911887;0.0965334;7.14795;0.1399;86.1695;131.17;0.00752787;-0.0174664;0.0043942;0.00893418;0.126719;-0.00802345;-0.0389891;0;0.0554979;-0.879752;-3.08376;-2.00765;3.78341;-8.29283;-0.0179604;-0.00572065;0.102131;0.102403;-0.0182323;0.0603177;0.175856;5.68648;0.0750877;0.0804236;5.61659;0.178044;99.8072;144.807;-0.0201112;-0.0180769;0.00600842;-0.0161711;0.10213;0.0105762;0.0819329;0;0.115812;7.96301;7.42089
786000;787;30.1077;4.3433;0.168577;-2.63215;29.9912;-0.271322;-0.475705;4.32354;-0.842064;-0.399469;1.21081;-1.08124;1.67174;-7.94159;-0.018203;0.00653742;0.127906;0.128198;-0.0184949;0.0733462;0.142316;7.02662;0.0922501;0.097795;6.9315;0.144269;86.2167;131.217;0.00654057;-0.0182211;0.00388691;0.00884456;0.127918;0.00278092;-0.0401173;0;0.0548686;-0.881026;-3.08674;-2.00751;3.78606;-8.28695;-0.0180494;-0.00537514;0.102173;0.102413;-0.0182892;0.0603511;0.176655;5.66076;0.0751176;0.0804682;5.59964;0.178583;99.2047;144.205;-0.0132077;-0.0181516;0.00559659;-0.0151496;0.102172;0.0126045;0.0867889;0;0.1265;7.95585;7.42335
787000;788;30.1166;4.35224;0.168925;-2.63396;30;-0.276651;-0.477508;4.33231;-0.847393;-0.399003;1.21581;-1.08647;1.67864;-7.9447;-0.0178445;0.00683076;0.127826;0.128146;-0.0181641;0.0731549;0.1396;7.16332;0.0920842;0.0975398;7.05488;0.141746;86.1967;131.197;0.00604634;-0.0178616;0.00439521;0.00895171;0.127838;-0.0118458;-0.0397992;0;0.0576591;-0.880243;-3.0933;-2.01224;3.79374;-8.2945;-0.0183592;-0.00545817;0.101903;0.10215;-0.0186064;0.0603781;0.180164;5.55051;0.0750746;0.0805042;5.49005;0.182148;99.0138;144.014;-0.0125122;-0.0184558;0.00504546;-0.014815;0.101905;-0.010252;0.0889887;0;0.127327;7.95891;7.43159
788000;789;30.1174;4.353;0.168954;-2.63369;30.0007;-0.285609;-0.477245;4.33301;-0.856351;-0.399081;1.22194;-1.08926;1.6849;-7.94748;-0.0180078;0.00674295;0.127665;0.127977;-0.0183193;0.073148;0.141055;7.08943;0.092034;0.0975307;6.9859;0.143146;86.3328;131.333;0.00453852;-0.0180229;0.00453491;0.00866574;0.127676;-0.0045664;-0.0365778;0;0.0598748;-0.88248;-3.1;-2.01354;3.80041;-8.29832;-0.0180206;-0.00540858;0.101681;0.101925;-0.0182645;0.0600948;0.177227;5.64249;0.0747854;0.0801264;5.5805;0.179195;99.4031;144.403;-0.0171166;-0.0181263;0.00579053;-0.0153903;0.101679;0.0154703;0.094272;0;0.122984;7.96041;7.43828
789000;790;30.1618;4.39738;0.170676;-2.63645;30.045;-0.277398;-0.480005;4.3774;-0.84814;-0.398133;1.22813;-1.08832;1.68856;-7.94654;-0.0180375;0.00742739;0.127345;0.127724;-0.018416;0.0730698;0.141643;7.06001;0.0919048;0.0974264;6.93547;0.144186;85.7312;130.731;0.0044809;-0.01806;0.00451769;0.0099618;0.127361;-0.00631172;-0.0361832;0;0.0604882;-0.881743;-3.10957;-2.01525;3.80895;-8.30099;-0.0191645;-0.005599;0.101825;0.102084;-0.0194231;0.0607533;0.18821;5.31321;0.075369;0.0810045;5.2558;0.190266;99.5317;144.532;-0.0182507;-0.0192718;0.00558002;-0.0155499;0.101825;-0.00416677;0.096832;0;0.133074;7.95769;7.4461
790000;791;;;;;;;;;;-0.399062;1.23625;-1.09337;1.69795;-7.94985;-0.0178141;0.00699587;0.127515;0.127851;-0.0181501;0.0730006;0.139702;7.15808;0.0918836;0.0973341;7.04408;0.141963;85.8736;130.874;0.00333384;-0.017836;0.00402133;0.00958697;0.12753;-0.00171349;-0.0351715;0;0.0641813;-0.883067;-3.11678;-2.01882;3.81704;-8.30108;-0.018249;-0.00508008;0.102389;0.102602;-0.0184626;0.0605325;0.178233;5.61064;0.0753139;0.08071;5.55731;0.179943;99.4079;144.408;-0.0156491;-0.0183566;0.00649991;-0.0153923;0.102381;-0.00135809;0.0942473;0;0.125565;7.9442;7.45333
791000;792;;;;;;;;;;-0.399267;1.24517;-1.09785;1.70738;-7.95432;-0.0174837;0.00694046;0.127972;0.128302;-0.0178141;0.0730582;0.136621;7.3195;0.0920492;0.0974109;7.20228;0.138845;85.8437;130.844;0.00276547;-0.0175066;0.00382567;0.00965354;0.127987;-0.00189209;-0.0335518;0;0.0623784;-0.885138;-3.12616;-2.023;3.82738;-8.30526;-0.0184411;-0.00508475;0.102403;0.102617;-0.0186547;0.0606359;0.180083;5.553;0.0754028;0.0808478;5.50087;0.181789;99.4831;144.483;-0.00963761;-0.0185502;0.00660402;-0.0154917;0.102395;-0.0154422;0.0934669;0;0.129592;7.93752;7.46196
792000;793;;;;;;;;;;-0.399425;1.25317;-1.09911;1.71406;-7.95558;-0.0170399;0.00703747;0.128069;0.12841;-0.0173804;0.0728952;0.133052;7.51584;0.0919493;0.0971936;7.38819;0.135351;85.7728;130.773;0.00421947;-0.0170638;0.00384901;0.00981573;0.128085;-0.0081958;-0.0289756;0;0.0597484;-0.886652;-3.13649;-2.02637;3.83796;-8.31024;-0.0183086;-0.00556332;0.102419;0.102675;-0.0185644;0.0606197;0.178761;5.59406;0.0754037;0.0808262;5.53075;0.180807;99.8112;144.811;-0.0173891;-0.0184256;0.00631991;-0.0161446;0.102415;0.010376;0.087506;0;0.10982;7.92135;7.46827
793000;794;;;;;;;;;;-0.398939;1.25995;-1.09725;1.71773;-7.95372;-0.0168017;0.00727312;0.127327;0.127693;-0.0171678;0.0724303;0.131957;7.5782;0.0913902;0.0965737;7.43793;0.134446;85.7239;130.724;0.00284847;-0.0168249;0.0042379;0.00992025;0.127342;-0.0034922;-0.0301946;0;0.0531874;-0.886942;-3.14208;-2.02788;3.84339;-8.31234;-0.0187371;-0.0051453;0.102406;0.102624;-0.0189553;0.0607899;0.182969;5.46542;0.0755318;0.0810532;5.41403;0.184705;99.0613;144.061;-0.0180933;-0.0188358;0.00574179;-0.0148355;0.102403;0.00614818;0.0952085;0;0.119103;7.87681;7.4753
794000;795;30.2195;4.45507;0.172916;-2.64451;30.1022;-0.287751;-0.488065;4.43451;-0.858493;-0.399255;1.26607;-1.09881;1.72329;-7.95704;-0.0170172;0.00688295;0.127218;0.127546;-0.0173449;0.0724453;0.133764;7.47586;0.0913626;0.0965937;7.35351;0.13599;85.9295;130.929;0.00583432;-0.0170383;0.00396538;0.00942716;0.127232;-0.00417351;-0.0286528;0;0.0542684;-0.888994;-3.14609;-2.02565;3.84596;-8.3089;-0.0184331;-0.00492;0.102224;0.102424;-0.0186334;0.0605288;0.180321;5.54568;0.0752667;0.080705;5.49682;0.181923;98.1721;143.172;-0.00977674;-0.0185126;0.00463658;-0.0134301;0.102225;0.00035123;0.0926886;0;0.118647;7.87472;7.4763
795000;796;30.2309;4.46656;0.173362;-2.64458;30.1137;-0.281734;-0.488128;4.44606;-0.851091;-0.397299;1.26591;-1.08832;1.71605;-7.94655;-0.0173438;0.00697258;0.12621;0.126548;-0.0176817;0.0721149;0.13742;7.27697;0.0908347;0.0961531;7.15703;0.139723;85.9516;130.952;0.0069644;-0.0173636;0.00424396;0.00935335;0.126224;-0.00863415;-0.0337779;0;0.0572595;-0.887476;-3.15516;-2.01546;3.84769;-8.29649;-0.0186399;-0.0056521;0.102025;0.102289;-0.018904;0.0605964;0.1827;5.47346;0.0752891;0.0807952;5.41095;0.18481;99.1581;144.158;-0.0117306;-0.0187395;0.00493703;-0.0150813;0.102028;-0.00951416;0.0945327;0;0.123833;7.88577;7.48268
796000;797;30.2447;4.48029;0.173895;-2.64516;30.1275;-0.277916;-0.488715;4.45987;-0.848658;-0.39793;1.27631;-1.0995;1.73096;-7.95773;-0.0177607;0.00718609;0.127181;0.127537;-0.0181161;0.0728265;0.139649;7.16082;0.091662;0.097102;7.03995;0.142046;86.0883;131.088;0.00551545;-0.0177777;0.00485952;0.00921346;0.127194;-0.00606598;-0.0356873;0;0.056924;-0.891234;-3.16019;-2.03269;3.86173;-8.31986;-0.0186287;-0.00528791;0.0996873;0.0999231;-0.0188646;0.0593939;0.186871;5.35127;0.0737127;0.0791918;5.29687;0.188791;99.1266;144.127;-0.0148339;-0.0187229;0.00513275;-0.014587;0.099688;0.0133639;0.0796641;0;0.126969;7.88522;7.49063
797000;798;30.2724;4.50803;0.174971;-2.64105;30.1553;-0.319124;-0.484604;4.48767;-0.889866;-0.397676;1.28485;-1.10493;1.74065;-7.96316;-0.0180283;0.00719825;0.125128;0.125489;-0.0183893;0.071939;0.144079;6.94065;0.0904144;0.0959187;6.82401;0.146541;86.0428;131.043;0.00543603;-0.0180449;0.0049134;0.00919236;0.12514;-0.00489687;-0.036556;0;0.0571068;-0.890526;-3.16758;-2.03529;3.86898;-8.31755;-0.0183351;-0.00511672;0.102057;0.102274;-0.0185521;0.0604129;0.179656;5.5662;0.0751339;0.0805506;5.51278;0.181397;99.2437;144.244;-0.0160524;-0.0184377;0.00608262;-0.0150921;0.102052;0.0019302;0.0975747;0;0.125933;7.87581;7.49763
798000;799;30.2817;4.51734;0.175333;-2.6444;30.1643;-0.321908;-0.487947;4.49669;-0.89265;-0.395568;1.2898;-1.10291;1.74254;-7.96113;-0.0183063;0.00705353;0.126363;0.126706;-0.0186493;0.0726776;0.144871;6.90271;0.091324;0.0969035;6.79412;0.147186;86.218;131.218;0.0047507;-0.0183213;0.00493419;0.00890064;0.126374;-0.00383467;-0.0318855;0;0.0579106;-0.891306;-3.17944;-2.03666;3.8796;-8.31991;-0.0181981;-0.00460813;0.102042;0.102218;-0.0183744;0.0602964;0.178339;5.60729;0.0750242;0.0803952;5.56308;0.179757;99.4378;144.438;-0.0139696;-0.0183059;0.00735047;-0.0152615;0.102027;0.00913771;0.0972187;0;0.121782;7.86731;7.50931
799000;800;;;;;;;;;;-0.398579;1.29961;-1.10836;1.75394;-7.96483;-0.0176259;0.00698135;0.127457;0.127792;-0.0179611;0.0728764;0.138289;7.23122;0.0917693;0.0971686;7.11494;0.140549;85.9804;130.98;0.00291789;-0.0176458;0.00423244;0.00937649;0.12747;-0.00125296;-0.0334924;0;0.0653192;-0.893618;-3.19051;-2.03892;3.89038;-8.32094;-0.0185723;-0.00513028;0.102041;0.102259;-0.0187901;0.0605245;0.182008;5.49426;0.0752223;0.0806993;5.44216;0.183751;99.0368;144.037;-0.0104877;-0.0186698;0.0056794;-0.0147564;0.102038;0.00905743;0.100769;0;0.11397;7.83537;7.51559
800000;801;;;;;;;;;;-0.396771;1.31016;-1.10894;1.76173;-7.96541;-0.0173372;0.00725614;0.127983;0.128344;-0.0176986;0.0730214;0.135465;7.38197;0.0920314;0.0973619;7.25165;0.1379;85.8259;130.826;0.00411738;-0.017359;0.00437288;0.0097679;0.127998;-0.00622751;-0.0286584;0;0.0572746;-0.894011;-3.19561;-2.04222;3.89639;-8.32423;-0.018738;-0.0055545;0.102566;0.10282;-0.0189918;0.0609058;0.182692;5.4737;0.0756758;0.0812078;5.41391;0.184709;98.8037;143.804;-0.0100166;-0.0188307;0.00459538;-0.0145873;0.10257;0.00090894;0.100137;0;0.113356;7.82025;7.52224
801000;802;;;;;;;;;;-0.396461;1.3199;-1.1152;1.77285;-7.97167;-0.0171572;0.00702383;0.12876;0.129098;-0.0174945;0.0732962;0.133249;7.50474;0.0924501;0.0977282;7.37932;0.135514;85.7991;130.799;0.00478495;-0.017181;0.00382968;0.00980501;0.128776;-0.00746653;-0.029963;0;0.0597938;-0.894693;-3.20483;-2.04527;3.90571;-8.33014;-0.0191032;-0.00525177;0.102412;0.102639;-0.0193298;0.0609842;0.186533;5.36098;0.0756962;0.0813123;5.30986;0.188329;98.314;143.314;-0.0180643;-0.019185;0.00425631;-0.0137114;0.102416;-0.00160437;0.0950172;0;0.126116;7.78757;7.52611
802000;803;;;;;;;;;;-0.397165;1.32489;-1.119;1.77911;-7.97548;-0.0169248;0.00725021;0.127414;0.127777;-0.0172881;0.0725327;0.132833;7.52825;0.0914937;0.0967103;7.39107;0.135298;85.6127;130.613;0.00236044;-0.0169503;0.00394439;0.0101327;0.12743;-0.00194481;-0.0330601;0;0.0544712;-0.895378;-3.20663;-2.04801;3.90878;-8.33003;-0.0185275;-0.00472133;0.101429;0.101614;-0.018713;0.0601636;0.182665;5.47449;0.0747652;0.0802181;5.43013;0.184158;98.2899;143.29;-0.0143725;-0.0186081;0.00505809;-0.0134353;0.101427;0.0157497;0.101746;0;0.113553;7.74071;7.52593
803000;804;;;;;;;;;;-0.396909;1.32825;-1.11923;1.7817;-7.9757;-0.0168724;0.00662705;0.128057;0.12836;-0.0171748;0.0727672;0.131757;7.58972;0.0918349;0.0970229;7.4737;0.133803;86.063;131.063;0.00593034;-0.0168927;0.0037258;0.00915551;0.12807;-0.00695861;-0.0307006;0;0.0559206;-0.895979;-3.21165;-2.05173;3.91498;-8.33841;-0.0189856;-0.00494862;0.101371;0.101574;-0.0191888;0.0603813;0.187289;5.33933;0.0749356;0.0805084;5.2934;0.188915;98.3007;143.301;-0.0235186;-0.0190657;0.00462115;-0.0134723;0.101372;0.0137848;0.103608;0;0.122046;7.76484;7.53286
804000;805;30.3718;4.60744;0.17883;-2.65154;30.2541;-0.32665;-0.495095;4.58647;-0.897392;-0.396263;1.33554;-1.11714;1.78569;-7.97537;-0.017264;0.00706726;0.126984;0.12733;-0.0176095;0.0724695;0.135954;7.35541;0.0913239;0.096626;7.23074;0.138298;86.0603;131.06;0.00522724;-0.0172819;0.00460229;0.0092167;0.126997;-0.00244018;-0.0340428;0;0.0547537;-0.897565;-3.21933;-2.04778;3.91958;-8.33103;-0.0182749;-0.00457235;0.101247;0.101422;-0.0184495;0.0599358;0.180497;5.54026;0.0745297;0.0799145;5.49727;0.181908;99.1556;144.156;-0.0185699;-0.0183742;0.00677926;-0.0146915;0.101236;0.0165178;0.100756;0;0.119367;7.79414;7.53982
805000;806;30.3963;4.63194;0.179781;-2.65429;30.2784;-0.334298;-0.497845;4.61073;-0.905041;-0.394912;1.3476;-1.12294;1.79805;-7.98117;-0.0180006;0.00696613;0.128377;0.128708;-0.0183314;0.0735195;0.140217;7.1318;0.0925228;0.098026;7.02115;0.142427;86.1622;131.162;0.00584247;-0.0180179;0.0045317;0.00908473;0.128389;-0.00491561;-0.0398931;0;0.0568166;-0.899013;-3.23566;-2.05913;3.93926;-8.34238;-0.018605;-0.00496732;0.102141;0.102345;-0.018809;0.0605769;0.182151;5.48995;0.0752868;0.0807692;5.44126;0.183781;99.0346;144.035;-0.0103932;-0.0187028;0.00598351;-0.014718;0.102136;0.00235133;0.0904208;0;0.118371;7.769;7.55386
806000;807;;;;;;;;;;;;;;;;;;;;;;;;;;;;;;;;;;;;;;-1.0857;-5.55363;-1.81969;5.94414;-8.10077;-0.0181646;-0.00450319;0.0962336;0.0964106;-0.0183416;0.0573761;0.188756;5.29786;0.0711797;0.0765015;5.25638;0.190245;96.9388;141.939;-0.00407679;-0.0182141;0.00256627;-0.0108347;0.0962399;-0.00830444;0.0911514;0;0.10957;-0.00896852;7.60259
807000;808;35.3346;9.57019;0.37145;-3.16819;35.1907;-0.331925;-1.01175;9.52302;-0.901282;-0.0363483;3.88475;-0.876019;3.98246;-7.72259;-0.0208052;0.00767854;0.0755091;0.0761174;-0.0214135;0.0487654;0.275532;3.62934;0.0591884;0.0650206;3.55465;0.281322;89.4917;134.492;0.0129454;-0.0207828;0.0118364;0.00389292;0.0754714;0.0111656;-0.0708072;0;0.0821101;-1.05119;-5.6271;-1.75801;5.98831;-8.03904;-0.0179065;-0.00518444;0.0959162;0.0961518;-0.0181422;0.057147;0.186689;5.35649;0.0709263;0.076196;5.2999;0.188683;97.3102;142.31;-0.005768;-0.0179606;0.00190773;-0.0115398;0.0959268;-0.0097921;0.0848016;0;0.111907;-0.0101228;7.58122
