Time;Image index (Image index);Distance L(t) (Extensometer 1);Change in distance (Extensometer 1);Strain - RC (Extensometer 1);Distance x L(t) (Extensometer 1);Distance y L(t) (Extensometer 1);Distance z L(t) (Extensometer 1);Change in distance x (Extensometer 1);Change in distance y (Extensometer 1);Change in distance z (Extensometer 1);X-displacement (Strain Gauge 1);Y-displacement (Strain Gauge 1);Z-displacement (Strain Gauge 1);Displacement (Strain Gauge 1);Height (Strain Gauge 1);Exx - RC (Strain Gauge 1);Exy - RC (Strain Gauge 1);Eyy - RC (Strain Gauge 1);Max. principal strain - RC (Strain Gauge 1);Min. principal strain - RC (Strain Gauge 1);Max. shear strain - RC (Strain Gauge 1);Poisson ratio -Exx/Eyy (Strain Gauge 1);Poisson ratio -Eyy/Exx (Strain Gauge 1);Von Mises - RC (Strain Gauge 1);Tresca - RC (Strain Gauge 1);Poisson ratio -strain max/min (Strain Gauge 1);Poisson ratio -strain min/max (Strain Gauge 1);Max. strain angle (Strain Gauge 1);Max. shear angle (Strain Gauge 1);Vorticity-z (Strain Gauge 1);du/dx (Strain Gauge 1);du/dy (Strain Gauge 1);dv/dx (Strain Gauge 1);dv/dy (Strain Gauge 1);dw/dx (Strain Gauge 1);dw/dy (Strain Gauge 1);Ezz plane stress state (Strain Gauge 1);Stereo reconstruction error (Strain Gauge 1);X-displacement (Strain Gauge 2);Y-displacement (Strain Gauge 2);Z-displacement (Strain Gauge 2);Displacement (Strain Gauge 2);Height (Strain Gauge 2);Exx - RC (Strain Gauge 2);Exy - RC (Strain Gauge 2);Eyy - RC (Strain Gauge 2);Max. principal strain - RC (Strain Gauge 2);Min. principal strain - RC (Strain Gauge 2);Max. shear strain - RC (Strain Gauge 2);Poisson ratio -Exx/Eyy (Strain Gauge 2);Poisson ratio -Eyy/Exx (Strain Gauge 2);Von Mises - RC (Strain Gauge 2);Tresca - RC (Strain Gauge 2);Poisson ratio -strain max/min (Strain Gauge 2);Poisson ratio -strain min/max (Strain Gauge 2);Max. strain angle (Strain Gauge 2);Max. shear angle (Strain Gauge 2);Vorticity-z (Strain Gauge 2);du/dx (Strain Gauge 2);du/dy (Strain Gauge 2);dv/dx (Strain Gauge 2);dv/dy (Strain Gauge 2);dw/dx (Strain Gauge 2);dw/dy (Strain Gauge 2);Ezz plane stress state (Strain Gauge 2);Stereo reconstruction error (Strain Gauge 2);Load ADC 1 channel 1;Position ADC 1 channel 2
ms;;mm;mm;S;mm;mm;mm;mm;mm;mm;mm;mm;mm;mm;mm;S;S;S;S;S;S;;;S;S;;;°;°;S;S;S;S;S;S;S;S;pixel;mm;mm;mm;mm;mm;S;S;S;S;S;S;;;S;S;;;°;°;S;S;S;S;S;S;S;S;pixel;kN;mm
0.02515;1;25.7581;0;0;-2.0924;25.6594;0.83637;0;0;0;0;0;0;0;-7.20698;2.22045e-16;-3.46945e-17;-1.11022e-16;2.2562e-16;-1.14598e-16;1.70109e-16;;;1.99881e-16;2.26812e-16;;;0;45;0;2.22045e-16;-5.55112e-17;-1.38778e-17;-1.11022e-16;0;0;0;0;0;0;0;0;-6.40996;0;5.20417e-17;-1.11022e-16;2.05798e-17;-1.31602e-16;7.60909e-17;;;9.53379e-17;1.01455e-16;;;0;45;0;0;2.08167e-17;8.32667e-17;-1.11022e-16;0;0;0;0;-0.00971334;2.18912
1000.03;2;25.7558;-0.0023139;-8.98316e-05;-2.08845;25.6577;0.82834;0.00395156;-0.00174037;-0.00802922;-0.00456244;-0.00593114;0.00562815;0.00936325;-7.20135;-1.47187e-05;0.000334004;-0.000403312;0.000177391;-0.000595422;0.000386407;-0.0364946;-27.4013;0.000467437;0.000515209;0.297925;3.35655;120.59;165.59;0.00104507;-1.47204e-05;0.000329017;0.000338994;-0.00040331;-0.00397868;6.46142e-05;0;0.00958663;-0.00446241;-0.00559146;0.00318547;0.00783101;-6.40677;0.000195847;-5.41577e-05;0.000176841;0.000241329;0.000131359;5.4985e-05;-1.10747;-0.902956;0.000139514;7.33134e-05;-1.83717;-0.544315;177.562;42.5617;-0.000278259;0.00019556;0.000650759;-0.000759088;0.000176631;-0.00348332;0.000223932;0;0.0144135;-0.00922459;2.19584
2000.03;3;25.7562;-0.0019226;-7.46406e-05;-2.08936;25.658;0.827966;0.00304056;-0.00140967;-0.00840363;-0.00545025;-0.00742532;0.0060531;0.0110218;-7.20093;0.000202572;0.000104621;0.000662251;0.000684942;0.000179881;0.000252531;-0.305884;-3.26922;0.000410038;0.000336707;-3.80776;-0.262622;77.6553;122.655;0.000556407;0.000202572;0.000102998;0.000106243;0.000662251;-0.00288538;-0.00102535;0;0.0135239;-0.00556146;-0.00644108;-7.49923e-05;0.00851017;-6.41003;9.47113e-05;6.19334e-06;0.000157575;0.000158179;9.41069e-05;3.20362e-05;-0.601055;-1.66374;9.1872e-05;4.27149e-05;-1.68085;-0.594938;121.051;166.051;0.000186535;9.46259e-05;0.000425668;-0.000413255;0.000157484;-0.00192714;0.0012473;0;0.0168282;-0.00904967;2.20296
3000.03;4;25.7593;0.00112512;4.36804e-05;-2.08764;25.6608;0.839168;0.00476635;0.00142631;0.00279814;-0.00539535;-0.00941916;0.0098847;0.0146812;-7.1971;3.89891e-05;-7.03663e-05;0.000326951;0.000343226;2.27143e-05;0.000160256;-0.119251;-8.3857;0.000221634;0.000213675;-15.1106;-0.0661788;82.3388;127.339;0.00071844;3.89875e-05;-0.000231559;9.07803e-05;0.000326927;-0.00226997;-0.00124396;0;0.0115378;-0.00502392;-0.010587;0.0110641;0.0161164;-6.39889;0.00010675;5.34114e-06;2.89846e-05;0.000107115;2.86195e-05;3.92476e-05;-3.68297;-0.27152;6.40384e-05;5.23302e-05;-3.74272;-0.267185;44.8233;89.8233;0.000400242;0.00010664;0.000478564;-0.000467918;2.88701e-05;-0.00174428;0.000525346;0;0.0150119;-0.00909811;2.21032
4000.03;5;25.7559;-0.00223554;-8.67895e-05;-2.08782;25.6578;0.828245;0.00458138;-0.00160739;-0.00812408;-0.00686913;-0.0100566;0.00789384;0.0145132;-7.19909;0.000252966;0.00021618;0.000523493;0.000643239;0.00013322;0.000255009;-0.483227;-2.06942;0.000392038;0.000340013;-4.8284;-0.207108;55.1324;100.132;0.000546677;0.000252945;0.000135248;0.00029709;0.000523507;-0.00284857;-0.002065;0;0.0127525;-0.00660019;-0.00895815;0.000263902;0.0111302;-6.40969;0.000154032;-0.000113384;5.8038e-05;0.00022916;-1.70892e-05;0.000123124;-2.65399;-0.376791;0.000158776;0.000164166;13.4096;0.0745736;4.17135;49.1714;0.000520473;0.000153903;0.000294004;-0.000520811;5.80012e-05;-0.00207744;0.0015913;0;0.016065;-0.00914526;2.2181
5000.03;6;25.7556;-0.00258526;-0.000100367;-2.08713;25.6575;0.829269;0.00526842;-0.00193561;-0.00710086;-0.00686833;-0.0105603;0.00639267;0.0141266;-7.20059;0.000183716;0.000387552;0.000542533;0.000790189;-6.39394e-05;0.000427064;-0.338626;-2.95311;0.000549347;0.000569419;12.3584;0.0809166;46.0742;91.0742;0.00092042;0.000183646;0.000235623;0.000539425;0.000542581;-0.00350504;3.93762e-05;0;0.0167223;-0.00644893;-0.00952426;-0.00183053;0.0116469;-6.41179;0.000169576;-1.57876e-05;7.64294e-05;0.000172179;7.38263e-05;4.91766e-05;-2.21873;-0.450708;9.97435e-05;6.55688e-05;-2.33222;-0.428775;27.5122;72.5122;0.0003145;0.00016948;0.000406559;-0.000438174;7.63469e-05;-0.00101103;0.00180044;0;0.0178463;-0.00937099;2.22542
6000.03;7;25.7579;-0.000273634;-1.06232e-05;-2.08819;25.6596;0.832359;0.00421271;0.000198918;-0.00401096;-0.00683357;-0.0101008;0.00224746;0.0124006;-7.20473;0.000220832;-4.58768e-05;0.000809232;0.000812788;0.000217277;0.000297755;-0.272891;-3.66446;0.000485905;0.000397007;-3.74079;-0.267323;92.0665;137.066;0.000198929;0.000220834;-8.85282e-05;-3.25046e-06;0.000809229;-0.00279655;-0.00197945;0;0.021356;-0.00626848;-0.00956248;-0.00591942;0.0128753;-6.41588;0.000145021;-3.07514e-05;8.96308e-05;0.000158711;7.59416e-05;4.13845e-05;-1.61799;-0.618052;9.16599e-05;5.51794e-05;-2.0899;-0.478491;15.449;60.449;0.000348042;0.000144824;0.00056774;-0.000629276;8.94701e-05;-0.00145128;0.00164439;0;0.0196957;-0.00913265;2.23291
7000.03;8;25.7561;-0.00203047;-7.88282e-05;-2.08756;25.658;0.828951;0.0048466;-0.00140273;-0.00741896;-0.00696408;-0.013526;0.00720935;0.0168353;-7.19977;3.94753e-06;7.91299e-05;-5.58585e-05;5.8636e-05;-0.000110547;8.45915e-05;;;9.91987e-05;0.000112789;0.530417;1.88531;122.146;167.146;0.000338106;3.94771e-06;8.14031e-05;7.68565e-05;-5.58587e-05;-0.00282745;-0.00105549;0;0.0165139;-0.00597221;-0.0123151;-0.00169137;0.0137909;-6.41165;0.000286269;-6.39741e-05;6.05522e-05;0.00030314;4.36813e-05;0.000129729;-4.72763;-0.211522;0.000189221;0.000172972;-6.93981;-0.144096;18.8687;63.8687;0.000810378;0.000286156;0.000350489;-0.000478531;6.04929e-05;-0.00144205;0.00186072;0;0.0186075;-0.00897199;2.23778
8000.03;9;25.7565;-0.00164995;-6.40556e-05;-2.08657;25.6585;0.827803;0.00583023;-0.000903712;-0.00856629;-0.00553581;-0.0134099;0.00775668;0.0164511;-7.19922;3.42908e-05;0.000384307;0.000459987;0.000686452;-0.000192175;0.000439313;-0.0745475;-13.4143;0.000533361;0.000585751;3.57202;0.279953;58.1355;103.135;0.000678858;3.42863e-05;0.000372609;0.000396;0.000459991;-0.00271554;-0.000700441;0;0.0126603;-0.00442295;-0.0121428;-0.00247743;0.0131586;-6.41243;0.000139072;-1.83458e-06;7.92704e-05;0.000139128;7.92142e-05;2.99569e-05;-1.7544;-0.569997;8.05828e-05;3.99425e-05;-1.75635;-0.569362;37.8177;82.8177;0.000328482;0.000138908;0.000568462;-0.000572165;7.91089e-05;0.000260894;0.00175278;0;0.0165635;-0.00938927;2.24653
9000.03;10;25.7558;-0.00232175;-9.01366e-05;-2.08639;25.658;0.822771;0.00601414;-0.00140126;-0.0135985;-0.0063751;-0.0146275;0.00959017;0.0186166;-7.19739;0.000121447;0.000300832;3.02438e-05;0.000380114;-0.000228424;0.000304269;-4.01559;-0.249029;0.000354959;0.000405692;1.66408;0.600934;8.01674;53.0167;0.000120622;0.000121384;0.000135541;0.000466139;3.02799e-05;-0.00180091;-0.000697765;0;0.011981;-0.00513537;-0.013245;-0.00177028;0.0143156;-6.41173;0.000268846;-1.04559e-05;-1.91632e-05;0.000269225;-1.95423e-05;0.000144384;14.0293;0.0712795;0.000186339;0.000192512;13.7765;0.0725872;33.9451;78.9451;0.000931842;0.000268768;0.000374973;-0.000395995;-1.92334e-05;-0.00182779;0.00150812;0;0.0160618;-0.00918182;2.24891
10000;11;25.7558;-0.00235976;-9.16123e-05;-2.08642;25.6579;0.824404;0.00598655;-0.00149407;-0.0119657;-0.00674728;-0.0148389;0.00863439;0.0184464;-7.19835;0.000234544;0.000172219;0.000213433;0.000396531;5.14458e-05;0.000172543;-1.09891;-0.909992;0.000248983;0.000230057;-7.70775;-0.12974;25.4092;70.4092;0.000432765;0.000234503;1.13758e-05;0.000333067;0.000213448;-0.00336672;-0.00107726;0;0.0190638;-0.00535079;-0.0137274;-0.00253885;0.0149505;-6.41249;0.000242421;8.94728e-06;0.000104358;0.000242999;0.00010378;6.9609e-05;-2.32298;-0.430482;0.000140792;9.28121e-05;-2.34147;-0.427083;33.9332;78.9332;0.000881972;0.000242377;0.000315294;-0.000297442;0.000104308;-0.00084555;0.00228722;0;0.0186388;-0.00934888;2.25531
11000;12;25.7553;-0.00282221;-0.000109566;-2.0866;25.6574;0.823585;0.00579707;-0.0019474;-0.0127845;-0.00630807;-0.0149758;0.00864237;0.0184053;-7.19834;0.000161333;6.39641e-05;0.000214013;0.000256848;0.000118498;6.91751e-05;-0.753849;-1.32653;0.000148439;9.22335e-05;-2.16753;-0.461354;34.2596;79.2596;0.000389989;0.000161306;-0.000116454;0.000244372;0.000214008;-0.00247059;-0.00185101;0;0.0138417;-0.00486321;-0.0138941;-0.00270922;0.0149678;-6.41266;0.000181017;1.07891e-06;7.46679e-05;0.000181028;7.46569e-05;5.31853e-05;-2.42429;-0.412492;0.00010505;7.09138e-05;-2.42479;-0.412406;37.1473;82.1473;0.000640938;0.000180928;0.000423033;-0.00042092;7.45784e-05;-0.00114675;0.00119023;0;0.0171478;-0.00893763;2.26239
12000;13;25.7544;-0.00369925;-0.000143615;-2.0865;25.6566;0.822378;0.00590301;-0.00278043;-0.013992;-0.00664082;-0.0154921;0.0107148;0.0199728;-7.19627;6.41641e-05;0.000147876;7.00576e-05;0.000215016;-8.07945e-05;0.000147905;-0.915877;-1.09185;0.000176549;0.000197207;2.66127;0.37576;9.51614;54.5161;0.000900855;6.41118e-05;-6.01002e-05;0.000355851;7.00667e-05;-0.00287739;-0.000301475;0;0.0137499;-0.00500865;-0.0142263;-0.00135762;0.0151432;-6.41131;0.000170772;3.51723e-05;-1.61451e-05;0.000177171;-2.25443e-05;9.98578e-05;10.5774;0.0945416;0.000126301;0.000133144;7.85879;0.127246;49.3425;94.3425;0.00111663;0.000170718;0.000401147;-0.000330871;-1.62249e-05;-0.00171142;0.00234397;0;0.0175757;-0.00913795;2.26926
13000;14;25.7555;-0.00261514;-0.000101527;-2.08613;25.6576;0.825497;0.00627026;-0.0017625;-0.0108723;-0.00665582;-0.015408;0.00806475;0.0186211;-7.19892;0.000187842;6.30194e-05;0.000321775;0.000346765;0.000162853;9.19561e-05;-0.583769;-1.71301;0.000200328;0.000122608;-2.12932;-0.469634;59.9081;104.908;9.02109e-05;0.000187834;-1.45355e-05;0.000140564;0.000321777;-0.00193131;-0.00154199;0;0.0136111;-0.00481792;-0.0144762;-0.00304923;0.0155586;-6.413;0.000301726;-2.97148e-05;9.89787e-05;0.000305991;9.47134e-05;0.000105639;-3.0484;-0.328041;0.000180887;0.000140852;-3.23071;-0.30953;22.9871;67.9871;0.0012951;0.000301642;0.000352259;-0.000411766;9.89171e-05;-0.00190926;0.00156351;0;0.0166831;-0.00967514;2.27687
14000;15;25.757;-0.00118715;-4.60882e-05;-2.08601;25.6591;0.825986;0.00639008;-0.000335047;-0.0103838;-0.00689672;-0.0154276;0.00759344;0.0185266;-7.19939;7.28545e-05;0.000364312;4.5441e-05;0.000423717;-0.000305422;0.000364569;-1.60328;-0.623723;0.000422811;0.000486093;1.38732;0.720815;7.92034;52.9203;0.000339427;7.27715e-05;0.000182164;0.000546464;4.54908e-05;-0.00329916;-0.00176808;0;0.0148995;-0.00520095;-0.0144089;-0.00392971;0.0158148;-6.41389;0.000204538;2.94082e-05;7.90147e-06;0.000208842;3.59748e-06;0.000102622;;;0.000138044;0.000136829;;;43.0427;88.0427;0.000885384;0.000204506;0.000312601;-0.00025384;7.85304e-06;-0.00168881;0.00279532;0;0.0183504;-0.00922057;2.28394
15000;16;25.7552;-0.00295982;-0.000114908;-2.08597;25.6574;0.82242;0.00643224;-0.00199652;-0.0139492;-0.00695936;-0.0150542;0.00692051;0.017971;-7.20006;6.24794e-05;0.000114202;0.000318747;0.000362254;1.89728e-05;0.000171641;-0.196015;-5.10164;0.000235433;0.000228854;-19.0933;-0.0523744;55.4128;100.413;0.000148237;6.24632e-05;1.50906e-05;0.000213288;0.000318754;-0.00248075;-0.000251849;0;0.0173723;-0.00536473;-0.0141212;-0.00377646;0.0155708;-6.41373;0.000166103;-1.52915e-06;4.67419e-05;0.000166123;4.67223e-05;5.97004e-05;-3.55363;-0.281402;9.89235e-05;7.96005e-05;-3.55554;-0.281251;35.947;80.947;0.00101229;0.000166039;0.000354817;-0.000357917;4.66789e-05;-0.00157653;0.00133437;0;0.0200213;-0.00892904;2.29169
16000;17;25.7566;-0.00156814;-6.08794e-05;-2.08676;25.6586;0.82492;0.00564192;-0.000744027;-0.01145;-0.00783158;-0.013685;0.00599803;0.0168698;-7.20098;7.97755e-05;0.000254809;0.000115237;0.000352932;-0.000157919;0.000255425;-0.692274;-1.44451;0.000302018;0.000340567;2.23489;0.44745;17.6255;62.6255;0.000520438;7.97217e-05;9.42142e-05;0.000415399;0.000115265;-0.00237902;-0.00211412;0;0.0203116;-0.00638522;-0.0125904;-0.00570961;0.0152279;-6.41567;0.000133605;-2.2929e-05;-1.77014e-05;0.000137003;-2.10997e-05;7.90515e-05;7.54771;0.13249;9.91202e-05;0.000105402;6.49313;0.154009;31.4295;76.4295;0.00116473;0.000133546;0.000296869;-0.000342775;-1.77452e-05;-0.00215711;0.00161656;0;0.0206594;-0.0092436;2.29929
17000;18;25.7547;-0.00345828;-0.00013426;-2.08629;25.6568;0.824937;0.00611211;-0.00260369;-0.0114331;-0.00593411;-0.0186332;0.0198435;0.0278599;-7.18714;0.000181663;0.000505406;0.0005619;0.000911763;-0.0001682;0.000539982;-0.323301;-3.09309;0.000670974;0.000719976;5.42071;0.184478;43.7396;88.7396;0.00104378;0.00018157;0.00034646;0.000664291;0.000561968;-0.00539666;-0.00198252;0;0.0115221;-0.00383823;-0.0166468;0.00973604;0.0196631;-6.40022;0.000286634;1.92467e-05;2.87537e-05;0.000288063;2.73252e-05;0.000130369;-9.96859;-0.100315;0.000183612;0.000173825;-10.542;-0.0948585;40.7442;85.7442;0.000827551;0.000286511;0.000535445;-0.000497085;2.86106e-05;-0.00035944;0.00261644;0;0.0182297;-0.00930519;2.30655
18000;19;25.7555;-0.0026828;-0.000104153;-2.08618;25.6575;0.827843;0.00622348;-0.00190979;-0.00852685;-0.00696645;-0.01548;0.0140483;0.0220344;-7.19293;9.0076e-05;5.00901e-05;0.000184865;0.000206429;6.8512e-05;6.89582e-05;-0.487254;-2.05232;0.000121406;9.19443e-05;-3.01303;-0.331892;39.8106;84.8106;0.000122825;9.00489e-05;-0.000137762;0.000237925;0.000184856;-0.00209365;-0.00163993;0;0.0114125;-0.00475085;-0.0146018;0.00579334;0.0164118;-6.40416;0.000304552;-1.34594e-05;-0.000101004;0.000304998;-0.00010145;0.000203224;3.01526;0.331647;0.000244275;0.000270965;3.00639;0.332625;37.0912;82.0912;0.000642586;0.000304431;0.000465012;-0.000492125;-0.000101112;-0.000386159;0.00156719;0;0.0162759;-0.00923793;2.31354
19000;20;25.7578;-0.000363577;-1.4115e-05;-2.08617;25.6597;0.830829;0.00623046;0.00032234;-0.00554091;-0.00691185;-0.00935611;0.0073687;0.0137698;-7.19961;-9.03877e-05;0.000435507;0.000217364;0.000525381;-0.000398404;0.000461892;0.415835;2.4048;0.000535024;0.000615856;1.31871;0.758315;21.7682;66.7682;0.000643196;-9.04597e-05;0.00029337;0.000577601;0.000217416;-0.00273623;-0.00109422;0;0.041003;-0.00441795;-0.00939163;0.000283937;0.0103828;-6.40967;0.000201886;2.23306e-05;0.000196925;0.000221873;0.000176937;2.24679e-05;-1.02519;-0.975428;0.000135445;2.99572e-05;-1.25396;-0.797471;76.3953;121.395;0.000666866;0.00020176;0.000545769;-0.000501111;0.000196776;-0.00234534;0.00190434;0;0.0290917;-0.00950278;2.31972
20000;21;25.7581;-1.45201e-06;-5.63711e-08;-2.08447;25.6601;0.833623;0.00793595;0.000733835;-0.00274698;-0.00923751;-0.00876374;0.0015284;0.0128246;-7.20545;0.000173737;0.000111245;0.000406716;0.000451301;0.000129151;0.000161075;-0.427171;-2.34099;0.000268384;0.000214767;-3.49437;-0.286174;48.7132;93.7132;0.000154474;0.000173683;-0.000122994;0.00034543;0.000406714;-0.00175842;-0.00127869;0;0.0272039;-0.00654422;-0.00937563;-0.00199614;0.0116066;-6.41195;0.000135543;-8.30952e-05;4.77889e-05;0.000185634;-2.30221e-06;9.39681e-05;-2.83628;-0.352574;0.00012453;0.000125291;;;7.00171;52.0017;0.000525996;0.000135442;0.000289501;-0.000455724;4.77505e-05;-0.00185186;0.00101665;0;0.0191123;-0.00920924;2.32358
21000;22;25.7552;-0.00296102;-0.000114955;-2.08454;25.6573;0.829301;0.00786091;-0.0021031;-0.00706816;-0.00860624;-0.0113467;0.0110512;0.0180262;-7.19593;0.000257646;0.000411644;5.1153e-05;0.000578794;-0.000269994;0.000424394;-5.03677;-0.19854;0.000500742;0.000565859;2.14372;0.466478;11.4464;56.4464;0.000555816;0.000257541;0.000206509;0.000616821;5.12164e-05;-0.00319806;-0.00160319;0;0.0145608;-0.00603067;-0.0107038;0.00633525;0.013823;-6.40362;6.78352e-05;-6.03052e-05;0.000128976;0.000166016;3.07943e-05;6.7611e-05;-0.525954;-1.90131;0.000101975;9.0148e-05;-5.39113;-0.18549;158.168;23.1677;0.000361944;6.77622e-05;0.000266196;-0.000386786;0.000128942;8.11639e-05;0.00197484;0;0.0149375;-0.0091714;2.32829
22000;23;25.7555;-0.00260406;-0.000101097;-2.08635;25.6574;0.831509;0.0060511;-0.00196333;-0.00486066;-0.00739424;-0.0114331;0.0173603;0.0220629;-7.18962;0.000139515;0.000198018;0.000298028;0.000432062;5.48119e-06;0.000213291;-0.468128;-2.13617;0.000286232;0.000284387;;;48.362;93.362;0.00120442;0.000139502;0.000139014;0.000257014;0.000298038;-0.00432719;-0.00170212;0;0.0151727;-0.00495639;-0.0105307;0.0141621;0.018331;-6.39579;0.000159718;9.28503e-07;0.000130481;0.000159748;0.000130451;1.46483e-05;-1.22408;-0.816942;9.82006e-05;1.95311e-05;-1.22458;-0.816607;37.6128;82.6128;0.000268879;0.000159623;0.000437238;-0.000435393;0.000130385;-0.00190215;0.00122719;0;0.0175161;-0.0095684;2.33581
23000;24;25.7558;-0.00232976;-9.04475e-05;-2.08595;25.6577;0.832356;0.00644981;-0.00168301;-0.00401405;-0.00997838;-0.00807121;0.0176269;0.0218041;-7.18935;0.000153028;0.000159163;0.000765355;0.000804256;0.000114128;0.000345064;-0.199944;-5.00141;0.000502467;0.000460085;-7.04698;-0.141905;66.4154;111.415;0.000776843;0.000152988;-5.38891e-06;0.000323615;0.000765368;-0.00215002;-0.00132767;0;0.033725;-0.00761382;-0.00660211;0.0163611;0.0192157;-6.39359;0.000122222;-4.82418e-05;0.000293666;0.000306309;0.000109579;9.83646e-05;-0.416192;-2.40273;0.000179217;0.000131153;-2.79531;-0.357742;128.042;173.042;0.000639214;0.000122187;0.00017263;-0.000269076;0.000293653;-0.00275834;0.00103402;0;0.025947;-0.009008;2.34296
24000;25;25.7541;-0.00401726;-0.000155961;-2.08673;25.6561;0.827493;0.00567611;-0.00328259;-0.00887646;-0.00888412;-0.00547674;0.0125625;0.0163322;-7.19442;2.53594e-05;6.88578e-05;0.000426642;0.000438129;1.38726e-05;0.000212128;-0.0594395;-16.8238;0.000287573;0.000282837;-31.5823;-0.0316633;66.9961;111.996;8.54626e-05;2.53447e-05;-4.66773e-05;0.000184346;0.000426643;-0.000467023;-0.00167592;0;0.0308999;-0.00673943;-0.00464351;0.0125659;0.0149961;-6.39739;0.000242861;-6.50579e-05;0.000283942;0.000331625;0.000195178;6.82234e-05;-0.855322;-1.16915;0.000192462;9.09645e-05;-1.69909;-0.588551;144.259;9.25919;0.000555895;0.000242831;0.000126666;-0.000256774;0.000283936;-0.00290795;0.00220519;0;0.0284202;-0.00897473;2.35073
25000;26;25.7558;-0.00230614;-8.95305e-05;-2.08747;25.6576;0.832232;0.00493622;-0.00177838;-0.00413774;-0.00857133;-0.00285538;0.0128525;0.0157101;-7.19413;0.000205181;-0.000241799;8.57875e-05;0.000394543;-0.000103575;0.000249059;-2.39173;-0.418107;0.000303503;0.000332079;3.80925;0.262519;112.469;157.469;0.000614567;0.00020521;-0.000483323;-2.45921e-07;8.56999e-05;-0.000388122;-0.00140287;0;0.0277877;-0.00660162;-0.00163465;0.01252;0.014248;-6.39744;9.7445e-05;-0.000164129;0.000218634;0.000332997;-1.6918e-05;0.000174958;-0.445698;-2.24367;0.000227847;0.000233277;19.683;0.0508053;158.757;23.7573;0.000303114;9.73066e-05;0.00022298;-0.000551192;0.000218623;-0.00170512;0.00116276;0;0.0325287;-0.00926992;2.35802
26000;27;25.7571;-0.00103017;-3.99941e-05;-2.08656;25.6588;0.836364;0.00583991;-0.000558401;-5.27998e-06;-0.00898436;-0.000528766;0.0109471;0.0141717;-7.19603;0.000238716;8.57092e-05;0.000508639;0.000533555;0.000213801;0.000159877;-0.469324;-2.13073;0.000310066;0.000213169;-2.49557;-0.40071;63.7347;108.735;-9.43131e-05;0.000238695;-5.12024e-05;0.000222584;0.000508642;0.000148477;-0.00145936;0;0.0231417;-0.00682098;0.000717602;0.0115848;0.0134628;-6.39837;3.46068e-05;-0.000132748;0.000175979;0.000255688;-4.51017e-05;0.000150395;-0.196653;-5.08511;0.000187311;0.000200526;5.66913;0.176394;140.724;5.72354;0.000683258;3.45915e-05;-4.59894e-05;-0.000219494;0.000175987;-0.00237402;-0.000188734;0;0.0205313;-0.00905844;2.36591
27000;28;25.7576;-0.000506192;-1.96517e-05;-2.0867;25.6593;0.83828;0.00569981;-0.000106304;0.00191004;-0.00914814;0.00105696;0.00871692;0.0126803;-7.19826;0.000118336;4.59909e-05;0.000191323;0.00021354;9.61185e-05;5.87109e-05;-0.618511;-1.61679;0.000123492;7.82811e-05;-2.22163;-0.450119;37.7673;82.7673;0.000334949;0.000118305;-0.000158777;0.000250744;0.000191312;1.0932e-05;-0.000570126;0;0.0180813;-0.00740839;0.00186819;0.012996;0.0150755;-6.39696;8.34919e-05;-0.000151156;0.000103226;0.000244837;-5.81185e-05;0.000151478;-0.808823;-1.23636;0.000185655;0.00020197;4.21272;0.237376;166.912;31.9124;0.000540452;8.34322e-05;7.49846e-05;-0.000377292;0.000103235;-0.00282792;0.000562615;0;0.0174915;-0.00873218;2.37457
28000;29;25.7569;-0.00124042;-4.81562e-05;-2.08624;25.6585;0.83968;0.00615696;-0.000851954;0.0033103;-0.00887583;0.00571528;0.00571571;0.0120048;-7.20126;0.000329579;0.000232807;0.000577263;0.000717118;0.000189724;0.000263697;-0.570934;-1.75152;0.000429055;0.000351596;-3.77979;-0.264565;51.1943;96.1943;0.000433665;0.000329542;0.000105945;0.000359638;0.000577285;-0.00157371;-0.0013124;0;0.0145448;-0.00693268;0.00659913;0.0135583;0.0165963;-6.3964;6.75557e-05;-0.000118888;1.5268e-06;0.000157928;-8.88452e-05;0.000123386;;;0.000144323;0.000164515;1.77756;0.562569;179.407;44.4066;0.00078692;6.75354e-05;-3.78144e-06;-0.000234001;1.53386e-06;-0.001391;0.000562323;0;0.0165614;-0.00914398;2.38171
29000;30;25.7566;-0.00151837;-5.89473e-05;-2.08517;25.6584;0.839057;0.00723148;-0.00102324;0.00268704;-0.00976192;0.00856728;0.0072533;0.0148763;-7.19973;0.000273166;6.75366e-05;0.000331335;0.000375783;0.000228718;7.35329e-05;-0.824443;-1.21294;0.000218659;9.80438e-05;-1.643;-0.608642;45.1914;90.1914;-9.81345e-05;0.00027315;-6.02842e-05;0.00019535;0.000331335;0.000668812;-0.000619584;0;0.0124522;-0.007386;0.00979547;0.0150173;0.0193914;-6.39494;1.97111e-05;-0.000104743;-5.17172e-05;9.46614e-05;-0.000126667;0.000110664;0.381132;2.62376;0.000128229;0.000147553;0.747322;1.33811;13.8581;58.8581;0.000925133;1.96951e-05;-2.45264e-06;-0.000207041;-5.17117e-05;-0.00147811;0.00089278;0;0.0170647;-0.00911584;2.38804
30000;31;25.7554;-0.00272049;-0.000105617;-2.08484;25.6573;0.836798;0.00755867;-0.00212961;0.000428143;-0.010945;0.0119396;0.00903793;0.0185481;-7.19794;0.000341308;0.000174842;0.000400476;0.00054822;0.000193565;0.000177328;-0.852257;-1.17335;0.000321037;0.000236437;-2.83223;-0.353079;39.8475;84.8475;-6.83665e-05;0.000341276;4.04614e-05;0.000309215;0.00040049;8.92374e-05;-0.0009469;0;0.0190185;-0.00848894;0.0128723;0.0188189;0.0243292;-6.39114;9.22666e-06;-9.83296e-05;3.33706e-06;0.000104656;-9.20918e-05;9.83737e-05;;;0.000113669;0.000131165;1.13643;0.879952;0.160732;45.1607;0.000888835;9.16746e-06;0.000161212;-0.000357872;3.3289e-06;-0.000518196;0.000729542;0;0.0212564;-0.00885794;2.3952
31000;32;25.7568;-0.00132791;-5.15528e-05;-2.08517;25.6584;0.842679;0.00723127;-0.000950777;0.0063095;-0.0110492;0.0132455;0.0111122;0.0205185;-7.19587;0.000258383;3.97482e-05;0.000367636;0.000380566;0.000245453;6.75569e-05;-0.702824;-1.42283;0.000222777;9.00759e-05;-1.55047;-0.644967;59.8162;104.816;-0.000603229;0.000258368;-0.000101812;0.000181293;0.000367631;0.00072416;-0.00294312;0;0.0238476;-0.00867541;0.014542;0.0216055;0.0274505;-6.38835;-5.41584e-05;-6.93156e-05;1.73971e-05;5.96239e-05;-9.63852e-05;7.80045e-05;3.11307;0.321227;9.09016e-05;0.000104006;0.6186;1.61655;168.693;33.6932;0.000932276;-5.4199e-05;0.000154557;-0.000293172;1.73876e-05;0.000441742;0.0011253;0;0.0274013;-0.00888517;2.39704
32000;33;25.7588;0.000696933;2.70568e-05;-2.08476;25.6604;0.845661;0.00764398;0.00101727;0.00929113;-0.0112956;0.0155303;0.00872312;0.0210921;-7.19826;0.000421729;9.63279e-05;0.000441344;0.000528362;0.00033471;9.68259e-05;-0.955557;-1.04651;0.000308653;0.000129101;-1.57857;-0.633487;34.0717;79.0717;-0.000178991;0.000421682;-0.000130059;0.000322711;0.00044134;0.000341691;-0.002132;0;0.0211917;-0.00901706;0.0163139;0.0216272;0.0285515;-6.38833;1.1721e-05;-0.0001027;6.68546e-05;0.000145623;-6.70475e-05;0.000106335;-0.17532;-5.70385;0.000125548;0.00014178;2.17194;0.460418;168.332;33.3323;0.00139484;1.16571e-05;0.000166541;-0.000371926;6.6846e-05;-0.000409544;0.000952952;0;0.0280087;-0.00859364;2.40317
33000;34;25.7567;-0.00140294;-5.44657e-05;-2.0844;25.6584;0.842082;0.00800367;-0.000943738;0.00571254;-0.0110647;0.0176721;0.0125282;0.0243246;-7.19445;0.000432204;0.000320185;0.000123852;0.000633399;-7.73432e-05;0.000355371;-3.48968;-0.28656;0.000450267;0.000473828;8.18946;0.122108;15.9365;60.9365;-0.000279103;0.000432132;0.000143608;0.000496817;0.000123893;0.000780488;-0.000209158;0;0.0163778;-0.00874889;0.018608;0.0262561;0.0333494;-6.3837;-1.91731e-06;-8.08685e-05;-3.98176e-06;7.79255e-05;-8.38246e-05;8.08751e-05;;;9.34072e-05;0.000107833;0.929626;1.0757;0.60466;45.6047;0.00119923;-2.00529e-06;0.000265465;-0.000427202;-4.01373e-06;-0.000263473;0.000369526;0;0.0214841;-0.00842676;2.41004
34000;35;25.7598;0.00169771;6.59098e-05;-2.08479;25.6612;0.853196;0.00761567;0.00177016;0.0168265;-0.0108809;0.0206947;0.00983806;0.0253663;-7.19714;0.000342986;0.000141691;0.000211403;0.000433415;0.000120973;0.000156221;-1.62243;-0.61636;0.000258243;0.000208295;-3.58273;-0.279117;12.3926;57.3926;-0.000252322;0.000342925;-9.35261e-05;0.00037694;0.000211409;0.000592741;-0.00190855;0;0.014996;-0.00870851;0.0214204;0.0255022;0.0344243;-6.38445;4.45335e-05;-1.53725e-05;6.17915e-05;7.07912e-05;3.55337e-05;1.76288e-05;-0.720706;-1.38753;4.08714e-05;2.3505e-05;-1.99223;-0.501951;161.438;26.4382;0.000705492;4.44523e-05;0.000372449;-0.000403187;6.17222e-05;0.000663537;0.00100977;0;0.0203263;-0.00814236;2.41725
35000;36;25.7575;-0.000686257;-2.66423e-05;-2.08479;25.659;0.847228;0.00761514;-0.000425258;0.010858;-0.0113572;0.0238972;0.00975411;0.0281993;-7.19723;0.000416862;4.11043e-06;0.000525868;0.000526023;0.000416707;5.46578e-05;-0.792712;-1.26149;0.000320518;7.2877e-05;-1.26233;-0.792185;76.7508;121.751;-0.000362399;0.000416843;-0.00018822;0.00019642;0.00052585;0.000433282;-0.0016606;0;0.0131692;-0.00959051;0.024842;0.0262471;0.03739;-6.38371;-2.06804e-05;-6.18749e-05;2.14888e-05;6.57728e-05;-6.49645e-05;6.53686e-05;0.962384;1.03909;7.54817e-05;8.71582e-05;1.01244;0.98771;170.562;35.5618;0.0013004;-2.085e-05;0.000461971;-0.000585699;2.1384e-05;-0.000663038;0.000464193;0;0.0194601;-0.00794185;2.425
36000;37;25.7593;0.00117844;4.57503e-05;-2.08507;25.6605;0.855413;0.00733656;0.00115241;0.0190432;-0.0115194;0.0262938;0.011139;0.0307919;-7.19584;0.000311822;3.57365e-05;0.00020231;0.000322452;0.00019168;6.53856e-05;-1.5413;-0.648802;0.000187271;8.71808e-05;-1.68224;-0.594447;172.643;37.6429;-0.000544431;0.000311771;-0.000248315;0.000319819;0.00020228;0.00102679;-0.00158109;0;0.0141282;-0.00984024;0.0270414;0.0288904;0.0407766;-6.38107;6.02578e-05;-3.96851e-05;0.000165079;0.000178409;4.69282e-05;6.57403e-05;-0.365024;-2.73955;0.000106791;8.76537e-05;-3.80174;-0.263038;146.568;11.5679;0.00163226;6.01375e-05;0.000412793;-0.000492115;0.000164995;-0.00113751;0.00120021;0;0.0200338;-0.00815826;2.43142
37000;38;25.7584;0.000262921;1.02073e-05;-2.08413;25.6598;0.853622;0.00827063;0.000368891;0.0172523;-0.0121624;0.0284978;0.00772658;0.0319335;-7.19925;0.000328326;0.000184801;0.000665275;0.000746871;0.00024673;0.00025007;-0.493519;-2.02627;0.000439402;0.000333427;-3.02708;-0.330351;55.154;100.154;-0.000107336;0.000328268;-1.65254e-05;0.00038606;0.000665292;-0.000723232;-0.00246733;0;0.0137892;-0.0105047;0.0292732;0.0273952;0.041446;-6.38256;1.12263e-05;-6.10826e-05;7.66115e-05;0.0001132;-2.53623e-05;6.92812e-05;-0.146535;-6.82431;8.51888e-05;9.2375e-05;4.46332;0.224049;162.223;27.2227;0.00158608;1.11482e-05;0.000277634;-0.000399777;7.65749e-05;-0.00229895;0.000726279;0;0.0190645;-0.00755235;2.43886
38000;39;25.7585;0.00036918;1.43326e-05;-2.08486;25.6599;0.852172;0.00753731;0.000464189;0.0158021;-0.0125631;0.0312155;0.00504761;0.0340252;-7.20193;0.000311504;-1.65864e-05;0.001012;0.00101239;0.000311112;0.000350641;-0.30781;-3.24876;0.0005988;0.000467521;-3.25412;-0.307303;87.5327;132.533;-0.000546175;0.000311502;-0.000105512;7.22774e-05;0.001012;6.19467e-05;-0.00270476;0;0.0152739;-0.011356;0.0321016;0.0253004;0.0424214;-6.38466;2.69837e-05;-3.54124e-05;9.96813e-06;5.48959e-05;-1.79442e-05;3.642e-05;;;4.38209e-05;4.85601e-05;3.05927;0.326876;5.63953;50.6395;0.0014148;2.68528e-05;0.000441961;-0.000512794;9.8711e-06;-0.00036267;0.00152382;0;0.0208196;-0.00756697;2.4458
39000;40;25.7589;0.000765243;2.97088e-05;-2.08537;25.6601;0.856767;0.00702768;0.000667336;0.0203975;-0.0133194;0.0311041;0.00692855;0.034538;-7.20005;0.000322857;0.000210644;0.000850011;0.000923841;0.000249027;0.000337407;-0.379827;-2.63278;0.00055194;0.000449876;-3.7098;-0.269556;63.9707;108.971;-5.28558e-05;0.000322818;7.0515e-05;0.000350699;0.00085003;-0.00103843;-0.00168527;0;0.0153385;-0.0122572;0.0324179;0.0258747;0.0432511;-6.38408;-3.21121e-05;3.16389e-06;-2.47927e-05;-2.36147e-05;-3.32902e-05;4.83773e-06;-1.29523;-0.772067;1.97737e-05;6.45031e-06;-0.709359;-1.40972;116.088;161.088;0.00170706;-3.22544e-05;0.000539781;-0.000533449;-2.49384e-05;-0.00101098;0.00121121;0;0.0223514;-0.0073321;2.45361
40000;41;25.7581;-8.47893e-05;-3.29175e-06;-2.08577;25.6593;0.853738;0.00662861;-0.000117447;0.0173685;-0.0139378;0.0318455;0.00631729;0.0353314;-7.20066;0.000401005;7.49612e-05;0.000585483;0.000612102;0.000374386;0.000118858;-0.684913;-1.46004;0.000356321;0.000158477;-1.63495;-0.61164;55.1841;100.184;-0.0006863;0.000400941;-0.000216143;0.000366012;0.000585462;0.000614614;-0.00240883;0;0.015999;-0.0133012;0.0331326;0.0247469;0.0434408;-6.38521;-8.65828e-05;-3.20069e-05;4.6633e-05;5.39241e-05;-9.38739e-05;7.3899e-05;1.85668;0.538594;8.6364e-05;9.8532e-05;0.574431;1.74085;148.853;13.8535;0.00148566;-8.67552e-05;0.000524068;-0.000588008;4.64962e-05;-0.000608231;0.00109953;0;0.0207867;-0.00722902;2.46042
41000;42;25.7583;0.000111099;4.31314e-06;-2.08566;25.6595;0.854325;0.00674499;6.91143e-05;0.0179556;-0.0139918;0.0334289;0.0031468;0.0363753;-7.20383;0.000231277;2.61124e-05;0.00029601;0.00030523;0.000222057;4.15869e-05;-0.781313;-1.2799;0.000182204;5.54492e-05;-1.37456;-0.727505;49.8612;94.8612;-0.000638631;0.000231244;-0.000206268;0.000258478;0.000295989;0.000178789;-0.00224623;0;0.0158153;-0.0136208;0.0342666;0.0232146;0.0435735;-6.38674;7.14492e-05;2.14851e-05;0.000137748;0.000144102;6.50955e-05;3.95031e-05;-0.518695;-1.92792;8.33262e-05;5.26708e-05;-2.2137;-0.451733;112.606;157.606;0.00169027;7.13351e-05;0.000521123;-0.00047812;0.000137612;-0.00102712;0.00195191;0;0.0192611;-0.00714165;2.46447
42000;43;25.7586;0.00045008;1.74733e-05;-2.0849;25.6599;0.853418;0.00749801;0.000500776;0.0170487;-0.0143764;0.0335907;0.00140144;0.0365647;-7.20558;0.000378008;0.000151081;0.000730314;0.000786228;0.000322093;0.000232068;-0.517596;-1.93201;0.000456392;0.000309423;-2.44099;-0.409669;65.0497;110.05;-0.000706328;0.00037799;6.04461e-05;0.000241684;0.000730324;5.32412e-05;-0.00207162;0;0.014967;-0.0140666;0.0345364;0.0201241;0.0423747;-6.38983;-6.13152e-05;-2.7771e-05;3.53601e-05;4.27697e-05;-6.87248e-05;5.57473e-05;1.73402;0.576694;6.49502e-05;7.43297e-05;0.622333;1.60686;150.687;15.6872;0.00146989;-6.145e-05;0.000464464;-0.000519959;3.52526e-05;-0.00109222;0.00103225;0;0.0188038;-0.00701919;2.46918
43000;44;25.7571;-0.00108413;-4.20888e-05;-2.08568;25.6583;0.851964;0.00672311;-0.00105398;0.0155943;-0.0145396;0.0335252;0.00159012;0.0365769;-7.20539;0.000415031;1.05264e-05;0.000653459;0.000653923;0.000414567;0.000119678;-0.635128;-1.57448;0.000382033;0.000159571;-1.57737;-0.633969;82.2189;127.219;-0.000681619;0.000415025;-8.8712e-05;0.000109741;0.000653455;0.000206398;-0.00198985;0;0.0145899;-0.0145091;0.0347361;0.01952;0.0424044;-6.39044;1.1587e-05;-2.43724e-05;8.53422e-05;9.26683e-05;4.26085e-06;4.42037e-05;-0.135771;-7.36534;6.04087e-05;5.89383e-05;;;148.957;13.9567;0.00161338;1.14497e-05;0.000475972;-0.00052468;8.52292e-05;-0.00138587;0.000874762;0;0.0199694;-0.00694882;2.47597
44000;45;25.7579;-0.000285382;-1.10793e-05;-2.08607;25.6591;0.853248;0.00632713;-0.000327028;0.0168787;-0.0146286;0.0340275;0.000173169;0.0370391;-7.20681;0.000453385;0.000152984;0.00071335;0.000784114;0.00038262;0.000200747;-0.635572;-1.57339;0.000452752;0.000267663;-2.04933;-0.487965;59.6119;104.612;-0.000562029;0.000453361;3.81409e-05;0.000267796;0.000713361;-0.000597178;-0.00224068;0;0.016819;-0.0151118;0.0352489;0.0176745;0.0422284;-6.39228;-9.40564e-05;-0.000118261;-1.30335e-05;7.14629e-05;-0.000178553;0.000125008;-7.21653;-0.138571;0.000148695;0.000166677;0.400234;2.49854;175.091;40.0914;0.00178054;-9.41518e-05;0.000215972;-0.000452468;-1.30498e-05;-0.00326707;0.000772248;0;0.0196242;-0.00696143;2.48304
45000;46;25.7592;0.00100656;3.90775e-05;-2.08668;25.6603;0.854839;0.00572455;0.000867953;0.0184694;-0.014751;0.0339162;0.00159432;0.0370195;-7.20539;0.000304287;8.76434e-05;0.000426167;0.000471975;0.00025848;0.000106748;-0.714008;-1.40054;0.000272907;0.00014233;-1.82597;-0.547655;55.8358;100.836;-0.000550683;0.000304276;2.34586e-06;0.00017293;0.000426171;-0.000427556;-0.000857523;0;0.0163677;-0.0154716;0.0352202;0.0188972;0.0428596;-6.39106;2.1047e-05;-0.00013458;5.29903e-05;0.000172543;-9.85058e-05;0.000135524;-0.397186;-2.51771;0.000158424;0.000180699;1.7516;0.570905;174.432;39.4318;0.00144099;2.08634e-05;0.000351596;-0.00062074;5.29375e-05;-0.00162713;0.00223527;0;0.0211884;-0.00685505;2.49006
46000;47;25.7583;0.000129658;5.03367e-06;-2.08646;25.6595;0.851244;0.00593728;0.000124476;0.0148746;-0.0151052;0.0344126;0.00017002;0.0375822;-7.20681;0.000323747;-5.59338e-05;0.000783759;0.000790463;0.000317044;0.00023671;-0.41307;-2.4209;0.000459341;0.000315613;-2.49323;-0.401086;90.8458;135.846;-0.000886176;0.000323747;-0.000173493;6.15712e-05;0.000783746;0.00028302;-0.00169857;0;0.0147725;-0.0160884;0.0357624;0.016849;0.0426811;-6.39311;3.30666e-05;-7.14021e-05;2.3594e-05;9.98893e-05;-4.32287e-05;7.1559e-05;-1.40148;-0.71353;8.47602e-05;9.5412e-05;2.31072;0.432766;0.484687;45.4847;0.00173434;3.28587e-05;0.000505976;-0.000648786;2.34685e-05;-0.00350348;0.000382163;0;0.0200691;-0.00678614;2.49734
47000;48;25.7577;-0.000445213;-1.72844e-05;-2.08744;25.6589;0.851104;0.00496494;-0.000527046;0.0147346;-0.0154688;0.0366983;-0.004724;0.0401044;-7.2117;0.000323076;9.86494e-06;0.000775277;0.000775492;0.000322861;0.000226316;-0.416723;-2.39967;0.000449815;0.000301754;-2.40194;-0.41633;83.1337;128.134;-0.000272651;0.000323069;-9.93022e-05;0.000118983;0.000775272;-0.000871826;-0.00131077;0;0.0163469;-0.0168926;0.0376979;0.0119602;0.0430063;-6.398;-9.58529e-05;-6.15471e-05;0.000105317;0.000122653;-0.000113189;0.000117921;0.910134;1.09874;0.0001362;0.000157228;1.08362;0.922836;150.485;15.4846;0.00131869;-9.60497e-05;0.000507448;-0.000630427;0.00010519;-0.00152122;0.00169707;0;0.0197761;-0.00681119;2.50419
48000;49;25.7595;0.0013601;5.28027e-05;-2.08832;25.6605;0.855161;0.00407681;0.00107808;0.0187913;-0.0153336;0.0377268;-0.00566841;0.0411164;-7.21265;0.000515953;-4.04064e-05;0.000583026;0.000602;0.000496979;5.25106e-05;-0.884958;-1.13;0.000371311;7.00142e-05;-1.21132;-0.825546;112.476;157.476;-0.000325744;0.000515954;-9.19481e-05;1.11317e-05;0.000583023;-0.000767833;-0.00166861;0;0.0159278;-0.0170703;0.0388472;0.0115563;0.0439778;-6.3984;-2.23698e-05;-9.35193e-05;-2.05167e-05;7.20806e-05;-0.000114967;9.35239e-05;-1.09032;-0.917164;0.000108934;0.000124698;0.626967;1.59498;0.929584;45.9296;0.00132287;-2.25433e-05;0.000409452;-0.000596489;-2.05962e-05;-0.00299748;0.00283548;0;0.0225357;-0.00681045;2.51222
49000;50;25.7577;-0.000449545;-1.74525e-05;-2.08768;25.6588;0.852046;0.00471857;-0.0005827;0.0156765;-0.0154754;0.0367753;-0.00517319;0.0402327;-7.21215;0.000348035;0.000169205;0.000612244;0.000694807;0.000265472;0.000214667;-0.568457;-1.75915;0.000404848;0.000286223;-2.61725;-0.38208;56.3002;101.3;-0.000822454;0.000348003;3.70486e-05;0.000301327;0.000612258;8.26252e-05;-0.00102918;0;0.0149376;-0.01752;0.0379392;0.0113138;0.0432936;-6.39864;7.35821e-05;-3.64483e-05;4.63578e-06;8.92774e-05;-1.10595e-05;5.01685e-05;;;6.35265e-05;6.68913e-05;8.07245;0.123878;20.0315;65.0315;0.00139494;7.33306e-05;0.000637223;-0.000710166;4.43342e-06;-0.00215107;0.00167626;0;0.0203554;-0.00674612;2.5189
50000;51;25.758;-0.00016928;-6.57191e-06;-2.08699;25.6593;0.848313;0.00541527;-0.00012099;0.0119435;-0.016967;0.0378738;-0.00770151;0.0422093;-7.21468;0.000312339;0.000178759;0.000642986;0.000721151;0.000234174;0.000243488;-0.485764;-2.05861;0.000424799;0.000324651;-3.07955;-0.324723;61.9369;106.937;-0.000664665;0.000312323;0.000103996;0.000253497;0.000642996;0.000109053;-0.00084044;0;0.0277895;-0.0190372;0.0391956;0.00642845;0.0440458;-6.40353;4.40671e-06;-5.99826e-05;8.4913e-06;6.64664e-05;-5.35684e-05;6.00174e-05;;;6.94353e-05;8.00232e-05;1.24078;0.805947;178.632;43.6319;0.00148315;4.26362e-06;0.000418347;-0.00053831;8.40559e-06;-0.00306495;0.00181045;0;0.0282141;-0.00659149;2.52645
51000;52;25.7594;0.0012844;4.98637e-05;-2.08873;25.6604;0.853128;0.00367465;0.00103703;0.0167583;-0.0167465;0.0358663;-0.00455565;0.0398446;-7.21154;0.000226167;2.73124e-06;0.000861677;0.000861689;0.000226155;0.000317767;-0.262473;-3.80992;0.000515872;0.000423689;-3.81017;-0.262455;83.709;128.709;-0.000897845;0.00022616;-0.000113874;0.000119262;0.000861671;0.000690064;-0.001374;0;0.0177093;-0.0190619;0.0373596;0.00854647;0.0428035;-6.40141;-5.12595e-05;-3.49759e-05;-1.23467e-05;8.22019e-06;-7.18264e-05;4.00233e-05;-4.15168;-0.240867;5.08463e-05;5.33644e-05;;;167.415;32.4148;0.00143083;-5.13829e-05;0.000428046;-0.00049798;-1.24377e-05;-0.00198382;0.00204592;0;0.02301;-0.00658673;2.53344
52000;53;25.758;-0.000113764;-4.41662e-06;-2.0884;25.6593;0.847036;0.0040043;-0.000137857;0.010666;-0.0181089;0.0368616;-0.00899703;0.0420435;-7.21598;0.00038125;-0.000193696;0.00055771;0.000682324;0.000256636;0.000212844;-0.683599;-1.46285;0.00039795;0.000283792;-2.65873;-0.37612;122.84;167.84;-0.000791912;0.00038125;-0.0001923;-0.000195092;0.00055771;0.000402162;-0.00079085;0;0.0157806;-0.0209063;0.0380332;0.00276486;0.0434885;-6.40719;-0.000118039;-0.000125766;-3.2995e-05;5.72428e-05;-0.000208277;0.00013276;-3.57748;-0.279527;0.000161353;0.000177013;0.27484;3.63848;174.933;39.9334;0.00164161;-0.000118228;0.000375835;-0.000627324;-3.30577e-05;-0.00273505;0.00212498;0;0.0193428;-0.00649352;2.54113
53000;54;25.7591;0.000920935;3.57532e-05;-2.08995;25.6602;0.846578;0.00245199;0.000789534;0.0102086;-0.0182744;0.0364553;-0.0134402;0.042937;-7.22042;0.000446972;6.16884e-05;0.000630675;0.000649468;0.000428179;0.000110644;-0.70872;-1.41099;0.00038126;0.000147526;-1.51681;-0.659277;72.4419;117.442;-0.000182753;0.000446971;5.01077e-05;7.32671e-05;0.000630676;-0.000996917;0.000454214;0;0.0185927;-0.0215421;0.0374979;-0.00342606;0.0433808;-6.41338;-0.000124565;-9.34345e-05;-7.89973e-05;-5.6087e-06;-0.000197953;9.61722e-05;-1.57682;-0.634188;0.00013014;0.00012823;;;178.767;43.7665;0.00187914;-0.000124743;0.000418164;-0.00060501;-7.90804e-05;-0.00312465;0.00118356;0;0.0235567;-0.00617914;2.54463
54000;55;25.7586;0.000422248;1.63928e-05;-2.08865;25.6598;0.846005;0.00374853;0.000413404;0.00963521;-0.0188041;0.0340326;-0.00789552;0.0396756;-7.21488;0.000282702;-0.000130606;0.000359571;0.00045728;0.000184993;0.000136144;-0.786221;-1.27191;0.000265609;0.000181525;-2.47188;-0.404551;128.766;173.766;-0.000898892;0.000282699;-0.000108534;-0.000152676;0.000359574;0.000316552;-0.00181122;0;0.0157536;-0.0219559;0.0355014;0.00143438;0.0417668;-6.40852;-5.66244e-05;-6.89615e-05;1.98842e-05;6.04911e-05;-9.72313e-05;7.88612e-05;2.84771;0.351159;9.18809e-05;0.000105148;0.622136;1.60737;166.354;31.3537;0.00163964;-5.68483e-05;0.000534852;-0.000672729;1.97435e-05;-0.00187281;0.00271105;0;0.0206724;-0.00605467;2.54881
55000;56;25.7588;0.000632966;2.45734e-05;-2.0899;25.66;0.843537;0.00250198;0.000604679;0.00716751;-0.0194857;0.0333378;-0.00807217;0.0394495;-7.21505;0.000369804;-2.03904e-05;0.000404774;0.00041415;0.000360429;2.68606e-05;-0.913606;-1.09456;0.000260049;3.58141e-05;-1.14905;-0.870286;112.828;157.828;-0.000660846;0.000369805;-4.56594e-05;4.87775e-06;0.000404774;-0.000369481;5.38519e-05;0;0.0312063;-0.0231375;0.0351214;-0.00113238;0.042073;-6.41109;-5.16919e-05;-9.33591e-05;-6.06575e-05;3.7292e-05;-0.000149641;9.34667e-05;-0.852193;-1.17344;0.000114239;0.000124622;0.249209;4.01269;4.00189;49.0019;0.00145503;-5.1934e-05;0.00051538;-0.000702104;-6.07859e-05;-0.00183236;0.0028083;0;0.0299723;-0.00565438;2.55601
56000;57;25.758;-0.000124419;-4.83027e-06;-2.09042;25.6592;0.843168;0.00198612;-0.000185518;0.00679863;-0.0193128;0.0340687;-0.0136683;0.0414787;-7.22065;0.000447936;-9.58532e-05;0.000331617;0.000501894;0.000277659;0.000112118;-1.35076;-0.740323;0.000290315;0.00014949;-1.80759;-0.553222;145.354;10.3543;-0.000642362;0.00044794;-0.000168392;-2.33064e-05;0.000331608;-0.00103738;-0.00148252;0;0.0202982;-0.0236018;0.0353903;-0.00666233;0.043057;-6.41662;-8.0134e-05;-0.000142648;-9.54695e-06;0.000102109;-0.00019179;0.000146949;;;0.000172295;0.000195932;0.532399;1.87829;175.724;40.7242;0.00159734;-8.03165e-05;0.000335375;-0.000620637;-9.59301e-06;-0.00281512;0.0031157;0;0.0270857;-0.00557177;2.56336
57000;58;25.7589;0.00073293;2.84543e-05;-2.09109;25.6601;0.83914;0.00131117;0.000752193;0.00277015;-0.0204334;0.0344786;-0.0157875;0.043076;-7.22277;0.00037709;-0.000124384;0.000556297;0.000619991;0.000313396;0.000153297;-0.677857;-1.47524;0.000357959;0.000204396;-1.9783;-0.505485;116.46;161.46;-0.000579846;0.000377091;-0.000135069;-0.000113701;0.000556295;-0.000737533;-0.00103554;0;0.0157228;-0.0251209;0.0352005;-0.0100719;0.0444024;-6.42003;1.33071e-05;-0.000135282;-0.000106985;0.00010121;-0.000194889;0.00014805;0.124382;8.03973;0.000173781;0.000197399;0.519324;1.92558;14.169;59.169;0.00116716;1.30379e-05;0.000475415;-0.000746051;-0.000107089;-0.000459768;0.00246805;0;0.0219002;-0.00493095;2.57095
58000;59;25.758;-0.000108276;-4.20355e-06;-2.09122;25.6594;0.836394;0.00118574;-1.28249e-05;2.44525e-05;-0.0214562;0.0343219;-0.0184772;0.0444946;-7.22546;0.000380311;-0.00019843;0.000593479;0.000712139;0.000261651;0.000225244;-0.640816;-1.56051;0.000415944;0.000300325;-2.72171;-0.367416;116.071;161.071;-0.000397857;0.000380324;-0.00028098;-0.000115898;0.000593459;0.000182681;0.000784737;0;0.0176048;-0.026182;0.0353589;-0.0142015;0.0462324;-6.42416;-3.43928e-05;-9.07348e-05;-0.000159939;1.31666e-05;-0.000207498;0.000110333;-0.215037;-4.65037;0.000142923;0.00014711;0.0634541;15.7594;21.8035;66.8035;0.00150291;-3.46392e-05;0.000526304;-0.000707851;-0.000160073;-0.00186427;0.00183769;0;0.0246613;-0.00430621;2.57817
59000;60;25.7587;0.000537423;2.08642e-05;-2.09092;25.6601;0.833976;0.00148048;0.000738067;-0.00239328;-0.0218526;0.0336531;-0.018244;0.0440785;-7.22522;0.00046899;-3.64219e-05;0.00051524;0.000535258;0.000448972;4.31431e-05;-0.910235;-1.09862;0.000331837;5.75242e-05;-1.19219;-0.838795;115.36;160.36;-0.000538203;0.00046899;-9.57299e-05;2.28833e-05;0.000515236;0.000367217;-0.000290863;0;0.018486;-0.0270422;0.0346971;-0.0158158;0.0467472;-6.42577;-9.24599e-05;-0.000111489;-0.000127302;2.96095e-06;-0.000222723;0.000112842;-0.726306;-1.37683;0.000149478;0.000150456;;;9.67002;54.67;0.00147731;-9.27028e-05;0.000482718;-0.000705717;-0.000127412;-0.00182567;0.00194514;0;0.0243764;-0.00414902;2.58571
60000;61;25.7587;0.000563254;2.1867e-05;-2.09291;25.66;0.833306;-0.000504095;0.000623985;-0.00306363;-0.0224286;0.033688;-0.020071;0.0451748;-7.22705;0.000524313;-0.000156115;0.000391512;0.000627563;0.000288263;0.00016965;-1.3392;-0.746715;0.000362723;0.0002262;-2.17705;-0.459337;143.22;8.22049;-0.000665712;0.00052432;-0.000209123;-0.000103101;0.000391503;-0.00029465;-0.000590018;0;0.0155504;-0.0280297;0.034934;-0.0194556;0.0488321;-6.42941;-5.56758e-06;-0.000131182;-0.000111186;8.30359e-05;-0.000199789;0.000141413;;;0.000167863;0.00018855;0.415617;2.40606;12.9511;57.9511;0.0010554;-6.02595e-06;0.000703951;-0.000966403;-0.000111425;0.000281485;0.00290694;0;0.023233;-0.0038531;2.59312
61000;62;25.7577;-0.000411505;-1.59757e-05;-2.09343;25.6592;0.827445;-0.00102755;-0.000207566;-0.00892417;-0.0241929;0.0335017;-0.0249175;0.048255;-7.2319;0.000450046;-0.000135091;0.000404777;0.000564386;0.000290438;0.000136974;-1.11184;-0.899412;0.000325895;0.000182632;-1.94322;-0.514609;137.275;2.27504;-0.000395818;0.000450051;-0.00017221;-9.797e-05;0.000404772;-0.00164648;-0.00052798;0;0.0161879;-0.0298645;0.0345555;-0.0256687;0.0523914;-6.43562;9.12562e-05;-0.000187808;-0.000143496;0.00019535;-0.00024759;0.00022147;0.635948;1.57246;0.000256324;0.000295294;0.789005;1.26742;16.8709;61.8709;0.000645706;9.0736e-05;0.00066138;-0.0010372;-0.000143698;0.000536145;0.00262076;0;0.0221761;-0.00366521;2.60042
62000;63;25.7569;-0.00120496;-4.67798e-05;-2.09339;25.6585;0.825009;-0.000983672;-0.000922024;-0.0113609;-0.0248278;0.0326827;-0.0242567;0.0476756;-7.23124;0.000396972;-3.28233e-06;2.86627e-05;0.000397002;2.86334e-05;0.000184184;-13.8498;-0.0722032;0.000255658;0.000245579;-13.865;-0.0721243;9.67147;54.6715;-0.000853583;0.000396969;7.57153e-05;-8.2309e-05;2.86598e-05;-0.000332073;-0.000345677;0;0.0198733;-0.0310709;0.0339916;-0.0272496;0.0535105;-6.43721;-1.8508e-05;-0.000194803;-0.000197271;0.000106441;-0.00032222;0.00021433;-0.09382;-10.6587;0.000257727;0.000285774;0.330335;3.02723;15.9717;60.9717;0.000546663;-1.90243e-05;0.000644923;-0.00103468;-0.00019746;0.000732392;0.00319611;0;0.022668;-0.00365698;2.60814
63000;64;25.7582;2.16246e-05;8.39524e-07;-2.09341;25.6597;0.82589;-0.00100806;0.000278921;-0.0104794;-0.0257374;0.032056;-0.024856;0.0480397;-7.23184;0.000471899;1.90417e-06;6.03956e-05;0.000471908;6.03868e-05;0.000205761;-7.81348;-0.127984;0.000296533;0.000274348;-7.81476;-0.127963;2.26615;47.2662;-0.000346516;0.000471899;2.05258e-05;-1.67251e-05;6.03954e-05;-0.000981542;0.000642874;0;0.0173429;-0.0323673;0.033546;-0.0290892;0.0549469;-6.43904;0.000103514;-0.000195905;-0.000226838;0.000194584;-0.000317908;0.000256246;0.456333;2.19138;0.000298729;0.000341661;0.612075;1.63379;22.2373;67.2373;0.000464961;0.000103029;0.000612288;-0.00100437;-0.000227007;0.00105479;0.00277875;0;0.0223247;-0.00345867;2.61443
64000;65;25.757;-0.00114795;-4.45664e-05;-2.0945;25.6586;0.819161;-0.00209491;-0.000768121;-0.0172086;-0.0270116;0.0309926;-0.0249125;0.0480708;-7.23189;0.000443266;3.63742e-05;-2.86591e-05;0.000446053;-3.14463e-05;0.00023875;15.4668;0.0646545;0.000308386;0.000318333;14.1846;0.0704989;4.90274;49.9027;-0.000505567;0.000443266;4.01452e-05;3.26014e-05;-2.86593e-05;-0.0011264;-0.00024834;0;0.0175876;-0.0341366;0.0324662;-0.0313165;0.0565693;-6.44127;6.97201e-05;-0.000218276;-0.000269142;0.000176607;-0.000376028;0.000276317;0.259046;3.86032;0.000325915;0.000368423;0.469663;2.12918;22.0546;67.0546;0.000397679;6.91175e-05;0.000682432;-0.00111929;-0.000269351;0.00116864;0.00262481;0;0.0220833;-0.00329142;2.61714
65000;66;25.7569;-0.00121006;-4.69776e-05;-2.09458;25.6585;0.820151;-0.00217674;-0.000868783;-0.0162183;-0.0270454;0.0299065;-0.0243995;0.0471295;-7.23138;0.00045481;5.39481e-05;-1.43346e-06;0.000461102;-7.72572e-06;0.000234414;;;0.000310009;0.000312552;;;8.34773;53.3477;-0.000278016;0.000454811;6.73766e-05;4.05133e-05;-1.43428e-06;-0.000916946;0.000271736;0;0.0170757;-0.0342892;0.0319789;-0.033515;0.0576338;-6.44347;4.49585e-05;-0.000229845;-0.000263841;0.000167449;-0.000386331;0.00027689;0.1704;5.86854;0.000327944;0.000369187;0.433433;2.30716;20.1381;65.1381;0.000250631;4.42605e-05;0.00074369;-0.00120368;-0.000264091;0.000997902;0.00273289;0;0.0253572;-0.00335174;2.62507
66000;67;25.7567;-0.00145493;-5.64843e-05;-2.09604;25.6583;0.814569;-0.00363907;-0.00105619;-0.0218006;-0.0281619;0.030576;-0.0310575;0.0518898;-7.23804;0.000326059;-0.000126209;7.38545e-05;0.000378368;2.15458e-05;0.000178411;-4.41489;-0.226506;0.000245379;0.000237881;-17.5611;-0.0569439;164.036;29.036;-0.000840805;0.000326052;-7.96878e-05;-0.000172742;7.38593e-05;-0.000152635;-0.0005223;0;0.0166138;-0.0360183;0.0322433;-0.0421041;0.0641069;-6.45206;7.53378e-05;-0.000198815;-0.000235267;0.000172317;-0.000332247;0.000252282;0.320222;3.12283;0.000296148;0.000336376;0.518642;1.92811;21.8276;66.8276;0.000401641;7.48552e-05;0.000604545;-0.00100242;-0.00023543;0.000501608;0.00370837;0;0.0212292;-0.0033256;2.62977
67000;68;25.7563;-0.00181477;-7.04543e-05;-2.09629;25.6581;0.811231;-0.00388461;-0.00133173;-0.0251381;-0.0290669;0.0297429;-0.0322959;0.052655;-7.23928;0.000508323;1.66428e-05;0.000148906;0.000509092;0.000148137;0.000180478;-3.41372;-0.292935;0.000302364;0.000240637;-3.43664;-0.290982;14.5666;59.5666;-0.000771832;0.000508315;0.000161894;-0.00012866;0.000148893;-0.000215741;0.000530962;0;0.0158152;-0.037387;0.0315726;-0.0453375;0.066709;-6.45529;2.56979e-05;-0.000161931;-0.000232282;0.000103735;-0.000310319;0.000207027;0.110633;9.03893;0.000248774;0.000276036;0.334285;2.99146;22.8818;67.8818;-8.28606e-05;2.52364e-05;0.000650195;-0.000974267;-0.00023248;0.00129411;0.00277292;0;0.0208936;-0.00322745;2.63618
68000;69;25.7551;-0.00301619;-0.000117097;-2.09749;25.6569;0.80729;-0.00508639;-0.00251164;-0.0290799;-0.0306283;0.0284207;-0.0332115;0.0533745;-7.24019;0.000362326;9.80736e-06;9.11867e-06;0.000362599;8.84657e-06;0.000176876;;;0.000238838;0.000235835;;;17.0458;62.0458;-0.000841558;0.000362321;0.000121023;-0.000101447;9.1114e-06;-0.000288103;0.000421477;0;0.0158151;-0.0396742;0.0308945;-0.0485077;0.0698678;-6.45846;-0.00010092;-0.000221436;-0.000351336;2.82555e-05;-0.000480511;0.000254383;-0.287247;-3.48132;0.000330163;0.000339178;0.058803;17.0059;21.7991;66.7991;0.000571248;-0.000101522;0.000676041;-0.00111914;-0.00035154;-0.00161037;0.0022101;0;0.0199771;-0.00322508;2.64363
69000;70;25.7545;-0.00367194;-0.000142555;-2.09744;25.6564;0.802772;-0.00503581;-0.00302401;-0.0335975;-0.0312045;0.0269644;-0.0299605;0.0509748;-7.23694;0.0003703;3.91745e-05;0.000337718;0.000396436;0.000311582;4.24269e-05;-1.09648;-0.912011;0.000241037;5.65693e-05;-1.27233;-0.785958;41.7447;86.7447;-0.000677998;0.000370299;0.000141189;-6.28437e-05;0.000337708;-0.00137527;-0.000576435;0;0.0161611;-0.040488;0.0294087;-0.0486479;0.0697909;-6.4586;-4.59121e-05;-0.000137225;-0.000293446;1.51156e-05;-0.000354473;0.000184794;-0.156459;-6.39146;0.000241512;0.000246393;0.0426424;23.4508;26.985;71.985;0.000324711;-4.63439e-05;0.000664669;-0.000939318;-0.000293657;-0.000861401;0.00220692;0;0.0193209;-0.00323897;2.65111
70000;71;25.7545;-0.00368332;-0.000142996;-2.09812;25.6564;0.80045;-0.00571912;-0.00301875;-0.0359198;-0.0322255;0.027952;-0.035335;0.0553928;-7.24232;0.000250469;-0.00013182;-8.37322e-06;0.000305781;-6.36851e-05;0.000184733;;;0.000228065;0.00024631;4.80145;0.208271;7.30402;52.304;-0.000974919;0.000250419;7.90161e-05;-0.00034271;-8.36766e-06;0.000100648;0.00169086;0;0.0235639;-0.0421606;0.0305459;-0.0582613;0.0781342;-6.46822;-1.1302e-05;-0.000190813;-0.000232487;9.86508e-05;-0.00034244;0.000220545;-0.0486134;-20.5704;0.000267315;0.00029406;0.288082;3.47123;19.026;64.026;-0.000128456;-1.18459e-05;0.000678454;-0.00106027;-0.000232699;-0.000253856;0.00211284;0;0.0287336;-0.00307794;2.65869
71000;72;25.7545;-0.00366687;-0.000142358;-2.09934;25.6563;0.799184;-0.00693441;-0.00306219;-0.0371854;-0.0335797;0.0266496;-0.0382524;0.0574547;-7.24523;0.000429321;-0.000117486;-0.0001283;0.000453063;-0.000152043;0.000302553;3.34622;0.298845;0.000363482;0.000403404;2.97984;0.335588;19.0983;64.0983;-0.000904017;0.000429252;0.000154594;-0.000389718;-0.000128305;-0.00100862;0.000438099;0;0.0260231;-0.0440252;0.0297176;-0.0633767;0.082692;-6.47333;-1.40785e-05;-0.000197479;-0.000242516;9.9834e-05;-0.000356428;0.000228131;-0.058052;-17.2259;0.000276961;0.000304175;0.280096;3.57021;19.6061;64.6061;0.000225294;-1.45496e-05;0.000595347;-0.000990486;-0.000242673;-0.0013319;0.00245128;0;0.0237283;-0.00300318;2.66555
72000;73;25.7554;-0.00271626;-0.000105453;-2.09969;25.6572;0.802426;-0.00729074;-0.00223828;-0.0339437;-0.0342632;0.0224927;-0.0406707;0.0577407;-7.24765;0.000359705;0.000172056;-6.78204e-06;0.000427821;-7.48981e-05;0.000251359;;;0.00031318;0.000335146;5.71204;0.175069;50.2707;95.2707;-0.000259274;0.000359714;0.000447454;-0.000103442;-6.86735e-06;-0.00292328;0.000336834;0;0.0553485;-0.0457693;0.0272248;-0.0670418;0.0856191;-6.477;-1.25164e-05;-0.000161464;-0.000149097;9.45049e-05;-0.000256119;0.000175312;-0.0839477;-11.9122;0.000209478;0.000233749;0.368989;2.71011;14.123;59.123;0.000184829;-1.30288e-05;0.000702129;-0.00102517;-0.000149331;-0.00300141;0.00180314;0;0.0233855;-0.00284983;2.67273
73000;74;25.7559;-0.00220131;-8.54609e-05;-2.10016;25.6578;0.797143;-0.00775608;-0.00159478;-0.0392266;-0.0355038;0.0284242;-0.0456936;0.0644698;-7.25267;0.000333184;-9.60524e-05;-0.000383172;0.00034584;-0.000395828;0.000370834;0.869542;1.15003;0.000428526;0.000494445;0.873713;1.14454;40.5814;85.5814;-0.00048862;0.000333135;0.000134642;-0.000326912;-0.000383177;-0.00144678;-4.34719e-05;0;0.0251901;-0.046861;0.030684;-0.0747003;0.0933681;-6.48466;-5.93626e-05;-0.000162694;-4.34113e-05;0.000111503;-0.000214276;0.000162889;-1.36745;-0.73129;0.000191183;0.000217186;0.520368;1.92172;0.729593;45.7296;0.00037975;-5.97093e-05;0.000523062;-0.000848439;-4.35348e-05;-0.00187927;0.00155827;0;0.0239634;-0.0023503;2.67986
74000;75;25.7544;-0.00378748;-0.00014704;-2.10128;25.6562;0.794766;-0.00887504;-0.00320487;-0.041604;-0.0360136;0.0235362;-0.0383339;0.0576231;-7.24531;0.000325709;0.000203148;-0.000385698;0.000379633;-0.000439621;0.000409627;0.844467;1.18418;0.000473419;0.000546169;0.863545;1.15802;64.5582;109.558;-0.000480733;0.00032573;0.000384456;2.17122e-05;-0.000385751;-0.00212004;0.000708342;0;0.0246275;-0.0482674;0.027414;-0.0731134;0.0917978;-6.48307;-1.43306e-05;-0.000269133;-7.788e-05;0.000224897;-0.000317108;0.000271002;-0.184009;-5.43451;0.000314432;0.000361336;0.709213;1.41001;5.55114;50.5511;0.000440857;-1.46731e-05;0.000331925;-0.000870229;-7.78989e-05;-0.00293076;0.000693409;0;0.0218826;-0.00192132;2.68675
75000;76;25.7578;-0.000309557;-1.20178e-05;-2.10079;25.6597;0.79615;-0.00838743;0.000283378;-0.04022;-0.0382715;0.022419;-0.0482537;0.0655419;-7.25523;0.000216008;1.35703e-05;-0.000313027;0.000216356;-0.000313375;0.000264865;0.690062;1.44915;0.000307545;0.000353154;0.690406;1.44842;51.283;96.283;-0.000386394;0.000215971;0.000299161;-0.000272172;-0.000313072;-0.00195937;0.0023843;0;0.0254045;-0.0507793;0.0240959;-0.0833096;0.100497;-6.49327;1.21161e-05;-9.99522e-05;-5.08518e-05;8.54256e-05;-0.000124161;0.000104793;0.238262;4.19706;0.000121692;0.000139725;0.688021;1.45344;9.30285;54.3029;0.0003813;1.15537e-05;0.000865294;-0.00106526;-5.12212e-05;-0.00388548;0.00135094;0;0.0378348;-0.00160804;2.69216
76000;77;25.7557;-0.00247741;-9.61798e-05;-2.09993;25.6576;0.793555;-0.00752711;-0.00174197;-0.0428145;-0.0388924;0.0232862;-0.0542011;0.0706585;-7.26118;0.000165238;0.000258056;-0.000169858;0.000305367;-0.000309987;0.000307677;0.972802;1.02796;0.000355278;0.000410236;0.985097;1.01513;73.7185;118.718;-0.000215753;0.000165271;0.000558726;-4.27157e-05;-0.000169981;-0.00245376;0.000649932;0;0.023214;-0.0515281;0.0261491;-0.0923993;0.10898;-6.50235;3.46398e-05;-6.41419e-05;5.50666e-05;0.000109803;-2.00967e-05;6.49499e-05;-0.629053;-1.58969;8.0739e-05;8.65999e-05;5.46372;0.183025;174.106;39.1062;2.31554e-05;3.41312e-05;0.000882375;-0.00101064;5.46793e-05;-0.00297846;0.000713108;0;0.0276725;-0.00123773;2.69531
77000;78;25.7563;-0.00185568;-7.20425e-05;-2.10041;25.6583;0.791527;-0.00801112;-0.00109484;-0.0448423;-0.0408656;0.0211423;-0.0541112;0.0710283;-7.26109;0.000230591;0.000579775;-0.000399274;0.000575447;-0.00074413;0.000659789;0.577525;1.73153;0.000763931;0.000879719;0.773315;1.29313;82.5297;127.53;-0.000711429;0.000230732;0.000928808;0.000230522;-0.000399537;-0.00180371;0.00128542;0;0.0298525;-0.0536769;0.0236024;-0.0927854;0.109761;-6.50274;1.34465e-05;-7.89867e-05;-4.22457e-05;6.93519e-05;-9.8151e-05;8.37515e-05;0.318294;3.14175;9.71831e-05;0.000111669;0.706583;1.41526;10.0998;55.0998;0.00030424;1.28462e-05;0.000940562;-0.00109859;-4.26849e-05;-0.00431827;0.00143245;0;0.0270739;-0.000817703;2.70286
78000;79;25.7568;-0.00137915;-5.35424e-05;-2.09973;25.6587;0.795204;-0.0073252;-0.000674042;-0.0411655;-0.0425011;0.0208506;-0.0601617;0.076554;-7.26714;0.000145454;0.000326701;-0.000263257;0.000326449;-0.000444252;0.00038535;0.552518;1.8099;0.000446694;0.000513801;0.734829;1.36086;79.2647;124.265;-0.000260487;0.000145508;0.000642433;1.08406e-05;-0.00026341;-0.0020953;0.00114404;0;0.0201507;-0.0554266;0.0231591;-0.0993072;0.116062;-6.50926;4.21552e-05;-2.45106e-05;-0.000289497;4.39569e-05;-0.000291299;0.000167628;0.145615;6.86741;0.000210388;0.000223504;0.1509;6.62692;44.6363;89.6363;0.000750365;4.17151e-05;0.000889167;-0.000938491;-0.000289892;-0.00487149;0.00176162;0;0.0199667;-0.000346501;2.7102
79000;80;25.7573;-0.000823522;-3.19713e-05;-2.10097;25.6592;0.79518;-0.00856418;-0.00021696;-0.0411896;-0.0429646;0.0189984;-0.0517901;0.0699222;-7.25877;0.000117471;-2.82604e-06;-0.000184525;0.000117497;-0.000184551;0.000151024;0.63661;1.57082;0.000175814;0.000201366;0.636662;1.57069;46.5959;91.5959;-0.000592836;0.000117369;0.000445413;-0.000451201;-0.000184624;-0.00231604;0.00108136;0;0.0263918;-0.056382;0.0212325;-0.0935413;0.111264;-6.5035;1.15402e-05;-7.52168e-06;-0.000206812;1.1799e-05;-0.000207071;0.000109435;0.0558006;17.9209;0.000142143;0.000145913;0.0569807;17.5498;45.4866;90.4866;0.000227254;1.08954e-05;0.00112039;-0.00113568;-0.000207439;-0.00307915;0.00138847;0;0.0218677;-0.000366789;2.7178
80000;81;25.7604;0.00228492;8.87067e-05;-2.10064;25.6622;0.798485;-0.00823716;0.00282751;-0.0378843;-0.0450852;0.020502;-0.0633311;0.080398;-7.27031;0.000133561;0.000372418;-0.000291316;0.000349871;-0.000507626;0.000428749;0.458475;2.18115;0.000497861;0.000571665;0.689229;1.4509;79.6298;124.63;-0.00052069;0.000133622;0.000871682;-0.000127058;-0.000291627;-0.00203188;0.000606024;0;0.0284677;-0.0586865;0.0216574;-0.103674;0.121084;-6.51363;6.78016e-05;8.23557e-05;-0.000215535;9.00002e-05;-0.000237734;0.000163867;0.314573;3.17891;0.00019552;0.000218489;0.378575;2.64148;63.2962;108.296;0.000974213;6.76413e-05;0.000736593;-0.000572067;-0.000215803;-0.00457812;0.00198748;0;0.0250424;9.71019e-05;2.72484
81000;82;25.7623;0.00411565;0.000159781;-2.09988;25.6639;0.805464;-0.00748033;0.00450912;-0.0309061;-0.0475682;0.0210015;-0.0749275;0.0912026;-7.28191;0.00015532;0.000326176;6.61685e-05;0.000439952;-0.000218463;0.000329208;-2.34735;-0.426013;0.000387239;0.000438944;2.01385;0.496561;77.0398;122.04;-0.00126299;0.000155373;0.000664429;-1.2107e-05;6.6001e-05;8.58136e-05;0.000750377;0;0.0239711;-0.0608318;0.020842;-0.110667;0.127993;-6.52062;5.0198e-05;-2.75578e-05;-0.000266295;5.25796e-05;-0.000268677;0.000160628;0.188505;5.3049;0.000198974;0.000214171;0.195698;5.10991;43.8385;88.8385;0.000701925;4.98458e-05;0.000784339;-0.000839712;-0.000266602;-0.00324181;0.00212258;0;0.0213762;0.000295599;2.73208
82000;83;25.7605;0.00237609;9.2246e-05;-2.10048;25.6623;0.798589;-0.00808119;0.00292855;-0.0377801;-0.0480173;0.0181444;-0.0669299;0.0843475;-7.27391;4.61657e-05;2.89907e-05;0.000234404;0.000238767;4.1802e-05;9.84827e-05;-0.196949;-5.07744;0.000147236;0.00013131;-5.71187;-0.175074;119.011;164.011;-0.00119831;4.60409e-05;0.000558427;-0.000500346;0.000234248;-7.22218e-05;0.000949759;0;0.0178477;-0.0618031;0.019098;-0.106918;0.124963;-6.51687;2.13817e-05;-6.16655e-05;-0.000257698;3.44e-05;-0.000270717;0.000152558;0.0829718;12.0523;0.000192969;0.000203411;0.12707;7.86967;36.693;81.693;0.000526561;2.08936e-05;0.000866406;-0.000989996;-0.000258072;-0.00211928;0.0030774;0;0.0208774;0.000363044;2.73956
83000;84;25.761;0.00281321;0.000109216;-2.10025;25.6626;0.805813;-0.00784832;0.0031606;-0.0305564;-0.05011;0.0183982;-0.0735959;0.0909168;-7.28058;0.000246695;0.000295839;-3.09647e-05;0.000434659;-0.000218929;0.000326794;7.96697;0.125518;0.00038414;0.000435725;1.98539;0.50368;70.6651;115.665;-0.000896409;0.000246727;0.000744492;-0.00015294;-3.11981e-05;-0.00143032;0.000844702;0;0.0148979;-0.0640682;0.018551;-0.111105;0.129589;-6.52106;8.13792e-07;-9.87098e-05;-0.000348478;2.6779e-05;-0.000374443;0.000200611;;;0.000259017;0.000267481;0.071517;13.9827;35.8249;80.8249;0.000654397;3.37757e-07;0.000782994;-0.000980721;-0.000348779;-0.0027204;0.00233221;0;0.0185909;0.000483495;2.74703
84000;85;25.7616;0.00350243;0.000135974;-2.09953;25.6633;0.804462;-0.00713253;0.0039534;-0.0319071;-0.0506385;0.0172819;-0.0746772;0.0918674;-7.28166;0.00018141;0.000278736;0.000216394;0.000478186;-8.03818e-05;0.000279284;-0.838332;-1.19284;0.000348687;0.000372379;5.94893;0.168097;79.353;124.353;-0.000770374;0.000181438;0.000707819;-0.000150333;0.000216183;-0.00134764;0.00209224;0;0.0224915;-0.0646055;0.0173023;-0.114622;0.132708;-6.52458;-1.33433e-05;-5.97369e-05;-0.000303016;-1.50784e-06;-0.000314852;0.000156672;-0.044035;-22.7092;0.0002094;0.000208896;;;38.9086;83.9086;0.00100897;-1.37778e-05;0.000814325;-0.000934052;-0.000303346;-0.00231425;0.00303013;0;0.0220397;0.00053906;2.75365
85000;86;25.7614;0.00321417;0.000124783;-2.10108;25.663;0.803119;-0.00867906;0.00357955;-0.0332506;-0.0518418;0.015769;-0.0710718;0.0893725;-7.27805;0.000319528;0.000336299;-3.2868e-05;0.000522992;-0.000236331;0.000379662;9.72155;0.102864;0.000448688;0.000506216;2.21296;0.451884;65.2786;110.279;-0.00160369;0.000319585;0.000694956;-2.24845e-05;-3.3053e-05;0.000547813;0.00189766;0;0.0141609;-0.0664461;0.0160528;-0.111684;0.130943;-6.52164;-4.21894e-05;-2.12379e-05;-0.000341917;-4.0692e-05;-0.000343415;0.000151361;-0.12339;-8.10435;0.000216657;0.000201815;-0.118492;-8.43938;47.3479;92.3479;0.00109054;-4.25655e-05;0.000824845;-0.000867574;-0.000342258;-0.0015125;0.00277192;0;0.0190259;0.000584023;2.76052
86000;87;25.763;0.00488985;0.000189837;-2.1022;25.6644;0.809579;-0.0098012;0.00496679;-0.0267906;-0.053638;0.0152078;-0.0726656;0.0915893;-7.27965;0.00017249;3.51129e-05;0.000321917;0.000329756;0.00016465;8.2553e-05;-0.535822;-1.86629;0.000190385;0.000110071;-2.00277;-0.499309;108.584;153.584;-0.00196193;0.000172395;0.00050714;-0.000436844;0.000321789;0.000894422;0.000677293;0;0.0146399;-0.0685845;0.0147422;-0.11177;0.131961;-6.52173;-1.59972e-05;1.77969e-05;-0.000355034;-1.50655e-05;-0.000355965;0.00017045;-0.0450582;-22.1935;0.000232451;0.000227266;-0.042323;-23.6278;54.1329;99.1329;0.00112051;-1.63443e-05;0.000868645;-0.000833339;-0.000355411;-0.00159779;0.00173795;0;0.022123;0.000589872;2.76683
87000;88;25.7642;0.00607387;0.000235804;-2.10262;25.6655;0.809367;-0.0102199;0.00612775;-0.0270024;-0.0555653;0.0153437;-0.077504;0.096591;-7.28448;4.81539e-05;0.000212875;0.000576077;0.00065122;-2.69885e-05;0.000339104;-0.0835893;-11.9632;0.000443417;0.000452139;24.1295;0.041443;96.0449;141.045;-0.00186568;4.81617e-05;0.000598272;-0.000172318;0.000575921;0.000514944;-0.000566065;0;0.0202903;-0.0710186;0.014375;-0.117058;0.13767;-6.52701;2.43843e-05;8.08577e-06;-0.000332593;2.45674e-05;-0.000332776;0.000178672;0.0733158;13.6396;0.000230477;0.000238229;0.0738256;13.5454;50.4737;95.4737;0.000720325;2.3846e-05;0.00105349;-0.00103769;-0.000333148;0.000105368;0.0021893;0;0.0261298;0.000663349;2.77137
88000;89;25.7629;0.0047828;0.000185681;-2.10322;25.6643;0.806872;-0.0108205;0.00486107;-0.0294974;-0.0559277;0.0176532;-0.085076;0.103332;-7.29206;0.000171463;4.91914e-05;0.000709831;0.000714289;0.000167005;0.000273642;-0.241554;-4.13985;0.000431437;0.000364856;-4.27705;-0.233806;107.269;152.269;-0.00148893;0.000171388;0.000488615;-0.000389996;0.000709713;0.00081905;0.00103195;0;0.0170017;-0.0718196;0.0164301;-0.124767;0.144896;-6.53472;4.58604e-06;-3.88668e-05;-0.000291015;9.61098e-06;-0.00029604;0.000152825;;;0.00020064;0.000203767;;;41.3002;86.3002;0.000531715;3.92917e-06;0.00106878;-0.00114684;-0.000291585;0.0002803;0.00184726;0;0.0214084;0.000635201;2.77648
89000;90;25.7622;0.00403112;0.000156499;-2.10371;25.6636;0.801779;-0.0113091;0.00422607;-0.0345904;-0.0565984;0.0142317;-0.0813776;0.100141;-7.28836;0.000135694;0.000195161;0.000625399;0.000693661;6.74327e-05;0.000313114;-0.216972;-4.60888;0.000441682;0.000417486;-10.2867;-0.0972127;93.4426;138.443;-0.00178355;0.000135695;0.000581941;-0.00019143;0.000625249;0.000630641;0.000637927;0;0.0164702;-0.0727206;0.013554;-0.123417;0.143888;-6.53337;3.5644e-05;-4.71799e-05;-0.000373034;4.102e-05;-0.00037841;0.000209715;0.0955516;10.4656;0.000266999;0.00027962;0.108401;9.22502;42.7603;87.7603;0.000492419;3.4962e-05;0.00107403;-0.00116885;-0.00037361;0.00080252;0.00317315;0;0.0226156;0.000860019;2.78365
90000;91;25.7613;0.00317487;0.000123257;-2.10445;25.6627;0.800402;-0.0120513;0.00334866;-0.0359672;-0.0612579;0.0116737;-0.0771957;0.099237;-7.28418;0.000297478;-3.07889e-05;0.000446284;0.000452403;0.000291359;8.05218e-05;-0.666566;-1.50023;0.000264782;0.000107362;-1.55273;-0.644026;121.108;166.108;-0.0017573;0.00029742;0.000278527;-0.000340059;0.000446246;-0.000626323;0.00129411;0;0.0221567;-0.0777929;0.0117592;-0.121101;0.144414;-6.53106;6.42557e-05;-7.0054e-05;-0.000291104;7.75672e-05;-0.000304416;0.000190991;0.220731;4.5304;0.000233141;0.000254655;0.254807;3.92454;37.0499;82.0499;-0.000166611;6.35182e-05;0.00107605;-0.00121657;-0.000291681;0.00155512;0.00134759;0;0.0266689;0.000973341;2.79081
91000;92;25.7636;0.00547344;0.000212494;-2.10671;25.6648;0.801244;-0.0143074;0.00544471;-0.0351259;-0.0598023;0.0144135;-0.0921713;0.110813;-7.29915;0.00022875;-0.000250013;0.000542592;0.000680849;9.04924e-05;0.000295179;-0.421588;-2.37198;0.000426944;0.000393571;-7.52383;-0.132911;143.079;8.07868;-0.00231213;0.000228549;0.000182767;-0.000682656;0.000542606;0.00165496;0.000448574;0;0.0140332;-0.0780572;0.0124832;-0.134334;0.155866;-6.54429;0.000126933;-2.97756e-05;-0.000300332;0.000128998;-0.000302397;0.000215698;0.422643;2.36606;0.000255685;0.000287597;0.426586;2.34419;43.3473;88.3473;-7.13913e-05;0.000126336;0.00103364;-0.00109365;-0.000300866;0.00193998;0.00379496;0;0.0201958;0.00133177;2.79823
92000;93;25.7624;0.00425027;0.000165007;-2.1078;25.6637;0.794626;-0.0153934;0.00433343;-0.041744;-0.0632324;0.0158567;-0.0942954;0.114636;-7.30128;0.000127125;-0.000156984;0.00064591;0.000689714;8.33209e-05;0.000303197;-0.196816;-5.08089;0.000434706;0.000404262;-8.27781;-0.120805;127.261;172.261;-0.0022645;0.000127002;0.000208047;-0.000521825;0.000645901;0.00110286;-9.9451e-05;0;0.0320185;-0.0819908;0.0143231;-0.140978;0.163715;-6.55093;0.000253225;4.06997e-05;-0.000335294;0.000256026;-0.000338095;0.000297061;0.755233;1.32409;0.000344105;0.000396081;0.757261;1.32055;49.9736;94.9736;-8.35997e-05;0.000252647;0.00115708;-0.00107634;-0.000335963;0.00275378;0.00176828;0;0.0275229;0.00186749;2.80581
93000;94;25.7627;0.00454408;0.000176413;-2.1082;25.6639;0.796329;-0.0157938;0.00454269;-0.0400405;-0.0635885;0.0151186;-0.092959;0.113637;-7.29994;0.000301042;1.43259e-06;0.00102434;0.00102434;0.000301039;0.00036165;-0.29389;-3.40264;0.000607921;0.0004822;-3.40268;-0.293886;105.14;150.14;-0.00219876;0.000300966;0.000392336;-0.000389189;0.00102426;0.00106527;0.000382529;0;0.0339026;-0.0830223;0.0134697;-0.139909;0.163244;-6.54986;0.000180674;-2.86447e-05;-0.000269164;0.000182491;-0.000270981;0.000226736;0.67124;1.48978;0.000263468;0.000302314;0.673444;1.48491;42.3163;87.3163;-0.000780963;0.000179772;0.00128536;-0.00134324;-0.00026999;0.00420497;0.0019316;0;0.0248448;0.00239554;2.81289
94000;95;25.761;0.0028518;0.000110714;-2.10948;25.6623;0.790969;-0.0170769;0.00290423;-0.045401;-0.0657396;0.0127736;-0.0908705;0.112882;-7.29785;0.000297305;-0.00019992;0.000882091;0.000943904;0.000235492;0.000354206;-0.337046;-2.96696;0.000567305;0.000472274;-4.00822;-0.249487;124.125;169.125;-0.00206743;0.000297147;0.000196567;-0.000596176;0.000882092;0.000820167;0.00081864;0;0.0188608;-0.086201;0.0124092;-0.14282;0.167279;-6.55278;0.000144225;4.30626e-05;-0.000241359;0.000148976;-0.000246109;0.000197543;0.597557;1.67348;0.000230389;0.00026339;0.605325;1.652;52.2055;97.2055;-0.000840076;0.000143175;0.00153602;-0.00145047;-0.000242538;0.003521;0.00177416;0;0.022814;0.00259002;2.82047
95000;96;25.7596;0.00148897;5.78058e-05;-2.11127;25.661;0.784517;-0.0188727;0.00158653;-0.0518529;-0.0685581;0.0119096;-0.0929509;0.116112;-7.29993;0.000310449;6.04004e-05;0.000456361;0.000478119;0.00028869;9.47144e-05;-0.680269;-1.47001;0.000278018;0.000126286;-1.65617;-0.603804;91.6296;136.63;-0.00187636;0.000310407;0.00041666;-0.000295808;0.000456276;0.000756376;0.00206808;0;0.023433;-0.0905426;0.0121824;-0.148833;0.174636;-6.55879;0.000137802;-8.66522e-05;-0.000142523;0.000162425;-0.000167145;0.000164785;0.966879;1.03426;0.000190284;0.000219713;0.971758;1.02906;29.1746;74.1746;-0.000175781;0.000136938;0.00114385;-0.0013175;-0.000143173;0.00103951;0.00178398;0;0.0314265;0.00313927;2.82764
96000;97;25.7576;-0.000538662;-2.09123e-05;-2.11251;25.6591;0.775278;-0.0201121;-0.000270109;-0.0610912;-0.0705807;0.012751;-0.0964441;0.12019;-7.30342;0.000217664;-0.000173261;0.000977802;0.00101543;0.000180035;0.000417698;-0.222606;-4.49225;0.000625637;0.000556931;-5.64018;-0.177299;122.526;167.526;-0.00277829;0.000217445;0.000338673;-0.000684806;0.00097776;0.00220368;0.00118567;0;0.019412;-0.094008;0.0146678;-0.158975;0.185272;-6.56893;0.000143559;-5.79842e-05;-0.000141642;0.000154897;-0.00015298;0.000153938;1.01354;0.986645;0.000177754;0.000205251;1.01253;0.987623;33.8963;78.8963;-0.000787734;0.000142706;0.00119101;-0.00130733;-0.000142349;0.00258996;0.00191288;0;0.0253387;0.00379837;2.83393
97000;98;25.7547;-0.00348717;-0.000135381;-2.11225;25.6565;0.766372;-0.0198492;-0.00294072;-0.0699973;-0.072606;0.0128452;-0.0989831;0.123427;-7.30596;0.000290935;-0.000231626;0.000501613;0.000650728;0.00014182;0.000254454;-0.579999;-1.72414;0.000395122;0.000339272;-4.5884;-0.217941;146.517;11.517;-0.00225436;0.000290742;0.000200987;-0.000664147;0.00050162;3.63245e-05;0.000604809;0;0.0162058;-0.0968737;0.0151891;-0.166539;0.193263;-6.57649;0.000112273;-7.20317e-05;-0.00014622;0.000130991;-0.000164937;0.000147964;0.76784;1.30235;0.000171228;0.000197285;0.794185;1.25915;30.8461;75.8461;-1.50605e-05;0.000111547;0.00106312;-0.00120748;-0.000146782;-0.000266943;0.00263656;0;0.0191626;0.00403269;2.84105
98000;99;25.7555;-0.0026026;-0.00010104;-2.11307;25.6572;0.767412;-0.020673;-0.00215166;-0.0689581;-0.0741738;0.00962866;-0.0925026;0.118959;-7.29948;0.000283477;-0.000292178;0.000708996;0.00085767;0.000134802;0.000361434;-0.399828;-2.50107;0.000532564;0.000481912;-6.36245;-0.157172;138.1;3.10037;-0.00239293;0.000283243;0.000159178;-0.000743342;0.000709026;0.00151501;0.000498044;0;0.0166337;-0.0990378;0.0127619;-0.163174;0.191303;-6.57313;-8.9796e-05;-0.000131983;-0.000144298;1.77199e-05;-0.000251814;0.000134767;-0.622294;-1.60696;0.000174084;0.000179689;0.0703689;14.2108;8.99221;53.9922;-0.000574031;-9.04883e-05;0.000919984;-0.00118401;-0.000144713;0.0013244;0.00326319;0;0.0188908;0.00405627;2.84336
99000;100;25.7552;-0.00293329;-0.000113878;-2.11267;25.657;0.764294;-0.0202657;-0.00235701;-0.0720757;-0.0775628;0.0080253;-0.092414;0.120916;-7.29939;0.00024264;-0.00029396;0.000892113;0.0010054;0.000129351;0.000438026;-0.271983;-3.6767;0.000631582;0.000584034;-7.77269;-0.128656;134.535;179.535;-0.00202488;0.000242277;0.000313475;-0.000901002;0.000892107;0.00100429;0.00229436;0;0.0182712;-0.102837;0.0119606;-0.166025;0.19566;-6.57598;-0.000100994;-0.000162063;-0.000192227;2.17499e-05;-0.000314971;0.000168361;-0.525389;-1.90335;0.000217593;0.000224481;0.0690535;14.4815;12.0764;57.0764;-0.000218669;-0.00010164;0.000823471;-0.00114769;-0.000192553;-0.000240159;0.00277654;0;0.0224471;0.00432184;2.84912
100000;101;25.7533;-0.00488842;-0.000189782;-2.11307;25.6553;0.756481;-0.0206661;-0.00412104;-0.0798883;-0.0799917;0.00720585;-0.0927668;0.122704;-7.29975;0.000324466;-0.000234438;0.000658494;0.000779325;0.000203635;0.000287845;-0.49274;-2.02947;0.000466723;0.000383794;-3.82707;-0.261297;142.813;7.81303;-0.00215331;0.000324138;0.00037512;-0.000843793;0.000658451;-0.000829388;0.000931818;0;0.0248905;-0.105567;0.0112733;-0.169668;0.200146;-6.57962;-5.23307e-05;-0.000189192;-0.000125042;0.000103967;-0.000281339;0.000192653;-0.418505;-2.38946;0.00023018;0.000256871;0.369542;2.70605;8.14322;53.1432;3.21165e-05;-5.29413e-05;0.000742754;-0.0011212;-0.0001253;-0.000828416;0.00397279;0;0.0292082;0.0042915;2.85549
101000;102;25.7537;-0.00447449;-0.000173712;-2.11308;25.6557;0.754444;-0.0206796;-0.00364664;-0.0819259;-0.082462;0.00724561;-0.0923377;0.124011;-7.29932;0.000470469;-0.00019419;0.000204838;0.000572919;0.000102388;0.000235265;-2.29678;-0.435391;0.000352804;0.000313687;-5.59557;-0.178713;1.55961;46.5596;-0.00183629;0.000470206;0.000362599;-0.000751127;0.000204791;-0.00170291;0.00236339;0;0.0202896;-0.108134;0.0115703;-0.172848;0.204214;-6.5828;-0.000168773;-0.000229428;-0.000121634;8.54314e-05;-0.000375839;0.000230635;-1.38755;-0.720697;0.000283362;0.000307513;0.227309;4.39931;1.54834;46.5483;-0.000301219;-0.000169405;0.000688501;-0.00114731;-0.000121845;0.000748045;0.00236538;0;0.0243165;0.00434451;2.86325
102000;103;25.7552;-0.00290645;-0.000112836;-2.11412;25.6573;0.751315;-0.0217198;-0.0020665;-0.0850546;-0.0833995;0.00693124;-0.097251;0.128302;-7.30423;0.000411403;-0.000102801;0.000234601;0.000458585;0.000187419;0.000135583;-1.75363;-0.570247;0.000266231;0.000180777;-2.44684;-0.40869;7.34702;52.347;-0.00183417;0.000411115;0.000560086;-0.000765805;0.000234449;-0.000601861;0.00257282;0;0.0192486;-0.109885;0.00984537;-0.177974;0.209395;-6.58793;-0.000132206;-0.000301928;-8.8568e-05;0.000192329;-0.000413103;0.000302716;-1.49271;-0.669922;0.000357209;0.000403621;0.465571;2.1479;1.07446;46.0745;-0.000287437;-0.000133006;0.000696177;-0.00129999;-8.87648e-05;-0.000152475;0.00301229;0;0.0305601;0.00436242;2.87006
103000;104;25.7546;-0.00353084;-0.000137077;-2.11431;25.6568;0.747331;-0.0219052;-0.00259219;-0.0890388;-0.0865348;0.00553506;-0.0963965;0.129658;-7.30338;0.000144825;-0.000184226;-0.000129376;0.000237367;-0.000221919;0.000229643;1.11941;0.893329;0.000265219;0.00030619;1.06961;0.934917;18.0435;63.0435;-0.00197193;0.000144347;0.000625664;-0.000994338;-0.000129555;-0.000545542;0.00341793;0;0.0140875;-0.113077;0.00956257;-0.180266;0.213011;-6.59022;-3.48297e-05;-0.000194782;-0.000293415;6.96653e-05;-0.00039791;0.000233788;-0.118704;-8.42429;0.000291286;0.000311717;0.175078;5.71174;20.6356;65.6356;-0.000528666;-3.57962e-05;0.00101402;-0.0014039;-0.000293911;0.000189038;0.00399349;0;0.0198726;0.00451595;2.87757
104000;105;25.7547;-0.00342854;-0.000133105;-2.11443;25.6569;0.746994;-0.0220308;-0.00249004;-0.0893755;-0.0888799;0.00715511;-0.0979133;0.132431;-7.30489;0.000505415;-0.000110089;-0.000173253;0.000522827;-0.000190664;0.000356745;2.91721;0.342794;0.000426555;0.000475661;2.74213;0.36468;30.5233;75.5233;-0.00206476;0.000504953;0.000747751;-0.000968511;-0.000173527;-0.00092706;0.00194229;0;0.0212189;-0.115758;0.0109737;-0.18322;0.217002;-6.59318;2.43949e-05;-0.000239058;-0.000311109;0.000148686;-0.000435401;0.000292043;0.0784126;12.753;0.000350504;0.000389391;0.341493;2.92832;20.8303;65.8303;-0.000633062;2.33414e-05;0.00099256;-0.00147109;-0.000311573;0.000273951;0.00388511;0;0.0263088;0.00491258;2.88485
105000;106;25.7548;-0.00338983;-0.000131602;-2.11465;25.657;0.74289;-0.0222522;-0.00235027;-0.0934795;-0.0919124;0.0065807;-0.101056;0.13676;-7.30804;0.000556805;5.65347e-05;-0.000752521;0.000559241;-0.000754957;0.000657099;0.73992;1.3515;0.000761552;0.000876132;0.740759;1.34997;50.6566;95.6566;-0.00234897;0.000556474;0.000927995;-0.000816067;-0.00075295;0.000196341;0.0043062;0;0.018675;-0.119189;0.00989779;-0.187554;0.222442;-6.59751;0.000114726;-0.000257076;-0.000431469;0.000216689;-0.000533432;0.000375061;0.265897;3.76086;0.000445767;0.000500081;0.406217;2.46174;26.9382;71.9382;-0.000942028;0.000113613;0.00099939;-0.00151423;-0.000431936;0.000363687;0.00314769;0;0.0230108;0.00491295;2.89263
106000;107;25.7561;-0.00205625;-7.98291e-05;-2.11534;25.6583;0.742361;-0.0229375;-0.00105279;-0.0940085;-0.0947685;0.00686899;-0.103528;0.140521;-7.31051;0.000399444;0.000236953;-0.00124732;0.000432861;-0.00128073;0.000856798;0.320242;3.12264;0.00102892;0.0011424;0.337978;2.95877;65.5811;110.581;-0.00189397;0.000399249;0.00113966;-0.000667241;-0.00124794;-0.00138134;0.00493476;0;0.0158189;-0.122388;0.00984747;-0.191852;0.227778;-6.60181;0.000107681;-0.00034018;-0.00039601;0.000279095;-0.000567424;0.000423259;0.271914;3.67763;0.000498098;0.000564346;0.491862;2.03309;21.026;66.026;-0.00113206;0.00010609;0.00113481;-0.00181592;-0.000396597;0.00120509;0.00330399;0;0.0196239;0.00588441;2.8992
107000;108;25.7572;-0.000921746;-3.57847e-05;-2.11557;25.6594;0.743676;-0.0231691;2.88654e-05;-0.0926937;-0.0968938;0.00890583;-0.109969;0.146836;-7.31695;0.000371532;0.000298907;-0.00137554;0.000421257;-0.00142526;0.00092326;0.2701;3.70234;0.00111738;0.00123101;0.295564;3.38336;68.5623;113.562;-0.0024311;0.000371375;0.00123168;-0.000635503;-0.00137625;-0.000592833;0.00482951;0;0.023031;-0.125146;0.0107914;-0.198481;0.234889;-6.60844;6.10249e-05;-0.000263053;-0.000477512;0.000168191;-0.000584677;0.000376434;0.127798;7.82487;0.0004563;0.000501912;0.287664;3.47628;26.5545;71.5545;-0.00140123;5.93517e-05;0.00132123;-0.00184818;-0.00047835;0.000846238;0.00338928;0;0.024544;0.0064481;2.906
108000;109;25.757;-0.00110705;-4.29786e-05;-2.11578;25.6594;0.737316;-0.0233814;8.89518e-06;-0.0990538;-0.101549;0.00891082;-0.112736;0.15199;-7.31972;0.000354181;0.000251573;-0.00132202;0.000391125;-0.00135896;0.000875042;0.26791;3.73259;0.00106066;0.00116672;0.287812;3.47449;67.0137;112.014;-0.00201772;0.000353979;0.0011863;-0.000684718;-0.00132269;-0.000818044;0.00463913;0;0.0170552;-0.130145;0.00998713;-0.201694;0.240245;-6.61165;8.09167e-05;-0.00034012;-0.000515196;0.000235099;-0.000669378;0.000452238;0.15706;6.36699;0.000541893;0.000602984;0.351219;2.84722;24.3892;69.3892;-0.00121664;7.90369e-05;0.00128743;-0.00196864;-0.000515967;0.000297979;0.00302415;0;0.0187724;0.00675517;2.90986
109000;110;25.759;0.000852238;3.30862e-05;-2.11796;25.6612;0.737351;-0.0255536;0.00179543;-0.0990183;-0.100638;0.00907078;-0.114337;0.152589;-7.32132;0.000368545;0.000180049;-0.00079836;0.000395695;-0.00082551;0.000610602;0.461628;2.16625;0.000719472;0.000814136;0.479334;2.08623;59.6896;104.69;-0.00245937;0.000368234;0.00116853;-0.000809584;-0.000799027;-0.00044074;0.00610495;0;0.0215997;-0.130186;0.00952413;-0.205926;0.243812;-6.61588;8.82666e-05;-0.000330367;-0.000521334;0.000232961;-0.000666028;0.000449495;0.169309;5.90635;0.000538733;0.000599326;0.349777;2.85896;25.0327;70.0327;-0.00122328;8.63337e-05;0.00133204;-0.00199379;-0.000522167;9.64332e-05;0.00157133;0;0.0181482;0.00763305;2.91458
110000;111;25.7562;-0.00193887;-7.52721e-05;-2.11968;25.6585;0.729924;-0.0272825;-0.000936742;-0.106445;-0.102377;0.00899436;-0.111259;0.151461;-7.31824;0.000395552;0.000407478;-0.00120525;0.000493305;-0.001303;0.000898153;0.328192;3.047;0.00107164;0.00119754;0.378592;2.64137;70.4858;115.486;-0.00258971;0.000395509;0.00131513;-0.000501628;-0.00120603;-0.000386215;0.00504524;0;0.0410639;-0.133699;0.0109606;-0.210829;0.249889;-6.62078;-2.24017e-05;-0.000149901;-0.000410061;2.87999e-05;-0.000461263;0.000245031;-0.0546302;-18.3049;0.000317544;0.000326708;0.0624371;16.0161;29.9643;74.9643;-0.00117592;-2.39237e-05;0.00145065;-0.00175108;-0.000411103;-0.00081377;0.00246178;0;0.0328705;0.0079138;2.92211
111000;112;25.7582;7.04289e-05;2.73424e-06;-2.12071;25.6603;0.732077;-0.0283092;0.000934073;-0.104293;-0.106623;0.00844294;-0.119889;0.160664;-7.32687;0.000425759;0.000236821;-0.000591331;0.000478197;-0.00064377;0.000560984;0.72;1.38889;0.000650115;0.000747978;0.742808;1.34624;59.9819;104.982;-0.00345054;0.000425538;0.00117873;-0.000706048;-0.000591999;0.00201131;0.00425064;0;0.0152419;-0.139052;0.0108233;-0.222853;0.262899;-6.63281;8.41652e-05;-0.000165659;-0.000439385;0.000132179;-0.000487399;0.000309789;0.191552;5.22051;0.000376801;0.000413052;0.271192;3.68742;31.4592;76.4592;-0.00115559;8.20148e-05;0.00174823;-0.00208055;-0.0004409;-0.00150086;0.00282378;0;0.018034;0.00801908;2.92814
112000;113;25.7618;0.00370135;0.000143696;-2.12183;25.6637;0.739115;-0.0294299;0.00428448;-0.0972548;-0.110292;0.00877714;-0.124068;0.166236;-7.33105;0.000493469;-9.75521e-06;-0.000392731;0.000493577;-0.000392838;0.000443208;1.25651;0.795857;0.000512872;0.000590943;1.25644;0.795901;42.5857;87.5857;-0.00272431;0.000493131;0.00080316;-0.000823391;-0.000393054;0.000798782;0.00331843;0;0.0189354;-0.144127;0.00924191;-0.22791;0.269816;-6.63787;0.000114842;-3.18635e-05;-0.000433055;0.000116689;-0.000434901;0.000275795;0.265192;3.77086;0.000335661;0.000367727;0.268312;3.72701;44.2713;89.2713;-0.00133343;0.000113274;0.00170678;-0.00177146;-0.000434511;-0.00177429;0.00129367;0;0.0164731;0.00820515;2.93587
113000;114;25.764;0.00585416;0.000227274;-2.12339;25.6656;0.741379;-0.0309861;0.00625153;-0.0949909;-0.112333;0.0092551;-0.120842;0.165249;-7.32782;0.000378118;0.000100335;-0.000296841;0.000392717;-0.00031144;0.000352078;1.27381;0.785048;0.000407447;0.000469438;1.26097;0.793039;51.7646;96.7646;-0.00301386;0.000377896;0.000873899;-0.000673751;-0.000297217;0.00185554;0.00528769;0;0.0258789;-0.147725;0.00894146;-0.225254;0.269522;-6.63521;6.72624e-05;-0.00010348;-0.000316498;9.33873e-05;-0.000342623;0.000218005;0.212521;4.70542;0.000265085;0.000290673;0.272566;3.66884;32.7492;77.7492;-0.00107694;6.5392e-05;0.00172931;-0.00193697;-0.000317988;-0.00156515;0.00104955;0;0.0161542;0.00829745;2.94406
114000;115;25.7639;0.00573413;0.000222614;-2.12543;25.6653;0.74457;-0.0330278;0.00586964;-0.0917993;-0.11538;0.00973361;-0.125082;0.170448;-7.33206;0.000556359;0.000146021;-0.000110417;0.000586935;-0.000140993;0.000363964;5.03869;0.198464;0.000445783;0.000485286;4.16285;0.24022;48.7763;93.7763;-0.00353185;0.000556173;0.000919449;-0.000627922;-0.000110829;0.00261598;0.00422051;0;0.0259263;-0.15248;0.00945346;-0.229099;0.275365;-6.63905;-2.41574e-07;-0.000102099;-0.000413979;2.35819e-05;-0.000437802;0.000230692;;;0.000300038;0.000307589;0.0538644;18.5651;34.873;79.873;-0.0016442;-2.33726e-06;0.00184482;-0.00204983;-0.000415676;-0.0019582;-0.000874839;0;0.0189615;0.00838921;2.9511
115000;116;25.7666;0.00842191;0.000326961;-2.12634;25.6678;0.746707;-0.0339426;0.00842992;-0.0896624;-0.117867;0.00946567;-0.12991;0.175667;-7.33689;0.000332092;-0.000215213;-6.34779e-05;0.0004266;-0.000157986;0.000292293;5.23161;0.191146;0.000349186;0.000389724;2.70023;0.370338;17.1312;62.1312;-0.00325876;0.000331469;0.00070588;-0.00113667;-6.37039e-05;0.0019082;0.00420635;0;0.0194659;-0.156364;0.007402;-0.232506;0.280292;-6.64246;-7.12084e-05;0.000101262;-0.000610536;-5.28226e-05;-0.000628922;0.000288049;-0.116633;-8.57393;0.00040283;0.000384066;-0.0839891;-11.9063;60.2446;105.245;-0.00191433;-7.28951e-05;0.00204091;-0.00183944;-0.000612615;-0.000648735;-0.00286019;0;0.0191746;0.00850363;2.95752
116000;117;25.7654;0.00729947;0.000283385;-2.12769;25.6666;0.744807;-0.0352847;0.00724715;-0.091563;-0.120515;0.00928213;-0.13204;0.179009;-7.33902;0.00036191;-0.000274427;0.000131863;0.000544444;-5.06712e-05;0.000297557;-2.74459;-0.364353;0.000380978;0.000396743;10.7446;0.0930696;3.87573;48.8757;-0.00348702;0.00036123;0.000649383;-0.00119845;0.00013169;0.00324399;0.00387487;0;0.0156128;-0.160441;0.00624975;-0.235521;0.285045;-6.64548;-5.46483e-05;-1.4546e-05;-0.000540057;-5.42128e-05;-0.000540492;0.00024314;-0.10119;-9.8824;0.000343685;0.000324186;-0.100303;-9.96982;48.2901;93.2901;-0.00229166;-5.60783e-05;0.00166122;-0.00169113;-0.000541437;-0.000443298;-0.00233098;0;0.0215742;0.00883007;2.96479
117000;118;25.7682;0.0100885;0.000391663;-2.12937;25.6693;0.745767;-0.0369662;0.00987962;-0.0906025;-0.122997;0.00813689;-0.132422;0.180914;-7.3394;0.000539744;-9.1787e-05;0.000168125;0.000561179;0.00014669;0.000207244;-3.21038;-0.311489;0.000336069;0.000276326;-3.8256;-0.261397;22.0833;67.0833;-0.00347726;0.000539154;0.000906789;-0.00109073;0.000167718;0.00246791;0.00402043;0;0.0153184;-0.164648;0.00415182;-0.234707;0.28673;-6.64466;2.24812e-05;-7.09852e-05;-0.000619177;3.02403e-05;-0.000626936;0.000328588;0.0363082;27.542;0.000428394;0.000438118;0.0482351;20.7318;43.5717;88.5717;-0.00235277;2.08234e-05;0.00167921;-0.0018223;-0.000620586;-0.000796726;-0.0019016;0;0.0212815;0.0094347;2.97159
118000;119;25.7668;0.00865035;0.00033583;-2.12981;25.668;0.738469;-0.0374104;0.00861005;-0.0979006;-0.125715;0.00780493;-0.133458;0.183511;-7.34044;0.000455792;-8.9554e-05;0.000368511;0.000511773;0.00031253;9.96215e-05;-1.23685;-0.808506;0.000297876;0.000132829;-1.63752;-0.610681;1.81595;46.816;-0.00352925;0.000455198;0.000914545;-0.00109374;0.000368097;0.00260689;0.00409395;0;0.0217154;-0.168738;0.00314823;-0.236637;0.290653;-6.64659;0.000102281;-6.56414e-05;-0.000490347;0.000109465;-0.00049753;0.000303497;0.20859;4.7941;0.00037356;0.000404663;0.220017;4.54511;41.9024;86.9024;-0.00167502;0.000100644;0.00167845;-0.00181077;-0.000491754;-0.000975054;0.000271209;0;0.0225327;0.0096926;2.97628
119000;120;25.7646;0.00643209;0.000249711;-2.13064;25.666;0.727855;-0.0382411;0.00661749;-0.108514;-0.128912;0.00793247;-0.135005;0.186836;-7.34199;0.000388508;-7.09128e-05;0.000521418;0.000552148;0.000357778;9.7185e-05;-0.745098;-1.34211;0.000323403;0.00012958;-1.54327;-0.647975;147.141;12.1408;-0.0037097;0.00038783;0.00102532;-0.001167;0.000520895;0.00239892;0.00461769;0;0.0200713;-0.172971;0.0032327;-0.24132;0.296925;-6.65128;0.000215483;-0.000128157;-0.000677275;0.000233516;-0.000695308;0.000464412;0.318162;3.14305;0.000557912;0.000619216;0.335845;2.97756;40.652;85.652;-0.00174543;0.000213662;0.00165497;-0.00191288;-0.000678637;0.000319993;0.000285573;0;0.0229918;0.010752;2.98272
120000;121;25.7651;0.0069697;0.000270582;-2.13292;25.6665;0.723957;-0.0405135;0.00707867;-0.112412;-0.132486;0.00720556;-0.136647;0.190465;-7.34363;0.000303846;1.1026e-05;0.000417969;0.000419025;0.00030279;5.81173e-05;-0.726957;-1.3756;0.000249788;7.74898e-05;-1.38388;-0.722607;121.288;166.288;-0.00367632;0.000303112;0.00123343;-0.00121124;0.000417209;0.00187215;0.00373674;0;0.0193166;-0.177889;0.00276143;-0.248309;0.305466;-6.65827;0.000137307;-7.95528e-05;-0.000536052;0.000146578;-0.000545323;0.00034595;0.256145;3.90403;0.000421001;0.000461267;0.268792;3.72036;41.0242;86.0242;-0.00214444;0.000134917;0.00202741;-0.00218793;-0.000538105;0.00218126;0.00116903;0;0.02318;0.0110537;2.99379
121000;122;25.7626;0.00443176;0.000172053;-2.13354;25.6641;0.714295;-0.0411345;0.0047501;-0.122074;-0.136153;0.0070493;-0.138213;0.19414;-7.34519;0.000545759;0.000148763;0.000457559;0.000656821;0.000346497;0.000155162;-1.19276;-0.838389;0.000379407;0.000206883;-1.8956;-0.527537;71.7254;116.725;-0.00371701;0.000545014;0.00152753;-0.00123013;0.000456403;0.00108119;0.00447465;0;0.0139605;-0.182812;0.00376168;-0.255689;0.314342;-6.66564;0.000179775;-6.19223e-05;-0.000480452;0.000185533;-0.00048621;0.000335871;0.374179;2.67252;0.000400572;0.000447828;0.381589;2.62062;41.7184;86.7184;-0.00211577;0.000177468;0.00202405;-0.00214928;-0.0004825;0.00282777;0.00142356;0;0.0206465;0.0112309;2.9942
122000;123;25.761;0.00287898;0.00011177;-2.13583;25.6627;0.703054;-0.0434253;0.00331124;-0.133315;-0.141268;0.00594918;-0.133358;0.194361;-7.34034;0.00013;-7.42804e-05;-2.74736e-05;0.000159509;-5.69822e-05;0.000108245;4.73182;0.211335;0.000129579;0.000144327;2.79927;0.357235;22.3633;67.3633;-0.00405036;0.000128688;0.00147311;-0.00162191;-2.85559e-05;0.00194991;0.00566017;0;0.0140392;-0.188783;0.00444577;-0.261337;0.322422;-6.67129;0.000296558;6.85946e-05;-0.000409559;0.00030316;-0.000416161;0.00035966;0.724092;1.38104;0.000417004;0.000479547;0.728469;1.37274;51.1532;96.1532;-0.00178679;0.000293963;0.00241514;-0.00227961;-0.000412474;0.00295721;0.00282478;0;0.0200776;0.0113895;3.00169
123000;124;25.757;-0.00117198;-4.54996e-05;-2.13561;25.659;0.689805;-0.043211;-0.000377813;-0.146564;-0.144923;0.00618895;-0.138171;0.20033;-7.34515;1.0344e-05;-0.000156497;-0.000111004;0.000117517;-0.000218177;0.000167847;0.0931857;10.7313;0.000196696;0.000223796;0.538632;1.85656;11.3534;56.3534;-0.00432078;8.36594e-06;0.00168194;-0.00199516;-0.000112406;0.00198278;0.00705519;0;0.0135217;-0.19352;0.00648718;-0.274832;0.336191;-6.68479;0.000190563;1.56171e-05;-0.000399627;0.000190976;-0.00040004;0.000295508;0.476854;2.09708;0.000348267;0.000394011;0.477394;2.09471;47.8751;92.8751;-0.00138217;0.000188283;0.00216565;-0.00213568;-0.000401972;0.00210019;0.00298231;0;0.0234054;0.0114411;3.00966
124000;125;25.7592;0.00106468;4.13337e-05;-2.13523;25.6611;0.695155;-0.0428323;0.00175453;-0.141214;-0.148766;0.0062502;-0.144612;0.207565;-7.35159;0.000232365;0.000323017;-0.000943568;0.000315252;-0.00102646;0.000670853;0.246262;4.06072;0.000810099;0.000894471;0.307127;3.25598;64.6568;109.657;-0.00453751;0.000231168;0.00222454;-0.00158075;-0.000945992;0.00139665;0.00634639;0;0.0122447;-0.197587;0.00649857;-0.283676;0.345767;-6.69363;9.52312e-05;-1.92164e-05;-0.000272349;9.62331e-05;-0.000273351;0.000184792;0.349666;2.85987;0.000221396;0.000246389;0.35205;2.84051;43.2595;88.2595;-0.00138677;9.32078e-05;0.00197273;-0.00201189;-0.000274295;0.00129732;0.00353683;0;0.0240949;0.0115798;3.01633
125000;126;25.7593;0.00114055;4.42793e-05;-2.13558;25.6613;0.689673;-0.0431753;0.00195008;-0.146697;-0.153026;0.00611066;-0.1412;0.208307;-7.34818;0.000101858;0.000408744;-0.000764487;0.000264261;-0.00092689;0.000595576;0.133237;7.50543;0.000722311;0.000794101;0.285105;3.50748;71.3883;116.388;-0.00435201;0.000100705;0.00238842;-0.00157265;-0.000767258;0.00114054;0.00679251;0;0.0126226;-0.202121;0.00661649;-0.285023;0.349477;-6.69498;1.85685e-05;-7.30233e-05;-0.00033939;3.28921e-05;-0.000353713;0.000193303;0.0547115;18.2777;0.000247502;0.000257737;0.0929909;10.7537;35.9747;80.9747;-0.00110253;1.60314e-05;0.00210699;-0.00225382;-0.000341607;0.00125484;0.00342345;0;0.0239389;0.0121707;3.02358
126000;127;25.7592;0.00105894;4.11108e-05;-2.13545;25.6613;0.690103;-0.0430442;0.0018675;-0.146267;-0.157361;0.00373631;-0.138464;0.209639;-7.34544;0.000186633;0.000344028;-0.000908268;0.000285756;-0.00100739;0.000646574;0.205483;4.86659;0.000784393;0.000862098;0.28366;3.52535;66.769;111.769;-0.00464901;0.000185657;0.00212529;-0.00143918;-0.000910469;0.00270529;0.0085767;0;0.0147598;-0.206996;0.00514568;-0.286652;0.353615;-6.69661;0.000139991;-7.84118e-05;-0.000351096;0.000152207;-0.000363312;0.00025776;0.398726;2.50799;0.000305841;0.00034368;0.418943;2.38696;37.603;82.603;-0.000698774;0.000137768;0.00195227;-0.00211009;-0.000352999;0.00105859;0.00381202;0;0.0312339;0.013464;3.0307
127000;128;25.7595;0.0013515;5.24689e-05;-2.13599;25.6615;0.690532;-0.0435862;0.00210452;-0.145837;-0.161103;0.00497783;-0.147035;0.21817;-7.35402;0.000323082;0.000421168;-0.000390353;0.000518297;-0.000585569;0.000551933;0.827666;1.20822;0.000637712;0.000735911;0.885118;1.12979;70.384;115.384;-0.00506491;0.000322247;0.00220032;-0.00135926;-0.000392686;0.00255928;0.00802955;0;0.0156198;-0.210951;0.00546725;-0.293991;0.361885;-6.70395;-6.31299e-05;-1.1279e-05;-0.000411514;-6.27651e-05;-0.000411879;0.000174557;-0.153409;-6.51853;0.000256239;0.000232742;-0.152387;-6.56222;46.2396;91.2396;-0.000216348;-6.55057e-05;0.00215646;-0.00217977;-0.00041384;0.000682623;0.00467773;0;0.0339008;0.0137318;3.0387
128000;129;25.7613;0.00315581;0.000122517;-2.13758;25.6631;0.694088;-0.0451767;0.00368738;-0.142282;-0.165268;0.00560262;-0.154228;0.226122;-7.36121;0.000344536;0.00019671;0.000468948;0.000613054;0.000200431;0.000206312;-0.7347;-1.3611;0.000360945;0.000275082;-3.05869;-0.326938;91.5525;136.553;-0.00545567;0.000343593;0.00178149;-0.00138788;0.000467382;0.00513383;0.00649761;0;0.0166492;-0.215952;0.00489721;-0.297955;0.368017;-6.70791;3.47521e-05;-3.52067e-05;-0.000440052;3.73484e-05;-0.000442648;0.000239998;0.0789727;12.6626;0.000308303;0.000319998;0.084375;11.8518;43.2315;88.2315;-0.00127216;3.19489e-05;0.00229656;-0.00236808;-0.000442689;0.00379511;0.00574496;0;0.0258852;0.0142226;3.04562
129000;130;25.7612;0.00300989;0.000116852;-2.1389;25.6628;0.696174;-0.0464964;0.00337441;-0.140195;-0.16931;0.0036302;-0.148692;0.225362;-7.35567;0.000250099;1.09695e-05;0.000408579;0.000409334;0.000249344;7.99954e-05;-0.61212;-1.63367;0.000238199;0.000106661;-1.64165;-0.609144;125.26;170.26;-0.00500195;0.000248819;0.00162266;-0.00160046;0.000407263;0.00392074;0.00770974;0;0.01576;-0.220993;0.00353316;-0.294696;0.368369;-6.70465;5.87807e-05;1.86103e-05;-0.000391248;5.9549e-05;-0.000392016;0.000225783;0.150239;6.65606;0.000283288;0.000301044;0.151904;6.58309;49.091;94.091;-0.00195053;5.52018e-05;0.00271156;-0.00267555;-0.000394926;0.00526527;0.00423934;0;0.02514;0.0148861;3.05075
130000;131;25.7602;0.00209369;8.12826e-05;-2.14106;25.6618;0.691021;-0.0486543;0.00241405;-0.145349;-0.172072;0.00351161;-0.148184;0.227112;-7.35516;0.000372594;-1.48431e-05;0.000978221;0.000978585;0.000372231;0.000303177;-0.380889;-2.62543;0.000570351;0.000404236;-2.62898;-0.380376;124.738;169.738;-0.00520808;0.00037134;0.00155551;-0.00158425;0.000977013;0.00435072;0.00573297;0;0.0159499;-0.225837;0.00258438;-0.292875;0.369844;-6.70283;4.62087e-05;8.84313e-05;-0.000450003;6.14973e-05;-0.000465291;0.000263394;0.102685;9.73848;0.000332594;0.000351192;0.132169;7.56605;56.8882;101.888;-0.00294949;4.27355e-05;0.00281267;-0.00263716;-0.000453956;0.0069274;0.00370486;0;0.0245772;0.0148802;3.05525
131000;132;25.7602;0.00201996;7.84203e-05;-2.14348;25.6617;0.6859;-0.0510832;0.00227467;-0.15047;-0.173827;0.00465809;-0.161095;0.237042;-7.36808;0.000440727;-3.02549e-05;0.00136386;0.00136485;0.000439737;0.000462555;-0.323148;-3.09456;0.000804433;0.000616741;-3.10378;-0.322187;122.053;167.053;-0.00461282;0.000439418;0.00155962;-0.00161867;0.00136264;0.00293684;0.00550858;0;0.0177435;-0.229109;0.00328801;-0.308675;0.384424;-6.71863;9.18786e-05;0.000120288;-0.000414162;0.000119016;-0.0004413;0.000280158;0.221842;4.50771;0.00034087;0.000373544;0.269694;3.7079;59.2222;104.222;-0.00357485;8.78167e-05;0.00309199;-0.00285292;-0.000418937;0.00756945;0.0042675;0;0.0244982;0.0150131;3.0656
132000;133;25.7593;0.00112299;4.35973e-05;-2.14653;25.6606;0.681007;-0.0541235;0.00125042;-0.155363;-0.176925;0.0049721;-0.157092;0.236654;-7.36407;0.000297415;2.56731e-05;0.00126867;0.00126935;0.000296737;0.000486307;-0.23443;-4.26567;0.000766708;0.00064841;-4.2777;-0.23377;119.785;164.785;-0.0050712;0.000296309;0.00154015;-0.00148733;0.00126749;0.00367064;0.00670805;0;0.0195345;-0.235371;0.0042164;-0.306608;0.386556;-6.71656;0.000124808;0.00023943;-0.000428342;0.000214048;-0.000517582;0.000365815;0.291375;3.43201;0.000434355;0.000487753;0.413553;2.41807;66.899;111.899;-0.00314917;0.000121304;0.00313571;-0.00265846;-0.000433232;0.00540196;0.00469625;0;0.0219838;0.0153606;3.06864
133000;134;25.7574;-0.000716653;-2.78224e-05;-2.1489;25.6587;0.675675;-0.0564942;-0.000653762;-0.160695;-0.181279;0.00371349;-0.159344;0.241384;-7.36632;0.000367026;7.63729e-05;0.00141582;0.00142135;0.000361493;0.00052993;-0.259232;-3.85756;0.000852999;0.000706574;-3.93189;-0.25433;116.239;161.239;-0.00498554;0.000365875;0.00167353;-0.00151911;0.00141443;0.00279821;0.00496198;0;0.0177594;-0.241827;0.00461836;-0.315153;0.39727;-6.72511;0.000194029;7.66891e-05;-0.000326279;0.000205097;-0.000337347;0.000271222;0.594672;1.6816;0.000316267;0.000361629;0.60797;1.64482;53.8432;98.8432;-0.00287636;0.000190264;0.00289731;-0.0027454;-0.000330475;0.0047731;0.00654334;0;0.0305496;0.0158614;3.07564
134000;135;25.7531;-0.0050312;-0.000195325;-2.14929;25.6546;0.666254;-0.0568877;-0.00477147;-0.170116;-0.183797;0.00198549;-0.158975;0.24302;-7.36596;0.000279464;-4.264e-05;0.00122582;0.00122774;0.000277547;0.000475095;-0.227981;-4.38633;0.00074345;0.00063346;-4.42354;-0.226064;125.897;170.897;-0.00517649;0.000277864;0.00170601;-0.00178963;0.00122437;0.00261934;0.00682042;0;0.0192969;-0.245986;0.00397394;-0.31867;0.402585;-6.72863;7.09978e-05;-6.98413e-06;-0.000281042;7.11363e-05;-0.00028118;0.000176158;0.252624;3.95846;0.000215123;0.000234878;0.252992;3.9527;45.0012;90.0012;-0.00256755;6.76991e-05;0.00255378;-0.00256865;-0.000284304;0.00291568;0.00432573;0;0.0294267;0.0166888;3.08269
135000;136;25.7545;-0.00361279;-0.000140258;-2.15176;25.6559;0.664267;-0.0593579;-0.00350316;-0.172102;-0.186608;0.00197432;-0.161263;0.246642;-7.36824;0.000315198;-0.000116842;0.00126954;0.00128364;0.000301101;0.00049127;-0.248276;-4.02777;0.000775138;0.000655026;-4.26316;-0.234568;129.283;174.283;-0.00484054;0.000313576;0.00157268;-0.00180475;0.00126832;0.00254079;0.00592797;0;0.016426;-0.250321;0.0043234;-0.326643;0.411551;-6.7366;4.59641e-05;-0.000110481;-0.000216526;8.62743e-05;-0.000256836;0.000171555;0.21228;4.71077;0.000206092;0.000228741;0.335912;2.97697;25.9989;70.9989;-0.00237046;4.31404e-05;0.00215747;-0.00237903;-0.000218848;0.00281738;0.00553458;0;0.0283139;0.0179622;3.0896
136000;137;25.7549;-0.00322352;-0.000125146;-2.15194;25.6563;0.661585;-0.0595332;-0.00305778;-0.174785;-0.190057;0.0016996;-0.162289;0.249925;-7.36927;0.000258837;-5.15559e-05;0.000978162;0.000981838;0.000255161;0.000363339;-0.264616;-3.77907;0.00058825;0.000484452;-3.84792;-0.25988;129.298;174.298;-0.00510825;0.000257224;0.00169507;-0.00179692;0.000976728;0.00245609;0.00744357;0;0.0181083;-0.255017;0.00451901;-0.329986;0.417067;-6.73994;-7.35352e-05;-0.000110795;-0.000253087;-2.07096e-05;-0.000305912;0.000142601;-0.290553;-3.44171;0.000197401;0.000190135;-0.0676978;-14.7715;21.5262;66.5262;-0.00224597;-7.6383e-05;0.002167;-0.002389;-0.000255429;0.0025297;0.00537688;0;0.0334924;0.0182227;3.09806
137000;138;25.7548;-0.00335039;-0.000130071;-2.15265;25.6563;0.657087;-0.060249;-0.0031296;-0.179283;-0.193967;0.00115702;-0.163136;0.253452;-7.37012;0.000157109;-0.000155963;0.000885096;0.000917102;0.000125103;0.000396;-0.177505;-5.63365;0.000574261;0.000528;-7.3308;-0.136411;138.934;3.93399;-0.00544268;0.000154991;0.00175379;-0.00206433;0.000883572;0.00372038;0.00638105;0;0.0254398;-0.258969;0.00467706;-0.3359;0.424165;-6.74586;1.85911e-05;-0.000111077;-0.000282827;5.51021e-05;-0.000319338;0.00018722;0.0657332;15.213;0.000233437;0.000249627;0.172551;5.79538;28.3322;73.3322;-0.00225971;1.5394e-05;0.00230827;-0.00253115;-0.000285486;0.00334633;0.00652409;0;0.0339019;0.0184117;3.1047
138000;139;25.7547;-0.00346512;-0.000134525;-2.15305;25.6563;0.65157;-0.0606532;-0.00313798;-0.1848;-0.197572;0.00230879;-0.165521;0.257754;-7.3725;0.000265214;0.000177913;0.000667543;0.00073493;0.000197827;0.000268552;-0.397299;-2.517;0.000439125;0.000358069;-3.71502;-0.269177;108.143;153.143;-0.0059072;0.000263258;0.00234272;-0.00198603;0.000664816;0.00402676;0.00659327;0;0.0149115;-0.263405;0.00438961;-0.339063;0.429378;-6.74902;0.000141454;-0.000183748;-0.000329622;0.000204649;-0.000392817;0.000298733;0.42914;2.33024;0.000350604;0.000398311;0.520978;1.91947;27.0966;72.0966;-0.00224468;0.000138065;0.00224134;-0.00260998;-0.000332118;0.00284123;0.00647734;0;0.0295088;0.0184883;3.11143
139000;140;25.755;-0.00318304;-0.000123574;-2.15383;25.6565;0.650102;-0.0614243;-0.00288231;-0.186267;-0.199898;0.00207531;-0.169662;0.2622;-7.37664;0.00026632;0.000191517;-0.00031443;0.00032379;-0.0003719;0.000347845;0.846993;1.18065;0.000401977;0.000463793;0.870637;1.14858;61.9786;106.979;-0.00576663;0.000264234;0.00243348;-0.00205175;-0.000317373;0.00260659;0.00855838;0;0.0138369;-0.266245;0.00396414;-0.3447;0.435569;-6.75466;0.000172877;-0.000130411;-0.000495643;0.000197417;-0.000520183;0.0003588;0.348794;2.86702;0.000428048;0.000478399;0.379514;2.63495;36.0684;81.0684;-0.00268248;0.000169103;0.00248827;-0.00275085;-0.000498732;0.00326439;0.0060055;0;0.0240637;0.0196595;3.11882
140000;141;25.7562;-0.00193502;-7.51225e-05;-2.1547;25.6577;0.64814;-0.0622989;-0.00165329;-0.18823;-0.202378;0.000108728;-0.165056;0.261152;-7.37204;0.000169903;2.97955e-05;-0.000345138;0.000171621;-0.000346856;0.000259239;0.492277;2.03138;0.000304989;0.000345651;0.494792;2.02105;49.3511;94.3511;-0.00574908;0.000167295;0.00234282;-0.00228442;-0.000347883;0.00235658;0.00789892;0;0.017351;-0.269234;0.0026271;-0.344309;0.437085;-6.75427;0.000109916;-0.000165841;-0.000552747;0.000149102;-0.000591933;0.000370518;0.198853;5.02883;0.000452585;0.000494024;0.25189;3.96998;34.0106;79.0106;-0.00239119;0.000105821;0.00253305;-0.00286652;-0.000555943;0.00256201;0.00716768;0;0.020398;0.0205248;3.12644
141000;142;25.7568;-0.00132466;-5.14268e-05;-2.15371;25.6585;0.645837;-0.0613073;-0.000899277;-0.190532;-0.206787;0.000327322;-0.168846;0.266964;-7.37583;-1.17872e-05;0.000366579;-0.000148723;0.000292663;-0.000453173;0.000372918;-0.079256;-12.6173;0.00043392;0.000497224;0.645809;1.54845;85.5628;130.563;-0.00649214;-1.41781e-05;0.00295007;-0.00221727;-0.000153008;0.00342964;0.00812125;0;0.0243729;-0.273059;0.00259773;-0.352136;0.445609;-6.76209;0.000164673;-0.000293433;-0.000619597;0.000262306;-0.00071723;0.000489768;0.265774;3.7626;0.000585513;0.000653024;0.365721;2.73433;28.803;73.803;-0.00293856;0.000159638;0.00259771;-0.00318684;-0.00062293;0.00289882;0.00586977;0;0.0312311;0.0217852;3.13303
142000;143;25.7581;-9.01713e-05;-3.50069e-06;-2.15573;25.6595;0.646376;-0.0633308;0.000156445;-0.189993;-0.208912;0.000792273;-0.175547;0.272876;-7.38253;2.78414e-05;0.000468292;-0.000344918;0.000345481;-0.000662557;0.000504019;0.0807188;12.3887;0.00059151;0.000672025;0.521435;1.91778;80.9285;125.928;-0.00629395;2.58901e-05;0.00296591;-0.00203026;-0.000349208;0.00289228;0.00901547;0;0.0244524;-0.275819;0.00266603;-0.361972;0.45509;-6.77193;0.000218872;-0.000342654;-0.000660619;0.00033661;-0.000778357;0.000557484;0.331314;3.01829;0.000660353;0.000743312;0.432462;2.31234;28.0945;73.0945;-0.00349535;0.000213319;0.00266255;-0.0033505;-0.000664107;0.00334276;0.00720029;0;0.0246754;0.0221831;3.13425
143000;144;25.7547;-0.00342625;-0.000133016;-2.15313;25.6567;0.636768;-0.0607294;-0.00273374;-0.199601;-0.215357;-0.00251579;-0.163386;0.270333;-7.37037;0.000122496;0.000258494;-0.000503744;0.00021541;-0.000596657;0.000406034;0.243172;4.11232;0.000485765;0.000541378;0.361028;2.76987;66.9091;111.909;-0.00701545;0.000120002;0.00276403;-0.00224861;-0.000507532;0.00349989;0.00941902;0;0.0152943;-0.281014;0.00247482;-0.361291;0.457718;-6.77125;0.000248742;-0.000200542;-0.000588651;0.000294291;-0.0006342;0.000464245;0.422562;2.36651;0.000547908;0.000618994;0.464035;2.15501;33.5956;78.5956;-0.00348657;0.000242359;0.00317515;-0.00357906;-0.000593675;0.00282569;0.005346;0;0.0255367;0.0224436;3.14147
144000;145;25.7601;0.00192102;7.4579e-05;-2.15669;25.6616;0.643199;-0.0642909;0.00217451;-0.19317;-0.214705;0.00204066;-0.180517;0.280515;-7.3875;8.49327e-05;3.80765e-05;0.00126577;0.001267;8.37062e-05;0.000591647;-0.0670995;-14.9032;0.000818193;0.000788862;-15.1363;-0.0660665;125.691;170.691;-0.00699769;8.17896e-05;0.00258679;-0.00250763;0.00126243;0.0042754;0.00594479;0;0.0145218;-0.283226;0.00365552;-0.377438;0.4719;-6.78739;0.000425955;-9.37348e-05;-0.000650507;0.000434056;-0.000658608;0.000546332;0.654805;1.52717;0.000635275;0.000728443;0.659051;1.51733;40.9444;85.9444;-0.00348649;0.000419695;0.00334922;-0.00354039;-0.000656114;0.00156738;0.00618566;0;0.0225957;0.0231453;3.1488
145000;146;25.7558;-0.00230732;-8.95763e-05;-2.15688;25.6576;0.630723;-0.0644823;-0.00177642;-0.205647;-0.21934;-0.000392558;-0.17293;0.279312;-7.37991;0.000108312;0.000220212;0.000739875;0.000809076;3.91117e-05;0.000384982;-0.146392;-6.83095;0.000526831;0.000513309;-20.6863;-0.0483412;112.475;157.475;-0.00612852;0.000105999;0.00260426;-0.00216234;0.000736511;0.00232429;0.00807652;0;0.0170721;-0.288038;0.0037292;-0.38038;0.477146;-6.79034;0.000453181;-5.96795e-05;-0.000565925;0.000456664;-0.000569408;0.000513036;0.80078;1.24878;0.000593594;0.000684048;0.801999;1.24688;42.0855;87.0855;-0.00351117;0.000447181;0.00334255;-0.00346538;-0.000571513;0.0020461;0.00676728;0;0.0211591;0.0246631;3.15636
146000;147;25.7563;-0.00183918;-7.1402e-05;-2.15854;25.658;0.626857;-0.0661336;-0.00135062;-0.209512;-0.220566;-0.00123367;-0.174242;0.281089;-7.38122;0.000157776;0.00020146;0.000656554;0.00072776;8.657e-05;0.000320595;-0.240309;-4.16131;0.000459046;0.00042746;-8.40661;-0.118954;110.66;155.66;-0.00676703;0.000155408;0.00258967;-0.00218556;0.000653223;0.00353934;0.00815883;0;0.0144523;-0.290213;0.00276233;-0.385452;0.482498;-6.79541;0.000271911;4.14758e-05;-0.000707539;0.000273664;-0.000709292;0.000491478;0.384305;2.6021;0.000585793;0.000655304;0.385827;2.59184;49.2212;94.2212;-0.00334312;0.000266369;0.00340947;-0.00332982;-0.000713355;0.00183543;0.00451292;0;0.0350807;0.0253863;3.16359
147000;148;25.7559;-0.0022932;-8.90281e-05;-2.15865;25.6576;0.623912;-0.0662481;-0.00174422;-0.212457;-0.223254;-0.0011281;-0.176643;0.284686;-7.38362;0.000150318;0.000210948;0.000806806;0.000868746;8.83787e-05;0.000390184;-0.186313;-5.36731;0.000552068;0.000520245;-9.82981;-0.101731;112.475;157.475;-0.00615838;0.000148359;0.00241436;-0.00199102;0.000803916;0.003439;0.0070094;0;0.0217772;-0.294004;0.00333136;-0.393253;0.491016;-6.80321;0.000141967;-3.23044e-05;-0.000631581;0.000143314;-0.000632928;0.000388121;0.224781;4.44878;0.000476955;0.000517495;0.22643;4.41637;44.697;89.697;-0.00302228;0.000136465;0.00325057;-0.00331771;-0.000636867;0.00112183;0.00408435;0;0.01829;0.0255552;3.17108
148000;149;25.7591;0.000906244;3.51828e-05;-2.16023;25.6607;0.625673;-0.067825;0.00129189;-0.210697;-0.226321;-0.00230869;-0.172817;0.284767;-7.3798;0.000162784;-0.000194466;0.00076909;0.000826102;0.000105772;0.000360165;-0.211658;-4.7246;0.000519082;0.00048022;-7.8102;-0.128038;145.097;10.0966;-0.00601796;0.000160138;0.00192137;-0.00230902;0.000767265;0.00359441;0.00755907;0;0.0163286;-0.297961;0.00109473;-0.392156;0.492512;-6.80211;0.000131001;1.49515e-05;-0.000728909;0.000131261;-0.000729169;0.000430215;0.179722;5.56416;0.000535258;0.00057362;0.180014;5.55512;48.3693;93.3693;-0.00352281;0.000124839;0.0035376;-0.00351073;-0.000735171;0.00290892;0.00146912;0;0.0270746;0.0259615;3.17843
149000;150;25.7584;0.000215065;8.3494e-06;-2.16056;25.6599;0.62833;-0.0681604;0.000504892;-0.208039;-0.22845;-0.00253177;-0.175965;0.288374;-7.38295;0.000437749;-0.000156568;0.00113485;0.0011684;0.000404199;0.0003821;-0.385734;-2.59246;0.000685166;0.000509467;-2.89065;-0.345942;136.518;1.5177;-0.00595664;0.000435354;0.00188313;-0.00219484;0.00113309;0.00334261;0.00788744;0;0.0187912;-0.301714;0.000972738;-0.395352;0.497328;-6.80531;-5.57193e-05;2.9215e-05;-0.000800362;-5.45748e-05;-0.000801506;0.000373466;-0.0696176;-14.3642;0.000517107;0.000497954;-0.0680903;-14.6864;50.9255;95.9255;-0.00394833;-6.09715e-05;0.00329708;-0.00324108;-0.000805801;0.00287703;0.00104988;0;0.0224831;0.026478;3.1859
150000;151;25.7602;0.00207758;8.06571e-05;-2.1622;25.6617;0.62366;-0.069796;0.00235072;-0.21271;-0.231887;-0.00141716;-0.17457;0.290255;-7.38155;0.000378811;7.49327e-05;0.00109057;0.00109837;0.000371008;0.000363682;-0.347352;-2.87892;0.000645174;0.000484909;-2.96051;-0.33778;118.884;163.884;-0.00602423;0.000376985;0.00206417;-0.00191289;0.00108844;0.00384185;0.00810048;0;0.0264044;-0.306381;0.000408539;-0.395268;0.500106;-6.80522;-0.000123081;-8.20673e-07;-0.000757495;-0.00012308;-0.000757496;0.000317208;-0.162484;-6.15445;0.000469381;0.000422944;-0.162482;-6.15451;48.6969;93.6969;-0.00436187;-0.000128478;0.00328145;-0.00328517;-0.000762883;0.00355915;-0.000694321;0;0.0201734;0.0284557;3.19278
151000;152;25.7596;0.00149576;5.80692e-05;-2.16292;25.6611;0.621561;-0.0705174;0.00175679;-0.214808;-0.233348;0.000362967;-0.181469;0.295605;-7.38845;0.000406727;-1.58702e-05;0.00109417;0.00109454;0.00040636;0.000344089;-0.371721;-2.69019;0.000638876;0.000458785;-2.69352;-0.371262;125.135;170.135;-0.00573617;0.000405027;0.00181338;-0.00184387;0.00109253;0.00306749;0.00764475;0;0.0270736;-0.308597;0.00149642;-0.402729;0.507371;-6.81268;-1.24461e-05;-5.95668e-05;-0.000847851;-8.22017e-06;-0.000852077;0.000421928;-0.0146796;-68.1219;0.000565331;0.000562571;;;44.733;89.733;-0.00414709;-1.77346e-05;0.00313096;-0.00325276;-0.000852755;0.00335619;-0.000774641;0;0.0228184;0.0292316;3.19977
152000;153;25.7606;0.00240649;9.34265e-05;-2.16463;25.6619;0.6234;-0.0722291;0.00248209;-0.212969;-0.23586;-0.0013572;-0.18402;0.299157;-7.391;0.000431233;-0.000216726;0.00101495;0.00108662;0.000359565;0.000363528;-0.424879;-2.35361;0.000639209;0.000484705;-3.02204;-0.330902;143.504;8.50406;-0.0062892;0.000428714;0.00182318;-0.00225544;0.00101332;0.0029763;0.00861348;0;0.0235145;-0.312602;-0.000610244;-0.404945;0.511567;-6.8149;3.56612e-05;-0.000125595;-0.000901513;5.22008e-05;-0.000918052;0.000485127;0.039557;25.28;0.000630156;0.000646836;0.0568604;17.5869;41.3489;86.3489;-0.00422601;3.02578e-05;0.00303567;-0.00328982;-0.000906117;0.00309995;-0.000975745;0;0.0235898;0.0294469;3.20533
153000;154;25.7597;0.0015596;6.05477e-05;-2.16502;25.6613;0.611478;-0.0726154;0.00188621;-0.224891;-0.237374;-0.00302838;-0.177273;0.296279;-7.38425;0.000383346;-3.80305e-07;0.000835747;0.000835748;0.000383346;0.000226201;-0.458687;-2.18014;0.000483068;0.000301601;-2.18014;-0.458686;125.887;170.887;-0.00518531;0.000381642;0.00184699;-0.00184691;0.000834043;0.00206111;0.00813201;0;0.0226795;-0.314824;-0.00274584;-0.404246;0.512383;-6.8142;0.000260842;-0.000121379;-0.000869379;0.00027373;-0.000882267;0.000577999;0.300032;3.33297;0.00069756;0.000770665;0.310258;3.22313;41.6592;86.6592;-0.00400971;0.00025552;0.00301869;-0.003265;-0.000873932;0.00317363;0.000167657;0;0.023923;0.030892;3.21282
154000;155;25.7606;0.00241486;9.37511e-05;-2.16653;25.662;0.612095;-0.0741313;0.0026021;-0.224275;-0.237411;-0.00225739;-0.17431;0.294539;-7.38129;0.000469765;-0.000113017;0.00102589;0.00104798;0.000447675;0.000300151;-0.457912;-2.18383;0.000607185;0.000400201;-2.34093;-0.42718;135.507;0.506545;-0.00597185;0.000467658;0.00183128;-0.00205624;0.00102422;0.0029184;0.00799411;0;0.017447;-0.316321;-0.00141492;-0.40469;0.513649;-6.81465;0.000113094;-0.000100861;-0.000879293;0.000123241;-0.00088944;0.000506341;0.128619;7.77487;0.000638021;0.000675121;0.138561;7.21706;42.5793;87.5793;-0.00428839;0.000107513;0.00313789;-0.00334282;-0.000884216;0.00344949;0.000747591;0;0.0236988;0.0325344;3.21488
155000;156;25.761;0.00290211;0.000112668;-2.16686;25.6625;0.609011;-0.0744591;0.00313694;-0.227359;-0.242337;-0.000617318;-0.181536;0.302792;-7.38852;0.000477937;-0.000144063;0.0006708;0.000747727;0.00040101;0.000173358;-0.712488;-1.40353;0.00043208;0.000231145;-1.86461;-0.536305;155.507;20.5069;-0.00624342;0.000475375;0.00198129;-0.002269;0.000668849;0.00276522;0.00778055;0;0.0200296;-0.322027;-0.00210116;-0.410501;0.521744;-6.82046;0.000342612;-0.000147787;-0.000758556;0.000362101;-0.000778045;0.000570073;0.451663;2.21404;0.000672707;0.000760098;0.465399;2.1487;39.2297;84.2297;-0.00504099;0.000336592;0.00317432;-0.00347356;-0.000763587;0.0063694;0.00195876;0;0.022448;0.0331315;3.22179
156000;157;25.7587;0.000546266;2.12075e-05;-2.1678;25.6603;0.598823;-0.0753986;0.000932463;-0.237546;-0.245607;-0.000487467;-0.183561;0.306623;-7.39054;0.000463818;-6.42098e-05;0.000120703;0.00047544;0.00010908;0.00018318;-3.84265;-0.260237;0.00028758;0.00024424;-4.35863;-0.22943;30.7036;75.7036;-0.00573353;0.000461529;0.00201168;-0.00214082;0.000118681;0.002411;0.00915246;0;0.0241526;-0.3258;-0.00167617;-0.416998;0.529184;-6.82695;0.000451818;-7.87642e-05;-0.00094148;0.000456256;-0.000945918;0.000701087;0.479902;2.08376;0.000825836;0.000934783;0.482342;2.07322;43.7782;88.7782;-0.00479604;0.000445725;0.00333008;-0.00349237;-0.000947026;0.0067761;0.00385926;0;0.0232949;0.0337058;3.22943
157000;158;25.7565;-0.00162262;-6.29943e-05;-2.16803;25.6583;0.590559;-0.07563;-0.00107275;-0.245811;-0.247604;-0.00231701;-0.179048;0.305567;-7.38603;0.000288672;-0.000249114;0.000287193;0.000537048;3.88175e-05;0.000249115;-1.00515;-0.994878;0.00034582;0.000332153;-13.8352;-0.0722795;176.279;41.2786;-0.00617572;0.000285772;0.00192343;-0.00242166;0.000285375;0.00256697;0.00911197;0;0.0185799;-0.32863;-0.00134623;-0.420714;0.533853;-6.83067;0.00041189;-3.38281e-06;-0.000953081;0.000411898;-0.00095309;0.000682494;0.432166;2.31392;0.00080846;0.000909992;0.432171;2.3139;46.9192;91.9192;-0.00487881;0.000405171;0.00365456;-0.00366632;-0.000959766;0.00725381;0.00399543;0;0.0229041;0.035557;3.23667
158000;159;25.7586;0.000415581;1.6134e-05;-2.16882;25.6603;0.588357;-0.0764169;0.000957323;-0.248012;-0.249742;-0.00226835;-0.173861;0.304309;-7.38084;0.000488804;-2.50519e-05;0.000482354;0.000510838;0.000460321;2.52587e-05;-1.01337;-0.986804;0.000325031;3.36782e-05;-1.10974;-0.901109;177.378;42.378;-0.00653264;0.000486358;0.00216264;-0.00221276;0.000480017;0.00308567;0.0090838;0;0.0205238;-0.330852;-0.00256757;-0.417174;0.532451;-6.82713;0.000429279;1.44929e-05;-0.00109129;0.000429417;-0.00109142;0.000760421;0.39337;2.54213;0.000905362;0.00101389;0.393447;2.54164;48.1008;93.1008;-0.00509664;0.000422747;0.00363883;-0.00361536;-0.00109791;0.00681967;0.00482602;0;0.0236423;0.036897;3.24436
159000;160;25.7546;-0.00352948;-0.000137024;-2.17075;25.6567;0.568136;-0.0783436;-0.00271004;-0.268233;-0.250806;0.00217621;-0.187056;0.312886;-7.39404;0.000477839;-7.84253e-05;-0.000225719;0.000486475;-0.000234355;0.000360415;2.11697;0.472374;0.000424572;0.000480553;2.07581;0.481741;37.1652;82.1652;-0.00634966;0.000474822;0.00229967;-0.00245819;-0.00022836;0.00296862;0.00999374;0;0.0206103;-0.334178;0.00253601;-0.442035;0.554145;-6.85199;0.000656873;5.78321e-05;-0.00086616;0.000659066;-0.000868353;0.000763709;0.758373;1.31861;0.000884611;0.00101828;0.758983;1.31755;47.9031;92.9031;-0.00491281;0.000649822;0.00386666;-0.0037568;-0.000873641;0.00659997;0.00522583;0;0.0214344;0.0374515;3.25122
160000;161;25.7565;-0.0016334;-6.34128e-05;-2.17111;25.6585;0.569076;-0.0787063;-0.000858232;-0.267293;-0.252275;0.00384272;-0.188183;0.314754;-7.39516;0.000417814;-6.17326e-05;-0.000734802;0.000421111;-0.000738099;0.000579605;0.568608;1.75868;0.00067756;0.000772807;0.570535;1.75274;43.7923;88.7923;-0.00640272;0.000414768;0.00234356;-0.0024698;-0.000737549;0.00262628;0.0101788;0;0.0362187;-0.336103;0.00380443;-0.447206;0.55944;-6.85716;0.000475898;-1.07599e-05;-0.000787902;0.000475989;-0.000787994;0.000631991;0.604006;1.65561;0.000737134;0.000842655;0.604052;1.65549;45.6331;90.6331;-0.00490429;0.00046863;0.00378701;-0.00381333;-0.000795078;0.00565233;0.00592762;0;0.0257288;0.0390916;3.25863
161000;162;25.7549;-0.0032467;-0.000126045;-2.17124;25.6571;0.560991;-0.0788377;-0.00231076;-0.275378;-0.255943;0.0024927;-0.190396;0.319004;-7.39738;0.000248925;3.57597e-05;-0.00147391;0.000249667;-0.00147465;0.000862158;0.168888;5.92108;0.00107602;0.00114954;0.169306;5.90646;52.7686;97.7686;-0.00694265;0.000245625;0.00263697;-0.00256994;-0.00147739;0.00377975;0.0112443;0;0.0222669;-0.339905;0.0040429;-0.456907;0.569487;-6.86686;0.000273233;-2.08586e-05;-0.0008097;0.000273635;-0.000810101;0.000541868;0.33745;2.9634;0.000650747;0.000722491;0.337779;2.96052;46.076;91.076;-0.00405775;0.000267237;0.00341823;-0.00346368;-0.000815546;0.00469831;0.00608018;0;0.0267999;0.0399303;3.26544
162000;163;25.7549;-0.00324481;-0.000125972;-2.17293;25.6571;0.555344;-0.0805328;-0.00232951;-0.281026;-0.257465;0.00366956;-0.190316;0.32019;-7.3973;0.000433624;0.000226264;-0.00148313;0.000459972;-0.00150948;0.000984725;0.292371;3.42031;0.00118966;0.00131297;0.304722;3.28168;57.0758;102.076;-0.00679819;0.000430554;0.00293631;-0.00248898;-0.00148742;0.00242378;0.0112445;0;0.0245556;-0.342775;0.00453586;-0.461131;0.574593;-6.87109;0.000357166;-7.43252e-05;-0.000655442;0.000362592;-0.000660868;0.00051173;0.544924;1.83512;0.000599201;0.000682307;0.548661;1.82262;42.105;87.105;-0.00389763;0.000351746;0.00314182;-0.00329373;-0.000660378;0.00496526;0.00675535;0;0.0239969;0.040997;3.27374
163000;164;25.7556;-0.00255171;-9.90641e-05;-2.1717;25.6579;0.55392;-0.0793019;-0.00149878;-0.282449;-0.259721;0.00235175;-0.187741;0.32048;-7.39472;0.000517313;0.000246508;-0.00174421;0.00054387;-0.00177077;0.00115732;0.296588;3.37168;0.00139754;0.00154309;0.307138;3.25587;57.2784;102.278;-0.00711553;0.000514067;0.00304681;-0.00256014;-0.00174883;0.00381136;0.0130586;0;0.0185193;-0.34477;0.0033119;-0.462201;0.576635;-6.87216;0.000300856;-0.000133879;-0.000644076;0.000319458;-0.000662678;0.000491068;0.467112;2.14081;0.000578463;0.000654757;0.482071;2.07438;38.5303;83.5303;-0.003877;0.000294962;0.00316549;-0.00343636;-0.00064908;0.0050752;0.0060574;0;0.0290261;0.0422582;3.28017
164000;165;25.7576;-0.000508607;-1.97455e-05;-2.17234;25.6598;0.556433;-0.0799424;0.000443515;-0.279936;-0.261215;0.00518919;-0.199822;0.328922;-7.4068;0.000190459;0.000471621;-0.00237522;0.000274406;-0.00245916;0.00136678;0.0801861;12.471;0.00173814;0.00182238;0.111585;8.96178;65.8318;110.832;-0.00679024;0.000187936;0.00323159;-0.00229545;-0.00238034;0.00252923;0.0116525;0;0.0185506;-0.346814;0.0053238;-0.476261;0.58918;-6.88622;0.000192733;-0.000121639;-0.000521539;0.000212879;-0.000541685;0.000377282;0.369546;2.70602;0.000449224;0.000503043;0.392994;2.54457;37.0512;82.0512;-0.00326702;0.000187432;0.00301314;-0.00325866;-0.000526073;0.00452253;0.00708039;0;0.025108;0.0439043;3.28178
165000;166;25.7579;-0.000217042;-8.42616e-06;-2.17081;25.6603;0.554843;-0.0784107;0.000900242;-0.281526;-0.266271;0.00465245;-0.196809;0.331143;-7.40379;0.000210741;0.000474958;-0.00162291;0.000326463;-0.00173863;0.00103255;0.129854;7.70097;0.00128184;0.00137673;0.18777;5.32566;65.5963;110.596;-0.00804574;0.000208016;0.003327;-0.00238232;-0.00162834;0.00682398;0.0123434;0;0.0194887;-0.351146;0.00502371;-0.478698;0.593701;-6.88865;0.00018358;-0.000119893;-0.000550623;0.000202662;-0.000569705;0.000386184;0.333404;2.99937;0.000462406;0.000514911;0.355731;2.81111;37.6058;82.6058;-0.00285271;0.000178399;0.00297936;-0.00322142;-0.000555056;0.00322361;0.00662787;0;0.0298786;0.0447681;3.28974
166000;167;25.7592;0.00104339;4.05072e-05;-2.17185;25.6615;0.55265;-0.0794477;0.00212506;-0.28372;-0.266322;0.00543777;-0.197644;0.331693;-7.40462;0.000193134;0.000564329;-0.00147853;0.000365807;-0.00165121;0.00100851;0.130625;7.65549;0.00124085;0.00134468;0.221539;4.51388;68.2321;113.232;-0.00851848;0.000190576;0.00345494;-0.00233113;-0.00148435;0.00696288;0.0113225;0;0.0248694;-0.351739;0.00521878;-0.481723;0.596494;-6.89168;0.00022801;-0.000147775;-0.000582329;0.000254118;-0.000608437;0.000431277;0.391549;2.55396;0.000511809;0.000575036;0.417657;2.39431;36.528;81.528;-0.00277401;0.000222471;0.00303393;-0.00333206;-0.000586923;0.0051038;0.00895529;0;0.0337567;0.0474175;3.29676
167000;168;25.7609;0.00273372;0.00010613;-2.17133;25.6633;0.552432;-0.0789241;0.0038708;-0.283937;-0.269153;0.00599011;-0.198025;0.334205;-7.40501;8.98294e-05;0.000121766;-9.68084e-05;0.000149923;-0.000156902;0.000153412;0.92791;1.07769;0.000177161;0.00020455;0.95552;1.04655;71.2595;116.26;-0.00887527;8.59277e-05;0.00303922;-0.00279623;-0.00010142;0.00636812;0.00914329;0;0.0174465;-0.3542;0.00495468;-0.485619;0.601089;-6.89557;0.00021281;-0.000187741;-0.000541596;0.000256948;-0.000585735;0.000421341;0.392931;2.54498;0.000498714;0.000561789;0.438677;2.27958;33.2101;78.2101;-0.00331108;0.000207198;0.00297779;-0.00335566;-0.000546014;0.00619032;0.00844085;0;0.0364597;0.0477315;3.30391
168000;169;25.76;0.00186458;7.23881e-05;-2.17201;25.6625;0.545467;-0.0796041;0.00308983;-0.290903;-0.272052;0.00480055;-0.191348;0.33264;-7.39833;5.05759e-05;0.000249039;0.000532894;0.000638402;-5.49325e-05;0.000346667;-0.094908;-10.5365;0.000445044;0.000462223;11.6216;0.0860468;109.206;154.206;-0.00913322;4.68651e-05;0.00323521;-0.00273569;0.000527694;0.00689788;0.00924068;0;0.0156389;-0.356921;0.00472665;-0.485025;0.602216;-6.89498;0.000209925;-0.000143681;-0.000642985;0.000233479;-0.000666539;0.000450009;0.326484;3.06293;0.000539304;0.000600012;0.350285;2.85482;37.5492;82.5492;-0.00331773;0.000204173;0.00310489;-0.00339502;-0.000647798;0.00652101;0.00933986;0;0.032199;0.0506086;3.31069
169000;170;25.7611;0.00295169;0.000114592;-2.17232;25.6636;0.541533;-0.0799186;0.00423775;-0.294837;-0.27234;0.00794055;-0.199999;0.337982;-7.40698;-1.06892e-05;8.87044e-05;0.000948323;0.000956458;-1.88249e-05;0.000487642;0.0112717;88.7179;0.000644006;0.000650189;50.808;0.0196819;125.395;170.395;-0.00917059;-1.51719e-05;0.0031759;-0.00299553;0.000943288;0.00655641;0.00717008;0;0.0160013;-0.358053;0.00653472;-0.49546;0.611331;-6.90542;0.000326898;-7.40435e-05;-0.000628538;0.000332602;-0.000634242;0.000483422;0.520093;1.92273;0.000567191;0.000644563;0.524409;1.90691;41.8345;86.8345;-0.00320571;0.000321026;0.00327703;-0.00342832;-0.000633908;0.0060305;0.00883519;0;0.0310965;0.0515541;3.3179
170000;171;25.7607;0.00255337;9.91287e-05;-2.17204;25.6633;0.539944;-0.079636;0.00389531;-0.296425;-0.275478;0.00574571;-0.194177;0.337084;-7.40116;3.17118e-05;-0.000162925;0.00090588;0.000935259;2.33359e-06;0.000466462;-0.0350066;-28.566;0.000622729;0.00062195;;;140.591;5.59071;-0.00846613;2.70324e-05;0.0027403;-0.00306361;0.000902142;0.0064465;0.00744762;0;0.0209645;-0.360516;0.00589438;-0.496294;0.613445;-6.90625;0.000336513;-0.000110713;-0.000693622;0.000348277;-0.000705386;0.000526832;0.485153;2.0612;0.00061987;0.000702442;0.49374;2.02536;40.35;85.35;-0.00345061;0.000330043;0.00337461;-0.00359962;-0.000699314;0.00725808;0.00988923;0;0.0318496;0.0533335;3.3245
171000;172;25.7591;0.000917957;3.56376e-05;-2.17207;25.6618;0.532048;-0.0796652;0.00241615;-0.304322;-0.276219;0.00724098;-0.201824;0.342173;-7.4088;-6.75817e-05;-9.38915e-05;0.00153476;0.00154025;-7.30646e-05;0.000806655;0.044034;22.7097;0.00105203;0.00107554;21.0806;0.047437;131.028;176.028;-0.00864245;-7.18398e-05;0.00273643;-0.00291968;0.00153103;0.00726134;0.00742773;0;0.0282274;-0.361777;0.00694285;-0.50512;0.621351;-6.91508;0.000397523;-6.80638e-05;-0.000740202;0.000401581;-0.000744259;0.00057292;0.537047;1.86203;0.00067134;0.000763893;0.539571;1.85332;42.9253;87.9253;-0.00395191;0.000391031;0.00346463;-0.00360478;-0.000746206;0.00852896;0.010678;0;0.0330999;0.0549724;3.332
172000;173;25.7581;-2.90315e-05;-1.12708e-06;-2.17274;25.661;0.521848;-0.0803361;0.00161824;-0.314522;-0.279411;0.00605038;-0.193192;0.33975;-7.40017;-0.000193526;-0.00026516;0.00144564;0.00148747;-0.000235353;0.00086141;0.133869;7.46999;0.00107869;0.00114855;6.32016;0.158224;137.688;2.68821;-0.00811972;-0.00019828;0.00256891;-0.00309459;0.00144238;0.00580552;0.00803965;0;0.0162412;-0.364823;0.00625532;-0.506146;0.623953;-6.9161;0.000344909;-3.93031e-05;-0.000708813;0.000346373;-0.000710276;0.000528325;0.486601;2.05507;0.000621999;0.000704433;0.487659;2.05061;44.1992;89.1992;-0.00434077;0.000337698;0.00371592;-0.00379849;-0.000715721;0.00995175;0.011476;0;0.0298383;0.0569185;3.33856
173000;174;25.7573;-0.000852207;-3.30849e-05;-2.1728;25.6604;0.513217;-0.0803955;0.000960995;-0.323153;-0.281836;0.00690486;-0.195044;0.342814;-7.40202;2.12227e-05;-0.000285177;0.00165536;0.0017037;-2.71142e-05;0.000865407;-0.0128206;-77.9995;0.00114494;0.00115388;62.8341;0.0159149;136.012;1.01173;-0.00792529;1.67562e-05;0.00243652;-0.00300243;0.00165244;0.00501918;0.00856589;0;0.0242;-0.367468;0.00722734;-0.512423;0.630604;-6.92238;0.000293602;6.23367e-06;-0.000715753;0.00029364;-0.000715792;0.000504716;0.4102;2.43784;0.000599544;0.000672955;0.410231;2.43765;46.8531;91.8531;-0.00477394;0.000286076;0.0038888;-0.00388026;-0.00072332;0.0101789;0.0130784;0;0.0417187;0.0588393;3.34633
174000;175;25.7542;-0.00396045;-0.000153755;-2.17346;25.6573;0.50495;-0.081055;-0.00205083;-0.331419;-0.283372;0.00542928;-0.192225;0.342461;-7.39921;0.000160416;-0.000307266;0.00142514;0.00149583;8.97171e-05;0.000703058;-0.112562;-8.884;0.000968703;0.000937411;-16.6728;-0.059978;139.379;4.37927;-0.00736509;0.000156298;0.00227508;-0.00288635;0.0014226;0.00514694;0.00854377;0;0.0243417;-0.369477;0.00693126;-0.516596;0.635164;-6.92655;0.000344322;5.50462e-05;-0.000718342;0.000347166;-0.000721186;0.000534176;0.479329;2.08625;0.000629287;0.000712235;0.481382;2.07735;49.2348;94.2348;-0.00471249;0.000336496;0.0040632;-0.00395737;-0.000726601;0.0100326;0.0131088;0;0.0390577;0.0602639;3.35261
175000;176;25.7544;-0.00371899;-0.000144381;-2.17367;25.6576;0.50189;-0.0812642;-0.00176614;-0.33448;-0.284817;0.00669944;-0.191306;0.343167;-7.39829;0.000198154;-0.000144914;0.0018995;0.00191176;0.000185899;0.000862929;-0.104319;-9.58599;0.00121728;0.00115057;-10.2838;-0.0972399;128.58;173.58;-0.00709498;0.000194562;0.00239885;-0.00268435;0.00189664;0.00454724;0.00898089;0;0.0249421;-0.371631;0.00855192;-0.521444;0.64038;-6.9314;0.000293549;0.000206448;-0.000722473;0.000333895;-0.000762819;0.000548357;0.406311;2.46117;0.00064913;0.000731143;0.437712;2.2846;57.4677;102.468;-0.00475631;0.000285682;0.0043812;-0.00397255;-0.000732056;0.010066;0.0132027;0;0.0421408;0.0626129;3.35516
176000;177;25.7541;-0.00409204;-0.000158864;-2.17472;25.6573;0.494476;-0.0823206;-0.00208617;-0.341893;-0.285838;0.00605795;-0.193064;0.344984;-7.40004;0.000265807;-0.000135291;0.00179578;0.00180765;0.000253936;0.000776856;-0.148018;-6.75593;0.00113;0.00103581;-7.11852;-0.140479;129.106;174.106;-0.00682662;0.000262121;0.00245251;-0.00271914;0.00179278;0.00368493;0.00950735;0;0.0199038;-0.373218;0.00825825;-0.528706;0.647217;-6.93866;0.000186669;0.000208977;-0.000721948;0.000232428;-0.000767707;0.000500068;0.258563;3.86753;0.000604367;0.000666757;0.302756;3.30299;59.0318;104.032;-0.00510919;0.000177939;0.004598;-0.00418404;-0.000732505;0.0103299;0.0143833;0;0.0347766;0.064924;3.36231
177000;178;25.7522;-0.00590097;-0.000229091;-2.17661;25.6555;0.484918;-0.0842093;-0.00387964;-0.351452;-0.287275;0.00658034;-0.192476;0.345857;-7.39946;0.000326275;-0.000329337;0.00168262;0.00175836;0.000250537;0.000753911;-0.193909;-5.15707;0.00109829;0.00100521;-7.01836;-0.142483;136.975;1.97531;-0.0074308;0.000322326;0.00217477;-0.00283005;0.00168031;0.004787;0.00888758;0;0.0212577;-0.375636;0.00963521;-0.536459;0.654968;-6.94641;0.000235858;0.000189856;-0.000737053;0.000271594;-0.000772789;0.000522191;0.320001;3.12499;0.000625691;0.000696255;0.351446;2.84538;57.3712;102.371;-0.00567136;0.000228412;0.00423985;-0.00386409;-0.000746029;0.0111193;0.014977;0;0.0369556;0.0676043;3.37287
178000;179;25.7518;-0.00639274;-0.000248183;-2.17674;25.6551;0.48188;-0.0843354;-0.00432672;-0.35449;-0.288638;0.00644591;-0.192378;0.346933;-7.39936;0.000266358;-0.000248036;0.00177672;0.00181641;0.000226667;0.00079487;-0.149916;-6.67042;0.0011429;0.00105983;-8.01354;-0.124789;132.522;177.522;-0.00689639;0.000262889;0.00215355;-0.002646;0.00177443;0.00383144;0.00878274;0;0.0295707;-0.377293;0.00992305;-0.541022;0.659662;-6.95098;0.000203265;7.4847e-05;-0.0007019;0.000209412;-0.000708047;0.00045873;0.289592;3.45313;0.000555161;0.00061164;0.29576;3.38112;51.3882;96.3882;-0.00513559;0.00019527;0.00414568;-0.00399967;-0.000710497;0.00965577;0.01594;0;0.0450684;0.0691829;3.37644
179000;180;25.7514;-0.00673777;-0.000261578;-2.17752;25.6547;0.479019;-0.0851154;-0.00468566;-0.357351;-0.289928;0.00665913;-0.193646;0.348714;-7.40063;0.000201841;-0.000281746;0.00147462;0.0015342;0.000142262;0.00069597;-0.136876;-7.30586;0.000978833;0.000927961;-10.7843;-0.0927271;137.519;2.51861;-0.00693207;0.000198108;0.00218705;-0.0027474;0.00147228;0.0030237;0.00926261;0;0.0241962;-0.379191;0.0102866;-0.546174;0.664979;-6.95613;9.17269e-05;0.000110006;-0.000591982;0.00010899;-0.000609245;0.000359118;0.154949;6.45374;0.000446945;0.000478824;0.178894;5.5899;55.6866;100.687;-0.00466959;8.44597e-05;0.00403146;-0.00381413;-0.000600107;0.0087177;0.0142102;0;0.0426343;0.0710182;3.3827
180000;181;25.7529;-0.00525243;-0.000203913;-2.17758;25.6562;0.476616;-0.0851743;-0.00315497;-0.359754;-0.290998;0.00762436;-0.193115;0.34933;-7.4001;0.000339921;-0.000185862;0.00116615;0.00120604;0.000300036;0.000453;-0.291489;-3.43066;0.000725011;0.000604;-4.01964;-0.248779;138.391;3.39075;-0.00714723;0.000336578;0.00222299;-0.00259273;0.0011637;0.00419496;0.0096662;0;0.0174341;-0.380965;0.0109104;-0.55022;0.669324;-6.96018;-1.25698e-05;2.93631e-05;-0.000548075;-1.09646e-05;-0.00054968;0.000269358;-0.0229345;-43.6025;0.000362854;0.000359144;-0.0199472;-50.1324;50.2008;95.2008;-0.00421612;-1.95713e-05;0.00379886;-0.00374215;-0.000555294;0.00864071;0.0135657;0;0.0286615;0.0736189;3.39051
181000;182;25.7526;-0.00549914;-0.000213491;-2.17868;25.6559;0.474248;-0.0862829;-0.00345286;-0.362121;-0.292613;0.00692399;-0.192814;0.350496;-7.39979;0.000367636;-7.50595e-05;0.00126124;0.0012675;0.000361375;0.000453065;-0.291487;-3.43069;0.000753986;0.000604086;-3.50745;-0.285107;130.354;175.354;-0.00681055;0.000364582;0.00232496;-0.00247293;0.00125855;0.00354105;0.00892398;0;0.0264411;-0.383131;0.0104638;-0.553438;0.673196;-6.96339;-0.000157261;-4.04153e-05;-0.000489056;-0.000152409;-0.000493908;0.000170749;-0.321561;-3.10983;0.000292041;0.000227666;-0.308578;-3.24067;40.55;85.55;-0.00468374;-0.000164521;0.00372823;-0.00381031;-0.000496009;0.00844254;0.0135098;0;0.0412821;0.0756136;3.39756
182000;183;25.7515;-0.00668062;-0.00025936;-2.17897;25.6548;0.46969;-0.0865708;-0.00457937;-0.36668;-0.293615;0.00548398;-0.190763;0.350186;-7.39774;0.000294839;-0.000318698;0.00137599;0.00146294;0.000207887;0.000627526;-0.214275;-4.66691;0.000913912;0.000836701;-7.03719;-0.142102;140.663;5.66329;-0.00686647;0.000291171;0.00209257;-0.00272736;0.00137385;0.00395519;0.0101445;0;0.0241151;-0.384644;0.00974151;-0.556156;0.67628;-6.96611;-8.36731e-05;-9.07412e-07;-0.0006274;-8.36716e-05;-0.000627402;0.000271865;-0.133365;-7.49823;0.000393355;0.000362487;-0.133362;-7.49839;47.5894;92.5894;-0.0044713;-9.05549e-05;0.00370594;-0.00370977;-0.000634272;0.0088492;0.0120689;0;0.0387339;0.0776834;3.40497
183000;184;25.7537;-0.00444037;-0.000172387;-2.18002;25.6569;0.471639;-0.0876134;-0.00245501;-0.364731;-0.294629;0.00598187;-0.18935;0.350279;-7.39633;0.000418237;-0.000222467;0.0014621;0.00150754;0.000372802;0.000567367;-0.286052;-3.49587;0.000906675;0.000756489;-4.04379;-0.247292;135.994;0.994355;-0.00731583;0.000414703;0.00222577;-0.00266815;0.00145965;0.00394166;0.0102374;0;0.0234098;-0.386179;0.00980405;-0.55716;0.677981;-6.96712;-0.000271795;-5.33522e-05;-0.000541827;-0.000261636;-0.000551986;0.000145175;-0.501627;-1.99351;0.000318833;0.000193567;-0.473991;-2.10975;37.3162;82.3162;-0.00440368;-0.000278783;0.00363044;-0.00373814;-0.00054842;0.0083693;0.0122484;0;0.0332155;0.080659;3.41245
184000;185;25.7533;-0.00482414;-0.000187286;-2.18066;25.6566;0.464066;-0.088255;-0.00275664;-0.372304;-0.29589;0.00633577;-0.191455;0.352485;-7.39844;0.000401613;-0.000258181;0.00118436;0.00126185;0.000324126;0.000468861;-0.339097;-2.94901;0.000756695;0.000625148;-3.89308;-0.256866;142.492;7.49186;-0.00655112;0.000398143;0.00213309;-0.00264758;0.00118212;0.00343531;0.00919767;0;0.0188678;-0.387889;0.0101766;-0.563819;0.684437;-6.97377;-0.000198467;-4.93372e-05;-0.000484251;-0.000190189;-0.000492529;0.00015117;-0.409843;-2.43996;0.000286808;0.00020156;-0.386148;-2.58968;38.0342;83.0342;-0.00453272;-0.000205622;0.00368317;-0.00378291;-0.000491036;0.00815592;0.0124297;0;0.0260416;0.083572;3.41989
185000;186;25.7534;-0.00473112;-0.000183675;-2.18136;25.6567;0.464738;-0.0889572;-0.00273513;-0.371632;-0.297515;0.00524851;-0.19;0.353048;-7.39698;0.00027433;-0.000237725;0.000594721;0.000721188;0.000147862;0.000286663;-0.461276;-2.1679;0.000439868;0.000382217;-4.87743;-0.205026;157.769;22.7688;-0.00702911;0.000270977;0.00212606;-0.00260075;0.00059249;0.00391299;0.00990007;0;0.0194598;-0.390346;0.008642;-0.564038;0.685991;-6.97399;-0.000294786;-3.07426e-05;-0.000666258;-0.000292259;-0.000668785;0.000188263;-0.44245;-2.26014;0.000387143;0.000251017;-0.437;-2.28833;43.986;88.986;-0.00385606;-0.000301605;0.00362982;-0.00369266;-0.000672849;0.00735874;0.0103566;0;0.0261199;0.0858835;3.42615
186000;187;25.754;-0.00417553;-0.000162105;-2.18161;25.6572;0.462434;-0.0892047;-0.00215687;-0.373935;-0.298606;0.00572813;-0.190741;0.354373;-7.39772;0.000231958;-0.000152303;0.000777369;0.000817016;0.00019231;0.000312353;-0.298389;-3.35133;0.000493233;0.000416471;-4.24842;-0.235381;143.682;8.68215;-0.00718882;0.000228646;0.00227541;-0.0025787;0.000774793;0.00417188;0.0109422;0;0.0253275;-0.39176;0.00891075;-0.566841;0.689104;-6.9768;-0.000253145;-0.00013177;-0.000653193;-0.000213643;-0.000692695;0.000239526;-0.387551;-2.58031;0.000409596;0.000319368;-0.308422;-3.24231;31.7065;76.7065;-0.00389161;-0.00026066;0.00361358;-0.00387861;-0.000659717;0.00746708;0.0130279;0;0.0312305;0.0877932;3.42851
187000;188;25.7546;-0.00356565;-0.000138428;-2.18198;25.6579;0.458707;-0.0895805;-0.00150974;-0.377663;-0.300654;0.00588898;-0.192126;0.356847;-7.39911;0.000482739;-0.000217966;0.000942261;0.0010292;0.000395799;0.000316701;-0.51232;-1.95191;0.000599464;0.000422267;-2.60031;-0.38457;148.68;13.68;-0.00718799;0.000479137;0.00225849;-0.00269329;0.000939737;0.00382109;0.0100664;0;0.0239867;-0.394578;0.00829248;-0.570034;0.693325;-6.97999;-0.00020128;-0.000172995;-0.000613443;-0.000138295;-0.000676428;0.000269067;-0.328116;-3.04771;0.000412652;0.000358755;-0.204449;-4.8912;27.9506;72.9506;-0.00446872;-0.000209402;0.00368594;-0.00403352;-0.000620225;0.00725432;0.00977406;0;0.0269021;0.0914585;3.4343
188000;189;25.7531;-0.00504335;-0.000195796;-2.18217;25.6565;0.451104;-0.0897708;-0.00287439;-0.385266;-0.301377;0.00558504;-0.192831;0.357831;-7.39981;0.000373602;-0.00023157;0.000150727;0.000519153;5.17642e-06;0.000256988;-2.47866;-0.403444;0.000344389;0.000342651;;;9.81273;54.8127;-0.00695842;0.000369914;0.00226235;-0.00272604;0.000148196;0.00394877;0.01115;0;0.0227703;-0.395671;0.00758292;-0.573313;0.696635;-6.98327;-0.000279926;-0.000188964;-0.000736534;-0.000211869;-0.000804591;0.000296361;-0.380058;-2.63117;0.000481566;0.000395148;-0.263325;-3.79759;28.8776;73.8776;-0.00443848;-0.000288151;0.00367987;-0.00405956;-0.000743292;0.00722102;0.0102857;0;0.0248329;0.0952709;3.44095
189000;190;25.7555;-0.00262183;-0.000101786;-2.18313;25.6588;0.453755;-0.0907324;-0.000572285;-0.382615;-0.302587;0.00504312;-0.190345;0.357513;-7.39733;0.000424981;-0.000339278;0.000483932;0.000795013;0.0001139;0.000340556;-0.878183;-1.13871;0.000496417;0.000454075;-6.97991;-0.143268;172.276;37.2761;-0.00702629;0.000421084;0.00213463;-0.00281304;0.000481712;0.0037804;0.0106403;0;0.0207791;-0.397471;0.00664897;-0.573187;0.697546;-6.98314;-0.000112838;-0.000180536;-0.000902338;-7.35131e-05;-0.000941662;0.000434075;-0.12505;-7.99678;0.000604762;0.000578766;-0.0780673;-12.8095;36.4422;81.4422;-0.00435419;-0.000120823;0.00363615;-0.00400023;-0.000908938;0.00583457;0.00871723;0;0.0225606;0.0984574;3.44806
190000;191;25.755;-0.00318917;-0.000123812;-2.1829;25.6584;0.448103;-0.0904976;-0.00102246;-0.388267;-0.303979;0.005067;-0.190955;0.359016;-7.39794;0.000331654;-0.000209552;1.65763e-05;0.00043628;-8.805e-05;0.000262165;-20.0078;-0.0499806;0.000324214;0.000349554;4.95492;0.20182;16.4512;61.4512;-0.00691361;0.000327965;0.00230486;-0.00272475;1.39421e-05;0.00330774;0.0103573;0;0.0193264;-0.399498;0.00584678;-0.574993;0.700178;-6.98495;-4.18119e-05;-0.000237767;-0.000863482;2.20302e-05;-0.000927324;0.000474677;-0.0484224;-20.6516;0.000625689;0.000632903;0.0237567;42.0933;33.2891;78.2891;-0.00455945;-5.00432e-05;0.00358561;-0.00406429;-0.000869888;0.00549024;0.00882302;0;0.0224443;0.101736;3.4551
191000;192;25.7557;-0.00243575;-9.45623e-05;-2.18393;25.6591;0.446499;-0.0915244;-0.000325619;-0.389871;-0.305111;0.00476656;-0.189268;0.359079;-7.39625;0.000387038;-0.000163079;0.000172855;0.000475044;8.48483e-05;0.000195098;-2.23909;-0.446609;0.000292544;0.000260131;-5.59875;-0.178611;13.411;58.411;-0.00700716;0.000383515;0.00233318;-0.00265987;0.000170147;0.00313009;0.0104054;0;0.0253128;-0.401057;0.00533279;-0.576209;0.702063;-6.98616;3.66494e-05;-0.000223837;-0.000952218;8.49566e-05;-0.00100052;0.000542741;0.0384885;25.9818;0.000697063;0.000723654;0.0849121;11.7769;36.2285;81.2285;-0.00453872;2.86922e-05;0.00354424;-0.00399564;-0.000958479;0.00572271;0.00994328;0;0.0239534;0.105465;3.46264
192000;193;25.7576;-0.000564818;-2.19277e-05;-2.18363;25.661;0.444513;-0.0912234;0.00161244;-0.391856;-0.305908;0.003625;-0.189428;0.359827;-7.39641;0.000489878;7.71518e-06;-7.15533e-05;0.000489984;-7.16593e-05;0.000280822;6.84634;0.146063;0.000352976;0.000374429;6.83769;0.146248;43.3688;88.3688;-0.00707853;0.000486749;0.00251661;-0.00250259;-7.47202e-05;0.00291255;0.0111784;0;0.0227707;-0.402322;0.00334458;-0.579857;0.705768;-6.98981;2.21772e-05;-0.000262814;-0.000888603;9.25734e-05;-0.000958999;0.000525786;0.0249574;40.0683;0.000672318;0.000701048;0.0965312;10.3593;33.242;78.242;-0.00438673;1.4138e-05;0.00348938;-0.00401842;-0.000894662;0.00475163;0.00849332;0;0.0239388;0.110632;3.47015
193000;194;25.7572;-0.000942766;-3.66007e-05;-2.18445;25.6606;0.440471;-0.0920461;0.00123277;-0.395899;-0.307724;0.00413564;-0.190812;0.362105;-7.39779;0.000464516;-0.000154063;-0.000506883;0.000488364;-0.000530732;0.000509548;0.916416;1.09121;0.000588545;0.000679397;0.920172;1.08675;36.3997;81.3997;-0.00769233;0.000460812;0.00241578;-0.00272641;-0.00050979;0.00562141;0.0115021;0;0.0255112;-0.404345;0.00361959;-0.583642;0.710032;-6.9936;0.000105582;-0.000267715;-0.000943541;0.000169948;-0.00100791;0.000588928;0.1119;8.93658;0.000735165;0.000785237;0.168615;5.93067;34.5384;79.5384;-0.00468813;9.71716e-05;0.00357078;-0.00411023;-0.000949887;0.00501995;0.00890025;0;0.0228485;0.11327;3.47796
194000;195;25.7578;-0.000351748;-1.36558e-05;-2.18444;25.6613;0.437154;-0.0920432;0.00188297;-0.399216;-0.308971;0.0032352;-0.190025;0.362744;-7.39701;0.000336534;-9.90872e-05;-0.000755395;0.000345452;-0.000764314;0.000554883;0.445507;2.24463;0.00065576;0.000739844;0.451977;2.2125;42.0826;87.0826;-0.00707686;0.000332772;0.002544;-0.00274507;-0.000758629;0.0033845;0.0115109;0;0.0217439;-0.406285;0.0026457;-0.58662;0.713581;-6.99658;0.000203247;-0.000186909;-0.00103972;0.000230745;-0.00106722;0.000648984;0.195481;5.11558;0.000799573;0.000865311;0.21621;4.62513;39.5802;84.5802;-0.00448864;0.000194616;0.00378057;-0.00415933;-0.00104686;0.00539705;0.00961462;0;0.0237188;0.119655;3.48436
195000;196;25.7578;-0.000356837;-1.38534e-05;-2.18442;25.6614;0.431701;-0.0920214;0.00197203;-0.404668;-0.310416;0.00299325;-0.191904;0.364958;-7.39888;0.000399832;8.58924e-05;-0.000782817;0.000406038;-0.000789023;0.00059753;0.510761;1.95786;0.000701679;0.000796707;0.514608;1.94323;51.0935;96.0935;-0.00746234;0.000396317;0.00282188;-0.00265333;-0.000786798;0.00307091;0.0116202;0;0.0231258;-0.408032;0.00162295;-0.592379;0.719309;-7.00234;0.0002365;-0.000193384;-0.000988389;0.000266306;-0.00101819;0.00064225;0.239278;4.17924;0.000782813;0.000856334;0.261547;3.82341;38.9104;83.9104;-0.0048802;0.000227992;0.00373847;-0.00413006;-0.000995365;0.00590453;0.00996781;0;0.0236911;0.124841;3.49226
196000;197;25.7585;0.000369632;1.43501e-05;-2.18541;25.662;0.431115;-0.093008;0.00262708;-0.405255;-0.311827;0.00303016;-0.193462;0.366978;-7.40044;0.000352138;5.342e-05;-0.0012263;0.000353944;-0.00122811;0.000791026;0.287154;3.48245;0.000958751;0.0010547;0.288203;3.46978;51.3656;96.3656;-0.00729443;0.000348422;0.00282954;-0.00272709;-0.00123031;0.00362338;0.0116635;0;0.0284109;-0.410055;0.00142679;-0.597365;0.724564;-7.00732;0.000362591;-0.000182538;-0.00095387;0.000387433;-0.000978711;0.000683072;0.380126;2.6307;0.000812996;0.000910763;0.39586;2.52615;39.2325;84.2325;-0.00548403;0.000353253;0.00395561;-0.00432613;-0.000961684;0.00807889;0.0111439;0;0.0207094;0.12975;3.49901
197000;198;25.7585;0.000382904;1.48653e-05;-2.18659;25.662;0.425532;-0.0941845;0.00263338;-0.410838;-0.313786;0.00153545;-0.189924;0.36679;-7.3969;0.000351955;7.79791e-05;-0.00161223;0.000355046;-0.00161532;0.000985184;0.218303;4.58079;0.00121268;0.00131358;0.219799;4.54962;53.7682;98.7682;-0.00726449;0.000348482;0.0027878;-0.00263718;-0.00161612;0.00454547;0.0129499;0;0.0224855;-0.412585;0.000161803;-0.599554;0.727799;-7.00951;0.000448377;-3.90706e-05;-0.0010953;0.000449365;-0.00109628;0.000772824;0.409366;2.4428;0.000918065;0.00103043;0.409899;2.43963;45.5818;90.5818;-0.00572558;0.000438441;0.00437404;-0.004459;-0.00110487;0.00848477;0.011394;0;0.0222064;0.135379;3.50276
198000;199;25.7586;0.000452061;1.75502e-05;-2.18762;25.6621;0.420843;-0.0952142;0.00269236;-0.415527;-0.313988;0.00179105;-0.193099;0.368618;-7.40008;0.000427984;9.46524e-05;-0.0016983;0.000432189;-0.00170251;0.00106735;0.252007;3.96814;0.00130318;0.00142313;0.253855;3.93926;53.8895;98.8895;-0.00755749;0.00042432;0.00289285;-0.00270951;-0.00170249;0.0040882;0.0122557;0;0.0279103;-0.413959;-0.000353154;-0.606227;0.73408;-7.01618;0.000510041;4.50241e-05;-0.00104154;0.000511347;-0.00104284;0.000777095;0.4897;2.04207;0.000914635;0.00103613;0.490338;2.03941;48.2486;93.2486;-0.00616338;0.000499667;0.00463935;-0.00455644;-0.00105231;0.00895422;0.0128333;0;0.01936;0.142074;3.50796
199000;200;25.7584;0.000298115;1.15736e-05;-2.18801;25.662;0.411364;-0.0956075;0.00265799;-0.425006;-0.315533;-0.000720201;-0.187766;0.367176;-7.39475;0.00049027;0.000149482;-0.00188682;0.000499633;-0.00189619;0.00119791;0.259839;3.84854;0.00145946;0.00159721;0.263494;3.79516;55.268;100.268;-0.00752815;0.00048644;0.00306443;-0.00277241;-0.00189152;0.0043096;0.0132181;0;0.0260682;-0.415656;-0.00226227;-0.607778;0.736321;-7.01773;0.000620496;8.28922e-05;-0.00102673;0.000624657;-0.00103089;0.000827774;0.604341;1.65469;0.000965375;0.0011037;0.605938;1.65033;49.0608;94.0608;-0.00595494;0.000610113;0.00471723;-0.00455909;-0.00103786;0.00968902;0.0128326;0;0.0219782;0.153742;3.51771
200000;201;25.7573;-0.000827655;-3.21318e-05;-2.1887;25.6609;0.408323;-0.0962939;0.00151804;-0.428047;-0.317454;-0.00177907;-0.19055;0.370256;-7.39753;0.000269758;7.75633e-05;-0.00224306;0.00027215;-0.00224545;0.0012588;0.120263;8.31508;0.00159544;0.0016784;0.1212;8.25079;55.6914;100.691;-0.0081083;0.000265344;0.00312013;-0.00297267;-0.00224794;0.00532055;0.0121805;0;0.0358464;-0.418101;-0.00244522;-0.61586;0.744377;-7.02582;0.000621661;0.000166372;-0.00122034;0.000636567;-0.00123524;0.000935905;0.509418;1.96303;0.00109896;0.00124787;0.515338;1.94048;51.9206;96.9206;-0.00625981;0.00061189;0.00474928;-0.00442499;-0.00123161;0.00864411;0.0146061;0;0.0204225;0.157174;3.52187
201000;202;25.7562;-0.00199134;-7.7309e-05;-2.18933;25.6599;0.39743;-0.0969299;0.000466743;-0.438939;-0.318618;-0.00203038;-0.190166;0.371059;-7.39715;0.000173707;7.9279e-05;-0.00230458;0.00017624;-0.00230712;0.00124168;0.0753744;13.2671;0.00160006;0.00165557;0.0763897;13.0908;56.2027;101.203;-0.00817296;0.00016907;0.00319732;-0.00304651;-0.0023097;0.00619525;0.0136472;0;0.0262828;-0.419546;-0.00265888;-0.624081;0.752;-7.03404;0.000769909;8.70702e-05;-0.00114665;0.000773857;-0.0011506;0.000962228;0.671441;1.48934;0.00111816;0.00128297;0.672568;1.48684;48.6649;93.6649;-0.00645004;0.000759059;0.00482589;-0.00466084;-0.00115831;0.00940367;0.0154778;0;0.0205995;0.166688;3.52947
202000;203;25.7585;0.000352058;1.36678e-05;-2.19106;25.6621;0.397273;-0.0986605;0.00267366;-0.439096;-0.320141;-0.00142827;-0.194502;0.374598;-7.40148;0.00026715;0.000470744;-0.002207;0.000353689;-0.00229354;0.00132361;0.121047;8.26126;0.00165953;0.00176482;0.154211;6.48461;64.2298;109.23;-0.00876317;0.000263964;0.00350223;-0.00256826;-0.00221303;0.00691167;0.0131707;0;0.0240353;-0.422246;-0.00339719;-0.628287;0.756999;-7.03824;0.000750157;6.16081e-05;-0.00117634;0.000752125;-0.00117831;0.000965216;0.637705;1.56812;0.00112355;0.00128695;0.63831;1.56664;48.0986;93.0986;-0.00626464;0.000739978;0.00462843;-0.00451402;-0.00118706;0.00927418;0.0147135;0;0.0212096;0.175666;3.53721
203000;204;25.756;-0.00216601;-8.40903e-05;-2.19013;25.6598;0.382517;-0.0977239;0.000450301;-0.453852;-0.323477;-0.00551667;-0.183978;0.372177;-7.39096;6.87486e-05;0.000291448;-0.00223325;0.000105075;-0.00226957;0.00118732;0.0307841;32.4843;0.00154926;0.0015831;0.0462971;21.5996;61.2218;106.222;-0.00863271;6.43582e-05;0.00355298;-0.00297762;-0.00223953;0.00653832;0.0127749;0;0.0265376;-0.425345;-0.00540781;-0.631226;0.76118;-7.04118;0.000620013;4.01774e-05;-0.000934543;0.00062105;-0.00093558;0.000778315;0.66344;1.5073;0.000904816;0.00103775;0.663813;1.50645;47.4265;92.4265;-0.00598369;0.00061026;0.0044914;-0.00441798;-0.000944638;0.00842433;0.0162196;0;0.0261922;0.184303;3.54459
204000;205;25.7572;-0.000901135;-3.49845e-05;-2.1888;25.6612;0.384332;-0.096397;0.00180602;-0.452038;-0.325301;-0.00457376;-0.188466;0.37598;-7.39545;0.000196556;0.000269532;-0.00201038;0.000228996;-0.00204282;0.00113591;0.0977704;10.228;0.00144428;0.00151454;0.112098;8.92075;59.482;104.482;-0.00905548;0.000191971;0.00357211;-0.00304036;-0.00201673;0.00719812;0.0123229;0;0.0231951;-0.426906;-0.00520939;-0.638203;0.767841;-7.04816;0.000519733;-9.40486e-05;-0.00092456;0.000525832;-0.000930659;0.000728245;0.562141;1.77891;0.000851664;0.000970994;0.56501;1.76988;42.5774;87.5774;-0.00584317;0.000510098;0.00419771;-0.00439201;-0.000933375;0.00862896;0.0160189;0;0.026599;0.194264;3.55188
205000;206;25.7564;-0.00178987;-6.94875e-05;-2.19015;25.6603;0.37483;-0.0977515;0.000938937;-0.46154;-0.325454;-0.00745146;-0.183045;0.373472;-7.39003;3.63114e-05;0.000467854;-0.00217425;0.000131253;-0.00226919;0.00120022;0.0167007;59.8778;0.00155839;0.00160029;0.0578414;17.2887;65.441;110.441;-0.00871086;3.24522e-05;0.00374583;-0.00281739;-0.00218117;0.00747313;0.0132418;0;0.0224115;-0.42825;-0.00720039;-0.640037;0.770128;-7.04999;0.000461963;-6.0384e-05;-0.000906068;0.000464623;-0.000908728;0.000686676;0.509855;1.96134;0.000806606;0.000915568;0.51129;1.95584;43.9957;88.9957;-0.00561186;0.000453584;0.00396892;-0.0040952;-0.00091395;0.00810341;0.0167402;0;0.0302251;0.207699;3.55864
206000;207;25.7581;-8.48551e-05;-3.2943e-06;-2.18962;25.6621;0.373881;-0.0972133;0.00271011;-0.462489;-0.327349;-0.00541867;-0.191112;0.379092;-7.39809;1.96631e-05;0.000473967;-0.00154861;0.000151777;-0.00168072;0.000916249;0.0126973;78.757;0.00117435;0.00122167;0.0903046;11.0736;66.7326;111.733;-0.00955745;1.52745e-05;0.00394283;-0.00300035;-0.00155628;0.00781231;0.011321;0;0.0148397;-0.430093;-0.00738955;-0.649639;0.779144;-7.05959;0.000344142;-0.000193389;-0.000689533;0.000379138;-0.000724529;0.000551833;0.499094;2.00363;0.00064752;0.000735778;0.523288;1.91099;35.9509;80.9509;-0.00479622;0.000335735;0.00371488;-0.0041057;-0.000696419;0.00706018;0.0184481;0;0.0316004;0.214973;3.56593
207000;208;25.757;-0.00109512;-4.25153e-05;-2.18783;25.6614;0.365067;-0.095427;0.00197533;-0.471303;-0.329756;-0.00850538;-0.188151;0.379753;-7.39513;-3.93806e-06;0.000236196;-0.00136402;3.5913e-05;-0.00140387;0.000719891;;;0.00094811;0.000959854;0.0255815;39.0908;60.2206;105.221;-0.0099899;-8.90834e-06;0.00362946;-0.00316169;-0.00137058;0.0104207;0.0106709;0;0.0232518;-0.431671;-0.00867831;-0.656296;0.785582;-7.06625;0.000333686;-0.000320154;-0.000625892;0.000430695;-0.000722901;0.000576798;0.533136;1.87569;0.000673113;0.000769064;0.595787;1.67845;29.2163;74.2163;-0.00432905;0.000325601;0.00339062;-0.00403449;-0.000631592;0.0063483;0.0192677;0;0.0401399;0.229282;3.57149
208000;209;25.7579;-0.000267209;-1.03738e-05;-2.18869;25.6621;0.363703;-0.0962924;0.00275189;-0.472666;-0.33204;-0.00926991;-0.184815;0.380122;-7.3918;-0.000176347;0.000205906;-0.00110859;-0.000132894;-0.00115204;0.000509574;-0.159074;-6.2864;0.000727786;0.000679432;-0.115355;-8.6689;62.1234;107.123;-0.0104448;-0.00018163;0.00366528;-0.0032567;-0.00111529;0.0106289;0.0107583;0;0.0251344;-0.43361;-0.00917265;-0.659984;0.789735;-7.06994;0.00025817;-0.000223434;-0.000564996;0.000314907;-0.000621733;0.00046832;0.456941;2.18847;0.000550356;0.000624426;0.506498;1.97434;31.8654;76.8654;-0.00394305;0.000250246;0.00353776;-0.00398772;-0.000571232;0.00682057;0.0181607;0;0.0464232;0.241748;3.57729
209000;210;25.7557;-0.0024601;-9.55078e-05;-2.18774;25.6602;0.352832;-0.0953386;0.000783936;-0.483537;-0.334124;-0.011844;-0.182335;0.380822;-7.38932;-8.74104e-05;6.14216e-05;-0.000477656;-7.79714e-05;-0.000487095;0.000204562;-0.182999;-5.46452;0.000302112;0.000272749;-0.160074;-6.2471;56.0792;101.079;-0.00971141;-9.29074e-05;0.00343768;-0.00331615;-0.000483565;0.00932739;0.0103522;0;0.0243342;-0.436231;-0.0123562;-0.65819;0.789724;-7.06815;0.000284695;-0.000181587;-0.000513481;0.000324065;-0.000552851;0.000438458;0.554442;1.80362;0.000511999;0.00058461;0.586171;1.70599;33.5915;78.5915;-0.00368436;0.000277052;0.00354857;-0.00391472;-0.000519764;0.00643808;0.0203815;0;0.0360851;0.25714;3.5848
210000;211;25.7579;-0.00022902;-8.89117e-06;-2.18847;25.6623;0.357535;-0.0960662;0.00289619;-0.478834;-0.335247;-0.0123049;-0.185539;0.383362;-7.39252;-5.56322e-05;-3.68188e-05;-0.000207287;-4.7166e-05;-0.000215753;8.42936e-05;-0.268383;-3.72602;0.000130976;0.000112391;-0.218611;-4.57434;33.1033;78.1033;-0.0105132;-6.15929e-05;0.00337867;-0.00345282;-0.000212995;0.0115335;0.0109253;0;0.0267539;-0.437127;-0.0132825;-0.663543;0.794699;-7.0735;0.0001277;-0.000240142;-0.000432531;0.000216546;-0.000521378;0.000368962;0.295239;3.38709;0.00043799;0.000491949;0.415335;2.4077;25.8203;70.8203;-0.00360735;0.000119929;0.00346745;-0.00394981;-0.000438517;0.00722629;0.0206423;0;0.0476605;0.271131;3.58839
211000;212;25.7567;-0.00141963;-5.51137e-05;-2.18684;25.6614;0.346017;-0.0944428;0.00199744;-0.490352;-0.338361;-0.0147744;-0.181645;0.384319;-7.38863;-0.000219337;-9.86034e-05;-5.08124e-05;-5.37215e-06;-0.000264778;0.000129703;-4.31661;-0.231663;0.000174755;0.000172937;;;160.875;25.875;-0.010672;-0.000225032;0.00317936;-0.00337601;-5.58619e-05;0.0109007;0.0107098;0;0.0174105;-0.439756;-0.0145669;-0.668458;0.800271;-7.07841;0.000224398;-0.000294797;-0.000595976;0.000319343;-0.000690921;0.000505132;0.376522;2.65589;0.000596282;0.00067351;0.462199;2.16357;28.4998;73.4998;-0.00379019;0.000216128;0.00348524;-0.00407793;-0.00060201;0.00692472;0.0196597;0;0.0339285;0.28182;3.59567
212000;213;25.7578;-0.000337724;-1.31113e-05;-2.18711;25.6625;0.342965;-0.0947055;0.00310196;-0.493405;-0.339711;-0.0154427;-0.183855;0.386581;-7.39084;5.83762e-05;-0.000130405;0.000608494;0.000637841;2.90293e-05;0.000304406;-0.0959355;-10.4237;0.000415889;0.000405875;-21.9724;-0.0455117;144.577;9.57707;-0.00944667;5.31408e-05;0.00297948;-0.00323858;0.000604067;0.0101147;0.00998944;0;0.0287029;-0.441589;-0.0164326;-0.672461;0.804658;-7.08242;0.000184098;-0.000258294;-0.000626512;0.000259405;-0.000701819;0.000480612;0.293845;3.40315;0.000574222;0.000640816;0.369617;2.7055;30.3286;75.3286;-0.00399996;0.000175631;0.00360366;-0.00412338;-0.000632976;0.00756081;0.0205216;0;0.0423332;0.303511;3.60168
213000;214;25.7604;0.00226903;8.80897e-05;-2.18813;25.665;0.342267;-0.095729;0.00564046;-0.494103;-0.341471;-0.0177358;-0.184408;0.388489;-7.39139;-4.41073e-06;8.35233e-05;0.000425311;0.000440974;-2.00739e-05;0.000230524;;;0.000300897;0.000307365;21.9675;0.0455218;122.373;167.373;-0.0103616;-8.86348e-06;0.00315373;-0.00298537;0.000420343;0.0117097;0.00999021;0;0.0241016;-0.44344;-0.0193383;-0.67779;0.810193;-7.08775;0.000294096;-0.000417587;-0.000770259;0.000438374;-0.000914536;0.000676455;0.381815;2.61907;0.000797066;0.00090194;0.47934;2.0862;27.6118;72.6118;-0.00400429;0.00028468;0.00352103;-0.00436039;-0.000776375;0.00552415;0.0211025;0;0.0290612;0.31831;3.60913
214000;215;25.7622;0.0040071;0.000155566;-2.18855;25.6667;0.343831;-0.0961528;0.00732795;-0.492538;-0.343207;-0.0189114;-0.185024;0.390363;-7.392;8.13508e-05;0.000296848;0.000923262;0.0010174;-1.2788e-05;0.000515094;-0.0881124;-11.3491;0.000682569;0.000686792;79.5591;0.0125693;112.646;157.646;-0.00946125;7.76768e-05;0.00332327;-0.00272704;0.000917789;0.00921274;0.0111667;0;0.0197047;-0.445243;-0.0212838;-0.679232;0.812434;-7.08919;0.000279913;-0.000362469;-0.000760933;0.000393701;-0.000874721;0.000634211;0.367855;2.71846;0.000749671;0.000845615;0.450088;2.22179;29.2143;74.2143;-0.00410358;0.000270255;0.0036815;-0.00441064;-0.000767649;0.00690967;0.019556;0;0.0284144;0.336146;3.61625
215000;216;25.7603;0.00219882;8.53639e-05;-2.18765;25.6651;0.332473;-0.095251;0.00573948;-0.503897;-0.346462;-0.0227667;-0.178443;0.390379;-7.38542;9.09658e-05;0.000241515;0.000652682;0.000742244;1.40436e-06;0.00037042;-0.139372;-7.17503;0.000494362;0.000493893;;;110.857;155.857;-0.00951849;8.76731e-05;0.00306227;-0.00257766;0.000648026;0.00960809;0.0122337;0;0.0193378;-0.448453;-0.0243398;-0.682057;0.816642;-7.09201;0.000331033;-0.000435875;-0.000830912;0.000476364;-0.000976243;0.000726303;0.398397;2.51006;0.000855055;0.000968404;0.487956;2.04936;28.2034;73.2034;-0.00433697;0.00032038;0.0037605;-0.00463713;-0.000837893;0.0066554;0.0202159;0;0.0249202;0.359217;3.6242
216000;217;25.7617;0.0035448;0.000137618;-2.18866;25.6664;0.335794;-0.0962605;0.00696115;-0.500575;-0.346848;-0.0256388;-0.178675;0.391006;-7.38566;7.84686e-05;0.000127561;0.000939378;0.000957881;5.99656e-05;0.000448958;-0.0835325;-11.9714;0.000619567;0.00059861;-15.9738;-0.0626023;121.261;166.261;-0.00963573;7.53125e-05;0.00277312;-0.00251572;0.000935544;0.0109853;0.0123294;0;0.0274284;-0.449877;-0.0283227;-0.681617;0.817186;-7.09157;0.000272139;-0.000395424;-0.000847745;0.000397686;-0.000973292;0.000685489;0.321015;3.11512;0.000814457;0.000913986;0.408599;2.44739;29.2515;74.2515;-0.00429142;0.000261322;0.00387304;-0.00466867;-0.000855174;0.00646799;0.0199999;0;0.0212427;0.379687;3.63096
217000;218;25.7632;0.00501738;0.000194788;-2.18904;25.6679;0.328179;-0.0966415;0.00850521;-0.50819;-0.347207;-0.0273557;-0.182791;0.393337;-7.38977;0.000126035;3.357e-05;0.00181088;0.00181155;0.000125366;0.000843093;-0.0695985;-14.3681;0.00116816;0.00112412;-14.4501;-0.0692038;124.071;169.071;-0.00918659;0.000122389;0.00277233;-0.00270058;0.00180705;0.010071;0.01124;0;0.0315831;-0.450768;-0.0315386;-0.691841;0.826335;-7.1018;0.000211137;-0.000239361;-0.000722336;0.000268936;-0.000780134;0.000524535;0.292298;3.42117;0.000629194;0.00069938;0.34473;2.90082;33.0239;78.0239;-0.00454041;0.000200398;0.00415834;-0.00464117;-0.00073096;0.00723434;0.0199063;0;0.0402186;0.425227;3.63927
218000;219;25.7619;0.00375522;0.000145788;-2.19096;25.6665;0.323842;-0.0985544;0.00713024;-0.512528;-0.351147;-0.030649;-0.183746;0.3975;-7.39073;0.000173596;0.000247226;0.00186645;0.00190181;0.00013823;0.000881791;-0.0930088;-10.7517;0.0012244;0.00117572;-13.7584;-0.0726831;116.157;161.157;-0.0082456;0.000170832;0.00286301;-0.00236414;0.00186239;0.00783156;0.0119139;0;0.0174676;-0.455036;-0.0333503;-0.698654;0.834439;-7.10861;0.000390228;-0.000202775;-0.000872982;0.00042198;-0.000904734;0.000663357;0.447006;2.23711;0.000782699;0.000884476;0.466413;2.14402;37.4777;82.4777;-0.00548366;0.000377832;0.00457273;-0.00498431;-0.000883425;0.00859403;0.0212604;0;0.0205528;0.426165;3.64682
219000;220;25.7614;0.00326234;0.000126653;-2.1912;25.6661;0.319637;-0.0988017;0.00666711;-0.516732;-0.352184;-0.0326457;-0.181315;0.39746;-7.3883;0.000172603;0.000182996;0.00182171;0.00184177;0.00015254;0.000844617;-0.0947475;-10.5544;0.00118029;0.00112616;-12.074;-0.0828224;117.886;162.886;-0.00875979;0.000169907;0.00269928;-0.00232915;0.00181809;0.00938423;0.0111237;0;0.0187618;-0.456491;-0.0346998;-0.698821;0.835427;-7.10878;0.000329884;-0.000147238;-0.000880952;0.000347531;-0.000898599;0.000623065;0.374463;2.67049;0.000742533;0.000830753;0.386748;2.58566;39.7552;84.7552;-0.0060257;0.000317868;0.00460511;-0.00490534;-0.000891554;0.011575;0.0210505;0;0.0257792;0.439551;3.64679
220000;221;25.7609;0.00272541;0.000105808;-2.19302;25.6654;0.315213;-0.100617;0.00602791;-0.521157;-0.354188;-0.035469;-0.18247;0.400003;-7.38945;0.000139664;0.00041201;0.00196505;0.00205373;5.09777e-05;0.00100138;-0.0710741;-14.0698;0.00135248;0.00133517;-40.2869;-0.024822;111.109;156.109;-0.00848947;0.000137715;0.00284545;-0.002017;0.00196109;0.00967327;0.0109082;0;0.016598;-0.459232;-0.0381976;-0.70195;0.839695;-7.11191;0.000409016;-3.81139e-05;-0.00073149;0.000410288;-0.000732762;0.000571525;0.559155;1.78841;0.000668637;0.000762033;0.55992;1.78597;43.9247;88.9247;-0.00655082;0.000395922;0.00503652;-0.00511854;-0.000744182;0.0119842;0.0236251;0;0.0194559;0.47299;3.65444
221000;222;25.7615;0.00338957;0.000131592;-2.19345;25.6661;0.312034;-0.101044;0.00669685;-0.524335;-0.356404;-0.0384414;-0.184242;0.403046;-7.39122;0.00018063;0.000212384;0.00234131;0.00236199;0.000159951;0.00110102;-0.0771488;-12.962;0.00152414;0.00146803;-14.7669;-0.0677188;114.862;159.862;-0.00798102;0.000178545;0.0024827;-0.00205304;0.00233826;0.00668456;0.0107288;0;0.0187007;-0.461949;-0.0409619;-0.708333;0.846647;-7.11829;0.000470941;1.0928e-05;-0.000840694;0.000471032;-0.000840785;0.000655908;0.560181;1.78514;0.000767341;0.000874544;0.560229;1.78499;46.34;91.34;-0.00708171;0.000455234;0.00562053;-0.00560604;-0.000856502;0.0129158;0.0242585;0;0.019406;0.494216;3.66089
222000;223;25.7594;0.00121503;4.71706e-05;-2.19376;25.664;0.304836;-0.101359;0.00457384;-0.531534;-0.358548;-0.0420488;-0.181659;0.404134;-7.38864;0.000313184;0.00018277;0.00235405;0.00237029;0.000296945;0.00103667;-0.13304;-7.51652;0.0014911;0.00138223;-7.98225;-0.125278;114.771;159.771;-0.00721008;0.000310987;0.0024745;-0.00210429;0.00235102;0.00531672;0.0105126;0;0.0198124;-0.465018;-0.0450955;-0.709266;0.849314;-7.11922;0.000458449;0.000134628;-0.000575014;0.000475699;-0.000592264;0.000533981;0.797283;1.25426;0.000617812;0.000711975;0.803188;1.24504;52.5157;97.5157;-0.00742846;0.00044321;0.00578693;-0.00552352;-0.000591759;0.0159012;0.0285198;0;0.0254007;0.525991;3.66792
223000;224;25.7554;-0.00278895;-0.000108275;-2.19587;25.6599;0.28923;-0.103469;0.000555123;-0.547139;-0.360137;-0.0461852;-0.180784;0.405604;-7.38776;0.000410734;0.000128029;0.0020973;0.00210696;0.000401071;0.000852945;-0.19584;-5.10622;0.00129187;0.00113726;-5.25334;-0.190355;115.917;160.917;-0.00705722;0.000408558;0.00235045;-0.00209065;0.00209455;0.00513566;0.0107318;0;0.02033;-0.46767;-0.048388;-0.714521;0.855334;-7.12448;0.000361506;8.18394e-05;-0.000459931;0.00036958;-0.000468006;0.000418793;0.786;1.27227;0.000484692;0.000558391;0.789692;1.26632;50.7933;95.7933;-0.00740935;0.000345031;0.00590062;-0.00574172;-0.000477345;0.0161417;0.0326311;0;0.0341285;0.560015;3.67512
224000;225;25.7564;-0.0017424;-6.76447e-05;-2.19724;25.6609;0.290044;-0.104843;0.00147879;-0.546326;-0.362027;-0.047345;-0.18338;0.408574;-7.39036;0.000137568;-7.30623e-05;0.00179083;0.00179405;0.000134346;0.000829854;-0.076818;-13.0178;0.00115386;0.00110647;-13.354;-0.0748838;125.601;170.601;-0.0067815;0.000135018;0.00211738;-0.00225989;0.0017886;0.00545396;0.0103126;0;0.0216017;-0.470436;-0.0498975;-0.719595;0.861172;-7.12955;0.0001774;8.64075e-05;-0.000369069;0.000190738;-0.000382407;0.000286572;0.480669;2.08043;0.000337016;0.000382096;0.498782;2.00488;54.175;99.175;-0.00740336;0.000161677;0.00577865;-0.00560895;-0.000385768;0.0173441;0.0340946;0;0.0373642;0.583075;3.68235
225000;226;25.7566;-0.00157117;-6.09972e-05;-2.19793;25.661;0.292224;-0.105532;0.00156689;-0.544145;-0.363918;-0.0512898;-0.178387;0.408521;-7.38537;0.000251981;-0.000123037;0.0016936;0.00170403;0.000241556;0.000731235;-0.148784;-6.72113;0.00106467;0.00097498;-7.05437;-0.141756;128.005;173.005;-0.00728377;0.000249234;0.00210491;-0.00234777;0.0016914;0.00654004;0.00934263;0;0.020674;-0.473381;-0.0535786;-0.716754;0.860637;-7.12671;3.33133e-05;5.36118e-05;-0.000216557;4.43304e-05;-0.000227574;0.000135952;0.153832;6.50062;0.000168448;0.00018127;0.194796;5.13359;56.9874;101.987;-0.00742831;1.71403e-05;0.00579347;-0.00568768;-0.000233341;0.0172233;0.0356678;0;0.0367474;0.614616;3.68937
226000;227;25.7575;-0.000671452;-2.60676e-05;-2.19876;25.6619;0.284847;-0.106355;0.00248243;-0.551522;-0.3652;-0.0530685;-0.182723;0.411795;-7.3897;0.000225365;-0.000121466;0.00136975;0.0013825;0.000212615;0.000584943;-0.16453;-6.07791;0.000859605;0.000779923;-6.50237;-0.15379;131.129;176.129;-0.0071801;0.000222604;0.0021128;-0.00235318;0.00136753;0.00652196;0.0107514;0;0.023951;-0.475393;-0.0556495;-0.725921;0.869516;-7.13588;-0.0001186;-0.000120612;-7.68973e-05;2.46529e-05;-0.00022015;0.000122402;-1.54232;-0.648374;0.000155637;0.000163202;0.111982;8.93;175.527;40.5268;-0.00671013;-0.000134352;0.0053727;-0.00561369;-9.13242e-05;0.0143693;0.0357099;0;0.0429221;0.651812;3.69694
227000;228;25.7571;-0.00100111;-3.88659e-05;-2.19952;25.6615;0.284345;-0.107122;0.00209133;-0.552025;-0.367172;-0.0567569;-0.181021;0.413286;-7.388;0.000302444;-7.72457e-05;0.00101993;0.00102815;0.000294222;0.000366966;-0.296534;-3.3723;0.000611432;0.000489288;-3.49449;-0.286165;132.806;177.806;-0.00719223;0.000299773;0.00216004;-0.00231293;0.0010176;0.00569687;0.0102606;0;0.0233678;-0.478755;-0.0602959;-0.72465;0.870609;-7.13461;-0.000344888;-0.000294803;0.000124027;0.000266238;-0.000487099;0.000376668;2.78075;0.359615;0.000441126;0.000502224;0.546578;1.82956;161.242;26.2424;-0.00633202;-0.000361941;0.00525949;-0.00584648;0.000110241;0.0144253;0.034436;0;0.0336149;0.682291;3.70448
228000;229;25.76;0.00183313;7.11669e-05;-2.20155;25.6641;0.287292;-0.109151;0.00472934;-0.549078;-0.369225;-0.0580572;-0.184091;0.416638;-7.39107;0.000230452;-0.000388805;0.00108867;0.00123861;8.05065e-05;0.000579054;-0.211683;-4.72405;0.000800258;0.000772072;-15.3853;-0.0649972;147.971;12.9711;-0.00746874;0.000226983;0.00188735;-0.002663;0.00108696;0.00763379;0.0107394;0;0.0208574;-0.481939;-0.0631986;-0.728688;0.875926;-7.13864;-0.000423696;-0.000353736;2.08082e-05;0.000216319;-0.000619206;0.000417762;20.362;0.0491112;0.000500736;0.000557017;0.349348;2.86248;164.898;29.8979;-0.00593425;-0.000440807;0.00515439;-0.0058594;7.58711e-06;0.013194;0.0329964;0;0.0231686;0.711724;3.71221
229000;230;25.7635;0.00532205;0.000206616;-2.20314;25.6674;0.292396;-0.110741;0.00803722;-0.543974;-0.371832;-0.0618438;-0.185258;0.420005;-7.39224;0.000322171;2.57611e-05;0.000888871;0.00089004;0.000321003;0.000284519;-0.36245;-2.759;0.000520473;0.000379358;-2.77269;-0.360661;124.874;169.874;-0.00754579;0.000319674;0.00228803;-0.00223523;0.000886256;0.00723517;0.010122;0;0.024216;-0.485899;-0.0686247;-0.730311;0.879864;-7.14027;-0.000331504;-0.000404856;0.000126334;0.000362508;-0.000567678;0.000465093;2.62403;0.381094;0.000541381;0.000620124;0.638581;1.56597;165.712;30.7124;-0.00559775;-0.000348878;0.00510057;-0.00590775;0.00011341;0.00968768;0.0290387;0;0.0190485;0.764349;3.71901
230000;231;25.7639;0.00572459;0.000222244;-2.20341;25.6678;0.290693;-0.111009;0.00843764;-0.545676;-0.373312;-0.063335;-0.181664;0.41997;-7.38864;0.000229579;-0.000143016;0.000795687;0.000829765;0.0001955;0.000317132;-0.288529;-3.46585;0.000500893;0.000422843;-4.24432;-0.235609;142.131;7.131;-0.00772266;0.000226565;0.00217491;-0.00245963;0.000793334;0.00804637;0.00982965;0;0.0293595;-0.488047;-0.0706786;-0.726935;0.878419;-7.13689;-0.0003112;-0.000488078;7.79093e-05;0.00040878;-0.000642071;0.000525425;3.99439;0.250351;0.000611672;0.000700567;0.636659;1.5707;169.668;34.6679;-0.00585194;-0.000328736;0.00496726;-0.00594128;6.56924e-05;0.00970012;0.0284097;0;0.0188417;0.777297;3.7203
231000;232;25.7671;0.00894119;0.000347121;-2.20388;25.671;0.295452;-0.111482;0.0115713;-0.540918;-0.375283;-0.0647694;-0.184147;0.423016;-7.39113;0.000320877;1.10472e-05;0.000103051;0.000321436;0.000102492;0.000109472;-3.11378;-0.321153;0.000189598;0.000145963;-3.13621;-0.318856;45.2723;90.2723;-0.00747916;0.00031817;0.00234912;-0.00232753;0.000100292;0.00711315;0.0110511;0;0.0358452;-0.490665;-0.0731249;-0.729783;0.88243;-7.13974;-0.000212067;-0.000414657;7.20039e-05;0.000368277;-0.00050834;0.000438309;2.94522;0.339534;0.000508264;0.000584412;0.72447;1.38032;170.837;35.837;-0.00575403;-0.0002291;0.00502287;-0.00585063;5.9476e-05;0.00927128;0.0263127;0;0.0196501;0.812893;3.72711
232000;233;25.7682;0.010011;0.000388653;-2.2044;25.672;0.293334;-0.112002;0.0126247;-0.543036;-0.376252;-0.069407;-0.180443;0.423015;-7.38742;0.000143828;0.000104406;0.00025382;0.000316829;8.08191e-05;0.000118005;-0.566653;-1.76475;0.000190095;0.00015734;-3.92022;-0.255087;101.425;146.425;-0.00738077;0.000141341;0.00244211;-0.00223304;0.000250845;0.00744336;0.0107793;0;0.0245812;-0.492437;-0.0793061;-0.725707;0.880588;-7.13566;-0.000299899;-0.000344115;0.000173575;0.000354522;-0.000480846;0.000417684;1.72777;0.57878;0.000484134;0.000556912;0.737289;1.35632;163.02;28.0195;-0.00543747;-0.000314593;0.00474539;-0.00543121;0.000162377;0.00865556;0.0258478;0;0.0244044;0.864446;3.73467
233000;234;25.7679;0.00977674;0.000379559;-2.20364;25.6719;0.2864;-0.111234;0.0125339;-0.549969;-0.379079;-0.073147;-0.177635;0.424977;-7.38461;0.000229175;0.000268702;0.000992384;0.00107749;0.000144065;0.000466715;-0.230934;-4.33024;0.000675449;0.000622286;-7.47923;-0.133704;110.622;155.622;-0.0081881;0.000226638;0.00280822;-0.00226888;0.000988481;0.00941336;0.00938766;0;0.0240683;-0.495759;-0.0836307;-0.724027;0.881469;-7.13398;-0.000238256;-0.000420609;0.000121684;0.000399209;-0.00051578;0.000457495;1.95798;0.51073;0.000529696;0.000609993;0.77399;1.29201;168.684;33.6842;-0.00536247;-0.000252562;0.00452552;-0.00536494;0.000111534;0.00865025;0.0234882;0;0.0215294;0.897278;3.74161
234000;235;25.7709;0.0127872;0.000496435;-2.20542;25.6747;0.290821;-0.11302;0.0153526;-0.545549;-0.38026;-0.0743531;-0.180843;0.427587;-7.38782;0.000200063;0.000219987;7.08399e-05;0.00036473;-9.38272e-05;0.000229279;-2.82416;-0.354088;0.000279725;0.000305705;3.88726;0.257251;80.182;125.182;-0.00779983;0.000197659;0.00264366;-0.002204;6.73699e-05;0.00854267;0.0109407;0;0.0217401;-0.497554;-0.0861916;-0.727568;0.885632;-7.13752;-8.39369e-06;-0.00042953;0.000159854;0.000513421;-0.00036196;0.00043769;;;0.000507917;0.000583587;1.41845;0.704997;173.956;38.9563;-0.00606536;-2.32176e-05;0.00460366;-0.00546186;0.000149351;0.0105186;0.0228581;0;0.0231507;0.937346;3.74882
235000;236;25.7711;0.0129935;0.000504444;-2.2056;25.675;0.287803;-0.113199;0.0155783;-0.548566;-0.38297;-0.0769521;-0.180024;0.430111;-7.387;8.6334e-05;0.000225325;0.000233439;0.000396912;-7.7139e-05;0.000237026;-0.369835;-2.70391;0.000293717;0.000316034;5.14542;0.194348;97.196;142.196;-0.00837173;8.37e-05;0.00275735;-0.00230633;0.000229664;0.010379;0.0110421;0;0.0205965;-0.500495;-0.0895939;-0.728583;0.888457;-7.13854;4.05769e-05;-0.000466459;0.000300549;0.000654795;-0.000313669;0.000484232;-0.135009;-7.40691;0.000570588;0.000645643;2.08753;0.479034;171.174;36.1738;-0.00612321;2.55024e-05;0.00457908;-0.00551068;0.000290177;0.0111039;0.0234984;0;0.0222803;0.981069;3.75623
236000;237;25.7711;0.0129581;0.000503069;-2.20576;25.6749;0.285831;-0.113363;0.0155507;-0.550539;-0.385304;-0.0789025;-0.182116;0.433418;-7.3891;5.11848e-05;0.000249183;2.79564e-05;0.000289024;-0.000209883;0.000249454;-1.83088;-0.546187;0.00028925;0.000332605;1.37707;0.726178;88.2124;133.212;-0.00936035;4.812e-05;0.00298666;-0.00248836;2.35275e-05;0.0113347;0.0129457;0;0.0169454;-0.502979;-0.0924685;-0.731579;0.892607;-7.14153;0.000104003;-0.000535645;0.000275434;0.000732179;-0.000352741;0.00054246;-0.377597;-2.64833;0.000639021;0.00072328;2.07568;0.481769;174.349;39.3486;-0.00666521;8.72705e-05;0.00473956;-0.00580993;0.000264349;0.0126138;0.0242982;0;0.024053;1.02357;3.76358
237000;238;25.7711;0.012989;0.000504267;-2.20559;25.675;0.282183;-0.113187;0.0156371;-0.554186;-0.387844;-0.0835027;-0.178477;0.435028;-7.38546;-3.66939e-05;0.000356642;0.000868175;0.00099184;-0.000160359;0.000576099;0.0422655;23.66;0.000720651;0.000768132;6.18514;0.161678;111.7;156.7;-0.00982295;-3.97623e-05;0.00321864;-0.00250277;0.000863064;0.0109042;0.0121089;0;0.0177174;-0.505216;-0.0968463;-0.730506;0.893455;-7.14046;0.000100813;-0.000534836;0.000376353;0.000790878;-0.000313713;0.000552296;-0.267868;-3.73319;0.000657271;0.000736394;2.52103;0.396664;171.399;36.3987;-0.00706223;8.4292e-05;0.00470505;-0.00577327;0.000365431;0.0126142;0.026756;0;0.0282233;1.06805;3.7711
238000;239;25.7683;0.0101248;0.000393072;-2.20605;25.6722;0.271464;-0.11365;0.012838;-0.564905;-0.388518;-0.0889404;-0.171289;0.433816;-7.37827;-0.000265028;6.31135e-05;0.00149835;0.00150061;-0.000267284;0.000883945;0.17688;5.65356;0.00110037;0.00117859;5.61428;0.178117;126.443;171.443;-0.00981428;-0.000268456;0.0027498;-0.00261884;0.00149458;0.0122749;0.0112125;0;0.0227698;-0.506557;-0.101111;-0.730044;0.894308;-7.14;0.000122181;-0.00046021;0.000530383;0.00082972;-0.000177156;0.000503438;-0.230363;-4.34097;0.000620684;0.000671251;4.68355;0.213513;166.206;31.2059;-0.00688646;0.000105667;0.00484745;-0.00576569;0.000518746;0.012635;0.0279821;0;0.0289731;1.11579;3.77798
239000;240;25.7692;0.0110824;0.000430247;-2.20513;25.6733;0.267545;-0.112726;0.0139197;-0.568825;-0.391942;-0.0881664;-0.182519;0.441254;-7.3895;-0.000269388;0.000434957;0.000688617;0.000856631;-0.000437403;0.000647017;0.391202;2.55622;0.000760068;0.000862689;1.95845;0.510608;111.843;156.843;-0.0103198;-0.000272602;0.00344471;-0.00257192;0.000682782;0.0131498;0.0122563;0;0.0169136;-0.509253;-0.102667;-0.739068;0.903383;-7.14902;0.000112432;-0.000424896;0.000722293;0.000940353;-0.000105628;0.000522991;-0.15566;-6.42426;0.000664914;0.000697321;8.90248;0.112328;159.889;24.8895;-0.00713357;9.54241e-05;0.00500161;-0.00584809;0.000709884;0.0138489;0.0296504;0;0.0318358;1.15122;3.78404
240000;241;25.7706;0.0124722;0.000484202;-2.20489;25.6747;0.267565;-0.112489;0.0153348;-0.568804;-0.394348;-0.0924068;-0.177734;0.442311;-7.38471;-0.00034128;0.000536351;0.00106992;0.00125063;-0.000521989;0.000886309;0.318977;3.13502;0.00105185;0.00118174;2.39589;0.417381;112.936;157.936;-0.00924303;-0.000344304;0.00359353;-0.00251653;0.00106361;0.00903062;0.0118536;0;0.0174972;-0.511356;-0.106933;-0.737834;0.904057;-7.14779;9.83755e-06;-0.000335474;0.000917944;0.00102843;-0.000100651;0.000564541;;;0.000721516;0.000752722;10.2178;0.0978682;150.662;15.6616;-0.00676844;-6.09402e-06;0.0049886;-0.00565471;0.000905568;0.0135482;0.0304495;0;0.045855;1.21087;3.79073
241000;242;25.7676;0.009464;0.000367418;-2.20481;25.6718;0.257636;-0.112407;0.012424;-0.578734;-0.396469;-0.0957259;-0.176321;0.444342;-7.3833;-0.000339017;0.00056167;0.00121231;0.00139431;-0.000521021;0.000957667;0.279646;3.57595;0.00114349;0.00127689;2.67611;0.373676;112.977;157.977;-0.0101431;-0.000342047;0.00365294;-0.00252482;0.0012058;0.00931487;0.0122886;0;0.015456;-0.513356;-0.110098;-0.739307;0.906769;-7.14926;0.000179979;-0.000341354;0.000907586;0.00104266;4.49082e-05;0.000498874;-0.198305;-5.04273;0.000680629;0.000665165;-23.2175;-0.043071;153.639;18.6389;-0.00687597;0.000163527;0.00506804;-0.00574681;0.000894813;0.013262;0.0310828;0;0.0374495;1.25089;3.79652
242000;243;25.7697;0.0115519;0.000448475;-2.20408;25.674;0.259734;-0.111676;0.0145613;-0.576636;-0.398934;-0.0990457;-0.17557;0.446971;-7.38255;-0.000352875;0.00057995;0.00115753;0.00135452;-0.000549867;0.000952193;0.304852;3.28028;0.00113174;0.00126959;2.46336;0.40595;112.437;157.437;-0.00944943;-0.000355751;0.00363163;-0.00246713;0.00115111;0.0108049;0.0123194;0;0.0172053;-0.515609;-0.113491;-0.741288;0.910077;-7.15124;8.99579e-05;-0.000212827;0.000990272;0.00103805;4.21827e-05;0.000497932;-0.0908416;-11.0082;0.000678408;0.00066391;-24.6084;-0.0406366;144.819;9.81943;-0.00665207;7.3067e-05;0.00539575;-0.00581635;0.000975752;0.0126559;0.0328377;0;0.0295202;1.29995;3.79952
243000;244;25.7717;0.0135135;0.00052463;-2.20422;25.6759;0.261684;-0.111821;0.016498;-0.574686;-0.401532;-0.100512;-0.18085;0.451705;-7.38783;-0.000271794;0.000455567;0.000628931;0.000819168;-0.000462031;0.000640599;0.432152;2.314;0.000749218;0.000854132;1.77297;0.564025;110.615;155.615;-0.00874067;-0.000275048;0.00350505;-0.00259118;0.000622896;0.00825173;0.0122889;0;0.0170274;-0.518141;-0.116068;-0.748196;0.917463;-7.15815;2.03742e-05;-0.000183162;0.00107753;0.00110836;-1.04609e-05;0.000559412;-0.0189083;-52.8868;0.00074242;0.000745882;105.953;0.00943815;141.842;6.84164;-0.00724572;1.50092e-06;0.00578657;-0.00614659;0.00106082;0.0124691;0.0345427;0;0.0276029;1.35494;3.80626
244000;245;25.7718;0.013622;0.000528842;-2.20272;25.6761;0.263836;-0.110323;0.0167135;-0.572533;-0.404225;-0.103141;-0.17862;0.453807;-7.3856;-0.000202434;0.000586132;0.000498036;0.000830601;-0.000534998;0.0006828;0.406464;2.46024;0.000794562;0.000910399;1.55253;0.64411;103.973;148.973;-0.00865209;-0.000205154;0.0035789;-0.00240455;0.000491807;0.00657977;0.0134248;0;0.0195615;-0.520637;-0.119146;-0.748321;0.919371;-7.15828;0.000165786;-0.000133289;0.000985951;0.00100707;0.000144668;0.0004312;-0.168148;-5.94714;0.000628729;0.000574934;-6.96124;-0.143653;141.199;6.19931;-0.00757024;0.000146661;0.00592489;-0.0061865;0.000968425;0.0115895;0.0341142;0;0.0223793;1.3955;3.81276
245000;246;25.7743;0.0161244;0.00062599;-2.20347;25.6785;0.264836;-0.11107;0.0191508;-0.571534;-0.405385;-0.10569;-0.179882;0.455922;-7.38686;-7.14648e-05;0.000455832;-0.000161185;0.000341709;-0.000574359;0.000458034;-0.443372;-2.25544;0.000534548;0.000610712;0.59494;1.68084;88.2899;133.29;-0.00819818;-7.4389e-05;0.00337224;-0.00246084;-0.000166768;0.00682906;0.0144816;0;0.0203397;-0.522115;-0.122456;-0.751083;0.92289;-7.16104;4.43567e-05;5.22182e-05;0.00107216;0.0010748;4.17106e-05;0.000516547;-0.0413714;-24.1713;0.000703045;0.000688729;-25.7682;-0.0388076;129.449;174.449;-0.00789993;2.52935e-05;0.00628584;-0.006175;0.00105242;0.0120868;0.035312;0;0.0203709;1.44532;3.82031
246000;247;25.7742;0.0160762;0.000624122;-2.20359;25.6785;0.263561;-0.111188;0.0191054;-0.572808;-0.407558;-0.109277;-0.177138;0.457627;-7.38412;-7.74762e-05;0.000488197;-0.000341437;0.000296266;-0.000715179;0.000505723;-0.226912;-4.407;0.000600421;0.000674297;0.414254;2.41398;84.6247;129.625;-0.00831038;-7.97786e-05;0.00317632;-0.00220064;-0.000346364;0.00729598;0.0150763;0;0.023683;-0.524339;-0.126316;-0.750136;0.9239;-7.16009;0.000157488;0.000193292;0.00099652;0.00103891;0.0001151;0.000461904;-0.158038;-6.32758;0.000657605;0.000615872;-9.02612;-0.11079;119.911;164.911;-0.0077883;0.000139074;0.00646403;-0.0060722;0.000975668;0.0125503;0.0347251;0;0.0200182;1.50203;3.82797
247000;248;25.7762;0.0180456;0.000700579;-2.20304;25.6805;0.265544;-0.110633;0.0211093;-0.570826;-0.409366;-0.112253;-0.177381;0.46005;-7.38436;1.58497e-05;0.00052743;-0.00109079;0.000226954;-0.0013019;0.000764426;0.0145304;68.8212;0.000952637;0.00101923;0.174326;5.73639;72.4421;117.442;-0.00767263;1.36668e-05;0.00320687;-0.00215498;-0.0010958;0.00659136;0.0148551;0;0.0243396;-0.52629;-0.129809;-0.751973;0.926982;-7.16193;0.000117611;0.000255915;0.00107175;0.00113605;5.33049e-05;0.000541375;-0.109738;-9.11263;0.000740242;0.000721833;-21.3124;-0.046921;118.182;163.182;-0.00801225;9.82502e-05;0.00674633;-0.00622832;0.00104905;0.0141414;0.0340487;0;0.0218324;1.54902;3.83435
248000;249;25.7774;0.0192384;0.000746885;-2.20395;25.6816;0.26482;-0.111553;0.0222351;-0.57155;-0.41189;-0.114848;-0.178185;0.463242;-7.38517;0.000193827;0.000323648;-0.000541528;0.000315981;-0.000663682;0.000489832;0.357926;2.79387;0.000577362;0.000653109;0.476103;2.10038;67.6057;112.606;-0.0076033;0.00019144;0.0028544;-0.00220897;-0.000545552;0.00698443;0.0137809;0;0.0188091;-0.528883;-0.13313;-0.753904;0.93049;-7.16386;0.000204689;0.000362565;0.00109029;0.00121979;7.51914e-05;0.000572299;-0.187738;-5.32656;0.000789323;0.000763065;-16.2225;-0.0616429;112.476;157.476;-0.00835618;0.00018489;0.0070349;-0.00630388;0.00106564;0.01615;0.0338964;0;0.0307086;1.60334;3.84198
249000;250;25.7789;0.0207906;0.000807148;-2.20458;25.6831;0.263982;-0.112181;0.0237479;-0.572387;-0.413802;-0.116562;-0.181806;0.466768;-7.38879;0.000152371;0.000155763;-0.000599856;0.000183349;-0.000630834;0.000407091;0.254012;3.93681;0.000493167;0.000542788;0.290645;3.44062;58.7942;103.794;-0.00735089;0.00014969;0.00263071;-0.00232105;-0.000603306;0.00690967;0.0127604;0;0.0280137;-0.531219;-0.135975;-0.759036;0.936386;-7.16899;9.76742e-05;0.000399336;0.00118315;0.00131424;-3.34078e-05;0.000673822;-0.0825542;-12.1133;0.000887502;0.000898429;39.3391;0.02542;114.038;159.038;-0.00900445;7.73251e-05;0.00719832;-0.00639229;0.00115736;0.0169882;0.0344119;0;0.0201624;1.66427;3.84911
250000;251;25.7792;0.0210117;0.000815732;-2.20473;25.6834;0.261142;-0.112327;0.0239863;-0.575227;-0.415732;-0.118776;-0.181274;0.46883;-7.38825;0.000113819;0.000434601;8.6359e-05;0.000534907;-0.000334729;0.000434818;-1.31798;-0.758738;0.000506499;0.000579757;1.59803;0.62577;87.8785;132.878;-0.00758363;0.000111934;0.00285904;-0.00198991;8.23667e-05;0.0072227;0.0139164;0;0.0262071;-0.533344;-0.138475;-0.760752;0.939348;-7.17071;0.000195382;0.000296229;0.00130691;0.00138092;0.000121364;0.00062978;-0.1495;-6.68897;0.000882946;0.000839707;-11.3784;-0.0878859;117.763;162.763;-0.00965427;0.000173674;0.00719641;-0.0065963;0.00128109;0.0185365;0.0344825;0;0.0202361;1.70729;3.85685
251000;252;25.7801;0.0219962;0.000853952;-2.20608;25.6843;0.260697;-0.113683;0.0248626;-0.575673;-0.417307;-0.121177;-0.18295;0.471487;-7.38993;8.98722e-05;0.000259622;-0.000496149;0.000188344;-0.000594621;0.000391483;0.18114;5.5206;0.000471895;0.000521977;0.316747;3.15709;68.3006;113.301;-0.00784905;8.78932e-05;0.00252434;-0.00200643;-0.000499303;0.00875917;0.0143433;0;0.0309164;-0.535649;-0.14209;-0.762908;0.942941;-7.17286;6.89462e-05;0.000211597;0.00120322;0.00124141;3.07588e-05;0.000605327;-0.0573012;-17.4516;0.000817548;0.000807102;-40.3595;-0.0247773;122.115;167.115;-0.0105535;4.51231e-05;0.00733733;-0.00690607;0.00117636;0.0208348;0.0350254;0;0.0230788;1.7615;3.86372
252000;253;25.7803;0.0221853;0.000861292;-2.20645;25.6845;0.255315;-0.114051;0.0250747;-0.581054;-0.419229;-0.122799;-0.185154;0.474462;-7.39213;0.000203545;0.000333411;0.000180999;0.000525874;-0.00014133;0.000333602;-1.12456;-0.889234;0.000405977;0.000444802;3.72089;0.268753;86.5202;131.52;-0.00796874;0.000201829;0.00254923;-0.00188246;0.000177806;0.00921105;0.0136282;0;0.0296828;-0.537815;-0.145241;-0.766626;0.947658;-7.17658;-0.000175798;0.000164021;0.00137875;0.00139587;-0.000192916;0.000794392;0.127505;7.8428;0.0010011;0.00105919;7.23564;0.138205;126.481;171.481;-0.010281;-0.000199026;0.00715603;-0.00681714;0.0013532;0.0200341;0.0367217;0;0.0297705;1.81911;3.8702
253000;254;25.7804;0.0222095;0.00086223;-2.2069;25.6845;0.252343;-0.114497;0.0250901;-0.584026;-0.421007;-0.125541;-0.184478;0.476486;-7.39146;0.000184223;0.000177457;0.000666022;0.000724328;0.000125918;0.000299205;-0.276602;-3.6153;0.000446866;0.00039894;-5.75238;-0.173841;111.267;156.267;-0.00777666;0.000182231;0.00236002;-0.00200406;0.000663255;0.0103901;0.0127789;0;0.0181171;-0.53987;-0.148857;-0.767462;0.950061;-7.17742;-0.000343148;4.19553e-05;0.00145736;0.00145833;-0.000344125;0.000901229;0.235459;4.24702;0.00110494;0.00120164;4.2378;0.235971;131.251;176.251;-0.00986154;-0.000366471;0.00692504;-0.00682876;0.00143341;0.0199982;0.0388023;0;0.02494;1.87497;3.87502
254000;255;25.7822;0.024035;0.000933102;-2.20766;25.6862;0.25299;-0.115262;0.0268503;-0.583379;-0.422613;-0.127076;-0.187385;0.47944;-7.39437;0.000191002;0.000332519;0.000687564;0.000854267;2.42989e-05;0.000414984;-0.277796;-3.59977;0.000561587;0.000553312;-35.1566;-0.0284442;102.434;147.434;-0.008003;0.000189497;0.00243286;-0.00176678;0.000684662;0.0110597;0.0142907;0;0.0254133;-0.541928;-0.151474;-0.771745;0.955102;-7.1817;-0.000438145;-3.50678e-05;0.00168381;0.00168439;-0.000438724;0.00106156;0.26021;3.84305;0.0012942;0.00141541;3.83929;0.260465;133.182;178.182;-0.0089716;-0.000460563;0.00663865;-0.00669464;0.00166181;0.019332;0.0391878;0;0.0422006;1.92568;3.88046
255000;256;25.7832;0.0250933;0.00097419;-2.20743;25.6873;0.256024;-0.115033;0.0279022;-0.580346;-0.424857;-0.130433;-0.185058;0.481417;-7.39204;0.000219474;0.000253432;0.00125972;0.00131818;0.000161016;0.000578581;-0.174224;-5.73973;0.000830334;0.000771441;-8.18661;-0.122151;111.935;156.935;-0.00804768;0.000217943;0.00227699;-0.00176802;0.00125716;0.0108245;0.0131445;0;0.0226712;-0.544663;-0.156021;-0.76891;0.955104;-7.17887;-0.000585186;-3.34134e-05;0.00167435;0.00167485;-0.00058568;0.00113026;0.3495;2.86123;0.00135467;0.00150702;2.85966;0.349692;133.396;178.396;-0.00866079;-0.000607204;0.00658223;-0.00663413;0.00165273;0.0188366;0.0396407;0;0.0403579;1.98269;3.88699
256000;257;25.7836;0.0254702;0.00098882;-2.20909;25.6876;0.253334;-0.116691;0.0281646;-0.583036;-0.426341;-0.13229;-0.184947;0.48319;-7.39193;0.000242504;0.000393769;0.0011307;0.00128013;9.30731e-05;0.000593529;-0.214473;-4.6626;0.000824151;0.000791373;-13.754;-0.0727059;104.637;149.637;-0.00817734;0.000241321;0.0023773;-0.001588;0.00112796;0.0103351;0.0131833;0;0.0226664;-0.546834;-0.158293;-0.770325;0.957854;-7.18028;-0.000759488;-0.00010475;0.00188546;0.00188961;-0.00076363;0.00132662;0.402813;2.48254;0.00157716;0.00176882;2.4745;0.404122;134.774;179.774;-0.00796899;-0.000782751;0.00662744;-0.00681916;0.00186355;0.0182278;0.0405297;0;0.0432874;2.03847;3.89359
257000;258;25.7846;0.0264321;0.00102617;-2.20866;25.6886;0.25396;-0.116257;0.0291613;-0.582409;-0.428599;-0.134858;-0.187674;0.486935;-7.39465;0.000171985;9.75545e-05;0.00180859;0.00181438;0.000166191;0.000824097;-0.0950936;-10.516;0.00115817;0.0010988;-10.9175;-0.0915963;118.364;163.364;-0.00810321;0.000170195;0.00209358;-0.00189521;0.00180641;0.010878;0.0132069;0;0.0204122;-0.549265;-0.161943;-0.773102;0.962084;-7.18306;-0.000729748;-0.000241165;0.00199447;0.00201565;-0.000750933;0.00138329;0.365886;2.73309;0.00165198;0.00184439;2.6842;0.372551;137.176;2.17576;-0.00767719;-0.000752861;0.0063362;-0.00680064;0.00197446;0.017028;0.0390402;0;0.0341848;2.09338;3.90078
258000;259;25.7863;0.0282044;0.00109497;-2.20965;25.6902;0.256152;-0.117245;0.0308335;-0.580218;-0.429633;-0.135895;-0.190971;0.48941;-7.39795;0.000197864;0.000287309;0.0022079;0.00224817;0.000157603;0.00104528;-0.0896162;-11.1587;0.0014491;0.00139371;-14.2647;-0.070103;109.868;154.868;-0.00734204;0.000196813;0.00205619;-0.00147803;0.00220584;0.0105081;0.0128781;0;0.0209234;-0.55063;-0.1643;-0.776722;0.96617;-7.18668;-0.000941479;-0.000397334;0.00209107;0.00214227;-0.000992675;0.00156747;0.450237;2.22105;0.00185008;0.00208996;2.15808;0.463375;139.814;4.81446;-0.00760678;-0.000966965;0.00637291;-0.00714707;0.00207089;0.0152525;0.0375479;0;0.0206872;2.15107;3.9077
259000;260;25.789;0.0308518;0.00119775;-2.20963;25.6929;0.256847;-0.117232;0.033485;-0.579522;-0.430641;-0.138585;-0.192614;0.491688;-7.39959;0.000114468;0.00028328;0.00274147;0.00277167;8.42683e-05;0.0013437;-0.0417543;-23.9496;0.00182034;0.0017916;-32.891;-0.0304034;110.244;155.244;-0.00756693;0.000113243;0.00216243;-0.00159095;0.00273918;0.0103401;0.0121452;0;0.0199392;-0.552038;-0.167835;-0.779675;0.969952;-7.18963;-0.000875441;-0.000271221;0.00215553;0.00217961;-0.000899519;0.00153956;0.406137;2.46222;0.00182823;0.00205275;2.42308;0.412698;137.269;2.26859;-0.00717985;-0.000900022;0.00649183;-0.00701381;0.00213454;0.0143383;0.0358654;0;0.020336;2.20311;3.91531
260000;261;25.7909;0.0327314;0.00127072;-2.20977;25.6947;0.26141;-0.117366;0.0353141;-0.57496;-0.432551;-0.141326;-0.192815;0.494218;-7.3998;-1.83501e-05;0.000105386;0.00309447;0.00309804;-2.19139e-05;0.00155998;0.00592996;168.635;0.0020727;0.00207997;141.373;0.00707347;112.287;157.287;-0.00799513;-1.96755e-05;0.00184768;-0.00163151;0.00309278;0.0114468;0.0106454;0;0.0196977;-0.554476;-0.172263;-0.777727;0.970555;-7.18768;-0.000948614;-0.000320946;0.00193755;0.00197281;-0.000983873;0.00147834;0.489593;2.04251;0.00173858;0.00197112;2.00515;0.498716;139.04;4.03995;-0.00721937;-0.000972647;0.00631427;-0.00693704;0.00191771;0.0136066;0.0334442;0;0.0195262;2.26202;3.92234
261000;262;25.79;0.0318268;0.0012356;-2.20953;25.6939;0.257049;-0.117124;0.034471;-0.579321;-0.433935;-0.143948;-0.191353;0.495617;-7.39833;2.8684e-05;0.000347139;0.00330247;0.00333887;-7.72033e-06;0.0016733;-0.00868563;-115.133;0.00222849;0.00223106;;;106.994;151.994;-0.00760411;2.77964e-05;0.00207675;-0.00137683;0.00330038;0.0109314;0.0114655;0;0.0178967;-0.556035;-0.175663;-0.776696;0.971231;-7.18665;-0.000968757;-0.000160133;0.00197466;0.00198335;-0.000977444;0.0014804;0.490594;2.03835;0.00174199;0.00197386;2.02912;0.492825;135.796;0.796239;-0.00709075;-0.000990825;0.00634092;-0.00664208;0.00195461;0.0141308;0.0328399;0;0.0192057;2.32641;3.92993
262000;263;25.7914;0.033302;0.00129287;-2.21048;25.6952;0.261331;-0.118081;0.0358261;-0.575039;-0.435582;-0.147026;-0.190715;0.497715;-7.3977;7.87208e-05;0.000177609;0.00393892;0.00394708;7.05663e-05;0.00193826;-0.0199854;-50.0366;0.00260818;0.00258434;-55.9344;-0.0178781;108.779;153.779;-0.00804519;7.73165e-05;0.00204776;-0.00168535;0.00393685;0.0109635;0.0101816;0;0.0187321;-0.557917;-0.179658;-0.774556;0.971331;-7.18451;-0.00108484;-0.000238304;0.00192858;0.00194731;-0.00110357;0.00152544;0.562508;1.77775;0.00178374;0.00203392;1.76455;0.566715;137.5;2.50045;-0.00621294;-0.00110644;0.00611585;-0.00657333;0.00190995;0.0119465;0.031646;0;0.0213073;2.37884;3.93691
263000;264;25.7916;0.0334775;0.00129969;-2.20956;25.6955;0.260788;-0.117156;0.0360873;-0.575581;-0.436698;-0.150699;-0.191433;0.500062;-7.39841;-5.01577e-06;0.000150666;0.00394075;0.00394649;-1.07605e-05;0.00197863;;;0.00263459;0.00263817;366.758;0.00272659;108.834;153.834;-0.00777362;-6.32436e-06;0.00193311;-0.00162477;0.0039389;0.0106267;0.0104369;0;0.0190396;-0.55949;-0.183929;-0.774818;0.973243;-7.18477;-0.000928137;-0.000180261;0.00190877;0.00192017;-0.000939546;0.00142986;0.48625;2.05656;0.00168311;0.00190648;2.04373;0.489302;136.285;1.28453;-0.00642457;-0.000948685;0.00606733;-0.00641016;0.00189041;0.0126991;0.0300368;0;0.0229857;2.44386;3.94416
264000;265;25.7935;0.0353064;0.00137069;-2.21094;25.6972;0.258323;-0.118537;0.0378292;-0.578047;-0.437814;-0.151469;-0.194906;0.502605;-7.40189;-4.04761e-05;0.000171828;0.00398171;0.00398903;-4.78033e-05;0.00201842;0.0101655;98.3717;0.00267543;0.00269122;83.4469;0.0119837;108.083;153.083;-0.00699075;-4.16556e-05;0.00189602;-0.00154545;0.00397993;0.00862434;0.00968305;0;0.0211007;-0.560814;-0.185402;-0.778073;0.976874;-7.18803;-0.000881124;-0.000280287;0.00197823;0.00200544;-0.00090834;0.00145689;0.445411;2.24512;0.00172156;0.00194252;2.20781;0.452937;137.873;2.8732;-0.00648591;-0.000901159;0.00579019;-0.00633343;0.00196154;0.0133623;0.0285793;0;0.0235057;2.49462;3.94675
265000;266;25.7941;0.035908;0.00139404;-2.21201;25.6977;0.26077;-0.119609;0.0383161;-0.5756;-0.439236;-0.154442;-0.194895;0.504742;-7.40188;-4.97441e-05;0.000214456;0.00368463;0.00369691;-6.20195e-05;0.00187946;0.0135004;74.0717;0.00248554;0.00250595;59.6089;0.016776;108.947;153.947;-0.00724253;-5.09531e-05;0.0020052;-0.00156962;0.00368265;0.0082072;0.00992173;0;0.0208661;-0.562647;-0.189157;-0.77883;0.979249;-7.18879;-0.000936629;-0.000362866;0.00202191;0.00206577;-0.000980484;0.00152312;0.46324;2.15871;0.00179557;0.00203083;2.10688;0.474635;139.28;4.28014;-0.00679227;-0.000957712;0.00579309;-0.00650063;0.00200523;0.0135604;0.0277019;0;0.0254241;2.56415;3.95433
266000;267;25.7915;0.0333295;0.00129394;-2.21134;25.6952;0.257516;-0.118937;0.0358186;-0.578854;-0.441726;-0.156869;-0.196652;0.508332;-7.40363;8.63497e-05;0.00013153;0.00388588;0.00389042;8.18019e-05;0.00190431;-0.0222214;-45.0016;0.00256678;0.00253908;-47.5591;-0.0210265;109.039;154.039;-0.00695181;8.49793e-05;0.0019307;-0.00166083;0.00388403;0.00764312;0.00853509;0;0.0254419;-0.56519;-0.192244;-0.779159;0.981573;-7.18912;-0.000706209;-0.000434819;0.00208484;0.00215101;-0.000772381;0.00146169;0.338736;2.95215;0.00174926;0.00194893;2.78491;0.359078;140.317;5.31741;-0.00795343;-0.000727127;0.00562765;-0.00648039;0.00206913;0.0148681;0.0274614;0;0.0225229;2.60718;3.95977
267000;268;25.793;0.0348407;0.00135261;-2.21174;25.6967;0.257593;-0.119341;0.0372999;-0.578776;-0.444483;-0.160205;-0.193855;0.510696;-7.40084;-5.88161e-05;0.000250648;0.00341833;0.00343631;-7.6791e-05;0.00175655;0.0172061;58.119;0.00231689;0.00234207;44.7488;0.022347;109.007;154.007;-0.00660456;-5.99151e-05;0.00201099;-0.00150359;0.00341635;0.00790254;0.00994841;0;0.0267514;-0.568247;-0.196641;-0.777206;0.98266;-7.18716;-0.000489559;-0.00052414;0.00213439;0.00223522;-0.000590383;0.0014128;0.229367;4.35982;0.00172103;0.00188373;3.78604;0.264128;141.865;6.8654;-0.0079849;-0.000510323;0.00543127;-0.00646394;0.00211981;0.0139988;0.0280889;0;0.0325385;2.6761;3.96697
268000;269;25.7945;0.0363204;0.00141006;-2.21298;25.6981;0.256967;-0.120576;0.0386851;-0.579402;-0.442985;-0.160293;-0.197029;0.510637;-7.40401;7.58461e-05;2.05712e-05;0.0034798;0.00347993;7.57217e-05;0.0017021;-0.0217961;-45.8798;0.00229513;0.00226947;-45.9568;-0.0217596;111.439;156.439;-0.00585609;7.44482e-05;0.00171911;-0.00167221;0.00347833;0.00629702;0.0106264;0;0.0223329;-0.567089;-0.19788;-0.781158;0.98537;-7.19111;-0.00054897;-0.000577672;0.00223369;0.00234885;-0.000664127;0.00150649;0.245768;4.06889;0.00182794;0.00200865;3.53675;0.282745;142.191;7.19111;-0.00818233;-0.000570398;0.00543149;-0.00657013;0.00221914;0.0151441;0.0277342;0;0.0220487;2.73387;3.97513
269000;270;25.7955;0.0373951;0.00145178;-2.21191;25.6993;0.254346;-0.119505;0.039882;-0.582024;-0.445027;-0.163657;-0.198412;0.514004;-7.40539;2.58756e-05;-3.07817e-05;0.00318909;0.00318939;2.55761e-05;0.00158191;-0.0081138;-123.247;0.00211779;0.00210921;-124.702;-0.00801913;114.86;159.86;-0.00617055;2.41531e-05;0.00180058;-0.00185637;0.00318747;0.00659692;0.010823;0;0.0273749;-0.568695;-0.202136;-0.784261;0.989615;-7.19422;-0.000523653;-0.000525418;0.00237397;0.0024663;-0.000615983;0.00154114;0.220581;4.53348;0.00188341;0.00205485;4.00384;0.24976;140.439;5.43918;-0.00772451;-0.000544245;0.00540351;-0.00643719;0.00235954;0.0141881;0.0294734;0;0.0335556;2.79591;3.98252
270000;271;25.7949;0.0367834;0.00142803;-2.21163;25.6987;0.248793;-0.119229;0.0393462;-0.587577;-0.447152;-0.165238;-0.198596;0.516419;-7.40558;-0.000143252;1.94014e-05;0.00287495;0.00287507;-0.000143377;0.00150922;0.0498276;20.0692;0.00196625;0.0020123;20.0526;0.0498689;116.618;161.618;-0.0063413;-0.000144983;0.00190524;-0.00186076;0.00287314;0.00722487;0.00987662;0;0.0301646;-0.571078;-0.20447;-0.78517;0.992184;-7.19513;-0.000433184;-0.000448927;0.00236357;0.00243387;-0.000503478;0.00146867;0.183275;5.45628;0.00181385;0.00195823;4.83411;0.206863;139.079;4.07913;-0.00761656;-0.000452481;0.00534547;-0.00622714;0.00234942;0.0147527;0.0312955;0;0.0385607;2.84687;3.99008
271000;272;25.7952;0.0370635;0.00143891;-2.21085;25.6991;0.243571;-0.118452;0.0397443;-0.592798;-0.449186;-0.169115;-0.194833;0.518004;-7.40181;-0.000139788;4.53703e-05;0.00282877;0.00282947;-0.000140481;0.00148497;0.0494165;20.2362;0.00193484;0.00197997;20.1412;0.0496494;117.372;162.372;-0.00718263;-0.000141764;0.00208515;-0.00198837;0.00282661;0.00796108;0.00916375;0;0.051196;-0.572856;-0.209212;-0.783193;0.992636;-7.19315;-0.000478561;-0.000337883;0.00260734;0.0026439;-0.000515124;0.00157951;0.183544;5.44828;0.00195704;0.00210602;5.13255;0.194835;135.762;0.762034;-0.00711558;-0.000496415;0.00532526;-0.00598358;0.00259325;0.013175;0.0310661;0;0.0574528;2.91948;3.99716
272000;273;25.798;0.0398564;0.00154733;-2.21167;25.7019;0.244746;-0.119273;0.0424658;-0.591623;-0.450461;-0.170069;-0.20087;0.521716;-7.40785;-0.000129852;0.000172691;0.00229304;0.00230529;-0.000142098;0.00122369;0.0566286;17.6589;0.00158635;0.00163159;16.2232;0.0616402;117.146;162.146;-0.00731731;-0.000131643;0.00225092;-0.00190052;0.00229053;0.0080098;0.00965372;0;0.0245689;-0.574163;-0.211871;-0.791185;1.00026;-7.20114;-0.000599685;-0.000398697;0.00264034;0.00268868;-0.000648025;0.00166835;0.227124;4.40288;0.00204301;0.00222447;4.14904;0.241019;136.851;1.85134;-0.00727451;-0.000618864;0.00542569;-0.00620425;0.00262574;0.0129098;0.0325882;0;0.0372596;2.97192;4.00513
273000;274;25.7993;0.0411153;0.00159621;-2.21197;25.7031;0.245343;-0.119568;0.0436984;-0.591026;-0.451209;-0.174899;-0.196603;0.522334;-7.40358;-0.000286446;-5.94885e-05;0.00250199;0.00250326;-0.000287714;0.00139549;0.114487;8.7346;0.00177254;0.00186065;8.7005;0.114936;122.904;167.904;-0.00685767;-0.000289027;0.0021598;-0.0022726;0.00249966;0.00703667;0.00936429;0;0.0323925;-0.574862;-0.216689;-0.788852;0.999854;-7.19881;-0.000561979;-0.00030491;0.00261903;0.002648;-0.000590942;0.00161947;0.214575;4.66038;0.00199175;0.00215929;4.48098;0.223165;135.277;0.27679;-0.00722492;-0.000580262;0.00546152;-0.00605304;0.00260421;0.012915;0.0322158;0;0.0301955;3.04558;4.01234
274000;275;25.8014;0.0432223;0.001678;-2.21166;25.7052;0.243527;-0.11926;0.045857;-0.592843;-0.452622;-0.17702;-0.194704;0.523558;-7.40168;-0.000288464;-2.15886e-05;0.00207635;0.00207655;-0.000288661;0.0011826;0.138929;7.19794;0.00148994;0.00157681;7.19371;0.13901;124.195;169.195;-0.00726225;-0.000290815;0.00213005;-0.00216815;0.00207409;0.00878618;0.00945195;0;0.0387161;-0.57645;-0.220947;-0.787019;1.00026;-7.19697;-0.000645773;-0.000329871;0.00266387;0.00269643;-0.000678331;0.00168738;0.242419;4.12509;0.00206128;0.00224984;3.9751;0.251566;135.66;0.660161;-0.00704121;-0.000664788;0.00553321;-0.00617358;0.00264866;0.0116609;0.031731;0;0.042994;3.09677;4.01829
275000;276;25.8051;0.0469521;0.00182281;-2.2103;25.709;0.251696;-0.117899;0.0496391;-0.584674;-0.45432;-0.180291;-0.19243;0.525301;-7.39941;-0.000435854;1.02739e-05;0.00233074;0.00233078;-0.000435893;0.00138333;0.187003;5.34752;0.00171768;0.00184445;5.34714;0.187016;123.379;168.379;-0.00754236;-0.00043838;0.00227361;-0.00224682;0.00232816;0.00995408;0.0106027;0;0.024712;-0.577197;-0.226093;-0.784326;0.999721;-7.19428;-0.0005391;-0.000257072;0.00259291;0.00261387;-0.00056006;0.00158697;0.207913;4.8097;0.00195618;0.00211595;4.66713;0.214265;134.481;179.481;-0.00712634;-0.000556836;0.00546342;-0.00595969;0.00257806;0.0118665;0.029476;0;0.0207378;3.16244;4.02397
276000;277;25.8048;0.0466741;0.00181201;-2.21058;25.7088;0.242401;-0.118181;0.0494251;-0.593969;-0.455781;-0.178766;-0.201077;0.529269;-7.40806;-0.000257492;-2.5303e-05;0.00206404;0.00206431;-0.000257767;0.00116104;0.124751;8.01594;0.00146969;0.00154805;8.00843;0.124868;124.627;169.627;-0.00774575;-0.000260062;0.00222176;-0.00226716;0.00206158;0.00989788;0.0115617;0;0.0264209;-0.578738;-0.224891;-0.797634;1.01081;-7.20759;-0.000460346;-0.000188848;0.0024923;0.00250433;-0.000472375;0.00148835;0.184707;5.41398;0.00184726;0.00198447;5.30157;0.188623;133.779;178.779;-0.00790989;-0.000479659;0.00585645;-0.00621634;0.00247521;0.013199;0.0305948;0;0.0204709;3.21625;4.02659
277000;278;25.8053;0.0471155;0.00182915;-2.21056;25.7093;0.240262;-0.118162;0.0498899;-0.596107;-0.457196;-0.183519;-0.19503;0.529852;-7.40201;-0.0005385;2.88785e-05;0.00277357;0.00277382;-0.000538751;0.00165629;0.194154;5.15055;0.0020525;0.00220838;5.14861;0.194227;121.204;166.204;-0.00770339;-0.000540937;0.00227249;-0.00220732;0.002771;0.0103012;0.0111467;0;0.020513;-0.579956;-0.229895;-0.794113;1.00986;-7.20407;-0.00049168;-6.07489e-06;0.00240422;0.00240423;-0.000491693;0.00144796;0.204508;4.8898;0.00178938;0.00193061;4.88969;0.204512;130.465;175.465;-0.0072747;-0.00050935;0.00594818;-0.00594313;0.00238657;0.0125264;0.0301183;0;0.0274971;3.28249;4.03417
278000;279;25.8064;0.0482994;0.00187511;-2.20984;25.7105;0.240824;-0.117434;0.0511355;-0.595546;-0.459852;-0.185927;-0.193371;0.532377;-7.40035;-0.000597357;0.000159171;0.00284557;0.00285291;-0.0006047;0.00172881;0.209925;4.7636;0.00213228;0.00230508;4.7179;0.211959;119.935;164.935;-0.00816017;-0.00059993;0.00260009;-0.00227337;0.00284221;0.0105685;0.0118142;0;0.0196192;-0.582122;-0.232909;-0.79189;1.01005;-7.20185;-0.000349986;-4.76052e-06;0.00235109;0.00235109;-0.000349994;0.00135054;0.148861;6.71766;0.00169614;0.00180073;6.71752;0.148864;130.254;175.254;-0.00773715;-0.000367779;0.00597097;-0.00596439;0.0023333;0.0137323;0.0299059;0;0.030676;3.3415;4.04097
279000;280;25.8102;0.0520958;0.0020225;-2.20951;25.7143;0.246774;-0.117108;0.0549177;-0.589596;-0.46179;-0.186752;-0.200546;0.536978;-7.40753;-0.00044136;0.000482898;0.00169517;0.00179925;-0.000545435;0.00117234;0.260363;3.84079;0.00141675;0.00156312;3.29874;0.303146;115.85;160.85;-0.00861483;-0.000443341;0.00301894;-0.00204773;0.00169074;0.0103549;0.0142703;0;0.0247394;-0.583346;-0.235369;-0.798528;1.01653;-7.20848;-0.000471864;5.32314e-06;0.00242241;0.00242242;-0.000471874;0.00144715;0.194791;5.13371;0.00179306;0.00192953;5.13362;0.194794;130.251;175.251;-0.00779965;-0.000490286;0.00609665;-0.00606842;0.00240387;0.0148436;0.0296921;0;0.0234392;3.40896;4.04847
280000;281;25.8075;0.049355;0.00191609;-2.21122;25.7115;0.240549;-0.118815;0.052079;-0.595821;-0.461227;-0.188479;-0.197738;0.536055;-7.40472;-0.000589602;0.000171871;0.00253443;0.00254386;-0.000599029;0.00157144;0.232637;4.29854;0.00192687;0.00209526;4.24663;0.235481;121.093;166.093;-0.00813511;-0.000592231;0.00265022;-0.00229875;0.00253094;0.00896508;0.0139246;0;0.024847;-0.583701;-0.235997;-0.800425;1.01837;-7.21038;-0.000376631;5.4482e-05;0.00241249;0.00241356;-0.000377695;0.00139563;0.156117;6.40545;0.00174859;0.00186083;6.39022;0.156489;129.068;174.068;-0.00819619;-0.000394967;0.00618081;-0.0060548;0.00239344;0.0155734;0.030553;0;0.0218218;3.46018;4.05578
281000;282;25.8085;0.0503414;0.00195439;-2.21033;25.7126;0.234683;-0.117926;0.0531996;-0.601687;-0.463106;-0.190619;-0.201297;0.539744;-7.40828;-0.000771296;1.04473e-05;0.00225252;0.00225255;-0.000771332;0.00151194;0.342415;2.92043;0.00181432;0.00201592;2.92034;0.342426;126.443;171.443;-0.00889823;-0.000774333;0.00249194;-0.00246356;0.00224942;0.0116956;0.0129829;0;0.0216118;-0.585557;-0.24027;-0.802956;1.02242;-7.21291;-0.000312359;8.11347e-06;0.0023652;0.00236523;-0.000312384;0.00133881;0.132064;7.57206;0.00169059;0.00178507;7.57154;0.132073;130.116;175.116;-0.0089015;-0.000332187;0.00632937;-0.00629626;0.00234522;0.0156509;0.0311492;0;0.0209457;3.53087;4.06359
282000;283;25.8075;0.0493476;0.00191581;-2.21056;25.7116;0.229533;-0.118162;0.0522284;-0.606836;-0.464859;-0.19457;-0.198322;0.541556;-7.4053;-0.000719601;0.000160913;0.00211501;0.00212412;-0.000728706;0.00142641;0.340235;2.93914;0.0017115;0.00190188;2.91491;0.343063;123.924;168.924;-0.00889046;-0.000722316;0.00266381;-0.0023349;0.00211148;0.0110955;0.0129636;0;0.0197336;-0.586735;-0.244199;-0.801725;1.02306;-7.21168;-0.000376753;4.93612e-05;0.00248805;0.0024889;-0.000377603;0.00143325;0.151425;6.60393;0.0017984;0.001911;6.59131;0.151715;129.256;174.256;-0.00896207;-0.000397051;0.00648765;-0.00637053;0.00246706;0.0172951;0.0303672;0;0.0219476;3.59315;4.07034
283000;284;25.8076;0.0494342;0.00191917;-2.21012;25.7118;0.223489;-0.117714;0.052407;-0.61288;-0.467465;-0.196536;-0.199766;0.545029;-7.40675;-0.000665347;0.000442142;0.00177258;0.00185029;-0.000743057;0.00129667;0.375355;2.66414;0.00154209;0.0017289;2.49011;0.401589;118.802;163.802;-0.00856886;-0.000667406;0.00296654;-0.00207612;0.00176828;0.0103362;0.0148305;0;0.0167871;-0.589094;-0.246214;-0.808052;1.02986;-7.21801;-0.000302451;3.02624e-05;0.00262802;0.00262833;-0.000302763;0.00146555;0.115087;8.68908;0.00186137;0.00195406;8.68115;0.115192;129.34;174.34;-0.00994693;-0.000324201;0.00667447;-0.00659453;0.0026058;0.0180645;0.0332979;0;0.021304;3.65328;4.07792
284000;285;25.8077;0.0495834;0.00192496;-2.20986;25.712;0.224349;-0.117454;0.0525716;-0.61202;-0.469265;-0.198432;-0.199894;0.547304;-7.40687;-0.000536906;0.000475905;0.00145465;0.00156253;-0.000644786;0.00110366;0.369096;2.70932;0.0013106;0.00147154;2.42333;0.412655;116.929;161.929;-0.0077702;-0.000538777;0.00294808;-0.00199136;0.00145043;0.00838837;0.0134657;0;0.0174083;-0.590349;-0.249295;-0.807561;1.03093;-7.21752;-0.000223489;-6.53522e-06;0.00266778;0.0026678;-0.000223504;0.00144565;0.0837732;11.937;0.00185752;0.00192754;11.9363;0.0837782;130.034;175.034;-0.0104641;-0.000247555;0.00694397;-0.006937;0.00264374;0.0183672;0.0338317;0;0.0230123;3.71403;4.08476
285000;286;25.8076;0.0494206;0.00191864;-2.20961;25.7119;0.218238;-0.117208;0.052482;-0.618132;-0.470483;-0.201084;-0.200851;0.549663;-7.40783;-0.000522248;0.00084101;0.00189671;0.00216037;-0.000785908;0.00147314;0.275344;3.63182;0.00176165;0.00196419;2.74888;0.363784;109.554;154.554;-0.00851403;-0.000523099;0.00323969;-0.00155188;0.00189183;0.00938217;0.0139896;0;0.0184819;-0.591664;-0.252728;-0.811824;1.03586;-7.22178;-0.000266076;2.52069e-05;0.00286694;0.00286714;-0.000266279;0.00156671;0.0928085;10.7749;0.00200609;0.00208895;10.7674;0.0928727;129.071;174.071;-0.010205;-0.000289366;0.00689588;-0.006824;0.00284323;0.0175346;0.0364462;0;0.0313149;3.7775;4.09123
286000;287;25.8098;0.0516469;0.00200507;-2.20863;25.7142;0.218629;-0.116227;0.0547975;-0.61774;-0.471802;-0.201921;-0.202907;0.551852;-7.40989;-0.000440243;0.000601423;0.00147611;0.00164922;-0.000613355;0.00113129;0.298245;3.35294;0.00135116;0.00150838;2.68886;0.371905;113.06;158.06;-0.00826102;-0.000441867;0.00310696;-0.00189933;0.00147147;0.00838441;0.0136684;0;0.0180994;-0.592437;-0.25439;-0.816801;1.04061;-7.22676;-0.000266955;0.00010148;0.0029704;0.00297358;-0.000270133;0.00162185;0.0898717;11.127;0.00207829;0.00216247;11.0078;0.0908444;127.554;172.554;-0.010726;-0.000289922;0.00700257;-0.00677734;0.00294596;0.018463;0.0378601;0;0.0374987;3.83816;4.09536
287000;288;25.8093;0.051108;0.00198415;-2.20755;25.7138;0.214583;-0.11515;0.0543832;-0.621787;-0.474412;-0.201914;-0.213766;0.558151;-7.42075;-0.00031851;0.000453117;0.00193501;0.00202271;-0.000406206;0.00121446;0.164604;6.0752;0.00150229;0.00161927;4.97951;0.200823;114.421;159.421;-0.00824699;-0.000320153;0.00277966;-0.0018682;0.00193126;0.00798767;0.0137036;0;0.0168196;-0.594932;-0.256204;-0.826475;1.05007;-7.23643;-0.000355248;0.000179111;0.00303945;0.00304888;-0.000364672;0.00170677;0.116879;8.55587;0.00216441;0.0022757;8.3606;0.119609;126.486;171.486;-0.0104311;-0.000378679;0.00722871;-0.00684664;0.00301342;0.0174039;0.0402137;0;0.0350466;3.9034;4.10076
288000;289;25.8087;0.0505411;0.00196214;-2.2086;25.7132;0.20862;-0.116199;0.0537731;-0.627749;-0.472816;-0.205597;-0.203734;0.554376;-7.41071;-0.000558944;0.000638711;0.00188466;0.00204154;-0.000715819;0.00137868;0.296575;3.37183;0.00165216;0.00183824;2.85203;0.350627;113.406;158.406;-0.00846384;-0.000560265;0.00302917;-0.00174592;0.00188029;0.0095504;0.0135191;0;0.0189667;-0.593483;-0.260199;-0.818375;1.04387;-7.22833;-0.000300727;0.000154623;0.00308839;0.00309543;-0.000307767;0.0017016;0.0973732;10.2698;0.00217349;0.0022688;10.0577;0.099426;126.481;171.481;-0.00972998;-0.000322572;0.00694287;-0.00661069;0.00306438;0.0170266;0.0400034;0;0.0453645;3.96672;4.10772
289000;290;25.8104;0.0522397;0.00202809;-2.20844;25.7149;0.210502;-0.116034;0.0554769;-0.625868;-0.474113;-0.207971;-0.206544;0.557401;-7.41352;-0.000414283;0.000798116;0.00145418;0.00174868;-0.000708782;0.00122873;0.284891;3.51011;0.00146054;0.00163831;2.46716;0.405324;108.302;153.302;-0.00724746;-0.000415067;0.00308513;-0.00148464;0.00144974;0.00625806;0.0144016;0;0.0215312;-0.59482;-0.263024;-0.823753;1.04955;-7.23371;-0.000326882;0.000187688;0.00327165;0.00328142;-0.000336645;0.00180903;0.0999135;10.0087;0.00230802;0.00241204;9.74741;0.102591;125.792;170.792;-0.0096664;-0.0003485;0.00697665;-0.00657694;0.00324741;0.016144;0.041507;0;0.0398343;4.02067;4.11483
290000;291;25.81;0.0518171;0.00201168;-2.20698;25.7146;0.207032;-0.114578;0.0552059;-0.629337;-0.477053;-0.212342;-0.204049;0.560629;-7.41103;-0.000389613;0.000691502;0.00157764;0.00179639;-0.000608358;0.00120237;0.246959;4.04925;0.00144375;0.00160316;2.95285;0.338656;109.58;154.58;-0.0071346;-0.000390388;0.00281137;-0.0014242;0.00157393;0.00674489;0.0143827;0;0.0249539;-0.596922;-0.267466;-0.823386;1.05158;-7.23334;-0.000376947;0.000229627;0.00336535;0.00337939;-0.000390984;0.00188518;0.112008;8.92792;0.00239392;0.00251358;8.64329;0.115697;125.109;170.109;-0.0096699;-0.000397731;0.00693453;-0.00645028;0.00334141;0.0146439;0.0431384;0;0.0355907;4.08869;4.12273
291000;292;25.8111;0.0529689;0.0020564;-2.20647;25.7157;0.216048;-0.114066;0.0563317;-0.620322;-0.478572;-0.213445;-0.209607;0.56438;-7.41659;-0.000406565;0.000545429;0.00140548;0.00155699;-0.000558073;0.00105753;0.289272;3.45695;0.00126571;0.00141004;2.78993;0.358432;112.823;157.823;-0.00717902;-0.000407658;0.00266992;-0.00157522;0.00140207;0.00812246;0.0141358;0;0.0217938;-0.598188;-0.268863;-0.831015;1.05863;-7.24097;-0.000422069;0.00034817;0.00335808;0.00338988;-0.000453869;0.00192188;0.125687;7.95625;0.00242541;0.0025625;7.46886;0.133889;123.834;168.834;-0.0100106;-0.000444719;0.00746125;-0.00673813;0.0033304;0.0169669;0.0432205;0;0.0215627;4.1527;4.12947
292000;293;25.812;0.053894;0.00209231;-2.20742;25.7166;0.211354;-0.115017;0.0572177;-0.625016;-0.47883;-0.213917;-0.212781;0.565964;-7.41976;-0.000410534;0.000415951;0.00105994;0.00116945;-0.000520038;0.000844743;0.387317;2.58187;0.000999156;0.00112632;2.24877;0.444687;115.707;160.707;-0.00717421;-0.00041177;0.00246131;-0.00162641;0.001057;0.00834204;0.0141978;0;0.0203364;-0.599259;-0.271483;-0.832606;1.06115;-7.24256;-0.000389295;0.000385693;0.00338811;0.00342709;-0.000428274;0.00192768;0.1149;8.70321;0.00244005;0.00257024;8.0021;0.124967;123.062;168.062;-0.00981187;-0.000410875;0.00737735;-0.00657967;0.00336107;0.0155538;0.0419333;0;0.0188082;4.21546;4.13673
293000;294;25.8137;0.0555972;0.00215843;-2.20718;25.7183;0.210013;-0.114781;0.0589584;-0.626356;-0.479043;-0.221137;-0.198826;0.56384;-7.40581;-0.000273184;0.000348662;0.000764045;0.000870351;-0.000379491;0.000624921;0.35755;2.79681;0.000739914;0.000833228;2.29347;0.43602;114.791;159.791;-0.00658269;-0.000274787;0.00252352;-0.00182394;0.000760924;0.00656581;0.0160899;0;0.0227819;-0.599007;-0.278412;-0.824968;1.05683;-7.23492;-0.000365238;0.000438891;0.00305939;0.00311474;-0.00042059;0.00176766;0.119383;8.37642;0.00222995;0.00235689;7.40564;0.135032;122.222;167.222;-0.00982744;-0.000386252;0.00739801;-0.00649649;0.0030322;0.0177394;0.0391637;0;0.0217036;4.27448;4.14407
294000;295;25.8169;0.0587717;0.00228167;-2.20624;25.7215;0.219917;-0.11384;0.0621426;-0.616452;-0.48131;-0.219208;-0.212108;0.569826;-7.41909;-0.000199608;0.000321844;0.00129888;0.00136508;-0.000265809;0.000815442;0.153677;6.50713;0.00101038;0.00108726;5.13556;0.194721;115.592;160.592;-0.0073411;-0.00020093;0.002304;-0.00165735;0.00129628;0.00737278;0.0140274;0;0.0268852;-0.601138;-0.27899;-0.832945;1.06442;-7.2429;-0.000395117;0.000470713;0.00310094;0.00316321;-0.000457385;0.0018103;0.127419;7.84815;0.00227663;0.00241373;6.91585;0.144595;121.871;166.871;-0.00936174;-0.000416072;0.00745532;-0.00648958;0.00307334;0.0148876;0.0384155;0;0.0182;4.34084;4.15158
295000;296;25.8171;0.0589787;0.00228971;-2.20538;25.7218;0.216495;-0.112981;0.0624531;-0.619875;-0.482905;-0.222607;-0.207538;0.570809;-7.41452;-0.000286959;0.000611447;0.000492379;0.000827769;-0.000622348;0.000725059;0.582801;1.71585;0.000840021;0.000966745;1.33007;0.751839;104.678;149.678;-0.00635372;-0.000287598;0.00250954;-0.00128516;0.000489419;0.00668692;0.016686;0;0.0458329;-0.601848;-0.281878;-0.831897;1.06477;-7.24185;-0.000467094;0.00059747;0.00292358;0.00302578;-0.000569294;0.00179753;0.159768;6.25907;0.00223129;0.00239671;5.31496;0.188148;120.245;165.245;-0.00936187;-0.000487639;0.0076551;-0.00643633;0.00289454;0.0162271;0.0394287;0;0.0187565;4.40211;4.15829
296000;297;25.8187;0.0605296;0.00234992;-2.20625;25.7233;0.216391;-0.113848;0.0639363;-0.619978;-0.483537;-0.223742;-0.211359;0.573185;-7.41834;-0.000244391;0.000658044;0.000769122;0.00109292;-0.000568191;0.000830556;0.317754;3.14709;0.000974864;0.00110741;1.92351;0.519883;104.853;149.853;-0.00653238;-0.000244952;0.0025648;-0.00124678;0.000766051;0.00713753;0.0168432;0;0.0311237;-0.60332;-0.284467;-0.835283;1.06893;-7.24524;-0.000498838;0.000613733;0.00307486;0.00317732;-0.0006013;0.00188931;0.162231;6.16404;0.00234449;0.00251908;5.28408;0.189248;120.172;165.172;-0.00941975;-0.00051868;0.00758002;-0.00632776;0.0030464;0.0171036;0.0377796;0;0.0211518;4.4665;4.16417
297000;298;25.8192;0.0611007;0.00237209;-2.207;25.7238;0.216776;-0.114597;0.064442;-0.619594;-0.484185;-0.227408;-0.206404;0.573369;-7.41338;-0.000347177;0.000369984;0.000726762;0.000841885;-0.000462299;0.000652092;0.477704;2.09335;0.000763528;0.000869456;1.82108;0.549124;114.841;159.841;-0.00637618;-0.000348282;0.00227386;-0.00153185;0.000724247;0.00629219;0.0167468;0;0.030782;-0.603398;-0.289276;-0.827919;1.06453;-7.23787;-0.000302012;0.000636312;0.00308351;0.00319915;-0.000417657;0.0018084;0.0979442;10.2099;0.00228475;0.00241121;7.65976;0.130552;119.007;164.007;-0.00991596;-0.00032224;0.00768777;-0.00639137;0.00305425;0.018805;0.0363155;0;0.0195155;4.52721;4.16875
298000;299;25.8214;0.0633002;0.00245748;-2.20678;25.7261;0.213105;-0.114379;0.0666991;-0.623264;-0.485313;-0.227703;-0.211131;0.576154;-7.41811;-0.000172193;0.000479109;0.00108965;0.00125095;-0.000333488;0.000792217;0.158026;6.32806;0.000964539;0.00105629;3.75109;0.266589;109.526;154.526;-0.00704613;-0.000173065;0.00236516;-0.00140457;0.00108697;0.00851251;0.01468;0;0.035723;-0.604636;-0.291599;-0.83472;1.07116;-7.24468;-0.000493966;0.000495745;0.00316078;0.00322683;-0.000560017;0.00189342;0.15628;6.39877;0.00236014;0.00252456;5.76201;0.17355;121.88;166.88;-0.00998625;-0.000514625;0.00746224;-0.00644539;0.00313314;0.0180137;0.0377444;0;0.0203194;4.59572;4.17475
299000;300;25.8225;0.0644055;0.0025004;-2.2069;25.7272;0.212347;-0.114498;0.0678045;-0.624023;-0.48679;-0.229431;-0.210236;0.577756;-7.41722;-0.000307365;0.000636862;0.000978022;0.00124012;-0.000569464;0.000904792;0.314272;3.18196;0.00106841;0.00120639;2.1777;0.4592;107.292;152.292;-0.00708209;-0.000307823;0.00242576;-0.00114974;0.000975285;0.00916906;0.0158022;0;0.030812;-0.606009;-0.293171;-0.838191;1.07506;-7.24815;-0.000574866;0.000420969;0.0032276;0.00327364;-0.000620914;0.00194728;0.17811;5.61452;0.00241614;0.00259637;5.2723;0.189671;123.228;168.228;-0.0105272;-0.000595805;0.00735126;-0.00648307;0.00320075;0.0189981;0.037752;0;0.021794;4.65169;4.18166
300000;301;25.823;0.0648579;0.00251796;-2.20796;25.7276;0.207398;-0.115557;0.0682081;-0.628971;-0.489509;-0.228753;-0.229077;0.586876;-7.43606;-0.000166014;0.000448704;0.00224577;0.00232655;-0.000246789;0.00128667;0.073923;13.5276;0.0016395;0.00171556;9.42727;0.106075;108.734;153.734;-0.00746985;-0.000166645;0.00211093;-0.00120952;0.00224365;0.0102399;0.015906;0;0.0197011;-0.609532;-0.293603;-0.857548;1.0923;-7.2675;-0.000615717;0.000189021;0.00325541;0.00326462;-0.000624925;0.00194477;0.189137;5.28718;0.00241186;0.00259303;5.22401;0.191424;126.512;171.512;-0.0107098;-0.000636604;0.00686781;-0.006464;0.00323192;0.0177562;0.0352227;0;0.0250886;4.72159;4.1886
301000;302;25.8264;0.0682402;0.00264927;-2.20723;25.731;0.213621;-0.114825;0.0716148;-0.622748;-0.489504;-0.232056;-0.21858;0.584159;-7.42556;-0.000363321;0.000246314;0.00180976;0.00183733;-0.000390891;0.00111411;0.200757;4.98115;0.00137384;0.00148548;4.70036;0.21275;116.916;161.916;-0.00767818;-0.000364311;0.00192426;-0.00142799;0.00180794;0.010973;0.0157559;0;0.0288323;-0.608736;-0.298769;-0.843922;1.0826;-7.25388;-0.000724782;0.000256034;0.00333997;0.00335604;-0.000740846;0.00204844;0.217002;4.60824;0.00252086;0.00273125;4.53001;0.22075;126.041;171.041;-0.0110795;-0.000747648;0.00730544;-0.00676483;0.00331341;0.0194522;0.037213;0;0.0229528;4.78358;4.19604
302000;303;25.8258;0.0676142;0.00262496;-2.20723;25.7304;0.209004;-0.114826;0.0710243;-0.627366;-0.490751;-0.23371;-0.222964;0.587511;-7.42994;-0.000250247;0.000432795;0.00184744;0.00193322;-0.000336033;0.00113463;0.135456;7.38246;0.0014142;0.00151284;5.75307;0.17382;110.213;155.213;-0.00748005;-0.000250787;0.00199526;-0.0011264;0.00184554;0.0103596;0.0168795;0;0.0271411;-0.610043;-0.301654;-0.850206;1.08904;-7.26016;-0.000750538;0.000151387;0.00369512;0.00370027;-0.000755688;0.00222798;0.203116;4.92329;0.00275353;0.00297064;4.89656;0.204225;126.806;171.806;-0.0107611;-0.000772267;0.00692418;-0.00659142;0.00367124;0.0188857;0.0379039;0;0.0356218;4.84401;4.20352
303000;304;25.8266;0.0684558;0.00265764;-2.20636;25.7314;0.204975;-0.113961;0.0719757;-0.631394;-0.491224;-0.236463;-0.219717;0.587785;-7.4267;-0.000265529;0.000673044;0.00236511;0.00252731;-0.000427725;0.00147752;0.112269;8.90717;0.00184406;0.00197002;5.90872;0.169241;104.026;149.026;-0.00728873;-0.000265652;0.00218588;-0.000835824;0.00236295;0.00996452;0.0168884;0;0.0218371;-0.610511;-0.305025;-0.85113;1.09096;-7.26109;-0.000813455;7.20847e-05;0.0037557;0.00375683;-0.000814592;0.00228571;0.216592;4.61697;0.00281564;0.00304762;4.61192;0.216829;127.875;172.875;-0.0107728;-0.000835874;0.00686887;-0.00669377;0.0037322;0.0190258;0.0385362;0;0.0265922;4.89933;4.21114
304000;305;25.8265;0.0683873;0.00265498;-2.20659;25.7313;0.200579;-0.114185;0.0719223;-0.63579;-0.493098;-0.238898;-0.219807;0.590367;-7.42679;-0.00032744;0.000473193;0.00269295;0.00276535;-0.000399838;0.00158259;0.121591;8.22426;0.00199028;0.00211012;6.91617;0.144589;107.057;152.057;-0.0073439;-0.000327843;0.00196613;-0.00101525;0.00269114;0.0104891;0.0162846;0;0.0220486;-0.612009;-0.308251;-0.852253;1.09358;-7.26221;-0.000864586;7.9964e-05;0.00379749;0.00379886;-0.000865957;0.00233241;0.227673;4.39226;0.00286518;0.00310988;4.38689;0.227952;127.689;172.689;-0.00927002;-0.000885998;0.00673243;-0.00654161;0.00377491;0.0164552;0.03993;0;0.0327709;4.96469;4.21873
305000;306;25.8277;0.0695982;0.00270199;-2.20592;25.7326;0.200546;-0.113513;0.0731956;-0.635824;-0.493652;-0.24111;-0.219992;0.591796;-7.42697;-0.000210754;0.000403518;0.00269414;0.00274915;-0.000265764;0.00150746;0.0782267;12.7834;0.00192747;0.00200994;10.3443;0.0966715;107.632;152.632;-0.00720255;-0.000211299;0.00193095;-0.00111949;0.00269236;0.0107913;0.0158037;0;0.0207693;-0.612236;-0.311792;-0.854036;1.09609;-7.26399;-0.000730192;2.12688e-05;0.0040553;0.0040554;-0.000730287;0.00239284;0.180059;5.55375;0.00297704;0.00319046;5.55316;0.180078;127.604;172.604;-0.00914222;-0.000751926;0.0066648;-0.0065906;0.00403318;0.0154117;0.0411172;0;0.0288551;5.02428;4.22605
306000;307;25.8292;0.0710996;0.00276028;-2.20637;25.7341;0.197393;-0.113971;0.0746876;-0.638976;-0.494231;-0.241827;-0.227798;0.595513;-7.43478;-0.000287378;0.000494369;0.00367621;0.00373694;-0.000348109;0.00204253;0.0781723;12.7923;0.00261507;0.00272337;10.735;0.0931534;103.656;148.656;-0.00701631;-0.000287751;0.00199036;-0.000995712;0.00367436;0.0103245;0.0147086;0;0.0253049;-0.612872;-0.314364;-0.862736;1.10397;-7.27269;-0.000660262;8.44656e-05;0.0041337;0.00413519;-0.00066175;0.00239847;0.159727;6.2607;0.00300179;0.00319796;6.24887;0.160029;126.422;171.422;-0.00850575;-0.000680812;0.00660938;-0.0064093;0.00411196;0.0157646;0.0405871;0;0.0505525;5.09125;4.23335
307000;308;25.8295;0.0713831;0.00277128;-2.20543;25.7344;0.197612;-0.11303;0.0750512;-0.638757;-0.496261;-0.244733;-0.222082;0.59623;-7.42906;-0.000215901;0.000400421;0.00340165;0.00344544;-0.000259693;0.00185257;0.0634695;15.7556;0.00238824;0.00247009;13.2674;0.0753729;103.134;148.134;-0.00660594;-0.000216207;0.00168385;-0.000878383;0.00340032;0.00952801;0.0144724;0;0.0257288;-0.614224;-0.317194;-0.857927;1.10178;-7.26788;-0.000857232;-2.04785e-05;0.00412478;0.00412486;-0.000857317;0.00249109;0.207825;4.81174;0.00307577;0.00332145;4.81136;0.207841;128.258;173.258;-0.00864247;-0.000879554;0.00667089;-0.00667864;0.00410262;0.0154036;0.0408449;0;0.0333999;5.14661;4.24027
308000;309;25.8316;0.0734941;0.00285324;-2.20613;25.7365;0.20226;-0.113731;0.0770737;-0.634109;-0.499627;-0.248336;-0.218797;0.599308;-7.42578;-0.000294751;0.000449708;0.00446804;0.00451013;-0.000336841;0.00242348;0.0659687;15.1587;0.00312509;0.00323131;13.3895;0.0746854;99.7927;144.793;-0.00679254;-0.000294945;0.00167392;-0.000768697;0.00446674;0.010952;0.0135028;0;0.0236676;-0.618079;-0.322596;-0.854992;1.10322;-7.26495;-0.000976027;-5.67905e-05;0.00409557;0.0040962;-0.000976663;0.00253643;0.238313;4.19616;0.00310794;0.00338191;4.19408;0.238431;128.987;173.987;-0.00793463;-0.000998753;0.00665892;-0.00673858;0.00407349;0.0144299;0.0415105;0;0.0336363;5.21395;4.24676
309000;310;25.8333;0.0751972;0.00291936;-2.20553;25.7382;0.201297;-0.113127;0.0788425;-0.635073;-0.497929;-0.246625;-0.227916;0.600585;-7.4349;-0.000481054;0.000383468;0.00420073;0.00423193;-0.000512254;0.00237209;0.114517;8.73236;0.00300662;0.00316279;8.26139;0.121045;102.297;147.297;-0.00656209;-0.000481355;0.00163888;-0.000866089;0.00419947;0.010437;0.0139536;0;0.0215472;-0.616273;-0.322576;-0.864136;1.10932;-7.27409;-0.000787586;0.000121785;0.00401719;0.00402027;-0.000790671;0.00240547;0.196054;5.10064;0.00297892;0.0032073;5.08464;0.196671;126.434;171.434;-0.00819258;-0.000807583;0.00659737;-0.00632281;0.00399552;0.014537;0.0402579;0;0.0209024;5.26471;4.2501
310000;311;25.8341;0.0759418;0.00294826;-2.20541;25.739;0.202113;-0.113003;0.079594;-0.634257;-0.500052;-0.249727;-0.228709;0.603923;-7.43569;-0.000349786;0.000513227;0.00491995;0.00496947;-0.000399305;0.00268439;0.0710955;14.0656;0.00345378;0.00357918;12.4453;0.0803516;97.3092;142.309;-0.00716079;-0.000349825;0.00161574;-0.000583504;0.00491878;0.0102252;0.0131206;0;0.020896;-0.618088;-0.326385;-0.866924;1.11361;-7.27688;-0.000957011;9.30738e-05;0.00385197;0.00385377;-0.000958812;0.00240629;0.248448;4.02499;0.00294134;0.00320839;4.01931;0.248799;127.522;172.522;-0.0074593;-0.000977487;0.0066143;-0.00639692;0.00383018;0.013318;0.0380834;0;0.0184251;5.33811;4.25744
311000;312;25.8345;0.0763345;0.00296351;-2.20557;25.7394;0.201987;-0.113171;0.0799748;-0.634383;-0.499457;-0.252695;-0.227025;0.60403;-7.43401;-0.000445942;0.000261077;0.00481384;0.00482677;-0.000458869;0.00264282;0.0926374;10.7948;0.0033812;0.00352376;10.5188;0.0950676;101.553;146.553;-0.00711581;-0.000446348;0.00146662;-0.000938153;0.00481281;0.0114549;0.0132408;0;0.0189499;-0.617435;-0.329877;-0.864179;1.11214;-7.27413;-0.000838107;0.00021143;0.00361807;0.00362808;-0.000848116;0.0022381;0.231644;4.31696;0.00274545;0.00298413;4.27782;0.233764;126.244;171.244;-0.0078057;-0.000858412;0.00682561;-0.00637339;0.00359489;0.0140558;0.0386428;0;0.0185436;5.38647;4.26348
312000;313;25.8363;0.0781845;0.00303533;-2.20546;25.7412;0.202922;-0.113055;0.0818342;-0.633448;-0.49964;-0.254582;-0.228254;0.605435;-7.43523;-0.000398137;0.00053233;0.0048181;0.00487187;-0.000451908;0.00266189;0.0826337;12.1016;0.00340855;0.00354918;10.7807;0.0927587;96.8395;141.839;-0.00640223;-0.000398124;0.00157824;-0.000508149;0.004817;0.00971163;0.0130502;0;0.0241418;-0.61745;-0.332329;-0.866835;1.11494;-7.27679;-0.000839366;0.000189119;0.00363774;0.00364572;-0.00084734;0.00224653;0.230738;4.33392;0.00275668;0.00299537;4.30254;0.232421;126.381;171.381;-0.00769258;-0.000858954;0.00666649;-0.00625937;0.00361562;0.0144646;0.0373755;0;0.019007;5.45266;4.27114
313000;314;25.8369;0.0787543;0.00305745;-2.20539;25.7418;0.201764;-0.112986;0.0824212;-0.634606;-0.50184;-0.256359;-0.230215;0.608738;-7.4372;-0.000288131;0.000505057;0.00490513;0.00495379;-0.000336793;0.00264529;0.0587407;17.024;0.00342032;0.00352706;14.7087;0.0679868;97.1343;142.134;-0.00659758;-0.000288174;0.0016007;-0.000584928;0.00490398;0.00937577;0.0120045;0;0.0245441;-0.619545;-0.335092;-0.869799;1.11923;-7.27975;-0.00101163;0.000124039;0.00366073;0.00366402;-0.00101492;0.00233947;0.276345;3.61866;0.00284205;0.00311929;3.61017;0.276995;127.429;172.429;-0.00729326;-0.00103048;0.00641582;-0.00613846;0.00364023;0.0133033;0.0345662;0;0.0223713;5.51673;4.2774
314000;315;25.8374;0.0792595;0.00307707;-2.20556;25.7423;0.201413;-0.113159;0.0829162;-0.634957;-0.50095;-0.260376;-0.227882;0.608833;-7.43486;-0.000296282;0.000592048;0.00453651;0.00460798;-0.000367754;0.00248787;0.0653105;15.3115;0.00320162;0.00331716;12.5301;0.0798081;95.7242;140.724;-0.00617964;-0.000296189;0.00159516;-0.000406236;0.00453542;0.0086197;0.0124325;0;0.0215349;-0.61844;-0.339561;-0.866794;1.11763;-7.27675;-0.00097037;0.000199285;0.00369935;0.00370784;-0.000978859;0.00234335;0.262308;3.81231;0.00285468;0.00312447;3.78792;0.263997;126.401;171.401;-0.00844701;-0.000989188;0.00656316;-0.00613499;0.00367791;0.0165806;0.036541;0;0.0199718;5.57784;4.28524
315000;316;25.8379;0.0797814;0.00309733;-2.20549;25.7429;0.198815;-0.113084;0.0834666;-0.637554;-0.500418;-0.25999;-0.234044;0.610565;-7.44102;-0.000202336;0.000454652;0.00507921;0.00511806;-0.000241188;0.00267963;0.039836;25.1029;0.00349521;0.00357283;21.2203;0.0471248;97.0457;142.046;-0.00619144;-0.000202427;0.00153892;-0.000623918;0.00507814;0.00862869;0.0112452;0;0.0218676;-0.618294;-0.340534;-0.871443;1.12146;-7.2814;-0.000987956;0.000101722;0.00376513;0.0037673;-0.000990132;0.00237872;0.262396;3.81103;0.00289851;0.00317162;3.80485;0.262822;127.474;172.474;-0.00846733;-0.00100714;0.00642607;-0.00619268;0.00374456;0.0160254;0.0360747;0;0.0205455;5.63802;4.2926
316000;317;25.8408;0.0826709;0.0032095;-2.2057;25.7457;0.206312;-0.113299;0.0862894;-0.630058;-0.502564;-0.262657;-0.233857;0.613391;-7.44084;-0.000326243;0.000270737;0.00513494;0.00514833;-0.000339632;0.00274398;0.0635339;15.7396;0.00355085;0.00365864;15.1586;0.0659693;98.3828;143.383;-0.00581825;-0.000326467;0.00126841;-0.000721518;0.00513418;0.00849013;0.0113029;0;0.0238247;-0.620286;-0.343882;-0.873016;1.1248;-7.28297;-0.00110203;-4.24427e-05;0.0038723;0.00387267;-0.0011024;0.00248753;0.284594;3.51378;0.00301714;0.00331671;3.51295;0.284661;129.286;174.286;-0.00788479;-0.0011227;0.00637178;-0.00642488;0.00385208;0.0142839;0.0339972;0;0.0207257;5.70307;4.30046
317000;318;25.8394;0.0812705;0.00315514;-2.206;25.7443;0.200939;-0.113598;0.0849007;-0.635431;-0.503594;-0.265503;-0.229715;0.613895;-7.4367;-0.000344358;0.000366234;0.00474666;0.00477287;-0.000370569;0.00257172;0.0725476;13.7841;0.00331235;0.00342896;12.8798;0.0776408;97.6285;142.629;-0.00613033;-0.000344464;0.00132551;-0.000588177;0.00474585;0.00884625;0.0119964;0;0.0263012;-0.620977;-0.347193;-0.870111;1.12394;-7.28007;-0.00118651;-4.60562e-05;0.00400736;0.00400777;-0.00118692;0.00259734;0.296082;3.37744;0.0031431;0.00346312;3.37662;0.296154;129.28;174.28;-0.00875595;-0.00120778;0.00646049;-0.00651894;0.00398657;0.0168005;0.0338635;0;0.0212106;5.75983;4.30684
318000;319;25.8408;0.0826883;0.00321018;-2.20611;25.7457;0.202416;-0.113711;0.0863025;-0.633954;-0.503949;-0.266864;-0.236008;0.617155;-7.44299;-0.000320115;0.00035226;0.00495714;0.00498054;-0.000343525;0.00266203;0.0645766;15.4855;0.00344059;0.00354938;14.4984;0.0689734;97.5039;142.504;-0.00563513;-0.000320241;0.00132291;-0.000613295;0.00495633;0.00831963;0.0120338;0;0.0257902;-0.621126;-0.349663;-0.87847;1.13127;-7.28843;-0.0012115;-0.000234853;0.00419922;0.0042094;-0.00122167;0.00271553;0.288505;3.46614;0.00328999;0.00362071;3.4456;0.290225;130.857;175.857;-0.00884497;-0.00123368;0.00622524;-0.00666013;0.00417995;0.016149;0.0324425;0;0.0239498;5.82762;4.31397
319000;320;25.8409;0.0827536;0.00321272;-2.20472;25.7459;0.198005;-0.112314;0.086522;-0.638364;-0.5048;-0.268616;-0.237568;0.619206;-7.44455;-0.0003568;8.7e-05;0.00472063;0.00472212;-0.000358291;0.00254021;0.0755832;13.2305;0.00327405;0.00338694;13.1796;0.075875;101.386;146.386;-0.00551113;-0.000357218;0.00109715;-0.000918046;0.00472003;0.00854012;0.0104193;0;0.0309022;-0.62175;-0.352393;-0.880669;1.13417;-7.29062;-0.00119827;-0.000309733;0.00431648;0.00433382;-0.00121561;0.00277472;0.277604;3.60225;0.00336835;0.00369962;3.56513;0.280495;131.232;176.232;-0.0082234;-0.00122044;0.00607755;-0.00666193;0.00429813;0.0149968;0.0343535;0;0.0363033;5.8723;4.31502
320000;321;25.841;0.0828157;0.00321513;-2.20445;25.746;0.192724;-0.112044;0.0866475;-0.643645;-0.504098;-0.269895;-0.241722;0.620796;-7.4487;-0.000254803;0.000213945;0.00459016;0.00459959;-0.000264232;0.00243191;0.0555107;18.0145;0.00315816;0.00324255;17.4074;0.0574469;100.322;145.322;-0.00503189;-0.000255124;0.00126177;-0.000828823;0.00458939;0.00608914;0.0113987;0;0.0281396;-0.62084;-0.355094;-0.885847;1.13853;-7.2958;-0.00105753;-0.000210884;0.00439711;0.00440525;-0.00106567;0.00273546;0.240506;4.1579;0.00334906;0.00364728;4.13378;0.241909;129.592;174.592;-0.00788071;-0.00107804;0.00601703;-0.00640497;0.00437911;0.0152459;0.0344092;0;0.0352955;5.9505;4.32569
321000;322;25.842;0.0838829;0.00325656;-2.20365;25.7472;0.191464;-0.11125;0.087796;-0.644906;-0.505049;-0.272239;-0.240317;0.622046;-7.4473;-0.000365726;0.000330078;0.00437511;0.00439799;-0.000388597;0.00239329;0.0835923;11.9628;0.00306973;0.00319106;11.3176;0.088358;98.5185;143.518;-0.00506381;-0.000365853;0.00126765;-0.000603069;0.00437437;0.0075359;0.0125284;0;0.0310829;-0.621439;-0.358328;-0.886581;1.14044;-7.29654;-0.0010912;-0.000134345;0.0045098;0.00451302;-0.00109442;0.00280372;0.241962;4.13289;0.00343215;0.00373829;4.12367;0.242503;128.574;173.574;-0.00771007;-0.00111117;0.00608486;-0.00631886;0.00449137;0.0154132;0.0355142;0;0.0404805;5.99801;4.32919
322000;323;25.8438;0.0856105;0.00332363;-2.20249;25.749;0.191607;-0.110089;0.0896281;-0.644762;-0.504996;-0.274894;-0.238959;0.622647;-7.44594;-0.000398094;0.000222003;0.00435252;0.00436287;-0.000408446;0.00238566;0.0914628;10.9334;0.00305385;0.00318088;10.6816;0.0936186;99.7799;144.78;-0.00479471;-0.000398311;0.00114395;-0.000695588;0.00435189;0.00771245;0.01271;0;0.0298012;-0.62112;-0.361993;-0.886732;1.14154;-7.29669;-0.0010363;-0.000121344;0.00461685;0.00461945;-0.0010389;0.00282918;0.22446;4.45513;0.00347804;0.00377223;4.44647;0.224897;128.147;173.147;-0.00765577;-0.00105653;0.00615095;-0.00635834;0.00459802;0.0155141;0.0371381;0;0.0420054;6.05438;4.33624
323000;324;25.8442;0.0860768;0.00334173;-2.20272;25.7495;0.185469;-0.110313;0.090122;-0.650901;-0.504501;-0.276447;-0.241344;0.623852;-7.44832;-0.000389964;0.000150063;0.00384951;0.00385481;-0.000395269;0.00212504;0.101302;9.87144;0.00271125;0.00283339;9.75237;0.102539;102.864;147.864;-0.00518839;-0.000390305;0.00114386;-0.00083954;0.00384887;0.00839589;0.0138655;0;0.0323063;-0.620415;-0.364935;-0.890035;1.14466;-7.29999;-0.00100133;-9.06064e-05;0.00482544;0.00482685;-0.00100274;0.00291479;0.207511;4.81903;0.00359901;0.00388639;4.81366;0.207742;127.292;172.292;-0.00754572;-0.00102135;0.00617995;-0.00632479;0.00480644;0.0148746;0.0373162;0;0.0408737;6.11101;4.34387
324000;325;25.8449;0.0867653;0.00336846;-2.20293;25.7502;0.185039;-0.110532;0.0907974;-0.651331;-0.504624;-0.278847;-0.241859;0.625217;-7.44884;-0.000383607;0.000226942;0.00382954;0.00384173;-0.000395796;0.00211876;0.10017;9.98299;0.00270276;0.00282502;9.70634;0.103025;101.703;146.703;-0.00517055;-0.000383862;0.00120791;-0.000749906;0.00382884;0.00823471;0.0135033;0;0.0358299;-0.620116;-0.36859;-0.891579;1.14687;-7.30153;-0.000990318;-2.97242e-05;0.00478752;0.00478767;-0.000990471;0.00288907;0.206854;4.83432;0.00356806;0.0038521;4.83373;0.206879;126.834;171.834;-0.0078939;-0.00101037;0.00630643;-0.00632945;0.00476773;0.013862;0.038672;0;0.0343645;6.16293;4.35155
325000;326;25.8474;0.0892841;0.00346625;-2.20246;25.7527;0.186463;-0.110054;0.0933561;-0.649906;-0.503255;-0.280283;-0.244658;0.625845;-7.45164;-0.00040556;0.000166147;0.00388628;0.00389271;-0.000411982;0.00215234;0.104357;9.58251;0.0027428;0.00286979;9.44872;0.105834;102.38;147.38;-0.0054616;-0.000405871;0.00114235;-0.000805887;0.00388565;0.00908514;0.0139963;0;0.0352682;-0.618602;-0.371367;-0.894875;1.14951;-7.30483;-0.000800403;1.25411e-06;0.00468451;0.00468451;-0.000800404;0.00274246;0.170862;5.85269;0.00342116;0.00365661;5.85269;0.170862;126.286;171.286;-0.00764776;-0.000819965;0.00628913;-0.00625229;0.00466483;0.011402;0.0400408;0;0.0312508;6.22032;4.35907
326000;327;25.8489;0.0907957;0.00352493;-2.20164;25.7543;0.189222;-0.109234;0.0949233;-0.647147;-0.502879;-0.282378;-0.244696;0.626499;-7.45168;-0.000357624;0.000166561;0.00362932;0.00363627;-0.00036457;0.00200042;0.0985374;10.1484;0.00255439;0.00266723;9.97412;0.100259;102.183;147.183;-0.00565604;-0.000357888;0.00108218;-0.000745417;0.00362875;0.00919882;0.0146581;0;0.0236081;-0.61807;-0.375158;-0.894687;1.15031;-7.30464;-0.000711464;0.000172735;0.00461013;0.00461573;-0.000717065;0.0026664;0.154326;6.47978;0.00334192;0.0035552;6.43697;0.155352;124.748;169.748;-0.00782629;-0.000731653;0.00673464;-0.00635441;0.00458757;0.01253;0.0398586;0;0.0197562;6.27218;4.36557
327000;328;25.8499;0.0917688;0.00356271;-2.20143;25.7553;0.184238;-0.109024;0.095954;-0.652132;-0.502135;-0.286417;-0.241603;0.626535;-7.44858;-0.000385796;0.000389055;0.00336124;0.00340121;-0.000425765;0.00191349;0.114778;8.71249;0.0024219;0.00255132;7.98847;0.12518;99.7206;144.721;-0.00568071;-0.00038585;0.00129235;-0.000510865;0.00336048;0.00910098;0.0164252;0;0.0246033;-0.616957;-0.379951;-0.892593;1.14966;-7.30255;-0.000725657;0.00026248;0.00438801;0.00440145;-0.000739094;0.00257027;0.165372;6.04696;0.00320916;0.00342703;5.9552;0.167921;124.092;169.092;-0.00845923;-0.000744929;0.00676969;-0.00621161;0.00436523;0.0137291;0.039791;0;0.0186059;6.32511;4.37275
328000;329;25.8507;0.0925109;0.00359152;-2.2011;25.7561;0.183011;-0.108698;0.0967354;-0.653358;-0.501881;-0.286367;-0.247553;0.628628;-7.45453;-0.000574719;9.58184e-05;0.00402335;0.00402535;-0.000576715;0.00230103;0.142846;7.00055;0.00289501;0.00306804;6.97978;0.143271;103.977;148.977;-0.00592;-0.000575132;0.00110946;-0.000913182;0.00402274;0.0103269;0.0156277;0;0.0275463;-0.616617;-0.381135;-0.898555;1.1545;-7.30851;-0.000812789;0.000313781;0.0043239;0.00434299;-0.000831886;0.00258744;0.187976;5.31983;0.00320877;0.00344992;5.22066;0.191547;123.791;168.791;-0.00815137;-0.000831398;0.00676679;-0.00610623;0.00430115;0.0132851;0.0383522;0;0.0192014;6.36985;4.3798
329000;330;25.8541;0.0959451;0.00372485;-2.20176;25.7595;0.189267;-0.109357;0.100081;-0.647103;-0.50064;-0.288831;-0.250271;0.629841;-7.45725;-0.000441241;0.000437514;0.00385404;0.00389815;-0.000485353;0.00219175;0.114488;8.73455;0.00277474;0.00292234;8.03159;0.124508;99.7333;144.733;-0.00642113;-0.000441317;0.00146632;-0.000586896;0.00385306;0.0105747;0.0158345;0;0.0250097;-0.615207;-0.384341;-0.901857;1.15739;-7.31181;-0.00063535;0.000401239;0.00425922;0.00429189;-0.000668024;0.00247996;0.149171;6.70374;0.00310796;0.00330661;6.42476;0.155648;122.48;167.48;-0.00870223;-0.000653905;0.00693747;-0.00610315;0.00423533;0.016288;0.0381468;0;0.0218974;6.41401;4.38659
330000;331;25.8532;0.0950103;0.00368855;-2.20052;25.7587;0.185372;-0.108115;0.0992769;-0.650997;-0.499851;-0.292214;-0.248608;0.630116;-7.45559;-0.000319756;0.000401194;0.00391442;0.00395209;-0.000357435;0.00215476;0.0816869;12.2419;0.0027616;0.00287302;11.0568;0.0904419;99.1762;144.176;-0.00595636;-0.000319855;0.00140506;-0.000598443;0.00391351;0.0106054;0.0161407;0;0.0241649;-0.614319;-0.388299;-0.900237;1.15697;-7.31019;-0.000739049;0.000495084;0.00427143;0.00431988;-0.0007875;0.00255369;0.173021;5.77963;0.00317514;0.00340492;5.48557;0.182297;121.774;166.774;-0.00936364;-0.000757221;0.00706953;-0.00604658;0.00424667;0.0175854;0.0393549;0;0.0215972;6.46148;4.39274
331000;332;25.8534;0.0952392;0.00369744;-2.20092;25.7589;0.180472;-0.108515;0.0995073;-0.655898;-0.49829;-0.293468;-0.252802;0.631131;-7.45978;-0.000516518;0.000758779;0.00385934;0.00398718;-0.000644356;0.00231577;0.133836;7.47184;0.00289689;0.00308769;6.18785;0.161607;95.5344;140.534;-0.00612525;-0.000516252;0.00173542;-0.000213602;0.00385813;0.0109592;0.0159983;0;0.0237818;-0.612735;-0.39014;-0.90455;1.16011;-7.31451;-0.000703209;0.000425028;0.00426532;0.00430141;-0.000739305;0.00252036;0.164867;6.06551;0.00314316;0.00336048;5.81818;0.171875;122.534;167.534;-0.00947672;-0.000722327;0.00707894;-0.00619599;0.00424046;0.0178987;0.0383228;0;0.0207352;6.50455;4.39707
332000;333;25.8548;0.0966081;0.00375058;-2.20064;25.7603;0.180159;-0.108236;0.100907;-0.656211;-0.49742;-0.294112;-0.260333;0.6338;-7.46731;-0.000561292;0.000446177;0.00473776;0.00477507;-0.000598597;0.00268683;0.118472;8.44083;0.00340052;0.00358244;7.97711;0.125359;97.6712;142.671;-0.00616499;-0.000561329;0.00142037;-0.00052288;0.00473686;0.0110689;0.0152139;0;0.0244441;-0.611925;-0.392292;-0.912516;1.16663;-7.32247;-0.000777404;0.000359841;0.00434246;0.00436763;-0.000802571;0.0025851;0.179024;5.58585;0.00321287;0.0034468;5.44205;0.183754;123.475;168.475;-0.0100688;-0.000797507;0.0071026;-0.00634856;0.00431741;0.0179913;0.0374583;0;0.0206799;6.55012;4.40295
333000;334;25.8561;0.0979894;0.00380421;-2.20185;25.7616;0.182983;-0.109445;0.10217;-0.653386;-0.497179;-0.298717;-0.254946;0.633575;-7.46193;-0.000603254;0.000645244;0.00442368;0.00450518;-0.000684754;0.00259497;0.136369;7.33303;0.0032558;0.00345996;6.57927;0.151993;95.0538;140.054;-0.00603368;-0.000603071;0.00152002;-0.000225155;0.00442274;0.0110192;0.0155053;0;0.0273998;-0.611527;-0.397246;-0.90749;1.16418;-7.31745;-0.000746283;0.000385888;0.00447324;0.00450161;-0.000774658;0.00263813;0.166833;5.99403;0.00328984;0.00351751;5.8111;0.172085;122.876;167.876;-0.0106218;-0.000765792;0.00706249;-0.00625603;0.00444848;0.0194947;0.0373348;0;0.0243285;6.60012;4.40982
334000;335;25.8567;0.0985608;0.0038264;-2.2019;25.7621;0.184395;-0.109498;0.102729;-0.651974;-0.494468;-0.302018;-0.255689;0.633317;-7.46267;-0.000591143;0.000783347;0.00434133;0.00446275;-0.00071256;0.00258766;0.136166;7.34397;0.00323892;0.00345021;6.26298;0.159668;94.9538;139.954;-0.00590117;-0.000590854;0.00176516;-0.000193643;0.00434009;0.00981533;0.014566;0;0.0220721;-0.608974;-0.40166;-0.907378;1.16427;-7.31733;-0.000926281;0.000313517;0.00464091;0.00465851;-0.000943881;0.0028012;0.19959;5.01026;0.00346344;0.00373493;4.93549;0.202614;124.04;169.04;-0.0110743;-0.000947138;0.00712803;-0.00646325;0.00461567;0.0181278;0.0388754;0;0.0265171;6.63309;4.41748
335000;336;25.8565;0.0984048;0.00382034;-2.20214;25.762;0.182374;-0.109736;0.102567;-0.653996;-0.493744;-0.304691;-0.258961;0.635359;-7.46594;-0.000698752;0.0005241;0.00453742;0.00458936;-0.000750695;0.00267003;0.153998;6.49361;0.00333806;0.00356004;6.11348;0.163573;98.0368;143.037;-0.00616588;-0.000698725;0.00152349;-0.000470081;0.0045364;0.0106547;0.0143822;0;0.01986;-0.607825;-0.405141;-0.91081;1.16755;-7.32077;-0.000719192;0.000221238;0.0049102;0.00491888;-0.000727873;0.00282338;0.146469;6.82738;0.00354686;0.0037645;6.75788;0.147975;124.165;169.165;-0.0112942;-0.000741158;0.00711039;-0.00662934;0.00488507;0.0182299;0.0395814;0;0.0284356;6.66943;4.42401
336000;337;25.8556;0.097413;0.00378183;-2.20122;25.7611;0.174564;-0.108817;0.101704;-0.661806;-0.492056;-0.308405;-0.259636;0.636116;-7.46662;-0.000757324;0.000609333;0.00476558;0.00483201;-0.000823752;0.00282788;0.158915;6.29266;0.00352813;0.00377051;5.86586;0.170478;97.9114;142.911;-0.00647237;-0.000757248;0.00169237;-0.000467748;0.00476434;0.0101607;0.0145802;0;0.0227977;-0.60605;-0.410132;-0.911476;1.16889;-7.32143;-0.000810339;0.000126766;0.00505168;0.00505442;-0.000813079;0.00293375;0.16041;6.23403;0.00367078;0.00391167;6.21639;0.160865;125.018;170.018;-0.0106695;-0.000832609;0.00696561;-0.00667219;0.00502755;0.0175825;0.0415778;0;0.0361539;6.70629;4.43153
337000;338;25.8568;0.0986966;0.00383167;-2.20088;25.7624;0.177661;-0.108482;0.103;-0.658708;-0.490818;-0.311482;-0.261011;0.63722;-7.46799;-0.000702472;0.000687997;0.00457245;0.00466071;-0.000790729;0.00272572;0.153631;6.50909;0.00340149;0.00363429;5.89419;0.169659;96.4146;141.415;-0.00591462;-0.000702285;0.00169798;-0.000316679;0.00457125;0.00849216;0.0138581;0;0.0216616;-0.604825;-0.414082;-0.91332;1.17108;-7.32328;-0.000884891;8.05284e-05;0.00523174;0.0052328;-0.000885951;0.00305938;0.169139;5.9123;0.00381827;0.00407917;5.90643;0.169307;125.299;170.299;-0.0104258;-0.000907463;0.00691919;-0.00671653;0.00520793;0.0175856;0.0415895;0;0.0336629;6.73953;4.43884
338000;339;25.8574;0.0992692;0.0038539;-2.20067;25.763;0.178383;-0.108267;0.103588;-0.657987;-0.490909;-0.31556;-0.259905;0.638843;-7.46689;-0.000802879;0.000552918;0.00419185;0.00425232;-0.000863355;0.00255784;0.191533;5.22102;0.0031622;0.00341045;4.92535;0.203031;100.357;145.357;-0.00613897;-0.00080288;0.00166673;-0.000555357;0.00419062;0.00955863;0.0146504;0;0.0224049;-0.604861;-0.419073;-0.912542;1.17227;-7.3225;-0.000981624;2.51111e-05;0.00531637;0.00531647;-0.000981724;0.0031491;0.184642;5.41589;0.00391282;0.00419879;5.41544;0.184657;125.901;170.901;-0.00990393;-0.00100488;0.00690963;-0.00681628;0.00529262;0.0160247;0.0424979;0;0.0248811;6.76884;4.44664
339000;340;25.8605;0.102339;0.00397305;-2.20067;25.7661;0.179584;-0.108269;0.10666;-0.656785;-0.487593;-0.318386;-0.259998;0.637743;-7.46698;-0.000707713;0.000822242;0.00335913;0.00351908;-0.000867664;0.00219337;0.210683;4.74646;0.00268247;0.0029245;4.05581;0.24656;99.1902;144.19;-0.00586376;-0.000707422;0.00195472;-0.000305648;0.00335757;0.00918082;0.0166663;0;0.0238724;-0.601929;-0.42427;-0.911684;1.17196;-7.32164;-0.00115299;4.6245e-05;0.00550755;0.00550787;-0.00115331;0.00333059;0.209347;4.77676;0.00411064;0.00444078;4.77571;0.209393;125.534;170.534;-0.00943021;-0.0011752;0.00679904;-0.00666182;0.00548456;0.0146399;0.0424627;0;0.0528141;6.801;4.45391
340000;341;25.8589;0.100713;0.00390995;-2.2;25.7645;0.180641;-0.107602;0.105078;-0.655728;-0.487207;-0.322702;-0.253024;0.636811;-7.46;-0.000851515;0.000638671;0.00275255;0.00286238;-0.000961346;0.00191186;0.309355;3.23253;0.00229678;0.00254915;2.97747;0.335855;105.246;150.246;-0.00551054;-0.000851433;0.00177562;-0.00049419;0.00275118;0.00906247;0.0162103;0;0.0406231;-0.601092;-0.427668;-0.906724;1.16891;-7.31668;-0.00108801;6.75515e-06;0.00545409;0.0054541;-0.00108801;0.00327106;0.199484;5.01293;0.00404778;0.00436141;5.0129;0.199485;125.7;170.7;-0.00920866;-0.00110969;0.00663898;-0.00658231;0.00543218;0.0147459;0.042669;0;0.0448348;6.833;4.46164
341000;342;25.861;0.102872;0.00399378;-2.19959;25.7666;0.18444;-0.107192;0.107253;-0.65193;-0.48658;-0.325793;-0.258489;0.640092;-7.46547;-0.000822323;0.000622113;0.00282353;0.00292676;-0.000925554;0.00192616;0.291239;3.4336;0.00232202;0.00256821;3.16217;0.316238;105.165;150.165;-0.00516385;-0.000822273;0.00178432;-0.000535871;0.00282214;0.00757889;0.0162932;0;0.029103;-0.60046;-0.432042;-0.913495;1.17545;-7.32345;-0.00111633;9.38525e-05;0.00518215;0.00518354;-0.00111773;0.00315064;0.215419;4.64212;0.00388228;0.00420085;4.63756;0.215631;125.69;170.69;-0.00942774;-0.00113853;0.00688954;-0.00665925;0.00515854;0.0152745;0.0395903;0;0.0229949;6.86703;4.46835
342000;343;25.8629;0.104758;0.00406699;-2.20058;25.7684;0.187589;-0.108179;0.109039;-0.64878;-0.485274;-0.330451;-0.254337;0.639825;-7.46132;-0.000947222;0.000468921;0.0024886;0.00255145;-0.00101007;0.00178076;0.380624;2.62726;0.00211946;0.00237435;2.52601;0.395881;111.23;156.23;-0.00468135;-0.000947394;0.00169353;-0.000751495;0.00248728;0.00666819;0.0162179;0;0.038284;-0.599771;-0.437401;-0.908816;1.17345;-7.31877;-0.00118263;6.94489e-05;0.00483622;0.00483702;-0.00118344;0.00301023;0.244537;4.08936;0.00368309;0.00401364;4.08727;0.244662;126.554;171.554;-0.00903132;-0.00120416;0.00673641;-0.00655758;0.00481364;0.0161848;0.0382902;0;0.0230958;6.89124;4.47318
343000;344;25.8657;0.107603;0.00417744;-2.20105;25.7712;0.191166;-0.108652;0.111828;-0.645203;-0.483939;-0.329001;-0.265411;0.642559;-7.47239;-0.00116891;0.000455702;0.00293703;0.002987;-0.00121888;0.00210294;0.397992;2.51261;0.00249877;0.00280392;2.4506;0.408063;110.898;155.898;-0.00565605;-0.00116911;0.00169118;-0.000774716;0.0029357;0.00952719;0.0162783;0;0.0303051;-0.59809;-0.43768;-0.920666;1.18191;-7.33062;-0.00134525;0.0002649;0.00474627;0.00475777;-0.00135675;0.00305726;0.283433;3.52817;0.00370778;0.00407634;3.50674;0.285165;125.57;170.57;-0.00882619;-0.0013677;0.00727334;-0.00670107;0.00471998;0.0167797;0.0378318;0;0.0213773;6.92565;4.47758
344000;345;25.8664;0.108282;0.00420379;-2.20081;25.7719;0.188155;-0.108404;0.112552;-0.648215;-0.483183;-0.333653;-0.264895;0.644174;-7.47187;-0.00115973;0.000276095;0.00211771;0.00214081;-0.00118282;0.00166182;0.547632;1.82604;0.00194529;0.00221576;1.80991;0.552512;119.619;164.619;-0.00482683;-0.00116015;0.00151575;-0.000959509;0.00211661;0.00795697;0.0174757;0;0.0372851;-0.597535;-0.442645;-0.919864;1.18285;-7.32982;-0.00140658;0.000130165;0.00464381;0.00464661;-0.00140938;0.00302799;0.302894;3.30149;0.00365915;0.00403732;3.29692;0.303314;126.965;171.965;-0.00878183;-0.00142867;0.00694411;-0.00664275;0.00461982;0.0183527;0.0362021;0;0.020561;6.95914;4.48455
345000;346;25.8669;0.108758;0.00422227;-2.20113;25.7724;0.188288;-0.108727;0.113002;-0.648081;-0.482389;-0.33543;-0.268127;0.645837;-7.47511;-0.00116225;0.00030769;0.00238532;0.00241181;-0.00118874;0.00180027;0.48725;2.05234;0.00211838;0.00240037;2.02889;0.492881;117.505;162.505;-0.00500177;-0.0011627;0.00161521;-0.000995208;0.00238407;0.00945856;0.0171403;0;0.028024;-0.596567;-0.444581;-0.923226;1.1857;-7.33318;-0.00149171;0.00011966;0.0045838;0.00458615;-0.00149406;0.00304011;0.32543;3.07285;0.0036586;0.00405348;3.06958;0.325777;127.444;172.444;-0.00855552;-0.0015145;0.00702933;-0.00674823;0.00455921;0.0188356;0.0358817;0;0.0255786;6.9844;4.49113
346000;347;25.8688;0.110662;0.0042962;-2.20198;25.7742;0.189187;-0.109576;0.114834;-0.647183;-0.483046;-0.33658;-0.271505;0.648332;-7.47849;-0.00121807;0.000438601;0.0024452;0.00249698;-0.00126985;0.00188341;0.498146;2.00744;0.00221291;0.00251122;1.96636;0.508553;113.79;158.79;-0.00522164;-0.0012182;0.00155142;-0.000670156;0.0024441;0.00972405;0.017411;0;0.0275814;-0.597059;-0.447281;-0.926413;1.18945;-7.33637;-0.00144022;0.000100206;0.00467661;0.00467825;-0.00144186;0.00306006;0.307962;3.24715;0.00369446;0.00408007;3.2446;0.308205;127.512;172.512;-0.00889262;-0.0014644;0.0071939;-0.0069503;0.00465086;0.0199337;0.03527;0;0.0231082;7.01208;4.49788
347000;348;25.8691;0.110915;0.00430601;-2.20373;25.7743;0.187967;-0.111324;0.114947;-0.648402;-0.478913;-0.340874;-0.271968;0.647703;-7.47895;-0.00121819;2.51384e-05;0.00264029;0.00264046;-0.00121836;0.00192941;0.461387;2.16738;0.00227776;0.00257254;2.16722;0.46142;118.699;163.699;-0.00570321;-0.00121882;0.00117354;-0.00111884;0.0026396;0.0109479;0.016943;0;0.0492299;-0.593763;-0.451405;-0.926251;1.18923;-7.33621;-0.00179249;-0.00010329;0.00480353;0.00480515;-0.0017941;0.00329962;0.37316;2.67981;0.00394006;0.0043995;2.6783;0.373371;129.875;174.875;-0.00869459;-0.00181894;0.00710829;-0.00726753;0.00477839;0.0199897;0.0351652;0;0.0236078;7.04324;4.50555
348000;349;25.8712;0.113105;0.00439104;-2.20448;25.7765;0.187942;-0.112081;0.117081;-0.648427;-0.480181;-0.341564;-0.275845;0.650638;-7.48283;-0.00122603;1.21584e-06;0.00262338;0.00262338;-0.00122603;0.0019247;0.467347;2.13974;0.00227074;0.00256627;2.13974;0.467347;119.461;164.461;-0.00549737;-0.0012267;0.00116628;-0.00115937;0.0026227;0.0109309;0.0191384;0;0.0280968;-0.595006;-0.453952;-0.930075;1.19379;-7.34003;-0.00179893;-0.000171378;0.00494161;0.00494597;-0.00180329;0.00337463;0.364038;2.74697;0.00403504;0.00449951;2.74275;0.364598;130.417;175.417;-0.00935413;-0.0018281;0.00734061;-0.00763297;0.00491482;0.0200979;0.0348081;0;0.0222756;7.0695;4.51205
349000;350;25.8712;0.11305;0.00438891;-2.20422;25.7765;0.185578;-0.111817;0.117065;-0.650791;-0.478273;-0.347238;-0.268766;0.649272;-7.47575;-0.0011616;4.23981e-05;0.00285835;0.00285879;-0.00116205;0.00201042;0.406388;2.4607;0.00238934;0.00268056;2.46014;0.406481;114.433;159.433;-0.00553916;-0.00116207;0.00105964;-0.000970769;0.00285779;0.010534;0.0172252;0;0.0260309;-0.592833;-0.459339;-0.928119;1.19325;-7.33807;-0.00184308;-0.000454371;0.00526418;0.00529311;-0.00187201;0.00358256;0.350118;2.85618;0.00429109;0.00477675;2.82749;0.35367;132.02;177.02;-0.00954582;-0.00187364;0.00696732;-0.00782357;0.00524014;0.0194969;0.0332256;0;0.0222459;7.09885;4.51957
350000;351;25.8723;0.114152;0.0044317;-2.20508;25.7775;0.183596;-0.112679;0.118112;-0.652774;-0.477439;-0.347389;-0.275797;0.651683;-7.48278;-0.00112193;0.000209926;0.00312489;0.00313524;-0.00113228;0.00213376;0.35903;2.78528;0.00255272;0.00284502;2.76896;0.361146;108.48;153.48;-0.00565406;-0.00112216;0.00113427;-0.000710506;0.00312427;0.0114866;0.018625;0;0.025489;-0.592301;-0.461421;-0.933811;1.19822;-7.34377;-0.00196479;-0.000443374;0.00545003;0.00547644;-0.00199121;0.00373383;0.360511;2.77384;0.00446523;0.00497844;2.75031;0.363596;131.729;176.729;-0.00934502;-0.00199582;0.00705101;-0.00788246;0.0054254;0.0209336;0.0359544;0;0.0250569;7.12382;4.52709
351000;352;25.8704;0.112265;0.00435842;-2.20325;25.7758;0.172911;-0.11085;0.116448;-0.663458;-0.479433;-0.353337;-0.264206;0.651542;-7.47119;-0.00125472;7.73911e-06;0.00302987;0.00302988;-0.00125473;0.00214231;0.414116;2.41478;0.00254351;0.00285641;2.41477;0.414119;112.624;157.624;-0.00562178;-0.00125512;0.000912692;-0.000893348;0.00302945;0.0115373;0.0177899;0;0.0267967;-0.593698;-0.467998;-0.925579;1.19507;-7.33553;-0.00176272;-0.000568138;0.005634;0.00567738;-0.0018061;0.00374174;0.312871;3.1962;0.00450918;0.00498899;3.14345;0.318122;131.635;176.635;-0.00912108;-0.00179182;0.00655961;-0.00764343;0.00561276;0.0173493;0.035089;0;0.0377207;7.15683;4.53483
352000;353;25.8734;0.115263;0.0044748;-2.20412;25.7787;0.17798;-0.111719;0.119348;-0.658389;-0.477772;-0.355554;-0.264758;0.651752;-7.47174;-0.00123275;5.30523e-05;0.00388853;0.00388908;-0.0012333;0.00256119;0.317022;3.15435;0.00308706;0.00341492;3.15339;0.317119;102.17;147.17;-0.00508581;-0.00123292;0.000689743;-0.00058039;0.0038883;0.0111492;0.0167763;0;0.0210877;-0.592185;-0.471109;-0.927195;1.19679;-7.33715;-0.00199501;-0.000543785;0.00568451;0.00572283;-0.00203332;0.00387808;0.350955;2.84937;0.00464383;0.00517077;2.81452;0.355301;131.727;176.727;-0.00906685;-0.00202463;0.00667511;-0.00770753;0.00566251;0.0168937;0.0334968;0;0.0342027;7.18115;4.5407
353000;354;25.8754;0.117233;0.0045513;-2.20416;25.7807;0.176528;-0.11176;0.121332;-0.659842;-0.475817;-0.35539;-0.273586;0.653875;-7.48057;-0.00115487;4.84522e-05;0.00400905;0.00400951;-0.00115532;0.00258241;0.288065;3.47144;0.00313001;0.00344322;3.47047;0.288146;101.015;146.015;-0.00477635;-0.00115502;0.000659812;-0.000559764;0.00400884;0.0108208;0.015282;0;0.0241863;-0.590987;-0.473947;-0.934541;1.20302;-7.3445;-0.00207156;-0.000429377;0.00580102;0.00582437;-0.0020949;0.00395964;0.357102;2.80032;0.00473819;0.00527952;2.78026;0.359679;130.855;175.855;-0.00821738;-0.00210133;0.0069189;-0.00772012;0.00577732;0.0168749;0.0360987;0;0.0428244;7.20551;4.54335
354000;355;25.8781;0.119988;0.00465827;-2.20452;25.7834;0.178718;-0.112115;0.124052;-0.657651;-0.473136;-0.356984;-0.274956;0.653373;-7.48194;-0.00088884;0.000215513;0.00477949;0.00478767;-0.000897023;0.00284235;0.18597;5.37722;0.003529;0.00378979;5.33729;0.187361;91.3622;136.362;-0.00462852;-0.000888817;0.000458035;-2.56407e-05;0.00477941;0.0108338;0.0139108;0;0.0227475;-0.588256;-0.477088;-0.938154;1.20573;-7.34811;-0.00205874;-0.000478862;0.00604454;0.00607274;-0.00208694;0.00407984;0.340595;2.93604;0.00489476;0.00543979;2.90988;0.343657;130.488;175.488;-0.00821596;-0.00208768;0.00671482;-0.00761457;0.00602225;0.0160995;0.0364784;0;0.0295239;7.23479;4.5503
355000;356;25.8779;0.119777;0.00465008;-2.20317;25.7834;0.173252;-0.110764;0.123993;-0.663118;-0.474388;-0.359686;-0.279054;0.657487;-7.48603;-0.00112189;8.63561e-05;0.00468515;0.00468643;-0.00112317;0.0029048;0.239456;4.17613;0.00355827;0.00387307;4.1725;0.239664;94.9771;139.977;-0.00465487;-0.00112192;0.000455683;-0.000280837;0.00468505;0.00935703;0.0131404;0;0.0237309;-0.588868;-0.480551;-0.944299;1.21219;-7.35425;-0.00200264;-0.000378993;0.00593999;0.00595803;-0.00202068;0.00398936;0.337145;2.96608;0.00478983;0.00531914;2.94853;0.339152;130.031;175.031;-0.00784939;-0.0020316;0.00691212;-0.00761252;0.00591631;0.0160713;0.0374944;0;0.038623;7.25925;4.55578
356000;357;25.8808;0.122689;0.0047631;-2.20229;25.7864;0.173819;-0.109888;0.126986;-0.66255;-0.472851;-0.361754;-0.280166;0.657987;-7.48715;-0.000973822;0.000363678;0.0052232;0.00524447;-0.000995091;0.00311978;0.186441;5.36361;0.00387088;0.00415971;5.27034;0.189741;88.0947;133.095;-0.00446623;-0.000973788;0.000471265;0.000256755;0.00522316;0.0110555;0.0139565;0;0.0206643;-0.587398;-0.484502;-0.946393;1.21468;-7.35635;-0.00201112;-0.000312043;0.00581339;0.00582582;-0.00202354;0.00392468;0.345946;2.89063;0.00470573;0.00523291;2.87902;0.347341;129.548;174.548;-0.0080788;-0.00203746;0.00668784;-0.00725746;0.00579121;0.0166106;0.0360453;0;0.0207433;7.28563;4.56323
357000;358;25.8827;0.12452;0.00483418;-2.20334;25.7881;0.175909;-0.110934;0.12872;-0.660461;-0.471568;-0.362465;-0.28552;0.659757;-7.4925;-0.000933642;0.000472578;0.00518991;0.00522617;-0.000969898;0.00309803;0.179896;5.55878;0.00384837;0.00413071;5.38837;0.185585;84.785;129.785;-0.00452512;-0.000933673;0.000410741;0.000534038;0.00518994;0.0110507;0.0126235;0;0.0214091;-0.58617;-0.486685;-0.952595;1.21979;-7.36255;-0.00183413;-0.000293124;0.00558726;0.00559882;-0.00184569;0.00372226;0.32827;3.04627;0.00447646;0.00496301;3.03346;0.329657;129.468;174.468;-0.00755069;-0.00185929;0.0065582;-0.00709387;0.00556592;0.0148976;0.036561;0;0.0212158;7.31443;4.57059
358000;359;25.8847;0.126578;0.00491411;-2.2025;25.7903;0.175306;-0.110101;0.130861;-0.661064;-0.470753;-0.365125;-0.285028;0.660428;-7.49201;-0.000845846;0.00043786;0.00591625;0.00594449;-0.00087408;0.00340928;0.14297;6.99448;0.00428418;0.00454571;6.80085;0.147041;85.5227;130.523;-0.00412539;-0.000845879;0.000367708;0.00050754;0.00591628;0.0105197;0.0118941;0;0.020665;-0.585038;-0.490909;-0.953125;1.22135;-7.36308;-0.00176447;-0.00015629;0.00537691;0.00538033;-0.00176789;0.00357411;0.328157;3.04733;0.00429911;0.00476548;3.04337;0.328583;128.739;173.739;-0.00716571;-0.00178871;0.00669468;-0.00695859;0.00535463;0.0158296;0.036029;0;0.0212518;7.3404;4.57825
359000;360;25.8813;0.123205;0.00478315;-2.20143;25.787;0.167566;-0.109028;0.127619;-0.668804;-0.469879;-0.371208;-0.273923;0.658495;-7.4809;-0.000988956;8.12285e-05;0.00611645;0.00611738;-0.000989884;0.00355363;0.161688;6.18476;0.00444511;0.00473818;6.17989;0.161815;86.2353;131.235;-0.00373218;-0.000989018;-0.000199889;0.00036036;0.00611643;0.0103304;0.0126098;0;0.0240405;-0.583539;-0.49551;-0.946389;1.21725;-7.35634;-0.00177175;-0.000134593;0.0053044;0.00530696;-0.00177431;0.00354063;0.334015;2.99387;0.00425458;0.00472085;2.991;0.334336;128.831;173.831;-0.00741761;-0.00179654;0.00681617;-0.00703643;0.0052813;0.0152582;0.0358094;0;0.0289462;7.36343;4.58582
360000;361;25.8843;0.126195;0.00489925;-2.20207;25.79;0.165898;-0.109669;0.130576;-0.670472;-0.470284;-0.37019;-0.285986;0.663322;-7.49297;-0.0008737;0.000168099;0.00649778;0.00650161;-0.000877531;0.00368957;0.134461;7.43708;0.00465457;0.00491943;7.40898;0.134971;86.9798;131.98;-0.0032238;-0.000873743;-1.49534e-06;0.00033645;0.00649779;0.00993552;0.0113691;0;0.0259564;-0.584014;-0.49639;-0.960754;1.22903;-7.37071;-0.00163865;-0.000139343;0.00530928;0.00531207;-0.00164144;0.00347676;0.308639;3.24003;0.00419693;0.00463568;3.23622;0.309002;128.431;173.431;-0.00752713;-0.00166219;0.00662525;-0.00685718;0.00528746;0.014913;0.0347894;0;0.0227274;7.39121;4.5937
361000;362;25.8885;0.130387;0.00506199;-2.20271;25.7941;0.173151;-0.110307;0.134681;-0.663219;-0.468617;-0.369907;-0.292598;0.664866;-7.49958;-0.000629948;0.000372976;0.00610813;0.00612871;-0.000650531;0.00338962;0.103133;9.69624;0.00431901;0.00451949;9.42109;0.106145;84.174;129.174;-0.00284925;-0.000630076;0.00011564;0.000628589;0.00610819;0.00839938;0.012134;0;0.0215423;-0.583558;-0.501495;-0.960016;1.23031;-7.36997;-0.00158987;-0.000207653;0.00542945;0.00543559;-0.001596;0.0035158;0.292823;3.41503;0.00425666;0.00468773;3.40575;0.293621;128.9;173.9;-0.00789152;-0.00161557;0.00680011;-0.00716648;0.00540648;0.0157314;0.0335327;0;0.0231685;7.41159;4.60022
362000;363;25.8881;0.129978;0.00504611;-2.20245;25.7937;0.169385;-0.110047;0.134318;-0.666985;-0.467842;-0.372573;-0.287994;0.663797;-7.49497;-0.00094368;0.000281078;0.00626824;0.00627918;-0.000954618;0.0036169;0.150549;6.64234;0.00453792;0.00482253;6.57769;0.152029;83.2505;128.25;-0.00356387;-0.000943888;-0.000145253;0.000704353;0.00626827;0.0093565;0.0108624;0;0.0240099;-0.582669;-0.504792;-0.957621;1.22937;-7.36758;-0.00164871;-0.00024513;0.00564461;0.00565284;-0.00165694;0.00365489;0.292087;3.42364;0.00442551;0.00487319;3.41161;0.293117;128.694;173.694;-0.00832664;-0.00167376;0.00663575;-0.0070761;0.00562275;0.0163786;0.032272;0;0.0228355;7.43536;4.60704
363000;364;25.8911;0.132986;0.00516286;-2.20342;25.7966;0.169736;-0.111022;0.137251;-0.666633;-0.466977;-0.374768;-0.289278;0.664982;-7.49626;-0.000843364;0.000237032;0.00628707;0.00629494;-0.000851235;0.00357309;0.134143;7.45475;0.00450724;0.00476412;7.39507;0.135225;82.9709;127.971;-0.00318274;-0.000843602;-0.000258496;0.000729049;0.00628706;0.00935858;0.0117279;0;0.0253999;-0.582461;-0.508909;-0.959788;1.23266;-7.36974;-0.00169805;-0.000352027;0.00595741;0.00597356;-0.0017142;0.00384388;0.285031;3.50839;0.00466008;0.00512518;3.48475;0.286964;128.982;173.982;-0.00836602;-0.00172437;0.00660777;-0.00725884;0.00593577;0.014461;0.0308253;0;0.0243869;7.45853;4.61365
364000;365;25.8944;0.136276;0.00529061;-2.20394;25.7999;0.168358;-0.111535;0.140519;-0.668012;-0.466815;-0.376213;-0.293159;0.667378;-7.50014;-0.000738136;0.000297335;0.00603901;0.00605203;-0.000751156;0.00340159;0.122228;8.18143;0.00430696;0.00453546;8.05695;0.124116;83.0113;128.011;-0.00300176;-0.000738348;-0.000123229;0.000715065;0.00603904;0.0089372;0.0120696;0;0.024449;-0.582046;-0.513446;-0.964447;1.23797;-7.3744;-0.00156596;-0.00053205;0.00632555;0.00636126;-0.00160167;0.00398147;0.247562;4.0394;0.00486345;0.00530862;3.97163;0.251786;129.364;174.364;-0.00867387;-0.00159416;0.00651422;-0.00752304;0.00630461;0.0142317;0.0318556;0;0.0226223;7.48317;4.62019
365000;366;25.899;0.140848;0.00546811;-2.20442;25.8044;0.173061;-0.112018;0.145035;-0.663308;-0.467217;-0.377465;-0.288307;0.666253;-7.49529;-0.00078571;0.000309036;0.00642011;0.00643334;-0.000798939;0.00361614;0.122383;8.1711;0.0045785;0.00482152;8.05236;0.124187;81.868;126.868;-0.00316309;-0.000786045;-0.000260715;0.000874706;0.00642013;0.00975583;0.011254;0;0.0344507;-0.584007;-0.519979;-0.953594;1.2332;-7.36355;-0.00184764;-0.000544622;0.00666002;0.00669475;-0.00188236;0.00428856;0.277423;3.60461;0.00520533;0.00571807;3.55656;0.28117;129.086;174.086;-0.00900648;-0.00187599;0.00651234;-0.00754191;0.00663911;0.0156444;0.0325008;0;0.0526281;7.49772;4.62357
366000;367;25.8991;0.140972;0.00547291;-2.20295;25.8047;0.163248;-0.110548;0.145349;-0.673121;-0.466704;-0.378209;-0.294044;0.668817;-7.50102;-0.000776531;0.000116352;0.00626187;0.00626379;-0.000778454;0.00352112;0.124009;8.06391;0.00445806;0.00469483;8.04646;0.124278;83.146;128.146;-0.00219229;-0.000776762;-0.000460969;0.000689635;0.00626177;0.00787495;0.0123284;0;0.0238626;-0.581875;-0.522502;-0.964708;1.24187;-7.37466;-0.00145841;-0.000545152;0.00683209;0.00686779;-0.00149411;0.00418095;0.213465;4.6846;0.00514933;0.0055746;4.59658;0.217553;128.117;173.117;-0.00896309;-0.00148646;0.00647123;-0.00750374;0.00681144;0.0145153;0.0339182;0;0.0281432;7.51806;4.62911
367000;368;25.901;0.142878;0.00554691;-2.20302;25.8067;0.161325;-0.110618;0.147268;-0.675045;-0.466154;-0.381588;-0.290762;0.668918;-7.49774;-0.000833469;0.000218637;0.00656163;0.00656809;-0.000839927;0.00370401;0.127022;7.87268;0.00468387;0.00493868;7.81983;0.12788;82.7616;127.762;-0.0026965;-0.000833749;-0.000346618;0.000779739;0.0065616;0.0079872;0.0105458;0;0.0236162;-0.582076;-0.52787;-0.963519;1.24331;-7.37347;-0.00176744;-0.000406952;0.00709624;0.00711488;-0.00178608;0.00445048;0.249067;4.01499;0.00543729;0.00593397;3.98351;0.251035;126.883;171.883;-0.0087178;-0.0017935;0.00647139;-0.00722474;0.00707553;0.0128008;0.0358363;0;0.0239868;7.54544;4.63723
368000;369;25.9064;0.148206;0.00575376;-2.20319;25.812;0.163079;-0.110788;0.15259;-0.67329;-0.466211;-0.379697;-0.297975;0.671053;-7.50496;-0.000820379;0.000284882;0.00618738;0.00619894;-0.000831941;0.00351544;0.132589;7.5421;0.00443602;0.00468726;7.45118;0.134207;81.1669;126.167;-0.00199693;-0.000820748;-0.000339428;0.000904843;0.00618736;0.00773239;0.0133281;0;0.0256945;-0.582361;-0.530504;-0.971419;1.25069;-7.38137;-0.0017573;-0.000356201;0.00718229;0.00719646;-0.00177147;0.00448396;0.244671;4.08712;0.00548434;0.00597862;4.06243;0.246158;126.14;171.14;-0.00838195;-0.00178192;0.00636798;-0.00702069;0.00716222;0.0121879;0.035304;0;0.0320293;7.55677;4.64428
369000;370;25.9102;0.152036;0.00590244;-2.20285;25.8159;0.161979;-0.110449;0.15647;-0.674391;-0.466383;-0.382061;-0.294751;0.67109;-7.50173;-0.000751399;0.000247511;0.00632017;0.00632883;-0.000760051;0.00354444;0.118889;8.41121;0.00449404;0.00472592;8.32684;0.120094;81.7842;126.784;-0.00248657;-0.000751739;-0.000369993;0.000860676;0.00632014;0.00805598;0.0124932;0;0.0259414;-0.582577;-0.535684;-0.971305;1.25291;-7.38126;-0.00158374;-0.000213686;0.00714017;0.0071454;-0.00158897;0.00436718;0.221807;4.50843;0.00537216;0.00582291;4.49688;0.222376;125.209;170.209;-0.00832559;-0.00160828;0.00663628;-0.00700431;0.00711833;0.011739;0.038057;0;0.0207229;7.57539;4.65175
370000;371;25.9142;0.156081;0.00605948;-2.20362;25.8199;0.158696;-0.111219;0.160484;-0.677674;-0.465888;-0.380992;-0.297893;0.671526;-7.50487;-0.000679054;0.000584106;0.00643118;0.00647885;-0.000726718;0.00360278;0.105588;9.4708;0.00458073;0.00480371;8.91521;0.112168;78.3588;123.359;-0.00158404;-0.000679726;-0.000135077;0.00129821;0.00643135;0.00745746;0.0130071;0;0.0345257;-0.582635;-0.539694;-0.975354;1.2578;-7.38531;-0.00167472;-0.000108945;0.00693154;0.00693292;-0.0016761;0.00430451;0.241609;4.13892;0.00527025;0.00573935;4.13634;0.24176;125.08;170.08;-0.00838807;-0.00169857;0.00674266;-0.00690198;0.00690897;0.0130393;0.0368807;0;0.0222124;7.59628;4.65872
371000;372;25.9181;0.159923;0.00620865;-2.2032;25.8237;0.162608;-0.110802;0.164352;-0.673761;-0.465903;-0.383377;-0.295921;0.672021;-7.5029;-0.000859396;0.000279623;0.00676252;0.00677277;-0.000869641;0.0038212;0.127082;7.86892;0.00483122;0.00509494;7.788;0.128403;80.5241;125.524;-0.00181101;-0.000859916;-0.000503085;0.0010564;0.00676243;0.00866374;0.0113746;0;0.0278619;-0.582668;-0.545751;-0.972033;1.25785;-7.38199;-0.00183435;2.6103e-05;0.0066186;0.00661868;-0.00183443;0.00422656;0.277151;3.60815;0.00513436;0.00563541;3.60803;0.277159;124.962;169.962;-0.00766479;-0.00185682;0.00680708;-0.00669794;0.00659559;0.0136834;0.0368906;0;0.0201379;7.6085;4.66648
372000;373;25.9227;0.16456;0.00638866;-2.20443;25.8283;0.160509;-0.112027;0.168914;-0.675861;-0.465546;-0.382359;-0.299139;0.672619;-7.50612;-0.000882022;0.000338021;0.00645624;0.00647177;-0.000897559;0.00368467;0.136616;7.31981;0.00464271;0.00491289;7.21041;0.138688;79.5648;124.565;-0.0018256;-0.000882588;-0.000445625;0.00111595;0.00645619;0.00834558;0.0136173;0;0.0285446;-0.583056;-0.549109;-0.975422;1.26211;-7.38538;-0.00173102;4.74384e-05;0.00665495;0.00665522;-0.00173128;0.00419325;0.260109;3.84453;0.00511257;0.005591;3.84409;0.260139;124.456;169.456;-0.00762439;-0.00175288;0.00675767;-0.0066069;0.00663227;0.0136713;0.0359987;0;0.0208839;7.62334;4.67341
373000;374;25.9265;0.168348;0.00653572;-2.20515;25.832;0.16046;-0.112751;0.172654;-0.67591;-0.465182;-0.383703;-0.297933;0.672596;-7.50491;-0.000895864;0.000438886;0.00673632;0.00676147;-0.000921019;0.00384125;0.13299;7.51936;0.00484393;0.00512166;7.3413;0.136216;78.1636;123.164;-0.00193209;-0.000896662;-0.00046635;0.00133726;0.00673631;0.00966129;0.0127006;0;0.0233084;-0.582658;-0.554478;-0.973464;1.26276;-7.38342;-0.00179244;-8.96751e-05;0.00672378;0.00672472;-0.00179338;0.00425905;0.266582;3.75119;0.00518537;0.00567873;3.74975;0.266685;125.481;170.481;-0.0083381;-0.00181576;0.00670274;-0.00682463;0.00670147;0.0146368;0.0352464;0;0.0236636;7.64046;4.68094
374000;375;25.9317;0.173583;0.00673896;-2.20547;25.8373;0.161837;-0.113065;0.177873;-0.674532;-0.465901;-0.382765;-0.296281;0.671829;-7.50326;-0.00102192;0.000399425;0.00665579;0.00667651;-0.00104264;0.00385958;0.153538;6.51306;0.00483617;0.0051461;6.40348;0.156165;77.9834;122.983;-0.00163553;-0.00102271;-0.000527182;0.00131896;0.00665573;0.00778583;0.0120614;0;0.034399;-0.583835;-0.55824;-0.9736;1.26507;-7.38356;-0.0018404;-8.41743e-05;0.00711128;0.00711208;-0.00184119;0.00447663;0.2588;3.86398;0.0054596;0.00596885;3.86275;0.258883;124.612;169.612;-0.00820364;-0.00186287;0.0065888;-0.00669784;0.00708973;0.0133707;0.0342437;0;0.0233009;7.655;4.68779
375000;376;25.9365;0.17831;0.00692249;-2.20727;25.8419;0.159793;-0.11487;0.182476;-0.676577;-0.464418;-0.383815;-0.297103;0.671765;-7.50408;-0.00103475;0.000169688;0.00690601;0.00690963;-0.00103837;0.003974;0.149833;6.6741;0.0049887;0.00529867;6.6543;0.150279;79.9922;124.992;-0.00162597;-0.00103534;-0.000766319;0.00109831;0.00690573;0.00880649;0.0130743;0;0.0422956;-0.583866;-0.563081;-0.974996;1.2683;-7.38495;-0.00196982;-0.000149934;0.00757654;0.0075789;-0.00197218;0.00477554;0.259989;3.84631;0.00582241;0.00636738;3.84291;0.260219;124.585;169.585;-0.0091411;-0.00199378;0.00668179;-0.00691693;0.0075544;0.0150092;0.0316931;0;0.0241764;7.6677;4.69336
376000;377;25.9419;0.183716;0.00713234;-2.20681;25.8473;0.157907;-0.114407;0.187953;-0.678463;-0.464987;-0.381484;-0.302677;0.673317;-7.50966;-0.000936471;0.00025933;0.00685923;0.00686785;-0.000945088;0.00390647;0.136527;7.32455;0.00492392;0.00520862;7.26688;0.137611;79.2484;124.248;-0.00135899;-0.000937162;-0.000692209;0.0012035;0.00685903;0.00797946;0.0140644;0;0.0321362;-0.583807;-0.566224;-0.982356;1.27533;-7.39231;-0.0018648;-0.000268267;0.00815737;0.00816454;-0.00187197;0.00501826;0.228603;4.3744;0.00616253;0.00669101;4.36146;0.229281;123.843;168.843;-0.00873041;-0.00188886;0.00646566;-0.00693523;0.00813667;0.0137431;0.0324444;0;0.0239554;7.68412;4.69869
377000;378;25.9494;0.1913;0.00742678;-2.20777;25.8549;0.159183;-0.115373;0.195474;-0.677186;-0.465446;-0.38002;-0.305862;0.674246;-7.51284;-0.000881994;0.000445667;0.00702501;0.00705005;-0.000907034;0.00397854;0.125551;7.96492;0.00502972;0.00530472;7.77264;0.128656;77.9448;122.945;-0.000847269;-0.000882909;-0.000540348;0.00142394;0.00702497;0.00731051;0.0131529;0;0.0340955;-0.585426;-0.572281;-0.982255;1.27869;-7.39221;-0.00197785;-0.000499523;0.00899028;0.00901298;-0.00200055;0.00550677;0.219999;4.54548;0.00677469;0.00734236;4.50525;0.221963;124.005;169.005;-0.00936721;-0.00200483;0.00643221;-0.00735588;0.0089699;0.0150086;0.0329309;0;0.0301852;7.69088;4.70508
378000;379;25.9533;0.195178;0.00757732;-2.20837;25.8587;0.153684;-0.115963;0.199349;-0.682686;-0.465117;-0.379396;-0.306844;0.674113;-7.51382;-0.00101927;0.000428155;0.00753189;0.00755328;-0.00104066;0.00429697;0.135327;7.38948;0.00541583;0.00572929;7.25819;0.137775;79.4476;124.448;-0.000766988;-0.00102006;-0.000474802;0.00132345;0.00753187;0.00666196;0.0128644;0;0.0226341;-0.585663;-0.576351;-0.986863;1.28417;-7.39682;-0.0018004;-0.000563592;0.00968425;0.00971184;-0.00182799;0.00576991;0.18591;5.37894;0.00716207;0.00769322;5.31285;0.188223;122.383;167.383;-0.00943982;-0.00182614;0.00613989;-0.0071908;0.00966573;0.0146769;0.0336809;0;0.026256;7.70145;4.71089
379000;380;25.9596;0.201478;0.00782193;-2.20818;25.8651;0.150387;-0.115782;0.205708;-0.685983;-0.464881;-0.3799;-0.305688;0.673709;-7.51267;-0.0012665;0.000380613;0.00743279;0.00744941;-0.00128312;0.00436627;0.170394;5.86875;0.00544462;0.00582169;5.80568;0.172245;79.2767;124.277;-0.00125995;-0.00126726;-0.000536364;0.00128967;0.00743272;0.00662223;0.0122826;0;0.0321245;-0.585825;-0.583083;-0.986617;1.28709;-7.39657;-0.00191308;-0.000477516;0.00996126;0.00998044;-0.00193225;0.00595634;0.192052;5.20693;0.00738248;0.00794179;5.16519;0.193604;121.463;166.463;-0.00876614;-0.00193767;0.00614516;-0.00702231;0.00994268;0.0123731;0.0361497;0;0.0426688;7.70925;4.7173
380000;381;25.9685;0.21031;0.00816479;-2.20828;25.8739;0.155447;-0.115876;0.214534;-0.680923;-0.465311;-0.377685;-0.308788;0.674174;-7.51577;-0.00125437;0.000573449;0.00791831;0.00795402;-0.00129008;0.00462205;0.158413;6.31259;0.00578089;0.00616273;6.16553;0.162192;78.8798;123.88;-0.0012275;-0.00125529;-0.000333656;0.0014723;0.00791842;0.00693995;0.0129164;0;0.0233285;-0.586834;-0.588209;-0.990187;1.29261;-7.40014;-0.00194513;-0.000367995;0.0102004;0.0102115;-0.00195627;0.00608389;0.190692;5.24407;0.00754478;0.00811185;5.2199;0.191575;119.907;164.907;-0.00798297;-0.00196678;0.00592471;-0.00658502;0.0101831;0.0114333;0.0381046;0;0.0271492;7.71909;4.72432
381000;382;25.9735;0.215333;0.00835981;-2.20862;25.879;0.152466;-0.116221;0.219563;-0.683903;-0.466277;-0.376694;-0.310551;0.675096;-7.51753;-0.00129464;0.000502848;0.00803738;0.0080644;-0.00132166;0.00469303;0.161077;6.20819;0.00586666;0.00625737;6.10173;0.163888;78.9645;123.964;-0.000769842;-0.00129559;-0.000466655;0.00146338;0.0080374;0.00670997;0.0134225;0;0.0302984;-0.588119;-0.593887;-0.991813;1.29703;-7.40177;-0.00206917;-0.000273396;0.0100016;0.0100078;-0.00207535;0.00604157;0.206884;4.83363;0.00746048;0.00805542;4.8222;0.207374;119.884;164.884;-0.00745131;-0.0020899;0.00596643;-0.00643863;0.009984;0.0119142;0.0389935;0;0.027687;7.72347;4.73103
382000;383;25.9801;0.221934;0.00861609;-2.20911;25.8855;0.153812;-0.116707;0.226139;-0.682558;-0.466524;-0.374408;-0.313643;0.675424;-7.52062;-0.00135267;0.000525527;0.00795212;0.00798171;-0.00138226;0.00468199;0.170102;5.87881;0.00583671;0.00624265;5.77438;0.173179;78.8613;123.861;-0.00117949;-0.0013536;-0.000417798;0.00146014;0.00795217;0.00641044;0.0119196;0;0.0242565;-0.589027;-0.597208;-0.996054;1.3022;-7.40601;-0.0021136;-0.000313693;0.00991985;0.00992802;-0.00212177;0.0060249;0.213068;4.69334;0.00742765;0.00803319;4.67912;0.213716;120.491;165.491;-0.00741451;-0.00213523;0.0060256;-0.00657744;0.00990192;0.0140762;0.0381916;0;0.026579;7.73852;4.73868
383000;384;25.989;0.230863;0.00896272;-2.21009;25.8944;0.154807;-0.117687;0.235011;-0.681563;-0.465722;-0.372203;-0.316199;0.674844;-7.52318;-0.0011447;0.000820008;0.00814353;0.00821536;-0.00121654;0.00471595;0.140566;7.1141;0.00592421;0.00628794;6.75305;0.148081;76.3605;121.361;-0.00080652;-0.00114619;-0.00027667;0.00190658;0.00814382;0.00715287;0.0127823;0;0.0259074;-0.589176;-0.604172;-0.997769;1.30679;-7.40772;-0.00222666;-0.000218199;0.00969742;0.00970141;-0.00223065;0.00596603;0.229613;4.35515;0.00732525;0.0079547;4.34914;0.22993;120.622;165.622;-0.00702754;-0.00224775;0.00612929;-0.00649072;0.00967884;0.013395;0.0362411;0;0.0270506;7.74251;4.7452
384000;385;25.9952;0.237026;0.00920196;-2.21149;25.9005;0.15441;-0.119089;0.241079;-0.68196;-0.46597;-0.37232;-0.311426;0.672857;-7.51841;-0.00139616;0.0004943;0.00811446;0.00814008;-0.00142178;0.00478093;0.172059;5.81197;0.00595747;0.00637458;5.72525;0.174665;78.8145;123.815;-0.00126927;-0.00139714;-0.000504865;0.00148404;0.00811445;0.00757825;0.0125777;0;0.0259155;-0.590202;-0.610427;-0.993975;1.30727;-7.40393;-0.00236528;-0.000231071;0.0101377;0.010142;-0.00236955;0.00625578;0.233314;4.28606;0.00767411;0.00834104;4.28014;0.233637;120.698;165.698;-0.00796217;-0.00238837;0.00641192;-0.00679183;0.0101174;0.0152267;0.0358149;0;0.0274756;7.7492;4.75289
385000;386;26.0028;0.244606;0.00949626;-2.21316;25.9079;0.154814;-0.120763;0.248541;-0.681555;-0.466444;-0.369472;-0.316507;0.673986;-7.52349;-0.00138705;0.00064343;0.00859398;0.00863528;-0.00142836;0.00503182;0.161398;6.19585;0.00628729;0.0067091;6.04559;0.16541;78.292;123.292;-0.0010802;-0.00138826;-0.00040364;0.00168014;0.0085941;0.00757974;0.013566;0;0.0226362;-0.591254;-0.614746;-0.999032;1.31361;-7.40899;-0.00249929;-0.00042491;0.010741;0.0107547;-0.00251291;0.00663379;0.232686;4.29763;0.00813778;0.00884505;4.27976;0.233658;120.978;165.978;-0.00874111;-0.00252456;0.00635169;-0.00711272;0.0107212;0.0168144;0.035292;0;0.0287338;7.74991;4.75956
386000;387;26.0102;0.252019;0.00978407;-2.2143;25.9153;0.155724;-0.121898;0.25588;-0.680646;-0.467077;-0.367945;-0.314913;0.672841;-7.52189;-0.00153491;0.00050829;0.00817843;0.00820495;-0.00156144;0.0048832;0.187678;5.32827;0.0060579;0.00651093;5.25474;0.190304;78.0415;123.042;-0.00100889;-0.00153604;-0.000576302;0.00158243;0.00817839;0.00771514;0.0139988;0;0.0290609;-0.592608;-0.620378;-0.997543;1.31573;-7.4075;-0.00271542;-0.000476767;0.0115008;0.0115168;-0.00273139;0.0071241;0.236106;4.23539;0.00873192;0.0094988;4.21647;0.237165;120.827;165.827;-0.00837933;-0.00274333;0.0066231;-0.00747682;0.0114793;0.0172053;0.0338996;0;0.030136;7.7605;4.76455
387000;388;26.0189;0.260802;0.010125;-2.21573;25.924;0.153287;-0.12333;0.264586;-0.683082;-0.467419;-0.364763;-0.32059;0.674025;-7.52757;-0.00153765;0.000754316;0.00843977;0.00849648;-0.00159435;0.00504541;0.18219;5.48876;0.00626377;0.00672722;5.32911;0.187649;77.9911;122.991;-0.00114219;-0.00153882;-0.000205695;0.00170483;0.00844003;0.0073569;0.0141307;0;0.0228452;-0.593834;-0.625799;-1.00174;1.32203;-7.4117;-0.00274835;-0.000519901;0.0124775;0.0124952;-0.00276608;0.00763064;0.220265;4.53998;0.00938897;0.0101742;4.51729;0.221372;119.212;164.212;-0.00883915;-0.00277536;0.00642261;-0.00735799;0.0124572;0.0181278;0.0346808;0;0.0313834;7.76775;4.77091
388000;389;26.0244;0.266286;0.0103379;-2.21445;25.9296;0.146077;-0.122044;0.270242;-0.690292;-0.467415;-0.364831;-0.317655;0.672668;-7.52464;-0.00144558;0.000586134;0.00889389;0.00892701;-0.0014787;0.00520286;0.162536;6.15247;0.00650055;0.00693714;6.03706;0.165643;79.4389;124.439;-0.00115936;-0.00144662;-0.00039646;0.00155866;0.00889398;0.00675861;0.0138615;0;0.0224395;-0.5947;-0.633353;-1.00255;1.32661;-7.4125;-0.00275513;-0.000499007;0.0130716;0.0130874;-0.00277084;0.0079291;0.210771;4.74448;0.00978024;0.0105721;4.72324;0.211719;117.719;162.719;-0.00883868;-0.00278007;0.00617681;-0.00707051;0.0130529;0.0166049;0.0349424;0;0.03115;7.7754;4.77736
389000;390;26.0346;0.276469;0.0107332;-2.21592;25.9397;0.146879;-0.123514;0.280332;-0.689491;-0.467795;-0.36247;-0.318448;0.672031;-7.52543;-0.00155642;0.000601668;0.00870419;0.00873935;-0.00159158;0.00516546;0.178813;5.59244;0.00642283;0.00688728;5.49098;0.182117;78.7328;123.733;-0.00173942;-0.00155754;-0.000421683;0.00161461;0.00870428;0.00822514;0.0139167;0;0.0229716;-0.595581;-0.639566;-1.00358;1.33077;-7.41354;-0.00282325;-0.000471233;0.0133073;0.0133211;-0.00283701;0.00807903;0.212158;4.71346;0.00996195;0.010772;4.69546;0.212972;116.961;161.961;-0.00801712;-0.0028467;0.00601586;-0.00685504;0.0132896;0.0154942;0.0364361;0;0.0373666;7.77565;4.7822
390000;391;26.0438;0.285703;0.0110917;-2.216;25.949;0.152353;-0.123603;0.289561;-0.684016;-0.468738;-0.360698;-0.317634;0.671349;-7.52461;-0.00157481;0.000600233;0.00896527;0.00899935;-0.00160888;0.00530411;0.175656;5.69294;0.00660153;0.00707215;5.59356;0.178777;78.4996;123.5;-0.000994155;-0.00157606;-0.000504554;0.00169348;0.00896533;0.00679075;0.0139856;0;0.023595;-0.597203;-0.645611;-0.999822;1.33158;-7.40978;-0.00319694;-0.000373774;0.0132608;0.0132693;-0.00320543;0.00823734;0.241083;4.14795;0.0100859;0.0109831;4.13962;0.241568;117.776;162.776;-0.00786477;-0.00322179;0.00641069;-0.00704802;0.0132406;0.0161786;0.0391803;0;0.0377082;7.77717;4.78896
391000;392;26.0525;0.294353;0.0114276;-2.21601;25.9576;0.15144;-0.123606;0.298248;-0.68493;-0.469503;-0.356795;-0.321869;0.671815;-7.52885;-0.00169999;0.000955686;0.00910132;0.00918523;-0.0017839;0.00548456;0.186785;5.35375;0.00679661;0.00731275;5.14897;0.194214;77.3804;122.38;-0.00107805;-0.00170146;-5.93417e-05;0.00195985;0.00910178;0.00616123;0.0138553;0;0.0241357;-0.598763;-0.650823;-1.00409;1.33802;-7.41405;-0.00318605;-0.000347849;0.0132574;0.0132647;-0.0031934;0.00822906;0.240323;4.16106;0.0100777;0.0109721;4.15378;0.240744;117.317;162.317;-0.00727649;-0.00320952;0.00626064;-0.00684908;0.0132381;0.0177022;0.0412631;0;0.0332664;7.78648;4.79695
392000;393;26.0612;0.303083;0.0117665;-2.21622;25.9664;0.153224;-0.123814;0.306981;-0.683146;-0.470073;-0.35234;-0.33044;0.67402;-7.53742;-0.0016103;0.00107102;0.0082707;0.00838546;-0.00172505;0.00505526;0.194699;5.13614;0.00624525;0.00674034;4.86099;0.20572;75.6635;120.664;-0.00166774;-0.00161183;7.99928e-05;0.00205233;0.00827127;0.00701196;0.0155558;0;0.0241382;-0.599692;-0.655547;-1.01257;1.3471;-7.42252;-0.0031922;-0.000363138;0.0128213;0.0128295;-0.00320043;0.00801497;0.248977;4.01644;0.00979567;0.0106866;4.00868;0.249458;118.246;163.246;-0.00762707;-0.00321652;0.00635303;-0.0069731;0.0128014;0.0189159;0.0413598;0;0.0335753;7.79084;4.80416
393000;394;26.0695;0.311385;0.0120888;-2.21858;25.9745;0.157457;-0.126179;0.315086;-0.678912;-0.470553;-0.354043;-0.32496;0.672581;-7.53194;-0.00185315;0.00106304;0.00914084;0.00924269;-0.00195499;0.00559884;0.202732;4.93261;0.00690632;0.00746512;4.72774;0.211518;76.747;121.747;-0.00159981;-0.00185474;3.89211e-05;0.002076;0.0091414;0.00684049;0.0150975;0;0.0250168;-0.601306;-0.66434;-1.00597;1.34718;-7.41592;-0.00351334;-0.000397243;0.012658;0.0126677;-0.00352309;0.0080954;0.27756;3.60283;0.0098322;0.0107939;3.59562;0.278116;119.819;164.819;-0.00799839;-0.00354077;0.00672333;-0.00740409;0.0126357;0.0206607;0.0387332;0;0.0330663;7.79066;4.81181
394000;395;26.0781;0.319912;0.0124198;-2.22025;25.9829;0.158788;-0.127848;0.323494;-0.677582;-0.46984;-0.349407;-0.329795;0.672011;-7.53678;-0.002071;0.000930356;0.00882127;0.00890016;-0.00214989;0.00552502;0.234773;4.25943;0.00676492;0.0073667;4.13982;0.241556;77.6815;122.682;-0.00185056;-0.00207224;2.1552e-05;0.00182935;0.00882169;0.00616132;0.0156852;0;0.0278987;-0.601546;-0.668368;-1.01022;1.35245;-7.42018;-0.0036662;-0.000405167;0.0132699;0.0132796;-0.00367589;0.00847774;0.27628;3.61952;0.0102994;0.0113037;3.61262;0.276808;119.45;164.45;-0.00764427;-0.00369495;0.00689149;-0.00757985;0.0132465;0.0210566;0.0375371;0;0.0351436;7.80053;4.81927
395000;396;26.0838;0.325647;0.0126425;-2.22153;25.9886;0.153447;-0.129132;0.329173;-0.682922;-0.470155;-0.346419;-0.329937;0.670754;-7.53692;-0.00209308;0.00118465;0.0088288;0.00895582;-0.00222009;0.00558796;0.237074;4.2181;0.00683189;0.00745061;4.03399;0.247894;76.7329;121.733;-0.0025379;-0.00209446;0.000318859;0.00204106;0.00882945;0.00751604;0.0154464;0;0.0247601;-0.602724;-0.672176;-1.01281;1.35679;-7.42276;-0.00368412;-0.000473212;0.0139728;0.0139854;-0.0036968;0.00884112;0.263665;3.7927;0.0107695;0.0117882;3.78312;0.264332;118.728;163.728;-0.00805633;-0.0037135;0.00684647;-0.00766541;0.0139498;0.0214958;0.0380025;0;0.0376146;7.8044;4.82687
396000;397;26.0943;0.336183;0.0130515;-2.2227;25.999;0.157529;-0.130302;0.339622;-0.67884;-0.470385;-0.343653;-0.332924;0.670968;-7.5399;-0.0021312;0.0012468;0.00858103;0.00872423;-0.00227441;0.00549932;0.248362;4.02638;0.00670415;0.00733242;3.83583;0.2607;77.2955;122.296;-0.00222533;-0.00213233;0.000537272;0.00194879;0.00858166;0.00468742;0.015796;0;0.0222166;-0.603977;-0.678671;-1.01447;1.36181;-7.42443;-0.00376379;-0.000429263;0.0150186;0.0150284;-0.00377359;0.00940102;0.250608;3.9903;0.0114854;0.0125347;3.98253;0.251097;117.638;162.638;-0.00808154;-0.00379433;0.00709424;-0.00781352;0.0149939;0.0212154;0.0365257;0;0.0336942;7.80828;4.83326
397000;398;26.1056;0.347449;0.0134889;-2.22395;26.0102;0.15893;-0.131552;0.350815;-0.677439;-0.47024;-0.340802;-0.333898;0.669895;-7.54088;-0.00208232;0.00127776;0.008968;0.00911382;-0.00222814;0.00567098;0.232194;4.30674;0.00693888;0.00756131;4.09032;0.24448;78.1432;123.143;-0.00230079;-0.00208336;0.00062185;0.0019265;0.00896861;0.00529905;0.0166977;0;0.0212681;-0.60507;-0.684775;-1.01462;1.36546;-7.42458;-0.00379429;-0.000379628;0.0157973;0.0158046;-0.00380164;0.00980313;0.240187;4.16343;0.012006;0.0130708;4.15731;0.24054;116.603;161.603;-0.0091632;-0.0038247;0.00717954;-0.00779299;0.015772;0.0223358;0.0366466;0;0.0346432;7.81451;4.84005
398000;399;26.1157;0.357578;0.0138821;-2.22213;26.0206;0.154878;-0.129733;0.361161;-0.681492;-0.472092;-0.337357;-0.343564;0.674327;-7.55054;-0.00221307;0.00130923;0.00863874;0.00879446;-0.00236879;0.00558163;0.25618;3.9035;0.00679169;0.00744217;3.71263;0.26935;77.8932;122.893;-0.00265647;-0.00221405;0.000699936;0.00191197;0.00863935;0.00591498;0.0174427;0;0.0266844;-0.606928;-0.690675;-1.02344;1.3758;-7.43339;-0.0038456;-0.000607625;0.0163075;0.0163258;-0.0038639;0.0100948;0.235818;4.24056;0.0123746;0.0134598;4.22521;0.236675;116.171;161.171;-0.00950491;-0.00387556;0.00667912;-0.00774984;0.0162857;0.0200675;0.0369698;0;0.0369774;7.82063;4.84608
399000;400;26.1242;0.366046;0.0142109;-2.22234;26.029;0.156067;-0.129938;0.369634;-0.680303;-0.472477;-0.336609;-0.338364;0.671588;-7.54534;-0.00232552;0.00132556;0.00930941;0.00945852;-0.00247463;0.00596657;0.249804;4.00315;0.00727228;0.00795543;3.82219;0.26163;77.8209;122.821;-0.00332587;-0.00232672;0.000607049;0.00203579;0.00931009;0.00806445;0.0174339;0;0.0243607;-0.608344;-0.699245;-1.01989;1.37812;-7.42985;-0.00396983;-0.000430871;0.0163071;0.0163162;-0.00397899;0.0101476;0.243442;4.10775;0.0124182;0.0135301;4.1006;0.243867;114.974;159.974;-0.00820058;-0.00399551;0.0064397;-0.00716434;0.0162868;0.0191229;0.039567;0;0.0364102;7.82327;4.85132
400000;401;26.1363;0.378198;0.0146827;-2.22404;26.041;0.165776;-0.131634;0.381626;-0.670593;-0.472582;-0.334785;-0.337415;0.670271;-7.5444;-0.00231114;0.00122423;0.00973003;0.00985324;-0.00243435;0.00614379;0.237527;4.21005;0.00751291;0.00819173;4.04759;0.247061;79.9595;124.959;-0.00290666;-0.00231198;0.000658604;0.00178311;0.00973056;0.00741984;0.017337;0;0.0229009;-0.60963;-0.705465;-1.01959;1.38162;-7.42954;-0.00421581;-0.00039592;0.0161141;0.0161218;-0.00422352;0.0101727;0.261622;3.82231;0.0123979;0.0135636;3.81716;0.261975;115.868;160.868;-0.00802155;-0.00424294;0.00671237;-0.00736198;0.016092;0.0195471;0.0425683;0;0.0366399;7.82041;4.85538
401000;402;26.1429;0.384782;0.0149383;-2.22432;26.0476;0.161826;-0.131923;0.388234;-0.674543;-0.47472;-0.330683;-0.342942;0.672547;-7.54992;-0.00226742;0.00124109;0.0101091;0.0102323;-0.00239064;0.00631149;0.224295;4.45842;0.00774246;0.00841532;4.28016;0.233636;79.5028;124.503;-0.00356879;-0.00226847;0.000567345;0.00190657;0.0101097;0.00823707;0.0177845;0;0.029008;-0.612075;-0.710538;-1.02183;1.38696;-7.43179;-0.00441013;-0.000442975;0.0156921;0.0157018;-0.00441989;0.0100609;0.281042;3.55819;0.0122108;0.0134145;3.55254;0.281489;116.363;161.363;-0.00843859;-0.00443615;0.00646257;-0.00721182;0.0156716;0.020942;0.0420881;0;0.036868;7.82426;4.86225
402000;403;26.1486;0.390422;0.0151572;-2.22639;26.0531;0.161633;-0.13399;0.393719;-0.674737;-0.473633;-0.328164;-0.345366;0.671787;-7.55235;-0.00253329;0.00127644;0.00989266;0.0100224;-0.00266305;0.00634274;0.256078;3.90507;0.00772388;0.00845699;3.76351;0.26571;79.7213;124.721;-0.00333786;-0.0025342;0.000691311;0.00185436;0.00989323;0.00715202;0.0165381;0;0.0286047;-0.61186;-0.715164;-1.02604;1.39233;-7.436;-0.00454404;-0.000449438;0.0155917;0.0156018;-0.00455407;0.0100779;0.291439;3.43125;0.0122057;0.0134372;3.42589;0.291895;117.517;162.517;-0.00862497;-0.00457329;0.00689043;-0.00764376;0.0155685;0.0219708;0.0423995;0;0.034781;7.82845;4.86991
403000;404;26.161;0.402836;0.0156392;-2.22799;26.0654;0.173843;-0.13559;0.405964;-0.662527;-0.476134;-0.324958;-0.349653;0.67421;-7.55663;-0.00256479;0.000860602;0.0112516;0.011305;-0.00261819;0.00696159;0.227949;4.38695;0.00854417;0.00928212;4.31787;0.231596;82.1937;127.194;-0.00356632;-0.00256556;0.000203236;0.00150899;0.0112519;0.00875897;0.0164868;0;0.029008;-0.615372;-0.722156;-1.02511;1.3968;-7.43507;-0.0048626;-0.000361797;0.0159905;0.0159968;-0.00486888;0.0104328;0.304094;3.28846;0.0126049;0.0139104;3.28551;0.304367;117.569;162.569;-0.00818343;-0.00489301;0.0072189;-0.00778688;0.0159649;0.0228049;0.0393306;0;0.0366377;7.83724;4.87749
404000;405;26.165;0.406882;0.0157963;-2.22963;26.0693;0.16259;-0.137232;0.409957;-0.673779;-0.474595;-0.324257;-0.343744;0.669734;-7.55072;-0.00260132;0.00108271;0.0106924;0.01078;-0.00268892;0.00673447;0.243287;4.11038;0.00823072;0.00897929;4.00904;0.249436;80.6911;125.691;-0.00367475;-0.00260227;0.000408258;0.00174829;0.0106929;0.00950177;0.0176516;0;0.0301535;-0.615136;-0.728304;-1.02256;1.39801;-7.43251;-0.00469679;-0.000551768;0.0166603;0.0166746;-0.00471103;0.0106928;0.281915;3.54717;0.012975;0.0142571;3.53947;0.282528;117.424;162.424;-0.00850581;-0.00473024;0.0072394;-0.00817924;0.0166347;0.0244189;0.0393361;0;0.0385521;7.84036;4.88563
405000;406;26.1747;0.416566;0.0161722;-2.23172;26.0789;0.167255;-0.13932;0.419468;-0.669115;-0.473826;-0.323702;-0.341817;0.667932;-7.5488;-0.00258456;0.00115788;0.0112911;0.0113871;-0.00268052;0.0070338;0.228902;4.36869;0.00862488;0.0093784;4.2481;0.2354;81.6828;126.683;-0.00388388;-0.00258534;0.000604863;0.0017033;0.0112916;0.0100737;0.0172109;0;0.0239595;-0.615524;-0.735637;-1.0202;1.4003;-7.43015;-0.00472663;-0.000504038;0.0176501;0.0176614;-0.00473798;0.0111997;0.267796;3.73418;0.0136309;0.0149329;3.72763;0.268267;116.649;161.649;-0.00874395;-0.00476199;0.00757444;-0.00840485;0.017622;0.0236015;0.0391051;0;0.0380625;7.84195;4.89223
406000;407;26.1846;0.426486;0.0165573;-2.23377;26.0886;0.16754;-0.141364;0.429248;-0.66883;-0.475622;-0.31866;-0.348374;0.670168;-7.55535;-0.00264169;0.0011419;0.012221;0.0123082;-0.00272891;0.00751858;0.21616;4.62621;0.0092503;0.0100248;4.51031;0.221714;81.5528;126.553;-0.00344118;-0.00264271;0.000446783;0.0018268;0.0122216;0.00989602;0.0159412;0;0.031468;-0.618197;-0.740058;-1.02529;1.40751;-7.43525;-0.00456835;-0.000531233;0.0184897;0.0185019;-0.00458058;0.0115413;0.247075;4.04735;0.0141115;0.0153883;4.03921;0.247573;114.761;159.761;-0.00848628;-0.00460004;0.00707068;-0.00796102;0.0184653;0.0227126;0.0396335;0;0.0415205;7.84883;4.90002
407000;408;26.1927;0.434596;0.0168722;-2.23331;26.0969;0.16163;-0.140906;0.437464;-0.67474;-0.474831;-0.31336;-0.355794;0.671005;-7.56277;-0.00272329;0.00111776;0.0125911;0.0126722;-0.00280444;0.00773832;0.216288;4.62347;0.00952163;0.0103178;4.51861;0.221307;81.0254;126.025;-0.0032665;-0.00272458;0.000268739;0.00195395;0.0125916;0.00985463;0.0156776;0;0.0259358;-0.618462;-0.74447;-1.03146;1.41444;-7.44142;-0.00459242;-0.000584521;0.0191984;0.0192127;-0.00460677;0.0119097;0.239209;4.18044;0.0145886;0.0158797;4.17054;0.239777;114.246;159.246;-0.00907619;-0.00462486;0.0070667;-0.00805711;0.019174;0.0230856;0.0411451;0;0.0400338;7.85117;4.90663
408000;409;26.203;0.44485;0.0172703;-2.23346;26.1071;0.166395;-0.141053;0.447714;-0.669974;-0.475349;-0.313677;-0.351936;0.669484;-7.55892;-0.0028122;0.000768448;0.0127818;0.0128195;-0.00284998;0.00783476;0.220017;4.54511;0.00963785;0.0104463;4.49812;0.222315;82.6169;127.617;-0.00387467;-0.00281314;-4.36236e-05;0.00156802;0.0127821;0.0101274;0.0163945;0;0.0264252;-0.619833;-0.752715;-1.03089;1.41898;-7.44084;-0.00454077;-0.000632425;0.0192033;0.0192201;-0.00455761;0.0118889;0.236458;4.22908;0.0145722;0.0158518;4.21715;0.237127;113.746;158.746;-0.00840051;-0.00457125;0.00672179;-0.00781528;0.0191813;0.0200901;0.0394398;0;0.0440739;7.85263;4.91217
409000;410;26.2109;0.45273;0.0175762;-2.23314;26.1151;0.164453;-0.140742;0.455661;-0.671917;-0.476354;-0.311239;-0.351276;0.668713;-7.55826;-0.00279809;0.000631648;0.0134761;0.0135006;-0.00282257;0.0081616;0.207633;4.81619;0.010074;0.0108821;4.7831;0.20907;83.9244;128.924;-0.00350099;-0.00279881;-0.00010118;0.00135271;0.0134763;0.0119875;0.0149203;0;0.0241092;-0.621768;-0.759318;-1.02861;1.42169;-7.43857;-0.00469381;-0.000612977;0.0192246;0.0192403;-0.00470951;0.0119749;0.244156;4.09574;0.0146512;0.0159666;4.08543;0.244773;113.209;158.209;-0.0081451;-0.00472183;0.00643348;-0.00749405;0.0192045;0.0187658;0.0426037;0;0.03881;7.86307;4.91812
410000;411;26.2191;0.46095;0.0178953;-2.23331;26.1233;0.169606;-0.140906;0.463864;-0.666764;-0.476861;-0.310064;-0.352755;0.669307;-7.55974;-0.00301129;0.000497222;0.0139708;0.0139853;-0.00302583;0.00850559;0.215541;4.63948;0.0104788;0.0113408;4.62198;0.216357;84.6666;129.667;-0.00396258;-0.00301188;-0.000216121;0.00119862;0.0139709;0.0123563;0.014181;0;0.0260472;-0.622622;-0.765847;-1.02881;1.4257;-7.43876;-0.00502049;-0.000577943;0.0190535;0.0190674;-0.00503436;0.0120509;0.263494;3.79515;0.0146803;0.0160678;3.78745;0.26403;113.577;158.577;-0.00951024;-0.00504813;0.00644911;-0.00743896;0.0190333;0.0222353;0.0462591;0;0.0419967;7.86601;4.92483
411000;412;26.2257;0.467541;0.0181512;-2.23517;26.1297;0.164144;-0.142763;0.470356;-0.672226;-0.477873;-0.305443;-0.357748;0.670553;-7.56473;-0.00302001;0.000525103;0.0143807;0.0143965;-0.00303584;0.00871619;0.210004;4.76181;0.0107534;0.0116216;4.74219;0.210873;83.8385;128.838;-0.00354046;-0.00302087;-0.000374097;0.00140888;0.0143808;0.0117133;0.0152893;0;0.0260227;-0.625333;-0.769557;-1.03613;1.43417;-7.44609;-0.00500515;-0.000632447;0.0188214;0.0188382;-0.00502193;0.01193;0.265929;3.7604;0.0145251;0.0159067;3.75118;0.266583;114.291;159.291;-0.00975012;-0.00503446;0.00656636;-0.00766287;0.0188004;0.0217737;0.0463787;0;0.0423755;7.86654;4.9295
412000;413;26.232;0.473894;0.0183978;-2.23611;26.1361;0.161038;-0.143704;0.476671;-0.675332;-0.479602;-0.308852;-0.338907;0.663525;-7.54589;-0.00356876;0.000190499;0.0145904;0.0145924;-0.00357075;0.00908157;0.244597;4.08837;0.0111114;0.0121088;4.08664;0.2447;86.0474;131.047;-0.00457568;-0.00356909;-0.000466661;0.000835898;0.0145903;0.0133871;0.0143315;0;0.0235832;-0.627853;-0.7802;-1.01507;1.42593;-7.42503;-0.00474048;-0.000630204;0.0187245;0.0187414;-0.00475739;0.0117494;0.25317;3.94991;0.0143455;0.0156659;3.93943;0.253844;113.004;158.004;-0.0090829;-0.00476578;0.00601685;-0.00712413;0.0187069;0.0209199;0.0434744;0;0.041605;7.86946;4.93679
413000;414;26.244;0.485892;0.0188636;-2.23875;26.1479;0.164412;-0.146345;0.488466;-0.671957;-0.476162;-0.300339;-0.360288;0.668387;-7.56727;-0.00304209;0.000525698;0.0149929;0.0150082;-0.0030574;0.00903279;0.202902;4.92848;0.011165;0.0120437;4.9088;0.203716;84.5656;129.566;-0.00412208;-0.00304282;-0.000276305;0.00131345;0.014993;0.0122915;0.0140345;0;0.0240251;-0.625584;-0.78267;-1.03635;1.44151;-7.44631;-0.00509806;-0.000515698;0.0194018;0.0194127;-0.00510891;0.0122608;0.262762;3.80573;0.0149388;0.0163477;3.79977;0.263174;114.645;159.645;-0.00911363;-0.00513127;0.00730145;-0.00814494;0.0193758;0.0237169;0.0409501;0;0.042441;7.87802;4.94457
414000;415;26.2503;0.492136;0.0191061;-2.24001;26.154;0.159511;-0.147609;0.494656;-0.676859;-0.476095;-0.299256;-0.358262;0.666762;-7.56524;-0.00294319;0.000716107;0.0148759;0.0149047;-0.00297193;0.00893829;0.19785;5.05435;0.011061;0.0119177;5.01515;0.199396;82.9701;127.97;-0.0038069;-0.0029444;-0.000293397;0.00170789;0.0148761;0.0119964;0.0147081;0;0.0229938;-0.626938;-0.790078;-1.03503;1.44518;-7.44498;-0.00520451;-0.000414263;0.0203948;0.0204015;-0.00521122;0.0128064;0.255188;3.91868;0.0156304;0.0170751;3.91492;0.255433;112.99;157.99;-0.00802681;-0.00523477;0.00713012;-0.00776935;0.02037;0.0225977;0.0405402;0;0.0457623;7.88249;4.95145
415000;416;26.2581;0.49994;0.019409;-2.24165;26.1617;0.160335;-0.149251;0.502342;-0.676034;-0.476906;-0.296116;-0.362193;0.668063;-7.56917;-0.003173;0.000416508;0.0156523;0.0156615;-0.00318221;0.00942187;0.202717;4.93297;0.0116476;0.0125625;4.92159;0.203186;84.5921;129.592;-0.00360255;-0.00317379;-0.000506055;0.00132197;0.0156523;0.0119756;0.0139126;0;0.0243453;-0.629052;-0.794187;-1.04021;1.45206;-7.45017;-0.00509922;-0.000568012;0.0211148;0.0211271;-0.00511152;0.0131193;0.2415;4.14079;0.016062;0.0174924;4.13323;0.241942;112.181;157.181;-0.00834116;-0.00512912;0.00678724;-0.00773441;0.0210924;0.0220597;0.0382102;0;0.0446637;7.88211;4.95883
416000;417;26.269;0.510887;0.019834;-2.2422;26.1727;0.156237;-0.149795;0.513308;-0.680132;-0.476513;-0.293536;-0.361538;0.666287;-7.56852;-0.00314161;0.000469114;0.0159009;0.0159124;-0.00315316;0.0095328;0.197575;5.06138;0.0118006;0.0127104;5.04651;0.198157;84.5416;129.542;-0.00413424;-0.00314245;-0.000452898;0.00137384;0.0159009;0.011992;0.0128535;0;0.023555;-0.629754;-0.801169;-1.04031;1.45626;-7.45026;-0.00490531;-0.00050157;0.0219597;0.021969;-0.00491467;0.0134419;0.223378;4.47672;0.0165296;0.0179225;4.47009;0.223709;110.301;155.301;-0.00834053;-0.00493167;0.00643989;-0.00726053;0.0219395;0.0225412;0.0400879;0;0.0449333;7.88434;4.96553
417000;418;26.2779;0.519715;0.0201767;-2.24134;26.1816;0.1596;-0.148935;0.522221;-0.67677;-0.477177;-0.290823;-0.366926;0.668514;-7.57391;-0.00322148;0.000593064;0.0159821;0.0160004;-0.00323978;0.00962009;0.201568;4.96111;0.0118949;0.0128268;4.93874;0.202481;84.1703;129.17;-0.00372969;-0.00322243;-0.000332437;0.00150107;0.0159822;0.0121649;0.0122904;0;0.0336201;-0.631115;-0.805869;-1.04619;1.46364;-7.45614;-0.00505468;-0.000550927;0.0220196;0.0220309;-0.00506589;0.0135484;0.229553;4.35628;0.016635;0.0180645;4.34886;0.229945;109.928;154.928;-0.00840641;-0.0050795;0.00612393;-0.00704894;0.0220014;0.0179947;0.0437089;0;0.0484879;7.89094;4.97326
418000;419;26.286;0.527841;0.0204922;-2.24265;26.1897;0.159546;-0.150253;0.530265;-0.676824;-0.475635;-0.28716;-0.372949;0.669164;-7.57993;-0.00297474;0.000939242;0.016407;0.0164524;-0.00302015;0.00973629;0.181309;5.51544;0.0121013;0.0129817;5.44755;0.183569;82.886;127.886;-0.003344;-0.00297623;-0.000104468;0.00196305;0.0164074;0.00992317;0.0122859;0;0.0253507;-0.631027;-0.810101;-1.05134;1.46962;-7.4613;-0.00519973;-0.000533075;0.0222299;0.0222402;-0.00521009;0.0137252;0.233907;4.2752;0.0168344;0.0183002;4.26869;0.234264;110.681;155.681;-0.00956349;-0.00522745;0.00657004;-0.00744556;0.0222089;0.0220936;0.0457152;0;0.0456945;7.89997;4.97988
419000;420;26.2941;0.535963;0.0208075;-2.2428;26.1978;0.156158;-0.150399;0.538424;-0.680211;-0.478441;-0.289486;-0.354624;0.662167;-7.5616;-0.00366257;0.00029413;0.0164306;0.0164349;-0.00366688;0.0100509;0.222912;4.48608;0.0123615;0.0134012;4.48199;0.223115;85.2153;130.215;-0.00366194;-0.00366322;-0.000605469;0.00117595;0.0164305;0.0117121;0.0132314;0;0.0250989;-0.633945;-0.820129;-1.03684;1.46613;-7.4468;-0.00489621;-0.000662007;0.0220801;0.0220963;-0.00491245;0.0135044;0.221748;4.50962;0.0166122;0.0180058;4.49802;0.22232;109.433;154.433;-0.00900905;-0.00491992;0.00574607;-0.00690093;0.0220641;0.0214837;0.0480988;0;0.04503;7.9037;4.98728
420000;421;26.3042;0.546012;0.0211976;-2.24507;26.2077;0.161095;-0.152667;0.548287;-0.675274;-0.476976;-0.283753;-0.372262;0.668282;-7.57924;-0.00337194;0.000548746;0.0176649;0.0176792;-0.00338625;0.0105327;0.190884;5.23878;0.013062;0.0140436;5.22088;0.191539;84.6138;129.614;-0.00318061;-0.00337296;-0.000445744;0.00152268;0.0176649;0.0109221;0.0120259;0;0.0424944;-0.634669;-0.825367;-1.05046;1.47902;-7.46042;-0.00558967;-0.000599217;0.0220544;0.0220674;-0.00560265;0.013835;0.25345;3.94556;0.0168917;0.0184467;3.93873;0.253889;111.137;156.137;-0.0105984;-0.00561731;0.00642915;-0.00743745;0.0220343;0.0222314;0.0491722;0;0.0529558;7.90424;4.99338
421000;422;26.3101;0.551955;0.0214284;-2.24642;26.2136;0.152289;-0.154018;0.554189;-0.684081;-0.478041;-0.281984;-0.364633;0.664075;-7.57161;-0.00350428;0.000443741;0.0178121;0.0178214;-0.00351351;0.0106674;0.196736;5.08297;0.0132088;0.0142233;5.07224;0.197152;84.789;129.789;-0.00305396;-0.00350524;-0.000584578;0.00145052;0.0178121;0.0101235;0.011054;0;0.0243327;-0.635259;-0.830204;-1.0468;1.47939;-7.45676;-0.00526903;-0.000664699;0.0221608;0.0221769;-0.00528513;0.013731;0.237763;4.20586;0.0168253;0.018308;4.1961;0.238317;111.031;156.031;-0.00956007;-0.00529751;0.00641818;-0.00755748;0.0221409;0.0217712;0.046921;0;0.0485437;7.9034;4.99565
422000;423;26.3169;0.558732;0.0216915;-2.24762;26.2203;0.150975;-0.155221;0.560894;-0.685394;-0.477848;-0.283166;-0.359308;0.661532;-7.56629;-0.00359353;0.000567172;0.0177589;0.0177739;-0.00360858;0.0106913;0.202351;4.94191;0.0132174;0.014255;4.92546;0.203027;84.6316;129.632;-0.00330381;-0.00359453;-0.000406979;0.00152088;0.017759;0.0106099;0.0113778;0;0.0314727;-0.636306;-0.837872;-1.04285;1.48137;-7.4528;-0.00524968;-0.000496136;0.022314;0.0223229;-0.00525861;0.0137908;0.235264;4.25054;0.0169096;0.0183877;4.24502;0.23557;110.305;155.305;-0.00961311;-0.00527618;0.00647289;-0.00727724;0.0222936;0.0235867;0.0444048;0;0.0491306;7.90373;5.0026
423000;424;26.3263;0.56811;0.0220555;-2.2497;26.2295;0.151548;-0.157295;0.570126;-0.684821;-0.476997;-0.277288;-0.372554;0.665741;-7.57953;-0.0034658;0.000627026;0.0180478;0.0180661;-0.00348406;0.0107751;0.192034;5.2074;0.0133577;0.0143668;5.18535;0.192851;84.256;129.256;-0.00274843;-0.003467;-0.000436316;0.0016679;0.0180479;0.00986636;0.0106367;0;0.0286709;-0.636694;-0.842056;-1.05405;1.4918;-7.464;-0.00553379;-0.000452893;0.0230679;0.0230751;-0.00554096;0.014308;0.239891;4.16856;0.0175249;0.0190774;4.16446;0.240127;110.287;155.287;-0.00822088;-0.00556177;0.006769;-0.00747287;0.0230457;0.0206894;0.0436672;0;0.0486821;7.91831;5.00934
424000;425;26.3351;0.576983;0.0224;-2.25213;26.2382;0.152461;-0.159731;0.578817;-0.683909;-0.477597;-0.273996;-0.378212;0.667995;-7.58519;-0.00347236;0.000550864;0.0184928;0.0185066;-0.00348616;0.0109964;0.187768;5.32573;0.013649;0.0146619;5.3086;0.188373;84.4507;129.451;-0.00287931;-0.00347354;-0.000555179;0.00163305;0.0184928;0.0098352;0.0107437;0;0.0441565;-0.638833;-0.845856;-1.06182;1.50034;-7.47177;-0.00569932;-0.000207088;0.0236328;0.0236343;-0.00570079;0.0146675;0.241161;4.1466;0.0179606;0.0195567;4.14579;0.241208;109.201;154.201;-0.00857074;-0.00572458;0.00687873;-0.00708985;0.0236097;0.0212221;0.0461127;0;0.0484252;7.92231;5.01678
425000;426;26.3397;0.581538;0.0225769;-2.25101;26.2429;0.139663;-0.158606;0.583557;-0.696707;-0.482582;-0.278688;-0.354261;0.660343;-7.56124;-0.00419943;2.26273e-05;0.0194916;0.0194916;-0.00419945;0.0118456;0.215448;4.64149;0.014597;0.0157941;4.64147;0.215449;86.7691;131.769;-0.00389816;-0.00419981;-0.000845216;0.000870303;0.0194913;0.0111395;0.00885923;0;0.027363;-0.642461;-0.853595;-1.05048;1.49829;-7.46043;-0.00535704;-0.000355631;0.0242793;0.0242836;-0.00536131;0.0148224;0.220642;4.53222;0.0182407;0.0197632;4.52941;0.220779;108.037;153.037;-0.00887047;-0.00538081;0.00636976;-0.00688642;0.0242596;0.0197235;0.0462246;0;0.0573956;7.9258;5.0243
426000;427;26.3518;0.593697;0.0230489;-2.25196;26.255;0.146666;-0.159556;0.595642;-0.689704;-0.478532;-0.275114;-0.361098;0.6596;-7.56808;-0.00379514;0.000462049;0.0188158;0.0188252;-0.00380457;0.0113149;0.2017;4.95786;0.0139918;0.0150865;4.94804;0.2021;85.3031;130.303;-0.00306741;-0.003796;-0.000484763;0.00138785;0.0188158;0.0102797;0.0102279;0;0.024444;-0.641201;-0.862724;-1.04627;1.50004;-7.45622;-0.0053862;-0.000476048;0.0247151;0.0247226;-0.00539372;0.0150582;0.217932;4.58859;0.018543;0.0200775;4.58358;0.21817;106.848;151.848;-0.00944727;-0.0054071;0.0056958;-0.00646658;0.0246993;0.0195919;0.0469647;0;0.0530089;7.9295;5.03225
427000;428;26.361;0.602815;0.0234029;-2.25253;26.2641;0.144942;-0.16013;0.604754;-0.691428;-0.480661;-0.267463;-0.378685;0.667813;-7.58567;-0.00392046;0.000435129;0.0194943;0.0195024;-0.00392854;0.0117155;0.201107;4.97247;0.0144898;0.0156206;4.96429;0.201439;85.3;130.3;-0.00260346;-0.00392138;-0.000577881;0.00142487;0.0194943;0.008694;0.0100315;0;0.0275958;-0.644771;-0.863613;-1.06452;1.51485;-7.47448;-0.00533251;-0.000211773;0.0253153;0.0253168;-0.00533397;0.0153254;0.210644;4.74736;0.0189083;0.0204338;4.74633;0.210689;107.108;152.108;-0.0097284;-0.00535563;0.00656427;-0.00678526;0.0252943;0.0216699;0.0450558;0;0.0521514;7.92852;5.03932
428000;429;26.3711;0.61292;0.0237952;-2.25232;26.2743;0.151172;-0.159923;0.614878;-0.685198;-0.478593;-0.268073;-0.371321;0.662415;-7.5783;-0.00389539;0.000224806;0.019237;0.0192391;-0.00389758;0.0115684;0.202495;4.93839;0.0143034;0.0154245;4.93618;0.202586;85.697;130.697;-0.00288989;-0.00389613;-0.000803529;0.0012298;0.0192367;0.00803694;0.0105807;0;0.0418019;-0.643063;-0.872479;-1.05709;1.514;-7.46705;-0.00559029;-0.000734413;0.025232;0.0252494;-0.00560778;0.0154286;0.221556;4.51353;0.0189804;0.0205715;4.50257;0.222095;107.395;152.395;-0.0103146;-0.00561371;0.00558454;-0.00686337;0.025217;0.0210091;0.0505127;0;0.0532792;7.92673;5.04683
429000;430;26.3778;0.619662;0.024057;-2.25459;26.2809;0.147092;-0.162192;0.621474;-0.689278;-0.479158;-0.264439;-0.371519;0.661473;-7.5785;-0.00395104;0.000444694;0.0196325;0.0196409;-0.00395942;0.0118001;0.20125;4.96894;0.0145939;0.0157335;4.96054;0.201591;84.9777;129.978;-0.00270452;-0.00395211;-0.000662593;0.00152637;0.0196324;0.00794609;0.0111894;0;0.0269888;-0.644972;-0.875807;-1.06185;1.52005;-7.47181;-0.00552128;-0.000714817;0.0253339;0.0253505;-0.00553783;0.0154442;0.21794;4.58842;0.019017;0.0205922;4.5777;0.21845;107.688;152.688;-0.0104363;-0.00554606;0.00582518;-0.00705798;0.0253176;0.0220596;0.0517647;0;0.0522572;7.94076;5.05378
430000;431;26.3822;0.62401;0.0242258;-2.25572;26.2852;0.140257;-0.163321;0.625779;-0.696112;-0.48106;-0.263129;-0.369486;0.661193;-7.57647;-0.00409604;0.000117659;0.0209868;0.0209874;-0.00409659;0.012542;0.195172;5.12368;0.0155382;0.0167226;5.12313;0.195193;87.0168;132.017;-0.00343394;-0.00409646;-0.000701837;0.000917023;0.0209866;0.00796091;0.0099812;0;0.0289024;-0.648088;-0.882178;-1.05853;1.52274;-7.46849;-0.00553959;-0.000582579;0.0252434;0.0252544;-0.00555061;0.0154025;0.219447;4.55691;0.0189593;0.0205367;4.54985;0.219788;107.137;152.137;-0.0110734;-0.00556227;0.00576752;-0.006742;0.0252274;0.0234623;0.0513707;0;0.0541163;7.94264;5.06025
431000;432;26.3916;0.633421;0.0245911;-2.25704;26.2945;0.141199;-0.164639;0.635105;-0.695171;-0.479096;-0.260116;-0.375642;0.662043;-7.58262;-0.00401697;0.000523801;0.0206065;0.0206176;-0.00402811;0.0123229;0.194937;5.12985;0.015266;0.0164305;5.11844;0.195372;85.3321;130.332;-0.00276916;-0.004018;-0.00050068;0.00152356;0.0206065;0.00800717;0.0103612;0;0.0294753;-0.646458;-0.887922;-1.06603;1.5306;-7.47599;-0.00584362;-0.000497787;0.0251877;0.0251957;-0.0058516;0.0155237;0.232003;4.3103;0.0190496;0.0206982;4.30578;0.232246;107.349;152.349;-0.0100727;-0.00586622;0.0059204;-0.00672168;0.0251707;0.0213459;0.0506453;0;0.0529682;7.94927;5.06709
432000;433;26.3995;0.641359;0.0248993;-2.25916;26.3023;0.137789;-0.166758;0.642909;-0.698581;-0.479336;-0.256008;-0.384161;0.665494;-7.59114;-0.00413125;0.000213603;0.0208058;0.0208076;-0.00413308;0.0124703;0.198563;5.03619;0.015435;0.0166271;5.03441;0.198633;86.1954;131.195;-0.00336859;-0.00413192;-0.000775338;0.00117838;0.0208055;0.00889634;0.0096871;0;0.0231838;-0.64834;-0.892748;-1.07454;1.54012;-7.48449;-0.00592993;-0.00018521;0.0259847;0.0259858;-0.00593101;0.0159584;0.228209;4.38195;0.0196023;0.0212778;4.38134;0.228241;106.945;151.945;-0.00911177;-0.00595269;0.00656786;-0.00672821;0.0259637;0.0209523;0.0477491;0;0.0541216;7.95537;5.07344
433000;434;26.4067;0.648523;0.0251774;-2.26087;26.3093;0.137081;-0.168472;0.649956;-0.699288;-0.479684;-0.255194;-0.380248;0.663181;-7.58723;-0.00409728;0.000307874;0.0211323;0.021136;-0.00410104;0.0126185;0.193888;5.15763;0.015638;0.0168247;5.15382;0.194031;86.3626;131.363;-0.0031568;-0.00409794;-0.000587387;0.00118101;0.0211321;0.00869374;0.00955436;0;0.0248688;-0.649421;-0.899382;-1.07279;1.54322;-7.48275;-0.00607655;-6.70951e-05;0.0266282;0.0266283;-0.00607668;0.0163525;0.2282;4.38212;0.0200865;0.0218033;4.38205;0.228204;105.698;150.698;-0.00918994;-0.00609622;0.00632387;-0.00625446;0.0266087;0.0209932;0.0489982;0;0.0549526;7.95532;5.07661
434000;435;26.4128;0.654702;0.0254173;-2.26081;26.3156;0.133087;-0.168403;0.656184;-0.703283;-0.480865;-0.254636;-0.371249;0.658709;-7.57823;-0.00431564;0.000271973;0.0215021;0.0215049;-0.00431851;0.0129117;0.200708;4.98235;0.0159719;0.0172156;4.97971;0.200815;86.2644;131.264;-0.0034905;-0.00431634;-0.000691638;0.00121123;0.0215019;0.00951943;0.0102318;0;0.0237247;-0.650757;-0.90523;-1.06638;1.54275;-7.47633;-0.0060288;-0.00012516;0.0269891;0.0269896;-0.00602928;0.0165094;0.223379;4.47669;0.0203034;0.0220126;4.47642;0.223393;104.669;149.669;-0.00956101;-0.00604622;0.00582661;-0.00588558;0.0269726;0.020396;0.0494432;0;0.0546668;7.9558;5.08308
435000;436;26.4237;0.665548;0.0258384;-2.26162;26.3264;0.133956;-0.169217;0.666996;-0.702414;-0.48197;-0.252937;-0.369256;0.65774;-7.57624;-0.00443361;0.00011933;0.0216206;0.0216212;-0.00443415;0.0130277;0.205064;4.87653;0.016097;0.0173702;4.87606;0.205084;86.9491;131.949;-0.00450072;-0.00443406;-0.000737977;0.000954774;0.0216204;0.01137;0.00955064;0;0.0268412;-0.652994;-0.911648;-1.06674;1.54772;-7.47669;-0.00558643;9.04294e-05;0.0277562;0.0277564;-0.00558668;0.0166715;0.201268;4.9685;0.0206203;0.0222287;4.96832;0.201275;104.127;149.127;-0.00975956;-0.00560405;0.00630296;-0.00592055;0.0277368;0.0214932;0.0498268;0;0.0566443;7.95951;5.09076
436000;437;26.432;0.673874;0.0261616;-2.26143;26.3348;0.131327;-0.169032;0.675382;-0.705042;-0.481727;-0.247408;-0.380468;0.661836;-7.58745;-0.00445944;0.000186077;0.0218;0.0218014;-0.00446076;0.0131311;0.204561;4.88852;0.0162268;0.0175081;4.88737;0.204609;86.606;131.606;-0.0041954;-0.00446002;-0.000741385;0.0010897;0.0217998;0.00972852;0.00980248;0;0.0289294;-0.654104;-0.914361;-1.07968;1.55872;-7.48964;-0.00553796;-3.67747e-06;0.0282951;0.0282951;-0.00553796;0.0169165;0.195721;5.10931;0.0209548;0.0225554;5.10931;0.195721;104.463;149.463;-0.00998429;-0.00555769;0.00647024;-0.00626459;0.0282748;0.0229699;0.0466403;0;0.0588583;7.9647;5.09761
437000;438;26.4401;0.681984;0.0264764;-2.26285;26.3428;0.134461;-0.170452;0.683384;-0.701909;-0.481572;-0.246171;-0.382678;0.662536;-7.58966;-0.00435874;0.000123985;0.0223812;0.0223818;-0.00435931;0.0133705;0.19475;5.13479;0.0165666;0.0178274;5.13424;0.194771;87.0553;132.055;-0.00412095;-0.0043592;-0.000740138;0.000965506;0.0223809;0.00989127;0.0101666;0;0.0359215;-0.655211;-0.921096;-1.07962;1.5631;-7.48957;-0.00553514;-0.000171558;0.028642;0.0286428;-0.005536;0.0170894;0.193253;5.17457;0.0211831;0.0227859;5.17392;0.193277;104.934;149.934;-0.0109475;-0.00555722;0.00650778;-0.00662897;0.0286214;0.0251784;0.0485828;0;0.0585714;7.97611;5.10537
438000;439;26.4458;0.68769;0.026698;-2.26324;26.3485;0.124361;-0.170842;0.689128;-0.712009;-0.482306;-0.240996;-0.38929;0.665015;-7.59627;-0.00442201;0.0001305;0.0224606;0.0224612;-0.00442264;0.0134419;0.196879;5.07927;0.0166454;0.0179226;5.07869;0.196901;87.1612;132.161;-0.00407833;-0.00442244;-0.000696017;0.000935285;0.0224603;0.00889711;0.00927242;0;0.0268168;-0.656358;-0.923913;-1.09296;1.57448;-7.50292;-0.00590474;-0.000467404;0.0289259;0.0289321;-0.00591101;0.0174216;0.204133;4.89876;0.0215306;0.0232288;4.89462;0.204306;104.866;149.866;-0.0121274;-0.00592661;0.00589199;-0.0066115;0.0289091;0.0252106;0.053355;0;0.057086;7.97717;5.11291
439000;440;26.456;0.697882;0.0270937;-2.26431;26.3586;0.131594;-0.171912;0.69923;-0.704776;-0.482233;-0.241065;-0.38353;0.661632;-7.59051;-0.0046029;0.000245458;0.0229147;0.0229169;-0.00460509;0.013761;0.200871;4.97833;0.0170219;0.018348;4.97644;0.200947;86.4323;131.432;-0.00459927;-0.00460362;-0.000757717;0.00122165;0.0229145;0.010273;0.00946369;0;0.0340011;-0.657596;-0.933023;-1.08427;1.57436;-7.49423;-0.00605517;-0.000526328;0.0288472;0.0288552;-0.0060631;0.0174591;0.209905;4.76407;0.0215441;0.0232788;4.75914;0.210122;104.653;149.653;-0.0114868;-0.00607597;0.00560695;-0.00645153;0.0288321;0.0237061;0.0555286;0;0.0601302;7.9844;5.12054
440000;441;26.4613;0.70314;0.0272978;-2.26587;26.3638;0.125708;-0.173463;0.704403;-0.710662;-0.482476;-0.240169;-0.378555;0.658611;-7.58554;-0.00475243;0.000246554;0.0231517;0.0231539;-0.00475461;0.0139543;0.205273;4.87155;0.0172407;0.0186057;4.86978;0.205348;86.8749;131.875;-0.00443166;-0.00475299;-0.000616352;0.00108593;0.0231516;0.0102199;0.0107171;0;0.0365833;-0.658291;-0.939158;-1.08248;1.57707;-7.49244;-0.00624715;-0.000326828;0.028639;0.0286421;-0.00625021;0.0174462;0.218134;4.58434;0.0214834;0.0232615;4.58258;0.218218;104.703;149.703;-0.0109449;-0.00626729;0.00589296;-0.00633566;0.0286222;0.0232188;0.0525309;0;0.059236;7.98487;5.12736
441000;442;26.4673;0.709178;0.0275322;-2.26762;26.3697;0.117596;-0.175222;0.710349;-0.718773;-0.482912;-0.236627;-0.382038;0.659658;-7.58902;-0.0049512;5.64994e-05;0.0236822;0.0236823;-0.00495131;0.0143168;0.209068;4.78312;0.0176714;0.0190891;4.78304;0.209072;87.2396;132.24;-0.0048096;-0.00495162;-0.000832016;0.000920162;0.0236818;0.0119655;0.00968907;0;0.0311319;-0.659737;-0.944113;-1.08924;1.58526;-7.4992;-0.00651624;2.02779e-05;0.0288776;0.0288776;-0.00651625;0.0176969;0.22565;4.43164;0.0217517;0.0235959;4.43163;0.225651;103.288;148.288;-0.0126816;-0.0065318;0.00579939;-0.00556003;0.0288613;0.0247587;0.0547405;0;0.0608198;7.9843;5.13467
442000;443;26.4735;0.715344;0.0277716;-2.27008;26.3757;0.111506;-0.177679;0.716354;-0.724864;-0.483557;-0.234772;-0.383623;0.660388;-7.5906;-0.00498908;0.000181987;0.0235326;0.0235338;-0.00499024;0.014262;0.212007;4.71683;0.0175902;0.019016;4.71596;0.212046;86.9684;131.968;-0.00524651;-0.00498961;-0.000703771;0.00104306;0.0235324;0.0129542;0.0109594;0;0.0401745;-0.661049;-0.949705;-1.0937;1.5922;-7.50366;-0.00656945;0.000118147;0.0295002;0.0295006;-0.00656983;0.0180352;0.222692;4.49052;0.0221837;0.024047;4.49031;0.222702;102.804;147.804;-0.0116222;-0.00658434;0.00587853;-0.00544041;0.0294834;0.0250817;0.0506364;0;0.0668774;7.9882;5.13979
443000;444;26.4825;0.724326;0.0281203;-2.27137;26.3846;0.112684;-0.178973;0.725253;-0.723686;-0.48163;-0.22848;-0.391864;0.66161;-7.59884;-0.0049519;0.00042049;0.0235752;0.0235814;-0.0049581;0.0142698;0.210047;4.76085;0.0176079;0.0190264;4.75615;0.210254;86.1735;131.174;-0.0043852;-0.00495278;-0.000575332;0.00138856;0.0235752;0.0102979;0.0117781;0;0.0263829;-0.66112;-0.952346;-1.09776;1.5966;-7.50772;-0.00639108;0.000281116;0.0299574;0.0299596;-0.00639325;0.0181764;0.213339;4.68738;0.0224102;0.0242352;4.68613;0.213396;103.172;148.172;-0.0101046;-0.00640769;0.00653618;-0.00575321;0.0299367;0.0249444;0.0490874;0;0.0624809;7.99352;5.14479
444000;445;26.492;0.733836;0.0284895;-2.27147;26.3942;0.116917;-0.179064;0.734771;-0.719452;-0.483127;-0.229529;-0.388966;0.661354;-7.59595;-0.00512846;0.00017675;0.0236143;0.0236154;-0.00512954;0.0143725;0.217176;4.60456;0.0177029;0.0191633;4.6038;0.217212;86.752;131.752;-0.00489194;-0.00512906;-0.000782889;0.00110944;0.023614;0.0127572;0.0118375;0;0.0269579;-0.662841;-0.961006;-1.09626;1.60146;-7.50622;-0.00616742;0.000340605;0.0308008;0.0308039;-0.00617056;0.0184872;0.200236;4.99411;0.022872;0.0246497;4.99208;0.200317;101.529;146.529;-0.0101151;-0.00618068;0.00603038;-0.00514512;0.0307832;0.0265763;0.0463132;0;0.0613651;7.99908;5.15001
445000;446;26.4991;0.740991;0.0287672;-2.27264;26.4013;0.113114;-0.180241;0.741868;-0.723256;-0.48374;-0.226939;-0.388073;0.660384;-7.59505;-0.00527127;0.000302679;0.0242585;0.0242616;-0.00527437;0.014768;0.217296;4.60202;0.0181892;0.0196906;4.5999;0.217396;87.1035;132.103;-0.00506734;-0.00527179;-0.000482907;0.00106562;0.0242584;0.0109981;0.0113439;0;0.0282255;-0.664744;-0.965933;-1.09707;1.60576;-7.50703;-0.00598094;0.000325385;0.0311766;0.0311794;-0.00598379;0.0185816;0.191841;5.21266;0.0230413;0.0247755;5.21065;0.191915;101.952;146.952;-0.0105121;-0.00599608;0.00636559;-0.00549718;0.031157;0.0259051;0.0487699;0;0.0642062;7.9963;5.15718
446000;447;26.5096;0.751439;0.0291729;-2.27145;26.4118;0.11601;-0.179049;0.752444;-0.720359;-0.482397;-0.224832;-0.392936;0.661554;-7.59992;-0.00513542;0.000492696;0.0240055;0.0240139;-0.00514375;0.0145788;0.213926;4.67451;0.0179709;0.0194384;4.66856;0.214199;85.9272;130.927;-0.00438669;-0.00513645;-0.000558463;0.00151394;0.0240055;0.0102898;0.0112839;0;0.0279022;-0.664412;-0.973065;-1.1008;1.61247;-7.51076;-0.00599548;-0.00016053;0.0317249;0.0317255;-0.00599616;0.0188609;0.188984;5.29146;0.0234065;0.0251478;5.29097;0.189001;102.531;147.531;-0.012448;-0.00601368;0.00591742;-0.00601627;0.0317079;0.0297849;0.0538453;0;0.0616221;8.00716;5.1643
447000;448;26.5184;0.760298;0.0295168;-2.27204;26.4207;0.114496;-0.17964;0.761293;-0.721874;-0.483359;-0.223353;-0.389178;0.659532;-7.59616;-0.00539933;0.000310256;0.0240947;0.024098;-0.0054026;0.0147503;0.224088;4.46254;0.0181364;0.0196671;4.46045;0.224193;86.3763;131.376;-0.00524178;-0.00540013;-0.000703066;0.00129439;0.0240945;0.0121416;0.0128523;0;0.0253258;-0.665868;-0.978414;-1.10172;1.61693;-7.51168;-0.00621489;-0.000251027;0.0322624;0.032264;-0.00621653;0.0192403;0.192636;5.19114;0.0238531;0.0256537;5.19003;0.192677;102.025;147.025;-0.0136422;-0.00623197;0.00554639;-0.00583234;0.0322475;0.0313849;0.0564782;0;0.0609292;8.01367;5.17157
448000;449;26.5258;0.767608;0.0298006;-2.2743;26.4278;0.113075;-0.181898;0.768441;-0.723294;-0.483133;-0.220745;-0.390549;0.659299;-7.59753;-0.00553152;0.000445956;0.0245376;0.0245442;-0.00553814;0.0150412;0.22543;4.43596;0.0184875;0.0200549;4.43186;0.225639;86.3032;131.303;-0.00455661;-0.00553239;-0.000524979;0.0013884;0.0245376;0.0100165;0.0121534;0;0.0260389;-0.666514;-0.983328;-1.10451;1.62207;-7.51447;-0.00625227;-0.00035127;0.0324532;0.0324564;-0.00625546;0.0193559;0.192655;5.19063;0.0239961;0.0258079;5.18849;0.192734;102.02;147.02;-0.0115712;-0.00626963;0.0053967;-0.00588375;0.0324392;0.0267827;0.0578045;0;0.0594706;8.01623;5.17974
449000;450;26.5343;0.776201;0.0301342;-2.2754;26.4364;0.113926;-0.182999;0.776967;-0.722444;-0.483558;-0.218511;-0.39088;0.659062;-7.59786;-0.00570749;0.000385568;0.0246553;0.0246602;-0.00571238;0.0151863;0.231491;4.31981;0.0186384;0.0202484;4.31697;0.231644;86.7235;131.723;-0.00514388;-0.00570817;-0.000480534;0.00122601;0.0246553;0.010903;0.012139;0;0.0257237;-0.667816;-0.989014;-1.1053;1.62659;-7.51525;-0.00672097;-0.000586403;0.0319513;0.0319601;-0.00672986;0.019345;0.210351;4.75397;0.0238684;0.0257933;4.74901;0.21057;101.941;146.941;-0.0127403;-0.0067371;0.00471715;-0.00569119;0.0319406;0.0265354;0.0575537;0;0.0626226;8.01549;5.18661
450000;451;26.5401;0.781928;0.0303565;-2.27742;26.4419;0.111354;-0.185014;0.782553;-0.725015;-0.482893;-0.216749;-0.393098;0.659311;-7.60008;-0.00566455;0.000568793;0.0248076;0.0248182;-0.00567517;0.0152467;0.228339;4.37944;0.0187261;0.0203289;4.37312;0.228669;86.1375;131.137;-0.00398651;-0.00566552;-0.000390794;0.00149985;0.0248077;0.00795914;0.012112;0;0.031903;-0.668356;-0.995659;-1.10817;1.63281;-7.51813;-0.00665257;-5.00276e-06;0.0323763;0.0323763;-0.00665257;0.0195144;0.205476;4.86674;0.0241096;0.0260193;4.86674;0.205476;100.929;145.929;-0.0127182;-0.00666583;0.00532288;-0.00513146;0.0323626;0.0280779;0.054145;0;0.0633996;8.01868;5.19351
451000;452;26.5487;0.790598;0.0306931;-2.27927;26.4505;0.109134;-0.186867;0.791105;-0.727236;-0.483838;-0.213821;-0.393125;0.659065;-7.60011;-0.00570826;0.000577099;0.0251657;0.0251765;-0.00571904;0.0154478;0.226827;4.40865;0.0189801;0.020597;4.40223;0.227158;86.0218;131.022;-0.00377828;-0.00570932;-0.000438732;0.00156234;0.0251658;0.00736582;0.0119723;0;0.0258409;-0.670082;-1.00026;-1.10977;1.63741;-7.51973;-0.00670286;-7.98564e-05;0.0322434;0.0322435;-0.00670303;0.0194733;0.207883;4.81039;0.0240435;0.0259644;4.8103;0.207887;101.983;146.983;-0.0126626;-0.006719;0.00572241;-0.0056632;0.0322275;0.0268774;0.0565192;0;0.0664523;8.02376;5.19978
452000;453;26.5548;0.796612;0.0309266;-2.27937;26.4565;0.103611;-0.186968;0.797155;-0.732758;-0.484137;-0.212144;-0.394385;0.659495;-7.60137;-0.0060252;0.000553957;0.0252566;0.0252664;-0.00603501;0.0156507;0.238559;4.19183;0.0191752;0.0208676;4.18665;0.238855;86.4304;131.43;-0.00372741;-0.00602604;-0.000327812;0.00140882;0.0252567;0.00715302;0.011639;0;0.0347911;-0.671189;-1.00614;-1.11267;1.64343;-7.52263;-0.00626415;0.000369203;0.0328717;0.0328751;-0.00626763;0.0195714;0.190564;5.24758;0.0242772;0.0260952;5.24522;0.19065;102.047;147.047;-0.0112948;-0.00628132;0.00683716;-0.00585369;0.0328491;0.0326268;0.0530431;0;0.0669678;8.02604;5.20667
453000;454;26.5631;0.80495;0.0312503;-2.28185;26.4647;0.101824;-0.189449;0.805317;-0.734545;-0.483604;-0.209684;-0.394214;0.658213;-7.60119;-0.00603909;0.000692832;0.0258848;0.0258998;-0.00605412;0.015977;0.233307;4.28621;0.0195988;0.0213026;4.27805;0.233751;85.981;130.981;-0.00297054;-0.00604022;-0.000296847;0.00165171;0.025885;0.00541157;0.0117462;0;0.0282626;-0.671775;-1.01203;-1.11194;1.64679;-7.5219;-0.00643193;0.000247495;0.0334926;0.0334941;-0.00643346;0.0199638;0.19204;5.20724;0.0247542;0.0266184;5.20624;0.192077;101.324;146.324;-0.0119207;-0.00644749;0.00629447;-0.00556589;0.0334735;0.0279846;0.0553397;0;0.0697278;8.0329;5.21076
454000;455;26.5745;0.816365;0.0316935;-2.28146;26.4762;0.108453;-0.18906;0.816782;-0.727916;-0.484265;-0.208919;-0.393661;0.658125;-7.60064;-0.00624403;0.000739394;0.0256107;0.0256279;-0.00626118;0.0159445;0.243805;4.10163;0.0195101;0.0212594;4.09314;0.244311;85.5813;130.581;-0.00265871;-0.00624535;-0.000335968;0.00178136;0.0256109;0.0046913;0.0119472;0;0.0262468;-0.673369;-1.01937;-1.1135;1.653;-7.52345;-0.00606783;0.000220734;0.034109;0.0341103;-0.00606904;0.0200896;0.177895;5.62129;0.0250099;0.0267862;5.62037;0.177924;100.861;145.861;-0.0120381;-0.00608311;0.00618953;-0.00551617;0.0340905;0.0328324;0.0531489;0;0.0719353;8.04264;5.21935
455000;456;26.584;0.825816;0.0320604;-2.28129;26.4857;0.107602;-0.18889;0.826286;-0.728768;-0.484423;-0.203956;-0.396784;0.65856;-7.60376;-0.00638143;0.000791612;0.0259075;0.0259269;-0.00640082;0.0161639;0.246316;4.05983;0.0197667;0.0215518;4.05055;0.24688;85.8489;130.849;-0.0025261;-0.00638261;-0.000171991;0.00172489;0.0259078;0.00421487;0.0108559;0;0.027486;-0.674357;-1.02294;-1.11613;1.65739;-7.52609;-0.00601674;0.000215863;0.0347582;0.0347593;-0.00601788;0.0203886;0.173103;5.77691;0.0254174;0.0271848;5.77601;0.17313;100.972;145.972;-0.0111075;-0.00603319;0.00639864;-0.00572329;0.0347384;0.0321883;0.05158;0;0.0682824;8.03973;5.2225
456000;457;26.5938;0.835695;0.0324439;-2.28191;26.4955;0.110662;-0.189503;0.836136;-0.725707;-0.483346;-0.203494;-0.396301;0.657333;-7.60328;-0.00620511;0.0010193;0.0268227;0.0268541;-0.00623654;0.0165453;0.231338;4.32267;0.0203034;0.0220604;4.30593;0.232238;85.4672;130.467;-0.00237894;-0.00620663;-6.26951e-06;0.00201188;0.0268232;0.00388065;0.0112405;0;0.0321003;-0.674263;-1.03034;-1.11471;1.66096;-7.52466;-0.00632813;-0.000189883;0.0350613;0.0350622;-0.006329;0.0206956;0.180487;5.54055;0.0257451;0.0275941;5.53993;0.180508;101.777;146.777;-0.0133775;-0.00634786;0.00613894;-0.00626563;0.0350431;0.0323188;0.0571853;0;0.066036;8.0428;5.2286
457000;458;26.6005;0.842352;0.0327024;-2.28243;26.5022;0.106108;-0.190028;0.842791;-0.730262;-0.484262;-0.201728;-0.395935;0.657243;-7.60292;-0.00639989;0.000993268;0.0266247;0.0266546;-0.00642973;0.0165421;0.240374;4.16018;0.020256;0.0220562;4.14551;0.241225;85.5659;130.566;-0.00187106;-0.0064013;7.14724e-06;0.00194767;0.0266252;0.00121939;0.0108922;0;0.0280095;-0.675695;-1.03612;-1.11693;1.66663;-7.52688;-0.00631097;-0.000408537;0.035454;0.035458;-0.00631497;0.0208865;0.178005;5.61783;0.0260006;0.0278486;5.61491;0.178097;102.105;147.105;-0.012731;-0.00633274;0.00603221;-0.00658948;0.0354365;0.0313564;0.0564436;0;0.0657971;8.04603;5.23663
458000;459;26.608;0.849851;0.0329935;-2.28437;26.5095;0.106297;-0.191967;0.850151;-0.730072;-0.484541;-0.198433;-0.399449;0.65857;-7.60643;-0.00656023;0.00113569;0.0270448;0.0270832;-0.00659857;0.0168409;0.242569;4.12255;0.0206101;0.0224545;4.1044;0.243641;85.4648;130.465;-0.0018307;-0.00656172;0.00017765;0.00206238;0.0270455;0.000909187;0.00931667;0;0.0278454;-0.676591;-1.03931;-1.12234;1.6726;-7.5323;-0.00659438;-0.000418588;0.0358638;0.035868;-0.00659851;0.0212332;0.183873;5.43855;0.0263879;0.028311;5.43577;0.183967;100.79;145.79;-0.0115897;-0.00661149;0.00524003;-0.00584526;0.0358507;0.0237134;0.0613048;0;0.0662483;8.04995;5.24323
459000;460;26.6172;0.859042;0.0333503;-2.2848;26.5187;0.109009;-0.192394;0.859328;-0.727361;-0.484728;-0.193416;-0.40843;0.662711;-7.61541;-0.00661709;0.00174705;0.0268229;0.0269139;-0.00670812;0.016811;0.246695;4.05358;0.020547;0.0224147;4.01215;0.249243;83.9753;128.975;-0.00138802;-0.00661955;0.000641207;0.00281689;0.0268242;-0.000100842;0.0103795;0;0.0263019;-0.677651;-1.04368;-1.13096;1.68153;-7.54091;-0.00689105;-0.000410058;0.0356384;0.0356423;-0.00689501;0.0212687;0.19336;5.17169;0.0263622;0.0283582;5.1693;0.19345;100.597;145.597;-0.0137188;-0.00690696;0.00503973;-0.00563603;0.0356262;0.0282641;0.0578139;0;0.0706348;8.05724;5.25065
460000;461;26.6232;0.865095;0.0335853;-2.28605;26.5247;0.102912;-0.193647;0.86532;-0.733458;-0.484533;-0.191851;-0.404305;0.659577;-7.61129;-0.00676353;0.00133078;0.0276053;0.0276568;-0.00681498;0.0172359;0.245008;4.0815;0.02108;0.0229812;4.05823;0.246413;84.8057;129.806;-0.00159569;-0.00676557;0.000212683;0.00241148;0.0276062;0.0010485;0.0105353;0;0.0231274;-0.678943;-1.05133;-1.12943;1.68579;-7.53939;-0.00688312;-0.000156915;0.0358613;0.0358619;-0.0068837;0.0213728;0.191937;5.21003;0.0265022;0.028497;5.20968;0.19195;100.861;145.861;-0.0119699;-0.00689989;0.00570137;-0.00577345;0.0358456;0.023193;0.0575477;0;0.0724858;8.06071;5.25786
461000;462;26.6304;0.872283;0.0338643;-2.28796;26.5318;0.101222;-0.195557;0.872376;-0.735148;-0.485351;-0.189027;-0.409391;0.662494;-7.61637;-0.00696282;0.001324;0.0276037;0.0276543;-0.00701346;0.0173339;0.252242;3.96444;0.021165;0.0231119;3.94304;0.253612;84.972;129.972;-0.00227299;-0.0069647;0.000269999;0.00234254;0.0276045;0.00264699;0.0103448;0;0.0294939;-0.680454;-1.05592;-1.13545;1.69329;-7.5454;-0.00677211;-5.89906e-05;0.035921;0.035921;-0.00677219;0.0213466;0.188528;5.30425;0.0264948;0.0284622;5.3042;0.18853;101.692;146.692;-0.0124722;-0.00679195;0.00642854;-0.00627915;0.035901;0.0259982;0.0562129;0;0.0737418;8.06441;5.26584
462000;463;26.6374;0.879269;0.0341356;-2.28872;26.5387;0.102327;-0.196321;0.879318;-0.734042;-0.484904;-0.186233;-0.411391;0.662614;-7.61837;-0.00688714;0.00151432;0.0280996;0.028165;-0.00695256;0.0175588;0.245098;4.08001;0.0214727;0.0234117;4.05102;0.246851;84.4555;129.455;-0.00117075;-0.00688951;0.000340923;0.00264779;0.0281006;0.00123523;0.00855671;0;0.0283908;-0.680965;-1.06142;-1.13665;1.69773;-7.5466;-0.00638091;0.000340376;0.0365441;0.0365468;-0.0063836;0.0214652;0.174609;5.7271;0.0267475;0.0286202;5.7251;0.17467;100.638;145.638;-0.0130792;-0.00639765;0.00672295;-0.0057779;0.0365223;0.0382057;0.0579233;0;0.07235;8.061;5.27279
463000;464;26.6431;0.88495;0.0343561;-2.29047;26.5443;0.0966346;-0.198072;0.88489;-0.739735;-0.485804;-0.184933;-0.408622;0.661194;-7.6156;-0.00710359;0.00143101;0.0280651;0.0281232;-0.00716172;0.0176425;0.253111;3.95083;0.0215367;0.0235233;3.92688;0.254655;84.931;129.931;-0.00171146;-0.00710553;0.000396196;0.00243043;0.028066;0.00169073;0.00890675;0;0.0343432;-0.682338;-1.06739;-1.13543;1.7012;-7.54538;-0.00662025;0.000227007;0.0366724;0.0366736;-0.00662144;0.0216475;0.180524;5.53942;0.0269289;0.0288633;5.53861;0.180551;99.9595;144.959;-0.0108616;-0.00663471;0.00606331;-0.00536558;0.0366547;0.0280824;0.0553212;0;0.0729024;8.06485;5.27959
464000;465;26.6567;0.898587;0.0348856;-2.2902;26.558;0.106815;-0.197801;0.898563;-0.729555;-0.486438;-0.180954;-0.413781;0.663762;-7.62076;-0.00714316;0.00150305;0.0286061;0.0286692;-0.00720625;0.0179377;0.249708;4.00468;0.0219134;0.0239169;3.97838;0.251359;84.8;129.8;-0.00257843;-0.00714529;0.000421962;0.00254656;0.0286071;0.00330261;0.00818344;0;0.029808;-0.684026;-1.07325;-1.13926;1.70812;-7.54922;-0.00631128;0.000203653;0.0373312;0.0373321;-0.00631223;0.0218222;0.169062;5.91499;0.0272371;0.0290962;5.91425;0.169083;99.9004;144.9;-0.0131856;-0.00632656;0.00617282;-0.00551439;0.0373128;0.0379118;0.0505414;0;0.0730414;8.07504;5.28665
465000;466;26.6643;0.906133;0.0351785;-2.29122;26.5655;0.103298;-0.198819;0.906063;-0.733071;-0.484925;-0.179937;-0.410855;0.660554;-7.61784;-0.00707188;0.00153302;0.0288829;0.0289482;-0.00713712;0.0180427;0.244846;4.0842;0.022066;0.0240569;4.056;0.246548;84.7559;129.756;-0.0033015;-0.00707409;0.000429985;0.00259751;0.028884;0.00507557;0.00839643;0;0.029555;-0.683713;-1.07925;-1.1385;1.71126;-7.54845;-0.00661063;-0.000264539;0.0379001;0.0379017;-0.00661221;0.0222569;0.174423;5.7332;0.0277358;0.0296759;5.73207;0.174457;99.9168;144.917;-0.0126673;-0.00662676;0.0053803;-0.00566729;0.0378862;0.0364943;0.0506667;0;0.072944;8.07488;5.289
466000;467;26.6739;0.915717;0.0355506;-2.29128;26.575;0.107852;-0.198881;0.915659;-0.728518;-0.487129;-0.175984;-0.414916;0.663642;-7.6219;-0.0074387;0.0018516;0.0290327;0.0291265;-0.00753246;0.0183295;0.256218;3.90293;0.0223555;0.0244393;3.86679;0.258612;84.7096;129.71;-0.00242555;-0.00744078;0.000921888;0.00274835;0.029034;0.00230811;0.00877647;0;0.0206108;-0.685932;-1.08443;-1.13984;1.71631;-7.5498;-0.00654065;-0.000214746;0.0383987;0.0383997;-0.00654167;0.0224707;0.170335;5.87078;0.0280359;0.0299609;5.87001;0.170357;100.378;145.378;-0.0132076;-0.00655902;0.00588007;-0.00604579;0.038382;0.0373279;0.0548303;0;0.070689;8.08237;5.2962
467000;468;26.6809;0.922784;0.0358249;-2.29175;26.5821;0.102574;-0.199352;0.922732;-0.733796;-0.486908;-0.173154;-0.41544;0.663063;-7.62242;-0.00751906;0.00183146;0.0296737;0.0297637;-0.00760903;0.0186864;0.253391;3.94647;0.0228059;0.0249152;3.91163;0.255648;84.7539;129.754;-0.00272128;-0.00752123;0.000860078;0.00276775;0.029675;0.00273583;0.00754169;0;0.0274983;-0.686432;-1.08949;-1.14084;1.72038;-7.55079;-0.00713258;-0.000608667;0.0390208;0.0390288;-0.00714061;0.0230847;0.182789;5.47079;0.0286971;0.0307796;5.46576;0.182957;100.196;145.196;-0.0131018;-0.00715069;0.0050623;-0.00602772;0.0390087;0.0278924;0.0573368;0;0.0724768;8.08405;5.30188
468000;469;26.6864;0.928288;0.0360386;-2.2927;26.5876;0.0986537;-0.200302;0.92819;-0.737716;-0.486412;-0.171703;-0.414097;0.66148;-7.62108;-0.00759086;0.00190308;0.0297709;0.0298676;-0.00768755;0.0187776;0.254975;3.92195;0.0229083;0.0250368;3.8852;0.257387;84.4893;129.489;-0.00301078;-0.00759329;0.000862786;0.00290563;0.0297723;0.0039958;0.0088263;0;0.0307725;-0.686904;-1.09474;-1.1416;1.7244;-7.55155;-0.00722846;-0.000383661;0.0393169;0.0393201;-0.00723162;0.0232758;0.183851;5.43918;0.0289268;0.0310344;5.43724;0.183917;99.8575;144.858;-0.0099491;-0.00724534;0.00528871;-0.00580199;0.0393035;0.0231946;0.0560325;0;0.0726991;8.08295;5.30922
469000;470;26.6956;0.937424;0.0363933;-2.2944;26.5966;0.10261;-0.201999;0.937199;-0.73376;-0.486782;-0.167321;-0.41871;0.663529;-7.62569;-0.00756716;0.00205598;0.0300588;0.0301708;-0.00767917;0.018925;0.251745;3.97227;0.023103;0.0252333;3.92891;0.254523;84.3288;129.329;-0.00332469;-0.00756973;0.00102097;0.00305319;0.0300603;0.00335935;0.00836818;0;0.0372055;-0.688359;-1.09946;-1.14666;1.73132;-7.55661;-0.00740294;-0.000476669;0.0393813;0.0393861;-0.00740779;0.023397;0.187981;5.31968;0.0290433;0.031196;5.31685;0.188081;99.7898;144.79;-0.0125235;-0.00741956;0.00506053;-0.00576462;0.0393691;0.0247839;0.0597934;0;0.0787729;8.09326;5.31617
470000;471;26.6996;0.941439;0.0365492;-2.2967;26.6004;0.0964083;-0.204299;0.941053;-0.739961;-0.486316;-0.167373;-0.415209;0.660996;-7.62219;-0.0077624;0.00210197;0.0303767;0.0304922;-0.0078779;0.019185;0.255538;3.91331;0.0234003;0.02558;3.8706;0.258358;84.1536;129.154;-0.00337435;-0.00776521;0.00100006;0.00316309;0.0303783;0.00409728;0.00830025;0;0.024377;-0.688778;-1.10718;-1.14509;1.73537;-7.55505;-0.00743157;-0.000357626;0.0394949;0.0394976;-0.0074343;0.0234659;0.188166;5.31447;0.0291278;0.0312879;5.31289;0.188222;100.329;145.329;-0.0118858;-0.00745018;0.00564324;-0.00608758;0.0394796;0.0266923;0.0601365;0;0.0788557;8.09366;5.32376
471000;472;26.7076;0.949419;0.036859;-2.29718;26.6084;0.0961609;-0.204777;0.949023;-0.740209;-0.486428;-0.164263;-0.41817;0.662163;-7.62515;-0.007771;0.00210661;0.0305285;0.030644;-0.00788653;0.0192653;0.25455;3.92851;0.0235034;0.025687;3.88561;0.25736;84.36;129.36;-0.00359707;-0.00777359;0.00108018;0.00309489;0.03053;0.00513808;0.00840383;0;0.0292129;-0.689853;-1.11255;-1.14909;1.74186;-7.55905;-0.00701487;0.000269559;0.039449;0.0394506;-0.00701643;0.0232335;0.177821;5.62363;0.0289243;0.030978;5.6226;0.177854;100.536;145.536;-0.0134863;-0.00703393;0.00699881;-0.0061589;0.0394255;0.0323753;0.0581707;0;0.077059;8.0937;5.33037
472000;473;26.7163;0.958116;0.0371966;-2.2974;26.6171;0.101397;-0.204996;0.957714;-0.734973;-0.486755;-0.160616;-0.419791;0.662535;-7.62677;-0.00786646;0.00196267;0.0303929;0.0304933;-0.00796688;0.0192301;0.258826;3.86361;0.0234402;0.0256401;3.82751;0.261266;84.3304;129.33;-0.00388741;-0.00786916;0.000848942;0.00303505;0.0303944;0.00566445;0.00781724;0;0.026644;-0.690921;-1.11796;-1.14904;1.74571;-7.559;-0.00702264;0.000372693;0.0397908;0.0397937;-0.0070256;0.0234097;0.176489;5.66607;0.0291546;0.0312129;5.6641;0.176551;100.392;145.392;-0.0136112;-0.00704136;0.00715947;-0.00610854;0.0397662;0.0317103;0.0610284;0;0.0780983;8.10125;5.33815
473000;474;26.7237;0.965598;0.0374871;-2.29867;26.6245;0.0983441;-0.20627;0.965125;-0.738025;-0.486933;-0.160551;-0.417885;0.661444;-7.62487;-0.00812362;0.00198625;0.0311817;0.0312818;-0.00822373;0.0197528;0.260525;3.8384;0.0240687;0.026337;3.80385;0.262892;84.8115;129.811;-0.0040247;-0.00812589;0.00102846;0.00290753;0.0311831;0.00638141;0.0082276;0;0.0311593;-0.691281;-1.12411;-1.15056;1.75079;-7.56051;-0.00683093;0.000533257;0.0403552;0.0403612;-0.00683695;0.0235991;0.16927;5.90771;0.0294522;0.0314654;5.90339;0.169394;99.4249;144.425;-0.0118805;-0.00684646;0.00693748;-0.00558051;0.0403322;0.0285186;0.058628;0;0.0765178;8.10113;5.34568
474000;475;26.7359;0.97772;0.0379577;-2.29902;26.6366;0.104817;-0.206622;0.977237;-0.731552;-0.487528;-0.155447;-0.427873;0.667025;-7.63485;-0.00797177;0.00218131;0.0312529;0.0313739;-0.00809271;0.0197333;0.255073;3.92045;0.0240713;0.026311;3.87681;0.257944;84.2228;129.223;-0.00426839;-0.00797465;0.00108709;0.00323392;0.0312547;0.0071743;0.00749631;0;0.0279407;-0.692673;-1.12951;-1.15402;1.75709;-7.56398;-0.00665353;0.000214552;0.0408114;0.0408124;-0.0066545;0.0237334;0.163031;6.1338;0.0296762;0.0316446;6.13305;0.163051;99.616;144.616;-0.0138745;-0.00667093;0.0066038;-0.00588333;0.0407905;0.0344824;0.0578377;0;0.0753049;8.10582;5.35313
475000;476;26.7455;0.987387;0.038333;-2.29933;26.6463;0.106094;-0.206923;0.986909;-0.730276;-0.488353;-0.152628;-0.425075;0.665186;-7.63206;-0.00823576;0.00178131;0.0317814;0.0318606;-0.00831489;0.0200877;0.259137;3.85896;0.0244872;0.0267836;3.83175;0.260978;84.8653;129.865;-0.00362509;-0.00823822;0.000679657;0.00284023;0.0317827;0.00605264;0.00825428;0;0.0285821;-0.694285;-1.13441;-1.15415;1.76096;-7.56411;-0.00736289;-0.00031816;0.040814;0.0408161;-0.007365;0.0240905;0.180401;5.5432;0.0299689;0.0321207;5.5419;0.180444;99.4269;144.427;-0.0118904;-0.00737949;0.00537582;-0.00574857;0.0408001;0.0326343;0.056296;0;0.0757681;8.10771;5.35845
476000;477;26.7535;0.995371;0.038643;-2.29908;26.6544;0.101431;-0.20668;0.994962;-0.734939;-0.487528;-0.151901;-0.424102;0.663792;-7.63108;-0.00818147;0.00190599;0.0324663;0.0325554;-0.00827065;0.020413;0.251999;3.96827;0.0249222;0.0272174;3.93626;0.254048;85.0912;130.091;-0.00378702;-0.00818372;0.000928119;0.00284536;0.0324676;0.00655754;0.00824795;0;0.026651;-0.694284;-1.14108;-1.15448;1.76548;-7.56444;-0.00756553;-0.000430728;0.0412737;0.0412775;-0.00756933;0.0244234;0.183302;5.45549;0.0303576;0.0325646;5.45326;0.183377;99.1262;144.126;-0.0129479;-0.00758139;0.00502031;-0.00562608;0.0412617;0.0352755;0.0571376;0;0.0748919;8.11227;5.36404
477000;478;26.7614;1.00331;0.038951;-2.30106;26.6621;0.105224;-0.208659;1.00274;-0.731146;-0.487984;-0.147914;-0.423538;0.662866;-7.63052;-0.00838871;0.00180486;0.0326558;0.0327351;-0.00846793;0.0206015;0.256882;3.89283;0.0251262;0.0274687;3.86577;0.258681;85.2179;130.218;-0.00334913;-0.00839091;0.000810287;0.0027599;0.0326571;0.00367772;0.00780588;0;0.0297906;-0.695657;-1.14489;-1.15315;1.76762;-7.56074;-0.00787257;-8.31687e-05;0.042625;0.0426252;-0.00787271;0.0252489;0.184694;5.41437;0.031372;0.0336652;5.4143;0.184696;98.8367;143.837;-0.011598;-0.00788791;0.00562865;-0.00551834;0.0426098;0.0268639;0.0623076;0;0.0853652;8.11577;5.36743
478000;479;26.7682;1.01009;0.0392143;-2.30063;26.669;0.0993545;-0.208231;1.00961;-0.737015;-0.488384;-0.144055;-0.429866;0.666375;-7.63685;-0.00849019;0.0015164;0.0332446;0.0332996;-0.00854521;0.0209224;0.255386;3.91564;0.0255294;0.0278965;3.89687;0.256616;85.5092;130.509;-0.00301798;-0.00849232;0.000436776;0.00255241;0.0332456;0.00449415;0.00779387;0;0.0347766;-0.696555;-1.14941;-1.1595;1.77504;-7.56945;-0.00779624;-0.000269166;0.0425363;0.0425377;-0.00779768;0.0251677;0.183285;5.45599;0.0312833;0.0335569;5.45517;0.183312;99.4059;144.406;-0.012155;-0.00781399;0.00568996;-0.00594058;0.0425208;0.0285457;0.0578597;0;0.0795072;8.12137;5.3749
479000;480;26.7772;1.01906;0.0395625;-2.3022;26.6778;0.105021;-0.209802;1.01845;-0.731348;-0.488724;-0.141036;-0.436401;0.670215;-7.64338;-0.00823446;0.00193672;0.0336634;0.0337527;-0.0083238;0.0210383;0.244612;4.08811;0.0257292;0.028051;4.05497;0.246611;84.9699;129.97;-0.00294211;-0.00823708;0.000838105;0.00299081;0.0336648;0.00368231;0.00795207;0;0.0302966;-0.697865;-1.15544;-1.16518;1.78317;-7.57513;-0.00779408;-0.000386271;0.0427733;0.0427762;-0.00779703;0.0252866;0.182218;5.48792;0.0314404;0.0337155;5.48622;0.182275;99.3602;144.36;-0.00945076;-0.00781201;0.00549043;-0.00597798;0.0427589;0.0243533;0.0567681;0;0.0835004;8.12605;5.38241
480000;481;26.7853;1.0272;0.0398785;-2.30397;26.6859;0.10395;-0.211568;1.02647;-0.73242;-0.489175;-0.138036;-0.437718;0.670778;-7.6447;-0.00845199;0.00143548;0.0342349;0.0342831;-0.0085002;0.0213916;0.246882;4.05051;0.0261534;0.0285222;4.03321;0.247942;85.7244;130.724;-0.00328678;-0.00845407;0.000338443;0.00248723;0.0342358;0.00511795;0.00675346;0;0.0352612;-0.699228;-1.16106;-1.16793;1.78915;-7.57789;-0.00761115;-0.000227981;0.0430608;0.0430618;-0.00761218;0.025337;0.176754;5.65759;0.0315528;0.0337827;5.65696;0.176773;100.581;145.581;-0.0116457;-0.00763486;0.00674677;-0.00686389;0.043039;0.0253389;0.0553262;0;0.0868999;8.1266;5.38979
481000;482;26.7926;1.03443;0.0401593;-2.30498;26.693;0.104526;-0.212575;1.03364;-0.731844;-0.488944;-0.136229;-0.438208;0.67056;-7.64519;-0.00835898;0.00172302;0.0342634;0.034333;-0.00842852;0.0213807;0.243962;4.099;0.0261548;0.0285077;4.07343;0.245493;84.9766;129.977;-0.00214638;-0.00836185;0.000450872;0.00294274;0.0342648;0.00289884;0.00846061;0;0.0255958;-0.699733;-1.16768;-1.1685;1.79402;-7.57845;-0.00738994;0.000182945;0.0426617;0.0426623;-0.00739061;0.0250265;0.173222;5.77294;0.0311983;0.0333686;5.77251;0.173235;100.514;145.514;-0.0127349;-0.00741256;0.00741662;-0.0067035;0.0426353;0.0304971;0.0566754;0;0.0833245;8.13416;5.39759
482000;483;26.8015;1.0434;0.0405074;-2.30596;26.7019;0.105329;-0.213561;1.04256;-0.73104;-0.488292;-0.134643;-0.439261;0.670454;-7.64624;-0.00814398;0.00198052;0.0346727;0.0347641;-0.00823539;0.0214998;0.234881;4.25747;0.0263537;0.0286664;4.22131;0.236893;84.9265;129.926;-0.00243172;-0.00814684;0.00081316;0.00309958;0.0346743;0.00259221;0.00783924;0;0.0257668;-0.699702;-1.17398;-1.16888;1.79835;-7.57883;-0.00723835;-1.82219e-05;0.0427869;0.0427869;-0.00723835;0.0250126;0.169172;5.91115;0.0312184;0.0333502;5.91114;0.169172;100.717;145.717;-0.0145991;-0.0072626;0.00725253;-0.00694018;0.0427617;0.0329428;0.060924;0;0.079485;8.13251;5.40512
483000;484;26.8125;1.05432;0.0409316;-2.30711;26.7128;0.112011;-0.214707;1.0534;-0.724358;-0.489117;-0.129601;-0.445119;0.673916;-7.6521;-0.00807925;0.00160599;0.0353326;0.0353919;-0.00813858;0.0217652;0.228663;4.37325;0.0267238;0.0290203;4.34866;0.229956;85.5788;130.579;-0.00282618;-0.00808161;0.000468127;0.00269614;0.0353337;0.00339148;0.00654622;0;0.0278234;-0.701174;-1.17797;-1.17286;1.80412;-7.58281;-0.00714376;0.00013827;0.0432032;0.0432036;-0.00714414;0.0251738;0.165353;6.04768;0.0314554;0.0335651;6.04741;0.16536;100.225;145.225;-0.0137431;-0.00716608;0.00727867;-0.00665752;0.0431778;0.027954;0.0569379;0;0.0803467;8.13059;5.41285
484000;485;26.8256;1.0675;0.0414431;-2.30686;26.726;0.116873;-0.214455;1.06662;-0.719496;-0.489578;-0.126958;-0.444246;0.673172;-7.65123;-0.00824433;0.00162621;0.0356809;0.035741;-0.00830445;0.0220227;0.231057;4.32793;0.0270242;0.0293637;4.30384;0.232351;85.4559;130.456;-0.00282557;-0.0082469;0.000419715;0.00278154;0.0356821;0.00348259;0.00641256;0;0.0309617;-0.702173;-1.18427;-1.17225;1.80823;-7.58221;-0.00750495;-9.27675e-06;0.0437763;0.0437763;-0.00750495;0.0256406;0.171438;5.833;0.0319808;0.0341875;5.833;0.171438;99.3038;144.304;-0.0136521;-0.0075235;0.00636297;-0.00606845;0.0437569;0.027758;0.0577574;0;0.0811859;8.1411;5.41996
485000;486;26.8327;1.0746;0.0417189;-2.30642;26.7332;0.111771;-0.214014;1.07381;-0.724599;-0.489868;-0.126417;-0.442371;0.672045;-7.64935;-0.00844504;0.00107358;0.0359495;0.0359754;-0.00847099;0.0222232;0.234914;4.25687;0.0272498;0.0296309;4.2469;0.235466;86.2171;131.217;-0.00320268;-0.00844694;-0.000122022;0.00221794;0.03595;0.00446827;0.00713886;0;0.0288265;-0.702751;-1.19129;-1.17025;1.81178;-7.58021;-0.00714045;0.000139351;0.0444307;0.0444311;-0.00714083;0.025786;0.16071;6.22239;0.0322655;0.0343813;6.22211;0.160717;99.9301;144.93;-0.0107903;-0.00716284;0.00730162;-0.00666927;0.0444052;0.0310795;0.0551008;0;0.0779962;8.14586;5.42696
486000;487;26.8422;1.08404;0.0420854;-2.30721;26.7426;0.11005;-0.214805;1.08323;-0.72632;-0.489172;-0.122372;-0.449139;0.67527;-7.65612;-0.00832726;0.00119285;0.0362947;0.0363266;-0.00835912;0.0223428;0.229435;4.35854;0.027432;0.0297905;4.34574;0.230111;85.9558;130.956;-0.00270868;-0.00832948;-8.21935e-05;0.00241299;0.0362954;0.00416724;0.00567573;0;0.0258098;-0.703256;-1.19539;-1.17931;1.82052;-7.58926;-0.00767021;-0.000233256;0.0446049;0.0446059;-0.00767125;0.0261386;0.171959;5.81534;0.0325966;0.0348514;5.81468;0.171978;99.1883;144.188;-0.0108133;-0.00768921;0.00599066;-0.0061457;0.0445877;0.0349662;0.0545082;0;0.0851597;8.14846;5.43361
487000;488;26.8509;1.0928;0.0424253;-2.30783;26.7513;0.112362;-0.21543;1.09195;-0.724007;-0.489485;-0.12032;-0.446663;0.673484;-7.65364;-0.00844605;0.00111982;0.036929;0.0369566;-0.00847367;0.0227151;0.22871;4.37234;0.0278947;0.0302868;4.36135;0.229287;86.0197;131.02;-0.0026904;-0.00844829;-0.000207287;0.00238885;0.0369296;0.00448169;0.00502868;0;0.0269409;-0.704498;-1.20135;-1.17635;1.82301;-7.58631;-0.00789413;-0.000271946;0.0453998;0.0454012;-0.00789552;0.0266484;0.17388;5.75109;0.0332136;0.0355312;5.75025;0.173905;99.8297;144.83;-0.0128048;-0.0079168;0.00651458;-0.00671248;0.0453796;0.0301091;0.0565688;0;0.0861519;8.14977;5.43893
488000;489;26.8573;1.0992;0.0426739;-2.3091;26.7577;0.109092;-0.216701;1.09828;-0.727278;-0.489442;-0.11693;-0.453572;0.677461;-7.66055;-0.00830185;0.0012514;0.0370587;0.0370932;-0.00833635;0.0227148;0.224019;4.46391;0.0279255;0.0302864;4.44957;0.224741;85.8425;130.843;-0.00306179;-0.00830431;-9.43869e-05;0.00253833;0.0370595;0.00549019;0.00614662;0;0.0265249;-0.705726;-1.20554;-1.18417;1.83129;-7.59412;-0.00826196;-0.000339298;0.0458112;0.0458133;-0.00826409;0.0270387;0.180348;5.54483;0.033637;0.0360516;5.54366;0.180386;98.9253;143.925;-0.0101873;-0.00828056;0.00571842;-0.0060838;0.0457956;0.0295731;0.0570334;0;0.0854331;8.14949;5.4417
489000;490;26.8632;1.10501;0.0428993;-2.31035;26.7634;0.107165;-0.217949;1.10401;-0.729205;-0.489148;-0.115786;-0.447024;0.672683;-7.654;-0.0084373;0.00122974;0.0376323;0.0376651;-0.0084701;0.0230676;0.224204;4.46023;0.0283582;0.0307568;4.44683;0.224879;85.9466;130.947;-0.00252853;-0.00843971;-0.000109078;0.00250911;0.037633;0.00444858;0.00378577;0;0.0315028;-0.706229;-1.21183;-1.17995;1.83291;-7.58991;-0.00832361;-0.000401028;0.046122;0.046125;-0.00832656;0.0272258;0.180469;5.54111;0.0338684;0.036301;5.5395;0.180522;99.6835;144.683;-0.0131334;-0.00834607;0.0062301;-0.00668702;0.0461035;0.0308812;0.0600782;0;0.0878165;8.15023;5.4479
490000;491;26.8699;1.11174;0.0431609;-2.31096;26.7701;0.108124;-0.218556;1.11072;-0.728245;-0.491144;-0.113293;-0.452695;0.677489;-7.65968;-0.00842006;0.00090303;0.037992;0.0380096;-0.00843762;0.0232236;0.221627;4.51209;0.0285706;0.0309648;4.50478;0.221987;86.5468;131.547;-0.00369492;-0.00842188;-0.000352918;0.00210282;0.0379924;0.00672969;0.00364091;0;0.0315407;-0.708621;-1.21889;-1.1832;1.8406;-7.59316;-0.00807569;-0.000102569;0.0464257;0.0464259;-0.00807588;0.0272509;0.173949;5.74882;0.0339641;0.0363345;5.74871;0.173952;100.638;145.638;-0.013776;-0.00810356;0.00763514;-0.00743727;0.0463979;0.035082;0.0574569;0;0.0921717;8.16173;5.4557
491000;492;26.877;1.11886;0.0434373;-2.31301;26.7771;0.106375;-0.220606;1.11769;-0.729995;-0.489907;-0.111961;-0.446742;0.672401;-7.65372;-0.00872936;0.00112278;0.0384272;0.0384539;-0.00875607;0.023605;0.227166;4.40207;0.0289987;0.0314733;4.39169;0.227703;86.2712;131.271;-0.0034245;-0.00873148;-0.000153474;0.00234107;0.0384278;0.00598834;0.00159731;0;0.0346509;-0.708479;-1.22559;-1.17945;1.84258;-7.58941;-0.00792636;0.000195822;0.0465914;0.0465921;-0.00792706;0.0272596;0.170125;5.87803;0.034013;0.0363461;5.87759;0.170138;100.826;145.826;-0.0160656;-0.00795538;0.00840938;-0.0075899;0.0465576;0.0357411;0.0601485;0;0.0872152;8.16352;5.46297
492000;493;26.8875;1.12933;0.0438437;-2.31345;26.7875;0.110704;-0.221052;1.12815;-0.725665;-0.490485;-0.106519;-0.458117;0.679553;-7.6651;-0.00834492;0.000844696;0.0390513;0.0390664;-0.00835997;0.0237132;0.213691;4.67965;0.0292321;0.0316176;4.67303;0.213994;86.624;131.624;-0.00321654;-0.00834678;-0.000469929;0.00209935;0.0390516;0.00597909;0.00377903;0;0.0317801;-0.709532;-1.22947;-1.1894;1.85195;-7.59936;-0.00763026;-0.000108559;0.0456842;0.0456844;-0.00763048;0.0266575;0.167022;5.98724;0.0332925;0.0355433;5.9871;0.167026;100.964;145.964;-0.0155087;-0.0076596;0.00781864;-0.00763158;0.045655;0.033889;0.0565546;0;0.0858431;8.17087;5.47059
493000;494;26.8966;1.13843;0.0441969;-2.31485;26.7965;0.113635;-0.22245;1.13714;-0.722735;-0.490312;-0.104679;-0.454053;0.676408;-7.66103;-0.00847991;0.00107793;0.0389592;0.0389837;-0.00850439;0.023744;0.217661;4.5943;0.0292391;0.0316587;4.58395;0.218152;86.2135;131.213;-0.00313648;-0.00848221;-0.000299345;0.00239231;0.0389597;0.0062279;0.00202201;0;0.0267669;-0.710563;-1.2359;-1.18489;1.85373;-7.59485;-0.00796721;2.50624e-05;0.0463404;0.0463404;-0.00796722;0.0271538;0.171928;5.81639;0.0338632;0.0362051;5.81638;0.171928;99.974;144.974;-0.0150225;-0.00799129;0.00734169;-0.00691181;0.0463146;0.0385776;0.0629183;0;0.0830168;8.16223;5.47737
494000;495;26.9067;1.14852;0.0445887;-2.31492;26.8067;0.113755;-0.222523;1.14727;-0.722614;-0.490968;-0.101194;-0.458166;0.679121;-7.66515;-0.00846478;0.000940755;0.0397338;0.0397522;-0.00848313;0.0241177;0.213037;4.69402;0.0297353;0.0321569;4.68603;0.2134;86.5144;131.514;-0.00367228;-0.00846683;-0.000405997;0.00222507;0.0397342;0.00716182;0.00245684;0;0.0326265;-0.711432;-1.24063;-1.18929;1.86002;-7.59924;-0.00781951;-0.000190477;0.0463384;0.046339;-0.00782018;0.0270796;0.168748;5.92599;0.0338023;0.0361061;5.92557;0.16876;100.114;145.114;-0.0123835;-0.00784481;0.00708329;-0.00708775;0.0463144;0.032093;0.0621944;0;0.0877546;8.16351;5.48477
495000;496;26.9161;1.15796;0.0449552;-2.31394;26.8162;0.112132;-0.22154;1.15683;-0.724237;-0.490409;-0.0965415;-0.466468;0.683677;-7.67345;-0.00838587;0.000973788;0.039978;0.0399976;-0.00840547;0.0242015;0.209762;4.7673;0.0298638;0.0322687;4.75852;0.210149;86.4477;131.448;-0.00336367;-0.00838803;-0.000405343;0.00228878;0.0399784;0.00617763;0.00309174;0;0.039088;-0.711757;-1.24418;-1.19701;1.86746;-7.60447;-0.00729567;0.00075237;0.0480418;0.048052;-0.0073059;0.0276789;0.151861;6.58497;0.0347271;0.0369053;6.57715;0.152041;98.3398;143.34;-0.0122458;-0.00731303;0.00779564;-0.00591905;0.048013;0.0374534;0.0647563;0;0.0864785;8.16716;5.4921
496000;497;26.9211;1.163;0.0451507;-2.31495;26.8212;0.105376;-0.222545;1.16183;-0.730993;-0.491291;-0.0969139;-0.457127;0.67803;-7.66411;-0.00863374;0.000917357;0.0399965;0.0400138;-0.00865103;0.0243324;0.215862;4.63258;0.0299786;0.0324432;4.62532;0.216201;86.4002;131.4;-0.00352321;-0.00863595;-0.000520713;0.00228818;0.0399968;0.00748765;0.00142996;0;0.0274495;-0.712979;-1.25138;-1.18873;1.86745;-7.59868;-0.00814996;0.000185704;0.048344;0.0483447;-0.00815057;0.0282476;0.168582;5.93182;0.035262;0.0376635;5.93145;0.168593;99.0585;144.059;-0.0112813;-0.00817116;0.00724051;-0.00648894;0.0483191;0.0309447;0.0584185;0;0.0867237;8.17791;5.49973
497000;498;26.9295;1.17139;0.0454766;-2.31571;26.8296;0.103422;-0.223307;1.1702;-0.732948;-0.490701;-0.0937413;-0.461113;0.679853;-7.66809;-0.00863908;0.000874493;0.0402202;0.0402358;-0.00865473;0.0244453;0.214795;4.65561;0.0301261;0.0325937;4.649;0.2151;86.5599;131.56;-0.00409651;-0.00864113;-0.000513555;0.00219734;0.0402204;0.00887085;0.00338656;0;0.0349509;-0.71356;-1.25747;-1.19289;1.8744;-7.60285;-0.00886258;-0.000132416;0.0486692;0.0486695;-0.00886289;0.0287662;0.182098;5.49154;0.0357685;0.0383549;5.49138;0.182104;99.2649;144.265;-0.0116322;-0.00888488;0.00676414;-0.00665061;0.0486474;0.0322344;0.0541869;0;0.0938186;8.19232;5.50699
498000;499;26.9356;1.17748;0.0457129;-2.31675;26.8356;0.100452;-0.224345;1.17623;-0.735918;-0.49154;-0.0901017;-0.4599;0.679145;-7.66688;-0.00873509;0.000541486;0.0405887;0.0405947;-0.00874103;0.0246679;0.21521;4.64663;0.0303986;0.0328905;4.64415;0.215325;87.1409;132.141;-0.00463058;-0.00873653;-0.000751414;0.0017731;0.0405886;0.00920505;0.004153;0;0.031669;-0.715517;-1.26197;-1.19422;1.87902;-7.60417;-0.00889271;-0.000127112;0.0491076;0.0491079;-0.00889299;0.0290004;0.181086;5.52223;0.0360702;0.0386673;5.52209;0.181091;99.4865;144.486;-0.0136839;-0.00891664;0.00703035;-0.00688886;0.0490841;0.0314708;0.0595378;0;0.0923575;8.18106;5.51445
499000;500;26.9436;1.18541;0.0460207;-2.31755;26.8435;0.102134;-0.225152;1.18411;-0.734236;-0.490521;-0.0858714;-0.468432;0.683677;-7.67541;-0.00857071;0.000985053;0.0408638;0.0408834;-0.00859033;0.0247369;0.209738;4.76785;0.0305247;0.0329825;4.75924;0.210118;86.4433;131.443;-0.00385698;-0.00857298;-0.000435501;0.00233814;0.0408642;0.00853905;0.00372593;0;0.0403493;-0.715395;-1.26597;-1.20039;1.88558;-7.61035;-0.0087662;-6.61659e-05;0.0500115;0.0500116;-0.00876627;0.0293889;0.175283;5.70504;0.0366147;0.0391853;5.705;0.175285;99.1436;144.144;-0.0135036;-0.00878937;0.00704369;-0.00677802;0.0499879;0.0297748;0.0632945;0;0.0956417;8.1747;5.51456
500000;501;26.9496;1.19144;0.0462549;-2.31873;26.8495;0.100116;-0.226328;1.19007;-0.736254;-0.489726;-0.0828699;-0.470754;0.68433;-7.67773;-0.00848493;0.000787707;0.0413122;0.0413247;-0.00849739;0.024911;0.205385;4.86889;0.0307758;0.0332147;4.86322;0.205625;86.7943;131.794;-0.00481479;-0.00848684;-0.000587321;0.00209698;0.0413124;0.010298;0.00328254;0;0.0329339;-0.715613;-1.27094;-1.20437;1.89153;-7.61432;-0.00842887;0.000208311;0.0503147;0.0503155;-0.00842961;0.0293725;0.167523;5.96933;0.0366778;0.0391634;5.9689;0.167535;99.4681;144.468;-0.0149688;-0.0084542;0.00793977;-0.00709074;0.0502847;0.0384446;0.0617573;0;0.0936169;8.18796;5.5217
501000;502;26.9563;1.19811;0.0465139;-2.32021;26.856;0.104357;-0.227812;1.19662;-0.732013;-0.493008;-0.0846269;-0.461143;0.680347;-7.66812;-0.00887667;0.000441722;0.0419836;0.0419875;-0.00888051;0.025434;0.211432;4.72966;0.0313736;0.033912;4.72805;0.211504;87.2939;132.294;-0.00459085;-0.00887804;-0.000890717;0.00170912;0.0419834;0.0110913;0.0021834;0;0.0327746;-0.718988;-1.28037;-1.1948;1.89311;-7.60476;-0.00838313;-3.16012e-05;0.0495179;0.0495179;-0.00838315;0.0289505;0.169295;5.90685;0.0361319;0.0386007;5.90683;0.169295;100.825;145.825;-0.0153995;-0.00841633;0.00852294;-0.00811419;0.0494832;0.0369016;0.0606891;0;0.0876633;8.19404;5.52962
502000;503;26.9653;1.20718;0.0468658;-2.32155;26.865;0.104944;-0.229147;1.2056;-0.731426;-0.493392;-0.0781059;-0.46777;0.684357;-7.67475;-0.00883755;0.000335586;0.0419187;0.0419209;-0.00883977;0.0253804;0.210826;4.74325;0.0313126;0.0338405;4.74231;0.210868;87.4881;132.488;-0.00446891;-0.00883872;-0.000950101;0.00155864;0.0419183;0.00932448;0.00125374;0;0.0336965;-0.720261;-1.28326;-1.20142;1.89972;-7.61137;-0.00814701;-3.08042e-05;0.0488953;0.0488953;-0.00814703;0.0285212;0.166622;6.00163;0.0356245;0.0380282;6.00162;0.166622;100.874;145.874;-0.0135667;-0.00817992;0.00848144;-0.00808013;0.048861;0.0288876;0.0524093;0;0.0877222;8.17682;5.53638
503000;504;26.9762;1.21809;0.0472896;-2.32232;26.8758;0.113408;-0.229914;1.21646;-0.722961;-0.49191;-0.0800257;-0.457435;0.676481;-7.66442;-0.00888176;0.000433922;0.0420398;0.0420435;-0.00888546;0.0254645;0.21127;4.73328;0.0314126;0.0339527;4.73172;0.21134;87.2443;132.244;-0.00402382;-0.00888319;-0.000936415;0.00173729;0.0420395;0.00976358;0.00202208;0;0.0292821;-0.718539;-1.2927;-1.18911;1.89772;-7.59907;-0.00832546;0.000407971;0.0499757;0.0499785;-0.00832832;0.0291534;0.16659;6.00275;0.036414;0.0388712;6.00104;0.166638;99.6402;144.64;-0.0141004;-0.00835117;0.0084132;-0.00715278;0.049942;0.030147;0.0605882;0;0.0812264;8.18515;5.54342
504000;505;26.9859;1.22773;0.0476639;-2.3224;26.8855;0.107274;-0.229994;1.22616;-0.729096;-0.490752;-0.0734574;-0.473424;0.685831;-7.6804;-0.00866213;0.000554693;0.0426306;0.0426366;-0.00866813;0.0256523;0.203191;4.92149;0.0317111;0.0342031;4.91877;0.203303;87.1671;132.167;-0.00425696;-0.00866372;-0.000816248;0.00185819;0.0426304;0.0098455;0.00204746;0;0.0364096;-0.718998;-1.29507;-1.20917;1.91214;-7.61912;-0.00832165;0.000178551;0.0497717;0.0497723;-0.00832219;0.0290472;0.167196;5.981;0.0362752;0.0387297;5.98067;0.167205;99.2498;144.25;-0.0122899;-0.00834527;0.00761601;-0.00684734;0.0497441;0.0347409;0.0560956;0;0.0911436;8.21832;5.55061
505000;506;26.9973;1.23914;0.0481069;-2.32286;26.897;0.106517;-0.230461;1.23757;-0.729852;-0.49127;-0.0704954;-0.47374;0.686109;-7.68072;-0.00858313;0.000413358;0.0435235;0.0435268;-0.00858641;0.0260566;0.197207;5.07081;0.0322631;0.0347421;5.06926;0.197267;87.5347;132.535;-0.00371335;-0.00858439;-0.000868414;0.00163113;0.0435232;0.00951424;0.00222711;0;0.0339725;-0.720262;-1.30242;-1.20691;1.91617;-7.61687;-0.00854844;0.000208532;0.0503789;0.0503796;-0.00854918;0.0294644;0.169683;5.89335;0.036769;0.0392859;5.89292;0.169695;98.8738;143.874;-0.0130566;-0.00857037;0.00741975;-0.00659814;0.0503527;0.0332877;0.0586852;0;0.0967231;8.20414;5.55829
506000;507;27.0051;1.24698;0.0484111;-2.32441;26.9047;0.10344;-0.232011;1.24531;-0.73293;-0.492302;-0.0670327;-0.476522;0.688424;-7.6835;-0.00873612;0.000296891;0.0434983;0.0435;-0.0087378;0.0261189;0.200838;4.97914;0.0323089;0.0348252;4.97837;0.200869;87.77;132.77;-0.00391973;-0.00873712;-0.000910606;0.00144394;0.0434979;0.00903677;0.00229992;0;0.0297686;-0.722466;-1.30582;-1.21143;1.92216;-7.62139;-0.00866016;0.000695574;0.0516211;0.0516291;-0.00866819;0.0301486;0.167764;5.96075;0.0376429;0.0401982;5.95616;0.167894;98.4442;143.444;-0.0103529;-0.00868005;0.00813577;-0.00631817;0.0515898;0.028562;0.0629353;0;0.0864781;8.1927;5.56506
507000;508;27.0115;1.25338;0.0486594;-2.32462;26.9111;0.0962012;-0.232217;1.25174;-0.740168;-0.492667;-0.0645971;-0.474774;0.687244;-7.68175;-0.00885803;0.000310607;0.0438741;0.0438759;-0.00885986;0.0263679;0.201897;4.95303;0.0326076;0.0351572;4.95221;0.20193;87.7075;132.708;-0.00399528;-0.00885911;-0.000938583;0.00149669;0.0438737;0.0100738;0.00310435;0;0.0280053;-0.723753;-1.30977;-1.21186;1.9256;-7.61932;-0.00838088;0.0010772;0.0528694;0.0528884;-0.00839982;0.0306441;0.15852;6.30834;0.0383666;0.0408588;6.29637;0.158822;97.7756;142.776;-0.0117149;-0.00839793;0.00849941;-0.00591328;0.0528357;0.0375018;0.0690351;0;0.0893824;8.19272;5.56839
508000;509;27.0183;1.26018;0.0489237;-2.32609;26.9178;0.0973523;-0.233688;1.25844;-0.739017;-0.490702;-0.0620993;-0.477961;0.687817;-7.68494;-0.00852081;0.000725226;0.0443161;0.044326;-0.00853076;0.0264284;0.192274;5.20092;0.0327665;0.0352379;5.19602;0.192455;87.1196;132.12;-0.00343801;-0.00852261;-0.000643568;0.00202476;0.0443161;0.00829413;0.000378145;0;0.0302737;-0.722396;-1.3151;-1.21484;1.93059;-7.6248;-0.00903957;0.000395026;0.0523681;0.0523707;-0.00904211;0.0307064;0.172616;5.79321;0.0382854;0.0409419;5.79186;0.172656;98.8739;143.874;-0.0118952;-0.00906276;0.00802599;-0.00679067;0.0523376;0.0270027;0.0621237;0;0.0936608;8.20092;5.5735
509000;510;27.0258;1.26764;0.0492132;-2.32647;26.9253;0.0981115;-0.234065;1.26589;-0.738258;-0.491735;-0.0589774;-0.479202;0.689142;-7.68618;-0.00880237;0.000312332;0.0439927;0.0439945;-0.00880421;0.0263994;0.200087;4.99782;0.0326624;0.0351991;4.99698;0.200121;87.7174;132.717;-0.00342842;-0.00880345;-0.000935932;0.00149747;0.0439923;0.00731894;0.00237809;0;0.0344898;-0.724016;-1.32064;-1.21567;1.93549;-7.62562;-0.00932443;-7.6104e-05;0.0532382;0.0532383;-0.00932452;0.0312814;0.175145;5.70954;0.038974;0.0417086;5.70949;0.175147;99.0403;144.04;-0.0140334;-0.00935007;0.00742032;-0.00712724;0.0532121;0.0326559;0.0638573;0;0.0944413;8.21619;5.58276
510000;511;27.0342;1.27603;0.0495389;-2.32892;26.9335;0.104315;-0.236517;1.27408;-0.732055;-0.492038;-0.0581302;-0.474821;0.686247;-7.6818;-0.00895458;0.000333084;0.0442238;0.0442259;-0.00895666;0.0265913;0.202483;4.93868;0.0328787;0.035455;4.93776;0.202521;87.6032;132.603;-0.00349339;-0.00895578;-0.000979138;0.00157848;0.0442234;0.00811098;0.00355251;0;0.0303441;-0.72593;-1.32791;-1.21283;1.9394;-7.62279;-0.00910475;0.000203673;0.0534923;0.053493;-0.00910541;0.0312992;0.170207;5.87521;0.0390526;0.0417323;5.87486;0.170217;98.9598;143.96;-0.01431;-0.00912999;0.00794219;-0.00707504;0.0534624;0.0368761;0.0624449;0;0.0936016;8.21916;5.58947
511000;512;27.044;1.28581;0.0499184;-2.33093;26.9431;0.104852;-0.238527;1.28372;-0.731517;-0.490397;-0.0530555;-0.480114;0.688341;-7.68709;-0.00871558;0.000550824;0.0444364;0.0444421;-0.00872128;0.0265817;0.196136;5.0985;0.0329225;0.0354422;5.09582;0.196239;87.3289;132.329;-0.00345027;-0.00871713;-0.000804303;0.00183699;0.0444362;0.00796338;0.00319254;0;0.0316137;-0.725985;-1.33332;-1.21416;1.94396;-7.62412;-0.0087777;0.00036195;0.0535941;0.0535962;-0.0087798;0.031188;0.163781;6.10571;0.0389883;0.041584;6.10449;0.163814;99.6751;144.675;-0.0150559;-0.00880786;0.00897482;-0.00774107;0.0535559;0.0308535;0.0634685;0;0.0911025;8.2176;5.59526
512000;513;27.0493;1.29117;0.0501266;-2.33056;26.9485;0.100883;-0.238162;1.28914;-0.735487;-0.492349;-0.0504392;-0.483779;0.692094;-7.69076;-0.0089958;0.000181042;0.0450864;0.045087;-0.00899641;0.0270417;0.199524;5.01194;0.0334624;0.0360556;5.01167;0.199534;87.9608;132.961;-0.00412556;-0.00899669;-0.00103686;0.00133592;0.0450859;0.00932365;0.00270232;0;0.0283036;-0.727156;-1.33871;-1.22034;1.95195;-7.6303;-0.00854357;-0.000148077;0.0525983;0.0525987;-0.00854392;0.0305713;0.16243;6.15648;0.0382333;0.0407617;6.15627;0.162436;100.374;145.374;-0.0133538;-0.00857841;0.00852037;-0.00831299;0.0525638;0.0275484;0.0561953;0;0.0904447;8.22156;5.60217
513000;514;27.0622;1.30405;0.0506269;-2.33245;26.9613;0.11202;-0.240045;1.30187;-0.724349;-0.492567;-0.0497526;-0.475551;0.686474;-7.68253;-0.00913062;0.000161512;0.0452396;0.0452401;-0.0091311;0.0271856;0.201828;4.95471;0.0336196;0.0362474;4.9545;0.201837;87.9918;132.992;-0.0036729;-0.00913148;-0.00105097;0.00131092;0.0452391;0.0082063;0.00168001;0;0.0291255;-0.727818;-1.34706;-1.21054;1.95185;-7.62049;-0.00896258;-9.92577e-05;0.0524955;0.0524957;-0.00896274;0.0307292;0.170731;5.85718;0.0383355;0.0409723;5.8571;0.170733;99.5586;144.559;-0.0124054;-0.00899102;0.00776869;-0.00750777;0.0524668;0.0308792;0.0558223;0;0.0935503;8.22566;5.60948
514000;515;27.0718;1.31363;0.0509986;-2.33303;26.9708;0.107021;-0.240627;1.31145;-0.729348;-0.492486;-0.0429973;-0.486949;0.69391;-7.69393;-0.00908554;0.000554792;0.0456113;0.0456169;-0.00909117;0.027354;0.199195;5.02021;0.0338511;0.0364721;5.01772;0.199294;87.6786;132.679;-0.0031197;-0.00908677;-0.000606714;0.00165554;0.0456113;0.00692388;0.00132301;0;0.0244442;-0.728987;-1.34965;-1.22536;1.96328;-7.6396;-0.00861564;0.000462838;0.0534641;0.0534675;-0.00861909;0.0310433;0.161148;6.20547;0.0388382;0.0413911;6.20339;0.161202;98.8977;143.898;-0.00933612;-0.0086406;0.00844586;-0.00704978;0.0534303;0.0237127;0.053034;0;0.0887315;8.22261;5.61727
515000;516;27.0816;1.32349;0.0513816;-2.33394;26.9807;0.103772;-0.241534;1.32129;-0.732598;-0.492106;-0.0411773;-0.48294;0.690721;-7.68992;-0.00926371;0.00058876;0.0461744;0.0461806;-0.00926997;0.0277253;0.200624;4.98444;0.0342972;0.0369671;4.98175;0.200733;87.523;132.523;-0.00271504;-0.00926514;-0.00067241;0.0017831;0.0461743;0.00630785;0.000676861;0;0.0300032;-0.729095;-1.35497;-1.22244;1.96517;-7.6324;-0.00896358;0.000533084;0.0532198;0.0532243;-0.00896814;0.0310962;0.168426;5.93734;0.0388191;0.0414616;5.93482;0.168497;98.1687;143.169;-0.0112507;-0.00898354;0.00780865;-0.00631295;0.0531909;0.0302577;0.0575071;0;0.0947627;8.22199;5.62446
516000;517;27.0896;1.33144;0.0516899;-2.33419;26.9886;0.0990918;-0.241791;1.32926;-0.737278;-0.493131;-0.0379787;-0.488805;0.695379;-7.69579;-0.00924764;0.000811825;0.0463345;0.0463464;-0.0092595;0.0278029;0.199584;5.01041;0.034402;0.0370706;5.00528;0.199789;87.4907;132.491;-0.0025011;-0.0092491;-0.000322375;0.00188577;0.0463348;0.00538783;-0.000283719;0;0.0314721;-0.731068;-1.36058;-1.22708;1.97265;-7.63455;-0.00873965;0.00126198;0.0555125;0.0555373;-0.00876443;0.0321509;0.157436;6.3518;0.0402656;0.0428678;6.33667;0.157812;96.9002;141.9;-0.0103308;-0.00875363;0.00837031;-0.0054137;0.0554801;0.0319375;0.0731265;0;0.0914302;8.22747;5.63209
517000;518;27.0957;1.33754;0.0519269;-2.3353;26.9947;0.0959669;-0.2429;1.3353;-0.740403;-0.494266;-0.0375834;-0.481037;0.69073;-7.68802;-0.00962062;0.000449946;0.0469762;0.0469798;-0.0096242;0.028302;0.204798;4.88286;0.0349721;0.037736;4.88142;0.204858;87.8585;132.858;-0.0029609;-0.00962171;-0.000702336;0.00153994;0.046976;0.00622987;-0.000707576;0;0.0327058;-0.733086;-1.36751;-1.21748;1.97225;-7.62494;-0.00924985;0.00121419;0.056122;0.0561445;-0.0092724;0.0327085;0.164817;6.06733;0.0408726;0.0436113;6.05501;0.165152;96.4575;141.458;-0.0115063;-0.00926188;0.00787158;-0.00503117;0.0560933;0.0298556;0.0766626;0;0.0961083;8.22888;5.63972
518000;519;27.102;1.34385;0.0521717;-2.3357;27.001;0.0910459;-0.243301;1.34161;-0.745324;-0.494354;-0.0346871;-0.482793;0.691866;-7.68977;-0.00965387;0.000628737;0.0471162;0.0471232;-0.00966083;0.028392;0.204895;4.88056;0.035082;0.037856;4.87776;0.205012;87.5171;132.517;-0.00198081;-0.00965535;-0.000638573;0.00182734;0.0471162;0.00508882;-0.00180362;0;0.0286072;-0.73366;-1.37237;-1.22307;1.97928;-7.63303;-0.00983196;0.000288374;0.05637;0.0563712;-0.00983322;0.0331022;0.174418;5.73334;0.0412511;0.0441363;5.73273;0.174437;97.9251;142.925;-0.0122122;-0.00985311;0.00750649;-0.0064774;0.0563433;0.0292683;0.0673506;0;0.0948165;8.23658;5.64659
519000;520;27.1084;1.35028;0.0524216;-2.33598;27.0075;0.0869178;-0.243583;1.34806;-0.749452;-0.4945;-0.0297832;-0.490635;0.697237;-7.69762;-0.00988022;0.00106902;0.0468932;0.0469133;-0.00990034;0.0284068;0.210696;4.74617;0.035045;0.0378758;4.73856;0.211035;87.1754;132.175;-0.0020421;-0.00988206;-0.00011346;0.00218736;0.0468938;0.00418349;0.0021659;0;0.0338943;-0.734664;-1.37703;-1.23209;1.98846;-7.64204;-0.00970787;0.000535388;0.0567552;0.0567595;-0.00971218;0.0332359;0.171048;5.84631;0.041458;0.0443145;5.84416;0.171111;97.754;142.754;-0.0129238;-0.00972803;0.00787382;-0.00634153;0.056726;0.0310132;0.0663561;0;0.0963302;8.24325;5.65336
520000;521;27.1152;1.35707;0.0526852;-2.33739;27.0141;0.0893998;-0.244987;1.35475;-0.74697;-0.494505;-0.0278104;-0.488357;0.695558;-7.69534;-0.0098625;0.000914958;0.0473843;0.0473989;-0.00987712;0.028638;0.208139;4.80449;0.0353546;0.038184;4.79886;0.208383;87.2439;132.244;-0.00234692;-0.00986432;-0.000349364;0.00211018;0.0473846;0.00570873;-0.00257125;0;0.0273045;-0.73564;-1.3829;-1.22901;1.99099;-7.63897;-0.00958841;0.000406837;0.0568598;0.0568623;-0.00959091;0.0332266;0.168633;5.93005;0.0414765;0.0443021;5.92877;0.168669;97.7507;142.751;-0.0149199;-0.00960902;0.00767276;-0.00640227;0.056832;0.0272999;0.0675098;0;0.0955556;8.24015;5.65961
521000;522;27.1237;1.36558;0.0530155;-2.33877;27.0225;0.0928884;-0.246368;1.36315;-0.743481;-0.493622;-0.0235046;-0.490768;0.696469;-7.69775;-0.00995556;0.00109559;0.0474711;0.047492;-0.00997646;0.0287342;0.209719;4.76829;0.0354577;0.0383123;4.7604;0.210066;87.0734;132.073;-0.00242272;-0.0099576;-0.000164076;0.00228619;0.0474716;0.00536468;-0.00159407;0;0.0273927;-0.735814;-1.38785;-1.23248;1.99664;-7.64243;-0.00926302;7.63627e-05;0.0566588;0.0566589;-0.00926311;0.032961;0.163488;6.11667;0.0412088;0.043948;6.11662;0.163489;98.1709;143.171;-0.0130754;-0.00928686;0.00748928;-0.00687409;0.0566323;0.024817;0.0628871;0;0.0915202;8.23676;5.66176
522000;523;27.1311;1.37295;0.0533016;-2.3395;27.0299;0.0941419;-0.247097;1.37048;-0.742228;-0.49486;-0.0210986;-0.490992;0.697427;-7.69797;-0.0101046;0.00120997;0.0478526;0.0478778;-0.0101298;0.0290038;0.211161;4.73573;0.0357764;0.0386718;4.72642;0.211577;86.9658;131.966;-0.0025564;-0.0101068;-6.11977e-05;0.00241083;0.0478533;0.0054243;-0.000200213;0;0.0286143;-0.737819;-1.39345;-1.23305;2.00162;-7.643;-0.00910542;5.27128e-05;0.0564944;0.0564944;-0.00910546;0.0327999;0.161174;6.20448;0.0410362;0.0437333;6.20446;0.161175;98.4537;143.454;-0.0130053;-0.00913109;0.00771435;-0.0071332;0.0564662;0.0241248;0.0591428;0;0.0902455;8.24025;5.66719
523000;524;27.1405;1.38239;0.0536682;-2.33996;27.0393;0.097794;-0.24756;1.37991;-0.738576;-0.495506;-0.018185;-0.494748;0.700451;-7.70173;-0.0104195;0.00121329;0.0477172;0.0477425;-0.0104448;0.0290937;0.218359;4.57962;0.0358212;0.0387915;4.57095;0.218773;86.8788;131.879;-0.00166013;-0.0104218;-0.00010247;0.00245605;0.0477179;0.00431559;-0.000306196;0;0.0278537;-0.738511;-1.39993;-1.23557;2.00794;-7.64553;-0.00891067;8.59694e-05;0.0559102;0.0559103;-0.00891079;0.0324105;0.159375;6.27452;0.0405713;0.043214;6.27445;0.159377;98.1833;143.183;-0.0112474;-0.00893419;0.00745251;-0.00682835;0.0558839;0.0241411;0.0581613;0;0.0924424;8.2447;5.67462
524000;525;27.1502;1.39206;0.0540435;-2.34131;27.0489;0.096616;-0.248905;1.3895;-0.739754;-0.494797;-0.0159551;-0.493688;0.699148;-7.70067;-0.0101321;0.00139202;0.0485013;0.0485344;-0.0101652;0.0293498;0.208904;4.78689;0.0362232;0.039133;4.77458;0.209442;86.6228;131.623;-0.0025092;-0.0101349;-2.72754e-05;0.00273194;0.0485023;0.00635463;0.0013472;0;0.0339162;-0.738571;-1.4063;-1.2338;2.01133;-7.64376;-0.00892186;0.000397722;0.0557546;0.055757;-0.00892431;0.0323407;0.16002;6.24921;0.0404754;0.0431209;6.24777;0.160057;97.7215;142.722;-0.0129773;-0.00894198;0.00756266;-0.00632831;0.0557276;0.0291666;0.0632993;0;0.0939279;8.24911;5.68109
525000;526;27.1584;1.40025;0.0543614;-2.34244;27.057;0.0939007;-0.250037;1.39763;-0.742469;-0.495775;-0.0135467;-0.49329;0.699508;-7.70027;-0.010472;0.00138086;0.0485199;0.0485522;-0.0105043;0.0295282;0.215828;4.63332;0.0363786;0.039371;4.62214;0.21635;86.6535;131.654;-0.00270541;-0.0104747;-1.84369e-05;0.00270142;0.0485208;0.0063681;0.000372124;0;0.0294487;-0.740428;-1.41205;-1.23711;2.01806;-7.65135;-0.00889984;0.000720628;0.0567515;0.0567594;-0.00890775;0.0328336;0.156821;6.37668;0.0411316;0.0437781;6.37191;0.156939;96.7588;141.759;-0.00700558;-0.00891506;0.00739471;-0.00553885;0.0567259;0.0233776;0.0573399;0;0.0949914;8.24383;5.68859
526000;527;27.1678;1.40963;0.0547256;-2.34351;27.0663;0.0930098;-0.251111;1.40696;-0.74336;-0.494633;-0.00962579;-0.4966;0.700975;-7.70358;-0.010174;0.00162413;0.0488387;0.0488833;-0.0102186;0.029551;0.208318;4.80036;0.0364754;0.0394013;4.78374;0.209041;86.3499;131.35;-0.00260719;-0.0101772;0.000152945;0.00301254;0.0488399;0.0061215;-0.000211354;0;0.0280071;-0.740491;-1.41659;-1.23814;2.02189;-7.64992;-0.00884313;0.00144037;0.0583629;0.0583938;-0.00887398;0.0336339;0.15152;6.59981;0.0421994;0.0448452;6.58034;0.151968;95.4718;140.472;-0.00947293;-0.00885189;0.00768665;-0.00440932;0.058336;0.0325055;0.0737797;0;0.0929933;8.25155;5.69601
527000;528;27.1756;1.41743;0.0550282;-2.3429;27.0742;0.0880592;-0.250502;1.41485;-0.74831;-0.496053;-0.00528419;-0.503329;0.706709;-7.71031;-0.0105496;0.00185088;0.0490192;0.0490766;-0.010607;0.0298418;0.215213;4.64656;0.036767;0.0397891;4.62681;0.216132;85.9172;130.917;-0.00231647;-0.0105536;0.000223874;0.00338549;0.0490208;0.00550333;-0.000835425;0;0.0290561;-0.741784;-1.42185;-1.23835;2.02618;-7.6483;-0.0095452;0.000602044;0.0581924;0.0581977;-0.00955055;0.0338741;0.164028;6.09651;0.0423426;0.0451655;6.09365;0.164105;96.4614;141.461;-0.0110692;-0.00955964;0.00699627;-0.0053829;0.0581694;0.0260192;0.068587;0;0.09554;8.25569;5.70409
528000;529;27.1819;1.4238;0.0552759;-2.34361;27.0806;0.0790471;-0.251207;1.42122;-0.757322;-0.497522;-0.00250248;-0.499353;0.704903;-7.70633;-0.0106556;0.00168944;0.0499304;0.0499774;-0.0107027;0.0303401;0.213409;4.68583;0.0373998;0.0404534;4.66962;0.21415;86.5361;131.536;-0.0017387;-0.0106586;0.000343169;0.00295803;0.0499317;0.00479655;-0.00323238;0;0.0277871;-0.743866;-1.42608;-1.24064;2.03131;-7.6506;-0.00974634;0.000430415;0.0593613;0.059364;-0.00974902;0.0345565;0.164187;6.09062;0.043194;0.0460753;6.08922;0.164225;96.4229;141.423;-0.0107609;-0.00976151;0.00677309;-0.00549851;0.0593397;0.0194618;0.0643796;0;0.100815;8.25555;5.71017
529000;530;27.1908;1.43267;0.0556202;-2.34485;27.0894;0.0795345;-0.252449;1.43002;-0.756835;-0.496308;0.00200814;-0.505153;0.70817;-7.71213;-0.0106473;0.0018647;0.0497821;0.0498396;-0.0107048;0.0302722;0.213877;4.67558;0.0373101;0.0403629;4.65584;0.214784;86.3178;131.318;-0.00148528;-0.0106506;0.000488412;0.00316176;0.0497837;0.00579001;0.000206025;0;0.029248;-0.743634;-1.43034;-1.24658;2.03785;-7.65654;-0.00967564;0.000866963;0.0600336;0.0600444;-0.00968642;0.0348654;0.16117;6.20462;0.0436184;0.0464872;6.19882;0.161321;96.266;141.266;-0.0111991;-0.00968963;0.00750551;-0.00533506;0.0600074;0.0242158;0.0667785;0;0.0961632;8.25974;5.71784
530000;531;27.1984;1.44023;0.0559136;-2.34596;27.0969;0.0780637;-0.25356;1.43751;-0.758306;-0.49621;0.00317182;-0.501342;0.705392;-7.70832;-0.0107442;0.00176103;0.0501398;0.0501907;-0.0107951;0.0304929;0.214284;4.66671;0.0375793;0.0406572;4.64942;0.215081;86.2396;131.24;-0.00122866;-0.0107478;0.000238249;0.00319552;0.0501413;0.00398486;0.000138126;0;0.0315005;-0.744509;-1.43706;-1.24389;2.04125;-7.65384;-0.00987233;0.0003861;0.0600011;0.0600032;-0.00987446;0.0349388;0.164536;6.0777;0.0436674;0.0465851;6.0766;0.164566;96.7547;141.755;-0.0129294;-0.00988967;0.00708586;-0.00587203;0.0599775;0.0217042;0.0621577;0;0.101337;8.26161;5.72481
531000;532;27.2057;1.44751;0.0561962;-2.34713;27.1041;0.0769265;-0.254729;1.44472;-0.759443;-0.496963;0.0071484;-0.50528;0.708753;-7.71226;-0.0108533;0.00177319;0.0503206;0.0503719;-0.0109046;0.0306383;0.215683;4.63644;0.0377449;0.040851;4.61931;0.216482;86.343;131.343;-0.00101137;-0.0108567;0.000325192;0.00313684;0.050322;0.00267065;-0.00108358;0;0.0293694;-0.745729;-1.44224;-1.24751;2.04754;-7.65746;-0.00964654;0.000227889;0.0602602;0.0602609;-0.00964728;0.0349541;0.160082;6.24682;0.0437457;0.0466055;6.24641;0.160092;96.9499;141.95;-0.0138714;-0.00966563;0.00705958;-0.00615338;0.0602367;0.0219668;0.0644112;0;0.0973656;8.26294;5.73037
532000;533;27.2154;1.45725;0.0565744;-2.34798;27.1138;0.082529;-0.255578;1.45441;-0.753841;-0.496244;0.0108387;-0.509802;0.711529;-7.71678;-0.010924;0.00225416;0.0510206;0.0511025;-0.0110059;0.0310542;0.214109;4.67052;0.0382682;0.0414056;4.6432;0.215369;85.9863;130.986;-0.00145759;-0.0109279;0.000830606;0.0035938;0.0510227;0.00214224;0.00100695;0;0.0278146;-0.745885;-1.44665;-1.25189;2.05338;-7.66184;-0.00956979;0.00036214;0.0601986;0.0602005;-0.00957167;0.0348861;0.15897;6.29048;0.0436752;0.0465148;6.28944;0.158997;96.4266;141.427;-0.0113685;-0.00958577;0.0067843;-0.00563741;0.060177;0.0167802;0.0635297;0;0.0898894;8.26639;5.73463
533000;534;27.226;1.46787;0.0569865;-2.34869;27.1244;0.0900098;-0.256285;1.46498;-0.74636;-0.497457;0.0142419;-0.510064;0.712623;-7.71704;-0.0111043;0.00190953;0.0518217;0.0518796;-0.0111622;0.0315209;0.21428;4.6668;0.0388454;0.0420279;4.64778;0.215156;86.2735;131.274;-0.00179821;-0.011108;0.000419622;0.00331031;0.0518233;0.00377981;-0.00419111;0;0.0275804;-0.747415;-1.45296;-1.25051;2.05755;-7.66047;-0.00942508;0.000479648;0.059634;0.0596373;-0.00942842;0.0345329;0.158049;6.32716;0.043245;0.0460438;6.32527;0.158096;96.2612;141.261;-0.0101681;-0.00943975;0.0067814;-0.00541142;0.0596124;0.0188466;0.0618905;0;0.0934295;8.26862;5.73979
534000;535;27.2355;1.47735;0.0573546;-2.34922;27.1339;0.084123;-0.25682;1.47446;-0.752247;-0.496729;0.014138;-0.506119;0.709293;-7.7131;-0.0113432;0.00180276;0.0512683;0.0513201;-0.0113951;0.0313576;0.221252;4.51974;0.0385769;0.0418101;4.50372;0.222039;86.3545;131.355;-0.00172134;-0.0113467;0.000336994;0.00318122;0.0512698;0.00230664;-0.00324762;0;0.0290515;-0.747242;-1.46163;-1.24746;2.06177;-7.65742;-0.00898457;0.000719479;0.0591029;0.0591105;-0.00899217;0.0340513;0.152016;6.57827;0.042721;0.0454018;6.57355;0.152125;95.9622;140.962;-0.0105865;-0.00899732;0.00691692;-0.00507957;0.0590805;0.0245359;0.0626764;0;0.0961829;8.27746;5.74831
535000;536;27.2472;1.48901;0.0578075;-2.35046;27.1455;0.084506;-0.258059;1.48607;-0.751864;-0.497572;0.0178934;-0.504047;0.708492;-7.71103;-0.0114905;0.00163155;0.0526336;0.0526751;-0.0115319;0.0321035;0.21831;4.58063;0.0395255;0.0428047;4.56775;0.218926;86.6763;131.676;-0.000984691;-0.0114935;0.00021816;0.00295883;0.0526348;0.00300029;-0.00383703;0;0.0257334;-0.749157;-1.468;-1.24692;2.06666;-7.66115;-0.0091088;0.000731469;0.0599252;0.059933;-0.00911655;0.0345248;0.152003;6.57883;0.0433151;0.046033;6.57408;0.152112;95.3735;140.374;-0.0100395;-0.00911923;0.00643992;-0.0046052;0.0599059;0.0305304;0.063934;0;0.0992772;8.27712;5.7553
536000;537;27.2568;1.49868;0.0581827;-2.35033;27.1552;0.0810818;-0.257929;1.49579;-0.755288;-0.500288;0.0238412;-0.513833;0.717552;-7.72081;-0.0119197;0.00215311;0.0529145;0.0529859;-0.0119911;0.0324885;0.225264;4.43924;0.0399258;0.043318;4.41876;0.226308;86.0906;131.091;-0.00049007;-0.0119238;0.000636757;0.0035761;0.0529165;0.00281786;-0.00250196;0;0.0300419;-0.751888;-1.47248;-1.25576;2.07616;-7.67;-0.00938494;0.000955394;0.0606689;0.0606819;-0.00939796;0.0350399;0.154691;6.46449;0.0439237;0.0467199;6.45692;0.154873;94.2606;139.261;-0.0061984;-0.00939089;0.00579401;-0.00356366;0.0606535;0.0279046;0.0602742;0;0.0962379;8.27276;5.76292
537000;538;27.2654;1.50729;0.0585172;-2.35161;27.1637;0.0786254;-0.259213;1.50433;-0.757744;-0.498945;0.0280147;-0.516465;0.718656;-7.72344;-0.012022;0.00212474;0.0525313;0.0526011;-0.0120919;0.0323465;0.228855;4.36958;0.0397164;0.0431287;4.35011;0.229879;86.0579;131.058;-0.00026096;-0.0120262;0.000589844;0.00356549;0.0525332;0.00232779;-0.00264761;0;0.030638;-0.751905;-1.47625;-1.26032;2.08161;-7.67456;-0.00948995;0.000998768;0.0615392;0.0615533;-0.00950399;0.0355286;0.15421;6.48468;0.0445428;0.0473715;6.47657;0.154403;95.3001;140.3;-0.00920547;-0.00950005;0.006981;-0.00458321;0.0615167;0.0207914;0.0637173;0;0.100745;8.2745;5.76931
538000;539;27.2733;1.51517;0.0588231;-2.35295;27.1715;0.077785;-0.260553;1.51213;-0.758585;-0.49796;0.0312978;-0.519647;0.7204;-7.72663;-0.0119421;0.00258163;0.0533482;0.0534501;-0.012044;0.0327471;0.223851;4.46725;0.0402532;0.0436627;4.43791;0.225331;85.6312;130.631;-0.00048706;-0.0119472;0.000974002;0.0040896;0.0533509;0.00112801;-0.00383935;0;0.0328539;-0.751709;-1.48052;-1.26014;2.08445;-7.67009;-0.00990801;0.000867352;0.0619475;0.061958;-0.00991848;0.0359382;0.159942;6.25227;0.0449775;0.0479177;6.24672;0.160084;95.4024;140.402;-0.0105758;-0.00991879;0.00683899;-0.00470025;0.0619259;0.0169368;0.0665461;0;0.098728;8.27357;5.77668
539000;540;27.2797;1.52152;0.0590695;-2.35342;27.1779;0.0758384;-0.261019;1.51846;-0.760531;-0.49876;0.0332844;-0.517973;0.719837;-7.72495;-0.0119852;0.00252748;0.0536007;0.0536979;-0.0120825;0.0328902;0.223602;4.47222;0.0404324;0.0438536;4.44427;0.225009;85.721;130.721;-0.000737452;-0.0119902;0.000936389;0.00401952;0.0536033;0.00183529;-0.00385904;0;0.0272638;-0.753331;-1.48598;-1.26034;2.08905;-7.6703;-0.0100054;0.000851707;0.0629375;0.0629474;-0.0100154;0.0364814;0.158974;6.29035;0.0456709;0.0486419;6.28509;0.159107;94.8346;139.835;-0.0107433;-0.0100142;0.00632627;-0.00424719;0.062919;0.0236682;0.0713107;0;0.100055;8.2743;5.78354
540000;541;27.2867;1.52852;0.0593413;-2.35442;27.1848;0.072668;-0.262014;1.52541;-0.763702;-0.499545;0.0363706;-0.516899;0.719758;-7.72388;-0.0123178;0.00222197;0.05394;0.0540144;-0.0123922;0.0332033;0.228361;4.37904;0.040773;0.0442711;4.35874;0.229424;86.1038;131.104;-0.000397967;-0.012322;0.000705338;0.00364326;0.0539421;0.00175762;-0.00479005;0;0.030102;-0.754563;-1.49045;-1.26178;2.09354;-7.67174;-0.0101813;0.000922148;0.0631394;0.063151;-0.0101929;0.0366719;0.161251;6.20153;0.0458773;0.0488959;6.19561;0.161405;94.4819;139.482;-0.0107057;-0.0101885;0.00609354;-0.00389261;0.0631224;0.0196725;0.0665709;0;0.100482;8.28005;5.79127
541000;542;27.2946;1.5365;0.0596511;-2.35462;27.1928;0.077097;-0.262215;1.53339;-0.759273;-0.499241;0.0400303;-0.524967;0.725557;-7.73195;-0.0121313;0.0023777;0.0547099;0.0547943;-0.0122158;0.0335051;0.22174;4.5098;0.0412095;0.0446734;4.48553;0.222939;85.8658;130.866;1.08317e-06;-0.0121363;0.000729059;0.00392185;0.0547123;0.000475789;-0.0063994;0;0.0278701;-0.754641;-1.49735;-1.26534;2.10062;-7.6753;-0.0100922;0.000681447;0.0628738;0.0628802;-0.0100985;0.0364894;0.160515;6.22996;0.0456601;0.0486525;6.22666;0.1606;95.0939;140.094;-0.0121108;-0.0101023;0.00626784;-0.00452146;0.0628556;0.0185946;0.0683188;0;0.0954435;8.29201;5.79849
542000;543;27.3056;1.54747;0.0600767;-2.35366;27.2038;0.0856044;-0.261263;1.54446;-0.750765;-0.500965;0.0436806;-0.5284;0.729438;-7.73538;-0.0121871;0.00247507;0.0555567;0.055647;-0.0122774;0.0339622;0.219363;4.55866;0.0417959;0.0452829;4.53249;0.220629;85.7604;130.76;0.00021353;-0.0121924;0.000753878;0.00408579;0.0555594;0.00174689;-0.00599538;0;0.0296556;-0.756651;-1.50425;-1.26903;2.10849;-7.67898;-0.00979459;0.000511885;0.0627827;0.0627863;-0.0097982;0.0362922;0.156008;6.40993;0.0454768;0.0483897;6.40794;0.156056;94.6978;139.698;-0.0121396;-0.00980342;0.00558231;-0.00421229;0.0627681;0.0182146;0.0680798;0;0.0986232;8.30442;5.80601
543000;544;27.3121;1.554;0.0603304;-2.35595;27.2102;0.0799987;-0.263544;1.55083;-0.756371;-0.499655;0.0471223;-0.526085;0.727077;-7.73307;-0.0121901;0.00254616;0.0550443;0.0551405;-0.0122864;0.0337135;0.221461;4.51548;0.0414671;0.0449513;4.48793;0.22282;85.7728;130.773;-0.000863843;-0.0121952;0.000916457;0.004072;0.0550469;0.00355314;-0.00667742;0;0.0365846;-0.756475;-1.50951;-1.26833;2.11176;-7.67829;-0.0097048;0.000603207;0.0630917;0.0630967;-0.0097098;0.0364033;0.153821;6.50108;0.0456466;0.0485377;6.49825;0.153888;94.2557;139.256;-0.011341;-0.00971192;0.0053338;-0.00380346;0.0630785;0.0244599;0.0663055;0;0.094508;8.28809;5.81325
544000;545;27.3204;1.56222;0.0606496;-2.35658;27.2184;0.0796476;-0.26418;1.55903;-0.756722;-0.500838;0.0512844;-0.528461;0.729891;-7.73544;-0.0124137;0.00228887;0.0561114;0.0561878;-0.01249;0.0343389;0.221233;4.52013;0.0422419;0.0457852;4.49861;0.222291;85.9872;130.987;-0.00064883;-0.0124186;0.000592749;0.00387493;0.0561137;0.0033497;-0.00641284;0;0.0289883;-0.758203;-1.51303;-1.26691;2.11404;-7.67413;-0.00914932;0.00125245;0.0632002;0.0632219;-0.00917099;0.0361964;0.144767;6.90764;0.045514;0.0482619;6.89368;0.14506;93.4054;138.405;-0.00968035;-0.00915274;0.00569879;-0.00289135;0.0631857;0.02762;0.0650802;0;0.0911546;8.2624;5.81301
545000;546;27.3276;1.56941;0.0609286;-2.35653;27.2257;0.0758287;-0.26413;1.56626;-0.760541;-0.500756;0.0542557;-0.530171;0.731288;-7.73715;-0.0124076;0.00219871;0.0559649;0.0560355;-0.0124782;0.0342569;0.221703;4.51054;0.0421368;0.0456758;4.49066;0.222684;85.8437;130.844;-0.000777388;-0.012413;0.000335073;0.00394166;0.0559671;0.00467038;-0.0064306;0;0.0318371;-0.758348;-1.51761;-1.27335;2.12124;-7.6833;-0.00933846;0.000638417;0.0630191;0.0630247;-0.00934409;0.0361844;0.148185;6.74834;0.0454525;0.0482459;6.74488;0.148261;94.5341;139.534;-0.0105552;-0.00934669;0.00571217;-0.00408999;0.0630039;0.0250489;0.0622206;0;0.0988226;8.2832;5.82108
546000;547;27.3393;1.5812;0.0613862;-2.3571;27.2374;0.0777983;-0.264699;1.57804;-0.758571;-0.500333;0.0566711;-0.531892;0.73243;-7.73887;-0.0123025;0.00210316;0.0564545;0.0565187;-0.0123667;0.0344427;0.217918;4.58887;0.0424068;0.0459236;4.57022;0.218808;85.8021;130.802;6.74535e-05;-0.0123082;0.000105659;0.00397066;0.0564565;0.00394704;-0.0064316;0;0.0307595;-0.759041;-1.52607;-1.27318;2.12744;-7.68495;-0.00896677;0.00169966;0.0641903;0.0642297;-0.00900624;0.036618;0.13969;7.15868;0.046116;0.048824;7.1317;0.140219;92.9932;137.993;-0.00704881;-0.00896837;0.0061696;-0.00246303;0.0641737;0.0257932;0.074189;0;0.0996844;8.29917;5.82786
547000;548;27.3466;1.58845;0.061668;-2.35711;27.2447;0.0738705;-0.264713;1.58533;-0.762499;-0.501241;0.0596278;-0.529064;0.731236;-7.73604;-0.0123205;0.00212911;0.0568369;0.0569024;-0.0123859;0.0346442;0.216769;4.61322;0.0426671;0.0461923;4.59411;0.21767;85.7229;130.723;-0.000207222;-0.0123265;5.81797e-05;0.00406452;0.0568391;0.00429448;-0.00808284;0;0.0306735;-0.760278;-1.53172;-1.27361;2.1322;-7.68785;-0.00977964;0.000831996;0.0644024;0.0644117;-0.00978897;0.0371003;0.151852;6.58535;0.0465485;0.0494671;6.58003;0.151975;93.848;138.848;-0.00660869;-0.00978528;0.00542795;-0.00344366;0.0643888;0.0246202;0.0614338;0;0.108671;8.29339;5.83554
548000;549;27.3558;1.59769;0.0620267;-2.35794;27.2539;0.0779773;-0.26554;1.59452;-0.758392;-0.500381;0.0671097;-0.541975;0.74069;-7.74895;-0.0118978;0.00201973;0.0577956;0.057854;-0.0119563;0.0349052;0.20586;4.85766;0.043111;0.0465402;4.83879;0.206663;85.9406;130.941;7.82929e-05;-0.0119035;-1.95922e-05;0.00392467;0.0577975;0.00415023;-0.0112065;0;0.0397197;-0.760324;-1.53383;-1.28426;2.1401;-7.69849;-0.00999384;0.00090126;0.0649902;0.065001;-0.0100047;0.0375028;0.153775;6.50302;0.047025;0.0500038;6.49707;0.153916;94.2049;139.205;-0.007398;-0.0100007;0.0059548;-0.00379649;0.0649739;0.0147718;0.0622451;0;0.108368;8.29283;5.84252
549000;550;27.3643;1.60614;0.0623546;-2.35929;27.2623;0.0780764;-0.266885;1.60288;-0.758293;-0.500808;0.0677309;-0.537263;0.737596;-7.74424;-0.012107;0.00194113;0.0582447;0.0582982;-0.0121605;0.0352294;0.207865;4.81083;0.0434894;0.0469725;4.79405;0.208592;85.9414;130.941;0.000224147;-0.0121129;-0.000177066;0.0039185;0.0582465;0.0031503;-0.00717904;0;0.0303519;-0.761532;-1.54013;-1.27795;2.14128;-7.6879;-0.00987354;0.00110763;0.0655206;0.0655369;-0.00988981;0.0377133;0.150694;6.63598;0.0473335;0.0502845;6.62671;0.150905;93.4303;138.43;-0.00995328;-0.00987757;0.0055628;-0.00303232;0.0655067;0.0209931;0.0705509;0;0.0991212;8.29895;5.85053
550000;551;27.3719;1.61377;0.0626508;-2.36015;27.2699;0.0727094;-0.267751;1.61048;-0.76366;-0.50141;0.0725431;-0.541225;0.74135;-7.74821;-0.0118432;0.00161922;0.0587507;0.0587878;-0.0118803;0.035334;0.201583;4.96073;0.0436937;0.0471121;4.94836;0.202087;86.218;131.218;-0.000236135;-0.0118485;-0.000526105;0.00362151;0.0587518;0.00521157;-0.0109052;0;0.0361302;-0.763336;-1.54321;-1.28298;2.14714;-7.69094;-0.00972926;0.00171093;0.0663046;0.0663431;-0.00976774;0.0380554;0.146736;6.81497;0.0478183;0.0507406;6.79207;0.147231;92.978;137.978;-0.00951218;-0.00973092;0.00623799;-0.00249335;0.0662877;0.0175529;0.0690681;0;0.0967614;8.29829;5.85776
551000;552;27.379;1.62085;0.0629256;-2.36062;27.2769;0.0732102;-0.26822;1.61755;-0.763159;-0.501408;0.0749181;-0.540577;0.741111;-7.74756;-0.0119474;0.00173672;0.0591126;0.059155;-0.0119898;0.0355724;0.202113;4.94773;0.0439815;0.0474299;4.93376;0.202685;85.9773;130.977;-0.000180471;-0.0119535;-0.000557231;0.00387675;0.0591139;0.00320085;-0.00921392;0;0.0404849;-0.763773;-1.54891;-1.28213;2.15089;-7.6893;-0.010152;0.00131177;0.0673433;0.0673655;-0.0101742;0.0387699;0.15075;6.63348;0.0486576;0.0516931;6.62119;0.15103;92.8999;137.9;-0.00988677;-0.0101544;0.00546057;-0.00253582;0.0673301;0.0140747;0.0611651;0;0.100801;8.29928;5.86522
552000;553;27.3927;1.63451;0.0634562;-2.36058;27.2906;0.0814382;-0.268181;1.63124;-0.754931;-0.501681;0.0794845;-0.544536;0.744661;-7.75152;-0.0118494;0.00134768;0.0594787;0.0595042;-0.0118749;0.0356895;0.199221;5.01954;0.0441632;0.0475861;5.01093;0.199564;86.342;131.342;1.39618e-05;-0.0118546;-0.000927453;0.00346963;0.0594792;0.00546848;-0.00811321;0;0.0380169;-0.764751;-1.55281;-1.28532;2.15595;-7.69249;-0.0100529;0.00109835;0.0670953;0.0671109;-0.0100685;0.0385897;0.14983;6.67425;0.0484468;0.0514529;6.66544;0.150028;92.8565;137.856;-0.0105183;-0.0100555;0.00502179;-0.00254145;0.067084;0.0133535;0.061557;0;0.105464;8.30295;5.87197
553000;554;27.4002;1.64202;0.0637476;-2.36128;27.2981;0.0848781;-0.268878;1.63871;-0.751491;-0.502154;0.0834096;-0.548041;0.747974;-7.75502;-0.0116819;0.00133984;0.0600088;0.0600338;-0.0117069;0.0358704;0.194669;5.13692;0.0444418;0.0478272;5.12807;0.195005;86.364;131.364;-0.00144337;-0.0116871;-0.000960507;0.0034846;0.0600092;0.00669515;-0.00857721;0;0.0307388;-0.765672;-1.55945;-1.28937;2.16347;-7.69933;-0.0101842;0.000675365;0.066358;0.0663639;-0.0101902;0.038277;0.153474;6.51576;0.0480012;0.0510361;6.51254;0.15355;92.8273;137.827;-0.0134244;-0.0101873;0.00417621;-0.0025742;0.06635;0.0249634;0.0690814;0;0.104198;8.30621;5.8784
554000;555;27.4108;1.65261;0.0641588;-2.36274;27.3086;0.0850757;-0.270341;1.64921;-0.751294;-0.502307;0.0880894;-0.547466;0.748192;-7.75445;-0.0118517;0.00102896;0.0602246;0.0602393;-0.0118663;0.0360528;0.196791;5.08153;0.0446438;0.0480704;5.07648;0.196987;86.7382;131.738;-0.000916113;-0.0118559;-0.00116431;0.00307313;0.0602244;0.00566072;-0.00979697;0;0.0317918;-0.766695;-1.56378;-1.28895;2.16671;-7.6989;-0.00979085;0.0008291;0.066016;0.0660251;-0.00979992;0.0379125;0.14831;6.74262;0.0476207;0.05055;6.73731;0.148427;92.9826;137.983;-0.0097748;-0.00979418;0.00462561;-0.00269744;0.0660063;0.0229602;0.064509;0;0.107622;8.3097;5.88217
555000;556;27.4238;1.66566;0.0646655;-2.36331;27.3216;0.088135;-0.270903;1.66225;-0.748235;-0.502268;0.0911075;-0.550241;0.750559;-7.75722;-0.0118387;0.00110429;0.0607409;0.0607577;-0.0118555;0.0363066;0.194904;5.13072;0.0449808;0.0484088;5.12487;0.195127;86.8473;131.847;-0.00130471;-0.0118427;-0.000965582;0.00303253;0.0607411;0.00586588;-0.00951285;0;0.0331024;-0.767225;-1.572;-1.2899;2.1734;-7.69986;-0.0095262;0.000960152;0.0667374;0.0667495;-0.00953829;0.0381439;0.142742;7.00567;0.0479961;0.0508585;6.99806;0.142897;92.6746;137.675;-0.0108029;-0.00952868;0.00459497;-0.00241482;0.0667279;0.0247073;0.0686486;0;0.103115;8.31674;5.89352
556000;557;27.4335;1.67538;0.0650428;-2.36362;27.3314;0.0889389;-0.271215;1.67198;-0.747431;-0.502532;0.0928142;-0.547929;0.749252;-7.75491;-0.0119849;0.00123216;0.0613276;0.0613483;-0.0120056;0.0366769;0.195423;5.11709;0.0454326;0.0489026;5.10999;0.195695;86.826;131.826;-0.00111633;-0.011989;-0.000793276;0.00311767;0.061328;0.0055141;-0.0100447;0;0.0289072;-0.768027;-1.57944;-1.29241;2.18055;-7.70665;-0.00977044;0.00109706;0.0672995;0.0673151;-0.00978605;0.0385506;0.145179;6.88807;0.0484692;0.0514008;6.87868;0.145377;92.2983;137.298;-0.0100801;-0.00977187;0.00444756;-0.0020115;0.0672908;0.0310257;0.0666582;0;0.105876;8.30996;5.89521
557000;558;27.4413;1.68316;0.0653449;-2.36417;27.3392;0.0823967;-0.271766;1.67976;-0.753973;-0.50303;0.0965197;-0.54531;0.748143;-7.75229;-0.0121824;0.00128611;0.0614928;0.0615153;-0.0122049;0.0368601;0.198112;5.04766;0.0456259;0.0491468;5.04021;0.198404;86.8577;131.858;-0.00125121;-0.0121865;-0.000674976;0.00311107;0.0614934;0.00528859;-0.00987177;0;0.0468723;-0.769759;-1.58366;-1.29073;2.18323;-7.70251;-0.00887132;0.00169256;0.067442;0.0674796;-0.00890884;0.0381942;0.13154;7.60225;0.048231;0.0509256;7.57445;0.132023;92.1439;137.144;-0.00849977;-0.00887148;0.00543622;-0.00178348;0.0674295;0.020997;0.0773701;0;0.107351;8.30996;5.90127
558000;559;27.4504;1.69228;0.0656986;-2.3658;27.3482;0.0783487;-0.273403;1.68878;-0.758021;-0.503057;0.101518;-0.556014;0.756653;-7.76299;-0.0118556;0.000944969;0.0616097;0.0616219;-0.0118677;0.0367448;0.19243;5.19669;0.0455554;0.0489931;5.19239;0.192589;87.1618;132.162;-0.00109803;-0.0118589;-0.000995891;0.00275151;0.0616097;0.00579815;-0.00814584;0;0.03748;-0.77017;-1.58759;-1.2993;2.1913;-7.70926;-0.0103707;0.00101481;0.0682193;0.0682324;-0.0103838;0.0393081;0.15202;6.5781;0.0493153;0.0524108;6.57106;0.152182;92.4106;137.411;-0.0124788;-0.0103725;0.00442687;-0.00214622;0.0682106;0.0232339;0.0684837;0;0.109192;8.30919;5.90935
559000;560;27.4596;1.70146;0.0660551;-2.36695;27.3573;0.0781084;-0.274549;1.6979;-0.758261;-0.50299;0.104335;-0.554688;0.756018;-7.76167;-0.0119957;0.000965313;0.0614319;0.0614446;-0.0120084;0.0367265;0.195268;5.12116;0.0454972;0.0489687;5.11681;0.195434;87.1321;132.132;-0.00141373;-0.0119991;-0.000975199;0.00277158;0.0614319;0.00616659;-0.00907508;0;0.0321857;-0.770874;-1.59256;-1.3006;2.19592;-7.71055;-0.0100207;0.00126029;0.0687593;0.0687795;-0.0100409;0.0394102;0.145736;6.86173;0.0495403;0.0525469;6.84996;0.145986;92.899;137.899;-0.0114918;-0.0100234;0.0054666;-0.00263599;0.0687461;0.0203848;0.0680712;0;0.101876;8.31379;5.9158
560000;561;27.4654;1.70723;0.0662793;-2.36839;27.363;0.0725157;-0.275991;1.70358;-0.763854;-0.504072;0.106311;-0.553157;0.755892;-7.76014;-0.0119967;0.00090473;0.0619147;0.0619258;-0.0120078;0.0369668;0.193762;5.16096;0.0458141;0.0492891;5.15712;0.193907;87.1867;132.187;-0.0017983;-0.0120001;-0.001053;0.00272619;0.0619146;0.00774958;-0.00570943;0;0.0352086;-0.773241;-1.59821;-1.29969;2.20031;-7.70765;-0.00966451;0.00169652;0.0697492;0.0697854;-0.00970074;0.0397431;0.138561;7.21705;0.0500714;0.0529908;7.19383;0.139008;92.1285;137.129;-0.0141373;-0.0096647;0.00547467;-0.00180118;0.0697365;0.0244339;0.0760821;0;0.0968081;8.31744;5.92383
561000;562;27.4748;1.71666;0.0666452;-2.36785;27.3725;0.0719115;-0.275448;1.71309;-0.764458;-0.504006;0.109219;-0.552082;0.755477;-7.75906;-0.0123495;0.00089245;0.0616092;0.06162;-0.0123603;0.0369901;0.200449;4.9888;0.0457599;0.0493202;4.98533;0.200589;87.2459;132.246;-0.000922009;-0.0123526;-0.000993713;0.00264721;0.0616091;0.00656647;-0.00530367;0;0.0356936;-0.773291;-1.60385;-1.29942;2.20428;-7.70938;-0.0102797;0.000962351;0.0690222;0.0690339;-0.0102914;0.0396626;0.148933;6.71442;0.0498087;0.0528835;6.70794;0.149077;92.5908;137.591;-0.0112317;-0.0102821;0.00458042;-0.00238733;0.0690129;0.0130234;0.0731844;0;0.105244;8.31715;5.931
562000;563;27.4844;1.72629;0.0670193;-2.36895;27.382;0.0788527;-0.27655;1.72265;-0.757517;-0.503723;0.112585;-0.555405;0.758213;-7.76239;-0.0122575;0.000892954;0.0623027;0.0623133;-0.0122682;0.0372908;0.196742;5.08281;0.0461781;0.049721;5.07925;0.196879;87.0719;132.072;-0.00114151;-0.0122612;-0.00119181;0.00283139;0.0623024;0.00640348;-0.00504825;0;0.0380368;-0.774395;-1.61114;-1.30487;2.21317;-7.71814;-0.010963;0.000205724;0.0684786;0.0684791;-0.0109635;0.0397213;0.160094;6.24633;0.0497119;0.0529618;6.24608;0.160101;92.3588;137.359;-0.00891114;-0.0109656;0.00290207;-0.00229015;0.0684747;0.0169536;0.0656619;0;0.114864;8.32133;5.93887
563000;564;27.4879;1.72971;0.067152;-2.36847;27.3855;0.0786682;-0.276071;1.72612;-0.757701;-0.504906;0.118241;-0.561725;0.76449;-7.76871;-0.0121427;0.000779331;0.0612336;0.0612419;-0.0121509;0.0366964;0.198301;5.04285;0.0454232;0.0489285;5.04009;0.198409;87.1561;132.156;-0.000269809;-0.012146;-0.0012576;0.00267542;0.0612331;0.00577396;-0.00484564;0;0.0359502;-0.775873;-1.61317;-1.30865;2.2174;-7.71588;-0.0101285;0.00160456;0.0704234;0.0704553;-0.0101605;0.0403079;0.143823;6.95297;0.0506976;0.0537439;6.93425;0.144212;90.6656;135.666;-0.011935;-0.0101273;0.00364215;-0.000279699;0.0704184;0.0243537;0.066335;0;0.102573;8.32502;5.94547
564000;565;27.4978;1.73964;0.0675374;-2.36975;27.3954;0.0806576;-0.277348;1.73597;-0.755712;-0.504135;0.120583;-0.558806;0.762205;-7.76579;-0.0120875;0.000731796;0.0616672;0.0616745;-0.0120948;0.0368846;0.196012;5.10172;0.0456847;0.0491795;5.09926;0.196107;87.2402;132.24;7.77431e-05;-0.0120907;-0.00128553;0.00260898;0.0616667;0.0049216;-0.00408699;0;0.0428924;-0.775801;-1.62075;-1.30685;2.22184;-7.71681;-0.0100133;0.000891073;0.0698246;0.0698345;-0.0100233;0.0399289;0.143407;6.97315;0.0502319;0.0532386;6.96723;0.143529;91.766;136.766;-0.0136919;-0.0100142;0.003584;-0.0016009;0.069819;0.0250352;0.0746725;0;0.114632;8.3253;5.95276
565000;566;27.5097;1.75151;0.0679983;-2.3688;27.4074;0.0800286;-0.2764;1.74797;-0.756341;-0.504043;0.124239;-0.56529;0.767494;-7.77227;-0.0120604;0.00111917;0.0623142;0.062331;-0.0120773;0.0372041;0.193542;5.16683;0.04611;0.0496055;5.16102;0.19376;86.9418;131.942;2.13129e-05;-0.0120644;-0.000931385;0.00302616;0.0623143;0.00548874;-0.00411753;0;0.0352659;-0.776179;-1.62791;-1.31185;2.23013;-7.7218;-0.00999008;0.00121202;0.0696614;0.0696798;-0.0100085;0.0398442;0.143409;6.97306;0.0501236;0.0531256;6.96205;0.143636;91.167;136.167;-0.0111555;-0.00998974;0.00348699;-0.000893554;0.0696564;0.0275342;0.0728078;0;0.107081;8.32487;5.95775
566000;567;27.5171;1.75897;0.0682878;-2.36993;27.4147;0.079634;-0.277529;1.75536;-0.756736;-0.504585;0.127034;-0.559271;0.76389;-7.76625;-0.01218;0.000817072;0.0619772;0.0619862;-0.012189;0.0370876;0.196523;5.08846;0.0459295;0.0494501;5.08544;0.19664;87.0986;132.099;-0.000885817;-0.0121835;-0.00128292;0.00277042;0.0619768;0.00882897;-0.00575291;0;0.0267037;-0.777271;-1.63322;-1.30829;2.2323;-7.71824;-0.00966691;0.000846406;0.0696012;0.0696102;-0.00967595;0.0396431;0.13889;7.19994;0.0499455;0.0528575;7.19415;0.139002;91.976;136.976;-0.010993;-0.00966826;0.00374988;-0.00184189;0.069595;0.021006;0.0781095;0;0.112962;8.32475;5.96015
567000;568;27.5262;1.76809;0.068642;-2.37178;27.4238;0.0731921;-0.279382;1.76437;-0.763177;-0.504313;0.132148;-0.568175;0.771115;-7.77516;-0.0121;0.000911411;0.0624234;0.0624345;-0.0121111;0.0372728;0.193837;5.15897;0.0461923;0.0496971;5.15515;0.193981;86.9314;131.931;-0.000741048;-0.012104;-0.00130351;0.00297096;0.0624229;0.00816875;-0.00566156;0;0.030901;-0.778173;-1.63954;-1.31615;2.24185;-7.73039;-0.009896;0.00105886;0.0704631;0.0704771;-0.00990995;0.0401935;0.140442;7.12036;0.0506125;0.0535913;7.11175;0.140612;91.8782;136.878;-0.0107972;-0.0098969;0.00404712;-0.00170509;0.070456;0.0226874;0.0730743;0;0.112237;8.32466;5.96781
568000;569;27.5339;1.77571;0.0689377;-2.37214;27.4314;0.0708141;-0.279738;1.77199;-0.765555;-0.503649;0.133653;-0.561721;0.766196;-7.7687;-0.0121586;0.000990653;0.0628502;0.0628633;-0.0121717;0.0375175;0.193453;5.16921;0.0465001;0.0500233;5.16473;0.193621;86.8143;131.814;-0.000247286;-0.012163;-0.00129928;0.00311898;0.0628499;0.00713301;-0.00589931;0;0.0355593;-0.778051;-1.64581;-1.31221;2.24409;-7.72645;-0.010233;0.00108914;0.0711992;0.0712138;-0.0102475;0.0407307;0.143723;6.95782;0.0512344;0.0543075;6.94935;0.143898;92.0978;137.098;-0.0120522;-0.0102343;0.00436499;-0.00193769;0.0711909;0.0205968;0.0715313;0;0.111357;8.32724;5.97495
569000;570;27.5426;1.78442;0.0692758;-2.37322;27.44;0.0657423;-0.280817;1.78066;-0.770627;-0.504737;0.13827;-0.567118;0.771687;-7.7741;-0.0120173;0.00118598;0.0631242;0.0631429;-0.0120361;0.0375895;0.190376;5.25276;0.046628;0.0501193;5.24614;0.190616;86.6405;131.64;-0.00080663;-0.0120223;-0.0011485;0.00335546;0.0631242;0.00728845;-0.00671158;0;0.0317912;-0.780933;-1.64933;-1.31935;2.25185;-7.73134;-0.00977482;0.00250128;0.0727142;0.0727899;-0.00985059;0.0413203;0.134428;7.43893;0.0521214;0.0550937;7.3894;0.135329;90.8433;135.843;-0.0130556;-0.00977171;0.00554841;-0.000311548;0.0727027;0.0283102;0.0713775;0;0.0988194;8.33192;5.98242
570000;571;27.5531;1.795;0.0696866;-2.37435;27.4506;0.0632283;-0.281949;1.79119;-0.773141;-0.505692;0.142812;-0.563927;0.7708;-7.77091;-0.0122972;0.000819983;0.0634701;0.0634789;-0.0123061;0.0378925;0.193748;5.16135;0.0469619;0.0505233;5.15834;0.193861;86.8903;131.89;-0.00083038;-0.0123015;-0.00155099;0.00302203;0.0634693;0.00791263;-0.00749572;0;0.0348772;-0.782321;-1.65297;-1.31448;2.25216;-7.72444;-0.0106155;0.000920887;0.0720078;0.072018;-0.0106258;0.0413219;0.147422;6.78327;0.0519177;0.0550959;6.77768;0.147543;91.8115;136.811;-0.0120259;-0.0106165;0.00374223;-0.00168302;0.0720016;0.0159275;0.0736915;0;0.101351;8.32955;5.9901
571000;572;27.5613;1.80318;0.0700042;-2.37542;27.4587;0.0668823;-0.283021;1.79929;-0.769487;-0.504979;0.145815;-0.572937;0.777511;-7.77992;-0.0121254;0.000976467;0.063673;0.0636856;-0.012138;0.0379118;0.190433;5.25119;0.0470281;0.0505491;5.24678;0.190593;86.6493;131.649;-0.000231635;-0.0121305;-0.00153108;0.00330532;0.0636723;0.00724425;-0.00870012;0;0.0423002;-0.782067;-1.65793;-1.32397;2.26125;-7.73393;-0.0104459;0.00109305;0.0725371;0.0725515;-0.0104603;0.0415059;0.144008;6.94405;0.052205;0.0553413;6.93587;0.144178;91.6255;136.626;-0.0122083;-0.0104464;0.00386603;-0.0014654;0.0725307;0.0198958;0.0777983;0;0.101302;8.33182;5.9977
572000;573;27.5685;1.81031;0.0702809;-2.37602;27.4658;0.0661616;-0.283616;1.8064;-0.770208;-0.504121;0.14736;-0.572559;0.776966;-7.77954;-0.0121127;0.000995833;0.0643936;0.0644066;-0.0121257;0.0382661;0.188104;5.3162;0.0474984;0.0510215;5.31158;0.188268;86.9081;131.908;-0.000729487;-0.0121171;-0.00128822;0.00311571;0.0643933;0.00677701;-0.00938752;0;0.0289534;-0.782593;-1.66364;-1.32258;2.26481;-7.72981;-0.0104494;0.00155111;0.0731832;0.073212;-0.0104782;0.0418451;0.142784;7.00357;0.0526494;0.0557934;6.98709;0.143121;91.0002;136;-0.0144095;-0.0104484;0.00397889;-0.000687472;0.073177;0.0241693;0.0754848;0;0.100617;8.332;6.00455
573000;574;27.577;1.81881;0.0706111;-2.37587;27.4743;0.069231;-0.283471;1.81494;-0.767139;-0.505018;0.151819;-0.570494;0.776888;-7.77747;-0.0121703;0.00090841;0.0645682;0.0645789;-0.0121811;0.03838;0.188488;5.30539;0.047635;0.0511733;5.30159;0.188623;86.8163;131.816;-0.000124144;-0.012175;-0.00153743;0.00317794;0.0645674;0.00611399;-0.00954898;0;0.0297585;-0.783573;-1.67032;-1.32466;2.27127;-7.73793;-0.0108558;2.39177e-05;0.0720271;0.0720271;-0.0108559;0.0414415;0.150719;6.63486;0.0520157;0.0552553;6.63486;0.150719;92.099;137.099;-0.0112042;-0.0108583;0.00244979;-0.0022144;0.0720243;0.0253914;0.0659362;0;0.121793;8.33244;6.01166
574000;575;27.5918;1.83361;0.0711856;-2.37884;27.4889;0.0723646;-0.286438;1.82953;-0.764005;-0.505875;0.159016;-0.569202;0.777937;-7.77618;-0.0123956;0.000636731;0.0650305;0.0650357;-0.0124008;0.0387183;0.190612;5.24626;0.0480274;0.0516243;5.24447;0.190677;87.2898;132.29;-0.000143049;-0.012399;-0.00155862;0.00267248;0.0650295;0.00587136;-0.00979062;0;0.0807913;-0.786549;-1.67563;-1.32081;2.27397;-7.73077;-0.0101854;0.00131756;0.0736548;0.0736755;-0.0102061;0.0419408;0.138286;7.2314;0.0528486;0.0559211;7.21876;0.138528;90.9908;135.991;-0.0128681;-0.0101848;0.0035699;-0.000758893;0.0736497;0.0252277;0.0746507;0;0.114735;8.33323;6.01863
575000;576;27.5965;1.83839;0.0713711;-2.37868;27.4937;0.0748394;-0.286276;1.83433;-0.76153;-0.503397;0.158214;-0.575578;0.780852;-7.78256;-0.0122748;0.000972413;0.0656678;0.0656799;-0.0122869;0.0389834;0.186923;5.3498;0.0484049;0.0519779;5.34551;0.187073;86.9776;131.978;-0.000451319;-0.0122792;-0.0013245;0.00310133;0.0656674;0.00698148;-0.00706033;0;0.0463283;-0.784166;-1.68134;-1.32311;2.27869;-7.73307;-0.0100822;0.00126411;0.0735781;0.0735972;-0.0101013;0.0418493;0.137027;7.29782;0.0527553;0.055799;7.28592;0.137251;91.138;136.138;-0.01265;-0.0100818;0.00365182;-0.000937541;0.0735727;0.0296748;0.0739632;0;0.115343;8.3365;6.02572
576000;577;27.6096;1.85148;0.0718794;-2.37885;27.5069;0.0696875;-0.286449;1.84747;-0.766682;-0.504824;0.162857;-0.576668;0.783527;-7.78365;-0.0124947;0.00129885;0.0653071;0.0653288;-0.0125164;0.0389226;0.191322;5.22679;0.0482687;0.0518968;5.21947;0.19159;86.7676;131.768;-0.000184809;-0.0124996;-0.000941253;0.00337534;0.0653075;0.00477463;-0.00613133;0;0.0417946;-0.785495;-1.6867;-1.33036;2.28731;-7.74032;-0.0100354;0.00146225;0.0732218;0.0732474;-0.0100611;0.0416543;0.137055;7.29634;0.0525076;0.055539;7.28027;0.137358;91.108;136.108;-0.0109981;-0.0100347;0.00396894;-0.000849994;0.0732154;0.0218235;0.0750361;0;0.113558;8.33923;6.03026
577000;578;27.6192;1.86109;0.0722524;-2.38047;27.5164;0.0628204;-0.288069;1.85699;-0.773549;-0.505683;0.165437;-0.575049;0.783433;-7.78203;-0.0127934;0.00097882;0.0651314;0.0651437;-0.0128056;0.0389747;0.196424;5.09103;0.0482673;0.0519662;5.08711;0.196575;87.0052;132.005;0.000133239;-0.0127975;-0.00123978;0.0030351;0.0651311;0.0048078;-0.00623896;0;0.038624;-0.787585;-1.69505;-1.33057;2.29432;-7.7448;-0.0100037;0.00136729;0.0736649;0.0736872;-0.0100261;0.0418566;0.1358;7.36375;0.0527852;0.0558088;7.34957;0.136062;91.4627;136.463;-0.0126591;-0.0100036;0.00423583;-0.00127771;0.0736574;0.0227301;0.0779134;0;0.112683;8.33639;6.0337
578000;579;27.6273;1.86916;0.0725656;-2.38165;27.5244;0.0619467;-0.289245;1.86499;-0.774423;-0.506221;0.168813;-0.572811;0.78286;-7.77979;-0.0129651;0.000730034;0.0652726;0.0652794;-0.0129719;0.0391257;0.19863;5.03449;0.0484262;0.0521676;5.03238;0.198713;87.239;132.239;-3.25928e-05;-0.0129686;-0.00143974;0.00274045;0.0652719;0.00530778;-0.00610941;0;0.0365323;-0.788904;-1.69745;-1.32855;2.29538;-7.73616;-0.00934794;0.00243255;0.0750185;0.0750886;-0.00941802;0.0422533;0.124608;8.02514;0.0534756;0.0563377;7.97287;0.125425;90.6752;135.675;-0.0126236;-0.00934497;0.00530433;-0.000213882;0.0750082;0.019887;0.0783119;0;0.107463;8.33934;6.04127
579000;580;27.6333;1.8752;0.0728004;-2.38284;27.5304;0.0553124;-0.29044;1.87097;-0.781057;-0.506024;0.171677;-0.573112;0.783576;-7.78009;-0.0130708;0.000816535;0.065989;0.0659975;-0.0130792;0.0395383;0.198075;5.0486;0.0489441;0.0527178;5.04599;0.198177;87.2735;132.273;-1.1145e-05;-0.0130743;-0.00128939;0.00276627;0.0659886;0.00524846;-0.00534727;0;0.0304919;-0.78899;-1.70343;-1.33275;2.30226;-7.74577;-0.00973871;0.00239005;0.0750253;0.0750926;-0.00980605;0.0424493;0.129806;7.70382;0.0536301;0.0565991;7.65778;0.130586;91.4372;136.437;-0.0110926;-0.0097364;0.00614229;-0.00106636;0.0750104;0.0277924;0.06196;0;0.108871;8.34288;6.0483
580000;581;27.6454;1.88724;0.0732677;-2.38345;27.5424;0.056196;-0.291047;1.883;-0.780174;-0.505257;0.175723;-0.57405;0.784663;-7.78103;-0.0131327;0.000963166;0.0657569;0.0657687;-0.0131445;0.0394566;0.199716;5.0071;0.0488207;0.0526088;5.00352;0.199859;87.0456;132.046;0.000403568;-0.0131369;-0.0012489;0.00301148;0.0657566;0.0046869;-0.00601302;0;0.029858;-0.789278;-1.70792;-1.33329;2.306;-7.74246;-0.0104026;0.00155223;0.0750569;0.0750851;-0.0104308;0.0427579;0.138596;7.21523;0.0538713;0.0570106;7.19843;0.138919;91.1421;136.142;-0.0150782;-0.0104018;0.00420508;-0.000889739;0.0750498;0.0122442;0.077405;0;0.10523;8.35083;6.05641
581000;582;27.6531;1.89491;0.0735654;-2.38495;27.55;0.0529181;-0.292551;1.89057;-0.783451;-0.507272;0.181236;-0.584524;0.794883;-7.7915;-0.0134459;0.00125404;0.065993;0.0660128;-0.0134657;0.0397392;0.203748;4.90803;0.0491163;0.0529857;4.90229;0.203986;86.7059;131.706;-0.00025974;-0.0134511;-0.00108813;0.00342167;0.0659932;0.00593374;-0.0057642;0;0.0369891;-0.792444;-1.71321;-1.34064;2.31525;-7.74787;-0.0103676;0.00147091;0.0765552;0.0765801;-0.0103925;0.0434863;0.135427;7.38406;0.0548468;0.0579817;7.36878;0.135708;91.3944;136.394;-0.0140943;-0.0103673;0.0044173;-0.00123759;0.0765472;0.0225162;0.0748182;0;0.110799;8.36007;6.06336
582000;583;27.659;1.90088;0.073797;-2.38569;27.5559;0.0529966;-0.293292;1.8965;-0.783373;-0.508156;0.185137;-0.58373;0.795763;-7.79071;-0.0137292;0.00126046;0.0656745;0.0656945;-0.0137493;0.0397219;0.20905;4.78354;0.0490263;0.0529625;4.77804;0.209291;86.7712;131.771;0.000754286;-0.0137341;-0.000985689;0.00333925;0.0656748;0.00491476;-0.0043063;0;0.0296135;-0.79367;-1.72002;-1.34292;2.32203;-7.75287;-0.0105107;0.00135556;0.075931;0.0759523;-0.0105319;0.0432421;0.138424;7.22417;0.0544859;0.0576561;7.21161;0.138665;91.2285;136.228;-0.014096;-0.0105103;0.0039732;-0.00105179;0.0759245;0.0247499;0.0857168;0;0.112788;8.34813;6.07154
583000;584;27.6649;1.90676;0.0740255;-2.38519;27.5618;0.0555888;-0.292788;1.90244;-0.780781;-0.507058;0.188156;-0.580067;0.793087;-7.78705;-0.0135629;0.0012367;0.0662862;0.0663053;-0.0135821;0.0399437;0.204612;4.88731;0.0493578;0.0532583;4.88182;0.204841;86.7296;131.73;0.00101902;-0.013568;-0.00110742;0.00340528;0.0662863;0.00470178;-0.00344771;0;0.0362306;-0.792858;-1.72473;-1.33557;2.32101;-7.74553;-0.0101045;0.00113202;0.0763635;0.0763783;-0.0101194;0.0432488;0.132322;7.55734;0.0546054;0.0576651;7.54774;0.13249;91.6443;136.644;-0.0144764;-0.0101052;0.00411956;-0.00161553;0.0763562;0.0205285;0.085656;0;0.119628;8.29853;6.07364
584000;585;27.6767;1.91855;0.0744831;-2.38653;27.5735;0.0624591;-0.294125;1.91414;-0.77391;-0.505241;0.193846;-0.592793;0.802651;-7.79977;-0.0136233;0.00178075;0.0670069;0.0670462;-0.0136626;0.0403544;0.203312;4.91854;0.0498794;0.0538059;4.90727;0.203779;86.3239;131.324;0.000771683;-0.0136298;-0.000622629;0.0040025;0.0670082;0.00527607;-0.00473176;0;0.0295728;-0.792667;-1.73007;-1.35064;2.3336;-7.76391;-0.0110101;0.00081563;0.0752664;0.0752741;-0.0110178;0.043146;0.146282;6.83612;0.0542297;0.057528;6.83203;0.146369;90.5017;135.502;-0.00855443;-0.0110098;0.00207425;-0.000342004;0.0752647;0.0270658;0.0657029;0;0.128141;8.34083;6.08578
585000;586;27.6838;1.92568;0.0747601;-2.38719;27.5807;0.056921;-0.294789;1.92126;-0.779449;-0.507578;0.197513;-0.592943;0.805126;-7.79992;-0.0139671;0.00200088;0.0670805;0.0671298;-0.0140165;0.0405731;0.208214;4.80275;0.0500835;0.0540975;4.78936;0.208796;86.1625;131.162;0.000682672;-0.0139741;-0.000403083;0.00422224;0.0670823;0.00688285;-0.00534147;0;0.0305686;-0.795314;-1.73537;-1.35372;2.34021;-7.76699;-0.0108703;0.000653348;0.0752956;0.0753006;-0.0108752;0.0430879;0.144368;6.92675;0.0541904;0.0574505;6.92405;0.144424;90.5892;135.589;-0.00881617;-0.0108702;0.00189157;-0.000485653;0.0752941;0.0309766;0.0708792;0;0.129313;8.35069;6.09302
586000;587;27.6935;1.93533;0.0751346;-2.38689;27.5904;0.0535606;-0.29449;1.93097;-0.782809;-0.507138;0.200051;-0.591899;0.804707;-7.79888;-0.0139769;0.00193496;0.0670078;0.067054;-0.0140231;0.0405385;0.208586;4.79419;0.0500364;0.0540514;4.78169;0.209131;86.1809;131.181;0.000839888;-0.0139838;-0.000491946;0.00417765;0.0670094;0.00645872;-0.00373249;0;0.0323358;-0.7949;-1.74301;-1.35199;2.34475;-7.76525;-0.0104159;0.00045973;0.0753896;0.075392;-0.0104183;0.0429052;0.138161;7.23796;0.0540698;0.0572069;7.23648;0.138189;92.0606;137.061;-0.00843656;-0.0104182;0.00335386;-0.00220349;0.0753845;0.0236609;0.072897;0;0.129194;8.3508;6.09973
587000;588;27.6994;1.94129;0.075366;-2.38807;27.5963;0.0439082;-0.295667;1.93687;-0.792461;-0.509926;0.203074;-0.591406;0.80686;-7.79839;-0.0142708;0.00236229;0.0673065;0.0673749;-0.0143392;0.040857;0.212028;4.71637;0.0503812;0.054476;4.69865;0.212827;85.7285;130.729;0.000991629;-0.0142795;-0.000227867;0.00475445;0.0673091;0.0074797;-0.00467721;0;0.0316314;-0.79834;-1.74549;-1.34815;2.34555;-7.75602;-0.0111755;0.000129947;0.0764934;0.0764936;-0.0111757;0.0438347;0.146098;6.84471;0.0551001;0.0584462;6.84461;0.1461;90.6576;135.658;-0.0156148;-0.0111758;0.0010414;-0.000707274;0.0764929;0.0236469;0.0776112;0;0.128556;8.35095;6.10383
588000;589;27.7096;1.95141;0.075759;-2.38955;27.6063;0.0388866;-0.297147;1.94691;-0.797483;-0.509369;0.207298;-0.595167;0.810341;-7.80215;-0.0142919;0.00237939;0.0680877;0.0681564;-0.0143606;0.0412585;0.209905;4.76407;0.0509042;0.0550113;4.74607;0.210701;85.7596;130.76;0.000985327;-0.0143007;-0.000222694;0.00478077;0.0680903;0.00711218;-0.00609288;0;0.0320938;-0.798964;-1.75164;-1.35723;2.35556;-7.7669;-0.0104869;0.000876554;0.0769033;0.0769121;-0.0104957;0.0437039;0.136365;7.33326;0.0551075;0.0582719;7.32796;0.136464;91.949;136.949;-0.0146998;-0.0104886;0.0040355;-0.00202606;0.0768961;0.0217048;0.0746456;0;0.117839;8.35382;6.11103
589000;590;27.7202;1.96208;0.0761731;-2.39118;27.6169;0.0469065;-0.298781;1.95746;-0.789463;-0.508621;0.212302;-0.596666;0.812267;-7.80365;-0.0143769;0.00254415;0.0681501;0.0682285;-0.0144552;0.0413419;0.210959;4.74026;0.0509917;0.0551225;4.71998;0.211865;85.4102;130.41;0.000957894;-0.0143871;-0.0002982;0.00516687;0.0681531;0.00744501;-0.00688135;0;0.0308923;-0.799181;-1.75797;-1.35536;2.35927;-7.76933;-0.0105162;0.00117509;0.0774669;0.0774826;-0.0105319;0.0440072;0.135751;7.36644;0.0554998;0.0586763;7.35695;0.135926;91.6407;136.641;-0.00711194;-0.0105168;0.00421145;-0.00161334;0.0774593;0.0137868;0.0772465;0;0.115867;8.35057;6.11548
590000;591;27.7296;1.97142;0.0765359;-2.39127;27.6262;0.0417321;-0.298865;1.96685;-0.794638;-0.509356;0.215325;-0.601769;0.817273;-7.80875;-0.014433;0.00253206;0.0690729;0.0691496;-0.0145097;0.0418297;0.208953;4.78576;0.0516206;0.0557729;4.76575;0.209831;85.4499;130.45;0.0011775;-0.0144434;-0.000347444;0.00518663;0.0690759;0.00654281;-0.00902341;0;0.0370408;-0.800558;-1.76383;-1.36033;2.36696;-7.77457;-0.0106729;0.00139675;0.0785095;0.0785314;-0.0106948;0.0446131;0.135944;7.35596;0.056259;0.0594841;7.34296;0.136185;91.8155;136.816;-0.0108748;-0.0106735;0.0048714;-0.0017906;0.0784994;0.0188665;0.0779886;0;0.116193;8.35422;6.12406
591000;592;27.7393;1.98117;0.0769144;-2.39126;27.636;0.0425021;-0.298855;1.97663;-0.793867;-0.509882;0.21933;-0.603251;0.819754;-7.81023;-0.0145651;0.00264277;0.0694561;0.0695392;-0.0146482;0.0420937;0.209703;4.76866;0.0519354;0.0561249;4.74729;0.210646;85.2575;130.257;0.00165987;-0.0145766;-0.000383398;0.00543117;0.0694593;0.0059065;-0.0101671;0;0.034431;-0.801914;-1.76901;-1.36181;2.37212;-7.77604;-0.0104994;0.00109422;0.0790438;0.0790571;-0.0105127;0.0447849;0.13283;7.52843;0.0565358;0.0597133;7.52013;0.132976;91.6533;136.653;-0.0109831;-0.0105002;0.0041393;-0.00169818;0.0790364;0.0119923;0.0784668;0;0.116146;8.35403;6.13094
592000;593;27.7483;1.99016;0.0772631;-2.394;27.6448;0.049002;-0.301596;1.9854;-0.787368;-0.511384;0.226078;-0.607727;0.825807;-7.81471;-0.0145656;0.00256976;0.0703048;0.0703825;-0.0146433;0.0425129;0.207178;4.82677;0.0524881;0.0566839;4.80646;0.208053;85.4623;130.462;0.00204679;-0.0145763;-0.000360617;0.00526775;0.0703078;0.00248686;-0.0100744;0;0.0416137;-0.804091;-1.77163;-1.36762;2.37816;-7.78186;-0.0105543;0.00132238;0.0799978;0.0800171;-0.0105736;0.0452953;0.131932;7.57964;0.057196;0.0603938;7.56762;0.132142;91.4387;136.439;-0.00995378;-0.0105544;0.0043071;-0.00141209;0.07999;0.01614;0.0730027;0;0.124704;8.35791;6.13772
593000;594;27.7584;2.00029;0.0776566;-2.39275;27.6551;0.0482515;-0.300343;1.99568;-0.788118;-0.510083;0.227554;-0.603316;0.822165;-7.8103;-0.0146227;0.00270133;0.0698127;0.069899;-0.014709;0.042304;0.209456;4.77427;0.0521978;0.0564053;4.75212;0.210432;85.1112;130.111;0.00315252;-0.014635;-0.000462699;0.00561562;0.069816;0.00124181;-0.00992078;0;0.0310537;-0.802712;-1.7773;-1.36589;2.38092;-7.77584;-0.0107662;0.00141457;0.0794855;0.0795077;-0.0107883;0.045148;0.135448;7.3829;0.0569429;0.0601973;7.36978;0.135689;90.5608;135.561;-0.0106508;-0.0107652;0.00330469;-0.000317537;0.0794814;0.0220902;0.0748115;0;0.122029;8.35795;6.14563
594000;595;27.7704;2.01225;0.0781209;-2.39381;27.667;0.0572914;-0.301413;2.00758;-0.779078;-0.511143;0.232505;-0.609349;0.828633;-7.81633;-0.0147525;0.00264434;0.0705182;0.0706001;-0.0148344;0.0427173;0.209201;4.78009;0.052712;0.0569563;4.75921;0.210119;85.2583;130.258;0.0028291;-0.0147643;-0.000458812;0.0055003;0.0705213;0.00178605;-0.00902497;0;0.0351953;-0.80576;-1.7842;-1.37073;2.38987;-7.78399;-0.0111503;0.000489768;0.0791597;0.0791624;-0.011153;0.0451577;0.140859;7.09931;0.0568584;0.0602103;7.09786;0.140888;91.2722;136.272;-0.0125139;-0.0111512;0.00251959;-0.00137019;0.0791569;0.0310418;0.0750298;0;0.137709;8.35789;6.15149
595000;596;27.7803;2.02218;0.0785062;-2.39371;27.677;0.0505856;-0.301309;2.01756;-0.785784;-0.510287;0.238721;-0.616947;0.835467;-7.82393;-0.0147601;0.0026573;0.0713844;0.0714663;-0.014842;0.0431542;0.20677;4.8363;0.0532851;0.0575389;4.81513;0.207679;85.3659;130.366;0.00308512;-0.0147717;-0.000391088;0.00546057;0.0713876;0.000934637;-0.0100305;0;0.033557;-0.804448;-1.78644;-1.37596;2.39411;-7.78592;-0.0110154;0.0012172;0.0798898;0.0799061;-0.0110317;0.0454689;0.137883;7.25254;0.057303;0.0606252;7.24331;0.138058;90.2027;135.203;-0.0178953;-0.0110147;0.00247647;6.39282e-05;0.0798876;0.0276008;0.0867096;0;0.128532;8.35562;6.15913
596000;597;27.7905;2.03236;0.0789016;-2.39614;27.687;0.0490078;-0.303736;2.02758;-0.787362;-0.511012;0.240643;-0.61407;0.834341;-7.82105;-0.0147999;0.00232912;0.071513;0.0715758;-0.0148627;0.0432193;0.206954;4.832;0.0533659;0.0576257;4.81581;0.207649;85.4897;130.49;0.00270659;-0.014811;-0.000828148;0.00523204;0.0715152;0.00256177;-0.0112331;0;0.0459054;-0.806198;-1.79314;-1.37063;2.39665;-7.7785;-0.0117578;0.000541485;0.0791572;0.0791604;-0.0117611;0.0454607;0.148538;6.73229;0.0570991;0.0606143;6.73072;0.148573;89.3228;134.323;-0.0144868;-0.0117581;0.00011501;0.000932032;0.0791573;0.0209583;0.0749953;0;0.132646;8.35877;6.16664
597000;598;27.8026;2.04446;0.0793715;-2.39609;27.6991;0.0511572;-0.303686;2.03973;-0.785212;-0.512527;0.245686;-0.615739;0.837962;-7.82272;-0.0148963;0.0020333;0.0719287;0.0719763;-0.0149439;0.0434601;0.207098;4.82862;0.0536636;0.0579468;4.81643;0.207623;85.8113;130.811;0.00243791;-0.0149061;-0.00101587;0.00483547;0.0719301;0.00262841;-0.0111077;0;0.0320588;-0.807605;-1.79761;-1.37047;2.40038;-7.77626;-0.0119056;-8.56499e-05;0.0792895;0.0792896;-0.0119056;0.0455976;0.150153;6.65987;0.0572425;0.0607968;6.65983;0.150154;90.0341;135.034;-0.00849429;-0.0119056;-0.000110727;-6.2692e-05;0.0792895;0.00215372;0.0669116;0;0.136135;8.35835;6.17382
598000;599;27.8075;2.04931;0.0795599;-2.39695;27.7039;0.0391979;-0.304552;2.04454;-0.797172;-0.511543;0.247812;-0.612226;0.835408;-7.81921;-0.0151155;0.00205224;0.0714754;0.071524;-0.0151641;0.0433441;0.211478;4.72862;0.0534592;0.0577921;4.71667;0.212014;85.7658;130.766;0.00232499;-0.0151253;-0.000991027;0.00484955;0.0714769;0.00309795;-0.00940512;0;0.0349316;-0.80822;-1.80479;-1.37338;2.40762;-7.78099;-0.0107109;0.00255464;0.0810688;0.0811398;-0.010782;0.0459609;0.132121;7.56879;0.0580221;0.0612812;7.5255;0.132881;89.4597;134.46;-0.0119749;-0.0107085;0.00395293;0.00127506;0.0810646;0.0170529;0.0830853;0;0.118013;8.35782;6.17695
599000;600;27.8186;2.06044;0.079992;-2.398;27.715;0.0385188;-0.305597;2.05562;-0.797851;-0.510789;0.253042;-0.617745;0.840562;-7.82472;-0.0152041;0.0019083;0.0719736;0.0720153;-0.0152459;0.0436306;0.211246;4.73382;0.0538169;0.0581742;4.72359;0.211703;85.8428;130.843;0.00286985;-0.0152138;-0.00118702;0.00475188;0.0719746;0.00448966;-0.0121499;0;0.0347821;-0.807246;-1.80679;-1.37788;2.41137;-7.78184;-0.0105501;0.00186923;0.0800898;0.0801284;-0.0105886;0.0453585;0.131728;7.59138;0.0572757;0.060478;7.56739;0.132146;90.0485;135.049;-0.0141882;-0.0105484;0.00348194;0.000391851;0.0800859;0.031423;0.0801332;0;0.11943;8.36159;6.18107
600000;601;27.8297;2.07152;0.0804221;-2.39869;27.7261;0.0451469;-0.306288;2.06667;-0.791223;-0.511928;0.258665;-0.625551;0.8487;-7.83253;-0.0152658;0.00171643;0.0728771;0.0729105;-0.0152992;0.0441049;0.209473;4.77388;0.0544283;0.0588065;4.76563;0.209836;86.0033;131.003;0.00206088;-0.015275;-0.00140307;0.00457962;0.0728776;0.00489418;-0.0117583;0;0.0376164;-0.810305;-1.81558;-1.38708;2.42424;-7.80116;-0.0108997;0.00157103;0.0813092;0.081336;-0.0109264;0.0461312;0.134052;7.45979;0.058209;0.0615083;7.44397;0.134337;90.7474;135.747;-0.00857546;-0.0108986;0.00386376;-0.000526197;0.0813034;0.0143719;0.0779999;0;0.114497;8.36842;6.18919
601000;602;27.8374;2.07923;0.0807212;-2.39974;27.7337;0.0440582;-0.307339;2.07432;-0.792311;-0.510802;0.259121;-0.619856;0.843969;-7.82684;-0.015266;0.00208853;0.0726603;0.0727099;-0.0153156;0.0440127;0.210101;4.75962;0.0543032;0.0586836;4.74745;0.21064;85.6399;130.64;0.00250292;-0.0152768;-0.00114755;0.00505933;0.0726617;0.00507829;-0.0119415;0;0.0332406;-0.809611;-1.82291;-1.38382;2.42764;-7.79806;-0.0107111;0.00108188;0.0819167;0.0819293;-0.0107237;0.0463265;0.130756;7.64786;0.0585225;0.0617687;7.64002;0.13089;91.8378;136.838;-0.00965953;-0.0107125;0.00446171;-0.0020086;0.081908;0.0152791;0.0726045;0;0.120127;8.36531;6.19554
602000;603;27.8461;2.08795;0.08106;-2.39933;27.7425;0.0501217;-0.306923;2.0831;-0.786248;-0.510782;0.262978;-0.618212;0.843944;-7.82519;-0.0154218;0.00176074;0.0741091;0.0741438;-0.0154564;0.0448001;0.208096;4.80547;0.055306;0.0597335;4.79695;0.208466;86.1127;131.113;0.00210873;-0.0154308;-0.00128685;0.00455428;0.0741098;0.00598391;-0.0108799;0;0.0377208;-0.8108;-1.82881;-1.38214;2.43151;-7.79638;-0.0108501;0.00148631;0.0825347;0.0825583;-0.0108738;0.046716;0.131461;7.6068;0.0589984;0.0622881;7.59243;0.13171;91.0697;136.07;-0.00897844;-0.0108495;0.00417434;-0.000969846;0.0825276;0.0147754;0.0758397;0;0.120516;8.36534;6.20329
603000;604;27.8541;2.09595;0.0813705;-2.39819;27.7506;0.0565055;-0.305789;2.09122;-0.779864;-0.510924;0.271029;-0.63518;0.859042;-7.84216;-0.015011;0.00218835;0.0748289;0.0748822;-0.0150643;0.0449733;0.200605;4.98493;0.055627;0.0599643;4.97084;0.201173;85.704;130.704;0.00164632;-0.0150222;-0.0010792;0.00518277;0.0748306;0.00644346;-0.0129693;0;0.0366853;-0.811501;-1.83035;-1.3985;2.44224;-7.81273;-0.0108577;0.00167451;0.0830839;0.0831137;-0.0108876;0.0470007;0.130684;7.65205;0.059372;0.0626675;7.63381;0.130996;90.8044;135.804;-0.0120238;-0.0108565;0.00417015;-0.000604679;0.0830772;0.0274816;0.0811461;0;0.129869;8.3638;6.21024
604000;605;27.8655;2.1074;0.0818149;-2.39967;27.7619;0.0669178;-0.307267;2.10256;-0.769452;-0.512118;0.274009;-0.632356;0.858615;-7.83934;-0.0151899;0.00189301;0.0750844;0.075124;-0.0152296;0.0451768;0.202305;4.94304;0.0558556;0.0602357;4.93277;0.202726;85.8828;130.883;0.000978439;-0.0152003;-0.00139648;0.00490626;0.0750851;0.0085048;-0.0106989;0;0.0323493;-0.812864;-1.83639;-1.39027;2.44252;-7.79856;-0.0114142;0.00112102;0.0831345;0.0831478;-0.0114275;0.0472877;0.137298;7.28342;0.0596073;0.0630502;7.27611;0.137436;89.9774;134.977;-0.0173597;-0.0114136;0.00201139;0.000308367;0.0831332;0.023332;0.0958883;0;0.132462;8.36531;6.21805
605000;606;27.877;2.11887;0.0822603;-2.4016;27.7733;0.0642016;-0.309197;2.11391;-0.772168;-0.51341;0.279217;-0.633974;0.86225;-7.84095;-0.0150696;0.00186488;0.0747658;0.0748045;-0.0151083;0.0449564;0.201557;4.96137;0.0555944;0.0599419;4.95122;0.20197;85.7728;130.773;0.00252125;-0.0150805;-0.00155104;0.00499525;0.0747663;0.00701047;-0.00836643;0;0.0302323;-0.815665;-1.84225;-1.39226;2.449;-7.80078;-0.0115256;0.00191875;0.0835065;0.0835452;-0.0115643;0.0475547;0.13802;7.24533;0.0599247;0.0634063;7.22442;0.138419;89.9992;134.999;-0.0192958;-0.0115238;0.00349237;0.000483143;0.0835025;0.0344346;0.0905127;0;0.131351;8.36654;6.2255
606000;607;27.8841;2.12599;0.0825367;-2.4018;27.7804;0.059184;-0.309394;2.12105;-0.777186;-0.514217;0.280427;-0.627204;0.858162;-7.83418;-0.015304;0.00162204;0.0749568;0.074986;-0.0153331;0.0451595;0.204171;4.89786;0.0558083;0.0602127;4.89045;0.20448;85.7136;130.714;0.00146536;-0.0153152;-0.00203986;0.00497643;0.0749561;0.00889899;-0.00808709;0;0.034663;-0.816218;-1.84855;-1.39;2.45264;-7.79852;-0.0112091;0.00205016;0.0838645;0.0839087;-0.0112533;0.047581;0.133657;7.48183;0.0600428;0.0634413;7.45638;0.134113;90.6447;135.645;-0.0187281;-0.011207;0.00463731;-0.000310057;0.0838565;0.0347277;0.0873446;0;0.132519;8.36527;6.23321
607000;608;27.8951;2.13697;0.0829629;-2.40057;27.7916;0.0542868;-0.308173;2.13219;-0.782083;-0.513714;0.286393;-0.635128;0.865627;-7.84211;-0.01505;0.00162101;0.0752954;0.0753245;-0.015079;0.0452018;0.199879;5.00302;0.0559244;0.060269;4.9953;0.200188;85.7956;130.796;0.0018983;-0.015061;-0.00198639;0.00492529;0.0752948;0.00878603;-0.0092013;0;0.0363872;-0.816225;-1.85047;-1.39398;2.45635;-7.79358;-0.0105961;0.00320825;0.0831443;0.083254;-0.0107057;0.0469799;0.127442;7.84672;0.0593937;0.0626398;7.77658;0.128591;89.0005;134;-0.0178391;-0.0105929;0.00452312;0.00200717;0.0831396;0.02635;0.100259;0;0.126808;8.36855;6.23934
608000;609;27.9027;2.14457;0.0832581;-2.40215;27.7991;0.0477633;-0.309744;2.13969;-0.788606;-0.512865;0.291003;-0.637085;0.868096;-7.84407;-0.0149958;0.00173289;0.0761009;0.0761338;-0.0150288;0.0455813;0.197052;5.0748;0.0564365;0.0607751;5.06587;0.197399;85.7562;130.756;0.00199011;-0.0150073;-0.00190262;0.00506061;0.0761006;0.0076194;-0.0121183;0;0.0410536;-0.816055;-1.85585;-1.39254;2.45953;-7.79114;-0.0110653;0.00261045;0.0839994;0.0840711;-0.011137;0.047604;0.131731;7.59121;0.0601046;0.063472;7.54882;0.132471;89.1421;134.142;-0.0122473;-0.0110634;0.0035957;0.00171159;0.0839966;0.0255843;0.091621;0;0.117752;8.36888;6.24621
609000;610;27.9149;2.15675;0.0837308;-2.40184;27.8113;0.0540431;-0.309436;2.15193;-0.782326;-0.514761;0.293468;-0.635844;0.869137;-7.84282;-0.0149721;0.0014909;0.0754283;0.0754529;-0.0149967;0.0452248;0.198495;5.03791;0.0559745;0.0602997;5.03129;0.198756;85.7075;130.708;0.00168001;-0.0149836;-0.00232629;0.0049872;0.0754268;0.00696866;-0.0113425;0;0.0415277;-0.817867;-1.86343;-1.39681;2.46827;-7.80341;-0.0110005;0.00224652;0.0831019;0.0831555;-0.0110541;0.0471048;0.132373;7.55439;0.0594652;0.0628064;7.52261;0.132933;90.2664;135.266;-0.00898511;-0.0109979;0.00447508;0.000211565;0.083095;0.0211868;0.0878037;0;0.12983;8.36893;6.25034
610000;611;27.9256;2.1675;0.0841482;-2.40441;27.8219;0.0506954;-0.312004;2.16251;-0.785674;-0.514552;0.297193;-0.637522;0.871505;-7.8445;-0.0150252;0.00130812;0.0758958;0.0759146;-0.015044;0.0454793;0.197972;5.05123;0.0562984;0.0606391;5.04616;0.198171;85.8659;130.866;0.00146712;-0.015036;-0.00249302;0.00478803;0.0758937;0.0073911;-0.0106076;0;0.0390955;-0.820011;-1.87199;-1.40392;2.47947;-7.81926;-0.0110486;0.00167474;0.0845294;0.0845587;-0.0110779;0.0478183;0.130707;7.65071;0.0604047;0.0637578;7.6331;0.131008;91.9008;136.901;-0.00999166;-0.0110492;0.00572902;-0.00202227;0.0845156;0.0278684;0.069993;0;0.12007;8.37278;6.2583
611000;612;27.9377;2.17957;0.0846168;-2.40464;27.834;0.0533083;-0.312236;2.1746;-0.783061;-0.513699;0.301775;-0.639787;0.874232;-7.84677;-0.015001;0.00142109;0.0763449;0.076367;-0.0150231;0.045695;0.19649;5.08933;0.0565877;0.0609267;5.08331;0.196722;85.8222;130.822;0.00223874;-0.0150122;-0.002384;0.00490324;0.0763432;0.00534573;-0.0115071;0;0.0468508;-0.820689;-1.87596;-1.40417;2.48283;-7.81573;-0.0112684;0.0015898;0.0853776;0.0854037;-0.0112945;0.0483491;0.131983;7.57673;0.0610499;0.0644655;7.5615;0.132249;91.5829;136.583;-0.0133293;-0.0112685;0.00514436;-0.00164826;0.0853666;0.0266407;0.0745425;0;0.125069;8.37299;6.26261
612000;613;27.9519;2.19372;0.0851662;-2.40541;27.8481;0.0609863;-0.313008;2.18872;-0.775383;-0.51405;0.306182;-0.642286;0.877796;-7.84927;-0.0149829;0.00154039;0.0763362;0.0763622;-0.0150089;0.0456856;0.196275;5.09488;0.0565786;0.0609141;5.08779;0.196549;85.7213;130.721;0.00294966;-0.0149947;-0.00229553;0.00505084;0.0763349;0.00423019;-0.0108808;0;0.0351601;-0.821933;-1.88156;-1.40672;2.48892;-7.81828;-0.0113568;0.00170412;0.0865143;0.086544;-0.0113865;0.0489652;0.131271;7.61783;0.0618419;0.065287;7.60059;0.131569;91.5632;136.563;-0.0141188;-0.0113567;0.00536366;-0.00162579;0.0865024;0.0337066;0.0788278;0;0.129748;8.37263;6.26877
613000;614;27.9574;2.19924;0.0853802;-2.40428;27.8537;0.0695693;-0.311882;2.19433;-0.7668;-0.513496;0.309778;-0.643495;0.879617;-7.85048;-0.0148985;0.00136845;0.0764614;0.0764819;-0.014919;0.0457004;0.194849;5.13217;0.0566199;0.0609339;5.12649;0.195065;85.8967;130.897;0.00377155;-0.0149093;-0.00240212;0.00481899;0.0764596;0.00236725;-0.010628;0;0.0355828;-0.821306;-1.88631;-1.40534;2.49153;-7.81648;-0.0121811;0.000898742;0.0859095;0.0859177;-0.0121893;0.0490535;0.14179;7.0527;0.061744;0.0654047;7.04861;0.141872;90.4169;135.417;-0.0137462;-0.0121807;0.00221528;-0.000298874;0.0859076;0.030193;0.0932624;0;0.136653;8.36887;6.27607
614000;615;27.9681;2.20993;0.0857952;-2.40698;27.8642;0.0705794;-0.314575;2.20482;-0.76579;-0.513639;0.3133;-0.644299;0.881535;-7.85128;-0.0150633;0.00134693;0.0768127;0.0768324;-0.0150831;0.0459577;0.196105;5.09932;0.0569194;0.061277;5.09395;0.196311;85.972;130.972;0.00422672;-0.0150738;-0.0023692;0.00474597;0.0768109;0.00202411;-0.00964383;0;0.0339913;-0.823523;-1.89006;-1.40591;2.49542;-7.809;-0.0119436;0.00191067;0.0869973;0.0870342;-0.0119805;0.0495073;0.137287;7.28403;0.0624008;0.0660098;7.26468;0.137652;89.8832;134.883;-0.0122782;-0.0119419;0.00331972;0.000629883;0.0869939;0.0443838;0.0756658;0;0.137426;8.37006;6.28316
615000;616;27.983;2.22489;0.0863762;-2.4093;27.879;0.0759263;-0.3169;2.21963;-0.760443;-0.514717;0.316689;-0.643031;0.882448;-7.85001;-0.0149907;0.00106508;0.0762582;0.0762706;-0.0150032;0.0456369;0.196579;5.08702;0.0565159;0.0608492;5.08364;0.19671;86.0311;131.031;0.00243874;-0.0150007;-0.00275073;0.00455737;0.0762552;0.00552698;-0.0103278;0;0.0364625;-0.824449;-1.89738;-1.39961;2.49774;-7.80385;-0.0129348;0.000990265;0.0860358;0.0860458;-0.0129447;0.0494952;0.150342;6.65148;0.0621299;0.0659937;6.64716;0.15044;89.3954;134.395;-0.0134191;-0.0129349;0.000946702;0.00102986;0.0860359;0.0225975;0.0755152;0;0.137758;8.37287;6.2909
616000;617;27.9926;2.23442;0.0867463;-2.41008;27.8885;0.0700424;-0.31768;2.22915;-0.766327;-0.516316;0.322645;-0.654345;0.893784;-7.86133;-0.0149964;0.000871517;0.076484;0.0764923;-0.0150047;0.0457485;0.196073;5.10015;0.0566626;0.060998;5.09788;0.19616;86.2805;131.28;0.00266857;-0.0150052;-0.00281067;0.00424078;0.0764807;0.00456371;-0.0103945;0;0.0402176;-0.826885;-1.9018;-1.41015;2.50781;-7.8144;-0.0125932;0.00095691;0.0863022;0.0863114;-0.0126025;0.0494569;0.14592;6.85308;0.062169;0.0659426;6.84878;0.146011;89.6834;134.683;-0.0160689;-0.012593;0.00128917;0.000654901;0.0863018;0.0266039;0.088848;0;0.148186;8.3726;6.29774
617000;618;28.0018;2.24367;0.0871054;-2.40999;27.8978;0.0702826;-0.317592;2.23844;-0.766087;-0.515856;0.332402;-0.661786;0.902529;-7.86877;-0.0154048;0.000499779;0.0769785;0.0769812;-0.0154075;0.0461943;0.200118;4.99706;0.0571531;0.0615925;4.99636;0.200146;86.7461;131.746;0.00307247;-0.0154113;-0.00292012;0.00362632;0.0769747;0.00401398;-0.0113639;0;0.0469446;-0.828009;-1.9026;-1.4236;2.51637;-7.82842;-0.0115014;0.00315722;0.0883214;0.0884212;-0.0116011;0.0500111;0.130222;7.67921;0.0631706;0.0666815;7.62178;0.131203;89.0848;134.085;-0.0147516;-0.0114983;0.00446298;0.00197122;0.0883168;0.0216319;0.0798289;0;0.136261;8.37057;6.3052
618000;619;28.0054;2.2473;0.0872462;-2.40956;27.9015;0.0547146;-0.317161;2.24215;-0.781655;-0.514164;0.330427;-0.648417;0.891062;-7.8554;-0.015375;0.000702145;0.0782338;0.0782391;-0.0153803;0.0468097;0.196527;5.08837;0.0579703;0.0624129;5.08697;0.196581;86.5617;131.562;0.0021311;-0.0153828;-0.00287052;0.00396464;0.0782302;0.00742093;-0.0123447;0;0.0338417;-0.824772;-1.91163;-1.405;2.51169;-7.80492;-0.0116655;0.00221913;0.0863122;0.0863624;-0.0117158;0.0490391;0.135155;7.39892;0.0618512;0.0653855;7.37148;0.135658;89.9868;134.987;-0.0112744;-0.0116632;0.00403715;0.000565072;0.086307;0.020567;0.0814909;0;0.128161;8.37203;6.31251
619000;620;28.0143;2.25619;0.0875914;-2.41106;27.9103;0.0501213;-0.318659;2.25095;-0.786248;-0.515117;0.337473;-0.661361;0.903677;-7.86834;-0.0151775;0.000969412;0.0785138;0.0785238;-0.0151875;0.0468557;0.19331;5.17304;0.0580775;0.0624742;5.17029;0.193413;86.5111;131.511;0.00150883;-0.0151857;-0.0024958;0.00413359;0.0785113;0.00778723;-0.010941;0;0.0341036;-0.827523;-1.91594;-1.42715;2.52831;-7.83309;-0.0114504;0.0019017;0.0863551;0.086392;-0.0114873;0.0489397;0.132596;7.5417;0.0617808;0.0652529;7.52065;0.132967;90.9386;135.939;-0.0099163;-0.0114488;0.00482144;-0.000755186;0.086346;0.0144432;0.0768961;0;0.127877;8.3766;6.31946
620000;621;28.0216;2.26347;0.0878738;-2.41281;27.9175;0.0493671;-0.320412;2.2581;-0.787002;-0.514656;0.340202;-0.654869;0.899701;-7.86185;-0.0155169;0.000988427;0.0785996;0.07861;-0.0155272;0.0470686;0.197416;5.06543;0.0582761;0.0627582;5.06272;0.197522;86.4091;131.409;0.0022944;-0.0155255;-0.002575;0.0042409;0.078597;0.00657618;-0.0116219;0;0.0477407;-0.828532;-1.92372;-1.42475;2.53319;-7.83631;-0.0114324;0.00203969;0.0871713;0.0872135;-0.0114746;0.049344;0.131149;7.62491;0.0623203;0.0657921;7.60056;0.131569;91.2206;136.221;-0.0101909;-0.011431;0.00550471;-0.00111108;0.0871593;0.0314608;0.0694247;0;0.126462;8.37308;6.3249
621000;622;28.0321;2.27397;0.0882817;-2.41316;27.928;0.0525642;-0.320755;2.26861;-0.783805;-0.515128;0.344286;-0.658027;0.903819;-7.86501;-0.015419;0.00126216;0.0788489;0.0788658;-0.0154359;0.0471509;0.195552;5.11373;0.0584064;0.0628678;5.10923;0.195724;86.2475;131.248;0.00233068;-0.0154287;-0.00231723;0.00452876;0.0788471;0.00765836;-0.0115106;0;0.034594;-0.829924;-1.93035;-1.42716;2.54005;-7.83872;-0.011656;0.00133434;0.0883468;0.0883646;-0.0116738;0.0500192;0.131935;7.57949;0.0631617;0.0666923;7.56945;0.13211;91.7364;136.736;-0.0110655;-0.0116571;0.00498709;-0.0019828;0.0883362;0.0296225;0.0692144;0;0.132221;8.37344;6.32799
622000;623;28.0414;2.28325;0.088642;-2.41263;27.9374;0.0582272;-0.320231;2.27796;-0.778142;-0.516288;0.349625;-0.663863;0.910771;-7.87084;-0.0155824;0.00108569;0.0787459;0.0787584;-0.0155949;0.0471766;0.197882;5.05351;0.0584021;0.0629022;5.05026;0.19801;86.2764;131.276;0.0023622;-0.0155918;-0.00257301;0.00442445;0.0787434;0.00871241;-0.00915461;0;0.0328672;-0.832065;-1.93527;-1.42939;2.54573;-7.84094;-0.0120942;0.00168693;0.0889692;0.0889973;-0.0121223;0.0505598;0.135936;7.35638;0.0637576;0.0674131;7.34162;0.13621;91.3658;136.366;-0.0108039;-0.0120937;0.00508724;-0.00139783;0.0889586;0.0359443;0.0820668;0;0.127646;8.37459;6.33475
623000;624;28.0519;2.29375;0.0890496;-2.41264;27.9479;0.0629177;-0.320235;2.28849;-0.773452;-0.51551;0.351219;-0.658699;0.907188;-7.86568;-0.0157072;0.00121976;0.0788062;0.0788219;-0.0157229;0.0472724;0.199314;5.0172;0.0584976;0.0630299;5.01318;0.199474;85.9826;130.983;0.00232609;-0.0157181;-0.00269276;0.0047895;0.0788035;0.00710857;-0.00768709;0;0.0348977;-0.831979;-1.94213;-1.42553;2.54877;-7.83617;-0.0122619;0.00246807;0.0898194;0.089879;-0.0123215;0.0511003;0.136517;7.3251;0.0644205;0.0681337;7.29449;0.13709;89.9866;134.987;-0.0144652;-0.012259;0.0044919;0.000633795;0.0898129;0.0373606;0.088345;0;0.132747;8.37652;6.34257
624000;625;28.0583;2.30016;0.0892983;-2.41534;27.9541;0.0602627;-0.322936;2.29469;-0.776107;-0.516563;0.35574;-0.659266;0.909956;-7.86625;-0.0154971;0.00149279;0.0787158;0.0787394;-0.0155208;0.0471301;0.196874;5.07938;0.0583586;0.0628401;5.07316;0.197116;85.7366;130.737;0.0023823;-0.0155095;-0.0025207;0.00515574;0.0787139;0.0090162;-0.00719873;0;0.037825;-0.834277;-1.94687;-1.42486;2.55275;-7.83063;-0.0124384;0.00312407;0.0921698;0.092263;-0.0125316;0.0523973;0.134951;7.4101;0.0660831;0.0698631;7.36242;0.135825;89.421;134.421;-0.00775212;-0.0124347;0.00484256;0.00157017;0.0921635;0.0200613;0.0649217;0;0.14094;8.37857;6.35043
625000;626;28.0722;2.31406;0.0898381;-2.41618;27.968;0.060541;-0.323775;2.30858;-0.775829;-0.5163;0.362425;-0.667484;0.918397;-7.87446;-0.0154885;0.00162441;0.0784547;0.0784828;-0.0155166;0.0469997;0.19742;5.06536;0.0581878;0.0626662;5.058;0.197707;85.7306;130.731;0.00194831;-0.0155008;-0.00227976;0.00518846;0.0784535;0.0091037;-0.00715139;0;0.0387142;-0.835131;-1.95004;-1.43218;2.55954;-7.837;-0.0124052;0.00322386;0.0911463;0.0912465;-0.0125055;0.051876;0.136103;7.3474;0.0653993;0.069168;7.29651;0.137052;89.5526;134.553;-0.0149486;-0.012401;0.00522593;0.00141178;0.0911385;0.0237524;0.0801698;0;0.135031;8.38002;6.35756
626000;627;28.0861;2.32792;0.0903759;-2.41765;27.9817;0.063161;-0.32525;2.32235;-0.773209;-0.516481;0.367265;-0.666243;0.91952;-7.87322;-0.0158171;0.00142427;0.0788107;0.0788321;-0.0158386;0.0473353;0.200698;4.98261;0.0585527;0.0631138;4.97722;0.200915;85.7202;130.72;0.00290935;-0.0158295;-0.00264966;0.00514084;0.0788083;0.00613701;-0.0082464;0;0.0353866;-0.834814;-1.95314;-1.42295;2.55665;-7.82013;-0.0125156;0.00381791;0.0900482;0.0901901;-0.0126575;0.0514238;0.138987;7.1949;0.0647595;0.0685651;7.12544;0.140342;88.3218;133.322;-0.0194445;-0.0125134;0.0044828;0.00321559;0.0900457;0.0326046;0.102065;0;0.122837;8.37576;6.36442
627000;628;28.0953;2.33718;0.0907357;-2.41907;27.9909;0.0553934;-0.326672;2.33154;-0.780976;-0.516748;0.371512;-0.672576;0.925963;-7.87956;-0.0157624;0.00167318;0.0788131;0.0788427;-0.015792;0.0473173;0.199997;5.00008;0.0585401;0.0630897;4.99258;0.200297;85.5765;130.576;0.00222604;-0.0157757;-0.00239561;0.00538525;0.0788117;0.00677379;-0.00825742;0;0.0353971;-0.836607;-1.9613;-1.43585;2.57066;-7.8426;-0.0120396;0.00316722;0.0914293;0.0915262;-0.0121365;0.0518313;0.131682;7.59406;0.0654392;0.0691084;7.54143;0.132601;88.7597;133.76;-0.0175732;-0.0120376;0.00394058;0.00246719;0.0914268;0.025548;0.0911385;0;0.125424;8.38039;6.37157
628000;629;28.1058;2.34763;0.0911412;-2.42014;28.0013;0.0435079;-0.327741;2.34196;-0.792862;-0.518326;0.378332;-0.680473;0.935329;-7.88745;-0.0160867;0.00189297;0.0790111;0.0790488;-0.0161244;0.0475866;0.203601;4.91157;0.0588154;0.0634488;4.90243;0.20398;85.4105;130.411;0.00413817;-0.0161011;-0.00221567;0.00563947;0.0790105;0.00198887;-0.00856163;0;0.0497184;-0.838418;-1.9643;-1.4451;2.57871;-7.85227;-0.0118595;0.00265752;0.09058;0.0906489;-0.0119284;0.0512886;0.130928;7.63776;0.0647758;0.0683848;7.59942;0.131589;90.9937;135.994;-0.0125076;-0.0118562;0.0063815;-0.000716698;0.0905645;0.0258483;0.080484;0;0.128907;8.38027;6.37914
629000;630;28.1146;2.3565;0.0914856;-2.42031;28.0102;0.0434262;-0.327907;2.35085;-0.792943;-0.516623;0.37963;-0.671865;0.928666;-7.87885;-0.0159807;0.00161331;0.0792072;0.0792345;-0.0160081;0.0476213;0.201759;4.95642;0.0588888;0.0634951;4.94966;0.202034;85.5328;130.533;0.00299717;-0.0159944;-0.00257256;0.00542996;0.0792053;0.00381548;-0.0083028;0;0.0489097;-0.837615;-1.97242;-1.43763;2.58047;-7.84485;-0.0120723;0.00239356;0.0901374;0.0901934;-0.0121283;0.0511609;0.133932;7.46645;0.0645526;0.0682145;7.43658;0.13447;90.9286;135.929;-0.0135898;-0.0120696;0.00577181;-0.000667966;0.0901247;0.0295724;0.0786452;0;0.131824;8.37648;6.38562
630000;631;28.123;2.3649;0.0918116;-2.42218;28.0185;0.0429626;-0.329779;2.35911;-0.793407;-0.518016;0.383876;-0.679569;0.936758;-7.88655;-0.0161392;0.00192916;0.0795097;0.0795486;-0.0161781;0.0478633;0.202984;4.92651;0.059167;0.0638178;4.91707;0.203373;85.3854;130.385;0.0041133;-0.0161539;-0.00222263;0.00571306;0.0795091;0.00247322;-0.00803442;0;0.0414367;-0.840119;-1.97788;-1.44553;2.58986;-7.85276;-0.012169;0.00169847;0.0899485;0.0899767;-0.0121973;0.051087;0.135289;7.39159;0.0644362;0.068116;7.37679;0.13556;92.1056;137.106;-0.0132005;-0.0121705;0.00624165;-0.00241908;0.0899319;0.0325474;0.0774095;0;0.135693;8.37671;6.39295
631000;632;28.1339;2.37575;0.0922328;-2.42227;28.0294;0.0518507;-0.329865;2.36998;-0.784519;-0.517994;0.387547;-0.67482;0.934823;-7.8818;-0.0162135;0.0017003;0.0791598;0.0791901;-0.0162438;0.047717;0.20482;4.88233;0.0589587;0.0636227;4.87509;0.205124;85.5175;130.518;0.00413023;-0.0162272;-0.00242463;0.00546066;0.0791585;0.00184248;-0.00906422;0;0.0501999;-0.840253;-1.98452;-1.44354;2.59387;-7.85509;-0.0124843;0.00187516;0.0907522;0.0907862;-0.0125184;0.0516523;0.137565;7.26928;0.0650994;0.0688697;7.25223;0.137889;91.7921;136.792;-0.0142507;-0.0124845;0.00611;-0.00195889;0.0907367;0.0334225;0.0798953;0;0.135895;8.3764;6.39687
632000;633;28.1427;2.38459;0.0925763;-2.42161;28.0383;0.0507379;-0.329205;2.37892;-0.785632;-0.51737;0.39116;-0.675091;0.936176;-7.88207;-0.0164194;0.00155211;0.0794574;0.0794826;-0.0164446;0.0479636;0.206645;4.83923;0.0592357;0.0639514;4.83336;0.206895;85.6046;130.605;0.00498018;-0.0164326;-0.00258808;0.00532454;0.0794554;0.00298216;-0.0103108;0;0.0521063;-0.839953;-1.99025;-1.44402;2.59842;-7.85558;-0.0127387;0.0018149;0.0911011;0.0911328;-0.0127704;0.0519516;0.13983;7.15152;0.0654287;0.0692688;7.13625;0.14013;91.4271;136.427;-0.0134462;-0.0127381;0.00544754;-0.00147204;0.091089;0.0360636;0.0811613;0;0.138764;8.37857;6.40185
633000;634;28.1517;2.39358;0.0929253;-2.42308;28.0472;0.0556701;-0.330678;2.38781;-0.780699;-0.518324;0.395675;-0.680242;0.94231;-7.88722;-0.0163869;0.00187937;0.0802671;0.0803036;-0.0164234;0.0483635;0.204154;4.89825;0.0597672;0.0644847;4.88958;0.204517;85.506;130.506;0.00378636;-0.0164011;-0.00221206;0.00560469;0.0802664;0.00354926;-0.010584;0;0.037447;-0.842753;-1.99639;-1.44559;2.60491;-7.85505;-0.0127186;0.00338621;0.092353;0.092462;-0.0128276;0.0526448;0.137717;7.26124;0.066332;0.0701931;7.20803;0.138734;89.5048;134.505;-0.0166823;-0.012714;0.00543563;0.00153392;0.0923448;0.0405812;0.0844869;0;0.136284;8.37891;6.40942
634000;635;28.1629;2.40471;0.0933572;-2.42863;28.0579;0.0406148;-0.336226;2.39852;-0.795755;-0.518582;0.401246;-0.684918;0.948177;-7.8919;-0.0166106;0.00186241;0.0809148;0.0809504;-0.0166461;0.0487983;0.205285;4.87129;0.0602866;0.0650643;4.86302;0.205634;85.5721;130.572;0.00471929;-0.0166245;-0.00220178;0.00555989;0.0809142;0.0015076;-0.0102805;0;0.0367754;-0.843945;-2.00041;-1.45233;2.61212;-7.86279;-0.012493;0.00335064;0.0931355;0.0932417;-0.0125992;0.0529205;0.134138;7.45499;0.0667583;0.0705606;7.40059;0.135124;90.2252;135.225;-0.00862326;-0.0124875;0.00649537;0.000509754;0.0931213;0.0376548;0.084777;0;0.135805;8.37733;6.41492
635000;636;28.1708;2.41261;0.093664;-2.42472;28.0662;0.0564982;-0.332316;2.40676;-0.779871;-0.519069;0.406003;-0.688767;0.953243;-7.89575;-0.016795;0.0019535;0.0813018;0.0813407;-0.0168339;0.0490873;0.206576;4.84084;0.0606226;0.0654497;4.83197;0.206955;85.5376;130.538;0.00415293;-0.0168092;-0.00210986;0.0056482;0.0813015;0.00352282;-0.011171;0;0.0358259;-0.8448;-2.00635;-1.45445;2.61813;-7.86391;-0.012835;0.00329662;0.093855;0.0939568;-0.0129368;0.0534468;0.136754;7.31241;0.0673655;0.0712624;7.26276;0.137689;89.6511;134.651;-0.0121688;-0.0128304;0.00549378;0.00131374;0.0938462;0.0289212;0.0852224;0;0.125797;8.38055;6.4222
636000;637;28.181;2.42286;0.0940619;-2.42694;28.0762;0.0586142;-0.33454;2.41685;-0.777755;-0.519715;0.410986;-0.691325;0.957572;-7.89831;-0.0169244;0.00266876;0.0821149;0.0821868;-0.0169962;0.0495915;0.206106;4.85188;0.0612478;0.066122;4.83559;0.2068;85.045;130.045;0.00348301;-0.0169423;-0.0015538;0.00650482;0.0821171;0.00529833;-0.0116844;0;0.0339639;-0.846076;-2.01258;-1.45799;2.62527;-7.87152;-0.013348;0.0025636;0.0928049;0.0928668;-0.0134098;0.0531383;0.143828;6.95275;0.0668311;0.0708511;6.92528;0.144398;90.2198;135.22;-0.0139805;-0.0133447;0.00499477;0.000368576;0.0927965;0.018617;0.0924248;0;0.135193;8.38056;6.42964
637000;638;28.1874;2.42929;0.0943117;-2.42776;28.0826;0.0499456;-0.335356;2.42326;-0.786424;-0.519589;0.415284;-0.690164;0.958519;-7.89714;-0.0169846;0.00266783;0.0826036;0.082675;-0.017056;0.0498655;0.205616;4.86343;0.0615943;0.0664873;4.84725;0.206302;85.039;130.039;0.00361194;-0.0170028;-0.00160337;0.00654609;0.0826057;0.00625202;-0.0114092;0;0.03447;-0.846554;-2.01775;-1.45645;2.62854;-7.86801;-0.0122171;0.00279631;0.0932426;0.0933167;-0.0122912;0.0528039;0.131025;7.63214;0.0666868;0.0704052;7.59216;0.131715;90.4745;135.475;-0.011247;-0.0122131;0.00588174;8.49284e-06;0.0932303;0.0258442;0.0833703;0;0.127725;8.38346;6.43696
638000;639;28.1968;2.43861;0.0946735;-2.42897;28.0919;0.0428735;-0.33657;2.43252;-0.793496;-0.520473;0.419636;-0.691047;0.961526;-7.89803;-0.0170897;0.0025139;0.0828208;0.082884;-0.0171529;0.0500185;0.206346;4.84623;0.0617727;0.0666913;4.83206;0.206951;85.2048;130.205;0.00347923;-0.0171068;-0.00167368;0.00631506;0.0828224;0.0066619;-0.0109134;0;0.0353611;-0.847874;-2.02354;-1.45712;2.63378;-7.86867;-0.0121981;0.00274971;0.0930283;0.0931002;-0.0122699;0.052685;0.131123;7.62645;0.0665349;0.0702467;7.58767;0.131793;90.966;135.966;-0.00735019;-0.0121945;0.00655588;-0.000690067;0.0930121;0.022468;0.0784015;0;0.133232;8.3803;6.44432
639000;640;28.2046;2.44648;0.094979;-2.42917;28.0998;0.043822;-0.336766;2.4404;-0.792548;-0.52102;0.423801;-0.691022;0.963629;-7.898;-0.017155;0.00261528;0.0829715;0.0830397;-0.0172233;0.0501315;0.206758;4.83657;0.0619048;0.066842;4.82136;0.20741;85.052;130.052;0.00401431;-0.0171733;-0.00170204;0.00653339;0.0829733;0.00600279;-0.0118351;0;0.0336116;-0.849143;-2.02743;-1.45443;2.63569;-7.86165;-0.0122964;0.00277596;0.0932269;0.0932999;-0.0123694;0.0528346;0.131898;7.58162;0.0667064;0.0704462;7.54279;0.132577;91.2126;136.213;-0.0143257;-0.0122931;0.00698716;-0.00102879;0.0932081;0.0304431;0.0829498;0;0.13297;8.37988;6.45192
640000;641;28.2151;2.45696;0.0953857;-2.42926;28.1103;0.0432883;-0.336861;2.45091;-0.793081;-0.520948;0.427299;-0.691596;0.965545;-7.89858;-0.0171295;0.00273894;0.0828112;0.0828862;-0.0172045;0.0500454;0.20685;4.83442;0.0617959;0.0667272;4.8177;0.207568;84.9284;129.928;0.0037569;-0.0171486;-0.00163219;0.00670659;0.0828134;0.00508107;-0.0105406;0;0.0366933;-0.849976;-2.03602;-1.45697;2.64397;-7.86852;-0.0125099;0.00233048;0.0932149;0.0932662;-0.0125612;0.0529137;0.134205;7.45129;0.0667597;0.0705517;7.42492;0.134682;91.3568;136.357;-0.0125246;-0.012508;0.00637531;-0.00132321;0.0931988;0.0354157;0.0730368;0;0.136902;8.38194;6.45931
641000;642;28.2257;2.4676;0.0957989;-2.4306;28.1209;0.0442502;-0.338195;2.46147;-0.792119;-0.521453;0.433821;-0.702224;0.976336;-7.9092;-0.0172335;0.00263584;0.0827598;0.0828292;-0.0173029;0.0500661;0.208235;4.80226;0.0617999;0.0667548;4.787;0.208899;84.8862;129.886;0.00312149;-0.0172529;-0.00185296;0.00671005;0.0827614;0.00731164;-0.00918414;0;0.0354109;-0.851068;-2.03887;-1.46437;2.6506;-7.87159;-0.0131991;0.00210873;0.0929705;0.0930124;-0.013241;0.0531267;0.141971;7.0437;0.0668604;0.0708356;7.02459;0.142357;91.1844;136.184;-0.0180075;-0.0131975;0.00565002;-0.0010886;0.0929579;0.0329217;0.0894125;0;0.134586;8.38076;6.46709
642000;643;28.2383;2.48019;0.0962876;-2.43147;28.1334;0.0481147;-0.339065;2.47403;-0.788255;-0.520726;0.437012;-0.700629;0.976225;-7.90761;-0.0172514;0.00273068;0.0829947;0.0830691;-0.0173258;0.0501974;0.207862;4.81089;0.0619673;0.0669299;4.79454;0.208571;84.8337;129.834;0.00382169;-0.0172713;-0.00177682;0.0068209;0.0829967;0.00427338;-0.00918924;0;0.0338452;-0.85234;-2.04689;-1.46369;2.65681;-7.87525;-0.0134374;0.00271171;0.0940845;0.0941528;-0.0135058;0.0538293;0.142823;7.00168;0.0677209;0.0717724;6.9713;0.143445;91.2526;136.253;-0.0140836;-0.0134342;0.00687714;-0.0010444;0.0940662;0.0334373;0.0821891;0;0.137776;8.38489;6.47216
643000;644;28.2536;2.49548;0.0968811;-2.43269;28.1486;0.0544245;-0.340292;2.48925;-0.781945;-0.520995;0.441386;-0.701099;0.978672;-7.90808;-0.0174179;0.00300517;0.0830737;0.0831635;-0.0175077;0.0503356;0.209668;4.76944;0.0621063;0.0671141;4.75011;0.210522;84.534;129.534;0.00377473;-0.0174401;-0.0016829;0.00725821;0.0830765;0.00322382;-0.00789808;0;0.0343221;-0.853351;-2.05327;-1.46357;2.66199;-7.87303;-0.0131132;0.00400455;0.0959269;0.0960738;-0.0132601;0.0546669;0.1367;7.31529;0.0688959;0.0728892;7.24534;0.13802;89.8316;134.832;-0.0131186;-0.0131059;0.00706986;0.00124419;0.0959114;0.0301194;0.0892196;0;0.132757;8.38382;6.48007
644000;645;28.2665;2.50836;0.0973811;-2.43518;28.1613;0.063954;-0.342778;2.50194;-0.772416;-0.521389;0.445806;-0.703131;0.982335;-7.91011;-0.0173356;0.00282546;0.0835214;0.0836005;-0.0174147;0.0505076;0.207559;4.8179;0.0623545;0.0673435;4.80056;0.208309;84.7219;129.722;0.00387691;-0.0173567;-0.00180062;0.00702088;0.0835236;0.0043307;-0.00892257;0;0.0375445;-0.853848;-2.05629;-1.4614;2.66328;-7.86222;-0.0132969;0.00392178;0.0955048;0.095646;-0.0134381;0.054542;0.139227;7.1825;0.0686829;0.0727227;7.11755;0.140498;89.6082;134.608;-0.0230537;-0.0132903;0.00654963;0.0015549;0.0954922;0.0323383;0.0945341;0;0.136076;8.38021;6.4821
645000;646;28.2759;2.51777;0.0977465;-2.43431;28.1709;0.0538401;-0.341912;2.51149;-0.782529;-0.519168;0.450141;-0.707549;0.9863;-7.91453;-0.0173146;0.00322527;0.0834346;0.0835378;-0.0174178;0.0504778;0.207523;4.81873;0.0623146;0.0673037;4.79612;0.208502;84.5071;129.507;0.00405103;-0.0173372;-0.00137867;0.00740102;0.0834386;0.00416461;-0.00853891;0;0.0385085;-0.852671;-2.06447;-1.47162;2.67484;-7.88178;-0.0128666;0.00387997;0.0961638;0.0963017;-0.0130045;0.0546531;0.133798;7.47393;0.068946;0.0728707;7.40528;0.135039;89.759;134.759;-0.0168441;-0.0128598;0.00674365;0.0013011;0.0961499;0.0302593;0.0926251;0;0.129102;8.38037;6.48867
646000;647;28.2857;2.5276;0.0981281;-2.43668;28.1805;0.0578114;-0.344279;2.52114;-0.778558;-0.521865;0.455534;-0.709235;0.991398;-7.91622;-0.0175281;0.00253822;0.0843157;0.0843789;-0.0175913;0.0509851;0.207886;4.81032;0.0629412;0.0679802;4.79662;0.20848;84.7287;129.729;0.00405449;-0.0175495;-0.00235191;0.00696899;0.0843161;0.00542892;-0.00868947;0;0.0435958;-0.856185;-2.06945;-1.46805;2.67784;-7.87835;-0.0128427;0.00296525;0.0954994;0.0955805;-0.0129237;0.0542521;0.134479;7.43611;0.0684362;0.0723361;7.39572;0.135213;90.3352;135.335;-0.00993245;-0.0128382;0.00597555;0.00025264;0.0954871;0.0218475;0.085674;0;0.127557;8.37741;6.49601
647000;648;28.2958;2.53766;0.0985186;-2.43671;28.1906;0.0519775;-0.344312;2.53125;-0.784392;-0.522395;0.461858;-0.711353;0.996109;-7.91833;-0.0173857;0.0020474;0.0844092;0.0844503;-0.0174269;0.0509386;0.205969;4.85509;0.0629188;0.0679181;4.84599;0.206356;85.0611;130.061;0.00557117;-0.0174046;-0.00278631;0.00642733;0.0844075;0.00269147;-0.00919658;0;0.0375873;-0.856676;-2.07308;-1.47697;2.6857;-7.88852;-0.0124751;0.00293934;0.0953173;0.0953974;-0.0125552;0.0539763;0.130879;7.64063;0.0681698;0.0719684;7.59827;0.131609;90.6378;135.638;-0.0096568;-0.0124707;0.00642855;-0.000206513;0.0953024;0.0218454;0.0802225;0;0.125632;8.3781;6.50301
648000;649;28.3057;2.54756;0.0989031;-2.4379;28.2005;0.0506026;-0.345503;2.54109;-0.785767;-0.522397;0.465679;-0.714479;1.00012;-7.92146;-0.0173232;0.00204456;0.0848969;0.0849378;-0.0173641;0.051151;0.20405;4.90076;0.0632133;0.0682013;4.89158;0.204433;84.9707;129.971;0.00386637;-0.0173431;-0.00295728;0.00657507;0.0848948;0.00690066;-0.0128928;0;0.0395807;-0.8576;-2.07974;-1.47922;2.69238;-7.89077;-0.0127295;0.00272554;0.09591;0.0959783;-0.0127978;0.0543881;0.132723;7.53448;0.0686503;0.0725174;7.49959;0.133341;90.592;135.592;-0.00841213;-0.0127257;0.00595822;-0.000186707;0.0958972;0.0202463;0.078944;0;0.137095;8.3765;6.51082
649000;650;28.3137;2.55554;0.0992129;-2.43836;28.2084;0.0507763;-0.345954;2.54906;-0.785593;-0.523555;0.469451;-0.714528;1.00252;-7.92151;-0.0174587;0.00170868;0.0854535;0.0854819;-0.0174871;0.0514845;0.204307;4.8946;0.0636231;0.068646;4.88829;0.204571;85.3282;130.328;0.00431716;-0.017476;-0.00311286;0.00607306;0.0854504;0.00600083;-0.012276;0;0.039839;-0.859267;-2.08626;-1.47585;2.6961;-7.8874;-0.0127924;0.00296554;0.0957849;0.0958659;-0.0128733;0.0543696;0.133553;7.48764;0.0686055;0.0724928;7.44686;0.134285;90.4829;135.483;-0.0093025;-0.0127879;0.00621928;3.4172e-05;0.0957713;0.0261832;0.0743938;0;0.135711;8.37705;6.51818
650000;651;28.3209;2.56271;0.0994912;-2.43794;28.2157;0.0512156;-0.345535;2.55629;-0.785154;-0.523636;0.475739;-0.717189;1.00741;-7.92417;-0.0173996;0.00188856;0.0868928;0.086927;-0.0174338;0.0521804;0.200242;4.99396;0.0645521;0.0695738;4.98612;0.200557;85.2922;130.292;0.00430382;-0.0174179;-0.00297856;0.00628862;0.0868903;0.00508416;-0.0137596;0;0.0384846;-0.860376;-2.0897;-1.48015;2.70147;-7.89401;-0.0125555;0.00258958;0.0966448;0.0967062;-0.0126168;0.0546615;0.129913;7.69743;0.0690616;0.072882;7.66485;0.130466;90.7112;135.711;-0.0111193;-0.0125522;0.00592565;-0.000414309;0.0966319;0.0218814;0.0820409;0;0.136731;8.3815;6.52583
651000;652;28.3304;2.57225;0.0998616;-2.43862;28.2252;0.0527483;-0.346216;2.5658;-0.783621;-0.524105;0.478118;-0.716674;1.00842;-7.92365;-0.0175444;0.0018046;0.0864768;0.0865081;-0.0175757;0.0520419;0.20288;4.92901;0.0643359;0.0693892;4.92202;0.203169;85.1815;130.181;0.00427805;-0.0175633;-0.00322662;0.00635408;0.0864735;0.00796263;-0.0140323;0;0.0430114;-0.861126;-2.09633;-1.47968;2.70658;-7.89124;-0.0135082;0.0030172;0.0961348;0.0962177;-0.0135912;0.0549044;0.140513;7.11678;0.0691224;0.0732059;7.07944;0.141254;90.6764;135.676;-0.0140271;-0.0135036;0.00658396;-0.000192827;0.0961191;0.0346505;0.0866949;0;0.138994;8.37842;6.53259
652000;653;28.3439;2.58575;0.100386;-2.43957;28.2386;0.0653176;-0.347169;2.57925;-0.771052;-0.524244;0.483734;-0.726347;1.01804;-7.93333;-0.0174523;0.00168564;0.0871148;0.087142;-0.0174795;0.0523107;0.200337;4.9916;0.0647129;0.0697476;4.98539;0.200586;85.3494;130.349;0.00359581;-0.0174702;-0.00327043;0.00616496;0.0871112;0.00895166;-0.0166421;0;0.041284;-0.862626;-2.10059;-1.48534;2.71345;-7.89155;-0.0140254;0.00316594;0.0963259;0.0964167;-0.0141161;0.0552664;0.145603;6.86798;0.0694629;0.0736885;6.83026;0.146407;90.1813;135.181;-0.0170172;-0.0140204;0.00604135;0.000579935;0.0963138;0.0259934;0.0909556;0;0.144933;8.38416;6.53998
653000;654;28.3488;2.59064;0.100575;-2.43949;28.2436;0.0629148;-0.347091;2.58416;-0.773455;-0.524637;0.487483;-0.72047;1.01585;-7.92745;-0.0174799;0.00194057;0.0879825;0.0880182;-0.0175156;0.0527669;0.198675;5.03334;0.0653051;0.0703559;5.02512;0.199;85.3604;130.36;0.00444041;-0.0174982;-0.00288659;0.00629978;0.0879804;0.00662919;-0.0156335;0;0.0389105;-0.863702;-2.10913;-1.48101;2.71805;-7.89165;-0.0138983;0.00329257;0.0983374;0.0984339;-0.0139948;0.0562144;0.141333;7.0755;0.0707504;0.0749525;7.0336;0.142175;90.0979;135.098;-0.0136414;-0.0138931;0.00617255;0.000706859;0.098325;0.0255195;0.0916261;0;0.139183;8.38633;6.54732
654000;655;28.3605;2.60231;0.101029;-2.4421;28.2551;0.0593871;-0.349701;2.59566;-0.776982;-0.524015;0.494608;-0.72798;1.0243;-7.93496;-0.0172662;0.00182624;0.0880555;0.0880871;-0.0172979;0.0526925;0.196083;5.09988;0.0652594;0.0702566;5.09237;0.196372;85.3366;130.337;0.00377038;-0.0172847;-0.00313638;0.00630845;0.0880525;0.00665289;-0.0164039;0;0.036038;-0.865561;-2.11307;-1.48979;2.72649;-7.89928;-0.0132158;0.00425741;0.0984839;0.0986459;-0.0133778;0.0560119;0.134192;7.45199;0.0706467;0.0746825;7.37384;0.135614;89.4859;134.486;-0.0159981;-0.0132082;0.00698343;0.00180855;0.0984699;0.0175272;0.0919611;0;0.140628;8.37891;6.55282
655000;656;28.3743;2.61614;0.101565;-2.4421;28.2689;0.0665147;-0.349696;2.60952;-0.769855;-0.523093;0.496198;-0.720816;1.01952;-7.9278;-0.0173988;0.00185268;0.0882046;0.0882371;-0.0174313;0.0528342;0.197255;5.06959;0.065414;0.0704456;5.062;0.19755;85.376;130.376;0.00248114;-0.017417;-0.00304198;0.00627231;0.088202;0.00962037;-0.0140096;0;0.0340604;-0.864105;-2.12071;-1.48445;2.72904;-7.89595;-0.0134752;0.00288225;0.0967314;0.0968067;-0.0135506;0.0551786;0.139306;7.17845;0.0694964;0.0735715;7.14411;0.139976;90.3836;135.384;-0.00547829;-0.0134711;0.00588399;0.000182116;0.0967194;0.0164377;0.0780267;0;0.13298;8.37967;6.5557
656000;657;28.3869;2.62876;0.102056;-2.4416;28.2816;0.0673246;-0.349201;2.62224;-0.769045;-0.52481;0.501476;-0.718249;1.02117;-7.92523;-0.0175026;0.0016492;0.0877752;0.087801;-0.0175285;0.0526647;0.199403;5.01497;0.0651674;0.0702197;5.00905;0.199639;85.2571;130.257;0.00390499;-0.0175215;-0.00351413;0.00631278;0.0877708;0.00485054;-0.0122707;0;0.0351184;-0.866014;-2.12664;-1.48107;2.73243;-7.89263;-0.01285;0.00320802;0.0976066;0.0976997;-0.012943;0.0553214;0.13165;7.59587;0.0698483;0.0737618;7.54843;0.132478;90.562;135.562;-0.00687804;-0.0128447;0.00682704;-4.68305e-05;0.09759;0.0192751;0.0832446;0;0.127064;8.38033;6.56238
657000;658;28.3944;2.6363;0.102348;-2.44202;28.2892;0.0564415;-0.349623;2.62979;-0.779928;-0.524186;0.505993;-0.727137;1.02933;-7.93412;-0.0173332;0.00166499;0.0880717;0.088098;-0.0173595;0.0527287;0.196808;5.08108;0.0652923;0.070305;5.0749;0.197048;85.456;130.456;0.00374377;-0.0173508;-0.00325166;0.00610531;0.0880681;0.00596789;-0.0148261;0;0.0392837;-0.865836;-2.12905;-1.49453;2.74156;-7.90426;-0.0133974;0.00260495;0.0962559;0.0963178;-0.0134592;0.0548885;0.139185;7.18467;0.0691363;0.0731847;7.15625;0.139738;90.8335;135.834;-0.00880939;-0.0133941;0.00608988;-0.000531419;0.0962421;0.00540992;0.0798756;0;0.14703;8.38032;6.56944
658000;659;28.4106;2.65246;0.102975;-2.4428;28.3053;0.0698593;-0.350398;2.64591;-0.76651;-0.525766;0.51429;-0.740749;1.04386;-7.94773;-0.0172338;0.00163127;0.0876497;0.0876751;-0.0172592;0.0524671;0.196622;5.08591;0.0649718;0.0699562;5.0799;0.196854;85.3611;130.361;0.00434417;-0.0172519;-0.00340911;0.00618556;0.0876456;0.00544714;-0.0158544;0;0.0498872;-0.868831;-2.1338;-1.50296;2.75079;-7.91719;-0.0135413;0.00254792;0.0970932;0.0971518;-0.0136;0.0553759;0.139467;7.17014;0.0697446;0.0738345;7.14353;0.139987;90.9261;135.926;-0.0117067;-0.0135383;0.00614683;-0.000688082;0.0970789;0.0162112;0.0831385;0;0.144688;8.37686;6.57669
659000;660;28.4181;2.65991;0.103265;-2.44324;28.3128;0.0612397;-0.350836;2.65337;-0.77513;-0.525897;0.51355;-0.726224;1.0333;-7.9332;-0.0175758;0.00160428;0.0874918;0.0875163;-0.0176002;0.0525583;0.200885;4.97798;0.06501;0.0700777;4.97245;0.201108;85.2106;130.211;0.0044196;-0.0175948;-0.00362512;0.00632841;0.087487;0.00305422;-0.00938755;0;0.0378988;-0.869174;-2.14281;-1.49405;2.75305;-7.90829;-0.0132934;0.00264501;0.0975907;0.0976538;-0.0133564;0.0555051;0.136216;7.3413;0.0699808;0.0740068;7.31136;0.136773;90.668;135.668;-0.0131848;-0.0132899;0.00593503;-0.000312666;0.0975779;0.0209037;0.0894226;0;0.145009;8.37769;6.58454
660000;661;28.4307;2.67255;0.103756;-2.4462;28.3252;0.0669568;-0.353799;2.6658;-0.769413;-0.524346;0.519421;-0.726082;1.03534;-7.93306;-0.017528;0.00145223;0.0870874;0.0871075;-0.0175482;0.0523279;0.201269;4.96846;0.064719;0.0697705;4.96391;0.201454;85.2407;130.241;0.00306878;-0.0175466;-0.00381502;0.00621255;0.0870816;0.00851567;-0.00937344;0;0.0464667;-0.868632;-2.1475;-1.49522;2.75717;-7.90946;-0.0135186;0.00278553;0.0980735;0.098143;-0.0135881;0.0558656;0.137842;7.25471;0.0703965;0.0744874;7.22272;0.138452;90.7733;135.773;-0.0133151;-0.0135148;0.00636193;-0.000427445;0.0980586;0.0226141;0.0874696;0;0.14772;8.38182;6.59091
661000;662;28.4411;2.68294;0.104159;-2.44676;28.3356;0.0588186;-0.354354;2.67619;-0.777551;-0.524662;0.526179;-0.73513;1.04525;-7.94211;-0.0174876;0.00152658;0.0877793;0.0878014;-0.0175097;0.0526556;0.199222;5.01952;0.0651598;0.0702074;5.01443;0.199424;85.3004;130.3;0.00444885;-0.0175061;-0.00366985;0.00622011;0.0877742;0.00531849;-0.00672699;0;0.0386398;-0.871002;-2.1517;-1.50167;2.76468;-7.91323;-0.0139537;0.00291397;0.0995217;0.0995965;-0.0140285;0.0568125;0.140207;7.13229;0.0715338;0.07575;7.0996;0.140853;89.9932;134.993;-0.0138417;-0.0139497;0.00531884;0.000757273;0.0995127;0.0267085;0.0912615;0;0.142131;8.38045;6.59798
662000;663;28.4515;2.69349;0.104569;-2.44759;28.3459;0.059822;-0.355192;2.68655;-0.771456;-0.527098;0.53038;-0.736296;1.04941;-7.94328;-0.0174119;0.000938536;0.0881487;0.088157;-0.0174203;0.0527886;0.197529;5.06255;0.0653566;0.0703848;5.0606;0.197605;85.6437;130.644;0.00462692;-0.0174276;-0.00426252;0.00563502;0.0881407;0.00584693;-0.0100904;0;0.0434231;-0.873419;-2.15543;-1.50166;2.76834;-7.90626;-0.0140115;0.00325792;0.100271;0.100364;-0.0141043;0.0572341;0.139737;7.15632;0.0720722;0.0763122;7.11581;0.140532;89.7431;134.743;-0.0129367;-0.0140069;0.00553688;0.00121566;0.100262;0.026049;0.0977018;0;0.14102;8.38255;6.60473
663000;664;28.4581;2.69991;0.104818;-2.44844;28.3525;0.0620129;-0.356042;2.69307;-0.774357;-0.5261;0.536678;-0.743066;1.05686;-7.95005;-0.0175638;0.000905939;0.089146;0.0891537;-0.0175715;0.0533626;0.197023;5.07556;0.0660764;0.0711501;5.07377;0.197092;85.736;130.736;0.0038989;-0.0175792;-0.00426593;0.00557107;0.089138;0.00660904;-0.00799862;0;0.0458594;-0.873216;-2.16228;-1.50746;2.77676;-7.9181;-0.0141311;0.00361885;0.100423;0.100537;-0.0142453;0.0573911;0.140716;7.1065;0.0722427;0.0765215;7.05755;0.141692;89.0447;134.045;-0.0110255;-0.0141273;0.00503192;0.00235287;0.100417;0.0182727;0.094089;0;0.136104;8.38027;6.61194
664000;665;28.4744;2.71624;0.105452;-2.44904;28.3688;0.0728896;-0.356638;2.70938;-0.76348;-0.525644;0.539899;-0.742058;1.05756;-7.94904;-0.0176087;0.00142375;0.0889202;0.0889392;-0.0176277;0.0532835;0.198028;5.0498;0.0659586;0.0710446;5.04542;0.198199;85.3541;130.354;0.00404115;-0.0176272;-0.00386942;0.00619906;0.0889143;0.00494869;-0.0103889;0;0.046088;-0.873425;-2.1701;-1.50865;2.78356;-7.9202;-0.0136675;0.0029956;0.100311;0.10039;-0.0137462;0.0570681;0.136251;7.33939;0.0719478;0.0760908;7.3031;0.136928;90.3857;135.386;-0.00765711;-0.013663;0.0061455;0.000171976;0.100298;0.0124706;0.0795466;0;0.137141;8.3776;6.61823
665000;666;28.4802;2.72203;0.105676;-2.44931;28.3746;0.0654237;-0.356912;2.71519;-0.770946;-0.527502;0.542045;-0.732677;1.05304;-7.93966;-0.0177798;0.000920902;0.0892038;0.0892117;-0.0177878;0.0534997;0.199317;5.01713;0.0662051;0.071333;5.01534;0.199388;85.5872;130.587;0.00481538;-0.0177963;-0.00443649;0.00575206;0.0891952;0.00685911;-0.0111353;0;0.0466564;-0.875463;-2.17824;-1.50327;2.78765;-7.91735;-0.0140269;0.00173896;0.0991617;0.0991884;-0.0140536;0.056621;0.141455;7.0694;0.0712735;0.0754947;7.05786;0.141686;91.398;136.398;-0.0107054;-0.0140267;0.00546778;-0.00160589;0.0991495;0.00253725;0.0871587;0;0.140974;8.38031;6.62331
666000;667;28.4897;2.73156;0.106047;-2.45017;28.3841;0.0608104;-0.357767;2.72469;-0.775559;-0.52587;0.550054;-0.7468;1.06621;-7.95378;-0.0176289;0.00142264;0.0895483;0.0895671;-0.0176478;0.0536075;0.196865;5.07962;0.0663807;0.0714766;5.07525;0.197034;85.4367;130.437;0.00401476;-0.0176471;-0.00381092;0.00614135;0.0895425;0.00791228;-0.011227;0;0.0422891;-0.875468;-2.18257;-1.51133;2.79539;-7.92557;-0.0134972;0.00262689;0.0990412;0.0991024;-0.0135585;0.0563305;0.136278;7.33792;0.0710205;0.0751073;7.30927;0.136813;90.4483;135.448;-0.0110329;-0.0134937;0.00555947;-5.42436e-06;0.0990302;0.0142544;0.083837;0;0.14214;8.3792;6.62851
667000;668;28.4993;2.74119;0.10642;-2.45064;28.3937;0.0574738;-0.358237;2.73432;-0.778896;-0.525748;0.552513;-0.744;1.06547;-7.95098;-0.017635;0.00127527;0.090064;0.0900791;-0.0176501;0.0538646;0.195805;5.10711;0.0667189;0.0718195;5.1036;0.19594;85.4892;130.489;0.00481945;-0.0176529;-0.00403928;0.00606472;0.0900573;0.00560544;-0.0120302;0;0.0461121;-0.875791;-2.18947;-1.51183;2.80115;-7.92607;-0.0136569;0.00267253;0.0994229;0.099486;-0.01372;0.056603;0.137362;7.28006;0.0713385;0.0754707;7.25116;0.137909;90.5468;135.547;-0.0111544;-0.0136533;0.00580411;-0.000136974;0.0994108;0.0105792;0.0822522;0;0.147124;8.37687;6.63419
668000;669;28.5074;2.74926;0.106734;-2.45105;28.4018;0.0549961;-0.358644;2.7424;-0.781374;-0.527805;0.555766;-0.739784;1.06524;-7.94676;-0.0177489;0.00125525;0.0903491;0.0903637;-0.0177635;0.0540636;0.196448;5.09039;0.0669538;0.0720848;5.08704;0.196578;85.5795;130.579;0.00299234;-0.0177662;-0.00396465;0.00595761;0.0903426;0.00762001;-0.012746;0;0.0374428;-0.878447;-2.19589;-1.50752;2.80468;-7.92175;-0.0138595;0.00307576;0.0998288;0.099912;-0.0139427;0.0569273;0.138833;7.20289;0.0717088;0.0759031;7.1659;0.13955;90.2388;135.239;-0.0158886;-0.0138548;0.00602947;0.000427355;0.0998166;0.026627;0.0912937;0;0.148881;8.37653;6.64198
669000;670;28.5151;2.75696;0.107032;-2.45229;28.4094;0.0516774;-0.359887;2.75002;-0.784692;-0.527994;0.559651;-0.73768;1.06591;-7.94466;-0.0178406;0.0015236;0.0901581;0.0901796;-0.0178621;0.0540209;0.197882;5.05353;0.0668737;0.0720278;5.04865;0.198073;85.3633;130.363;0.00452635;-0.0178597;-0.00377779;0.00629975;0.0901526;0.00489622;-0.0111943;0;0.0390025;-0.879526;-2.20058;-1.50874;2.80934;-7.92298;-0.0140081;0.00304157;0.100037;0.100118;-0.0140892;0.0571034;0.14003;7.14132;0.0719031;0.0761379;7.10599;0.140726;90.1605;135.161;-0.0162448;-0.0140036;0.00583168;0.000540704;0.100025;0.0256751;0.0952099;0;0.149143;8.37586;6.64834
670000;671;28.5271;2.76893;0.107497;-2.453;28.4214;0.0469754;-0.360595;2.76199;-0.789394;-0.526685;0.569121;-0.753752;1.08141;-7.96073;-0.0177937;0.0012965;0.0901143;0.0901299;-0.0178092;0.0539696;0.197457;5.0644;0.0668189;0.0719594;5.06085;0.197595;85.5151;130.515;0.00333809;-0.0178113;-0.00396006;0.00603269;0.0901079;0.00682325;-0.0119749;0;0.0407241;-0.879887;-2.20286;-1.52212;2.81845;-7.93368;-0.0140542;0.00341924;0.101469;0.10157;-0.0141554;0.0578627;0.138508;7.2198;0.0728914;0.0771502;7.17537;0.139366;89.5745;134.574;-0.0129417;-0.0140495;0.0055521;0.00151007;0.10146;0.025811;0.0991358;0;0.141536;8.37616;6.6555
671000;672;28.5387;2.7806;0.10795;-2.45377;28.433;0.0560762;-0.361365;2.77362;-0.780293;-0.526765;0.573082;-0.754111;1.08378;-7.96109;-0.01783;0.0015512;0.0902625;0.0902848;-0.0178522;0.0540685;0.197535;5.0624;0.0669389;0.0720913;5.05733;0.197733;85.2944;130.294;0.00430941;-0.0178496;-0.00383645;0.00640466;0.0902569;0.00624742;-0.0115898;0;0.0371418;-0.880637;-2.2093;-1.52147;2.82337;-7.93302;-0.0144263;0.0033131;0.102254;0.102348;-0.0145203;0.0584343;0.141082;7.08806;0.0735517;0.0779124;7.04865;0.141871;89.5067;134.507;-0.0135617;-0.014422;0.00522658;0.00160216;0.102247;0.0340147;0.0964598;0;0.145926;8.37364;6.66289
672000;673;28.5491;2.79091;0.108351;-2.45427;28.4433;0.0515057;-0.361872;2.78393;-0.784864;-0.529378;0.577196;-0.753547;1.08684;-7.96053;-0.0180109;0.00152213;0.0899709;0.0899923;-0.0180323;0.0540123;0.200186;4.99536;0.0668217;0.0720165;4.99061;0.200376;85.3084;130.308;0.0031272;-0.0180302;-0.00382962;0.00634365;0.0899652;0.00725791;-0.00968008;0;0.0445583;-0.882402;-2.21209;-1.51801;2.82424;-7.92231;-0.0143927;0.00369622;0.100903;0.101021;-0.0145111;0.0577662;0.142639;7.0107;0.0726691;0.0770215;6.96167;0.143644;89.3159;134.316;-0.0151626;-0.0143878;0.00560924;0.00198353;0.100895;0.028328;0.0992455;0;0.14103;8.37277;6.67068
673000;674;28.5543;2.79614;0.108554;-2.45543;28.4485;0.040953;-0.363024;2.78909;-0.795417;-0.528794;0.58263;-0.762319;1.09554;-7.9693;-0.0180293;0.00203214;0.0896319;0.0896702;-0.0180676;0.0538689;0.201148;4.97145;0.0666244;0.0718252;4.96303;0.20149;84.9826;129.983;0.00436598;-0.0180514;-0.00336408;0.00689514;0.0896286;0.00491813;-0.00809696;0;0.0422788;-0.882574;-2.21734;-1.52508;2.83221;-7.92937;-0.0138031;0.00380029;0.100933;0.101058;-0.0139288;0.0574936;0.136755;7.31235;0.0724629;0.0766582;7.25537;0.137829;89.4025;134.403;-0.0111633;-0.0137975;0.00597412;0.001853;0.100923;0.0169418;0.082596;0;0.136551;8.37524;6.67771
674000;675;28.5758;2.81768;0.10939;-2.45776;28.4699;0.0597294;-0.365361;2.81048;-0.77664;-0.527377;0.584717;-0.754243;1.09037;-7.96122;-0.0182107;0.00156587;0.0898507;0.0898734;-0.0182334;0.0540534;0.202678;4.93394;0.0668278;0.0720712;4.92905;0.202879;85.1769;130.177;0.00477202;-0.018231;-0.00391292;0.00650138;0.0898448;0.00502261;-0.00841241;0;0.0386499;-0.883442;-2.22771;-1.5222;2.83906;-7.9337;-0.0141279;0.00305309;0.101522;0.101602;-0.0142084;0.0579055;0.139161;7.18593;0.0729339;0.0772073;7.15086;0.139843;90.3162;135.316;-0.0028768;-0.0141232;0.0061279;0.000301094;0.101509;0.00726435;0.0738312;0;0.146546;8.37506;6.68552
675000;676;28.5854;2.82729;0.109763;-2.4586;28.4795;0.0547323;-0.366199;2.82006;-0.781637;-0.528222;0.59121;-0.758985;1.09755;-7.96597;-0.0181578;0.00221848;0.0903844;0.0904297;-0.0182032;0.0543165;0.200896;4.97771;0.0671814;0.0724219;4.9678;0.201296;84.7598;129.76;0.00408725;-0.0181824;-0.00341559;0.00729166;0.0903813;0.0046526;-0.00987977;0;0.0393903;-0.884835;-2.23333;-1.52867;2.84737;-7.94518;-0.0133405;0.00214122;0.101505;0.101544;-0.0133804;0.0574625;0.131428;7.60873;0.0725688;0.0766166;7.58902;0.131769;90.4356;135.436;-0.00963777;-0.0133382;0.00469186;-0.000143494;0.101497;0.0108105;0.0820166;0;0.144115;8.37649;6.69018
676000;677;28.5936;2.83545;0.11008;-2.45944;28.4876;0.0458803;-0.367035;2.8282;-0.790489;-0.530111;0.596564;-0.763264;1.1043;-7.97024;-0.0185286;0.00202453;0.0904455;0.0904831;-0.0185662;0.0545246;0.204859;4.8814;0.067369;0.0726995;4.87354;0.20519;84.8382;129.838;0.00435352;-0.0185522;-0.00362492;0.00710935;0.0904413;0.0073875;-0.00475248;0;0.0363517;-0.885874;-2.23626;-1.52994;2.85068;-7.93967;-0.0135854;0.00334102;0.100165;0.100263;-0.0136835;0.0569733;0.135631;7.37297;0.071839;0.0759644;7.32731;0.136476;89.9589;134.959;-0.00802073;-0.0135802;0.0060703;0.000893913;0.100153;0.00181759;0.0853166;0;0.150648;8.37662;6.69867
677000;678;28.607;2.84888;0.110601;-2.46214;28.5008;0.0488301;-0.369733;2.84144;-0.787539;-0.530012;0.60074;-0.764424;1.10731;-7.9714;-0.0184663;0.00214464;0.0913459;0.0913877;-0.0185082;0.0549479;0.202158;4.94663;0.0679401;0.0732639;4.9377;0.202524;84.7861;129.786;0.00534796;-0.0184911;-0.00358188;0.00729489;0.0913421;0.00491798;-0.00507877;0;0.0372324;-0.88743;-2.24604;-1.53314;2.86055;-7.94737;-0.0137585;0.00298013;0.101719;0.101796;-0.0138354;0.0578156;0.13526;7.39316;0.0729146;0.0770875;7.35764;0.135913;89.9173;134.917;-0.0102255;-0.0137544;0.00534094;0.000866759;0.10171;0.0168655;0.0831014;0;0.149151;8.37885;6.70377
678000;679;28.6152;2.8571;0.11092;-2.461;28.5092;0.0429147;-0.368602;2.84979;-0.793455;-0.529188;0.603936;-0.756594;1.10327;-7.96357;-0.0185379;0.0018921;0.0915609;0.0915934;-0.0185704;0.0550819;0.202465;4.93912;0.0681017;0.0734425;4.93223;0.202748;84.9564;129.956;0.0060873;-0.0185611;-0.00379542;0.00700592;0.0915559;0.00215497;-0.00519349;0;0.0389602;-0.887401;-2.25249;-1.52807;2.8629;-7.9423;-0.0139473;0.00278772;0.102251;0.102318;-0.0140142;0.0581658;0.136403;7.33121;0.0733308;0.0775544;7.30101;0.136967;90.3147;135.315;-0.0116705;-0.0139434;0.00565924;0.000218897;0.10224;0.0151884;0.090134;0;0.145938;8.37646;6.7076
679000;680;28.6245;2.86637;0.11128;-2.46176;28.5184;0.0402577;-0.369359;2.85904;-0.796112;-0.530426;0.612868;-0.773609;1.12046;-7.98059;-0.0187333;0.00201166;0.0929729;0.0930091;-0.0187695;0.0558893;0.201492;4.96298;0.0691173;0.0745191;4.95533;0.201803;84.8608;129.861;0.00559844;-0.0187582;-0.00384826;0.00727262;0.0929679;0.00420287;-0.00652707;0;0.0408503;-0.89016;-2.25706;-1.54481;2.87631;-7.95841;-0.01475;0.00198178;0.103018;0.103052;-0.0147833;0.0589175;0.143178;6.98431;0.074122;0.0785567;6.97081;0.143455;89.7573;134.757;-0.0176104;-0.0147484;0.00320737;0.000887041;0.103015;0.0192293;0.107483;0;0.161917;8.37644;6.71433
680000;681;28.6337;2.87556;0.111637;-2.46446;28.5274;0.0426293;-0.372053;2.86803;-0.79374;-0.52947;0.617807;-0.777918;1.12569;-7.9849;-0.0190227;0.00236358;0.0929325;0.0929823;-0.0190726;0.0560275;0.204694;4.88534;0.0692271;0.0747033;4.87518;0.205121;84.7942;129.794;0.00541477;-0.0190482;-0.00331034;0.00745624;0.09293;0.00748216;-0.00846631;0;0.05122;-0.890253;-2.26064;-1.54273;2.87803;-7.95213;-0.0149053;0.00292609;0.104882;0.104954;-0.0149768;0.0599653;0.142115;7.03657;0.0754585;0.0799537;7.00778;0.142699;88.8879;133.888;-0.0147999;-0.0149041;0.00342305;0.00248301;0.104881;0.0250479;0.111629;0;0.151883;8.37359;6.72176
681000;682;28.644;2.88586;0.112037;-2.46427;28.5378;0.0433885;-0.371868;2.87838;-0.792981;-0.530047;0.622806;-0.777645;1.12852;-7.98463;-0.0184823;0.0030474;0.0939565;0.094039;-0.0185648;0.0563019;0.196711;5.08359;0.0697099;0.0750693;5.06544;0.197416;84.5586;129.559;0.00605816;-0.0185111;-0.00259505;0.00810983;0.0939577;0.00105214;-0.0124699;0;0.0433366;-0.890656;-2.26607;-1.54392;2.88306;-7.95232;-0.0145395;0.00281872;0.101894;0.101962;-0.0146077;0.058285;0.142692;7.0081;0.0733308;0.0777134;6.98005;0.143265;89.1643;134.164;-0.0126769;-0.0145375;0.00374334;0.00199179;0.101891;0.0171972;0.0974128;0;0.152081;8.37318;6.72922
682000;683;28.6456;2.88742;0.112097;-2.46601;28.5392;0.0335023;-0.373612;2.87981;-0.802867;-0.530788;0.626727;-0.777941;1.13124;-7.98492;-0.0185223;0.00294463;0.0943802;0.0944569;-0.0185991;0.056528;0.196252;5.09548;0.0699995;0.0753707;5.07859;0.196905;84.4934;129.493;0.00812917;-0.0185521;-0.0029114;0.00819645;0.0943803;0.00124736;-0.0150113;0;0.0450448;-0.891729;-2.27021;-1.54512;2.88729;-7.95147;-0.0143728;0.00448198;0.10203;0.102203;-0.0145451;0.0583738;0.140868;7.09885;0.0734649;0.0778318;7.02659;0.142316;88.7567;133.757;-0.0191915;-0.0143673;0.00609854;0.00303617;0.102022;0.0164007;0.0890844;0;0.145492;8.3729;6.73635
683000;684;28.6562;2.89804;0.11251;-2.46612;28.5499;0.0310896;-0.373721;2.89046;-0.80528;-0.531154;0.632286;-0.781801;1.13716;-7.98878;-0.0185995;0.00302169;0.0937429;0.0938241;-0.0186807;0.0562524;0.198409;5.04009;0.0696168;0.0750032;5.02252;0.199103;84.4384;129.438;0.00642855;-0.0186294;-0.00278799;0.00823455;0.0937435;0.00329994;-0.0132837;0;0.0467807;-0.893001;-2.27453;-1.54608;2.89159;-7.94668;-0.0147626;0.00299438;0.101242;0.101319;-0.0148399;0.0580797;0.145815;6.858;0.0729975;0.0774396;6.82751;0.146466;89.3237;134.324;-0.0106284;-0.0147597;0.00432677;0.00180233;0.101238;0.0145994;0.0835227;0;0.145616;8.37417;6.74452
684000;685;28.6748;2.91661;0.11323;-2.4665;28.5684;0.0445737;-0.374099;2.90905;-0.791796;-0.5315;0.637039;-0.780119;1.13881;-7.9871;-0.0187391;0.00277076;0.0944171;0.0944849;-0.0188069;0.0566459;0.198472;5.0385;0.0701049;0.0755279;5.02394;0.199047;84.5044;129.504;0.00516155;-0.0187688;-0.00318992;0.00811506;0.0944159;0.00588036;-0.0160129;0;0.0440158;-0.894649;-2.28479;-1.549;2.90173;-7.96323;-0.0143718;0.00286739;0.103368;0.103437;-0.0144416;0.0589395;0.139036;7.19238;0.0742418;0.078586;7.16246;0.139617;90.008;135.008;-0.00499253;-0.0143679;0.00527263;0.000718799;0.103359;0.00897655;0.0779554;0;0.143427;8.36921;6.7516
685000;686;28.6861;2.928;0.113673;-2.46794;28.5798;0.0400054;-0.375535;2.92037;-0.796364;-0.531306;0.642621;-0.784125;1.1446;-7.9911;-0.0189313;0.00231283;0.0933527;0.0934004;-0.0189789;0.0561897;0.202793;4.93113;0.0694629;0.0749195;4.92126;0.2032;84.7052;129.705;0.00419818;-0.018958;-0.00357433;0.00759533;0.0933493;0.00761516;-0.0153419;0;0.0397143;-0.895728;-2.28985;-1.54901;2.90606;-7.96102;-0.0137858;0.00274832;0.103156;0.10322;-0.0138503;0.0585353;0.133641;7.48276;0.0738644;0.078047;7.45254;0.134182;89.5775;134.578;-0.00715377;-0.0137828;0.00433726;0.00132782;0.103151;0.00389455;0.0838945;0;0.144517;8.36908;6.75922
686000;687;28.6961;2.93796;0.114059;-2.46711;28.5898;0.0314774;-0.374707;2.93044;-0.804892;-0.532647;0.650155;-0.784019;1.14939;-7.9962;-0.0185006;0.00216472;0.0923593;0.0924015;-0.0185428;0.0554722;0.200311;4.99224;0.0686222;0.0739629;4.98314;0.200677;85.1331;130.133;0.00126358;-0.0185227;-0.00314594;0.00693637;0.0923569;0.0149561;-0.0169781;0;0.0428551;-0.897279;-2.29592;-1.55154;2.91267;-7.9631;-0.0133674;0.00364294;0.104686;0.104799;-0.0134797;0.0591392;0.12769;7.83149;0.0747652;0.0788523;7.77457;0.128624;89.4914;134.491;-0.00864488;-0.013362;0.00585793;0.00166465;0.104677;0.012121;0.0814241;0;0.144834;8.36926;6.766
687000;688;28.71;2.95183;0.114598;-2.46812;28.6037;0.0380941;-0.375719;2.94427;-0.798275;-0.533093;0.656664;-0.789946;1.15733;-8.00213;-0.0187315;0.00189776;0.0927446;0.0927769;-0.0187638;0.0557704;0.201969;4.95125;0.0689621;0.0743605;4.94445;0.202247;85.2799;130.28;0.00171911;-0.0187524;-0.00342071;0.00667362;0.0927409;0.0136678;-0.0155313;0;0.0362641;-0.898351;-2.30287;-1.55839;2.92212;-7.97412;-0.0141627;0.00228242;0.103437;0.103482;-0.014207;0.0588443;0.136921;7.3035;0.0741783;0.0784591;7.28386;0.13729;90.01;135.01;-0.0127588;-0.0141602;0.00421163;0.000558817;0.103432;0.0146672;0.0757613;0;0.144619;8.36909;6.77125
688000;689;28.7208;2.96269;0.11502;-2.46911;28.6145;0.029512;-0.376706;2.9551;-0.806858;-0.533173;0.661515;-0.79001;1.16017;-8.00219;-0.0185712;0.00179367;0.0926525;0.0926815;-0.0186001;0.0556408;0.200439;4.98905;0.0688305;0.0741877;4.98285;0.200688;85.2609;130.261;0.00184465;-0.0185922;-0.00363057;0.00666572;0.092648;0.0141928;-0.0161465;0;0.0361105;-0.899469;-2.308;-1.56113;2.92798;-7.97686;-0.0144538;0.00273038;0.103771;0.103834;-0.0145168;0.0591756;0.139285;7.17954;0.0745346;0.0789008;7.15271;0.139807;89.3735;134.374;-0.0136928;-0.0144514;0.00392788;0.00166114;0.103768;0.014157;0.0984352;0;0.152878;8.36488;6.77572
689000;690;28.7302;2.97205;0.115383;-2.47121;28.6237;0.0271508;-0.37881;2.96432;-0.809219;-0.532955;0.664094;-0.791198;1.16235;-8.00338;-0.0186027;0.0016892;0.0930765;0.0931021;-0.0186282;0.0558651;0.199864;5.0034;0.0691193;0.0744869;4.99791;0.200084;85.1844;130.184;0.00215141;-0.0186245;-0.00395966;0.00676088;0.0930707;0.0148575;-0.0113058;0;0.038453;-0.900573;-2.31464;-1.56495;2.93558;-7.98067;-0.0148346;0.00256518;0.105323;0.105378;-0.0148893;0.0601334;0.140849;7.09982;0.0757045;0.0801779;7.07739;0.141295;89.0524;134.052;-0.0131241;-0.0148336;0.00304498;0.00213753;0.105322;0.0208128;0.101143;0;0.156411;8.36836;6.78127
690000;691;28.7431;2.98491;0.115882;-2.47156;28.6366;0.0311762;-0.379163;2.97718;-0.805193;-0.533817;0.668571;-0.795913;1.16851;-8.00289;-0.0191817;0.00213978;0.0947562;0.0947963;-0.0192219;0.0570091;0.202432;4.93992;0.070484;0.0760121;4.93169;0.20277;84.6405;129.64;0.00451071;-0.0192098;-0.00409563;0.00772616;0.0947506;0.00777934;-0.013239;0;0.0431875;-0.900635;-2.31793;-1.56671;2.93913;-7.97578;-0.0154569;0.00177139;0.104285;0.104311;-0.0154831;0.0598972;0.148217;6.74685;0.0752348;0.0798629;6.73712;0.148431;89.4853;134.485;-0.0190036;-0.0154561;0.00234089;0.00126365;0.104284;0.0270368;0.106298;0;0.162657;8.36563;6.78853
691000;692;28.7541;2.99594;0.11631;-2.47185;28.6476;0.0383082;-0.379447;2.98822;-0.798061;-0.533934;0.673379;-0.794639;1.17046;-8.00162;-0.0195446;0.00133842;0.0952489;0.0952645;-0.0195602;0.0574123;0.205195;4.87342;0.0709344;0.0765498;4.87033;0.205325;85.1036;130.104;0.00505232;-0.0195676;-0.00482816;0.00685864;0.0952391;0.00927558;-0.0168524;0;0.0473788;-0.901778;-2.32084;-1.5635;2.94008;-7.97072;-0.0149382;0.00305369;0.104703;0.104781;-0.0150161;0.0598984;0.142673;7.00905;0.0753596;0.0798646;6.97788;0.14331;88.745;133.745;-0.0171536;-0.0149373;0.00341051;0.00273552;0.104702;0.0363067;0.0978324;0;0.154848;8.36669;6.79576
692000;693;28.7669;3.00871;0.116806;-2.47391;28.6602;0.0463865;-0.381512;3.00086;-0.789983;-0.533737;0.676676;-0.79322;1.17131;-8.0002;-0.0196686;0.00145557;0.0951086;0.095127;-0.019687;0.057407;0.206801;4.83556;0.0708974;0.0765427;4.83196;0.206955;85.0705;130.071;0.00424515;-0.0196919;-0.00465117;0.00692222;0.0950996;0.0117863;-0.0118224;0;0.0468902;-0.902806;-2.33117;-1.56445;2.94906;-7.97736;-0.0137899;0.00357622;0.104048;0.104157;-0.0138983;0.0590275;0.132533;7.54528;0.074504;0.0787034;7.49421;0.133436;88.6148;133.615;-0.0184379;-0.013788;0.00418768;0.00303003;0.104046;0.0102906;0.0940684;0;0.152693;8.36554;6.80341
693000;694;28.7769;3.01878;0.117197;-2.47378;28.6704;0.0454738;-0.381381;3.01098;-0.790896;-0.534415;0.684135;-0.8001;1.18059;-8.00708;-0.0193527;0.00119737;0.096862;0.0968743;-0.019365;0.0581197;0.199796;5.0051;0.0719123;0.0774929;5.00255;0.199898;85.2396;130.24;0.00393171;-0.0193753;-0.00503708;0.00677123;0.0968511;0.0112867;-0.0155017;0;0.0455692;-0.905282;-2.33562;-1.57031;2.95644;-7.9829;-0.0145894;0.00418481;0.105464;0.105609;-0.0147351;0.0601723;0.138336;7.22878;0.0757969;0.0802297;7.16719;0.139525;88.532;133.532;-0.0134184;-0.0145863;0.00510715;0.00336263;0.10546;0.00344372;0.084898;0;0.146559;8.36541;6.81066
694000;695;28.7862;3.02807;0.117558;-2.47496;28.6796;0.0467215;-0.382562;3.02019;-0.789648;-0.53431;0.687541;-0.80172;1.18362;-8.0087;-0.0193826;0.00137615;0.0968046;0.0968209;-0.0193989;0.0581099;0.200224;4.9944;0.0718913;0.0774799;4.99105;0.200359;85.1384;130.138;0.00528636;-0.0194064;-0.00487062;0.00696115;0.0967946;0.0122855;-0.013765;0;0.0420515;-0.905224;-2.34181;-1.56744;2.95979;-7.97716;-0.0141012;0.00338268;0.104286;0.104383;-0.0141978;0.0592902;0.135217;7.39553;0.0747716;0.0790536;7.35202;0.136017;89.3997;134.4;-0.00558705;-0.014097;0.00518264;0.00177568;0.104279;-0.000950997;0.0819147;0;0.145116;8.36175;6.81823
695000;696;28.7959;3.03774;0.117933;-2.47392;28.6894;0.0423753;-0.381519;3.02999;-0.793994;-0.534463;0.692953;-0.804484;1.18871;-8.01146;-0.0189908;0.00190537;0.0972323;0.0972635;-0.019022;0.0581428;0.195314;5.11997;0.0720252;0.0775237;5.11321;0.195572;84.9312;129.931;0.00685036;-0.0190174;-0.00432842;0.00747879;0.0972254;0.00466455;-0.0161495;0;0.0419871;-0.906664;-2.34802;-1.57047;2.96675;-7.97981;-0.0137232;0.00308802;0.107183;0.107262;-0.013802;0.060532;0.128034;7.8104;0.0765247;0.0807093;7.7715;0.128675;89.0448;134.045;-0.00914548;-0.0137209;0.0040036;0.00227242;0.10718;0.0199423;0.0778997;0;0.138203;8.36191;6.82547
696000;697;28.8061;3.04799;0.118331;-2.47536;28.6996;0.0391329;-0.382954;3.04016;-0.797237;-0.534718;0.695821;-0.803074;1.18954;-8.01005;-0.0187934;0.00167051;0.0980018;0.0980257;-0.0188173;0.0584215;0.191766;5.21468;0.0724422;0.0778953;5.20933;0.191963;85.0503;130.05;0.00372546;-0.0188193;-0.00464562;0.00731474;0.0979932;0.00851114;-0.0175564;0;0.0472146;-0.90816;-2.35501;-1.57383;2.97452;-7.98538;-0.013791;0.00336282;0.107048;0.107141;-0.0138845;0.060513;0.12883;7.76215;0.0764771;0.080684;7.71661;0.129591;89.0407;134.041;-0.00928083;-0.0137881;0.00450454;0.00234571;0.107044;0.0144684;0.0830143;0;0.141979;8.36143;6.83252
697000;698;28.815;3.05681;0.118674;-2.47523;28.7084;0.0339564;-0.38283;3.04903;-0.802413;-0.534352;0.702041;-0.80854;1.19672;-8.01552;-0.0183521;0.00193383;0.0975372;0.0975695;-0.0183843;0.0579769;0.188155;5.31478;0.0719615;0.0773025;5.30721;0.188423;84.8572;129.857;0.00518297;-0.01838;-0.00446563;0.00765751;0.0975298;0.00380777;-0.0170704;0;0.0411826;-0.908089;-2.3623;-1.58402;2.98566;-8.00238;-0.0147994;0.0018464;0.105023;0.105051;-0.0148279;0.0599395;0.140916;7.09641;0.0754639;0.0799194;7.08471;0.141149;90.1689;135.169;-0.0104275;-0.0147977;0.00367704;0.000214252;0.105018;0.00824833;0.087152;0;0.159716;8.35913;6.8379
698000;699;28.8259;3.06771;0.119097;-2.47588;28.7193;0.032914;-0.383478;3.05992;-0.803456;-0.534796;0.707397;-0.808776;1.20022;-8.01576;-0.0187459;0.00176017;0.0972226;0.0972493;-0.0187726;0.0580109;0.192814;5.18635;0.0719118;0.0773479;5.18039;0.193036;84.9631;129.963;0.00522508;-0.0187722;-0.00455026;0.00740358;0.0972145;0.00627093;-0.019973;0;0.0430293;-0.909778;-2.36458;-1.58482;2.98841;-7.99906;-0.0147976;0.00259957;0.107124;0.10718;-0.014853;0.0610163;0.138135;7.23931;0.0768838;0.0813551;7.21603;0.13858;89.1302;134.13;-0.0125679;-0.0147963;0.00322603;0.0020421;0.107123;0.0205663;0.0918735;0;0.154071;8.36204;6.84493
699000;700;28.8382;3.08008;0.119577;-2.476;28.7317;0.0359619;-0.383602;3.07232;-0.800408;-0.533598;0.710932;-0.807301;1.20079;-8.01428;-0.0191714;0.00187987;0.0968066;0.0968371;-0.0192019;0.0580195;0.198038;5.04953;0.0718195;0.0773593;5.0431;0.198291;84.6413;129.641;0.00399235;-0.0192008;-0.00476042;0.00781795;0.0967979;0.00744977;-0.0200975;0;0.0425099;-0.908292;-2.37221;-1.58223;2.99263;-7.99354;-0.0154805;0.0023884;0.104668;0.104716;-0.015528;0.0601218;0.147901;6.76128;0.0755204;0.0801624;6.74368;0.148287;89.1958;134.196;-0.0183304;-0.0154794;0.00296302;0.00187628;0.104667;0.0259812;0.100131;0;0.158932;8.36121;6.84903
700000;701;28.8526;3.09449;0.120136;-2.47561;28.7462;0.0472925;-0.383212;3.0868;-0.789077;-0.535382;0.718917;-0.809962;1.2081;-8.02215;-0.0183691;0.001369;0.0961181;0.0961345;-0.0183854;0.0572599;0.191109;5.23261;0.0710159;0.0763466;5.22884;0.191247;85.3382;130.338;0.00121717;-0.018391;-0.00458665;0.00670256;0.0961093;0.0170827;-0.0181685;0;0.0434298;-0.910513;-2.375;-1.58044;2.99457;-7.98577;-0.0148714;0.00458936;0.106477;0.106651;-0.0150447;0.0608477;0.139667;7.1599;0.0766094;0.0811303;7.08894;0.141065;87.4004;132.4;-0.024043;-0.0148748;0.00381663;0.00527735;0.10648;0.0329504;0.096191;0;0.16197;8.36196;6.85379
701000;702;28.8655;3.10736;0.120636;-2.47663;28.759;0.0509236;-0.384228;3.09963;-0.785446;-0.536293;0.724118;-0.812877;1.21356;-8.02506;-0.0184545;0.00100389;0.0957419;0.0957508;-0.0184634;0.0571071;0.192753;5.18799;0.0707954;0.0761427;5.18599;0.192827;85.5634;130.563;0.00168195;-0.0184739;-0.00484832;0.00624617;0.0957317;0.015292;-0.0180744;0;0.0474463;-0.913036;-2.38332;-1.58743;3.00562;-8.00002;-0.0150065;0.00444018;0.107305;0.107466;-0.0151675;0.0613166;0.139849;7.15054;0.0771979;0.0817555;7.08527;0.141138;87.645;132.645;-0.016433;-0.0150086;0.00394315;0.0048823;0.107307;0.0245513;0.0912698;0;0.148001;8.35936;6.86127
702000;703;28.8784;3.12023;0.121136;-2.48049;28.7716;0.0500978;-0.388084;3.11221;-0.786272;-0.536827;0.729625;-0.817188;1.21997;-8.02937;-0.0185962;0.0011212;0.095821;0.095832;-0.0186072;0.0572196;0.194072;5.15272;0.0709089;0.0762928;5.15027;0.194165;85.4287;130.429;0.00358235;-0.0186168;-0.00484261;0.00646228;0.0958109;0.0115906;-0.0204395;0;0.0399092;-0.915033;-2.38964;-1.59217;3.01375;-8.00569;-0.0147311;0.00394378;0.107183;0.10731;-0.0148585;0.0610844;0.137439;7.27598;0.0769726;0.0814459;7.22215;0.138463;88.3388;133.339;-0.0125856;-0.0147299;0.00428267;0.00364221;0.107182;0.014702;0.0937898;0;0.145289;8.35816;6.86856
703000;704;28.8906;3.13249;0.121612;-2.48013;28.7839;0.0503023;-0.387727;3.12455;-0.786067;-0.537132;0.735901;-0.820559;1.22612;-8.03274;-0.0185798;0.00068951;0.0961688;0.096173;-0.018584;0.0573785;0.1932;5.17598;0.0711239;0.0765046;5.17505;0.193235;85.9727;130.973;0.00360378;-0.0185956;-0.00480976;0.00561309;0.0961585;0.0112848;-0.0227989;0;0.0497351;-0.915383;-2.39272;-1.58511;3.01257;-7.9894;-0.0139163;0.00410994;0.106121;0.106261;-0.0140569;0.0601592;0.131137;7.62564;0.0759614;0.0802122;7.55939;0.132286;88.1431;133.143;-0.0106196;-0.0139157;0.00429104;0.00394849;0.10612;0.0222092;0.090619;0;0.13553;8.35817;6.87636
704000;705;28.9038;3.14567;0.122123;-2.48295;28.7969;0.0492886;-0.390548;3.13754;-0.787081;-0.536755;0.738823;-0.815835;1.22456;-8.02802;-0.0188112;0.00051566;0.0960445;0.0960468;-0.0188135;0.0574302;0.195859;5.10571;0.0711365;0.0765736;5.1052;0.195879;85.8851;130.885;0.00491809;-0.0188273;-0.00522061;0.00565081;0.0960322;0.0103581;-0.0160073;0;0.0418801;-0.916991;-2.40355;-1.5878;3.02308;-8.00166;-0.0135389;0.00300349;0.108564;0.108638;-0.0136127;0.0611254;0.124708;8.01871;0.0773632;0.0815005;7.98065;0.125303;88.7294;133.729;-0.011215;-0.0135382;0.00325649;0.00277835;0.108564;0.0218202;0.0852165;0;0.144419;8.3571;6.88353
705000;706;28.9126;3.1545;0.122466;-2.48194;28.8059;0.0429897;-0.389539;3.1465;-0.79338;-0.53649;0.74327;-0.81437;1.22616;-8.02655;-0.0189005;0.000588502;0.0970722;0.0970751;-0.0189034;0.0579893;0.194705;5.13597;0.0718516;0.0773191;5.13531;0.19473;85.7118;130.712;0.00439208;-0.0189185;-0.00543632;0.00597641;0.0970588;0.0112136;-0.02026;0;0.0411913;-0.916568;-2.41025;-1.58932;3.02908;-8.00356;-0.0145107;0.00276567;0.107362;0.107425;-0.0145734;0.0609992;0.135156;7.39886;0.076936;0.0813323;7.37132;0.135661;88.9718;133.972;-0.0119351;-0.0145095;0.00325219;0.00233269;0.107361;0.016252;0.0941828;0;0.147042;8.35516;6.89067
706000;707;28.9237;3.16558;0.122896;-2.48194;28.817;0.0433466;-0.389535;3.15762;-0.793023;-0.537476;0.749222;-0.822996;1.23594;-8.02998;-0.0194958;0.000831261;0.0977561;0.097762;-0.0195017;0.0586318;0.199433;5.01422;0.0725542;0.0781758;5.013;0.199481;85.3658;130.366;0.00640722;-0.0195172;-0.00555755;0.00653765;0.0977424;0.00877605;-0.0141934;0;0.0503102;-0.918742;-2.41335;-1.60213;3.03894;-8.01636;-0.0147439;0.00231917;0.107924;0.107968;-0.0147877;0.0613778;0.136614;7.31991;0.0773803;0.0818371;7.30118;0.136964;89.3391;134.339;-0.0125858;-0.0147425;0.00307918;0.0016433;0.107922;0.0246971;0.0868649;0;0.149914;8.35407;6.89728
707000;708;28.9319;3.17374;0.123213;-2.48215;28.8252;0.0380955;-0.389749;3.1658;-0.798274;-0.537274;0.754719;-0.824881;1.24044;-8.03186;-0.019324;0.00158334;0.0986972;0.0987184;-0.0193452;0.0590318;0.19579;5.1075;0.0731187;0.0787091;5.10299;0.195963;84.7651;129.765;0.0118577;-0.0193529;-0.00527383;0.00770386;0.0986856;0.000773868;-0.0160254;0;0.0504515;-0.919477;-2.41582;-1.59925;3.03961;-8.00648;-0.0144328;0.00283298;0.10667;0.106736;-0.014499;0.0606174;0.135304;7.39077;0.0764499;0.0808232;7.36158;0.13584;88.8168;133.817;-0.0157767;-0.0144321;0.00311126;0.00258515;0.106669;0.0271128;0.0904309;0;0.150747;8.35158;6.90512
708000;709;28.9448;3.18663;0.123714;-2.48349;28.838;0.0466253;-0.391088;3.17861;-0.789744;-0.536558;0.760765;-0.830982;1.24787;-8.03796;-0.0192074;0.000986946;0.0999599;0.0999681;-0.0192156;0.0595918;0.192151;5.20423;0.0738882;0.0794558;5.20244;0.192218;85.3627;130.363;0.00777097;-0.0192304;-0.00551526;0.00678468;0.0999465;0.00541989;-0.0196979;0;0.0499981;-0.919359;-2.42075;-1.60787;3.04804;-8.0151;-0.0145431;0.00280607;0.106932;0.106997;-0.0146079;0.0608024;0.136003;7.35277;0.0766659;0.0810698;7.3246;0.136526;88.7517;133.752;-0.0145846;-0.0145428;0.0029387;0.002688;0.106932;0.0245604;0.092887;0;0.149994;8.35072;6.91266
709000;710;28.9536;3.19548;0.124057;-2.48821;28.8465;0.0249386;-0.395812;3.18711;-0.811431;-0.535251;0.76842;-0.838278;1.25685;-8.04526;-0.0190286;0.00119009;0.099558;0.09957;-0.0190406;0.0593053;0.191131;5.23201;0.073553;0.0790737;5.22936;0.191228;85.3316;130.332;0.00577873;-0.019052;-0.00518219;0.00687509;0.0995464;0.00843974;-0.0199097;0;0.0447962;-0.920527;-2.42744;-1.61653;3.05827;-8.02912;-0.0143961;0.0038257;0.109129;0.109247;-0.0145145;0.0618809;0.131918;7.58045;0.0781204;0.0825078;7.52678;0.132859;88.4241;133.424;-0.019709;-0.0143949;0.00418576;0.00350574;0.109128;0.024124;0.0824728;0;0.158715;8.35074;6.92019
710000;711;28.9664;3.20824;0.124553;-2.48518;28.8595;0.0503328;-0.392776;3.20015;-0.786037;-0.537501;0.770456;-0.830163;1.25367;-8.03714;-0.0190673;0.00190631;0.0989987;0.0990294;-0.0190981;0.0590637;0.192602;5.19206;0.0732206;0.0787517;5.18531;0.192853;84.7567;129.757;0.0102325;-0.019097;-0.00476844;0.00786392;0.09899;-0.00403439;-0.0188851;0;0.0458476;-0.9228;-2.43259;-1.60326;3.05606;-8.00859;-0.014419;0.0044965;0.107034;0.1072;-0.0145853;0.0608928;0.134714;7.42312;0.0767917;0.0811904;7.34991;0.136056;87.4276;132.428;-0.0260962;-0.0144226;0.00368218;0.00522149;0.107037;0.0444505;0.105632;0;0.146247;8.3489;6.9242
711000;712;28.975;3.21688;0.124888;-2.48526;28.8682;0.0433555;-0.392855;3.20882;-0.793014;-0.53828;0.773836;-0.829727;1.25579;-8.03671;-0.0192188;0.00170327;0.099159;0.0991835;-0.0192433;0.0592134;0.193818;5.15949;0.0733827;0.0789512;5.15419;0.194017;84.8715;129.871;0.00894767;-0.019247;-0.004951;0.00764083;0.0991492;-0.000308588;-0.0192207;0;0.0531757;-0.924651;-2.44265;-1.61005;3.06819;-8.02357;-0.0151465;0.0040402;0.108538;0.10867;-0.0152783;0.0619742;0.13955;7.1659;0.0780396;0.0826322;7.1127;0.140594;88.0273;133.027;-0.0157719;-0.0151472;0.00385268;0.00420679;0.108539;0.0243511;0.0988733;0;0.149384;8.34558;6.93043
712000;713;28.9886;3.23049;0.125416;-2.48726;28.8817;0.0466904;-0.39486;3.22231;-0.789679;-0.537874;0.781226;-0.836312;1.26453;-8.04329;-0.019419;0.00199628;0.0992652;0.0992988;-0.0194526;0.0593757;0.195628;5.11175;0.073546;0.0791676;5.10466;0.195899;84.6158;129.616;0.00792902;-0.0194503;-0.00483372;0.0080888;0.0992564;0.00163704;-0.0179857;0;0.0392614;-0.92521;-2.4486;-1.6139;3.07511;-8.02813;-0.0148444;0.00317078;0.108262;0.108344;-0.014926;0.0616348;0.137115;7.29314;0.0776839;0.0821798;7.25873;0.137765;88.8344;133.834;-0.0130503;-0.0148429;0.00372889;0.00267466;0.10826;0.0237969;0.0940314;0;0.139362;8.34678;6.93583
713000;714;29.0027;3.24458;0.125963;-2.4893;28.8957;0.0459811;-0.396895;3.23627;-0.790388;-0.538781;0.788064;-0.835054;1.26832;-8.0463;-0.0190571;0.00217453;0.0984324;0.0984727;-0.0190973;0.058785;0.193606;5.16514;0.0728534;0.07838;5.15637;0.193935;84.8019;129.802;0.00783749;-0.019086;-0.0041694;0.00783985;0.0984267;0.00315565;-0.0213782;0;0.0423808;-0.92641;-2.45467;-1.6121;3.07937;-8.02422;-0.014494;0.0027872;0.109038;0.1091;-0.0145568;0.0618286;0.132927;7.52295;0.0780398;0.0824382;7.49478;0.133426;89.4148;134.415;-0.0111595;-0.0144914;0.00408067;0.00163779;0.109034;0.0250663;0.0859988;0;0.144647;8.34584;6.94252
714000;715;29.0126;3.25441;0.126345;-2.48958;28.9055;0.0424173;-0.397179;3.24612;-0.793952;-0.538936;0.796093;-0.845142;1.28003;-8.05639;-0.0189663;0.00168421;0.0962319;0.0962566;-0.0189909;0.0576237;0.197089;5.07385;0.0713488;0.0768316;5.06857;0.197294;84.8528;129.853;0.00556547;-0.018993;-0.00473833;0.00743178;0.096223;0.00868863;-0.0199092;0;0.0421885;-0.927237;-2.45702;-1.61761;3.08438;-8.02653;-0.0149536;0.00304891;0.107421;0.107497;-0.0150295;0.0612635;0.139205;7.18365;0.0771642;0.0816846;7.15242;0.139813;88.4886;133.489;-0.0125615;-0.014954;0.00289678;0.00318423;0.107422;0.00999762;0.0889538;0;0.150733;8.34288;6.94961
715000;716;29.0236;3.26544;0.126773;-2.49061;28.9165;0.032567;-0.398209;3.25711;-0.803803;-0.540796;0.800547;-0.844665;1.28327;-8.05591;-0.0192814;0.00193096;0.097979;0.0980108;-0.0193132;0.058662;0.196791;5.08153;0.0726392;0.078216;5.07481;0.197052;85.0018;130.002;0.00681912;-0.0193077;-0.00422808;0.00743217;0.0979726;0.00648437;-0.0167418;0;0.0422826;-0.929741;-2.46374;-1.62133;3.09243;-8.03106;-0.0142884;0.00290139;0.108037;0.108106;-0.0143572;0.0612314;0.132255;7.56113;0.0773018;0.0816419;7.5297;0.132807;89.2094;134.209;-0.0126737;-0.0142862;0.00393008;0.00198627;0.108034;0.0154785;0.0826095;0;0.150891;8.34168;6.95662
716000;717;29.0339;3.27579;0.127175;-2.49074;28.9269;0.0347138;-0.398337;3.26748;-0.801656;-0.538622;0.80197;-0.845511;1.28381;-8.05249;-0.0197529;0.00185174;0.0987755;0.0988045;-0.0197818;0.0592931;0.199977;5.00057;0.0733581;0.0790575;4.99472;0.200212;84.5571;129.557;0.00565104;-0.0197842;-0.0051027;0.00805591;0.0987652;0.00514737;-0.0166921;0;0.0452821;-0.928016;-2.46933;-1.62132;3.09637;-8.02855;-0.014323;0.00298059;0.108746;0.108818;-0.0143951;0.0616066;0.13171;7.59242;0.0777891;0.0821422;7.55938;0.132286;88.4991;133.499;-0.0127048;-0.0143235;0.00277169;0.0031663;0.108747;0.0193579;0.0911688;0;0.145903;8.3393;6.96452
717000;718;29.0506;3.29241;0.12782;-2.49283;28.9434;0.0421827;-0.40043;3.28398;-0.794187;-0.539324;0.810151;-0.848926;1.29147;-8.05591;-0.0202107;0.00153118;0.100131;0.10015;-0.0202302;0.0601902;0.201843;4.95434;0.0744323;0.0802536;4.95053;0.201998;84.8599;129.86;0.00740576;-0.0202391;-0.00529533;0.00761089;0.100119;0.00685366;-0.0088317;0;0.0436956;-0.930775;-2.47543;-1.63129;3.10728;-8.04264;-0.0145178;0.00325362;0.11048;0.110564;-0.0146024;0.0625834;0.131407;7.60995;0.079028;0.0834445;7.57164;0.132072;88.7565;133.756;-0.0137771;-0.0145165;0.0037121;0.00284674;0.110478;0.016895;0.0863297;0;0.153301;8.33934;6.97102
718000;719;29.0614;3.30324;0.128241;-2.49716;28.9539;0.0222813;-0.404757;3.2945;-0.814088;-0.541969;0.809939;-0.836533;1.28434;-8.04351;-0.0200584;0.00163479;0.100471;0.100494;-0.0200806;0.0602871;0.199643;5.00894;0.0745957;0.0803828;5.00451;0.19982;84.6459;129.646;0.00868154;-0.0200896;-0.00549916;0.00798732;0.100459;0.00456352;-0.00889131;0;0.0468627;-0.933924;-2.48211;-1.61244;3.10371;-8.01512;-0.014154;0.00410613;0.1103;0.110435;-0.0142893;0.0623623;0.128322;7.79287;0.0788196;0.0831498;7.72854;0.129391;87.7212;132.721;-0.0200358;-0.0141569;0.00337723;0.00475333;0.110302;0.0425972;0.102161;0;0.150592;8.3396;6.97876
719000;720;29.0695;3.31134;0.128555;-2.49753;28.962;0.0172012;-0.40513;3.3026;-0.819168;-0.53997;0.817207;-0.843248;1.29246;-8.05023;-0.0202815;0.00142987;0.10061;0.100626;-0.0202984;0.0604624;0.201586;4.96065;0.0747745;0.0806166;4.95735;0.20172;84.8585;129.859;0.00701322;-0.0203101;-0.00551795;0.00761449;0.100597;0.00594643;-0.016007;0;0.0414645;-0.933016;-2.48605;-1.61656;3.10874;-8.01876;-0.0144077;0.00436764;0.11028;0.110433;-0.0145605;0.0624968;0.130646;7.65427;0.0789245;0.083329;7.58444;0.131849;87.5062;132.506;-0.0208952;-0.0144116;0.00345707;0.00517595;0.110283;0.0356747;0.096124;0;0.150362;8.3359;6.98628
720000;721;29.0789;3.32071;0.128919;-2.4955;28.9715;0.0409833;-0.403099;3.31216;-0.795386;-0.539418;0.823633;-0.850504;1.30104;-8.05748;-0.0201443;0.00180068;0.101225;0.101252;-0.020171;0.0607115;0.199005;5.02501;0.075133;0.0809486;5.01968;0.199216;84.5987;129.599;0.00738886;-0.0201767;-0.00535637;0.00816885;0.101214;0.00667493;-0.0122602;0;0.0435916;-0.934266;-2.49544;-1.62793;3.12253;-8.04052;-0.0146333;0.00388343;0.110603;0.110724;-0.0147536;0.0627387;0.132304;7.55833;0.0791931;0.0836516;7.50485;0.133247;88.4047;133.405;-0.0175434;-0.0146322;0.00421658;0.00358784;0.110602;0.0331842;0.0971359;0;0.149105;8.33557;6.99133
721000;722;29.0821;3.32394;0.129044;-2.49725;28.9747;0.0237752;-0.404849;3.31526;-0.812594;-0.540686;0.831785;-0.858215;1.31177;-8.0652;-0.0201635;0.00196941;0.100689;0.100721;-0.0201956;0.0604583;0.200255;4.99362;0.0747937;0.0806111;4.98728;0.20051;84.5747;129.575;0.00811908;-0.0201959;-0.00504052;0.00820959;0.100679;0.00599059;-0.0122869;0;0.0492004;-0.935645;-2.49987;-1.63621;3.13081;-8.05045;-0.0146885;0.00290667;0.109044;0.109112;-0.0147567;0.0619346;0.134702;7.4238;0.0781265;0.0825795;7.39409;0.135243;89.0954;134.095;-0.00864883;-0.0146866;0.00371113;0.00219197;0.109042;0.0188968;0.0896864;0;0.146243;8.33572;6.99787
722000;723;29.0999;3.34176;0.129736;-2.49865;28.9924;0.0371238;-0.406244;3.33302;-0.799246;-0.539691;0.834545;-0.85559;1.3114;-8.06257;-0.0200361;0.0022473;0.10067;0.100711;-0.0200779;0.0603947;0.199028;5.02441;0.0747381;0.0805262;5.01603;0.199361;84.3952;129.395;0.0117503;-0.0200709;-0.00484605;0.00856267;0.100661;-0.00268803;-0.0147067;0;0.0522692;-0.936285;-2.50944;-1.63021;3.13552;-8.04445;-0.0151703;0.00295235;0.109746;0.109815;-0.01524;0.0625277;0.138232;7.23424;0.0787831;0.0833703;7.20571;0.138779;88.9513;133.951;-0.0118578;-0.0151689;0.00351003;0.00245745;0.109744;0.026367;0.0987225;0;0.14666;8.33381;7.0023
723000;724;29.1096;3.35147;0.130113;-2.49871;29.0022;0.0308305;-0.406311;3.34276;-0.805539;-0.540531;0.838492;-0.854117;1.3133;-8.0611;-0.0198853;0.00267075;0.101486;0.101544;-0.019944;0.0607442;0.195942;5.10355;0.0752307;0.0809922;5.09146;0.196407;84.3277;129.328;0.00871149;-0.0199219;-0.00430965;0.0088819;0.10148;0.00132117;-0.0156517;0;0.0470534;-0.937444;-2.51374;-1.62578;3.13701;-8.03243;-0.0150224;0.00294296;0.108732;0.108802;-0.0150924;0.061947;0.138161;7.23796;0.0780531;0.082596;7.20905;0.138715;88.6565;133.656;-0.0140026;-0.0150223;0.00297554;0.00291401;0.108732;0.0190954;0.0894756;0;0.149551;8.33139;7.00866
724000;725;29.118;3.35982;0.130437;-2.49931;29.0105;0.0301957;-0.406909;3.35109;-0.806174;-0.53834;0.84038;-0.848513;1.30997;-8.05549;-0.0200245;0.00270705;0.101194;0.101254;-0.020085;0.0606695;0.197884;5.05348;0.0750983;0.0808926;5.04128;0.198362;84.0832;129.083;0.00941158;-0.020064;-0.00459645;0.00920648;0.101187;0.00121141;-0.0213456;0;0.0438122;-0.934787;-2.51888;-1.62083;3.13778;-8.02454;-0.0145622;0.00366993;0.107353;0.107463;-0.0146726;0.0610679;0.135648;7.372;0.0770004;0.0814239;7.32407;0.136536;88.4371;133.437;-0.0190639;-0.0145613;0.0039564;0.003415;0.107352;0.0333817;0.0866944;0;0.146871;8.33082;7.01594
725000;726;29.1314;3.37325;0.130958;-2.4991;29.024;0.0266852;-0.406693;3.36459;-0.809684;-0.54047;0.849742;-0.858149;1.3231;-8.06513;-0.0199946;0.0025709;0.10122;0.101274;-0.0200491;0.0606618;0.197536;5.06238;0.0750968;0.0808824;5.05133;0.197967;84.1363;129.136;0.00779442;-0.0200333;-0.00475567;0.00909091;0.101213;0.00442041;-0.0213742;0;0.040586;-0.938184;-2.52334;-1.63513;3.14978;-8.04236;-0.0145288;0.00323951;0.108842;0.108927;-0.0146138;0.0617702;0.133486;7.49144;0.077947;0.0823603;7.45368;0.134162;88.8738;133.874;-0.0176195;-0.014527;0.00392756;0.00262802;0.108839;0.0285359;0.0970532;0;0.147647;8.32889;7.02366
726000;727;29.1482;3.39009;0.131613;-2.5002;29.0408;0.0348299;-0.407799;3.3814;-0.80154;-0.541096;0.855774;-0.86026;1.3286;-8.06724;-0.0201155;0.00276935;0.102162;0.102225;-0.0201782;0.0612016;0.196898;5.07878;0.075777;0.0816022;5.06611;0.19739;84.185;129.185;0.00703164;-0.0201545;-0.00442524;0.00916565;0.102157;0.00594156;-0.0197874;0;0.0425249;-0.941948;-2.53156;-1.63383;3.15681;-8.0418;-0.0146528;0.00325937;0.11233;0.112413;-0.0147364;0.063575;0.130445;7.66609;0.0803064;0.0847666;7.62827;0.131091;88.4311;133.431;-0.00862303;-0.0146534;0.00307066;0.00342654;0.11233;0.0187325;0.0848278;0;0.145821;8.32834;7.03096
727000;728;29.1617;3.40356;0.132135;-2.50024;29.0543;0.038389;-0.40784;3.39491;-0.797981;-0.543152;0.865914;-0.868281;1.34117;-8.07953;-0.0197971;0.00209764;0.100676;0.100713;-0.0198336;0.0602731;0.196642;5.08539;0.0746366;0.0803641;5.07787;0.196933;84.6625;129.662;0.00824385;-0.0198288;-0.00470135;0.00815237;0.100668;0.00308932;-0.0223748;0;0.0434895;-0.943577;-2.53514;-1.64284;3.16484;-8.05214;-0.0148402;0.00408011;0.112119;0.11225;-0.0149712;0.0636106;0.132361;7.55509;0.0802904;0.0848142;7.49774;0.133374;87.905;132.905;-0.0114658;-0.0148421;0.00359633;0.00450866;0.112121;0.0275838;0.0866442;0;0.140922;8.32417;7.0384
728000;729;29.1731;3.41492;0.132576;-2.5022;29.0655;0.0343352;-0.409795;3.40615;-0.802034;-0.541946;0.870608;-0.868746;1.34402;-8.07999;-0.0198243;0.00223529;0.100624;0.100665;-0.0198658;0.0602656;0.197014;5.07578;0.074619;0.0803542;5.06728;0.197345;84.629;129.629;0.00873038;-0.0198564;-0.00450554;0.00823834;0.100617;0.00376357;-0.0171073;0;0.0439095;-0.943334;-2.54067;-1.63841;3.16691;-8.04245;-0.0146232;0.00359663;0.111944;0.112046;-0.0147253;0.0633858;0.130629;7.65524;0.0800587;0.0845144;7.60909;0.131422;88.2742;133.274;-0.0160335;-0.0146238;0.00340885;0.00376303;0.111945;0.0172941;0.0980576;0;0.154119;8.32163;7.04575
729000;730;29.1853;3.42715;0.133051;-2.50489;29.0776;0.0338756;-0.412486;3.41819;-0.802494;-0.54333;0.876816;-0.871738;1.35053;-8.08298;-0.0199175;0.00183142;0.101005;0.101033;-0.0199452;0.060489;0.197193;5.07118;0.0748942;0.080652;5.06552;0.197413;84.8325;129.833;0.00876897;-0.0199472;-0.00492274;0.00784372;0.100996;0.00332733;-0.018574;0;0.0432479;-0.945489;-2.5469;-1.6457;3.17632;-8.05393;-0.014693;0.00348058;0.111792;0.111888;-0.0147887;0.0633381;0.131432;7.6085;0.0799783;0.0844508;7.56573;0.132175;88.9118;133.912;-0.0211149;-0.0146905;0.00439792;0.0026676;0.111789;0.0236908;0.106252;0;0.149437;8.32146;7.05319
730000;731;29.1973;3.43911;0.133516;-2.50715;29.0894;0.0362909;-0.414747;3.43;-0.800079;-0.543142;0.878997;-0.869655;1.35053;-8.07664;-0.0204698;0.00173837;0.102842;0.102867;-0.0204943;0.0616806;0.199041;5.02409;0.076332;0.0822408;5.01928;0.199232;84.5837;129.584;0.00817682;-0.0205034;-0.00563677;0.00828879;0.102829;0.00635304;-0.0105046;0;0.0456771;-0.945977;-2.55726;-1.64376;3.18377;-8.05588;-0.0147946;0.00274349;0.111458;0.111518;-0.0148542;0.063186;0.132737;7.53369;0.079759;0.084248;7.50748;0.1332;89.4999;134.5;-0.0117257;-0.014792;0.0041393;0.00150623;0.111454;0.0259099;0.0917199;0;0.14856;8.32154;7.0603
731000;732;29.2044;3.44629;0.133794;-2.50931;29.0964;0.0314265;-0.41691;3.43702;-0.804943;-0.541981;0.885608;-0.874794;1.35769;-8.08177;-0.0205944;0.00214377;0.102703;0.10274;-0.0206317;0.0616859;0.200525;4.98692;0.0763061;0.0822478;4.97972;0.200815;84.4288;129.429;0.00712669;-0.0206301;-0.00515258;0.0086242;0.102693;0.00640109;-0.0151163;0;0.0523849;-0.945353;-2.5637;-1.65022;3.19209;-8.06445;-0.0149965;0.00320169;0.110543;0.110624;-0.0150781;0.0628511;0.135663;7.37122;0.079255;0.0838015;7.33674;0.1363;89.3151;134.315;-0.0135101;-0.0149932;0.00463739;0.00192828;0.110538;0.0297108;0.0963292;0;0.148715;8.31753;7.06687
732000;733;29.2192;3.46101;0.134365;-2.50768;29.1113;0.0371567;-0.415277;3.45193;-0.799213;-0.544245;0.890675;-0.871776;1.35996;-8.07876;-0.0203798;0.00171877;0.103696;0.10372;-0.0204036;0.0620617;0.196534;5.08818;0.0768558;0.0827489;5.08341;0.196718;84.6645;129.665;0.00783826;-0.020413;-0.00563643;0.00824705;0.103683;0.00913188;-0.0153858;0;0.0470607;-0.948954;-2.56719;-1.64432;3.19293;-8.05325;-0.0148891;0.00336136;0.109345;0.109436;-0.0149799;0.062208;0.136166;7.34399;0.078429;0.082944;7.3055;0.136883;89.2786;134.279;-0.0134915;-0.0148854;0.00487491;0.00201731;0.109339;0.0116264;0.0881666;0;0.143732;8.31063;7.0719
733000;734;29.2304;3.47228;0.134803;-2.50711;29.1227;0.0314898;-0.414712;3.4633;-0.80488;-0.543027;0.897549;-0.879988;1.36925;-8.08697;-0.0203006;0.00173911;0.103156;0.103181;-0.0203251;0.0617528;0.196794;5.08144;0.0764679;0.0823371;5.07652;0.196985;84.5554;129.555;0.0071826;-0.0203348;-0.00572883;0.00837122;0.103143;0.00711612;-0.0188889;0;0.04577;-0.947507;-2.56879;-1.65047;3.19695;-8.05206;-0.0145678;0.00414001;0.107106;0.107247;-0.0147085;0.0609775;0.136013;7.35222;0.076871;0.0813034;7.29146;0.137147;88.3777;133.378;-0.0195004;-0.0145658;0.00471973;0.003624;0.107104;0.029502;0.0930648;0;0.143324;8.31135;7.07522
734000;735;29.2399;3.48173;0.13517;-2.50748;29.1321;0.0321261;-0.415077;3.47275;-0.804243;-0.543832;0.903483;-0.885018;1.3767;-8.092;-0.0200581;0.00137313;0.10358;0.103595;-0.0200733;0.0618342;0.193648;5.164;0.0766358;0.0824456;5.16084;0.193767;84.9388;129.939;0.00724938;-0.0200877;-0.00580621;0.00774809;0.103565;0.00531675;-0.0181339;0;0.0473144;-0.950848;-2.5773;-1.66072;3.21007;-8.07011;-0.0145052;0.00412011;0.111606;0.11174;-0.0146397;0.06319;0.129968;7.69419;0.0798221;0.0842533;7.6327;0.131015;88.4513;133.451;-0.01047;-0.0145031;0.00472395;0.00358478;0.111603;0.0148374;0.088124;0;0.151477;8.31028;7.08276
735000;736;29.2518;3.49362;0.135632;-2.50765;29.1441;0.0328879;-0.41525;3.48467;-0.803482;-0.543962;0.90786;-0.880627;1.37681;-8.08761;-0.0201134;0.00175257;0.103065;0.10309;-0.0201383;0.0616139;0.195153;5.12417;0.0763299;0.0821519;5.11907;0.195348;84.7277;129.728;0.00532298;-0.0201456;-0.00542737;0.00813065;0.103053;0.00705729;-0.0220751;0;0.0453801;-0.952445;-2.58414;-1.65631;3.21377;-8.06432;-0.01474;0.00419758;0.11294;0.113078;-0.0148778;0.0639781;0.130511;7.66219;0.0808027;0.0853041;7.60046;0.131571;88.0568;133.057;-0.0123674;-0.0147404;0.00407874;0.00430278;0.112941;0.017791;0.0880948;0;0.15339;8.30721;7.08817
736000;737;29.2668;3.50864;0.136215;-2.51035;29.1589;0.0245162;-0.417952;3.49952;-0.811853;-0.545134;0.915492;-0.890622;1.38871;-8.0976;-0.0197887;0.00178339;0.104424;0.10445;-0.0198143;0.0621319;0.189503;5.27696;0.0770913;0.0828426;5.27144;0.189702;84.6406;129.641;0.00844341;-0.0198231;-0.00568495;0.0084117;0.104411;0.00297145;-0.0208823;0;0.0486894;-0.954755;-2.59285;-1.66766;3.22731;-8.08252;-0.0145635;0.00397381;0.112978;0.113102;-0.0146872;0.0638945;0.128905;7.75763;0.0807435;0.0851927;7.70072;0.129858;89.3;134.3;-0.0175052;-0.0145578;0.00604492;0.00214003;0.112969;0.0283362;0.102577;0;0.153138;8.30408;7.0956
737000;738;29.2802;3.52202;0.136734;-2.51233;29.1722;0.0282793;-0.419933;3.51278;-0.80809;-0.544263;0.922248;-0.894935;1.39559;-8.10192;-0.0196286;0.00192186;0.103145;0.103175;-0.0196587;0.061417;0.190301;5.25483;0.0761866;0.0818893;5.24832;0.190537;84.3907;129.391;0.00715127;-0.0196655;-0.00572973;0.00872179;0.103132;0.00119282;-0.0228082;0;0.0488124;-0.955305;-2.59408;-1.66685;3.22804;-8.07217;-0.0150633;0.0040267;0.113092;0.113218;-0.0151897;0.064204;0.133195;7.50779;0.0810181;0.0856053;7.45363;0.134163;88.7341;133.734;-0.0204792;-0.01506;0.00504;0.00313005;0.113088;0.0214957;0.100179;0;0.162163;8.30566;7.10258
738000;739;29.2895;3.53131;0.137095;-2.50923;29.1817;0.0396176;-0.416829;3.52235;-0.796752;-0.545739;0.927325;-0.894399;1.39918;-8.10138;-0.0198497;0.00172066;0.102431;0.102455;-0.0198739;0.0611643;0.193787;5.16032;0.0758012;0.0815524;5.15525;0.193977;84.3589;129.359;0.00883692;-0.0198861;-0.00604051;0.00862089;0.102415;0.000745876;-0.031213;0;0.0416088;-0.955923;-2.60109;-1.67015;3.23556;-8.08011;-0.0151615;0.0028628;0.111356;0.111421;-0.0152262;0.0633236;0.136153;7.34469;0.0798416;0.0844315;7.31771;0.136655;89.9197;134.92;-0.0146664;-0.0151577;0.00513174;0.000852146;0.111348;0.0259107;0.106084;0;0.152165;8.30157;7.11047
739000;740;29.3029;3.54476;0.137617;-2.51156;29.195;0.0398551;-0.419161;3.53565;-0.796514;-0.547014;0.933675;-0.888693;1.40027;-8.10088;-0.019346;0.0013445;0.102576;0.102591;-0.0193608;0.060976;0.188601;5.30221;0.0756778;0.0813014;5.29892;0.188718;85.0756;130.076;0.00550425;-0.0193738;-0.00558612;0.00750869;0.102563;0.00957058;-0.0260168;0;0.0421489;-0.958213;-2.61102;-1.66515;3.24165;-8.07939;-0.015028;0.00334724;0.111368;0.111457;-0.0151166;0.0632866;0.13494;7.41071;0.0798218;0.0843821;7.37314;0.135627;90.024;135.024;-0.0127635;-0.0150226;0.00622782;0.000794251;0.111356;0.0324029;0.0990264;0;0.146915;8.29911;7.11677
740000;741;29.3188;3.5607;0.138236;-2.51318;29.2109;0.043849;-0.420781;3.55151;-0.792521;-0.545695;0.939416;-0.900138;1.41086;-8.10712;-0.0199336;0.00160022;0.102245;0.102266;-0.0199546;0.0611103;0.194959;5.12929;0.0757106;0.0814804;5.12495;0.195124;84.4942;129.494;0.00761696;-0.019968;-0.00600445;0.00836188;0.10223;0.00121573;-0.0205329;0;0.0444865;-0.957631;-2.6165;-1.67463;3.25077;-8.08674;-0.0152035;0.002589;0.112463;0.112515;-0.015256;0.0638857;0.135187;7.39716;0.0805784;0.0851809;7.37516;0.13559;90.2805;135.281;-0.0105212;-0.0152001;0.00531417;0.000176558;0.112453;0.0274742;0.093698;0;0.152705;8.2988;7.12359
741000;742;29.3327;3.57453;0.138773;-2.51367;29.2247;0.0399747;-0.421266;3.56535;-0.796395;-0.545991;0.947731;-0.901369;1.41731;-8.11262;-0.0196719;0.000975952;0.102117;0.102125;-0.0196797;0.0609024;0.19264;5.19103;0.0755031;0.0812032;5.18936;0.192702;85.1321;130.132;0.0100519;-0.0196982;-0.00607521;0.00724789;0.102101;-0.00194723;-0.0228698;0;0.0469771;-0.958903;-2.62359;-1.67577;3.25745;-8.09001;-0.0150034;0.00356796;0.111571;0.111671;-0.0151039;0.0633876;0.134475;7.43635;0.0799591;0.0845168;7.39352;0.135254;89.5097;134.51;-0.0148521;-0.0149984;0.00567325;0.00170238;0.111562;0.0253031;0.105174;0;0.140494;8.29532;7.13093
742000;743;29.3477;3.58961;0.139358;-2.51702;29.2396;0.048154;-0.424614;3.58018;-0.788216;-0.546088;0.951842;-0.903389;1.42138;-8.11037;-0.0201873;0.00117345;0.102875;0.102886;-0.0201985;0.0615422;0.196231;5.09603;0.0762209;0.0820563;5.09376;0.196319;84.7217;129.722;0.0097278;-0.0202187;-0.00643193;0.00793016;0.102857;-0.000377814;-0.0195554;0;0.0499699;-0.960233;-2.62571;-1.67378;3.25852;-8.07983;-0.0143907;0.00431068;0.110351;0.1105;-0.0145395;0.0625198;0.130408;7.66826;0.0789607;0.0833597;7.60002;0.131579;88.9773;133.977;-0.0130827;-0.014385;0.00608578;0.00273499;0.110343;0.0238127;0.0967005;0;0.147108;8.29207;7.1387
743000;744;29.3579;3.59971;0.13975;-2.51598;29.2498;0.0509169;-0.423578;3.59041;-0.785453;-0.546461;0.95708;-0.897492;1.42131;-8.10447;-0.0201295;0.000802197;0.104474;0.10448;-0.0201347;0.0623071;0.192674;5.19011;0.0772443;0.0830761;5.18904;0.192714;85.0559;130.056;0.00764293;-0.0201576;-0.00670473;0.00746218;0.104454;0.0069097;-0.0187002;0;0.0465735;-0.962291;-2.63406;-1.6744;3.26617;-8.08274;-0.0147422;0.00391826;0.113393;0.113513;-0.0148619;0.0641875;0.130009;7.69177;0.0810847;0.0855834;7.63787;0.130927;89.3798;134.38;-0.0122318;-0.0147364;0.00608508;0.0020008;0.113384;0.0200017;0.0972165;0;0.14822;8.28819;7.14453
744000;745;29.3703;3.61215;0.140233;-2.51525;29.2623;0.0536692;-0.422846;3.60296;-0.7827;-0.546964;0.963036;-0.90167;1.42815;-8.10865;-0.0201284;0.00109199;0.104339;0.104349;-0.020138;0.0622434;0.192913;5.18368;0.0771596;0.0829912;5.18169;0.192987;85.0527;130.053;0.00578264;-0.0201569;-0.00618447;0.00754829;0.104322;0.00892302;-0.0259786;0;0.0458057;-0.963559;-2.63984;-1.67506;3.27155;-8.08199;-0.0147376;0.00390465;0.114074;0.114193;-0.0148559;0.0645243;0.129193;7.74035;0.0815328;0.0860324;7.6867;0.130095;88.719;133.719;-0.0121599;-0.0147349;0.00478092;0.00312968;0.114071;0.0227532;0.0830993;0;0.144216;8.2812;7.15117
745000;746;29.3827;3.62451;0.140713;-2.52014;29.2744;0.0394836;-0.42774;3.61496;-0.796886;-0.545875;0.967101;-0.900844;1.42996;-8.10782;-0.019826;0.00160359;0.102698;0.102719;-0.019847;0.061283;0.193052;5.17996;0.0759641;0.0817106;5.17554;0.193217;84.5702;129.57;0.0117121;-0.0198599;-0.00593226;0.00830204;0.102683;-0.00150774;-0.0191655;0;0.0468678;-0.964438;-2.64871;-1.6702;3.27648;-8.07868;-0.0149557;0.00464017;0.114009;0.114175;-0.0151224;0.0646489;0.13118;7.62311;0.081626;0.0861985;7.55008;0.132449;88.4151;133.415;-0.0178328;-0.0149522;0.00555137;0.00383445;0.114004;0.0282386;0.0962336;0;0.156794;8.28069;7.15329
746000;747;29.39;3.63182;0.140997;-2.51797;29.2818;0.0554219;-0.425563;3.62246;-0.780948;-0.546498;0.974458;-0.908548;1.44003;-8.11553;-0.0198284;0.00139327;0.104136;0.104152;-0.0198441;0.061998;0.190409;5.25186;0.0769074;0.0826639;5.2485;0.19053;84.8205;129.82;0.0116323;-0.01986;-0.00604196;0.00799367;0.10412;0.00190034;-0.0202341;0;0.0590103;-0.965327;-2.65188;-1.68093;3.28479;-8.09088;-0.0153207;0.00276614;0.11266;0.112719;-0.0153805;0.0640499;0.135991;7.35341;0.0807627;0.0853999;7.32873;0.136449;90.4147;135.415;-0.0113492;-0.0153168;0.00589321;-1.27322e-06;0.112647;0.0208212;0.102508;0;0.154009;8.2774;7.16091
747000;748;29.4023;3.64411;0.141474;-2.51931;29.2941;0.0505282;-0.426903;3.63469;-0.785841;-0.54763;0.978516;-0.903907;1.44029;-8.11089;-0.0197509;0.00196634;0.104879;0.10491;-0.0197819;0.0623461;0.18832;5.3101;0.0773816;0.0831281;5.30334;0.18856;84.4758;129.476;0.00924169;-0.0197881;-0.00568954;0.00875854;0.104866;0.00216322;-0.0222167;0;0.0463124;-0.966734;-2.66204;-1.68273;3.29433;-8.09696;-0.0152848;0.00297743;0.112824;0.112893;-0.0153539;0.0641236;0.135475;7.38146;0.0808674;0.0854981;7.35271;0.136004;90.3477;135.348;-0.00936328;-0.0152803;0.00616087;0.000160452;0.112811;0.0260239;0.0945147;0;0.152182;8.27358;7.16853
748000;749;29.4151;3.65691;0.141971;-2.52157;29.3067;0.0535499;-0.429166;3.64734;-0.78282;-0.548101;0.983118;-0.900266;1.44132;-8.10725;-0.0196183;0.00238729;0.103994;0.10404;-0.0196644;0.0618523;0.188648;5.30087;0.0767591;0.0824697;5.29079;0.189008;84.0456;129.046;0.0121992;-0.019661;-0.00557632;0.00945911;0.103983;-0.00437415;-0.0195926;0;0.0581838;-0.969128;-2.67087;-1.6738;3.29763;-8.08804;-0.0151755;0.00325576;0.111899;0.111983;-0.0152589;0.0636207;0.135618;7.37366;0.0802265;0.0848276;7.33884;0.136261;90.4693;135.469;-0.00910224;-0.0151701;0.0068957;3.17799e-05;0.111883;0.0249522;0.096577;0;0.149737;8.27024;7.17484
749000;750;29.4269;3.6688;0.142433;-2.5229;29.3186;0.0499455;-0.430497;3.65917;-0.786424;-0.54932;0.992127;-0.904805;1.45077;-8.11535;-0.0197166;0.00215852;0.104546;0.104583;-0.0197541;0.0621686;0.188594;5.30241;0.0771544;0.0828915;5.29425;0.188884;84.7089;129.709;0.0118891;-0.0197506;-0.00492392;0.00844408;0.104537;-0.00529568;-0.0225792;0;0.0472303;-0.970153;-2.67584;-1.68004;3.30513;-8.09428;-0.0154807;0.00319046;0.111749;0.111828;-0.0155607;0.0636946;0.138532;7.21855;0.0802437;0.0849261;7.1866;0.139148;90.0988;135.099;-0.0121482;-0.0154758;0.00605949;0.00064974;0.111737;0.0262148;0.103282;0;0.145418;8.2654;7.18221
750000;751;29.4416;3.68342;0.143;-2.52385;29.3332;0.0441629;-0.431445;3.67376;-0.792207;-0.54824;0.99596;-0.908017;1.45499;-8.115;-0.0203135;0.00209808;0.104505;0.10454;-0.0203488;0.0624446;0.194378;5.14462;0.0773737;0.0832595;5.13744;0.19465;84.3329;129.333;0.0107556;-0.020352;-0.005611;0.00893587;0.104493;-0.00291531;-0.0204567;0;0.042353;-0.970634;-2.68109;-1.68428;3.31167;-8.09583;-0.0147093;0.00431251;0.112149;0.112295;-0.0148557;0.0635755;0.131158;7.62436;0.080275;0.0847674;7.55907;0.132291;89.654;134.654;-0.0126883;-0.0147012;0.00733978;0.00163051;0.112133;0.0282778;0.0954273;0;0.141255;8.26143;7.18914
751000;752;29.4542;3.69608;0.143492;-2.52434;29.3458;0.043408;-0.431942;3.68643;-0.792962;-0.546843;1.00553;-0.916522;1.46634;-8.1235;-0.0204362;0.00189806;0.103697;0.103726;-0.0204652;0.0620958;0.197076;5.07419;0.076886;0.0827944;5.06842;0.1973;84.2789;129.279;0.00982504;-0.0204745;-0.00595289;0.00886593;0.103683;-0.0013306;-0.0212397;0;0.0474153;-0.970569;-2.68562;-1.69034;3.31841;-8.1019;-0.0145748;0.00372685;0.112699;0.112808;-0.0146838;0.0637458;0.129325;7.73243;0.0805471;0.0849943;7.68243;0.130167;89.8308;134.831;-0.0155141;-0.0145685;0.00660071;0.00118169;0.112685;0.0305519;0.0951866;0;0.144862;8.25811;7.19743
752000;753;29.4667;3.70877;0.143985;-2.52566;29.3583;0.0325357;-0.433263;3.6989;-0.798742;-0.548278;1.01177;-0.918533;1.47241;-8.12551;-0.0206627;0.00163784;0.105042;0.105064;-0.020684;0.0628738;0.196708;5.08367;0.0778584;0.0838317;5.07946;0.196871;84.5764;129.576;0.00955664;-0.0206978;-0.00604674;0.00844817;0.105027;-0.00079734;-0.0210375;0;0.0462562;-0.972645;-2.68995;-1.69608;3.32545;-8.10515;-0.0150495;0.00398202;0.113345;0.113468;-0.0151728;0.0643204;0.132776;7.53148;0.081177;0.0857605;7.47836;0.133719;89.5363;134.536;-0.00934141;-0.015043;0.00648802;0.00176501;0.113333;0.0178347;0.0970192;0;0.149997;8.25158;7.20325
753000;754;29.4801;3.72192;0.144495;-2.52612;29.3716;0.0411678;-0.433721;3.71221;-0.795202;-0.548431;1.0137;-0.906619;1.4664;-8.1136;-0.0206168;0.00166933;0.104914;0.104936;-0.020639;0.0627876;0.196512;5.08875;0.0777556;0.0837168;5.08436;0.196682;84.6399;129.64;0.00836761;-0.0206511;-0.00587494;0.00835641;0.1049;0.00159118;-0.0178432;0;0.0500889;-0.973167;-2.69642;-1.68189;3.32363;-8.08457;-0.0145179;0.00482447;0.112677;0.11286;-0.0147006;0.0637802;0.128846;7.76123;0.0805882;0.0850402;7.67719;0.130256;88.3674;133.367;-0.0211057;-0.0145139;0.00584723;0.00391861;0.112672;0.0375044;0.104997;0;0.154354;8.25518;7.21022
754000;755;29.4963;3.73819;0.145127;-2.53009;29.3876;0.0518852;-0.437687;3.72819;-0.784484;-0.550916;1.02426;-0.924431;1.48566;-8.13141;-0.0209951;0.00160779;0.105156;0.105177;-0.0210156;0.0630962;0.199657;5.0086;0.0780716;0.0841282;5.00469;0.199813;84.5929;129.593;0.00893422;-0.0210298;-0.00605726;0.00839781;0.105141;-0.000554567;-0.0224806;0;0.0563366;-0.976823;-2.70435;-1.6977;3.33914;-8.10926;-0.0149617;0.00354062;0.114094;0.114191;-0.0150588;0.0646251;0.131135;7.62575;0.0816117;0.0861669;7.58304;0.131873;89.9528;134.953;-0.00514406;-0.0149558;0.00647951;0.00094214;0.114081;0.0186226;0.0943151;0;0.157396;8.2476;7.21776
755000;756;29.5049;3.74681;0.145461;-2.52967;29.3963;0.0467815;-0.437272;3.73688;-0.789588;-0.550176;1.03341;-0.928165;1.49403;-8.13658;-0.0205117;0.00178418;0.105234;0.10526;-0.020537;0.0628983;0.194915;5.13045;0.0779261;0.0838644;5.12536;0.195108;84.5323;129.532;0.00961411;-0.0205477;-0.00589543;0.00858998;0.10522;0.00247377;-0.0164291;0;0.0495413;-0.977066;-2.70881;-1.70114;3.34457;-8.1127;-0.0153702;0.00365585;0.113934;0.114037;-0.0154735;0.0647553;0.134905;7.41264;0.0816726;0.0863404;7.36984;0.135688;89.47;134.47;-0.00677451;-0.0153651;0.00574218;0.00181169;0.113925;0.0211402;0.09291;0;0.152087;8.24299;7.221
756000;757;29.5143;3.75611;0.145822;-2.53098;29.4055;0.0417135;-0.438576;3.74612;-0.794656;-0.550919;1.03642;-0.923229;1.49333;-8.13021;-0.0202662;0.00237178;0.105362;0.105406;-0.0203109;0.0628587;0.192349;5.19889;0.0779286;0.0838116;5.18964;0.192692;84.1864;129.186;0.0121625;-0.0203077;-0.00547347;0.00932527;0.105351;-0.000280325;-0.0183582;0;0.0494301;-0.978986;-2.71798;-1.6967;3.35031;-8.10825;-0.0148629;0.00380751;0.113586;0.113699;-0.0149756;0.0643372;0.130851;7.64227;0.0812524;0.0857829;7.59225;0.131713;89.6484;134.648;-0.00686817;-0.0148567;0.00638991;0.00152295;0.113574;0.0236663;0.0920214;0;0.151708;8.24023;7.22845
757000;758;29.5262;3.76801;0.146284;-2.53193;29.4174;0.0370366;-0.439523;3.75798;-0.799333;-0.551696;1.04373;-0.926183;1.50052;-8.13316;-0.0204412;0.00256086;0.105118;0.10517;-0.0204935;0.0628319;0.19446;5.14245;0.0778491;0.0837759;5.1319;0.19486;84.0379;129.038;0.0114504;-0.0204847;-0.00534788;0.00957092;0.105108;-0.00102286;-0.0230377;0;0.0513606;-0.98049;-2.72514;-1.70038;3.35843;-8.11194;-0.0156135;0.00387031;0.112876;0.112992;-0.01573;0.0643612;0.138324;7.22938;0.0810818;0.0858149;7.18325;0.139213;89.6295;134.63;-0.0131243;-0.0156072;0.00642895;0.00160706;0.112864;0.0280227;0.0984709;0;0.152093;8.23383;7.23354
758000;759;29.5409;3.78275;0.146857;-2.53427;29.432;0.0433046;-0.441869;3.77257;-0.793065;-0.551174;1.05104;-0.929876;1.50769;-8.13686;-0.0204308;0.00302352;0.105066;0.105139;-0.0205036;0.0628211;0.194458;5.14251;0.0778324;0.0837615;5.1278;0.195015;83.8405;128.841;0.0120848;-0.0204773;-0.00485741;0.0100093;0.105059;-0.00270263;-0.0190689;0;0.0469532;-0.981392;-2.73224;-1.70108;3.36481;-8.11263;-0.0152061;0.00400751;0.112975;0.113101;-0.0153312;0.0642159;0.134596;7.42963;0.0809959;0.0856212;7.37714;0.135554;89.6656;134.666;-0.0143905;-0.0151991;0.00677261;0.00156085;0.112962;0.0240523;0.101788;0;0.147399;8.22601;7.24027
759000;760;29.5522;3.79404;0.147295;-2.53366;29.4434;0.0330874;-0.441261;3.78396;-0.803282;-0.551937;1.05858;-0.932004;1.51455;-8.13898;-0.0205078;0.00289907;0.106209;0.106276;-0.0205741;0.0634248;0.193088;5.17898;0.078611;0.0845664;5.16551;0.193592;83.8742;128.874;0.0116984;-0.0205548;-0.00515045;0.0100264;0.106201;-0.00257841;-0.0237412;0;0.0476144;-0.983787;-2.73855;-1.70493;3.37257;-8.11879;-0.0142389;0.00359346;0.113428;0.113529;-0.01434;0.0639346;0.125532;7.96608;0.0808909;0.0852461;7.91698;0.126311;89.6932;134.693;-0.0154157;-0.0142333;0.00610933;0.00136604;0.113417;0.0252315;0.0980841;0;0.14354;8.22185;7.24768
760000;761;29.5679;3.80975;0.147905;-2.53473;29.459;0.0313018;-0.442328;3.79964;-0.805068;-0.552569;1.06365;-0.929173;1.51659;-8.13615;-0.020565;0.00295478;0.105368;0.105438;-0.0206343;0.063036;0.195173;5.12367;0.0780841;0.084048;5.10982;0.195701;83.9375;128.938;0.0102949;-0.0206102;-0.0048412;0.00986243;0.105362;-0.000359538;-0.0267347;0;0.0437857;-0.984354;-2.74475;-1.70112;3.37586;-8.11176;-0.0154092;0.00451748;0.113605;0.113763;-0.0155672;0.0646648;0.135639;7.37253;0.0815276;0.0862198;7.30785;0.136839;88.4267;133.427;-0.0150566;-0.0154061;0.00533762;0.00379235;0.113601;0.0285065;0.103987;0;0.150781;8.20864;7.2557
761000;762;29.5855;3.82736;0.148588;-2.53683;29.4765;0.0316233;-0.444426;3.81714;-0.804746;-0.551687;1.0708;-0.933642;1.52403;-8.14062;-0.0206694;0.0029121;0.104847;0.104914;-0.020737;0.0628256;0.19714;5.07255;0.0777821;0.0837675;5.05929;0.197656;83.8929;128.893;0.0112442;-0.0207147;-0.00492225;0.0098563;0.10484;0.000413687;-0.0241654;0;0.0411286;-0.984864;-2.7517;-1.70872;3.38549;-8.11985;-0.0151998;0.00466787;0.114206;0.114375;-0.015368;0.0648713;0.133091;7.51367;0.0818547;0.0864951;7.4424;0.134365;88.8229;133.823;-0.019728;-0.0151938;0.00637444;0.00315951;0.114198;0.0230496;0.1016;0;0.160609;8.2073;7.26275
762000;763;29.5982;3.84003;0.14908;-2.53686;29.4892;0.0368476;-0.44446;3.82984;-0.799522;-0.552817;1.08032;-0.941396;1.53588;-8.14838;-0.0210193;0.00225451;0.103828;0.103869;-0.02106;0.0624643;0.202443;4.93965;0.0772289;0.0832857;4.93204;0.202756;83.9136;128.914;0.00879141;-0.0210626;-0.00589545;0.00948256;0.103814;-0.000566895;-0.0247831;0;0.0462632;-0.985096;-2.75356;-1.71065;3.38804;-8.11787;-0.0153986;0.00366927;0.112004;0.112109;-0.0155041;0.0638068;0.137482;7.27365;0.0804074;0.0850757;7.23093;0.138295;89.3326;134.333;-0.0217755;-0.0153938;0.0055093;0.00204005;0.111996;0.0373002;0.106544;0;0.151614;8.20039;7.27065
763000;764;29.6151;3.857;0.149739;-2.53994;29.506;0.0484233;-0.447535;3.8466;-0.787946;-0.554833;1.08962;-0.943968;1.54473;-8.15669;-0.020046;0.00159704;0.103682;0.103703;-0.0200666;0.0618847;0.19334;5.17222;0.0767041;0.082513;5.16794;0.193501;84.9164;129.916;0.00925767;-0.0200762;-0.00545946;0.00786241;0.10367;0.000952895;-0.0186088;0;0.0434924;-0.98768;-2.7623;-1.71537;3.39828;-8.1296;-0.0155901;0.00322647;0.113187;0.113268;-0.0156709;0.0644693;0.137738;7.26017;0.0812408;0.0859591;7.22789;0.138353;89.7477;134.748;-0.0125271;-0.0155856;0.00546922;0.00124316;0.113178;0.0226096;0.10391;0;0.153168;8.18911;7.2767
764000;765;29.6236;3.86546;0.150068;-2.54038;29.5145;0.038887;-0.447983;3.85507;-0.797483;-0.554171;1.09408;-0.946078;1.54893;-8.15449;-0.0207108;0.00194656;0.105233;0.105263;-0.0207408;0.0630021;0.196808;5.0811;0.0780138;0.0840029;5.07518;0.197037;84.6036;129.604;0.00933323;-0.0207459;-0.00547392;0.00852137;0.105222;0.00498175;-0.0195637;0;0.0453316;-0.98843;-2.76847;-1.72024;3.40598;-8.13448;-0.0162849;0.00234853;0.113385;0.113428;-0.0163275;0.0648775;0.143625;6.96257;0.0816071;0.0865033;6.94704;0.143946;90.3788;135.379;-0.0126454;-0.0162821;0.00502285;-1.43342e-05;0.113376;0.0161079;0.105406;0;0.154283;8.18887;7.28176
765000;766;29.6318;3.87361;0.150384;-2.54081;29.5226;0.030948;-0.448408;3.86322;-0.805422;-0.553768;1.09889;-0.945014;1.55154;-8.15199;-0.0207568;0.00221514;0.105261;0.1053;-0.0207957;0.0630478;0.197194;5.07115;0.0780606;0.0840637;5.06353;0.197491;84.2718;129.272;0.00823669;-0.0207966;-0.00555649;0.00910057;0.105249;0.00402322;-0.0247412;0;0.0461329;-0.989833;-2.77658;-1.71691;3.41129;-8.13115;-0.0152211;0.00350333;0.113429;0.113524;-0.0153164;0.0644202;0.134191;7.45209;0.0812706;0.0858936;7.41193;0.134918;89.7929;134.793;-0.0110372;-0.0152156;0.00608488;0.00122004;0.113418;0.0297048;0.10723;0;0.155413;8.18841;7.28811
766000;767;29.6439;3.88576;0.150856;-2.5412;29.5348;0.0302116;-0.448802;3.87538;-0.806158;-0.55421;1.10656;-0.948535;1.55927;-8.15695;-0.0198922;0.00278099;0.105692;0.105754;-0.0199537;0.0628537;0.188209;5.31324;0.078009;0.0838049;5.29994;0.188681;84.0956;129.096;0.00945401;-0.0199357;-0.00496811;0.00964982;0.105684;-0.0015081;-0.0216646;0;0.0481221;-0.990956;-2.78404;-1.72092;3.41971;-8.13515;-0.0151261;0.0030736;0.111633;0.111708;-0.0152006;0.0634542;0.135498;7.38016;0.0800215;0.0846056;7.3489;0.136075;90.3321;135.332;-0.0114006;-0.0151214;0.00629878;0.000216162;0.11162;0.0174661;0.100275;0;0.147876;8.18176;7.2956
767000;768;29.6581;3.89993;0.151406;-2.54158;29.549;0.032495;-0.449174;3.88957;-0.803875;-0.554817;1.11256;-0.947935;1.56339;-8.15492;-0.0200471;0.00249853;0.106189;0.106239;-0.0200966;0.0631677;0.188787;5.29698;0.0783882;0.0842236;5.28641;0.189164;84.1154;129.115;0.0109834;-0.0200907;-0.00548144;0.00956771;0.106179;0.00186585;-0.019237;0;0.0474863;-0.993792;-2.79215;-1.7199;3.42662;-8.13376;-0.0142247;0.00330418;0.11454;0.114625;-0.0143095;0.064467;0.12419;8.05216;0.0816055;0.085956;8.0104;0.124838;89.2022;134.202;-0.0132918;-0.0142215;0.00461417;0.00214553;0.114535;0.02305;0.100501;0;0.148587;8.17566;7.3035
768000;769;29.6753;3.91712;0.152073;-2.54304;29.5661;0.0344282;-0.450643;3.90669;-0.801941;-0.555608;1.1239;-0.952982;1.57481;-8.16353;-0.019899;0.00314548;0.106829;0.106907;-0.019977;0.0634418;0.18627;5.36854;0.078779;0.0845891;5.35148;0.186864;84.2935;129.294;0.00975331;-0.0199407;-0.00410897;0.00956919;0.106825;-0.00100145;-0.0215903;0;0.0430123;-0.994908;-2.79704;-1.72608;3.43404;-8.13764;-0.015514;0.00417319;0.114018;0.114153;-0.0156483;0.0649004;0.136066;7.34939;0.0818181;0.0865339;7.29489;0.137082;88.5909;133.591;-0.0124648;-0.0155111;0.00500508;0.00343803;0.114015;0.0252181;0.107039;0;0.154714;8.16315;7.30893
769000;770;29.6915;3.93331;0.152701;-2.54345;29.5823;0.0335834;-0.451044;3.9229;-0.802786;-0.555608;1.13027;-0.953299;1.57956;-8.16384;-0.0200817;0.00274172;0.106484;0.106543;-0.0201411;0.0633421;0.188589;5.30253;0.0786073;0.0844561;5.28985;0.189041;84.4843;129.484;0.0104016;-0.0201202;-0.00444896;0.00910978;0.106478;-0.0021108;-0.023182;0;0.0429435;-0.995777;-2.80041;-1.72784;3.43792;-8.13443;-0.0142422;0.00386145;0.112511;0.112628;-0.0143598;0.063494;0.126586;7.89979;0.0803012;0.0846587;7.84332;0.127497;88.4558;133.456;-0.0181961;-0.014241;0.00424149;0.00352471;0.112509;0.0328451;0.105883;0;0.152943;8.13966;7.31457
770000;771;29.7055;3.94734;0.153246;-2.5432;29.5964;0.0372219;-0.450797;3.937;-0.799148;-0.556129;1.13677;-0.954415;1.58507;-8.16566;-0.0197462;0.0015894;0.10457;0.10459;-0.0197665;0.0621783;0.188832;5.2957;0.0771642;0.0829044;5.29129;0.18899;84.7952;129.795;0.00914552;-0.0197786;-0.00578808;0.00813651;0.104556;0.00190164;-0.0245543;0;0.0488742;-0.995379;-2.80615;-1.72481;3.44096;-8.13204;-0.0155252;0.00327093;0.111326;0.11141;-0.0156095;0.0635099;0.139457;7.17066;0.0799861;0.0846799;7.13734;0.140108;89.0791;134.079;-0.0194196;-0.0155226;0.0043027;0.00235693;0.111323;0.0393013;0.10958;0;0.152739;8.12314;7.32067
771000;772;29.7196;3.96148;0.153795;-2.54456;29.6105;0.0383478;-0.45216;3.95108;-0.798022;-0.556091;1.1436;-0.958276;1.59228;-8.16952;-0.0198504;0.0016814;0.104249;0.104271;-0.0198732;0.0620723;0.190414;5.25172;0.0769983;0.082763;5.24685;0.190591;84.8604;129.86;0.00982986;-0.0198819;-0.0054752;0.00803365;0.104236;-6.86678e-05;-0.0188627;0;0.0478334;-0.997447;-2.81204;-1.73101;3.44947;-8.14571;-0.0135841;0.00182009;0.113282;0.113308;-0.0136102;0.0634592;0.119914;8.33932;0.0804602;0.0846123;8.32524;0.120117;89.6833;134.683;-0.0145225;-0.0135829;0.00279858;0.000953096;0.11328;0.0228784;0.107807;0;0.158398;8.12816;7.32792
772000;773;29.7319;3.97379;0.154273;-2.54423;29.6229;0.0400454;-0.451828;3.96346;-0.796324;-0.557055;1.15003;-0.96025;1.59843;-8.1715;-0.0198355;0.00140498;0.104278;0.104294;-0.0198514;0.0620728;0.190217;5.25716;0.0770043;0.0827637;5.25375;0.19034;84.8781;129.878;0.00787941;-0.0198665;-0.00593907;0.00792355;0.104263;0.00663513;-0.0191745;0;0.0545475;-0.997577;-2.81607;-1.72972;3.45215;-8.13694;-0.0155889;0.00392336;0.112071;0.112192;-0.0157093;0.0639505;0.139098;7.18917;0.0805431;0.0852673;7.14171;0.140022;88.8487;133.849;-0.0157687;-0.0155854;0.0050608;0.00291648;0.112067;0.0328301;0.11296;0;0.154738;8.13241;7.33521
773000;774;29.7487;3.99053;0.154923;-2.54753;29.6394;0.0483991;-0.45513;3.97996;-0.78797;-0.557057;1.15501;-0.961123;1.60253;-8.1681;-0.0202511;0.00150834;0.104492;0.104511;-0.0202694;0.0623899;0.193805;5.15983;0.0773209;0.0831866;5.15609;0.193946;84.6646;129.665;0.00718444;-0.0202848;-0.00610219;0.00825925;0.104476;0.00463611;-0.0243844;0;0.0417452;-1.00002;-2.8274;-1.7354;3.46495;-8.14963;-0.0154257;0.0034626;0.112611;0.112705;-0.0155192;0.064112;0.136982;7.30024;0.0808078;0.0854826;7.26226;0.137698;89.4032;134.403;-0.0111678;-0.0154214;0.0052584;0.00187345;0.112604;0.0223738;0.106789;0;0.157276;8.13287;7.34254
774000;775;29.7613;4.0032;0.155415;-2.54674;29.6521;0.0459548;-0.454337;3.99275;-0.790415;-0.556627;1.16468;-0.964786;1.61156;-8.1732;-0.0201044;0.00178605;0.10598;0.106005;-0.0201297;0.0630675;0.1897;5.27149;0.078248;0.08409;5.26612;0.189893;84.6304;129.63;0.0068531;-0.02014;-0.00583857;0.00854136;0.105966;0.0054609;-0.0306253;0;0.0485565;-1.00178;-2.83619;-1.73659;3.47322;-8.14809;-0.0153244;0.00350316;0.11405;0.114145;-0.0154191;0.0647821;0.134365;7.44243;0.0817228;0.0863762;7.40282;0.135084;89.6485;134.649;-0.00922715;-0.0153192;0.00580514;0.0014685;0.114041;0.00486138;0.0917174;0;0.148469;8.12459;7.35032
775000;776;29.78;4.02189;0.156141;-2.5484;29.6708;0.0466865;-0.456001;4.01137;-0.789683;-0.557079;1.17145;-0.967746;1.61838;-8.17473;-0.019882;0.00234618;0.10607;0.106113;-0.0199257;0.0630195;0.187443;5.33495;0.0782346;0.0840261;5.32545;0.187778;84.2424;129.242;0.00772191;-0.0199236;-0.00553357;0.00932853;0.106058;0.00591924;-0.0200755;0;0.045782;-1.004;-2.848;-1.73607;3.48326;-8.14763;-0.0149783;0.00409329;0.113391;0.113522;-0.0151087;0.0643152;0.132094;7.57037;0.0811873;0.0857536;7.51367;0.133091;88.4643;133.464;-0.012962;-0.0149764;0.00464558;0.00360466;0.113389;0.0247566;0.109306;0;0.143149;8.11218;7.35759
776000;777;29.7952;4.03701;0.156728;-2.54757;29.686;0.0382772;-0.455171;4.02663;-0.798092;-0.558515;1.17982;-0.965986;1.6239;-8.17297;-0.0197291;0.00246636;0.106775;0.106823;-0.0197772;0.0633;0.184773;5.41205;0.078641;0.0844001;5.40133;0.18514;84.1864;129.186;0.0108802;-0.0197723;-0.00550788;0.00952902;0.106764;-0.000496691;-0.024471;0;0.0583443;-1.00541;-2.85216;-1.73666;3.48735;-8.14095;-0.014827;0.00445675;0.112284;0.11244;-0.014983;0.0637117;0.132049;7.57297;0.0804212;0.084949;7.50451;0.133253;87.9823;132.982;-0.0165711;-0.0148271;0.00443387;0.00447701;0.112284;0.0287244;0.117006;0;0.15808;8.09362;7.36511
777000;778;29.8109;4.05274;0.157338;-2.54814;29.7018;0.035265;-0.455738;4.04237;-0.801105;-0.560071;1.19193;-0.968617;1.63481;-8.17916;-0.0195769;0.00277426;0.106741;0.106802;-0.0196378;0.0632197;0.183406;5.45238;0.0785694;0.0842929;5.43857;0.183872;84.6551;129.655;0.010729;-0.0196135;-0.00415785;0.00891507;0.106736;-0.002873;-0.0235742;0;0.0491325;-1.00685;-2.85949;-1.74985;3.50034;-8.16115;-0.0159769;0.00242251;0.109816;0.109863;-0.0160235;0.0629432;0.145488;6.87344;0.0791258;0.0839243;6.85635;0.14585;89.4532;134.453;-0.0208894;-0.0159751;0.0034333;0.00152629;0.109814;0.0302491;0.10902;0;0.167074;8.05001;7.37258
778000;779;29.824;4.06589;0.157849;-2.54797;29.715;0.0364592;-0.45557;4.05558;-0.79991;-0.559426;1.19625;-0.970019;1.63857;-8.177;-0.0200063;0.00235575;0.106716;0.10676;-0.0200501;0.0634049;0.187473;5.3341;0.0787124;0.0845399;5.32464;0.187806;84.3286;129.329;0.0102814;-0.0200472;-0.00543168;0.00925138;0.106705;-9.11669e-05;-0.0249551;0;0.0462701;-1.00736;-2.86229;-1.74738;3.50155;-8.15869;-0.0161221;0.00255459;0.108985;0.109037;-0.0161742;0.0626055;0.14793;6.75996;0.078639;0.083474;6.74139;0.148337;88.8964;133.896;-0.0193168;-0.0161218;0.00267275;0.00244976;0.108984;0.0289549;0.109732;0;0.163838;8.03043;7.37264
779000;780;29.834;4.07589;0.158237;-2.54914;29.7249;0.036729;-0.456736;4.06552;-0.799641;-0.560089;1.19907;-0.970145;1.64093;-8.17713;-0.0199262;0.00259757;0.106133;0.106187;-0.0199797;0.0630833;0.187747;5.32633;0.0783054;0.084111;5.31474;0.188156;84.1959;129.196;0.0121617;-0.0199686;-0.00517036;0.00948011;0.106124;-0.000871147;-0.0216799;0;0.0376039;-1.00924;-2.8687;-1.74715;3.50721;-8.16139;-0.0161042;0.00317591;0.112664;0.112742;-0.0161825;0.0644622;0.142941;6.99589;0.0810954;0.0859495;6.96688;0.143536;88.8351;133.835;-0.0100178;-0.016103;0.00363928;0.00276617;0.112662;0.0235709;0.0970743;0;0.154382;8.04163;7.37974
780000;781;29.8463;4.08818;0.158714;-2.55129;29.7371;0.0382696;-0.458885;4.07766;-0.7981;-0.560423;1.20731;-0.975832;1.65043;-8.18281;-0.0200692;0.00285596;0.105616;0.105681;-0.0201341;0.0629075;0.19002;5.2626;0.078036;0.0838767;5.24886;0.190517;83.9686;128.969;0.00969475;-0.0201145;-0.00502923;0.00984464;0.105608;0.0019638;-0.0186863;0;0.0449963;-1.01027;-2.87424;-1.75227;3.51459;-8.16357;-0.015627;0.00322477;0.111097;0.111179;-0.015709;0.0634441;0.140661;7.10929;0.0798724;0.0845921;7.0774;0.141295;89.0956;134.096;-0.0148031;-0.0156245;0.00424757;0.00231863;0.111094;0.0301037;0.108793;0;0.153846;8.0501;7.38768
781000;782;29.8633;4.10514;0.159373;-2.55267;29.754;0.0374532;-0.460268;4.09457;-0.798916;-0.561248;1.21839;-0.978012;1.66012;-8.18926;-0.019893;0.00146482;0.103929;0.103946;-0.0199104;0.0619283;0.19141;5.22439;0.0767994;0.0825711;5.22071;0.191545;85.0489;130.049;0.00914813;-0.0199219;-0.00550953;0.00765683;0.103916;0.00252101;-0.0293519;0;0.0431005;-1.01305;-2.88233;-1.74975;3.52075;-8.15908;-0.0145589;0.00359824;0.114941;0.115041;-0.0146588;0.06485;0.126664;7.89489;0.0820181;0.0864666;7.8479;0.127423;88.7622;133.762;-0.00401169;-0.0145569;0.00428706;0.00298943;0.114939;0.00986287;0.0909574;0;0.148493;8.05002;7.39504
782000;783;29.8835;4.1254;0.160159;-2.55583;29.774;0.0420905;-0.463427;4.11463;-0.794279;-0.560183;1.22756;-0.984689;1.67042;-8.19167;-0.0203868;0.00155685;0.106108;0.106127;-0.0204059;0.0632663;0.192133;5.20473;0.0784429;0.0843551;5.20078;0.192279;84.743;129.743;0.00826313;-0.0204206;-0.00604433;0.00828869;0.106092;0.00330909;-0.0294987;0;0.049472;-1.01456;-2.89214;-1.75882;3.53374;-8.17268;-0.0139727;0.00344718;0.114535;0.114628;-0.0140651;0.0643464;0.121995;8.19707;0.0815123;0.0857952;8.14979;0.122703;88.7843;133.784;-0.010132;-0.0139709;0.00407282;0.00289369;0.114533;0.0170788;0.100288;0;0.143877;8.03621;7.40296
783000;784;29.9;4.14183;0.160797;-2.55741;29.7904;0.0319941;-0.46501;4.13099;-0.804375;-0.564121;1.23708;-0.978619;1.6752;-8.1856;-0.0202385;0.0024809;0.106971;0.10702;-0.0202869;0.0636533;0.189195;5.28554;0.0789821;0.0848711;5.27532;0.189562;84.3533;129.353;0.00963107;-0.0202791;-0.00517795;0.0092595;0.106962;-0.00115131;-0.0270889;0;0.0498963;-1.01809;-2.90445;-1.75597;3.54342;-8.16727;-0.0159146;0.0025045;0.109844;0.109894;-0.0159645;0.0629291;0.144884;6.90207;0.0791226;0.0839054;6.88364;0.145272;88.758;133.758;-0.0208931;-0.015915;0.00231979;0.00266827;0.109844;0.0230807;0.11664;0;0.160462;8.00997;7.40965
784000;785;29.9193;4.1612;0.161549;-2.55731;29.8098;0.0271961;-0.464907;4.15045;-0.809173;-0.563006;1.24934;-0.98795;1.68934;-8.19493;-0.0202188;0.00306919;0.107243;0.107316;-0.0202926;0.0638045;0.188533;5.30411;0.0791801;0.0850727;5.28845;0.189091;84.0935;129.094;0.00978293;-0.0202637;-0.00461393;0.00986771;0.107237;-0.000403366;-0.0318226;0;0.0449123;-1.01886;-2.91283;-1.76643;3.55569;-8.17692;-0.015813;0.00316089;0.110818;0.110897;-0.0158918;0.0633945;0.142693;7.00806;0.0797583;0.084526;6.97825;0.143302;88.5171;133.517;-0.0256679;-0.0158133;0.00306166;0.00324881;0.110819;0.0205696;0.110234;0;0.176106;7.97918;7.42059
785000;786;29.9316;4.17345;0.162024;-2.55742;29.8221;0.0262155;-0.465016;4.16273;-0.810154;-0.564762;1.25827;-0.988325;1.69676;-8.19887;-0.0199741;0.00342275;0.106555;0.106648;-0.0200667;0.0633572;0.187453;5.33466;0.0786454;0.0844763;5.31467;0.188158;84.4823;129.482;0.00891857;-0.0200127;-0.00326023;0.00934144;0.106556;-0.000690609;-0.0226451;0;0.0518048;-1.0209;-2.91389;-1.76312;3.5555;-8.16948;-0.0155401;0.00455618;0.110982;0.111145;-0.015704;0.0634247;0.140024;7.14162;0.079848;0.0845663;7.07754;0.141292;87.4189;132.419;-0.0218405;-0.0155444;0.00359111;0.00541135;0.110985;0.0237383;0.110311;0;0.155142;7.90989;7.42299
786000;787;29.9399;4.1818;0.162349;-2.55811;29.8304;0.0313013;-0.465707;4.17106;-0.805068;-0.564066;1.26047;-0.990312;1.69931;-8.19729;-0.0201757;0.003358;0.107145;0.107234;-0.0202642;0.063749;0.188303;5.3106;0.0791137;0.0849986;5.29177;0.188973;83.901;128.901;0.00984195;-0.0202235;-0.00442559;0.0102463;0.107141;-5.58066e-05;-0.0266288;0;0.0467784;-1.02399;-2.92282;-1.76919;3.56672;-8.18944;-0.0134243;0.00267188;0.114322;0.114378;-0.0134802;0.0639289;0.117426;8.51601;0.0811194;0.0852386;8.48486;0.117857;87.892;132.892;-0.014993;-0.0134299;0.00088497;0.00425393;0.114325;0.00845384;0.0991852;0;0.16114;7.89285;7.42364
787000;788;29.9479;4.18974;0.162657;-2.55845;29.8384;0.0241646;-0.466044;4.179;-0.812205;-0.564296;1.2636;-0.990564;1.70186;-8.19754;-0.020272;0.00365872;0.106598;0.106703;-0.0203774;0.0635404;0.190172;5.25839;0.0788111;0.0847205;5.23636;0.190973;83.7524;128.752;0.0115801;-0.0203215;-0.00407685;0.0105072;0.106596;0.000341867;-0.0208334;0;0.0420805;-1.02374;-2.92512;-1.76842;3.56815;-8.18359;-0.0146525;0.00331845;0.114465;0.114551;-0.0147377;0.0646442;0.128008;7.81203;0.0817239;0.0861923;7.77264;0.128656;87.7396;132.74;-0.012148;-0.014658;0.00178592;0.00467343;0.114469;0.0239166;0.0938916;0;0.15759;7.91973;7.43089
788000;789;29.965;4.20685;0.163321;-2.55938;29.8555;0.0193369;-0.466978;4.1961;-0.817033;-0.564721;1.2708;-0.991886;1.70812;-8.19887;-0.0201671;0.00414157;0.106305;0.106441;-0.0203026;0.0633716;0.18971;5.27122;0.0786068;0.0844955;5.24271;0.190741;83.411;128.411;0.00917095;-0.0202219;-0.00377759;0.0111552;0.106306;0.00133876;-0.0245749;0;0.052121;-1.02375;-2.93593;-1.77001;3.5778;-8.18425;-0.01561;0.00253012;0.113648;0.113698;-0.0156595;0.0646787;0.137353;7.2805;0.0815213;0.0862382;7.26064;0.137729;89.2841;134.284;-0.0083115;-0.0156085;0.00330196;0.00184786;0.113646;0.00814143;0.0986879;0;0.152337;7.95882;7.43876
789000;790;30.0034;4.24524;0.164812;-2.56635;29.8934;0.0278605;-0.473951;4.23402;-0.808509;-0.564756;1.29091;-0.998501;1.72697;-8.20548;-0.0207317;0.00246069;0.106946;0.106994;-0.0207791;0.0638864;0.193851;5.15859;0.0791697;0.0851818;5.1491;0.194209;84.3986;129.399;0.00825371;-0.0207713;-0.00509723;0.00914676;0.106937;0.00563134;-0.0284087;0;0.0467005;-1.02704;-2.9531;-1.77509;3.59535;-8.18933;-0.0151206;0.0032056;0.113038;0.113118;-0.0152008;0.0641596;0.133766;7.47576;0.0809563;0.0855461;7.44163;0.134379;88.9809;133.981;-0.00856627;-0.0151186;0.00399101;0.00251062;0.113036;0.00636744;0.106628;0;0.145145;7.89253;7.45283
790000;791;30.0248;4.2667;0.165645;-2.5691;29.9147;0.0214426;-0.476697;4.25533;-0.814927;-0.566216;1.30758;-1.00465;1.74346;-8.21163;-0.0204147;0.00249947;0.105397;0.105447;-0.0204643;0.0629557;0.193692;5.16283;0.0780193;0.083941;5.15274;0.194072;84.1724;129.172;0.00677044;-0.0204564;-0.00526391;0.00937912;0.105388;0.00644432;-0.0268417;0;0.0605853;-1.03069;-2.96082;-1.78031;3.60531;-8.19161;-0.0158266;0.00266184;0.109364;0.109421;-0.0158832;0.062652;0.144715;6.91013;0.0787771;0.083536;6.88908;0.145157;88.8818;133.882;-0.0187403;-0.0158262;0.0028416;0.00250236;0.109364;0.0175437;0.110983;0;0.162898;7.81955;7.46045
791000;792;30.035;4.27682;0.166038;-2.56659;29.9251;0.0159063;-0.47419;4.26571;-0.820463;-0.567653;1.31661;-1.00711;1.75213;-8.21409;-0.0203256;0.00284205;0.106589;0.106653;-0.0203892;0.0635211;0.190691;5.24409;0.0787828;0.0846948;5.23085;0.191174;84.2853;129.285;0.00840804;-0.0203669;-0.0046063;0.00943602;0.106583;0.00920922;-0.0187663;0;0.042424;-1.03364;-2.96455;-1.7874;3.61273;-8.20092;-0.0153642;0.00423344;0.112961;0.113101;-0.0155037;0.0643022;0.136013;7.35223;0.0810641;0.0857363;7.29507;0.137079;87.7913;132.791;-0.0139251;-0.0153667;0.00362438;0.00477227;0.112963;0.024039;0.0956545;0;0.156164;7.76788;7.46099
792000;793;30.0445;4.28637;0.166408;-2.56612;29.9347;0.0156124;-0.473721;4.27533;-0.820757;-0.567365;1.32145;-1.00572;1.75489;-8.21271;-0.0201086;0.00323671;0.107553;0.107635;-0.0201906;0.0639126;0.186966;5.34858;0.0793475;0.0852168;5.33091;0.187585;84.0788;129.079;0.00805266;-0.0201541;-0.00438475;0.00997955;0.107549;0.00632965;-0.0226084;0;0.0439249;-1.0331;-2.96531;-1.78179;3.61042;-8.18746;-0.0147288;0.00446246;0.111222;0.11138;-0.0148867;0.0631333;0.132427;7.55133;0.0796804;0.0841777;7.48184;0.133657;87.4609;132.461;-0.018492;-0.014733;0.00350329;0.00531291;0.111225;0.0424341;0.104252;0;0.156372;7.757;7.46768
793000;794;30.0605;4.30239;0.16703;-2.56662;29.9508;0.0172398;-0.474219;4.29137;-0.81913;-0.568419;1.32773;-1.00881;1.76173;-8.21579;-0.019893;0.00350133;0.107221;0.107318;-0.0199894;0.0636536;0.185532;5.3899;0.0790552;0.0848714;5.36873;0.186264;83.906;128.906;0.00744187;-0.019941;-0.00419039;0.0103098;0.107219;0.00609786;-0.0201824;0;0.0383616;-1.03598;-2.97645;-1.78636;3.62265;-8.2006;-0.015176;0.0031355;0.112642;0.112719;-0.0152529;0.0639861;0.134727;7.42241;0.0807124;0.0853148;7.39005;0.135317;88.6014;133.601;-0.0111804;-0.015176;0.0031465;0.00312576;0.112642;0.0321725;0.103001;0;0.151646;7.75669;7.47521
794000;795;30.0836;4.32543;0.167925;-2.57335;29.9733;0.00672571;-0.480952;4.31392;-0.829644;-0.569564;1.33931;-1.00602;1.76925;-8.213;-0.0197033;0.003287;0.107253;0.107338;-0.0197884;0.0635633;0.183708;5.44341;0.0789856;0.0847511;5.42431;0.184355;84.0251;129.025;0.0065295;-0.0197496;-0.0043817;0.0100763;0.107249;0.003119;-0.0202703;0;0.0471023;-1.04019;-2.99228;-1.77879;3.63316;-8.19303;-0.0153035;0.00319387;0.11396;0.114039;-0.0153824;0.0647107;0.134288;7.44667;0.081638;0.086281;7.41361;0.134887;88.6829;133.683;-0.011265;-0.015303;0.00338082;0.00302861;0.11396;0.0407633;0.107308;0;0.152551;7.72077;7.48207
795000;796;35.1816;9.42341;0.365842;-2.7517;35.0737;0.0685841;-0.659301;9.41432;-0.767785;-1.01168;4.04769;-0.801511;4.2485;-8.01208;-0.0188924;0.00330635;0.0991855;0.099278;-0.018985;0.0591315;0.190476;5.25001;0.0733374;0.078842;5.2293;0.19123;85.4503;130.45;0.00380263;-0.0189146;-0.00125019;0.00737336;0.0991897;-0.00208188;-0.0863278;0;0.0345037;-1.6567;-5.41272;-1.59268;5.88038;-8.01404;-0.0162089;-0.00227942;0.117689;0.117727;-0.0162477;0.0669876;0.137727;7.26073;0.0844236;0.0893168;7.24578;0.138011;87.4804;132.48;-0.00872149;-0.0162138;-0.00923443;0.00384246;0.117653;0.0156768;0.105279;0;0.148583;-0.00601519;7.52353
796000;797;35.4949;9.73672;0.378005;-2.91767;35.3736;0.281177;-0.825265;9.71423;-0.555193;-0.857203;4.08227;-0.880992;4.26332;-8.09392;-0.018879;0.00279261;0.0995356;0.0996014;-0.0189449;0.0592731;0.189671;5.27228;0.0735339;0.0790308;5.25744;0.190207;84.8275;129.827;0.00681447;-0.0189085;-0.00316127;0.00810521;0.0995346;-0.010956;-0.0933143;0;0.0372487;-1.66704;-5.66773;-1.45638;6.08467;-7.87618;-0.0142806;-0.00345713;0.116985;0.117076;-0.0143716;0.0657238;0.122072;8.19188;0.0832557;0.0876317;8.14635;0.122754;87.7479;132.748;-0.0160045;-0.0142798;-0.0110318;0.00322755;0.116936;0.0294088;0.099383;0;0.147277;-0.00990197;7.50238
