Time;Image index (Image index);Distance L(t) (Extensometer 1);Change in distance (Extensometer 1);Strain - RC (Extensometer 1);Distance x L(t) (Extensometer 1);Distance y L(t) (Extensometer 1);Distance z L(t) (Extensometer 1);Change in distance x (Extensometer 1);Change in distance y (Extensometer 1);Change in distance z (Extensometer 1);X-displacement (Strain Gauge 1);Y-displacement (Strain Gauge 1);Z-displacement (Strain Gauge 1);Displacement (Strain Gauge 1);Height (Strain Gauge 1);Exx - RC (Strain Gauge 1);Exy - RC (Strain Gauge 1);Eyy - RC (Strain Gauge 1);Max. principal strain - RC (Strain Gauge 1);Min. principal strain - RC (Strain Gauge 1);Max. shear strain - RC (Strain Gauge 1);Poisson ratio -Exx/Eyy (Strain Gauge 1);Poisson ratio -Eyy/Exx (Strain Gauge 1);Von Mises - RC (Strain Gauge 1);Tresca - RC (Strain Gauge 1);Poisson ratio -strain max/min (Strain Gauge 1);Poisson ratio -strain min/max (Strain Gauge 1);Max. strain angle (Strain Gauge 1);Max. shear angle (Strain Gauge 1);Vorticity-z (Strain Gauge 1);du/dx (Strain Gauge 1);du/dy (Strain Gauge 1);dv/dx (Strain Gauge 1);dv/dy (Strain Gauge 1);dw/dx (Strain Gauge 1);dw/dy (Strain Gauge 1);Ezz plane stress state (Strain Gauge 1);Stereo reconstruction error (Strain Gauge 1);X-displacement (Strain Gauge 2);Y-displacement (Strain Gauge 2);Z-displacement (Strain Gauge 2);Displacement (Strain Gauge 2);Height (Strain Gauge 2);Exx - RC (Strain Gauge 2);Exy - RC (Strain Gauge 2);Eyy - RC (Strain Gauge 2);Max. principal strain - RC (Strain Gauge 2);Min. principal strain - RC (Strain Gauge 2);Max. shear strain - RC (Strain Gauge 2);Poisson ratio -Exx/Eyy (Strain Gauge 2);Poisson ratio -Eyy/Exx (Strain Gauge 2);Von Mises - RC (Strain Gauge 2);Tresca - RC (Strain Gauge 2);Poisson ratio -strain max/min (Strain Gauge 2);Poisson ratio -strain min/max (Strain Gauge 2);Max. strain angle (Strain Gauge 2);Max. shear angle (Strain Gauge 2);Vorticity-z (Strain Gauge 2);du/dx (Strain Gauge 2);du/dy (Strain Gauge 2);dv/dx (Strain Gauge 2);dv/dy (Strain Gauge 2);dw/dx (Strain Gauge 2);dw/dy (Strain Gauge 2);Ezz plane stress state (Strain Gauge 2);Stereo reconstruction error (Strain Gauge 2);Load ADC 1 channel 1;Position ADC 1 channel 2
ms;;mm;mm;S;mm;mm;mm;mm;mm;mm;mm;mm;mm;mm;mm;S;S;S;S;S;S;;;S;S;;;°;°;S;S;S;S;S;S;S;S;pixel;mm;mm;mm;mm;mm;S;S;S;S;S;S;;;S;S;;;°;°;S;S;S;S;S;S;S;S;pixel;kN;mm
0.02515;1;25.7682;0;0;-1.81929;24.8715;6.48823;0;0;0;0;0;0;0;-11.5626;2.22045e-16;-9.71445e-17;-1.11022e-16;2.48308e-16;-1.37285e-16;1.92796e-16;;;2.25677e-16;2.57062e-16;;;0;45;0;2.22045e-16;-1.249e-16;-6.93889e-17;-1.11022e-16;0;0;0;0;0;0;0;0;-4.99121;0;-2.08167e-17;0;2.08167e-17;-2.08167e-17;2.08167e-17;;;2.4037e-17;2.77556e-17;;;0;45;0;0;-2.77556e-17;-1.38778e-17;0;0;0;0;0;-0.0144312;2.18945
1000.03;2;25.7618;-0.00635258;-0.000246528;-1.81853;24.8683;6.47556;0.00076087;-0.00322212;-0.0126748;0.00181296;-0.00372536;-0.00139518;0.00437169;-11.564;5.55438e-05;0.000121043;-0.000471491;8.2014e-05;-0.000497961;0.000289988;0.117805;8.48863;0.000362419;0.00038665;0.1647;6.07166;110.279;155.279;0.00180723;5.55349e-05;6.18781e-05;0.000180239;-0.000471485;-0.00720047;0.00126784;0;0.0175084;0.00161092;-0.00406603;-0.00771187;0.0088657;-4.99893;0.000157257;-0.0001936;-0.000132172;0.000254251;-0.000229167;0.000241709;1.18978;0.840488;0.000279226;0.000322278;1.10946;0.901341;14.3627;59.3627;0.0010779;0.000157236;-0.000104931;-0.000282293;-0.000132159;0.000296227;-0.00214397;0;0.019553;-0.014385;2.19613
2000.03;3;25.7632;-0.00501774;-0.000194726;-1.82163;24.8698;6.47446;-0.00233635;-0.00177911;-0.0137766;0.00228345;-0.00352641;-0.00523419;0.00671167;-11.5678;0.000152549;-0.000335133;-0.000269859;0.000337478;-0.000454788;0.000396133;0.565293;1.76899;0.000459084;0.000528178;0.742057;1.34761;96.9657;141.966;0.000638691;0.000152593;-0.000512516;-0.000157675;-0.000269934;-0.00396895;0.000247033;0;0.0194222;0.00213298;-0.00471605;-0.0130652;0.0140531;-5.00428;0.000216694;-9.46093e-05;-0.000147989;0.000239778;-0.000171073;0.000205425;1.46426;0.682941;0.000238307;0.0002739;1.40161;0.713464;174.471;39.4708;0.000917434;0.000216693;-8.45235e-05;-0.000104699;-0.000147988;8.16546e-05;-0.000569065;0;0.0199636;-0.0145109;2.2037
3000.03;4;25.7591;-0.00913767;-0.000354611;-1.82186;24.8676;6.46631;-0.00256786;-0.00394354;-0.021926;0.00191225;-0.00615564;-0.00427507;0.00773465;-11.5669;-0.000149653;6.67552e-05;-0.000660714;-0.000141078;-0.00066929;0.000264106;-0.226502;-4.41496;0.000407393;0.000352142;-0.210787;-4.74412;94.2549;139.255;0.00110746;-0.000149651;0.00011025;2.32378e-05;-0.000660718;-0.0050414;0.000338322;0;0.0172922;0.00193137;-0.00810851;-0.0147609;0.0169518;-5.00598;0.000143504;-9.44037e-05;0.000122065;0.000227795;3.77738e-05;9.50104e-05;-1.17563;-0.850605;0.000140969;0.00012668;-6.03049;-0.165824;167.291;32.2913;0.000460127;0.000143461;0.000119023;-0.000307835;0.000122062;0.000826777;-0.00327163;0;0.0258055;-0.0143672;2.21057
4000.03;5;25.7573;-0.0109256;-0.000423996;-1.82128;24.8674;6.45989;-0.00198656;-0.00408422;-0.0283466;0.00219969;-0.0101643;0.00221473;0.0106328;-11.5604;2.06832e-05;0.000428692;0.000384531;0.000668303;-0.000263089;0.000465696;-0.0537881;-18.5915;0.000554444;0.000620928;2.54022;0.393667;24.8425;69.8425;0.00242148;2.04291e-05;2.53607e-05;0.000831876;0.000384622;-0.00500994;0.000650114;0;0.0245081;0.00217848;-0.0116752;-0.0138592;0.018252;-5.00507;0.000201461;-0.000164525;0.000333799;0.000444963;9.02975e-05;0.000177333;-0.603541;-1.65689;0.000271593;0.000236443;-4.92774;-0.202933;142.809;7.80936;0.00084456;0.000201406;4.11256e-05;-0.000370149;0.000333811;-0.000185134;-0.00364449;0;0.0283545;-0.0143413;2.21856
5000.03;6;25.7638;-0.00437496;-0.000169781;-1.82218;24.8709;6.47259;-0.00288536;-0.00066589;-0.0156498;0.00266817;-0.011074;-0.0053038;0.0125651;-11.5679;-0.000433694;-2.02112e-06;0.000656716;0.00065672;-0.000433698;0.000545209;0.660398;1.51424;0.000633927;0.000726946;1.51423;0.6604;59.5524;104.552;0.00170458;-0.000433714;-0.000204256;0.000199993;0.000656696;-0.00385826;-0.00183039;0;0.0207422;0.00260537;-0.0138701;-0.0195616;0.0241211;-5.01078;0.000223005;-0.000254874;0.000542599;0.000683627;8.19768e-05;0.000300825;-0.410994;-2.43313;0.000431032;0.0004011;-8.33926;-0.119915;134.084;179.084;-3.14561e-05;0.000222923;-3.14581e-05;-0.000478218;0.000542631;0.00335641;-0.00187669;0;0.0306992;-0.0138878;2.22583
6000.03;7;25.7528;-0.0154068;-0.0005979;-1.82007;24.8613;6.46585;-0.000781633;-0.0101883;-0.022381;0.00193682;-0.0120583;-0.000815919;0.0122401;-11.5634;-0.000214181;0.000689477;-0.000644186;0.000293038;-0.00115141;0.000722222;-0.332483;-3.00767;0.000881668;0.000962962;0.254505;3.9292;142.348;7.34776;0.00166136;-0.000214402;0.000421335;0.000957735;-0.000644037;-0.00457805;-0.00111674;0;0.0199704;0.002332;-0.0148932;-0.0202708;0.0252616;-5.01148;7.35263e-05;-0.000167862;0.00032859;0.000411871;-9.75465e-06;0.000210813;-0.223763;-4.46901;0.000277889;0.000281084;;;136.492;1.49181;-8.57719e-05;7.34833e-05;2.16793e-06;-0.000337849;0.000328604;0.00353391;-0.00554981;0;0.0260311;-0.013835;2.23138
7000.03;8;25.7666;-0.00158542;-6.15261e-05;-1.82945;24.869;6.48861;-0.0101563;-0.00248672;0.000379825;0.00263407;-0.0157442;-0.00152698;0.0160359;-11.5641;-0.00031975;-4.03123e-05;0.000554739;0.000556594;-0.000321604;0.000439099;0.576397;1.73491;0.000513043;0.000585465;1.73068;0.577808;57.0087;102.009;0.00213765;-0.000319796;-0.000386813;0.000305886;0.000554665;-0.00395928;-0.0015727;0;0.0178936;0.0026303;-0.018796;-0.023334;0.030078;-5.01455;0.000237793;-0.000275963;0.000844228;0.000951006;0.000131015;0.000409995;-0.281669;-3.55027;0.000595159;0.000546661;-7.25876;-0.137765;119.111;164.111;-1.54514e-05;0.000237738;-0.00012155;-0.000430282;0.000844259;0.00341638;-0.00594674;0;0.0289786;-0.0136756;2.24009
8000.03;9;25.766;-0.00221206;-8.58445e-05;-1.8216;24.8747;6.46645;-0.00230738;0.00321329;-0.0217872;0.00344796;-0.0139512;-0.0138274;0.019943;-11.5764;-0.000205043;1.10435e-05;0.000707539;0.000707672;-0.000205177;0.000456425;0.289798;3.45068;0.00055301;0.000608566;3.44908;0.289932;64.7785;109.778;0.00243205;-0.000205089;-0.000278814;0.000300637;0.0007075;-0.00451231;-0.00347548;0;0.017909;0.00400549;-0.018718;-0.0362335;0.0409789;-5.02745;0.000110273;-0.000316468;0.000537875;0.000705994;-5.78457e-05;0.00038192;-0.205017;-4.87765;0.000491082;0.000509227;12.2048;0.0819352;134.295;179.295;-0.000757455;0.000110186;-0.000108833;-0.000524015;0.000537919;0.00703311;-0.00765848;0;0.0297142;-0.0131803;2.24744
9000.03;10;25.7595;-0.00865138;-0.000335738;-1.82211;24.8708;6.45599;-0.00282052;-0.000777265;-0.0322455;0.00421613;-0.0133344;-0.0165722;0.0216846;-11.5792;-0.000359386;0.000375666;0.000493735;0.000635575;-0.000501225;0.0005684;0.727892;1.37383;0.000657858;0.000757867;1.26804;0.788618;29.8639;74.8639;0.00222646;-0.000359573;3.27331e-05;0.000718306;0.000493805;-0.00465626;-0.0028089;0;0.0201175;0.00428406;-0.0186748;-0.0428347;0.0469246;-5.03405;0.000144363;-0.000278423;0.000574189;0.000710996;7.5558e-06;0.00035172;-0.25142;-3.97741;0.000471499;0.00046896;;;120.704;165.704;0.0001976;0.000144345;-0.000221025;-0.000335796;0.000574203;0.0028962;-0.00727471;0;0.0279256;-0.0129569;2.24992
10000;11;25.7643;-0.00390263;-0.000151451;-1.82233;24.8743;6.46137;-0.00303512;0.00272762;-0.026862;0.00139527;-0.0187108;-0.00717446;0.0200876;-11.5698;-0.000407727;0.000750073;0.000561722;0.000970064;-0.000816068;0.000893066;0.725852;1.37769;0.0010325;0.00119075;1.1887;0.841252;28.0495;73.0495;0.00205515;-0.000407878;0.000570518;0.000929453;0.000561841;-0.00515612;-0.00077483;0;0.0209509;0.00161729;-0.0236416;-0.033527;0.0410561;-5.02474;0.000151574;-0.000230573;0.000726342;0.000807405;7.05105e-05;0.000368447;-0.208681;-4.792;0.000516374;0.000491263;-11.4509;-0.0873298;116.073;161.073;-3.05696e-05;0.000151544;-0.000125875;-0.00033521;0.00072636;0.00429204;-0.0103302;0;0.0287657;-0.0125751;2.25535
11000;12;25.7585;-0.00972001;-0.00037721;-1.82148;24.8703;6.4537;-0.00219099;-0.00124287;-0.0345384;0.00382786;-0.0195007;-0.0123909;0.0234193;-11.575;-7.39609e-05;0.00037702;-3.54808e-05;0.00032279;-0.000432231;0.000377511;-2.08453;-0.479724;0.000437435;0.000503347;0.746798;1.33905;177.069;42.0688;0.0029652;-7.41568e-05;2.3297e-05;0.000730729;-3.541e-05;-0.00783907;-0.000725993;0;0.0182088;0.00381796;-0.0252808;-0.0408908;0.048226;-5.0321;9.13925e-05;-0.000284978;0.000795643;0.000896513;-9.47744e-06;0.000452995;-0.114866;-8.70578;0.00060086;0.000603994;;;113.982;158.982;-0.000130383;9.13701e-05;-0.000214833;-0.000355074;0.000795661;0.00609537;-0.00825512;0;0.0254122;-0.0125217;2.26287
12000;13;25.7539;-0.0142511;-0.000553051;-1.82168;24.8682;6.44356;-0.00238318;-0.00331999;-0.0446798;0.00347806;-0.0216457;-0.0100926;0.0241349;-11.5727;-0.00028241;0.000577597;0.000372342;0.000708889;-0.000618957;0.000663923;0.75847;1.31844;0.000767218;0.000885231;1.1453;0.873137;20.3576;65.3576;0.00226161;-0.000282568;0.000349683;0.000805362;0.000372448;-0.00719306;-0.00284011;0;0.0173655;0.00409539;-0.0270216;-0.0438115;0.0516371;-5.03503;0.000243968;-0.000185787;0.000712388;0.000777128;0.000179228;0.00029895;-0.342465;-2.92001;0.000469879;0.0003986;-4.33598;-0.230629;112.416;157.416;-0.000275192;0.000243957;-0.00013204;-0.000239509;0.000712397;0.00448676;-0.00703659;0;0.0250522;-0.012236;2.26997
13000;14;25.7604;-0.00783493;-0.000304054;-1.82087;24.8725;6.4527;-0.00157574;0.00101418;-0.035539;0.00454888;-0.0244056;-0.00639609;0.0256366;-11.569;-0.000408273;-0.000101894;-0.000395454;-0.000299768;-0.000503959;0.000102095;-1.03242;-0.9686;0.0002927;0.000136127;-0.594827;-1.68116;60.6446;105.645;0.00121322;-0.000408284;-0.000381982;0.000178191;-0.000395522;-0.00137555;-0.00299763;0;0.0175373;0.00476972;-0.0306202;-0.0432108;0.0531744;-5.03442;0.000113797;-0.00024924;0.00109188;0.00115173;5.39475e-05;0.000548893;-0.104221;-9.59498;0.000750486;0.000731857;-21.3492;-0.0468402;105.124;150.124;-0.000430151;0.000113788;-0.000215049;-0.000283397;0.00109189;0.00477052;-0.0100031;0;0.0245823;-0.0119145;2.27744
14000;15;25.7568;-0.0113555;-0.000440677;-1.8211;24.8713;6.44344;-0.00180466;-0.000248299;-0.0447977;0.00279282;-0.0255978;-0.00566009;0.0263644;-11.5683;-0.000259966;0.000455944;0.000351838;0.000594991;-0.000503119;0.000549055;0.738881;1.3534;0.000634733;0.000732073;1.1826;0.845592;20.1733;65.1733;0.00172216;-0.000260233;5.11726e-05;0.000860468;0.00035194;-0.00455563;-0.00276098;0;0.0179972;0.00342362;-0.0318735;-0.0475861;0.0573766;-5.0388;0.000178105;-0.000226701;0.000928748;0.000991901;0.000114952;0.000438474;-0.191769;-5.2146;0.000626475;0.000584632;-8.62881;-0.115891;103.309;148.309;-0.000443604;0.000178114;-0.000270449;-0.000182986;0.000928737;0.00389206;-0.0078995;0;0.0251205;-0.011804;2.28438
15000;16;25.7612;-0.00697432;-0.000270656;-1.82127;24.8749;6.4468;-0.00197765;0.00340614;-0.0414399;0.0023663;-0.0266463;-0.00946942;0.0283777;-11.5721;-7.51233e-05;0.000245167;-0.000550062;2.87262e-05;-0.000653912;0.000341319;-0.136572;-7.32213;0.000445825;0.000455092;0.0439298;22.7636;137.976;2.97575;0.00268704;-7.52842e-05;-0.000127578;0.000618089;-0.000550041;-0.00669956;-0.00290037;0;0.0200274;0.00294448;-0.0343943;-0.0539089;0.0640142;-5.04512;0.000195511;-0.000398516;0.000621223;0.000860166;-4.34322e-05;0.000451799;-0.31472;-3.17743;0.000588456;0.000602399;19.8048;0.0504928;125.519;170.519;-0.000327683;0.000195483;-0.000332733;-0.000464271;0.000621247;0.00393862;-0.00738648;0;0.0294958;-0.0114375;2.29173
16000;17;25.7595;-0.008705;-0.000337819;-1.82189;24.8736;6.44481;-0.00259906;0.00208382;-0.0434292;0.0041368;-0.0268973;-0.00659668;0.0280017;-11.5692;-0.000277196;0.000329479;-0.000491217;-3.7785e-05;-0.000730627;0.000346421;-0.564304;-1.77209;0.000474991;0.000461895;-0.0517159;-19.3364;147.879;12.8786;0.00224406;-0.000277384;-3.80771e-05;0.000697113;-0.000491163;-0.00590323;-0.00159292;0;0.018931;0.00441773;-0.0347804;-0.0505909;0.0615519;-5.04181;0.000208839;-0.000217476;0.000815526;0.00088543;0.000138936;0.000373247;-0.256079;-3.90505;0.000549857;0.000497663;-6.37294;-0.156914;112.978;157.978;0.000115218;0.000208815;-0.000124148;-0.000310748;0.000815542;0.00218161;-0.00697496;0;0.0232916;-0.0114799;2.29909
17000;18;25.7657;-0.0025133;-9.75348e-05;-1.82037;24.8778;6.45379;-0.00107748;0.0062791;-0.0344477;0.00345312;-0.0310216;-0.00365453;0.0314264;-11.5662;-0.000589291;0.000521165;0.000128213;0.000402167;-0.000863245;0.000632706;4.59617;0.217572;0.000746577;0.000843608;0.465878;2.14648;1.13804;46.138;0.0016098;-0.000589548;0.00015607;0.000885999;0.000128337;-0.00376858;-0.00164446;0;0.0181346;0.00374106;-0.0389627;-0.0540913;0.0667679;-5.04531;0.000299583;-0.000346966;0.000446224;0.000727532;1.82753e-05;0.000354628;-0.671373;-1.48949;0.000479046;0.000472838;-39.8095;-0.0251196;138.36;3.36008;0.000330768;0.000299531;-0.000221032;-0.000472882;0.00044626;0.00176778;-0.00610085;0;0.0215811;-0.0114464;2.30572
18000;19;25.7625;-0.00572716;-0.000222257;-1.82152;24.8783;6.43888;-0.00222454;0.00672941;-0.0493544;0.00301383;-0.0282045;-0.0180269;0.0336087;-11.5806;-0.000199338;0.000257682;-4.02645e-05;0.000149877;-0.000389479;0.000269678;-4.95071;-0.201991;0.000321477;0.000359571;0.384814;2.59866;176.995;41.9952;0.00187323;-0.000199449;-2.22312e-05;0.000537552;-4.02315e-05;-0.00502237;-0.00086202;0;0.0179398;0.00238341;-0.0391945;-0.0694183;0.0797546;-5.06063;0.000381725;-0.000284287;0.000460885;0.000708334;0.000134277;0.000287029;-0.828245;-1.20737;0.000434437;0.000382705;-5.27518;-0.189567;141.12;6.11979;0.000111023;0.000381669;-0.000129488;-0.000439073;0.000460917;-0.0011401;-0.00457654;0;0.0320754;-0.0113653;2.31292
19000;20;25.7649;-0.00332482;-0.000129028;-1.81932;24.8816;6.4363;-2.62662e-05;0.0100447;-0.0519315;0.00379495;-0.0327014;-0.00859964;0.0340256;-11.5712;-0.000600565;1.69709e-05;0.000497755;0.000498017;-0.000600827;0.000549422;1.20655;0.828811;0.000635343;0.000732562;0.828886;1.20644;40.5622;85.5622;0.00116909;-0.000600656;-0.000394938;0.000428427;0.000497677;-0.00351859;-0.00415846;0;0.0175208;0.00332816;-0.0446088;-0.0665016;0.0801466;-5.05772;0.00028291;-0.000271469;-0.000145811;0.000414448;-0.000277349;0.000345899;1.94026;0.515396;0.000402015;0.000461198;1.49432;0.6692;0.610406;45.6104;0.00104141;0.000282881;-0.000180755;-0.000362222;-0.00014579;-0.00055198;-0.00200018;0;0.0270962;-0.0112766;2.31674
20000;21;25.7698;0.00156888;6.08844e-05;-1.82102;24.8847;6.44333;-0.00172858;0.0131692;-0.0449046;0.00250546;-0.0326275;-0.01318;0.0352781;-11.5758;-0.000529261;-0.000585782;0.000467301;0.000738061;-0.000800021;0.000769041;1.13259;0.882931;0.000888253;0.00102539;0.922552;1.08395;67.0209;112.021;0.00156426;-0.000529126;-0.000902927;-0.000268953;0.000467065;-0.00359727;-0.00123393;0;0.0183678;0.00203725;-0.0466874;-0.0716466;0.0855401;-5.06286;0.000198288;-0.000308957;-0.000278591;0.000350115;-0.000430418;0.000390267;0.711753;1.40498;0.000451435;0.000520355;0.81343;1.22936;24.1737;69.1737;0.000200193;0.0001982;-9.63971e-05;-0.000521619;-0.000278548;0.000472831;-0.0022327;0;0.0251209;-0.0111929;2.3219
21000;22;25.7672;-0.000984176;-3.81934e-05;-1.82166;24.8847;6.43311;-0.00236966;0.0131239;-0.0551291;0.00255672;-0.0341558;-0.0129233;0.0366083;-11.5755;-0.000529793;9.70298e-05;-0.000601371;-0.000462163;-0.000669002;0.00010342;-0.880976;-1.13511;0.000395514;0.000137893;-0.690824;-1.44755;142.71;7.71009;0.00234072;-0.000529915;-0.000308577;0.000502665;-0.000601414;-0.00474798;-0.000283563;0;0.0229815;0.00202282;-0.0493578;-0.0735937;0.0886358;-5.06481;0.000325046;-0.000280306;-0.000235926;0.000441099;-0.00035198;0.00039654;1.37774;0.725824;0.000458847;0.000528719;1.2532;0.79796;15.457;60.457;0.000544437;0.00032498;-0.000102943;-0.000457768;-0.000235892;0.00143196;-0.00415187;0;0.0305543;-0.0112584;2.32907
22000;23;25.7659;-0.00230481;-8.94439e-05;-1.82222;24.8844;6.4285;-0.00292576;0.012905;-0.0597312;0.00350096;-0.0382865;-0.00461721;0.0387225;-11.5672;-0.000239832;-6.48943e-05;-0.000661113;-0.000230062;-0.000670883;0.00022041;-0.36277;-2.75657;0.000393654;0.000293881;-0.342924;-2.9161;98.2386;143.239;0.0024181;-0.000239857;-0.000363962;0.000234299;-0.000661177;-0.0052954;-0.0010282;0;0.0174393;0.00258766;-0.053563;-0.0697167;0.0879552;-5.06093;0.00028269;-0.000323119;-5.09312e-05;0.000479516;-0.000247758;0.000363637;5.55042;0.180166;0.000426939;0.000484849;1.93542;0.516683;2.10308;47.1031;-0.000143431;0.000282565;-5.13569e-05;-0.000594972;-5.08803e-05;0.00130507;-0.00361075;0;0.0299426;-0.011156;2.33713
23000;24;25.7642;-0.00396949;-0.000154046;-1.82182;24.884;6.42353;-0.002529;0.0124953;-0.0647068;0.00182252;-0.0389909;-0.00460977;0.0393047;-11.5672;-0.000611051;-6.4821e-05;0.000822183;0.000825109;-0.000613977;0.000719543;0.743206;1.34552;0.000833832;0.000959391;1.34388;0.744116;55.3976;100.398;0.00202223;-0.000611098;-0.000442807;0.000312623;0.000822088;-0.0045665;-0.000239492;0;0.0170872;0.000729752;-0.0539956;-0.0720965;0.0900775;-5.06331;0.00022634;-0.000179554;0.000165543;0.000378051;1.38321e-05;0.00018211;-1.36726;-0.731389;0.000247552;0.000242813;-27.3314;-0.0365879;160.249;25.2495;-7.89018e-05;0.000226296;-9.84464e-06;-0.000349275;0.000165559;0.00271268;-0.00586061;0;0.0295928;-0.011198;2.34385
24000;25;25.7646;-0.00356754;-0.000138447;-1.82106;24.8847;6.42288;-0.00176413;0.0131336;-0.0653503;0.00106102;-0.0398269;-0.00531981;0.0401946;-11.5679;-0.000421678;0.00050986;0.000197613;0.000484488;-0.000708554;0.000596521;2.13386;0.468634;0.000692841;0.000795361;0.683771;1.46248;164.408;29.4075;0.00288594;-0.00042171;0.000451419;0.000568264;0.000197641;-0.00780972;-0.00125709;0;0.0192561;0.000104901;-0.055785;-0.0735443;0.0923078;-5.06476;0.000346229;-0.00015044;7.91056e-05;0.000413842;1.14934e-05;0.000201174;-4.3768;-0.228477;0.000272144;0.000268232;-36.007;-0.0277724;174.851;39.8511;-0.000432828;0.00034619;1.63561e-05;-0.000317281;7.91167e-05;0.00354635;-0.005264;0;0.0358214;-0.0111734;2.35142
25000;26;25.7659;-0.00228689;-8.87485e-05;-1.82182;24.8866;6.42043;-0.00252588;0.0150372;-0.067805;0.000494682;-0.0420054;-0.00211943;0.0420617;-11.5647;-0.00029766;0.000342028;0.000766996;0.000867405;-0.000398069;0.000632737;0.388085;2.57675;0.000747184;0.000843649;2.17903;0.458919;55.2384;100.238;0.001404;-0.000297735;0.000166315;0.000517554;0.000767041;-0.00410132;-0.000829492;0;0.0202442;-0.000521289;-0.0587316;-0.0738857;0.0943862;-5.0651;0.000393376;-3.33093e-05;-0.000104902;0.000395593;-0.000107119;0.000251356;3.74994;0.266671;0.000305755;0.000335141;3.69303;0.27078;179.51;44.5102;-0.000263777;0.000393375;-1.65317e-05;-5.00954e-05;-0.000104901;0.00274533;-0.00410089;0;0.0362827;-0.0110354;2.35878
26000;27;25.7648;-0.00341412;-0.000132494;-1.82212;24.8854;6.4205;-0.00282814;0.013829;-0.0677313;0.000902754;-0.0380506;-0.0110502;0.039633;-11.5736;-0.000461208;0.000595193;0.000827272;0.00106013;-0.000694065;0.000877097;0.557504;1.79371;0.00102011;0.00116946;1.52742;0.654698;53.2322;98.2322;0.000878817;-0.000461279;0.000485982;0.000704262;0.000827331;-0.00532446;-0.00455427;0;0.0175138;0.000375781;-0.0546526;-0.0836163;0.0998936;-5.07483;0.000394417;-0.000228913;3.25075e-05;0.00050526;-7.83355e-05;0.000291798;-12.1331;-0.0824193;0.000365759;0.000389063;6.44994;0.15504;166.054;31.0541;0.000585839;0.000394391;-0.00013484;-0.000323021;3.25246e-05;0.00209932;-0.0046083;0;0.03074;-0.0110056;2.36654
27000;28;25.763;-0.00518701;-0.000201295;-1.82275;24.885;6.41467;-0.00346072;0.0134508;-0.0735619;0.000935733;-0.0394809;-0.0125741;0.0414455;-11.5752;-0.000151816;-2.56846e-05;0.000255699;0.000257311;-0.000153428;0.00020537;0.593729;1.68427;0.000239655;0.000273826;1.67708;0.596275;54.5278;99.5278;0.00208387;-0.00015184;-0.000272993;0.000221523;0.000255662;-0.0055525;-0.00109514;0;0.0287438;-9.29529e-05;-0.0566801;-0.0861979;0.103164;-5.07741;0.000391826;-0.000251655;0.000263915;0.000587525;6.82161e-05;0.000259654;-1.48467;-0.673552;0.000371041;0.000346206;-8.6127;-0.116108;155.601;20.601;0.000281832;0.00039177;-8.49572e-05;-0.000418374;0.000263943;0.00354064;-0.00644993;0;0.0378975;-0.0110478;2.3746
28000;29;25.7646;-0.00364426;-0.000141425;-1.82378;24.8862;6.41602;-0.00449211;0.0146255;-0.0722162;0.000887337;-0.0400447;-0.0106475;0.0414455;-11.5732;-0.000278646;0.000412439;-0.000463645;5.15393e-05;-0.00079383;0.000422685;-0.600991;-1.66392;0.00054721;0.00056358;0.0649249;15.4024;144.145;9.14464;0.00108706;-0.000278763;0.000190167;0.000634753;-0.000463578;-0.00475778;-0.00170074;0;0.0153282;-0.000562084;-0.057701;-0.0858055;0.103404;-5.07702;0.000429417;-0.000158544;0.000265508;0.000525936;0.000168989;0.000178473;-1.61734;-0.618299;0.000310045;0.000237964;-3.11224;-0.321312;162.189;27.1889;0.000210514;0.000429373;1.88776e-05;-0.000335994;0.00026552;0.00263207;-0.00773163;0;0.0312824;-0.0109383;2.38218
29000;30;25.7673;-0.000917896;-3.56213e-05;-1.82515;24.8882;6.41885;-0.00586071;0.0166187;-0.0693886;0.000110995;-0.0402417;-0.0100944;0.0414886;-11.5727;-0.000425086;0.000252486;0.000294613;0.000374355;-0.000504828;0.000439592;1.44286;0.693066;0.000509457;0.000586122;0.741549;1.34853;4.495;49.495;0.000463342;-0.000425104;0.000189372;0.000315555;0.000294627;-0.00365163;-0.00174751;0;0.0162374;-0.0011558;-0.057996;-0.0865303;0.104175;-5.07774;0.000372572;-0.000178994;-0.000176882;0.000425738;-0.000230048;0.000327893;2.10633;0.47476;0.000384196;0.00043719;1.85065;0.540352;9.63079;54.6308;-0.000230394;0.000372541;-5.2194e-05;-0.000305864;-0.000176867;0.00425258;-0.00327601;0;0.028479;-0.0109105;2.38868
30000;31;25.7666;-0.00159142;-6.17589e-05;-1.82389;24.8881;6.41677;-0.00459394;0.0165485;-0.0714604;2.33438e-05;-0.0403289;-0.0110427;0.0418134;-11.5736;-0.000541348;-0.000217643;-0.000532948;-0.000319464;-0.000754832;0.000217684;-1.01576;-0.984482;0.000437512;0.000290245;-0.423225;-2.36281;57.7187;102.719;0.00190078;-0.000541326;-0.000485798;5.05092e-05;-0.000533042;-0.0047048;0.00138151;0;0.0153514;-0.00158519;-0.0589153;-0.086271;0.104481;-5.07749;0.000273181;-0.000156953;0.000274379;0.000430734;0.000116826;0.000156954;-0.995636;-1.00438;0.000257215;0.000209272;-3.68696;-0.271226;143.629;8.62932;6.30436e-05;0.000273164;-7.07251e-05;-0.00024318;0.000274388;0.00383779;-0.0064958;0;0.0280459;-0.0107385;2.39091
31000;32;25.7685;0.000315866;1.2258e-05;-1.82445;24.8894;6.41909;-0.00516106;0.0178839;-0.0691428;-0.000770396;-0.0396628;-0.0145088;0.0422402;-11.5771;-0.000319885;2.78374e-05;0.00100868;0.00100926;-0.000320468;0.000664866;0.317132;3.15326;0.000801318;0.000886488;3.14934;0.317527;77.3724;122.372;0.000256514;-0.0003199;-0.000117478;0.00017296;0.00100867;-0.00240118;-0.00233862;0;0.0167115;-0.00260487;-0.0589826;-0.0913029;0.108729;-5.08252;0.000406386;-0.000352028;0.000479347;0.00079678;8.89527e-05;0.000353914;-0.847791;-1.17954;0.000504158;0.000471885;-8.95734;-0.11164;143.397;8.39707;1.32972e-05;0.000406303;-0.000166581;-0.000537462;0.000479395;0.00521313;-0.00573467;0;0.0323032;-0.0104395;2.39675
32000;33;25.7619;-0.00633232;-0.000245741;-1.82535;24.8857;6.40641;-0.00605276;0.0142036;-0.0818246;-0.002044;-0.0425928;-0.0109034;0.0440137;-11.5735;-0.000301196;0.000355414;-7.73606e-05;0.00018334;-0.000561897;0.000372619;-3.8934;-0.256845;0.000448385;0.000496825;0.326288;3.06477;165.559;30.5588;0.000662045;-0.000301276;0.000174952;0.000535835;-7.73127e-05;-0.00280224;-0.000524638;0;0.0177168;-0.00407621;-0.061485;-0.0914922;0.110308;-5.08271;0.000364532;-0.000326953;0.000334632;0.000676877;2.22867e-05;0.000327295;-1.08935;-0.917977;0.000444009;0.000436393;-30.3713;-0.0329259;145.49;10.4905;-0.000118581;0.000364487;-0.000210873;-0.000443037;0.000334663;0.00482122;-0.00737678;0;0.0350278;-0.0105033;2.40696
33000;34;25.7642;-0.00402082;-0.000156038;-1.82383;24.8877;6.40846;-0.00453712;0.0161799;-0.079775;-0.00254054;-0.0431546;-0.0124951;0.0449989;-11.5751;-0.000453873;-0.000297184;5.50371e-05;0.000191818;-0.000590654;0.000391236;8.24668;0.121261;0.000470916;0.000521648;0.324755;3.07924;48.0051;93.0051;0.00174084;-0.000453833;-0.000507911;-8.65632e-05;5.49523e-05;-0.00516299;0.00168227;0;0.0152228;-0.00478431;-0.0626996;-0.093607;0.112767;-5.08482;0.000360436;-0.000317563;0.000630213;0.000840349;0.000150301;0.000345024;-0.571927;-1.74847;0.00051746;0.000460032;-5.59111;-0.178855;130.484;175.484;-0.000500931;0.000360389;-0.00019415;-0.000440944;0.000630245;0.00605789;-0.00746505;0;0.029838;-0.0106521;2.41077
34000;35;25.7609;-0.00733647;-0.00028471;-1.82529;24.8861;6.40104;-0.00600135;0.0145493;-0.087193;-0.00313546;-0.0438064;-0.0150972;0.046441;-11.5777;-0.000353443;-0.000551902;-2.54989e-05;0.000386275;-0.000765217;0.000575746;-13.8611;-0.0721442;0.000676707;0.000767661;0.504791;1.98102;34.4339;79.4339;0.00136731;-0.000353452;-0.000536707;-0.000567093;-2.54906e-05;-0.00319905;0.00110593;0;0.016172;-0.00525679;-0.0631322;-0.0988509;0.117409;-5.09007;0.000372006;-0.000365498;0.000476696;0.000793579;5.51232e-05;0.000369228;-0.780383;-1.28142;0.000511669;0.000492304;-14.3965;-0.0694615;149.813;14.813;-0.000865308;0.000371831;-3.64212e-05;-0.000694541;0.000476762;0.00671074;-0.00560646;0;0.0317931;-0.00998422;2.41776
35000;36;25.7598;-0.00841178;-0.00032644;-1.82419;24.8859;6.39788;-0.0049019;0.0143312;-0.0903597;-0.00338138;-0.0450973;-0.0121477;0.046827;-11.5747;-0.000217754;0.000302993;-0.000360813;2.20381e-05;-0.000600605;0.000311322;-0.603508;-1.65698;0.000407948;0.000415095;0.0366932;27.253;122.555;167.555;0.00212259;-0.000217737;0.000362387;0.00024359;-0.000360833;-0.00753003;0.000237926;0;0.0141192;-0.00619161;-0.0650504;-0.0984989;0.118203;-5.08971;0.00052617;-0.000480595;0.0005417;0.00101459;5.32775e-05;0.000480658;-0.97133;-1.02952;0.000659354;0.000640877;-19.0436;-0.0525112;152.963;17.9628;-0.00195775;0.000525898;-8.01373e-05;-0.000881047;0.000541813;0.00939875;-0.00776863;0;0.0324244;-0.00983489;2.42574
36000;37;25.7579;-0.010321;-0.000400532;-1.82592;24.8846;6.39472;-0.00663098;0.013039;-0.0935144;-0.0039619;-0.0463642;-0.0150651;0.0489111;-11.5777;-0.000320187;-0.00078199;0.000636767;0.00107505;-0.00075847;0.00091676;0.502832;1.98873;0.00106383;0.00122235;1.41739;0.705521;104.378;149.378;-0.000196491;-0.00032012;-0.000872641;-0.000691426;0.000636692;-0.00134161;0.00200104;0;0.0146674;-0.00714308;-0.0661978;-0.103704;0.123239;-5.09492;0.000466549;-0.000279435;0.000851457;0.0009983;0.000319706;0.000339297;-0.547942;-1.82501;0.000588653;0.000452396;-3.12256;-0.320251;132.348;177.348;-0.00179304;0.000466378;9.0017e-05;-0.000648745;0.000851492;0.00837127;-0.00720481;0;0.0320382;-0.00972906;2.43211
37000;38;25.761;-0.00722528;-0.000280395;-1.82683;24.8885;6.3918;-0.00753669;0.0169281;-0.0964389;-0.0043891;-0.048839;-0.0112436;0.0503083;-11.5738;-0.000375126;-1.57532e-05;8.95635e-05;9.00969e-05;-0.00037566;0.000232878;4.18838;0.238756;0.000285255;0.000310504;0.239837;4.16951;10.4805;55.4805;0.00183581;-0.000375126;-5.96337e-05;2.8107e-05;8.95618e-05;-0.00563163;0.00137139;0;0.0151811;-0.00778633;-0.0680582;-0.102473;0.123261;-5.09369;0.000651934;-0.00037148;0.000514233;0.000960891;0.000205277;0.000377807;-1.26778;-0.788781;0.000584314;0.000503743;-4.68096;-0.213632;157.438;22.4379;-0.00159806;0.000651706;2.76619e-05;-0.000770678;0.000514302;0.00788997;-0.0061507;0;0.0304728;-0.00940645;2.43934
38000;39;25.7551;-0.0131489;-0.000510277;-1.82891;24.8835;6.38667;-0.0096147;0.0119601;-0.101564;-0.00606606;-0.0501985;-0.00937729;0.0514259;-11.572;-0.000453658;-0.000422465;1.30255e-05;0.000262307;-0.000702939;0.000482623;34.8284;0.0287122;0.000576316;0.000643498;0.373157;2.67983;31.2694;76.2694;0.00024895;-0.000453656;-0.00042805;-0.000416883;1.30231e-05;-0.00206021;0.0037196;0;0.0151666;-0.0113624;-0.0696726;-0.100417;0.122748;-5.09163;0.000480473;-0.000367435;0.000649985;0.000942312;0.000188146;0.000377083;-0.739206;-1.3528;0.000575831;0.000502778;-5.00842;-0.199664;143.775;8.77533;-0.00213103;0.000480295;-3.37098e-05;-0.000701103;0.000650052;0.00907831;-0.00599584;0;0.0301176;-0.00922386;2.44643
39000;40;25.7708;0.00258771;0.000100422;-1.83947;24.8878;6.43016;-0.0201801;0.0162735;-0.0580742;-0.0144979;-0.0473832;-0.0130442;0.0512397;-11.5756;-0.000480833;-0.000230391;0.00110768;0.00114042;-0.000513573;0.000826999;0.434089;2.30368;0.000977529;0.00110266;2.22057;0.450336;117.33;162.33;-0.000902058;-0.000480922;1.90758e-05;-0.000479463;0.00110771;-0.000486003;0.00181318;0;0.0171275;-0.0265352;-0.0706381;-0.0888628;0.116578;-5.08008;0.000357055;-0.000290148;0.000706054;0.000870134;0.000192975;0.00033858;-0.505704;-1.97744;0.000527661;0.00045144;-4.50906;-0.221776;137.677;2.67707;-0.00231745;0.000356864;0.000101758;-0.000681918;0.000706091;0.00867975;-0.00553688;0;0.0316596;-0.00902171;2.45422
40000;41;25.7716;0.00336172;0.00013046;-1.8414;24.888;6.43183;-0.0221119;0.0165012;-0.0564066;-0.0198605;-0.0476013;-0.010545;0.0526452;-11.5731;-0.000513397;-0.000282825;0.00082377;0.00088113;-0.000570757;0.000725943;0.623228;1.60455;0.000844607;0.000967924;1.54379;0.647755;125.359;170.359;-0.000734356;-0.00051346;-0.000111586;-0.000453834;0.000823804;-0.00162844;0.00418646;0;0.0219361;-0.0366235;-0.0702559;-0.0844437;0.115793;-5.07566;0.000336192;-0.000135239;0.00069344;0.000738861;0.000290771;0.000224045;-0.484817;-2.06263;0.000429793;0.000298727;-2.54105;-0.393539;130.09;175.09;-0.00304474;0.000336011;0.000346112;-0.000616419;0.000693389;0.0116518;-0.00548984;0;0.0333226;-0.00872652;2.46073
41000;42;25.7725;0.00434473;0.000168608;-1.84093;24.8912;6.42352;-0.0216368;0.019701;-0.0647195;-0.0234746;-0.0457303;-0.0123554;0.0528675;-11.5749;-0.00048024;-0.000186005;-0.000108261;-3.12105e-05;-0.000557291;0.00026304;-4.43595;-0.225431;0.000361573;0.00035072;-0.056004;-17.8559;177.043;42.0432;-0.000962574;-0.000480373;0.000176156;-0.000548033;-0.000108259;-0.000879319;0.00345532;0;0.0219515;-0.043818;-0.0681573;-0.0859828;0.118146;-5.0772;0.000323114;-0.000213416;0.000543621;0.000673581;0.000193155;0.000240213;-0.594374;-1.68244;0.000400508;0.000320284;-3.48725;-0.286759;145.912;10.9121;-0.00214085;0.000322882;0.000288103;-0.000714825;0.000543603;0.00768796;-0.0061363;0;0.0325477;-0.00858395;2.46222
42000;43;25.762;-0.00618053;-0.000239851;-1.84804;24.8845;6.40512;-0.0287473;0.0130172;-0.0831121;-0.028236;-0.0440032;-0.0101526;0.05326;-11.5727;-0.000761394;0.000241298;0.00145529;0.00148125;-0.000787356;0.0011343;0.52319;1.91135;0.00133005;0.00151241;1.8813;0.531547;113.438;158.438;-0.00213065;-0.000761422;0.00082349;-0.000339605;0.00145498;-0.000400496;0.000620612;0;0.0212373;-0.0547367;-0.0632345;-0.0919108;0.124267;-5.08312;0.000398449;-0.00026262;0.000356782;0.000641061;0.00011417;0.000263445;-1.11679;-0.895426;0.000394858;0.000351261;-5.61496;-0.178096;171.659;36.6591;-0.00230743;0.000397719;0.000711612;-0.00123689;0.000356563;0.00617084;-0.00506362;0;0.0325224;-0.0085198;2.47466
43000;44;25.7592;-0.00902829;-0.000350365;-1.85243;24.8827;6.39971;-0.033134;0.0111365;-0.0885285;-0.0319696;-0.0425778;-0.00874999;0.0539582;-11.5713;-0.000525348;0.000392362;0.000618454;0.000740108;-0.000647002;0.000693555;0.849453;1.17723;0.000801449;0.00092474;1.1439;0.874199;115.964;160.964;-0.00244887;-0.000525331;0.00113308;-0.000347511;0.00061789;-8.31602e-05;0.00150239;0;0.0210533;-0.0633511;-0.0602116;-0.0925082;0.127266;-5.08372;0.000501101;-0.000448346;0.000347891;0.000879339;-3.03473e-05;0.000454843;-1.4404;-0.694252;0.000596599;0.000606458;28.9759;0.0345115;176.634;41.6335;-0.00340806;0.000499412;0.00099531;-0.00189222;0.000347496;0.00840946;-0.00693655;0;0.0340026;-0.00897364;2.4777
44000;45;25.7688;0.000584117;2.26681e-05;-1.86276;24.8841;6.42974;-0.0434675;0.0125759;-0.0584974;-0.034202;-0.0414824;-0.00883554;0.0544851;-11.5714;-0.000541727;0.000138364;0.00074193;0.000756675;-0.000556472;0.000656573;0.730159;1.36956;0.000761077;0.000875431;1.35977;0.735417;125.166;170.166;-0.00300103;-0.000541912;0.000901255;-0.00062355;0.000741534;0.000697119;-0.000345377;0;0.0206432;-0.0688857;-0.0591315;-0.0897339;0.127648;-5.08095;0.000435067;-0.000325387;0.000684727;0.000908407;0.000211387;0.00034851;-0.635389;-1.57384;0.000548882;0.00046468;-4.29736;-0.232701;158.709;23.7086;-0.0032741;0.000433602;0.00109268;-0.0017431;0.000684183;0.00927805;-0.00682823;0;0.0342689;-0.00854246;2.48415
45000;46;25.7583;-0.00990243;-0.000384289;-1.85745;24.8824;6.39579;-0.0381572;0.0108654;-0.0924498;-0.0363606;-0.0401149;-0.0104162;0.0551344;-11.573;-0.000598544;0.000174068;7.11267e-05;0.00011367;-0.000641087;0.000377378;8.41518;0.118833;0.000469887;0.000503171;0.177308;5.6399;130.723;175.723;-0.00287975;-0.000598705;0.000942897;-0.000594245;7.06974e-05;-0.00023413;0.000580265;0;0.0228556;-0.0740712;-0.0584768;-0.0873447;0.128589;-5.07856;0.000274997;-0.000201738;0.000885834;0.000946446;0.000214384;0.000366031;-0.310438;-3.22125;0.00057303;0.000488041;-4.41472;-0.226515;141.132;6.13242;-0.00301897;0.000273567;0.00130036;-0.00170292;0.000885009;0.00677727;-0.00616816;0;0.0354465;-0.00849;2.49093
46000;47;25.7697;0.00150978;5.85907e-05;-1.86688;24.8835;6.43451;-0.0475889;0.0119915;-0.053723;-0.0380351;-0.0391199;-0.00872194;0.0552549;-11.5713;-0.000325356;0.000505098;0.00020329;0.000509046;-0.000631113;0.00057008;1.60045;0.624822;0.000659527;0.000760106;0.806585;1.23979;106.531;151.531;-0.00343091;-0.000325238;0.00114414;-0.000133603;0.000202763;0.00173198;0.000550503;0;0.0205703;-0.0786892;-0.0578793;-0.0794511;0.125915;-5.07067;0.000208918;-0.00021471;0.00110746;0.00115613;0.000160248;0.000497938;-0.188647;-5.30092;0.000723276;0.000663918;-7.21459;-0.138608;136.792;1.79217;-0.00358299;0.000207228;0.00142283;-0.00185078;0.00110647;0.00971313;-0.00674094;0;0.0348085;-0.00830467;2.49799
47000;48;25.7691;0.000938949;3.64383e-05;-1.8669;24.883;6.43438;-0.0476049;0.0114339;-0.0538574;-0.0385856;-0.0388668;-0.00771293;0.055308;-11.5703;-0.000479862;0.000376609;0.000907017;0.00100269;-0.000575532;0.000789109;0.529056;1.89016;0.000922242;0.00105215;1.74219;0.57399;114.744;159.744;-0.00273802;-0.00047999;0.00138428;-0.000629664;0.00090613;-0.000857901;-0.000448351;0;0.0196503;-0.080598;-0.0583488;-0.0748582;0.124516;-5.06607;0.000357015;-0.000210166;0.000772745;0.000860477;0.000269283;0.000295597;-0.462008;-2.16446;0.000508253;0.000394129;-3.19544;-0.312946;146.236;11.2355;-0.00303617;0.00035583;0.00113391;-0.00155368;0.000772125;0.00784095;-0.00520329;0;0.033957;-0.00833099;2.50494
48000;49;25.77;0.00184318;7.15294e-05;-1.86885;24.8824;6.43944;-0.049556;0.0109132;-0.0487907;-0.0392223;-0.0393875;-0.00634355;0.0559464;-11.5689;-0.000541075;0.000278536;0.000627257;0.000690264;-0.000604082;0.000647173;0.862605;1.15928;0.000747843;0.000862897;1.14267;0.875146;120.88;165.88;-0.00255446;-0.000541233;0.00118574;-0.000627606;0.000626594;-0.000257943;0.000482986;0;0.0260539;-0.0819281;-0.0583877;-0.0723359;0.123911;-5.06355;0.000407417;-0.000353642;0.000819958;0.00102309;0.000204285;0.000409402;-0.496875;-2.01258;0.000625191;0.00054587;-5.00814;-0.199675;153.962;18.9619;-0.00358315;0.000405695;0.00118317;-0.00188982;0.000819322;0.00912193;-0.00508412;0;0.0330053;-0.00848763;2.51271
49000;50;25.766;-0.00224852;-8.72596e-05;-1.86442;24.8854;6.41294;-0.0451232;0.0138531;-0.0752941;-0.0396799;-0.0381244;-0.0040352;0.0551747;-11.5666;-0.000352015;5.96644e-05;1.2053e-05;2.15816e-05;-0.000361543;0.000191562;29.2056;0.03424;0.000248535;0.000255417;0.0596929;16.7524;131.259;176.259;-0.00357882;-0.000352366;0.000960031;-0.000840375;1.15939e-05;0.00104607;-0.000376534;0;0.0216529;-0.0829852;-0.0569155;-0.0687617;0.121877;-5.05998;0.000298297;-0.000145333;0.000547315;0.00061418;0.000231432;0.000191374;-0.545019;-1.8348;0.000358167;0.000255165;-2.65382;-0.376815;150.809;15.8094;-0.00341873;0.000297234;0.00117547;-0.00146581;0.000546635;0.00795738;-0.00514249;0;0.0315804;-0.0084019;2.51956
50000;51;25.7675;-0.000744197;-2.88804e-05;-1.86486;24.8858;6.4171;-0.0455699;0.0143061;-0.0711392;-0.0402924;-0.0373304;-0.00532168;0.0551847;-11.5679;-0.000733576;3.29896e-05;0.000344066;0.000345075;-0.000734585;0.00053983;2.13208;0.469026;0.00063672;0.000719773;0.469755;2.12877;140.731;5.73074;-0.00354273;-0.000733816;0.000760861;-0.000694097;0.000343777;0.00122384;-0.00137974;0;0.0217318;-0.0845422;-0.0562058;-0.0677977;0.122078;-5.05901;0.000324714;-4.40821e-05;0.000487973;0.000499115;0.000313572;9.27719e-05;-0.665434;-1.50278;0.000291307;0.000123696;-1.59171;-0.628255;140.377;5.3771;-0.00341936;0.000323835;0.00123885;-0.00132681;0.000487207;0.00871447;-0.00585818;0;0.0322308;-0.00840556;2.5273
51000;52;25.7676;-0.000589088;-2.2861e-05;-1.86671;24.8855;6.41844;-0.047422;0.0139805;-0.0697922;-0.0413071;-0.0371087;-0.00414893;0.0556826;-11.5667;-0.00045909;0.000204544;0.00041862;0.000463947;-0.000504417;0.000484182;1.09667;0.911847;0.000559247;0.000645575;0.919769;1.08723;123.079;168.079;-0.0035162;-0.000459374;0.00119084;-0.000780891;0.000417932;0.00126902;-0.00114445;0;0.0207618;-0.0862055;-0.0562739;-0.065899;0.122233;-5.05711;0.000379074;-0.000157962;0.000465432;0.00058601;0.000258496;0.000163757;-0.814456;-1.22781;0.000339114;0.000218343;-2.267;-0.441112;163.861;28.8615;-0.00381587;0.000377895;0.00122793;-0.00154373;0.000464691;0.009611;-0.00485239;0;0.0328902;-0.0082831;2.52842
52000;53;25.752;-0.0162462;-0.000630475;-1.86732;24.8717;6.40901;-0.0480275;0.000154503;-0.0792224;-0.0418945;-0.0379421;-0.00221248;0.0565654;-11.5648;-0.000543285;6.53628e-05;0.000570517;0.00057434;-0.000547108;0.000560724;0.952268;1.05012;0.000647532;0.000747632;1.04977;0.952585;131.276;176.276;-0.00362535;-0.000543796;0.00114439;-0.00101246;0.000569865;0.000631891;-0.00117708;0;0.0184988;-0.0874084;-0.0570062;-0.0625446;0.121662;-5.05376;0.000319656;-0.000140946;0.000367542;0.000486564;0.000200634;0.000142965;-0.869713;-1.1498;0.000282353;0.00019062;-2.42513;-0.412348;167.488;32.4876;-0.00378716;0.000318696;0.00111116;-0.00139299;0.000366935;0.00866196;-0.00469292;0;0.0345542;-0.00852967;2.53943
53000;54;25.769;0.000801457;3.11025e-05;-1.86729;24.8862;6.42105;-0.0479949;0.0147059;-0.0671893;-0.0417521;-0.0392724;0.00221782;0.0573627;-11.5604;-0.00050295;9.73786e-05;0.000170829;0.000184621;-0.000516742;0.000350681;2.94416;0.339655;0.000419793;0.000467575;0.357279;2.79893;131.668;176.668;-0.00337657;-0.000503347;0.0010913;-0.000895878;0.000170239;-0.000581154;-0.000332466;0;0.0204965;-0.0877435;-0.0574789;-0.0595119;0.1206;-5.05073;0.000266929;-0.000183283;0.000111058;0.000388158;-1.01713e-05;0.000199165;-2.40352;-0.416057;0.000262228;0.000265553;38.1623;0.0262039;7.283;52.283;-0.00413038;0.000265883;0.00109141;-0.00145817;0.000110479;0.0108351;-0.00394718;0;0.0342077;-0.00837303;2.54771
54000;55;25.7703;0.00208691;8.09879e-05;-1.86826;24.8869;6.42352;-0.0489688;0.0153244;-0.0647112;-0.042179;-0.035794;-0.00813258;0.0559143;-11.5707;-0.0004228;3.97834e-05;0.000338918;0.00034099;-0.000424872;0.000382931;1.2475;0.801604;0.000443054;0.000510574;0.802571;1.246;133.337;178.337;-0.00303224;-0.00042317;0.000941941;-0.000861687;0.000338475;-0.000234548;-0.000346169;0;0.0204939;-0.0887402;-0.0547787;-0.0686534;0.124855;-5.05987;0.000458972;-0.000203226;0.000277411;0.000590772;0.000145612;0.00022258;-1.65448;-0.604419;0.000355397;0.000296774;-4.05718;-0.246477;4.07327;49.0733;-0.00414953;0.000457872;0.00109059;-0.00149728;0.000276837;0.00838464;-0.00480286;0;0.0321403;-0.00836261;2.54941
55000;56;25.766;-0.00222111;-8.6196e-05;-1.86829;24.8826;6.42283;-0.0489979;0.0110406;-0.0654061;-0.043851;-0.0380159;-0.00361018;0.0581477;-11.5662;-0.000466012;0.000315237;0.000602968;0.000689005;-0.000552049;0.000620527;0.772864;1.29389;0.000717976;0.00082737;1.24809;0.801226;118.018;163.018;-0.0038386;-0.000466313;0.00146903;-0.000837325;0.000601939;0.00113633;-0.00209079;0;0.0228644;-0.0908274;-0.0563813;-0.0638498;0.12452;-5.05506;0.000305561;-0.000237632;0.000329476;0.000555452;7.95857e-05;0.000237933;-0.927415;-1.07827;0.00034683;0.000317244;-6.97929;-0.143281;172.031;37.031;-0.00419617;0.000304292;0.00113596;-0.00161119;0.000328859;0.00981058;-0.00235527;0;0.0382387;-0.00837924;2.55663
56000;57;25.7725;0.00427473;0.000165892;-1.86983;24.8864;6.4336;-0.0505372;0.0148686;-0.0546318;-0.0435195;-0.0361473;-0.00454394;0.0567558;-11.5671;-0.000515188;0.000125771;0.00100944;0.00101974;-0.000525494;0.000772619;0.510371;1.95936;0.000907228;0.00103016;1.94054;0.515319;123.777;168.777;-0.00344833;-0.000515622;0.0011931;-0.000939929;0.00100874;0.000888466;-0.00157494;0;0.0196008;-0.0912912;-0.0544844;-0.0648117;0.124512;-5.05603;0.00035525;-0.000206004;0.000188696;0.000494172;4.97736e-05;0.000222199;-1.88265;-0.531165;0.000314174;0.000296266;-9.92841;-0.100721;5.28076;50.2808;-0.00400328;0.000354064;0.00114159;-0.00155382;0.000188066;0.00792187;-0.00397532;0;0.0325692;-0.00857609;2.56337
57000;58;25.7694;0.00118617;4.60323e-05;-1.86829;24.8862;6.42263;-0.0489968;0.0146203;-0.0656051;-0.0437401;-0.0366465;-0.00366092;0.0571801;-11.5663;-0.000575079;0.000332;0.000428619;0.000528498;-0.000674958;0.000601728;1.3417;0.745323;0.000696529;0.000802304;0.78301;1.27712;119.983;164.983;-0.00351553;-0.000575401;0.00153409;-0.000868882;0.000427498;0.000378664;-0.00124964;0;0.0211938;-0.0918211;-0.0550453;-0.0636555;0.124552;-5.05487;0.000300267;-0.000189962;0.00017639;0.000438133;3.85236e-05;0.000199805;-1.70229;-0.587445;0.000280132;0.000266406;-11.3731;-0.0879268;3.79523;48.7952;-0.00394978;0.000299183;0.00110467;-0.00148475;0.000175798;0.007229;-0.00319379;0;0.0372214;-0.00865597;2.57132
58000;59;25.7696;0.00138293;5.3668e-05;-1.86996;24.885;6.42732;-0.0506636;0.0134869;-0.0609109;-0.0448521;-0.0357673;-0.00449308;0.057543;-11.5671;-0.000543227;0.000210809;0.000267759;0.000319284;-0.000594752;0.000457018;2.02879;0.492905;0.000535648;0.000609357;0.536836;1.86277;124.905;169.905;-0.00386415;-0.000543577;0.00128475;-0.000862265;0.000266957;0.000507318;-0.00140116;0;0.0210354;-0.0932177;-0.0539413;-0.0643732;0.125472;-5.05559;0.000387945;-0.000233994;0.00015551;0.000532993;1.04625e-05;0.000261265;-2.49466;-0.400856;0.000351893;0.000348354;-50.9433;-0.0196297;7.33474;52.3347;-0.00418506;0.000386778;0.00107756;-0.00154586;0.000154957;0.00748714;-0.00455979;0;0.0347688;-0.00842695;2.57891
59000;60;25.7705;0.00227983;8.84746e-05;-1.87065;24.8851;6.4303;-0.0513538;0.0135952;-0.0579357;-0.0459601;-0.0368401;-0.00115554;0.058914;-11.5637;-0.000436343;0.000662163;0.000462894;0.000813661;-0.000787109;0.000800385;0.94264;1.06085;0.000924247;0.00106718;1.03373;0.967368;106.774;151.774;-0.00350409;-0.000436316;0.00194523;-0.000619753;0.000461222;9.00691e-05;0.000194223;0;0.021208;-0.0946976;-0.0545538;-0.0615467;0.125426;-5.05276;0.000328045;-0.000198952;0.000258565;0.000495268;9.13424e-05;0.000201963;-1.26872;-0.788198;0.000304335;0.000269284;-5.4221;-0.18443;178.51;43.5099;-0.00373771;0.000326963;0.00108716;-0.00148515;0.000257994;0.00673675;-0.00425279;0;0.0360487;-0.00834652;2.58653
60000;61;25.7685;0.000288364;1.11907e-05;-1.87085;24.884;6.42644;-0.0515601;0.0125135;-0.0617918;-0.0459216;-0.0358261;-0.00245717;0.0582953;-11.565;-0.000412109;0.000320746;0.00048397;0.000586946;-0.000515085;0.000551015;0.851517;1.17437;0.000636708;0.000734687;1.13951;0.877567;116.286;161.286;-0.0034854;-0.000412397;0.00146625;-0.000823731;0.000482947;-0.00032135;-0.00204033;0;0.0218728;-0.0951417;-0.0532958;-0.0629261;0.125905;-5.05414;0.000277187;-0.000188781;-3.53037e-05;0.000365994;-0.000124111;0.000245053;7.85149;0.127364;0.000294225;0.000326737;2.94893;0.339107;17.2101;62.2101;-0.0041633;0.000276035;0.00115183;-0.00152981;-3.59493e-05;0.00753991;-0.00455286;0;0.0376239;-0.00854173;2.59373
61000;62;25.7674;-0.000842719;-3.27038e-05;-1.87076;24.8833;6.42468;-0.051466;0.0118039;-0.063552;-0.0464292;-0.0360047;0.00127574;0.0587676;-11.5613;-0.000188905;0.00039004;0.000241754;0.000471956;-0.000419106;0.000445531;0.78139;1.27977;0.000514756;0.000594041;1.1261;0.888019;103.829;148.829;-0.0040223;-0.0001892;0.00164256;-0.000861946;0.000240482;0.0012756;-0.0025175;0;0.0209986;-0.0958831;-0.0530126;-0.0598772;0.124857;-5.05109;0.000423669;-0.000187748;0.000208076;0.000532366;9.9379e-05;0.000216494;-2.03613;-0.491129;0.00032686;0.000288658;-5.35693;-0.186674;8.36625;53.3662;-0.00436788;0.000422491;0.00117066;-0.00154644;0.000207409;0.00673328;-0.00443125;0;0.0356692;-0.00842366;2.60151
62000;63;25.7638;-0.00436373;-0.000169346;-1.87062;24.8779;6.43172;-0.0513289;0.00635059;-0.056518;-0.0461502;-0.0348279;-0.00309157;0.0578997;-11.5657;-0.000195123;0.000737226;0.000272652;0.000812202;-0.000734673;0.000773438;0.715649;1.39733;0.000893463;0.00103125;1.10553;0.904545;97.8411;142.841;-0.00329216;-0.000194948;0.00191483;-0.000439831;0.000271091;-3.90328e-05;0.000218579;0;0.0224212;-0.0959211;-0.0525861;-0.0635541;0.126512;-5.05477;0.000306658;-0.000152187;6.00123e-05;0.000379217;-1.25462e-05;0.000195881;-5.10992;-0.195698;0.000257095;0.000261175;30.2257;0.0330844;15.8873;60.8873;-0.00410249;0.000305385;0.00129841;-0.00160314;5.9181e-05;0.00689684;-0.00309758;0;0.044377;-0.00842292;2.60698
63000;64;25.7663;-0.00186348;-7.23171e-05;-1.87111;24.8803;6.43221;-0.0518131;0.00877718;-0.0560295;-0.0460192;-0.0337887;-0.00505619;0.057315;-11.5676;-0.000339297;0.000385665;0.000636019;0.000770091;-0.000473369;0.00062173;0.53347;1.87452;0.000724693;0.000828973;1.62683;0.614692;112.903;157.903;-0.00373811;-0.000339796;0.00184341;-0.00107066;0.000634395;0.000478178;-0.00302263;0;0.0206691;-0.0964224;-0.051689;-0.0645001;0.127001;-5.05571;0.000262186;-3.17262e-05;0.000256181;0.000291051;0.000227315;3.18679e-05;-1.02344;-0.977098;0.000176664;4.24906e-05;-1.28039;-0.781015;176.542;41.5419;-0.00352802;0.00026144;0.00115834;-0.0012218;0.000255511;0.0058004;-0.00402667;0;0.0317435;-0.00876161;2.61386
64000;65;25.7664;-0.00179762;-6.97613e-05;-1.87084;24.8805;6.43194;-0.0515489;0.00893488;-0.0562988;-0.047789;-0.0365032;0.00053293;0.0601378;-11.5621;-0.000459636;0.000686953;0.000322783;0.000722111;-0.000858964;0.000790538;1.42398;0.702259;0.000913973;0.00105405;0.840677;1.18952;106.311;151.311;-0.00258879;-0.000459591;0.00199341;-0.000618483;0.000321033;-0.00135758;-0.00172571;0;0.0257266;-0.0984462;-0.0543004;-0.0596097;0.127254;-5.05082;0.000111774;-6.06527e-05;7.84512e-05;0.000158012;3.22132e-05;6.28996e-05;-1.42476;-0.701871;9.64147e-05;8.38662e-05;-4.90521;-0.203865;5.51135;50.5113;-0.00368766;0.000110898;0.00120388;-0.00132522;7.77285e-05;0.00555158;-0.00348054;0;0.0411964;-0.00830174;2.61925
65000;66;25.7713;0.00310717;0.000120581;-1.87249;24.8858;6.43055;-0.0531979;0.0142482;-0.0576837;-0.0471607;-0.0344175;-0.00358696;0.0584941;-11.5662;-0.000449449;0.000275893;0.00108445;0.00113256;-0.000497563;0.000815062;0.41445;2.41284;0.000964661;0.00108675;2.27622;0.439326;118.527;163.527;-0.00352019;-0.00045;0.00163908;-0.00108521;0.00108314;-0.00147195;-0.00294197;0;0.024169;-0.0981323;-0.0523116;-0.0644993;0.128556;-5.05571;0.000283487;-8.50844e-05;-5.09344e-05;0.000303889;-7.13371e-05;0.000187613;5.56572;0.179671;0.000230088;0.000250151;4.25991;0.234747;28.8908;73.8908;-0.00343603;0.000282566;0.00118927;-0.00135986;-5.1638e-05;0.00515266;-0.00213383;0;0.0371867;-0.00809008;2.62272
66000;67;25.7747;0.00650924;0.000252608;-1.87335;24.8876;6.43686;-0.0540553;0.0160757;-0.0513742;-0.0468472;-0.0344511;-0.00589784;0.0584494;-11.5685;-0.000488987;3.85473e-05;0.000280336;0.000282263;-0.000490914;0.000386588;1.74429;0.573299;0.000451779;0.000515451;0.574974;1.73921;134.548;179.548;-0.0030057;-0.000489695;0.00126754;-0.0011895;0.000279534;-0.00142314;-6.57513e-05;0;0.0224298;-0.0984979;-0.0526944;-0.0661328;0.129816;-5.05735;0.000204159;-6.45619e-05;8.46859e-05;0.000232381;5.6464e-05;8.79586e-05;-2.41078;-0.414803;0.000139949;0.000117278;-4.11556;-0.24298;18.3721;63.3721;-0.00336635;0.000203124;0.00131108;-0.00144037;8.38286e-05;0.00471724;-0.00337551;0;0.0353209;-0.00793637;2.63019
67000;68;25.7704;0.0021798;8.45928e-05;-1.87299;24.8835;6.43549;-0.053702;0.0119738;-0.0527476;-0.0482066;-0.0342365;-0.00780653;0.0596402;-11.5704;-0.000374983;-1.56058e-06;0.000482665;0.000482668;-0.000374986;0.000428827;0.7769;1.28717;0.000496466;0.000571769;1.28716;0.776902;134.034;179.034;-0.00416102;-0.000376064;0.00146857;-0.00147044;0.000481588;0.00107274;-0.0025089;0;0.0182611;-0.100477;-0.0522433;-0.0702372;0.13326;-5.06145;0.000172993;9.92168e-06;0.000189253;0.00019395;0.000168296;1.28271e-05;-0.914085;-1.09399;0.000121654;1.71028e-05;-1.15243;-0.867728;105.802;150.802;-0.00344453;0.000172107;0.0013515;-0.00133164;0.00018834;0.00468542;-0.00443112;0;0.0308175;-0.00796068;2.63702
68000;69;25.7679;-0.00033062;-1.28305e-05;-1.87129;24.8822;6.43092;-0.0520023;0.0106832;-0.057317;-0.0482152;-0.0337331;-0.0067662;0.0592318;-11.5694;-0.000212267;0.000426094;0.000781687;0.000939341;-0.000369921;0.000654631;0.27155;3.68256;0.000779369;0.000872841;2.5393;0.393809;108.533;153.533;-0.00348146;-0.000212564;0.001734;-0.000880511;0.000780275;-0.000171469;-0.0018489;0;0.0200843;-0.100695;-0.0519752;-0.0691328;0.132741;-5.06035;6.71179e-05;-3.64327e-05;2.99717e-05;8.94386e-05;7.65107e-06;4.08937e-05;-2.23937;-0.446554;5.7246e-05;5.4525e-05;;;12.4861;57.4861;-0.0040915;6.61011e-05;0.00135367;-0.00142659;2.90562e-05;0.00738887;-0.00395619;0;0.0344624;-0.00827104;2.64452
69000;70;25.7672;-0.00104642;-4.06091e-05;-1.87246;24.8815;6.43049;-0.0531707;0.00996527;-0.0577475;-0.0481944;-0.035889;-0.00475586;0.0602772;-11.5673;-0.000454355;-6.79715e-05;0.000123959;0.000131841;-0.000462237;0.000297039;3.66536;0.272824;0.000360239;0.000396052;0.285223;3.50603;145.06;10.0601;-0.00426889;-0.000455371;0.00129129;-0.00142645;0.000123128;0.000932193;-0.000260236;0;0.0206349;-0.100934;-0.0536152;-0.0686718;0.133334;-5.05989;0.000301236;-8.97457e-05;6.2845e-05;0.000331245;3.28364e-05;0.000149204;-4.79332;-0.208624;0.000210739;0.000198939;-10.0877;-0.0991303;22.7396;67.7396;-0.00313862;0.000300157;0.00129217;-0.00147199;6.20142e-05;0.00369509;-0.00533526;0;0.0326829;-0.00807985;2.65229
70000;71;25.7698;0.00158791;6.16228e-05;-1.87219;24.8843;6.43009;-0.0529005;0.0128156;-0.0581418;-0.0478748;-0.035016;-0.0110371;0.0603319;-11.5736;-0.000431953;-0.000104149;0.000466221;0.00047814;-0.000443872;0.000461006;0.926498;1.07933;0.000532446;0.000614674;1.0772;0.92833;141.149;6.14851;-0.00492658;-0.000433022;0.00125835;-0.00146543;0.000465435;0.00392934;-0.00363564;0;0.0187432;-0.100735;-0.0540659;-0.0749166;0.136686;-5.06613;6.18837e-05;-1.61003e-05;0.0001216;0.000125664;5.78194e-05;3.39223e-05;-0.508913;-1.96497;7.26291e-05;4.52297e-05;-2.17339;-0.460111;147.196;12.1962;-0.00332914;6.09584e-05;0.00132836;-0.00136048;0.000120718;0.00430659;-0.00485434;0;0.0314903;-0.00793527;2.65945
71000;72;25.7683;0.000114718;4.45193e-06;-1.87363;24.8851;6.42085;-0.0543327;0.0135692;-0.0673858;-0.0491918;-0.0358106;-0.00883307;0.0614837;-11.5714;-0.000166251;0.00011235;0.000389203;0.000411067;-0.000188116;0.000299591;0.427159;2.34105;0.000353831;0.000399455;2.18518;0.457628;122.04;167.04;-0.004542;-0.000167439;0.00177049;-0.00154487;0.000387642;0.000631201;-0.00257642;0;0.0188426;-0.101714;-0.0550408;-0.0745643;0.137605;-5.06578;0.000174271;1.07572e-06;0.000229029;0.00022905;0.00017425;2.73999e-05;-0.760914;-1.31421;0.000138106;3.65332e-05;-1.31449;-0.760752;129.238;174.238;-0.00334039;0.000173504;0.00124109;-0.00123887;0.000228259;0.00608733;-0.00428536;0;0.0335854;-0.00831874;2.66625
72000;73;25.773;0.00479304;0.000186006;-1.87343;24.8862;6.4354;-0.0541363;0.0146699;-0.0528342;-0.0506584;-0.0391937;-0.0029682;0.0641188;-11.5656;-0.000599348;0.000389499;0.00107561;0.00116175;-0.000685493;0.000923623;0.557218;1.79463;0.00107826;0.0012315;1.69477;0.590051;118.121;163.121;-0.00304597;-0.000599937;0.00193431;-0.00115272;0.00107381;-0.00333919;-0.00214009;0;0.0263322;-0.103207;-0.0576106;-0.070175;0.13746;-5.06139;0.000202642;-0.000108615;0.000150723;0.000288357;6.50082e-05;0.000111674;-1.34446;-0.743793;0.000174649;0.000148899;-4.4357;-0.225443;2.99941;47.9994;-0.00359198;0.00020157;0.00125115;-0.00146845;0.000149947;0.0048662;-0.0024614;0;0.0408874;-0.00824874;2.67146
73000;74;25.7718;0.00363706;0.000141145;-1.87285;24.8877;6.425;-0.0535567;0.0162046;-0.0632386;-0.0485895;-0.0396314;-0.00767124;0.0631699;-11.5703;-0.000424197;-0.000176768;0.000851347;0.000875391;-0.00044824;0.000661816;0.498265;2.00696;0.00077735;0.000882421;1.95295;0.512046;138.602;3.60243;-0.00422744;-0.000425543;0.00129834;-0.00165;0.000850521;1.42017e-05;0.000407023;0;0.0208161;-0.100778;-0.0593799;-0.0766221;0.139833;-5.06784;0.000206359;-9.32778e-05;0.000404631;0.000441615;0.000169375;0.00013612;-0.509994;-1.96081;0.000257262;0.000181493;-2.60732;-0.383536;150.265;15.2653;-0.00336707;0.000205312;0.00126413;-0.00145042;0.000403837;0.00593495;-0.0038713;0;0.0394812;-0.00832569;2.68058
74000;75;25.7716;0.00337152;0.00013084;-1.87332;24.8894;6.41735;-0.0540259;0.0178665;-0.0708829;-0.0484892;-0.0427781;-0.00673976;0.0650123;-11.5693;-0.000595181;-0.000302516;0.00086336;0.000923615;-0.000655436;0.000789526;0.689377;1.45058;0.000916038;0.0010527;1.40916;0.709642;143.701;8.70056;-0.00298735;-0.000596771;0.00120548;-0.00180831;0.00086268;-0.00114775;-4.47846e-05;0;0.0217174;-0.100565;-0.062373;-0.0768609;0.141107;-5.06808;9.51481e-05;-0.000225392;0.000376309;0.000501369;-2.99114e-05;0.00026564;-0.252845;-3.95499;0.000344649;0.000354187;16.7618;0.0596595;159.306;24.3064;-0.0037295;9.3812e-05;0.00119981;-0.0016502;0.000375615;0.00771548;-0.00388752;0;0.0354557;-0.00838107;2.68838
75000;76;25.7727;0.00447188;0.000173542;-1.8766;24.8851;6.43728;-0.0573083;0.0136126;-0.0509567;-0.0480593;-0.0437347;-0.00542143;0.065206;-11.568;-0.000492117;-0.000213591;0.000347601;0.000398808;-0.000543323;0.000471066;1.41575;0.706338;0.000546069;0.000628087;0.734015;1.36237;149.771;14.7705;-0.00368588;-0.000493698;0.00136438;-0.00179024;0.000346694;0.000101591;0.00160219;0;0.0196869;-0.0999053;-0.063333;-0.0773838;0.141352;-5.0686;0.00027123;-0.000114579;0.000373887;0.000448109;0.000197008;0.000125551;-0.725432;-1.37849;0.000259344;0.000167401;-2.27458;-0.439642;161.531;26.5313;-0.00406565;0.000270053;0.00130944;-0.00153845;0.000373037;0.00728529;-0.00585288;0;0.0336635;-0.00803214;2.68888
76000;77;25.7683;9.7232e-05;3.77333e-06;-1.87371;24.8881;6.40927;-0.0544138;0.0165294;-0.0789638;-0.0482442;-0.046544;-0.00575468;0.0672827;-11.5683;-0.000447319;3.04039e-05;0.000517153;0.00051811;-0.000448277;0.000483194;0.864966;1.15612;0.000558429;0.000644258;1.15578;0.865215;132.548;177.548;-0.00362164;-0.00044855;0.00163123;-0.00156888;0.000515824;-0.0007045;0.00191144;0;0.01748;-0.0997854;-0.0658938;-0.079656;0.143681;-5.07087;0.000335666;-0.000222347;0.000812148;0.000899786;0.000248028;0.000325879;-0.413307;-2.41951;0.00053664;0.000434505;-3.62775;-0.275653;145.709;10.7092;-0.00405181;0.000334289;0.00123064;-0.00167464;0.000811416;0.00859576;-0.0041928;0;0.0319415;-0.00795702;2.69576
77000;78;25.7681;-9.80188e-05;-3.80387e-06;-1.87103;24.887;6.41352;-0.0517337;0.0154347;-0.0747163;-0.0479015;-0.048746;-0.00948317;0.0689975;-11.5721;-0.000578469;7.94864e-05;0.00054081;0.000546426;-0.000584086;0.000565256;1.06964;0.934898;0.000652822;0.000753675;0.935524;1.06892;131.307;176.307;-0.00325957;-0.000579415;0.00153811;-0.0013775;0.000539631;0.000143999;0.000819294;0;0.0204164;-0.0993359;-0.0683685;-0.0829;0.146336;-5.07411;0.000356371;-0.000374602;0.000736199;0.000966278;0.000126292;0.000419993;-0.484069;-2.06582;0.000606487;0.00055999;-7.65111;-0.1307;156.98;21.9798;-0.00498836;0.000354538;0.0012027;-0.0019513;0.000735547;0.0107751;-0.00570182;0;0.0336427;-0.00813267;2.70504
78000;79;25.7666;-0.00164528;-6.38493e-05;-1.87342;24.882;6.42584;-0.0541249;0.0104733;-0.0623925;-0.0480285;-0.0500347;-0.00721437;0.0697299;-11.5698;-0.000446601;-0.000659302;0.00108527;0.00132995;-0.000691278;0.00101061;0.411512;2.43007;0.00118621;0.00134748;1.9239;0.519778;149.754;14.7543;-0.00499208;-0.000448975;0.000959961;-0.00227609;0.00108503;0.000679696;0.00284333;0;0.0188756;-0.0989691;-0.0699601;-0.0825766;0.146657;-5.07379;0.000394072;-0.000144781;0.000530643;0.000622433;0.000302281;0.000160076;-0.742631;-1.34656;0.000359411;0.000213435;-2.05912;-0.485644;158.553;23.5527;-0.00439653;0.000392799;0.00131301;-0.00160237;0.000529792;0.00886128;-0.00383391;0;0.029509;-0.00798133;2.71087
79000;80;25.7673;-0.000901817;-3.49973e-05;-1.87259;24.887;6.40982;-0.0532936;0.0154379;-0.0784147;-0.0477739;-0.0523628;-0.00614689;0.0711477;-11.5687;-0.00038951;0.000607781;0.000921193;0.00115964;-0.000627961;0.000893803;0.422832;2.365;0.00104718;0.00119174;1.84668;0.541512;108.996;153.996;-0.00346926;-0.000389875;0.00226554;-0.00104781;0.000918814;-0.00188108;0.000936335;0;0.0179832;-0.0983884;-0.0722377;-0.082351;0.147242;-5.07357;0.000227063;-0.000210587;0.000735785;0.000811646;0.000151202;0.000330222;-0.308599;-3.24045;0.000498401;0.000440296;-5.36795;-0.186291;145.187;10.1874;-0.00414866;0.000225817;0.001172;-0.00159247;0.000735121;0.00975067;-0.00279708;0;0.0269697;-0.00786125;2.71895
80000;81;25.7635;-0.00466684;-0.000181108;-1.87115;24.885;6.4026;-0.0518537;0.0135075;-0.0856377;-0.048123;-0.0546478;-0.00649914;0.0731057;-11.5691;-0.000234978;0.000146896;0.000800492;0.000820928;-0.000255414;0.000538171;0.293542;3.40667;0.000649388;0.000717562;3.21411;0.311129;122.407;167.407;-0.00514347;-0.000236216;0.0018754;-0.00157982;0.000798746;0.00187984;0.00193916;0;0.0198822;-0.09831;-0.0743205;-0.0854442;0.149964;-5.07666;0.000253677;-0.000212952;0.000745648;0.00082502;0.000174305;0.000325358;-0.34021;-2.93936;0.0005021;0.00043381;-4.73321;-0.211273;145.525;10.5251;-0.00428996;0.000252418;0.00117612;-0.00160134;0.00074498;0.00899801;-0.00438613;0;0.0262499;-0.00800838;2.72511
81000;82;25.7652;-0.00302759;-0.000117493;-1.86991;24.8867;6.40316;-0.0506195;0.0151522;-0.0850733;-0.0473548;-0.0577201;-0.00704777;0.0749918;-11.5696;-0.000471676;0.000191282;0.000385683;0.000426423;-0.000512417;0.00046942;1.22296;0.817686;0.000542797;0.000625893;0.832181;1.20166;123.68;168.68;-0.00316215;-0.000472784;0.00188442;-0.00150041;0.000383926;-0.00261382;0.00526901;0;0.0293305;-0.0975422;-0.0780581;-0.0862009;0.151783;-5.07742;0.000295886;-0.00029837;0.000663432;0.000830083;0.000129235;0.000350424;-0.445993;-2.24219;0.000515736;0.000467232;-6.42305;-0.155689;155.291;20.2915;-0.00493021;0.000294316;0.00120124;-0.00179743;0.000662755;0.00703809;-0.00121678;0;0.0274876;-0.00815168;2.7327
82000;83;25.7673;-0.000912239;-3.54017e-05;-1.86962;24.8886;6.40412;-0.0503285;0.0171183;-0.0841182;-0.0474251;-0.0590438;-0.00861113;0.0762198;-11.5712;-0.000379633;0.000530493;0.000625666;0.000853823;-0.000607791;0.000730807;0.606767;1.64808;0.000847839;0.00097441;1.4048;0.711846;109.318;154.318;-0.00291647;-0.000379935;0.00200298;-0.000940512;0.000623802;-0.00259156;0.00361547;0;0.0206503;-0.0973319;-0.0789313;-0.0900213;0.154297;-5.08124;0.000219621;-0.000359517;0.000597825;0.00081494;2.50589e-06;0.000406217;-0.367367;-2.72208;0.00054246;0.000541623;;;159.223;24.2229;-0.00506697;0.000217629;0.00130988;-0.00202828;0.000597032;0.00737084;-0.00278296;0;0.02635;-0.00827798;2.7398
83000;84;25.7668;-0.00142711;-5.53827e-05;-1.87079;24.8872;6.40723;-0.0514997;0.0156962;-0.0810059;-0.0488834;-0.0624894;-0.00881897;0.0798266;-11.5714;-0.00038877;7.02551e-05;2.02775e-05;3.20076e-05;-0.0004005;0.000216254;19.1725;0.0521581;0.000278284;0.000288339;0.0799191;12.5127;129.391;174.391;-0.00276015;-0.000389585;0.00141905;-0.00127799;1.92731e-05;-0.00227585;0.00414242;0;0.0221607;-0.098496;-0.0834376;-0.0905986;0.157707;-5.08181;9.25944e-05;-0.000266863;0.000428062;0.000575527;-5.48706e-05;0.000315199;-0.216311;-4.62298;0.000403221;0.000420265;10.4888;0.0953398;159.23;24.2305;-0.00433124;9.09205e-05;0.00131594;-0.00184913;0.000427232;0.00666421;-0.000305465;0;0.0305992;-0.00792906;2.74756
84000;85;25.7663;-0.00189427;-7.35119e-05;-1.8695;24.8879;6.40298;-0.0502105;0.016404;-0.085259;-0.0471038;-0.0624332;-0.0136006;0.0793829;-11.5762;-0.000321981;0.000563489;0.000111871;0.000498747;-0.000708857;0.000603802;2.87813;0.347447;0.000700719;0.000805069;0.703594;1.42127;102.55;147.55;-0.00263963;-0.000322233;0.00203409;-0.000906475;0.000109962;-0.001867;0.00442637;0;0.0287692;-0.0965796;-0.084063;-0.0991021;0.161912;-5.09032;0.000221982;-0.000284032;0.000345296;0.000574286;-7.00773e-06;0.000290647;-0.642875;-1.55551;0.000385215;0.000387529;;;168.541;33.5411;-0.00430129;0.00022041;0.00122797;-0.00179585;0.000344583;0.00587651;-0.000314243;0;0.0360377;-0.00786271;2.75436
85000;86;25.7627;-0.00548213;-0.000212748;-1.86962;24.8855;6.39796;-0.050329;0.0139704;-0.0902736;-0.0473856;-0.0678197;-0.00609838;0.0829584;-11.5687;-0.000583941;0.000323816;0.000478862;0.00056975;-0.00067483;0.00062229;1.21944;0.820051;0.000719412;0.00082972;0.844287;1.18443;120.547;165.547;-0.00314616;-0.000584282;0.00153503;-0.000886108;0.000477737;0.000531789;0.00292593;0;0.0246465;-0.0968619;-0.0910479;-0.091806;0.161556;-5.08302;0.000323252;-0.000376638;0.000262813;0.000670881;-8.48164e-05;0.000377849;-1.22997;-0.813027;0.000478041;0.000503798;7.9098;0.126425;176.828;41.8285;-0.0037348;0.000321518;0.00114713;-0.0019005;0.000262226;0.00578518;-0.00227266;0;0.033737;-0.00793125;2.76094
86000;87;25.7656;-0.00256647;-9.95982e-05;-1.86841;24.8883;6.39907;-0.0491153;0.0167958;-0.0891684;-0.0479934;-0.067966;-0.0131942;0.0842427;-11.5758;-0.000234222;0.000240174;1.23611e-05;0.00015904;-0.000380902;0.000269971;18.9484;0.0527749;0.000320388;0.000359961;0.417537;2.395;106.243;151.243;-0.00244199;-0.00023464;0.00142559;-0.000944945;1.13738e-05;-0.00138909;0.00360191;0;0.0215507;-0.0970813;-0.0919387;-0.102206;0.168296;-5.09342;0.000156911;-0.000230667;-9.45876e-05;0.000293879;-0.000231555;0.000262717;1.6589;0.602811;0.00030407;0.000350289;1.26915;0.787928;13.6725;58.6725;-0.0038715;0.000155482;0.00124458;-0.00170628;-9.53356e-05;0.00706652;0.00221182;0;0.0294269;-0.00789287;2.76191
87000;88;25.7648;-0.00337396;-0.000130935;-1.8708;24.8873;6.39905;-0.051512;0.015785;-0.0891887;-0.0473426;-0.0729196;-0.00866969;0.0873713;-11.5713;-0.000365579;0.000649947;0.00016426;0.000601205;-0.000802524;0.000701864;2.22561;0.449314;0.000813217;0.000935819;0.749142;1.33486;103.979;148.979;-0.00143579;-0.000365425;0.00163927;-0.000338856;0.000163128;-0.00412219;0.00282813;0;0.0207478;-0.0968141;-0.0984515;-0.0988018;0.169786;-5.09002;0.000114675;-2.75761e-05;0.000191748;0.000200598;0.000105825;4.73868e-05;-0.59805;-1.6721;0.000115874;6.31824e-05;-1.89557;-0.527546;149.283;14.2832;-0.00316636;0.000113859;0.00122315;-0.00127821;0.000191001;0.00460046;-0.000834342;0;0.041574;-0.00796708;2.77154
88000;89;25.759;-0.00917318;-0.000355989;-1.86967;24.8843;6.38773;-0.0503741;0.0127738;-0.100502;-0.0477154;-0.0759406;-0.00902374;0.0901397;-11.5716;-0.000493626;0.000162213;8.72071e-05;0.000129439;-0.000535857;0.000332648;5.66039;0.176666;0.000407299;0.00044353;0.241554;4.13986;125.699;170.699;-0.00316196;-0.000494037;0.00124665;-0.00092159;8.64432e-05;0.000970054;0.00406725;0;0.0378534;-0.0969005;-0.10149;-0.102413;0.173719;-5.09363;0.00022851;3.76773e-05;0.0004016;0.000409446;0.000220665;9.43905e-05;-0.569;-1.75747;0.000236632;0.000125854;-1.85551;-0.538935;115.974;160.974;-0.00392523;0.000227813;0.00125693;-0.00118136;0.000400811;0.0056602;-0.00166319;0;0.0431229;-0.00784461;2.77869
89000;90;25.7659;-0.00230689;-8.95245e-05;-1.86995;24.8923;6.3843;-0.0506613;0.0207403;-0.103935;-0.0482681;-0.0769116;-0.00887045;0.0912354;-11.5715;-0.000192439;0.000556781;-0.000417668;0.000263002;-0.00087311;0.000568056;-0.460747;-2.17039;0.000686738;0.000757408;0.301225;3.31978;93.0916;138.092;-0.00247629;-0.000192365;0.00151556;-0.000402215;-0.000418662;-0.000655317;0.00119549;0;0.0205446;-0.0975805;-0.103235;-0.10389;0.17599;-5.0951;0.000303787;-0.000124845;6.17606e-05;0.000356643;8.9043e-06;0.000173869;-4.91878;-0.203302;0.00023485;0.000231826;;;18.518;63.518;-0.00461181;0.000302503;0.00135759;-0.00160764;6.08469e-05;0.00861232;-0.00268934;0;0.0326271;-0.00819774;2.78431
90000;91;25.7658;-0.0023953;-9.29558e-05;-1.87065;24.8926;6.38248;-0.0513615;0.0210624;-0.105753;-0.0483415;-0.0805423;-0.0092795;0.0943932;-11.5719;-0.000250205;0.000739414;0.000618828;0.00104195;-0.000673323;0.000857635;0.404321;2.47328;0.000997905;0.00114351;1.54747;0.646217;100.793;145.793;-0.00335422;-0.000250032;0.00192782;-0.000447957;0.000617244;0.000241386;-0.000102522;0;0.0194692;-0.0976647;-0.107571;-0.106372;0.180069;-5.09759;0.000223879;-0.00021637;0.000219023;0.000437834;5.06739e-06;0.000216383;-1.02217;-0.978312;0.000290215;0.000288511;;;175.85;40.8502;-0.00455319;0.000222573;0.00119762;-0.00163036;0.000218329;0.00935435;-0.0025704;0;0.0340281;-0.0076739;2.79143
91000;92;25.7668;-0.00143611;-5.57319e-05;-1.87067;24.8939;6.3812;-0.0513741;0.022382;-0.107031;-0.0481418;-0.0834087;-0.00832938;0.0966645;-11.5709;-0.000267358;0.000444226;0.000185428;0.000457623;-0.000539553;0.000498588;1.44184;0.693557;0.000576367;0.000664784;0.848152;1.17903;104.529;149.529;-0.00349519;-0.000267491;0.00156957;-0.000680611;0.000184295;0.000305337;-0.00147083;0;0.0238332;-0.0974005;-0.110813;-0.109322;0.183624;-5.10054;0.000150392;-0.000222589;0.000334731;0.000483479;1.64403e-06;0.000240917;-0.449291;-2.22573;0.000321773;0.000321223;;;163.791;28.7914;-0.00495976;0.000149113;0.00116984;-0.00161476;0.000334072;0.0115539;-0.00279219;0;0.0381425;-0.00783621;2.79881
92000;93;25.7668;-0.00139394;-5.40952e-05;-1.87418;24.8895;6.39763;-0.05489;0.0179436;-0.0906002;-0.0489293;-0.0851275;-0.00764377;0.0984845;-11.5702;-0.000229055;0.000723667;0.000275569;0.000789648;-0.000743134;0.000766391;0.831207;1.20307;0.000885087;0.00102185;1.06259;0.941095;98.8733;143.873;-0.00272921;-0.000228812;0.00164359;-0.000195794;0.00027448;0.000426577;0.000928073;0;0.0202477;-0.0982221;-0.113076;-0.109132;0.18532;-5.10035;0.000344928;2.85512e-06;0.000547588;0.000547628;0.000344887;0.00010137;-0.629903;-1.58754;0.000319704;0.000135161;-1.58785;-0.629784;124.605;169.605;-0.00474267;0.000344105;0.00128913;-0.00128316;0.000546758;0.00943907;-0.00480218;0;0.0340641;-0.00784443;2.80633
93000;94;25.7675;-0.000744316;-2.88851e-05;-1.8738;24.8902;6.3975;-0.0545031;0.0186809;-0.090739;-0.0494258;-0.0874862;-0.00523966;0.100619;-11.5678;-0.000387258;0.000332387;0.000788315;0.000875787;-0.00047473;0.000675259;0.491248;2.03563;0.000791099;0.000900345;1.84481;0.542061;115.451;160.451;-0.00312619;-0.000387569;0.00152173;-0.000855555;0.000787213;-0.00045047;4.69328e-05;0;0.0217051;-0.0987715;-0.115296;-0.109185;0.187004;-5.1004;0.000468001;-0.00014074;0.000632666;0.000713387;0.00038728;0.000163053;-0.739729;-1.35185;0.000412379;0.000217404;-1.84204;-0.542876;154.676;19.6758;-0.00472083;0.000466683;0.00134927;-0.0016305;0.000631766;0.0111999;-0.00255727;0;0.0368894;-0.00808223;2.81331
94000;95;25.7724;0.00420429;0.000163158;-1.87525;24.8936;6.40369;-0.0559535;0.022103;-0.0845485;-0.0494785;-0.0889883;-0.0077904;0.102116;-11.5704;-0.000535444;-2.08194e-05;0.00049665;0.000497069;-0.000535864;0.000516467;1.07811;0.927548;0.000596504;0.000688622;0.927604;1.07805;136.687;1.6867;-0.00400921;-0.000535982;0.000997079;-0.00103767;0.000496153;0.00136676;0.00111237;0;0.0229975;-0.0992761;-0.117753;-0.112684;0.190838;-5.1039;0.000383866;-0.000202835;0.000619811;0.000736487;0.000267191;0.000234648;-0.619328;-1.61465;0.000430515;0.000312864;-2.75641;-0.362791;155.589;20.5889;-0.00564868;0.000382452;0.0012892;-0.00169452;0.000619001;0.013438;-0.00386353;0;0.0382417;-0.00778576;2.82114
95000;96;25.7711;0.00287789;0.000111684;-1.87449;24.8917;6.40621;-0.0551996;0.0201379;-0.0820272;-0.0491325;-0.0906585;-0.00754694;0.103392;-11.5701;-0.000499666;0.000446112;-4.20899e-06;0.000258342;-0.000762217;0.00051028;;;0.000612691;0.000680373;0.338935;2.95042;110.798;155.798;-0.00288715;-0.000499799;0.00157469;-0.000681911;-5.34932e-06;-0.00025643;0.00242884;0;0.0240562;-0.0992944;-0.120064;-0.113714;0.192887;-5.10493;0.000237903;-0.000252272;0.000473804;0.000634337;7.73693e-05;0.000278484;-0.502113;-1.99159;0.000399606;0.000371312;-8.19882;-0.121969;160.604;25.6041;-0.00558177;0.000236468;0.00120888;-0.00171308;0.000473105;0.0114928;-0.00435305;0;0.0345444;-0.00767134;2.82865
96000;97;25.7691;0.000854364;3.31558e-05;-1.87414;24.8908;6.40136;-0.0548445;0.019317;-0.0868756;-0.0493421;-0.0920164;-0.00521051;0.104541;-11.5678;-0.000465496;0.000167155;0.000548478;0.000575323;-0.000492341;0.000533832;0.848705;1.17827;0.000617036;0.000711776;1.16855;0.855764;124.766;169.766;-0.00310916;-0.000465903;0.00125275;-0.000917337;0.000547708;-0.000376357;-0.00107195;0;0.0198913;-0.0994906;-0.121149;-0.115087;0.194475;-5.1063;0.000407999;-0.000190928;0.000533898;0.000671986;0.00026991;0.000201038;-0.764189;-1.30858;0.000390464;0.00026805;-2.48966;-0.401661;161.326;26.3257;-0.00526021;0.00040681;0.00117241;-0.00155409;0.000533229;0.0106495;-0.00341853;0;0.0317777;-0.00765855;2.82911
97000;98;25.7703;0.0020727;8.04364e-05;-1.87444;24.8927;6.39904;-0.0551486;0.0211527;-0.0891988;-0.0490349;-0.0942008;-0.00591948;0.106364;-11.5685;-0.000508137;0.000333306;0.000553682;0.000649636;-0.000604091;0.000626864;0.917743;1.08963;0.000723999;0.000835818;1.07539;0.929892;118.343;163.343;-0.00319093;-0.000508394;0.00145831;-0.000790506;0.000552675;-0.000974078;0.00150822;0;0.0216287;-0.0995001;-0.124575;-0.117733;0.198192;-5.10895;0.000359038;-0.000243834;0.000838462;0.000940681;0.000256819;0.000341931;-0.42821;-2.3353;0.000561447;0.000455908;-3.66281;-0.273014;146.728;11.7284;-0.00533797;0.000357578;0.00123974;-0.0017267;0.000837724;0.0097265;-0.0020247;0;0.03263;-0.00756789;2.83987
98000;99;25.7696;0.00139953;5.43122e-05;-1.87007;24.8985;6.37503;-0.0507803;0.0269431;-0.113204;-0.0496471;-0.0960114;-0.00719839;0.108327;-11.5698;-0.000509342;9.52344e-05;0.00023548;0.000247464;-0.000521326;0.000384395;2.16299;0.462322;0.000453151;0.000512526;0.474682;2.10667;131.047;176.047;-0.0044685;-0.000509955;0.00130246;-0.00111109;0.000234636;0.00178145;0.00142616;0;0.0232198;-0.0999378;-0.127852;-0.121487;0.202713;-5.1127;0.000289648;-0.000389335;0.000729662;0.000956852;6.24584e-05;0.000447197;-0.396962;-2.51913;0.000618135;0.000596262;-15.3198;-0.0652749;156.906;21.9063;-0.00583648;0.000287537;0.00131363;-0.00209155;0.000728876;0.00847036;-0.00160811;0;0.032013;-0.00739333;2.84734
99000;100;25.773;0.00484071;0.000187856;-1.8695;24.9021;6.37477;-0.050211;0.0306149;-0.113468;-0.0499039;-0.0978838;-0.00614832;0.110043;-11.5687;-0.000422525;0.000328622;0.000267715;0.000399145;-0.000553956;0.000476551;1.57826;0.633607;0.000552688;0.000635401;0.720537;1.38785;114.836;159.836;-0.00392026;-0.000422982;0.0016682;-0.00101003;0.000266378;-0.000996028;0.000939626;0;0.0209251;-0.100298;-0.130616;-0.12344;0.205809;-5.11465;0.000196482;-0.000203776;0.000466705;0.000576093;8.70944e-05;0.000244499;-0.420998;-2.37531;0.000358574;0.000325999;-6.61458;-0.151181;156.912;21.9124;-0.00446475;0.000195077;0.00128174;-0.00168889;0.000465905;0.00571823;-1.2327e-05;0;0.0269529;-0.00742751;2.84974
100000;101;25.7741;0.0058913;0.000228627;-1.87008;24.9025;6.37758;-0.0507856;0.0309384;-0.110653;-0.0498899;-0.0988123;-0.00906652;0.111063;-11.5717;-0.000463407;-2.44992e-05;0.00112373;0.00112411;-0.000463785;0.000793949;0.412381;2.42494;0.000942826;0.0010586;2.42378;0.412579;128.598;173.598;-0.00433403;-0.000464248;0.00125017;-0.00129715;0.00112295;0.00160691;0.00187961;0;0.0200736;-0.100351;-0.133195;-0.128613;0.2106;-5.11983;0.000255207;-0.000199365;0.000187819;0.000423705;1.93211e-05;0.000202192;-1.35879;-0.735947;0.000276255;0.000269589;-21.9297;-0.0456003;0.649782;45.6498;-0.00615184;0.000253735;0.00132861;-0.00172744;0.000186956;0.00826921;0.00121303;0;0.0271686;-0.00726356;2.8564
101000;102;25.7714;0.00322368;0.000125103;-1.86899;24.9021;6.36854;-0.0496948;0.0305734;-0.119695;-0.0498497;-0.101291;-0.00968931;0.113308;-11.5723;-0.000352604;0.000224711;0.000983617;0.00102039;-0.000389381;0.000704887;0.358477;2.78958;0.000840673;0.00093985;2.62055;0.381599;118.911;163.911;-0.00385921;-0.000353166;0.00153488;-0.0010837;0.000982465;-0.000381636;0.00238442;0;0.0184872;-0.0999454;-0.137326;-0.132363;0.215331;-5.12358;0.000324758;-0.000311126;0.000214925;0.000585777;-4.60941e-05;0.000315935;-1.51103;-0.661801;0.000406754;0.000421247;12.7083;0.0786888;0.32476;45.3248;-0.00486816;0.000322892;0.00133441;-0.00195684;0.000214083;0.00714412;0.000877559;0;0.0280109;-0.00732845;2.86408
102000;103;25.7731;0.0049099;0.000190541;-1.87003;24.9046;6.36534;-0.0507336;0.0330577;-0.122891;-0.0496229;-0.103485;-0.00933505;0.115147;-11.5719;-0.000455958;6.17435e-05;0.00127941;0.0012816;-0.000458152;0.000869877;0.356382;2.80598;0.00104128;0.00115984;2.79733;0.357483;123.724;168.724;-0.00347779;-0.000456643;0.00129745;-0.00117182;0.00127857;0.000182422;0.00231822;0;0.0190011;-0.0995668;-0.141208;-0.134366;0.218878;-5.12558;1.70471e-05;-0.00013198;0.000142229;0.000225707;-6.64314e-05;0.000146069;-0.119857;-8.3433;0.000176825;0.000194759;3.3976;0.294325;165.645;30.6453;-0.00410911;1.59093e-05;0.00125048;-0.00151426;0.000141456;0.00553111;0.00198836;0;0.0262616;-0.0072186;2.87061
103000;104;25.7675;-0.000675098;-2.61989e-05;-1.86935;24.9011;6.3565;-0.0500584;0.029587;-0.131732;-0.0493136;-0.105573;-0.00974662;0.11693;-11.5723;-0.000386091;0.000108014;0.00121407;0.00122133;-0.000393349;0.00080734;0.318013;3.14453;0.000972233;0.00107645;3.10496;0.322066;122.387;167.387;-0.00309193;-0.00038681;0.0014223;-0.00120417;0.00121307;-0.000327052;0.00468648;0;0.019571;-0.0990656;-0.144202;-0.137068;0.222251;-5.12828;-5.22879e-06;3.97761e-05;-2.94021e-05;2.42565e-05;-5.88874e-05;4.15719e-05;;;4.93716e-05;5.54292e-05;0.411913;2.4277;81.9145;126.915;-0.00355735;-6.01089e-06;0.00133083;-0.00125131;-3.02869e-05;0.00473249;0.00133133;0;0.0294685;-0.00721567;2.87827
104000;105;25.7692;0.00103535;4.01795e-05;-1.86935;24.9032;6.35509;-0.0500594;0.0317165;-0.133141;-0.0491542;-0.108133;-0.00980321;0.119185;-11.5724;-0.000548273;-0.000581225;0.000760494;0.000981347;-0.000769127;0.000875237;0.720944;1.38707;0.00101311;0.00116698;1.27592;0.783746;153.488;18.4881;-0.00463046;-0.00054991;0.000739235;-0.00189996;0.000760389;0.00196624;0.00376076;0;0.020202;-0.0988593;-0.146915;-0.141521;0.226684;-5.13274;2.80398e-05;-0.000132135;0.000179943;0.0002564;-4.84172e-05;0.000152409;-0.155826;-6.41741;0.00018915;0.000203212;5.29564;0.188834;162.889;27.8893;-0.00353341;2.68966e-05;0.00125386;-0.00151792;0.000179166;0.00426906;-0.00126453;0;0.0291608;-0.00710217;2.8859
105000;106;25.7648;-0.00343198;-0.000133187;-1.86826;24.9019;6.34256;-0.0489702;0.0303708;-0.145673;-0.0492016;-0.110219;-0.00974339;0.121095;-11.5723;-0.000474482;-0.000451796;0.00114338;0.00126099;-0.000592098;0.000926545;0.414983;2.40974;0.00109287;0.00123539;2.1297;0.46955;142.015;7.01506;-0.00423389;-0.000475807;0.000787354;-0.00168894;0.00114317;0.0007366;0.00482216;0;0.0208959;-0.0983658;-0.149493;-0.145621;0.230715;-5.13683;0.000193015;-8.18476e-05;0.000186858;0.000271842;0.000108031;8.19055e-05;-1.03295;-0.9681;0.000158046;0.000109207;-2.51633;-0.397404;176.946;41.9457;-0.0031154;0.000192044;0.00123227;-0.00139597;0.000186102;0.00429713;0.000525281;0;0.0306215;-0.00714;2.89358
106000;107;25.7647;-0.0035047;-0.000136009;-1.86899;24.9012;6.3449;-0.0496979;0.0296454;-0.143335;-0.048769;-0.111303;-0.0119964;0.122109;-11.5746;-0.000424579;-0.0001623;0.00144722;0.00146119;-0.000438548;0.000949867;0.293376;3.40859;0.00114856;0.00126649;3.33187;0.300131;128.82;173.82;-0.00443146;-0.00042557;0.00109447;-0.00141672;0.00144663;0.000648369;0.00524544;0;0.0203313;-0.0979802;-0.151679;-0.147464;0.233136;-5.13868;0.000144813;0.000148426;0.000431129;0.000494185;8.17569e-05;0.000206214;-0.335893;-2.97713;0.000305869;0.000274952;-6.04457;-0.165438;105.551;150.551;-0.00377642;0.000144201;0.00141363;-0.00111641;0.000430141;0.00448134;-0.00148332;0;0.0311349;-0.00700054;2.89932
107000;108;25.7664;-0.00176526;-6.85052e-05;-1.8693;24.906;6.33299;-0.0500106;0.0344539;-0.155248;-0.0488764;-0.113464;-0.0125611;0.124181;-11.5752;-0.000471399;-0.000250193;0.00166509;0.001694;-0.000500307;0.00109715;0.283107;3.53224;0.0013279;0.00146287;3.38593;0.29534;129.065;174.065;-0.0043351;-0.000472536;0.00103058;-0.00152823;0.0016646;0.00144697;0.0044214;0;0.021731;-0.0978359;-0.154027;-0.15096;0.236823;-5.14217;0.000157455;-1.86299e-05;0.000425092;0.000426383;0.000156165;0.000135109;-0.370403;-2.69976;0.00024909;0.000180145;-2.73034;-0.366255;132.976;177.976;-0.00324537;0.00015648;0.0013598;-0.00139669;0.000424168;0.00483598;-0.00171001;0;0.0328465;-0.00703143;2.90679
108000;109;25.7656;-0.00260696;-0.000101169;-1.87311;24.8979;6.3602;-0.0538136;0.0263615;-0.128034;-0.0489131;-0.115548;-0.0118772;0.126035;-11.5745;-8.59276e-05;0.000545062;0.000977643;0.00120736;-0.000315646;0.000761504;0.0878926;11.3775;0.00092819;0.00101534;3.82505;0.261435;102.533;147.533;-0.00373994;-8.60496e-05;0.00182703;-0.000735546;0.000976124;-0.000497405;0.00623017;0;0.0207957;-0.0976365;-0.155748;-0.153556;0.23952;-5.14477;4.7124e-05;-0.000113312;0.000440946;0.000471221;1.68488e-05;0.000227186;-0.10687;-9.35714;0.000308684;0.000302915;-27.9677;-0.0357555;145.2;10.2003;-0.00442537;4.58897e-05;0.00134924;-0.00157529;0.000440042;0.00888538;-0.000161297;0;0.0365542;-0.0070912;2.91173
109000;110;25.7673;-0.000903015;-3.50438e-05;-1.87313;24.8998;6.35949;-0.0538386;0.0283036;-0.128742;-0.0490615;-0.117794;-0.0150021;0.128481;-11.5776;-0.000251809;2.67734e-05;0.000689281;0.000690042;-0.000252571;0.000471306;0.365322;2.73731;0.000563416;0.000628408;2.73208;0.366022;128.881;173.881;-0.00323411;-0.000252738;0.00141791;-0.00136305;0.000688277;-0.00124128;0.00744241;0;0.0206347;-0.0977359;-0.157724;-0.159197;0.244485;-5.15041;8.9385e-05;-3.5726e-05;0.000514885;0.000517864;8.64062e-05;0.000215729;-0.173602;-5.76031;0.000320349;0.000287638;-5.99337;-0.166851;133.86;178.86;-0.0038355;8.82823e-05;0.00141473;-0.00148556;0.000513886;0.00753088;-0.00197104;0;0.0340153;-0.00674703;2.92016
110000;111;25.771;0.00276409;0.000107267;-1.87438;24.9046;6.35548;-0.0550918;0.0330288;-0.132756;-0.048875;-0.119669;-0.0142281;0.130045;-11.5768;-0.000381329;0.000129556;0.000793442;0.00080756;-0.000395447;0.000601504;0.480601;2.08073;0.000708011;0.000802005;2.04214;0.489682;124.6;169.6;-0.00324647;-0.000382138;0.0015392;-0.00127844;0.000792267;-0.000706481;0.00555858;0;0.0206069;-0.0973992;-0.159423;-0.160296;0.246165;-5.15151;2.84404e-05;-5.49322e-05;0.000645812;0.000650661;2.35907e-05;0.000313535;-0.0440382;-22.7076;0.000426128;0.000418047;-27.5812;-0.0362566;133.679;178.679;-0.00475775;2.72378e-05;0.00144292;-0.00155186;0.000644773;0.00934859;-0.00269364;0;0.0318093;-0.00687315;2.92174
111000;112;25.7614;-0.00676827;-0.00026266;-1.86911;24.9017;6.32963;-0.0498144;0.0301457;-0.158603;-0.0488975;-0.122324;-0.0130416;0.132379;-11.5756;-0.000198066;0.000423905;0.000897998;0.00104281;-0.000342879;0.000692845;0.220564;4.53384;0.000833354;0.000923793;3.04134;0.328802;108.674;153.674;-0.00357098;-0.000198374;0.00174093;-0.000891675;0.000896574;0.000627457;0.00589982;0;0.0202923;-0.0974306;-0.161975;-0.162142;0.249035;-5.15336;0.000210323;-0.000259837;0.000593967;0.000725117;7.91728e-05;0.000322972;-0.354098;-2.82408;0.000459301;0.00043063;-9.15866;-0.109186;154.693;19.6933;-0.00478488;0.000208632;0.00133808;-0.00185714;0.000593106;0.0111213;-0.00151715;0;0.0337855;-0.00673679;2.92879
112000;113;25.7619;-0.00625516;-0.000242747;-1.86901;24.9042;6.32186;-0.0497174;0.0326571;-0.166371;-0.0487631;-0.125155;-0.0129809;0.134945;-11.5756;-0.000348897;0.00044792;0.000566553;0.000749253;-0.000531597;0.000640425;0.615823;1.62384;0.00074305;0.0008539;1.40944;0.709502;110.384;155.384;-0.00237564;-0.000349152;0.0017404;-0.000843374;0.00056514;-0.00225408;0.00640131;0;0.0199038;-0.0971118;-0.164575;-0.165953;0.253092;-5.15717;0.000151127;-0.000206523;0.000831863;0.000889618;9.33723e-05;0.000398123;-0.181673;-5.50438;0.000564534;0.00053083;-9.52764;-0.104958;141.831;6.83098;-0.00436483;0.000149598;0.0013493;-0.00176128;0.000830975;0.00848611;-0.00308767;0;0.0318916;-0.00651472;2.93661
113000;114;25.7657;-0.00251585;-9.76338e-05;-1.87354;24.9002;6.35126;-0.0542474;0.028706;-0.136978;-0.0488199;-0.126739;-0.0145652;0.136595;-11.5772;-0.000490574;0.000307232;0.000200238;0.000317105;-0.000607441;0.000462273;2.44996;0.40817;0.000542489;0.000616364;0.522034;1.91558;118.227;163.227;-0.00224231;-0.000490777;0.00132292;-0.000707754;0.00019941;-0.00213773;0.00645273;0;0.0218908;-0.0969411;-0.166249;-0.169689;0.256575;-5.1609;0.000191598;-0.000132194;0.0010026;0.00102361;0.000170594;0.000426506;-0.1911;-5.23286;0.000633246;0.000568675;-6.00025;-0.16666;134.099;179.099;-0.00580863;0.000190005;0.00152653;-0.00178958;0.00100145;0.0114727;-0.00454342;0;0.0299587;-0.00610127;2.94341
114000;115;25.7615;-0.00674563;-0.000261781;-1.86709;24.903;6.32528;-0.0478011;0.0314267;-0.162958;-0.0488366;-0.129203;-0.0148988;0.138926;-11.5775;-0.000487049;0.000170118;0.000779073;0.000801532;-0.000509508;0.00065552;0.625165;1.59958;0.000763163;0.000874027;1.57315;0.635668;123.933;168.933;-0.00316298;-0.000487543;0.00134997;-0.00100824;0.000778177;-0.000530149;0.00424683;0;0.0223513;-0.0968168;-0.168749;-0.173858;0.260915;-5.16507;-2.18427e-05;-0.000230463;0.00101885;0.00106761;-7.05952e-05;0.0005691;0.0214385;46.6451;0.000736398;0.0007588;15.1229;0.0661248;138.821;3.8212;-0.00548594;-2.371e-05;0.00148704;-0.00194618;0.00101777;0.0105942;-0.00309866;0;0.0279916;-0.00603218;2.95175
115000;116;25.7633;-0.00492207;-0.000191013;-1.86699;24.9051;6.32416;-0.0477021;0.0336031;-0.16407;-0.0491121;-0.131083;-0.016511;0.140952;-11.5791;-0.000439558;0.000440233;0.000160313;0.000393074;-0.00067232;0.000532697;2.74187;0.364714;0.000622109;0.000710263;0.584654;1.71041;111.056;156.056;-0.00249637;-0.000439623;0.00144993;-0.000568865;0.000159359;-0.00115319;0.00581233;0;0.019694;-0.0970029;-0.171692;-0.177009;0.264991;-5.16822;6.85884e-05;-0.000102318;0.000985061;0.000996345;5.73042e-05;0.00046952;-0.0696286;-14.3619;0.000645976;0.000626027;-17.387;-0.0575144;131.9;176.9;-0.00444098;6.72248e-05;0.00145146;-0.00165467;0.000984014;0.0080492;-0.000874921;0;0.0267851;-0.00515339;2.95827
116000;117;25.7645;-0.00374789;-0.000145446;-1.86617;24.9067;6.32298;-0.0468739;0.0351803;-0.165254;-0.0488735;-0.132875;-0.0160403;0.142484;-11.5786;-0.000538223;0.000562311;-0.000212923;0.000209789;-0.000960935;0.000585362;-2.52778;-0.395604;0.000720802;0.000780483;0.218317;4.58049;107.668;152.668;-0.0022611;-0.000538197;0.00163868;-0.000513705;-0.000214108;-0.00271891;0.00555515;0;0.0215106;-0.0966811;-0.173916;-0.180685;0.268777;-5.1719;0.000177635;-0.000272027;0.000915967;0.00100537;8.82359e-05;0.000458565;-0.193932;-5.15645;0.000642854;0.00061142;-11.3941;-0.087765;144.544;9.54433;-0.00553325;0.000175605;0.0014905;-0.00203325;0.000914894;0.00872571;-0.000238055;0;0.0300538;-0.00545241;2.96551
117000;118;25.7656;-0.00261352;-0.000101424;-1.86741;24.9083;6.3208;-0.0481161;0.0368133;-0.167432;-0.0487022;-0.134552;-0.0164269;0.144035;-11.579;-0.000501192;0.000219476;0.000232832;0.00029345;-0.00056181;0.00042763;2.15259;0.464557;0.000501822;0.000570174;0.52233;1.9145;123.592;168.592;-0.00226528;-0.00050143;0.00116372;-0.000724076;0.000232179;0.000240425;0.00676689;0;0.0218833;-0.0964619;-0.176737;-0.182913;0.272026;-5.17413;-4.94692e-05;-0.000114531;0.000912578;0.000926025;-6.29161e-05;0.00049447;0.0542082;18.4474;0.000639355;0.000659294;14.7184;0.0679421;134.282;179.282;-0.00450811;-5.09934e-05;0.00152219;-0.00174967;0.000911427;0.00564525;0.000764739;0;0.0280455;-0.00519634;2.97158
118000;119;25.7652;-0.00300226;-0.00011651;-1.86681;24.9085;6.31883;-0.0475126;0.0369566;-0.169403;-0.0489043;-0.136677;-0.0165081;0.146098;-11.5791;-0.000612351;0.000593909;0.000298149;0.000591217;-0.00090542;0.000748318;2.05384;0.486892;0.000870408;0.000997758;0.652976;1.53145;113.278;158.278;-0.00288926;-0.000612249;0.00157374;-0.00038503;0.000297087;-4.36885e-06;0.00567193;0;0.0222852;-0.0963723;-0.180218;-0.187615;0.277427;-5.17883;-3.7314e-05;-1.38891e-05;0.000777988;0.000778224;-3.75506e-05;0.000407888;0.0479622;20.8497;0.000531775;0.00054385;20.7247;0.0482516;129.8;174.8;-0.00439337;-3.87789e-05;0.00168529;-0.00171168;0.000776569;0.00643688;0.000542461;0;0.0267087;-0.00466976;2.97688
119000;120;25.7612;-0.00697297;-0.000270604;-1.86533;24.9082;6.30439;-0.0460353;0.0366199;-0.183845;-0.0489237;-0.138631;-0.0162732;0.147908;-11.5789;-0.000376147;0.000665653;0.000123749;0.000584835;-0.000837232;0.000711033;3.03959;0.328992;0.00082533;0.000948044;0.698533;1.43157;103.868;148.868;-0.00294294;-0.000375982;0.00166709;-0.000335288;0.000122581;-0.000292256;0.00607938;0;0.022999;-0.0962924;-0.183714;-0.192133;0.282733;-5.18335;3.20822e-05;-0.000356008;0.000543059;0.000725767;-0.000150626;0.000438196;-0.0590768;-16.9271;0.000541088;0.000584262;4.81835;0.20754;157.427;22.4266;-0.00378226;2.99682e-05;0.00137572;-0.00208685;0.000542177;0.00490326;0.00317782;0;0.0253845;-0.00434989;2.9864
120000;121;25.7619;-0.00628851;-0.000244041;-1.86616;24.9104;6.29787;-0.0468687;0.0389138;-0.190362;-0.0490662;-0.139966;-0.017769;0.149378;-11.5804;-0.00050718;0.000532359;-0.000269761;0.000156963;-0.000933904;0.000545434;-1.88011;-0.531885;0.000680981;0.000727245;0.168072;5.94982;106.713;151.713;-0.00332833;-0.000507156;0.00155045;-0.000485488;-0.000270822;-0.000283028;0.000798318;0;0.0230912;-0.0965632;-0.186694;-0.194771;0.286557;-5.18598;-8.09507e-06;-0.000175417;0.000418652;0.000481502;-7.09448e-05;0.000276223;;;0.000347075;0.000368298;6.78698;0.147341;150.938;15.938;-0.00355639;-9.5827e-06;0.00138362;-0.00173379;0.00041771;0.00361218;0.00245824;0;0.0260397;-0.00441387;2.98786
121000;122;25.7644;-0.00382471;-0.000148427;-1.86774;24.9129;6.29793;-0.0484475;0.0413282;-0.190301;-0.0494074;-0.141909;-0.0174321;0.151272;-11.58;-0.000445481;0.000465315;0.000296511;0.000520625;-0.000669595;0.00059511;1.50241;0.665598;0.000688966;0.00079348;0.777522;1.28614;111.437;156.437;-0.00313126;-0.000445506;0.00144774;-0.000516384;0.000295572;0.000111241;0.00428268;0;0.023809;-0.0967944;-0.189587;-0.198903;0.291332;-5.19012;-5.45358e-05;-0.000171816;0.000438994;0.000492918;-0.000108459;0.000300689;0.124229;8.04965;0.000370101;0.000400918;4.54472;0.220036;149.081;14.081;-0.00370219;-5.61829e-05;0.00148022;-0.00182304;0.000437914;0.00688463;0.00222454;0;0.027785;-0.00398196;2.9949
122000;123;25.7654;-0.00276204;-0.000107188;-1.86825;24.9144;6.296;-0.0489558;0.0428771;-0.192232;-0.0492693;-0.143237;-0.0196847;0.152747;-11.5823;-0.000558908;0.000482889;-0.000288131;7.79904e-05;-0.00092503;0.00050151;-1.93977;-0.515525;0.000644259;0.00066868;0.0843112;11.8608;111.442;156.442;-0.00356897;-0.000558849;0.00130529;-0.000339288;-0.000288866;0.000824505;0.00472348;0;0.0221123;-0.0966244;-0.192325;-0.204335;0.296779;-5.19555;2.58733e-05;-0.0001381;0.000365831;0.00041486;-2.31558e-05;0.000219008;-0.0707249;-14.1393;0.000284606;0.000292011;17.916;0.0558159;150.946;15.9464;-0.00391808;2.4441e-05;0.00142253;-0.0016982;0.000364829;0.00534647;0.000790386;0;0.0285308;-0.0038043;3.00246
123000;124;25.7624;-0.00576174;-0.000223599;-1.86545;24.9114;6.29653;-0.0461544;0.0398512;-0.191703;-0.0493496;-0.145337;-0.0174114;0.154471;-11.58;-0.000450627;0.000495318;0.000775799;0.000950857;-0.000625684;0.00078827;0.580855;1.7216;0.000916647;0.00105103;1.51971;0.658022;111.054;156.054;-0.00329741;-0.000450649;0.00153048;-0.000538577;0.000774751;0.000587636;0.00309356;0;0.022676;-0.0966759;-0.194954;-0.206206;0.29979;-5.19742;-8.55021e-05;1.22e-05;0.000503327;0.000503579;-8.57548e-05;0.000294667;0.169874;5.88671;0.000367653;0.000392889;5.87232;0.170291;129.811;174.811;-0.00330529;-8.65991e-05;0.00150648;-0.0014812;0.000502192;0.00508215;0.00198628;0;0.0307937;-0.00380485;3.00993
124000;125;25.764;-0.00422584;-0.000163994;-1.86613;24.9134;6.29474;-0.0468363;0.0418412;-0.193495;-0.0494103;-0.145513;-0.0220067;0.155241;-11.5846;-0.000400812;0.00046821;0.000390843;0.000608123;-0.000618091;0.000613107;1.02551;0.975129;0.000707963;0.000817476;0.983872;1.01639;110.225;155.225;-0.0026478;-0.000400877;0.00152819;-0.00059093;0.000389785;-0.000847079;0.004489;0;0.0215602;-0.0970003;-0.196232;-0.212463;0.305052;-5.20368;1.90021e-05;-7.13864e-05;0.000629863;0.000638094;1.07707e-05;0.000313662;-0.0301686;-33.147;0.000421852;0.000418216;-59.2437;-0.0168794;135.612;0.612218;-0.00375735;1.77046e-05;0.00147065;-0.00161249;0.000628785;0.00663232;0.000944684;0;0.0309013;-0.00368476;3.01705
125000;126;25.7655;-0.00265342;-0.000102973;-1.86653;24.9149;6.29488;-0.0472326;0.043402;-0.193354;-0.0499368;-0.148147;-0.0186812;0.157449;-11.5813;-0.000517811;0.000520278;0.000375675;0.000614693;-0.000756829;0.000685761;1.37835;0.725507;0.000793265;0.000914348;0.812196;1.23123;112.418;157.418;-0.00288821;-0.000517774;0.00148545;-0.000444036;0.000374708;-0.000754196;0.00434398;0;0.0227577;-0.0975173;-0.199174;-0.211091;0.306169;-5.20231;1.27381e-05;1.12054e-05;0.000506242;0.000506496;1.24838e-05;0.000247006;-0.0251621;-39.7422;0.000333581;0.000329342;-40.5722;-0.0246474;128.599;173.599;-0.00430537;1.17065e-05;0.0014596;-0.00143648;0.000505177;0.00833909;-0.000710156;0;0.0315717;-0.00372772;3.02416
126000;127;25.7764;0.00825035;0.000320176;-1.87342;24.9164;6.33149;-0.0541304;0.0448866;-0.156746;-0.050214;-0.149645;-0.020411;0.159159;-11.583;-0.000371131;0.000431352;0.00043556;0.000622767;-0.000558338;0.000590552;0.852079;1.1736;0.000682249;0.000787403;1.11539;0.896545;110.584;155.584;-0.0031775;-0.000371188;0.00141162;-0.000548126;0.000434657;0.000610198;0.00374815;0;0.0204397;-0.0979106;-0.20138;-0.217048;0.311849;-5.20826;1.64145e-05;8.51691e-05;0.000543467;0.000556888;2.99335e-06;0.000276947;-0.0302033;-33.1089;0.000370265;0.000369263;;;120.607;165.607;-0.0038083;1.54696e-05;0.00154846;-0.00137735;0.000542272;0.00823934;-0.000705083;0;0.0306545;-0.00364711;3.0316
127000;128;25.7756;0.00739629;0.000287032;-1.8746;24.918;6.32143;-0.0553046;0.0464694;-0.166808;-0.0503571;-0.15152;-0.0197419;0.160885;-11.5823;-0.000239693;0.000806626;-3.14795e-05;0.000677731;-0.000948903;0.000813317;-7.61426;-0.131333;0.000943477;0.00108442;0.714226;1.40012;97.2906;142.291;-0.00314275;-0.0002394;0.00187135;-0.00025788;-3.29052e-05;0.000322455;0.00447264;0;0.0232026;-0.0983619;-0.203722;-0.219745;0.315382;-5.21096;8.47802e-05;-2.31653e-05;0.000446586;0.000448063;8.3303e-05;0.00018238;-0.18984;-5.26758;0.000275177;0.000243174;-5.37872;-0.185918;133.578;178.578;-0.00420654;8.36332e-05;0.00146901;-0.0015148;0.000445508;0.00909687;-0.000947461;0;0.0327986;-0.00370048;3.03919
128000;129;25.7781;0.00985921;0.000382612;-1.87555;24.9222;6.31482;-0.0562576;0.0506197;-0.173412;-0.0503633;-0.153302;-0.0204086;0.162648;-11.583;-0.000487241;0.000367224;0.000283073;0.000430081;-0.000634248;0.000532165;1.72126;0.580971;0.000618248;0.000709553;0.678095;1.47472;116.302;161.302;-0.00258103;-0.000487331;0.00129747;-0.000562304;0.000282299;-0.00152399;0.0040347;0;0.0220367;-0.0983519;-0.206285;-0.223273;0.319496;-5.21449;6.43426e-05;2.84753e-05;0.000499282;0.000501139;6.24863e-05;0.000219326;-0.12887;-7.75975;0.000315334;0.000292435;-8.01998;-0.124689;124.981;169.981;-0.00436061;6.35764e-05;0.00129576;-0.00123826;0.000498444;0.00866684;-0.000792266;0;0.0312649;-0.00369079;3.04629
129000;130;25.7691;0.000883475;3.42855e-05;-1.8676;24.9207;6.2863;-0.0483033;0.0491463;-0.201938;-0.0507946;-0.154402;-0.0231594;0.164184;-11.5858;-0.000659582;-2.41042e-05;0.000575307;0.000575777;-0.000660053;0.000617915;1.14649;0.872229;0.00071406;0.000823887;0.87232;1.14637;137.282;2.28174;-0.00396866;-0.000660131;0.00100016;-0.00104711;0.000574807;0.0016516;0.00490938;0;0.0219189;-0.0987696;-0.20781;-0.22925;0.324802;-5.22046;2.51076e-06;-0.000180526;0.000749941;0.000791259;-3.88072e-05;0.000415033;;;0.000540906;0.000553378;20.3895;0.0490449;140.982;5.98236;-0.00458343;1.05661e-06;0.001355;-0.00171491;0.00074904;0.010918;-0.00182801;0;0.029763;-0.00361805;3.05402
130000;131;25.776;0.0077636;0.000301286;-1.87285;24.9203;6.3142;-0.0535585;0.048814;-0.174038;-0.0506786;-0.155299;-0.0241368;0.165133;-11.5867;-0.000375824;0.000265287;0.000127262;0.000241302;-0.000489864;0.000365583;2.95316;0.338621;0.000430193;0.000487444;0.492589;2.03009;114.757;159.757;-0.00352019;-0.000376197;0.0014342;-0.000903041;0.000126269;0.000222401;0.00644121;0;0.0242009;-0.0989269;-0.208461;-0.233781;0.328475;-5.22499;3.23487e-05;-0.00014054;0.000569995;0.000604516;-2.17169e-06;0.000303344;-0.0567525;-17.6204;0.000403736;0.000404458;;;143.38;8.37967;-0.00470033;3.08798e-05;0.00143955;-0.00171978;0.00056897;0.00971998;-0.00126059;0;0.0312558;-0.00358405;3.05409
131000;132;25.7775;0.00933733;0.000362359;-1.87367;24.9211;6.31731;-0.0543756;0.0495909;-0.170923;-0.0511904;-0.158057;-0.0219524;0.167584;-11.5845;-0.000421945;0.000292095;0.000654275;0.000728441;-0.000496111;0.000612276;0.644904;1.55062;0.000711224;0.000816368;1.4683;0.681058;117.568;162.568;-0.00394412;-0.000422185;0.00133822;-0.000752901;0.000653423;0.00268674;0.00587499;0;0.0247372;-0.0992796;-0.211794;-0.233932;0.330813;-5.22515;-2.29517e-06;-0.000148985;0.000505258;0.000545759;-4.27957e-05;0.000294277;;;0.000378911;0.00039237;12.7527;0.0784151;145.502;10.5022;-0.00508458;-3.68382e-06;0.00137597;-0.00167317;0.000504323;0.0100421;-0.000515085;0;0.0324052;-0.0035252;3.06223
132000;133;25.7729;0.00466123;0.000180891;-1.86728;24.9253;6.28373;-0.0479903;0.0537225;-0.204501;-0.0506326;-0.159695;-0.0225443;0.16904;-11.5851;-0.000590265;5.89067e-05;0.000471902;0.000475159;-0.000593522;0.00053434;1.25082;0.799474;0.000618263;0.000712454;0.800574;1.2491;133.208;178.208;-0.00367548;-0.000590936;0.00127861;-0.00115951;0.000471086;0.000673933;0.00560734;0;0.023457;-0.0989195;-0.214821;-0.237067;0.334864;-5.22828;3.09836e-06;5.24813e-06;0.000710686;0.000710725;3.05943e-06;0.000353833;;;0.0004728;0.000471777;;;128.095;173.095;-0.00480004;1.89601e-06;0.00156232;-0.00155072;0.000709467;0.00899113;0.00285707;0;0.0262642;-0.00330294;3.07329
133000;134;25.7705;0.00225083;8.73493e-05;-1.86749;24.9248;6.27572;-0.0482009;0.0532343;-0.212518;-0.0510722;-0.162425;-0.0232468;0.171845;-11.5858;-0.000392171;6.16484e-06;0.00132892;0.00132895;-0.000392193;0.000860569;0.295104;3.38864;0.0010416;0.00114743;3.3885;0.295116;124.26;169.26;-0.00364858;-0.000392904;0.00122545;-0.00121103;0.00132817;0.000681571;0.00775223;0;0.0227753;-0.099321;-0.218548;-0.24195;0.340834;-5.23316;5.57341e-05;-0.000115595;0.00036923;0.000407244;1.77202e-05;0.000194762;-0.150947;-6.62486;0.000265786;0.000259683;-22.982;-0.0435124;149.569;14.569;-0.00516406;5.41343e-05;0.00156183;-0.00179249;0.000368018;0.00725532;0.00321467;0;0.0235593;-0.00297211;3.08339
134000;135;25.7678;-0.000409765;-1.5902e-05;-1.86611;24.9238;6.26915;-0.0468174;0.0522391;-0.219083;-0.051411;-0.163598;-0.0233606;0.17307;-11.586;-0.000530036;-0.000210877;0.00141576;0.00143835;-0.000552628;0.000995489;0.374384;2.67106;0.0011868;0.00132732;2.60274;0.38421;130.856;175.856;-0.00320459;-0.000530988;0.000976008;-0.00139546;0.0014153;-0.000528961;0.00700582;0;0.0237497;-0.0995384;-0.22008;-0.244946;0.344008;-5.23616;0.000137113;-0.00017462;0.000215437;0.000355233;-2.68275e-06;0.000178958;-0.636441;-1.57124;0.000237721;0.00023861;;;170.762;35.7621;-0.00457598;0.000135296;0.00156539;-0.0019145;0.000214227;0.00548415;0.00473326;0;0.0237099;-0.00257822;3.08368
135000;136;25.7731;0.00487529;0.000189198;-1.867;24.9277;6.27507;-0.0477071;0.0561473;-0.213164;-0.0516865;-0.164854;-0.025632;0.174657;-11.5882;-0.000430664;-0.000281658;0.0012427;0.00128884;-0.0004768;0.00088282;0.346554;2.88555;0.00105472;0.00117709;2.7031;0.369945;134.521;179.521;-0.00276494;-0.000431641;0.00086418;-0.00142558;0.00124237;-2.54002e-05;0.00861148;0;0.0224296;-0.10014;-0.222365;-0.249958;0.349218;-5.24117;4.85056e-05;-2.52079e-05;3.49311e-05;6.7824e-05;1.56127e-05;2.61057e-05;-1.38861;-0.720146;4.10146e-05;3.48076e-05;-4.34416;-0.230194;6.82126;51.8213;-0.00491287;4.69565e-05;0.00170994;-0.00176038;3.34695e-05;0.00539732;0.00444943;0;0.0223346;-0.00245704;3.0903
136000;137;25.7684;0.000186184;7.22535e-06;-1.86729;24.9257;6.26349;-0.0479932;0.0541905;-0.224744;-0.051795;-0.167099;-0.0276259;0.17711;-11.5902;-0.000513366;5.47904e-05;0.00196297;0.00196418;-0.000514578;0.00123938;0.261526;3.82371;0.00151048;0.0016525;3.81706;0.261981;117.197;162.197;-0.00328755;-0.000513925;0.00117091;-0.00105857;0.00196228;-0.000288471;0.00797522;0;0.0219494;-0.100136;-0.225696;-0.256656;0.356144;-5.24787;0.000167074;-9.12136e-05;0.00010678;0.000232994;4.08608e-05;9.60664e-05;-1.56466;-0.639118;0.000143659;0.000128089;-5.70213;-0.175373;7.02378;52.0238;-0.00464694;0.000165155;0.00177875;-0.00196129;0.000105203;0.00396805;0.00404107;0;0.0248567;-0.00210666;3.09816
137000;138;25.7677;-0.000517253;-2.00733e-05;-1.86782;24.9274;6.25393;-0.0485257;0.0558245;-0.234307;-0.0521309;-0.168231;-0.0290996;0.178511;-11.5917;-0.000426337;0.000168556;0.00162983;0.00164356;-0.000440063;0.00104181;0.261583;3.82287;0.00126811;0.00138908;3.73483;0.26775;116.125;161.125;-0.00325012;-0.000426768;0.00128264;-0.00094324;0.00162903;0.00095607;0.00794638;0;0.0229014;-0.100778;-0.228176;-0.259578;0.360002;-5.25079;0.000156984;-9.01993e-05;-1.4515e-06;0.000197813;-4.22811e-05;0.000120047;;;0.000147996;0.000160063;4.67853;0.213743;19.3238;64.3238;-0.00323584;0.000155356;0.00162596;-0.00180663;-2.76931e-06;0.00298242;0.00567587;0;0.0268746;-0.00206864;3.1048
138000;139;25.7667;-0.00148661;-5.76918e-05;-1.86669;24.9257;6.25692;-0.0473926;0.0541563;-0.231314;-0.0528397;-0.171535;-0.0266257;0.181453;-11.5892;-0.000380032;-0.000107999;0.0017945;0.00179985;-0.000385383;0.00109262;0.211776;4.72198;0.00134687;0.00145682;4.6703;0.214119;121.91;166.91;-0.00374173;-0.000380804;0.00103338;-0.0012469;0.00179397;-0.000553018;0.00890825;0;0.0205757;-0.101313;-0.231563;-0.261614;0.363769;-5.25283;6.57509e-05;-0.000129999;-0.000419402;9.83892e-05;-0.00045204;0.000275215;0.156773;6.37865;0.00033895;0.000366953;0.217656;4.5944;33.7;78.7;-0.00362911;6.39139e-05;0.00166036;-0.00192123;-0.000420772;0.0036106;0.00681054;0;0.023485;-0.00174859;3.11221
139000;140;25.7644;-0.00378384;-0.000146841;-1.86871;24.9271;6.24105;-0.0494152;0.0556085;-0.247183;-0.0520732;-0.172299;-0.0290354;0.182323;-11.5916;-0.000387806;0.000444338;0.00104896;0.00117527;-0.000514119;0.000844695;0.369706;2.70485;0.000999957;0.00112626;2.28599;0.437447;112.064;157.064;-0.00311247;-0.000388087;0.00176194;-0.000871373;0.00104751;-0.000511966;0.00776171;0;0.0215851;-0.100917;-0.233773;-0.265875;0.368135;-5.25709;0.000115973;-8.65027e-06;-0.000351081;0.000116134;-0.000351241;0.000233687;0.330332;3.02725;0.000280989;0.000311583;0.330638;3.02446;45.9693;90.9693;-0.00399892;0.000114619;0.0016281;-0.00164617;-0.000352407;0.00485875;0.00393337;0;0.026308;-0.00127995;3.11959
140000;141;25.7624;-0.00580983;-0.000225465;-1.86776;24.9265;6.23537;-0.0484683;0.0550073;-0.252865;-0.0529997;-0.174662;-0.0285884;0.184751;-11.5912;-0.000272516;0.000272569;0.00243943;0.00246656;-0.00029964;0.0013831;0.111713;8.95152;0.00175281;0.00184413;8.23174;0.121481;109.973;154.973;-0.0028955;-0.000273063;0.00162998;-0.00108117;0.00243814;-0.00308144;0.0078958;0;0.0219887;-0.101809;-0.235884;-0.27072;0.373224;-5.26193;3.43265e-05;0.00017616;-0.000464157;9.0296e-05;-0.000520126;0.000305211;0.0739545;13.5218;0.000380438;0.000406948;0.173604;5.76024;66.427;111.427;-0.00379089;3.33273e-05;0.00177614;-0.00142461;-0.000465719;0.0053011;0.0047511;0;0.0283495;-0.000773837;3.12725
141000;142;25.7598;-0.00837294;-0.000324933;-1.86903;24.9251;6.23005;-0.0497358;0.0535947;-0.258189;-0.0527769;-0.1761;-0.0318065;0.186569;-11.5944;-0.000383576;0.000195224;0.00107473;0.00110041;-0.000409258;0.000754835;0.356904;2.80187;0.000901542;0.00100645;2.6888;0.371913;119.189;164.189;-0.00190095;-0.000384021;0.00135546;-0.000963322;0.00107383;-0.00319982;0.0081875;0;0.0226214;-0.101711;-0.237527;-0.276284;0.378282;-5.2675;0.000165557;1.54881e-05;-0.00020946;0.000166195;-0.000210099;0.000188147;0.790397;1.26519;0.000217746;0.000250862;0.791034;1.26417;47.7109;92.7109;-0.00400698;0.000164169;0.00169645;-0.0016661;-0.000210899;0.00577233;0.00476001;0;0.0269196;-0.000462931;3.12913
142000;143;25.7608;-0.00744072;-0.000288756;-1.87035;24.9258;6.23076;-0.0510546;0.0542817;-0.257479;-0.0528119;-0.177488;-0.0332426;0.188139;-11.5958;-0.000417856;0.000435221;0.00122432;0.00133254;-0.00052607;0.000929304;0.341295;2.93002;0.00110623;0.00123907;2.53301;0.394788;111.468;156.468;-0.00202503;-0.000418026;0.00160055;-0.000728194;0.00122314;-0.00321326;0.00981328;0;0.022559;-0.101978;-0.23948;-0.280339;0.382544;-5.27155;0.000236671;4.5938e-05;-0.000414735;0.000239895;-0.000417959;0.000328927;0.570656;1.75237;0.000384422;0.000438569;0.573967;1.74226;50.5384;95.5384;-0.00396638;0.000235391;0.00169154;-0.00160074;-0.000416166;0.00700102;0.00153806;0;0.0292611;-0.000587951;3.13551
143000;144;25.7649;-0.00328398;-0.000127443;-1.86972;24.9288;6.23613;-0.0504312;0.0572805;-0.252104;-0.0529249;-0.180163;-0.0319004;0.190466;-11.5945;-0.000240809;0.000648058;0.00077954;0.00109414;-0.000555412;0.000824777;0.308911;3.23717;0.000969153;0.0010997;1.96997;0.507623;102.834;147.834;-0.00267162;-0.000240759;0.00186294;-0.000565586;0.000778016;-0.000459185;0.00943209;0;0.0216789;-0.102284;-0.241935;-0.281571;0.385067;-5.27278;0.000154809;5.3277e-05;-0.000322066;0.000160688;-0.000327945;0.000244317;0.480674;2.08041;0.000287569;0.000325756;0.489985;2.04088;52.7037;97.7037;-0.00391577;0.000153496;0.00172681;-0.00162105;-0.000323556;0.00741283;0.000637926;0;0.0319216;-0.000179807;3.14464
144000;145;25.7614;-0.00676153;-0.000262398;-1.87131;24.9268;6.22937;-0.0520134;0.0552569;-0.25886;-0.0533062;-0.182473;-0.0308657;0.192589;-11.5935;-0.000419904;0.000389867;0.000984141;0.00108513;-0.000520896;0.000803014;0.426671;2.34373;0.000946123;0.00107069;2.0832;0.48003;114.381;159.381;-0.00220919;-0.00042025;0.00170074;-0.000919172;0.000982772;-0.00219473;0.00961929;0;0.0241924;-0.102587;-0.243908;-0.283624;0.387889;-5.27484;0.000142495;-1.98938e-05;-0.000294396;0.000143399;-0.0002953;0.000219349;0.484023;2.06602;0.000258294;0.000292466;0.485603;2.0593;43.7121;88.7121;-0.00314779;0.00014114;0.0016057;-0.0016462;-0.000295685;0.004687;0.000369813;0;0.0374553;-0.000112179;3.14911
145000;146;25.7585;-0.00968712;-0.000375933;-1.87107;24.9255;6.22248;-0.0517733;0.0539738;-0.265755;-0.05323;-0.18197;-0.0322206;0.192314;-11.5948;-0.000403988;1.65671e-05;0.000490855;0.000491162;-0.000404295;0.000447728;0.82303;1.21502;0.000517802;0.000596971;1.21486;0.82314;132.824;177.824;-0.00244747;-0.000404608;0.00114774;-0.0011136;0.000490197;-0.00131378;0.00839684;0;0.0217903;-0.102606;-0.244421;-0.288136;0.391526;-5.27935;0.000100863;5.24096e-05;-0.000333474;0.000107098;-0.000339708;0.000223403;0.302462;3.3062;0.000269364;0.00029787;0.315263;3.17195;53.9564;98.9564;-0.00355057;9.97937e-05;0.00156754;-0.00146338;-0.000334701;0.00609976;0.00130399;0;0.0333695;7.93724e-05;3.15662
146000;147;25.759;-0.00923571;-0.000358415;-1.86968;24.926;6.22274;-0.0503895;0.0544797;-0.265497;-0.053053;-0.184949;-0.0315588;0.194979;-11.5942;-0.000345817;0.000328711;0.000828943;0.000914666;-0.000431539;0.000673102;0.417178;2.39706;0.00079374;0.00089747;2.11954;0.4718;114.318;159.318;-0.0023418;-0.000346081;0.00145645;-0.000797699;0.000827938;-0.0032494;0.00775577;0;0.0216428;-0.102625;-0.24717;-0.29097;0.395333;-5.28218;0.000233247;4.5545e-05;-0.000209276;0.000237886;-0.000213915;0.0002259;1.11454;0.897228;0.000260969;0.0003012;1.11206;0.899232;50.5748;95.5748;-0.00408278;0.000232083;0.00161705;-0.00152666;-0.000210582;0.00718715;0.00179515;0;0.032638;0.000248625;3.16401
147000;148;25.7582;-0.00997978;-0.000387291;-1.87111;24.9259;6.21977;-0.0518175;0.0543431;-0.26846;-0.0533672;-0.184939;-0.0358518;0.195795;-11.5984;-0.000447001;0.000531602;-0.000545347;3.76976e-05;-0.00103005;0.000533871;-0.819664;-1.22001;0.000699601;0.000711829;0.036598;27.3239;100.615;145.615;-0.00225084;-0.000446966;0.00152459;-0.000461487;-0.000546368;-0.000742699;0.00900978;0;0.0212878;-0.103066;-0.24756;-0.298304;0.401115;-5.28952;0.000146969;0.000117647;-0.000400838;0.000171166;-0.000425034;0.0002981;0.366656;2.72735;0.000354466;0.000397467;0.402712;2.48317;58.7309;103.731;-0.00426759;0.000145721;0.00181871;-0.00158435;-0.000402485;0.00801934;0.00188555;0;0.0329141;0.00011867;3.17158
148000;149;25.7585;-0.0096728;-0.000375377;-1.87067;24.9264;6.2191;-0.0513781;0.0548628;-0.269139;-0.0536208;-0.186177;-0.0344967;0.196792;-11.5971;-0.000584078;0.000452328;0.000190469;0.000398663;-0.000792272;0.000595467;3.06653;0.326102;0.000699992;0.000793956;0.50319;1.98732;115.294;160.294;-0.00260019;-0.000584191;0.00156299;-0.000657477;0.00018935;-0.00148438;0.0068586;0;0.0227634;-0.103273;-0.248998;-0.299526;0.402966;-5.29074;0.000238299;-8.91229e-06;-0.000237642;0.000238466;-0.000237809;0.000238138;1.00277;0.997243;0.000274978;0.000317517;1.00276;0.997245;43.8983;88.8983;-0.0040543;0.000236922;0.00164133;-0.00165994;-0.000238989;0.00681729;0.00190829;0;0.0338966;0.000248991;3.17889
149000;150;25.7563;-0.0119238;-0.000462733;-1.87021;24.9255;6.21341;-0.0509191;0.0539883;-0.274822;-0.0538188;-0.189101;-0.0324924;0.199277;-11.5951;-0.000615344;0.000494077;0.000501151;0.000688392;-0.000802584;0.000745488;1.22786;0.814425;0.000861656;0.000993984;0.857719;1.16588;115.71;160.71;-0.00301419;-0.000615407;0.00159781;-0.000608427;0.000499997;-0.00196326;0.00687377;0;0.0220276;-0.103561;-0.251699;-0.301927;0.406493;-5.29314;0.000251384;7.25369e-05;-0.000459556;0.000258709;-0.000466881;0.000362795;0.547015;1.82811;0.000424628;0.000483727;0.554122;1.80466;52.4651;97.4651;-0.0039885;0.000250015;0.00180016;-0.00165631;-0.000461174;0.00491025;0.00221619;0;0.0309901;0.000269645;3.18657
150000;151;25.7557;-0.0124671;-0.000483818;-1.87047;24.9255;6.21099;-0.051177;0.0540109;-0.277243;-0.0540187;-0.188886;-0.0348958;0.199534;-11.5975;-0.000385588;0.000651073;0.000545365;0.000880241;-0.000720464;0.000800353;0.707027;1.41437;0.000925701;0.00106714;1.22177;0.818485;105.643;150.643;-0.0026006;-0.000385466;0.00172764;-0.000424493;0.000544086;-0.00134221;0.00778136;0;0.0221383;-0.103828;-0.252139;-0.307564;0.411035;-5.29878;0.000276311;5.16243e-05;-0.000471952;0.000279856;-0.000475497;0.000377676;0.585463;1.70805;0.000440952;0.000503569;0.588553;1.69908;50.5176;95.5176;-0.00417905;0.000274896;0.00178505;-0.0016831;-0.000473545;0.00697849;0.00558471;0;0.0322142;0.000338918;3.19307
151000;152;25.7596;-0.00856924;-0.000332551;-1.86993;24.9285;6.21544;-0.0506345;0.0569699;-0.272792;-0.0538864;-0.1898;-0.0364189;0.200635;-11.599;-0.0002941;0.00054839;8.13799e-05;0.000473276;-0.000685996;0.000579636;3.61391;0.276709;0.000673052;0.000772848;0.689911;1.44946;102.213;147.213;-0.00255111;-0.000294097;0.00164126;-0.000544068;8.01835e-05;-0.00145413;0.00876847;0;0.0207275;-0.103919;-0.253731;-0.311041;0.414639;-5.30226;0.000221828;6.82996e-05;-0.000485396;0.000228363;-0.000491932;0.000360148;0.457003;2.18817;0.000425042;0.000480197;0.464217;2.15416;52.5806;97.5806;-0.00355172;0.000220397;0.00182863;-0.00169328;-0.000487067;0.00392263;0.00694516;0;0.0265479;0.000409836;3.19929
152000;153;25.7583;-0.00990227;-0.000384282;-1.87086;24.9281;6.21136;-0.0515637;0.0565415;-0.276879;-0.0541922;-0.19087;-0.0374908;0.201925;-11.6001;-0.000577985;0.00050035;0.000133288;0.000391514;-0.000836211;0.000613862;4.33637;0.230607;0.000724161;0.000818483;0.4682;2.13584;114.333;159.333;-0.00257282;-0.000577956;0.00144195;-0.000440584;0.000132373;-0.00241257;0.00653834;0;0.0211168;-0.104505;-0.255197;-0.316088;0.419474;-5.3073;0.000458317;4.81028e-05;-0.000138754;0.000462168;-0.000142605;0.000302386;3.30309;0.302747;0.000365052;0.000403182;3.2409;0.308556;46.9872;91.9872;-0.0041262;0.000456817;0.00182822;-0.00173308;-0.000140424;0.00420718;0.005148;0;0.0276802;0.00050287;3.20291
153000;154;25.7595;-0.00866442;-0.000336245;-1.86957;24.9296;6.21088;-0.0502774;0.058035;-0.277352;-0.0541225;-0.192137;-0.037933;0.203186;-11.6005;-0.000350168;0.000739543;-0.00051713;0.00031059;-0.00117789;0.000744239;-0.677138;-1.4768;0.000906698;0.000992319;0.263684;3.79242;97.5335;142.534;-0.00309515;-0.000349959;0.00183791;-0.000359006;-0.000518546;-4.30678e-06;0.00688207;0;0.0218273;-0.104495;-0.257385;-0.320083;0.423815;-5.3113;0.000392337;2.23128e-05;-0.000487192;0.000392903;-0.000487758;0.00044033;0.805303;1.24177;0.000509432;0.000587107;0.805528;1.24142;47.1817;92.1817;-0.00424093;0.000390758;0.00182035;-0.00177731;-0.000488849;0.00409422;0.00842786;0;0.0265765;0.00111116;3.21459
154000;155;25.7635;-0.00467678;-0.000181494;-1.87045;24.9321;6.21684;-0.0511616;0.0606054;-0.271399;-0.0539346;-0.192995;-0.0390781;0.204164;-11.6017;-0.000400196;0.000584487;-0.000244778;0.000267143;-0.000912117;0.00058963;-1.63493;-0.611647;0.000713984;0.000786173;0.292882;3.41434;103.006;148.006;-0.00290974;-0.000400097;0.00155007;-0.000380946;-0.000245809;-6.95088e-05;0.00767495;0;0.0241611;-0.104452;-0.259629;-0.322537;0.427022;-5.31375;0.000358832;-9.05344e-05;-0.000440469;0.000368959;-0.000450596;0.000409777;0.814659;1.22751;0.000473952;0.000546369;0.818824;1.22126;39.1864;84.1864;-0.00348312;0.000356733;0.00186865;-0.00205128;-0.000442212;0.00164647;0.00917728;0;0.0279061;0.00123874;3.21611
155000;156;25.7662;-0.00200685;-7.78808e-05;-1.8705;24.9356;6.21394;-0.0512083;0.0640818;-0.274292;-0.0545203;-0.194026;-0.039363;0.205348;-11.602;-0.0003346;0.000863832;0.000446384;0.00100388;-0.0008921;0.000947992;0.749579;1.33408;0.00109528;0.00126399;1.1253;0.888649;100.63;145.63;-0.00331363;-0.000334245;0.0019186;-0.000190113;0.000444917;0.000968006;0.00556671;0;0.0253287;-0.104902;-0.261355;-0.326788;0.431395;-5.318;0.000373786;0.000114883;-0.000345893;0.00039168;-0.000363787;0.000377734;1.08064;0.925377;0.000436268;0.000503645;1.07667;0.928786;53.5975;98.5975;-0.00390692;0.000372487;0.00184493;-0.00161641;-0.000347589;0.00477773;0.00742065;0;0.0279772;0.00138843;3.22233
156000;157;25.7606;-0.00759339;-0.000294681;-1.87026;24.9335;6.19924;-0.0509683;0.0619874;-0.288995;-0.0548632;-0.194912;-0.0415144;0.206698;-11.6041;-0.000398093;0.000266627;-0.000102165;5.48026e-05;-0.000555061;0.000304932;-3.89655;-0.256637;0.000389595;0.000406576;0.0987327;10.1284;112.613;157.613;-0.00269229;-0.000398233;0.00112633;-0.00059282;-0.000102764;-0.000536773;0.00608208;0;0.0223663;-0.105404;-0.263512;-0.333168;0.437664;-5.32438;0.000521227;-2.74806e-05;-0.000345354;0.000522097;-0.000346224;0.000434161;1.50926;0.662578;0.000504742;0.000578881;1.50797;0.663141;41.7284;86.7284;-0.00326252;0.000519633;0.00172964;-0.00178612;-0.00034685;0.00291979;0.00654082;0;0.0264973;0.00223049;3.22984
157000;158;25.7641;-0.00411597;-0.000159731;-1.87092;24.9367;6.20056;-0.0516226;0.065204;-0.287679;-0.0545799;-0.195063;-0.0420498;0.206874;-11.6046;-0.0003769;0.000174045;-0.000635265;-0.000289334;-0.000722831;0.000216748;-0.593296;-1.6855;0.000420084;0.000288997;-0.40028;-2.49825;86.2067;131.207;-0.00344109;-0.000377157;0.00108581;-0.000737951;-0.000635839;0.00269879;0.00792962;0;0.0251188;-0.105352;-0.265288;-0.336586;0.441324;-5.3278;0.000442026;-4.99246e-05;-0.00028768;0.000445426;-0.00029108;0.000368253;1.53652;0.650821;0.000428323;0.000491004;1.53025;0.653487;39.779;84.779;-0.00309603;0.000440498;0.00164796;-0.00174905;-0.000289037;0.00269651;0.00471008;0;0.0259927;0.00261652;3.23763
158000;159;25.766;-0.00218483;-8.47877e-05;-1.87137;24.9386;6.20098;-0.0520749;0.0670595;-0.287254;-0.0547957;-0.196664;-0.0401343;0.208063;-11.6027;-0.000431086;0.000478126;-0.000191152;0.000181828;-0.000804067;0.000492947;-2.2552;-0.44342;0.000605819;0.000657263;0.226136;4.42213;105.636;150.636;-0.00286975;-0.00043111;0.0014822;-0.000525709;-0.000192136;-0.00100334;0.00762508;0;0.0228856;-0.105272;-0.267461;-0.337175;0.443063;-5.32839;0.000402296;-0.000180623;-0.000526651;0.00043618;-0.000560535;0.000498358;0.763875;1.30911;0.000576945;0.000664477;0.778149;1.2851;35.3054;80.3054;-0.00281871;0.000400228;0.001679;-0.00204198;-0.000528045;0.00283962;0.00370343;0;0.0271268;0.00296453;3.24516
159000;160;25.7631;-0.00511336;-0.000198437;-1.87154;24.9386;6.18858;-0.0522435;0.0671009;-0.299651;-0.0545162;-0.197022;-0.0424334;0.208783;-11.605;-0.000508428;0.000355976;-2.22855e-05;0.000165692;-0.000696405;0.000431048;-22.8143;-0.0438322;0.000528235;0.000574731;0.237924;4.20302;115.537;160.537;-0.00227638;-0.000508502;0.00123646;-0.000524076;-2.29866e-05;0.000325123;0.00898008;0;0.0205617;-0.105278;-0.269346;-0.343564;0.449073;-5.33478;0.000460997;-0.000267286;-0.000540801;0.00052785;-0.000607654;0.000567752;0.852434;1.17311;0.000656123;0.000757002;0.868669;1.15119;31.5772;76.5772;-0.00371264;0.000458954;0.00150354;-0.00203988;-0.000541897;0.00465528;0.00486564;0;0.0284361;0.00320525;3.252
160000;161;25.7621;-0.00606226;-0.000235261;-1.87144;24.9389;6.18376;-0.0521479;0.0673251;-0.304478;-0.0546976;-0.198664;-0.0427756;0.210449;-11.6054;-0.000557175;0.000381796;0.00012563;0.000296403;-0.000727948;0.000512175;4.43505;0.225476;0.000608652;0.0006829;0.407176;2.45594;118.28;163.28;-0.00272024;-0.000557197;0.00119984;-0.000435688;0.000124983;0.000893617;0.0084717;0;0.0210393;-0.105339;-0.272422;-0.346676;0.453315;-5.33789;0.000480128;-0.000162923;-0.000378861;0.000509991;-0.000408724;0.000459358;1.26729;0.789083;0.000531494;0.000612477;1.24776;0.801434;33.7306;78.7306;-0.00261891;0.000478425;0.00152574;-0.00185303;-0.000380012;0.00516672;0.00506399;0;0.0279765;0.00358196;3.25932
161000;162;25.7639;-0.00434392;-0.000168577;-1.87218;24.941;6.18216;-0.0528904;0.0694397;-0.306072;-0.0551451;-0.200278;-0.0424113;0.212016;-11.605;-0.000320195;0.000534417;-4.1708e-05;0.000371308;-0.000733211;0.000552259;-7.67705;-0.130258;0.000649004;0.000736346;0.506414;1.97467;102.93;147.93;-0.00234255;-0.000320121;0.00144147;-0.000372379;-4.26042e-05;-0.00199365;0.00665631;0;0.022483;-0.10565;-0.274771;-0.348866;0.456474;-5.34008;0.000449071;-8.34426e-05;-0.00027791;0.000458525;-0.000287364;0.000372945;1.61589;0.618855;0.000434402;0.00049726;1.59562;0.626714;37.0283;82.0283;-0.00231259;0.000447569;0.00156703;-0.00173511;-0.000279134;0.00389369;0.00585804;0;0.0315979;0.00387751;3.26713
162000;163;25.7621;-0.00610319;-0.00023685;-1.87185;24.9405;6.17663;-0.0525613;0.0690173;-0.311603;-0.0554236;-0.20048;-0.0433389;0.212467;-11.6059;-0.000573603;0.000189641;0.000212357;0.000255722;-0.000616968;0.000436345;2.70113;0.370216;0.000518037;0.000581793;0.414482;2.41265;127.174;172.174;-0.00366047;-0.000573922;0.00120014;-0.00082006;0.000211655;0.00086466;0.00732288;0;0.0232855;-0.106053;-0.275747;-0.353717;0.460868;-5.34493;0.00049757;-9.0857e-05;-0.000209755;0.000509054;-0.000221239;0.000365147;2.37215;0.421558;0.000432412;0.000486862;2.30093;0.434608;35.108;80.108;-0.00296382;0.000496241;0.00145065;-0.00163345;-0.000210803;0.00543812;0.00388714;0;0.0327848;0.0038585;3.2722
163000;164;25.763;-0.00518916;-0.000201379;-1.87187;24.9416;6.176;-0.0525813;0.0701155;-0.312231;-0.055116;-0.201555;-0.0441551;0.213569;-11.6067;-0.000422338;0.0003311;0.000217819;0.000358259;-0.000562778;0.000460519;1.93894;0.515746;0.000536113;0.000614025;0.636591;1.57087;115.729;160.729;-0.00272044;-0.000422384;0.0011133;-0.000450602;0.000217254;0.00131436;0.00898061;0;0.0214427;-0.105661;-0.277975;-0.355761;0.463681;-5.34698;0.000399924;-0.000128085;-0.000272706;0.000423489;-0.000296271;0.00035988;1.4665;0.681896;0.000417712;0.00047984;1.42939;0.699597;33.4635;78.4635;-0.00291556;0.000398307;0.00154564;-0.00180294;-0.000273893;0.00455907;0.00364453;0;0.0337649;0.00393764;3.28084
164000;165;25.7624;-0.00580039;-0.000225099;-1.87219;24.9423;6.17076;-0.0529008;0.0707572;-0.317471;-0.0556552;-0.20302;-0.0430474;0.214867;-11.6056;-0.000415112;0.000659762;0.000491303;0.000838523;-0.000762331;0.000800427;0.844919;1.18355;0.000924602;0.00106724;1.09995;0.909136;106.027;151.027;-0.00333143;-0.000414924;0.00156709;-0.000246744;0.000490293;0.00235145;0.00646622;0;0.0233495;-0.106311;-0.279946;-0.359239;0.46768;-5.35045;0.000475636;-0.000148487;-0.000326708;0.000502235;-0.000353306;0.000427771;1.45584;0.686887;0.000496435;0.000570361;1.42153;0.703469;33.4465;78.4465;-0.00305228;0.000474206;0.00140035;-0.00169857;-0.000327678;0.00625187;0.00435281;0;0.0365046;0.00408313;3.28798
165000;166;25.7615;-0.00672324;-0.000260912;-1.87069;24.9423;6.16741;-0.0513935;0.0707477;-0.320829;-0.0552013;-0.2035;-0.0437267;0.215341;-11.6063;-0.00054638;0.000396065;0.000873769;0.000976758;-0.00064937;0.000813064;0.625314;1.5992;0.000945167;0.00108409;1.50416;0.664821;115.629;160.629;-0.00319364;-0.000546467;0.00136846;-0.000574952;0.000872911;0.0010523;0.00690912;0;0.0217644;-0.105812;-0.280988;-0.361866;0.47021;-5.35308;0.000443711;6.89424e-06;-0.000298847;0.000443775;-0.000298911;0.000371343;1.48474;0.673517;0.0004315;0.000495124;1.48464;0.673564;44.0839;89.0839;-0.00302283;0.000442665;0.00145909;-0.00144638;-0.000299912;0.0062711;0.00366602;0;0.0348749;0.00407345;3.2892
166000;167;25.7618;-0.00644513;-0.00025012;-1.87154;24.9428;6.16603;-0.0522437;0.0713117;-0.322207;-0.0556472;-0.204256;-0.0449779;0.216426;-11.6076;-0.000409145;0.000411919;0.000818031;0.000943474;-0.000534588;0.000739031;0.500158;1.99937;0.000864176;0.000985375;1.76486;0.566617;111.66;156.66;-0.00232096;-0.00040918;0.00131394;-0.000489001;0.000817253;-0.000477618;0.00898806;0;0.0229402;-0.106356;-0.282493;-0.365706;0.474189;-5.35692;0.000524632;-0.000176881;-0.000233281;0.00056388;-0.000272529;0.000418204;2.24893;0.444656;0.00049257;0.000557606;2.06907;0.48331;29.9915;74.9915;-0.00392256;0.000522918;0.00150538;-0.00186042;-0.000234399;0.00824803;0.00337529;0;0.0375564;0.00406431;3.2965
167000;168;25.7636;-0.00455317;-0.000176697;-1.87226;24.945;6.16497;-0.0529629;0.0734737;-0.323266;-0.0551715;-0.205064;-0.0457908;0.217237;-11.6084;-0.000467228;0.000487857;0.000807533;0.000972809;-0.000632505;0.000802657;0.578587;1.72835;0.000933744;0.00107021;1.53803;0.650184;111.291;156.291;-0.00243139;-0.000467225;0.00145747;-0.000480518;0.000806591;-0.00118516;0.00941032;0;0.0232898;-0.105811;-0.283888;-0.369522;0.477844;-5.36074;0.000577151;-0.000161043;-0.000214456;0.000608659;-0.000245964;0.000427312;2.69123;0.371578;0.000508013;0.000569749;2.47458;0.404109;30.7044;75.7044;-0.00387271;0.000575585;0.00145399;-0.00177735;-0.000215501;0.00823837;0.0049076;0;0.0388522;0.00419847;3.3045
168000;169;25.7613;-0.00686553;-0.000266434;-1.87124;24.944;6.15958;-0.0519489;0.0724928;-0.328655;-0.054812;-0.20615;-0.0442329;0.21785;-11.6068;-0.000502372;0.000497491;-0.000148675;0.000202466;-0.000853513;0.000527989;-3.37901;-0.295945;0.000647142;0.000703986;0.237215;4.21559;109.149;154.149;-0.00338022;-0.000502355;0.0014561;-0.000460776;-0.000149611;0.00135564;0.0106891;0;0.0232068;-0.105565;-0.285689;-0.37012;0.479323;-5.36133;0.00033329;-0.000181931;-0.000245706;0.00038571;-0.000298126;0.000341918;1.35646;0.737215;0.000395891;0.000455891;1.29378;0.772929;28.0738;73.0738;-0.00282103;0.000331876;0.00132664;-0.00169138;-0.00024657;0.00537519;0.00498822;0;0.0349939;0.00470367;3.31138
169000;170;25.7631;-0.00506028;-0.000196377;-1.87303;24.9457;6.15995;-0.0537418;0.0741324;-0.328289;-0.0552452;-0.206584;-0.0472893;0.219009;-11.6099;-0.000587633;0.000330953;0.000928355;0.000997455;-0.000656733;0.000827094;0.632983;1.57982;0.000961775;0.00110279;1.51881;0.658409;118.908;163.908;-0.00397829;-0.000587898;0.0014631;-0.000799483;0.00092734;0.000796462;0.00902979;0;0.0218258;-0.105929;-0.286191;-0.376574;0.4847;-5.36779;0.000675522;-0.000286817;-0.000217482;0.000759707;-0.000301667;0.000530687;3.1061;0.321947;0.000631518;0.000707582;2.51837;0.397083;24.642;69.642;-0.0041977;0.000673708;0.00135181;-0.0019269;-0.000218355;0.00876004;0.00433176;0;0.0356525;0.00472523;3.31812
170000;171;25.7637;-0.00446478;-0.000173267;-1.87202;24.9465;6.15932;-0.0527303;0.0749767;-0.32891;-0.0553407;-0.207202;-0.0477798;0.219723;-11.6104;-0.000187446;0.000655203;9.0131e-05;0.000621083;-0.000718398;0.000669741;2.0797;0.480838;0.00077403;0.000892988;0.864539;1.15669;97.5539;142.554;-0.00264854;-0.000187256;0.00153302;-0.000222373;8.91706e-05;-0.000159359;0.0109488;0;0.0227008;-0.105982;-0.28793;-0.379837;0.488274;-5.37105;0.000656071;-0.000282252;-0.000172307;0.0007431;-0.000259335;0.000501217;3.80757;0.262635;0.000600801;0.00066829;2.8654;0.348991;23.6521;68.6521;-0.00402479;0.000654258;0.00136005;-0.00192592;-0.000173192;0.00870526;0.00528894;0;0.0394786;0.00503066;3.32462
171000;172;25.7633;-0.00484942;-0.000188194;-1.87092;24.9469;6.15626;-0.051625;0.0754176;-0.33197;-0.055001;-0.208527;-0.0467435;0.220666;-11.6093;-0.000347604;-0.000225503;0.000546294;0.00059996;-0.00040127;0.000500615;0.636295;1.5716;0.000581842;0.000667486;1.49515;0.668828;145.389;10.3892;-0.00339758;-0.00034827;0.000725421;-0.00117558;0.000546056;0.00111038;0.00916824;0;0.0247502;-0.105701;-0.290089;-0.38096;0.490362;-5.37217;0.000609616;-0.000214864;-1.74081e-05;0.000676178;-8.39701e-05;0.000380074;35.019;0.0285559;0.000481224;0.000506765;8.0526;0.124183;22.3462;67.3462;-0.0037174;0.000608088;0.00133143;-0.00176213;-1.82714e-05;0.00654394;0.00469781;0;0.0375349;0.00617668;3.33266
172000;173;25.7615;-0.00669303;-0.00025974;-1.87133;24.9466;6.14976;-0.0520384;0.0750882;-0.338479;-0.0549868;-0.209021;-0.046825;0.221147;-11.6094;-0.000454466;0.000167348;0.000337206;0.000371127;-0.000488388;0.000429758;1.34774;0.741982;0.000497778;0.00057301;0.759903;1.31596;125.458;170.458;-0.00293906;-0.000454699;0.00103697;-0.000701585;0.000336682;-0.000245875;0.0104931;0;0.0252449;-0.105873;-0.290825;-0.384412;0.493519;-5.37563;0.000650384;-0.000308073;-0.000181516;0.000752046;-0.000283179;0.000517613;3.58307;0.27909;0.000617784;0.00069015;2.65573;0.376544;22.8806;67.8806;-0.00381373;0.000648328;0.00143369;-0.00205129;-0.000182496;0.00781492;0.00519842;0;0.0382837;0.00671715;3.33876
173000;174;25.7682;8.41355e-06;3.26509e-07;-1.87714;24.9462;6.17779;-0.0578485;0.0746455;-0.310442;-0.0550795;-0.209941;-0.0470375;0.222084;-11.6096;-0.000523104;0.000173028;0.00138431;0.00139988;-0.000538673;0.000969277;0.377881;2.64634;0.00115545;0.00129237;2.59876;0.3848;118.322;163.322;-0.0024506;-0.000523441;0.00118653;-0.000838543;0.00138362;-0.000111113;0.00900824;0;0.0269329;-0.105934;-0.29243;-0.387634;0.496988;-5.37885;0.00051024;-0.000231924;-0.000217285;0.000577884;-0.00028493;0.000431407;2.34825;0.425849;0.000507627;0.000575209;2.02816;0.493057;25.9294;70.9294;-0.00362575;0.000508767;0.0012675;-0.00173244;-0.000218062;0.00725253;0.00758385;0;0.040209;0.00721705;3.34561
174000;175;25.7643;-0.00390359;-0.000151489;-1.87191;24.9496;6.14904;-0.0526167;0.0781018;-0.339195;-0.0553899;-0.210981;-0.0476097;0.223266;-11.6102;-0.000455759;0.0003018;0.000910251;0.000973959;-0.000519466;0.000746712;0.500696;1.99722;0.000875437;0.000995617;1.87492;0.533355;116.114;161.114;-0.00358199;-0.000455903;0.00122036;-0.000615508;0.000909553;0.000700856;0.0103652;0;0.0233078;-0.106106;-0.294196;-0.392599;0.50194;-5.38381;0.000548909;-0.000171458;-0.000153516;0.000588527;-0.000193134;0.000390831;3.57557;0.279675;0.000470144;0.000521107;3.04725;0.328165;28.5178;73.5178;-0.00436189;0.000547293;0.00146267;-0.00180674;-0.000154572;0.00772648;0.00823453;0;0.0344658;0.00748756;3.35397
175000;176;25.7629;-0.00528449;-0.000205078;-1.87115;24.9496;6.14362;-0.0518561;0.0780691;-0.344619;-0.0550632;-0.211442;-0.048042;0.223714;-11.6106;-0.000565262;-0.000309297;0.00104121;0.0010987;-0.000622754;0.000860727;0.54289;1.84199;0.00100646;0.00114764;1.76426;0.566809;137.501;2.50114;-0.00374678;-0.00056586;0.000519527;-0.00113679;0.00104112;0.00355719;0.0114966;0;0.0233507;-0.10583;-0.295747;-0.394653;0.504398;-5.38587;0.000590468;-0.000143246;-5.03901e-05;0.000621029;-8.09514e-05;0.00035099;11.7179;0.0853393;0.000443473;0.000467987;7.67163;0.13035;28.042;73.042;-0.003974;0.000589017;0.00142237;-0.00170987;-5.13915e-05;0.00688885;0.00709033;0;0.0317749;0.00776758;3.35451
176000;177;25.7648;-0.00341194;-0.000132409;-1.87054;24.9516;6.14349;-0.051249;0.0800795;-0.344746;-0.0556929;-0.212509;-0.0490492;0.225095;-11.6116;-0.000466233;0.000241145;0.00110737;0.00114349;-0.000502357;0.000822925;0.421028;2.37514;0.000973968;0.00109723;2.27625;0.439318;117.034;162.034;-0.00293236;-0.000466446;0.00118015;-0.000696382;0.0011067;-0.000128283;0.0108681;0;0.0209718;-0.106385;-0.298068;-0.399232;0.509458;-5.39045;0.000594748;-0.000278027;-0.000147868;0.000687303;-0.000240423;0.000463863;4.02214;0.248624;0.000555951;0.000618484;2.85872;0.349807;22.6367;67.6367;-0.00420193;0.000592986;0.00134112;-0.00189837;-0.000148729;0.00784486;0.00929868;0;0.029055;0.00769374;3.36193
177000;178;25.7639;-0.0042652;-0.000165522;-1.87116;24.9527;6.13545;-0.0518718;0.0811293;-0.352783;-0.0549544;-0.213137;-0.0505355;0.225834;-11.6131;-0.000591945;-1.1839e-05;0.00155676;0.00155683;-0.00059201;0.00107442;0.380241;2.62991;0.00128164;0.00143256;2.62973;0.380267;122.372;167.372;-0.00293805;-0.000592452;0.000984784;-0.00100632;0.00155628;0.000855096;0.0104902;0;0.0229123;-0.105889;-0.299925;-0.403816;0.514037;-5.39503;0.000613322;-0.00021281;1.41042e-06;0.000680055;-6.53226e-05;0.000372689;;;0.000476639;0.000496918;10.4107;0.0960549;22.3537;67.3537;-0.00357432;0.00061157;0.0014577;-0.00188435;3.70617e-07;0.00678702;0.00689247;0;0.0282189;0.0079043;3.36938
178000;179;25.7666;-0.001598;-6.20146e-05;-1.87179;24.955;6.13686;-0.0524946;0.0834904;-0.351376;-0.0556306;-0.214136;-0.0506044;0.226958;-11.6132;-0.000470057;0.00022496;0.00123033;0.00125959;-0.000499316;0.000879451;0.382059;2.6174;0.00104665;0.0011726;2.52262;0.396413;116.317;161.317;-0.00291302;-0.000470271;0.00114274;-0.000691265;0.0012297;-4.84622e-05;0.01127;0;0.0215613;-0.106248;-0.302592;-0.406677;0.517916;-5.39789;0.000793415;-0.000278521;-0.000235973;0.000863942;-0.0003065;0.000585221;3.36231;0.297415;0.000700837;0.000780295;2.81873;0.35477;26.0433;71.0433;-0.00456255;0.000791545;0.00139612;-0.00195488;-0.000236909;0.00700556;0.00517405;0;0.0302568;0.00795858;3.37572
179000;180;25.768;-0.000208334;-8.08494e-06;-1.87107;24.9571;6.13438;-0.0517811;0.085588;-0.353854;-0.0552652;-0.215263;-0.0498707;0.22777;-11.6125;-0.000553747;0.000276716;0.00142174;0.00145977;-0.000591776;0.00102577;0.389487;2.56748;0.00121928;0.00136769;2.46675;0.405391;113.25;158.25;-0.00341612;-0.000553858;0.00109997;-0.000544914;0.00142117;0.000870192;0.010772;0;0.0225301;-0.105875;-0.304832;-0.4083;0.520424;-5.39951;0.000604601;-0.000187911;1.78194e-05;0.000659619;-3.71983e-05;0.000348409;-33.9293;-0.029473;0.000452655;0.000464545;17.7325;0.0563936;23.2708;68.2708;-0.00355552;0.000602956;0.0014475;-0.00182428;1.67895e-05;0.00746056;0.00578764;0;0.0284815;0.00801177;3.38278
180000;181;25.7658;-0.00241947;-9.38938e-05;-1.87021;24.9573;6.12456;-0.0509196;0.0857811;-0.363672;-0.0554473;-0.216371;-0.0505472;0.229011;-11.6131;-0.000597911;-9.26571e-06;0.00192194;0.00192197;-0.000597945;0.00125996;0.311098;3.21442;0.00152034;0.00167994;3.21429;0.311111;117.328;162.328;-0.00324872;-0.000598342;0.000912153;-0.000928367;0.00192152;0.000881161;0.0128468;0;0.0234682;-0.106003;-0.306847;-0.413728;0.525892;-5.40494;0.000651432;-0.000352978;-7.89814e-05;0.000794133;-0.000221682;0.000507907;8.24792;0.121243;0.000616742;0.00067721;3.58231;0.27915;17.928;62.928;-0.00376715;0.000649565;0.00125787;-0.001965;-7.97103e-05;0.00642449;0.00485467;0;0.0294041;0.00822928;3.39022
181000;182;25.7639;-0.00429571;-0.000166706;-1.87038;24.9574;6.11636;-0.0510847;0.085844;-0.371878;-0.0552974;-0.217976;-0.0492131;0.230202;-11.6118;-0.000579125;7.05076e-05;0.00195205;0.00195401;-0.000581087;0.00126755;0.296676;3.37068;0.00153352;0.00169006;3.36268;0.297382;114.13;159.13;-0.00258062;-0.000579435;0.000934045;-0.000790848;0.00195161;7.92996e-05;0.0123204;0;0.0221772;-0.105623;-0.309339;-0.414649;0.527997;-5.40586;0.000491745;-0.000215637;-5.49941e-05;0.000566557;-0.000129806;0.000348182;8.94179;0.111834;0.000427592;0.000464242;4.36465;0.229114;21.4533;66.4533;-0.0028687;0.000490442;0.00119701;-0.00162905;-5.56873e-05;0.00686145;0.00545602;0;0.0293827;0.00859246;3.39752
182000;183;25.7646;-0.00360367;-0.000139849;-1.8704;24.9592;6.11184;-0.0511106;0.0876623;-0.376392;-0.0550956;-0.217788;-0.0524052;0.23068;-11.615;-0.000489268;0.00037018;0.0015109;0.00157722;-0.000555581;0.0010664;0.323825;3.08809;0.00127759;0.00142187;2.83886;0.352254;107.92;152.92;-0.00323904;-0.000489277;0.00113343;-0.000391548;0.00151033;0.00119591;0.0127325;0;0.0266237;-0.105404;-0.310402;-0.422372;0.534656;-5.41359;0.00072685;-0.000300444;-0.00030272;0.000808111;-0.000383981;0.000596046;2.40106;0.416482;0.000702625;0.000794728;2.10456;0.475159;25.4888;70.4888;-0.00461997;0.000725477;0.00108263;-0.00168495;-0.000303261;0.00840044;0.00559993;0;0.0305974;0.00887028;3.40519
183000;184;25.7651;-0.00311908;-0.000121044;-1.87186;24.96;6.11011;-0.0525649;0.0884785;-0.378128;-0.0562391;-0.217617;-0.0527581;0.230875;-11.6154;-0.000515018;6.35021e-05;0.00118821;0.00119058;-0.000517382;0.000853979;0.43344;2.30713;0.0010113;0.00113864;2.30115;0.434565;122.32;167.32;-0.00299898;-0.000515344;0.000938044;-0.000809552;0.00118777;-0.000488834;0.0125069;0;0.0219051;-0.106555;-0.311819;-0.423455;0.536563;-5.41467;0.000622609;-0.000369343;1.23974e-05;0.000796569;-0.000161563;0.000479066;-50.221;-0.019912;0.000592291;0.000638754;4.9304;0.202823;13.873;58.873;-0.00330585;0.000620885;0.00115426;-0.00189387;1.17994e-05;0.00751509;0.00552987;0;0.0289549;0.0095398;3.41233
184000;185;25.767;-0.00121499;-4.71508e-05;-1.87181;24.9622;6.10933;-0.0525151;0.0906372;-0.378902;-0.0555578;-0.217487;-0.0563727;0.231441;-11.619;-0.000629655;0.000470826;0.00140161;0.00150544;-0.00073348;0.00111946;0.449235;2.226;0.001318;0.00149261;2.05246;0.48722;110.39;155.39;-0.00330006;-0.000629617;0.00132579;-0.000382399;0.00140085;0.00172424;0.0108204;0;0.0302541;-0.105985;-0.312732;-0.432359;0.54403;-5.42357;0.000655994;-0.000104785;-8.55291e-05;0.000670517;-0.000100052;0.000385284;7.66984;0.130381;0.000483823;0.000513712;6.7017;0.149216;30.6609;75.6609;-0.00294233;0.000655083;0.00114423;-0.00135473;-8.61783e-05;0.00656397;0.00526781;0;0.0370877;0.010414;3.42046
185000;186;25.7661;-0.00206413;-8.01037e-05;-1.87268;24.9623;6.10486;-0.0533906;0.090789;-0.383373;-0.05522;-0.219457;-0.0542118;0.232701;-11.6168;-0.000355863;0.000618895;0.00191691;0.00207451;-0.000513464;0.00129399;0.185644;5.38666;0.00158218;0.00172532;4.04023;0.247511;97.1986;142.199;-0.00293355;-0.000355677;0.00134764;-0.000108194;0.0019162;0.000789516;0.012499;0;0.0237473;-0.105917;-0.316652;-0.42882;0.543483;-5.42003;0.000447479;-3.80728e-05;-4.57754e-05;0.000450401;-4.86968e-05;0.000249549;9.77555;0.102296;0.000317746;0.000332732;9.24909;0.108119;35.7254;80.7254;-0.00266421;0.00044675;0.00113188;-0.0012086;-4.64152e-05;0.00750828;0.00529276;0;0.0358644;0.0104939;3.42633
186000;187;25.7635;-0.00468473;-0.000181803;-1.87128;24.9612;6.09884;-0.0519907;0.0896618;-0.389398;-0.0558207;-0.222067;-0.0492392;0.23421;-11.6118;-0.000389688;0.000141986;0.00192223;0.00193092;-0.000398376;0.00116465;0.202727;4.93274;0.00143858;0.00155286;4.84698;0.206314;110.216;155.216;-0.00358414;-0.000389918;0.000978282;-0.00069238;0.00192176;0.00176851;0.0126828;0;0.0207484;-0.105901;-0.318572;-0.429733;0.54532;-5.42095;0.000628372;-0.000154882;-0.000156634;0.000657825;-0.000186088;0.000421956;4.01171;0.24927;0.000511979;0.000562609;3.53503;0.282883;28.9314;73.9314;-0.00313121;0.000627376;0.00110918;-0.00141993;-0.000157238;0.00702994;0.00502826;0;0.0376022;0.0107163;3.42764
187000;188;25.764;-0.00422264;-0.00016387;-1.87075;24.9629;6.09386;-0.0514618;0.091395;-0.39438;-0.0556912;-0.220856;-0.0551451;0.23435;-11.6177;-0.000385466;0.000318326;0.00192277;0.00196586;-0.000428562;0.00119721;0.200475;4.98816;0.00147434;0.00159628;4.58711;0.218002;99.5864;144.586;-0.00255921;-0.000385438;0.000849551;-0.000211675;0.00192246;0.000826237;0.0131115;0;0.0305692;-0.106041;-0.318612;-0.439943;0.553452;-5.43116;0.000503753;-0.0002196;-2.52758e-05;0.000583029;-0.000104552;0.00034379;19.9303;0.050175;0.000427816;0.000458387;5.57646;0.179325;20.0395;65.0395;-0.00388697;0.000502573;0.00111206;-0.00155196;-2.587e-05;0.0106182;0.0048332;0;0.0451841;0.0109052;3.43595
188000;189;25.7609;-0.00727883;-0.000282473;-1.87177;24.9614;6.0867;-0.0524765;0.0899103;-0.401534;-0.0557777;-0.222902;-0.0516885;0.235517;-11.6143;-0.000297717;0.000342983;0.00198234;0.00203282;-0.000348194;0.00119051;0.150185;6.65846;0.00148495;0.00158734;5.83818;0.171286;103.17;148.17;-0.00211662;-0.000297758;0.00113262;-0.000444854;0.00198176;-0.000662609;0.0120451;0;0.0225144;-0.106029;-0.321202;-0.43895;0.554157;-5.43016;0.000568089;-0.000249915;7.88937e-05;0.000673185;-2.62023e-05;0.000349693;-7.20069;-0.138876;0.000457774;0.000466258;25.6919;0.0389228;15.0038;60.0038;-0.0030565;0.000566972;0.00101538;-0.00151583;7.84095e-05;0.00837313;0.0048634;0;0.0381514;0.0110192;3.44205
189000;190;25.7668;-0.0014492;-5.62398e-05;-1.87152;24.9668;6.08952;-0.052225;0.0952584;-0.398716;-0.056013;-0.22272;-0.0540725;0.235935;-11.6167;-0.000355456;0.000404681;0.00194478;0.0020139;-0.000424575;0.00121923;0.182775;5.47121;0.00150423;0.00162565;4.74332;0.210823;97.0371;142.037;-0.00218473;-0.000355381;0.000930955;-0.000120386;0.00194443;-0.000274431;0.0125267;0;0.0245417;-0.106281;-0.321296;-0.445295;0.559298;-5.43651;0.000527373;-0.000209268;-2.91548e-05;0.000597281;-9.90633e-05;0.000348172;18.0887;0.055283;0.000434985;0.00046423;6.02929;0.165857;20.7751;65.7751;-0.00403309;0.000526362;0.00101828;-0.0014375;-2.96513e-05;0.0101856;0.0040229;0;0.0423001;0.0111245;3.44878
190000;191;25.7633;-0.00492436;-0.000191102;-1.87105;24.965;6.08216;-0.0517532;0.093502;-0.406078;-0.0562555;-0.224044;-0.0523667;0.23686;-11.615;-0.000640219;-1.59148e-05;0.00190301;0.00190311;-0.000640319;0.00127171;0.336425;2.97243;0.00152759;0.00169562;2.97212;0.33646;115.377;160.377;-0.00225936;-0.000640515;0.0007393;-0.000769213;0.00190273;-0.00117479;0.0115748;0;0.0209476;-0.106313;-0.322986;-0.446405;0.56116;-5.43762;0.000612387;-0.000355423;6.70724e-05;0.000787689;-0.00010823;0.000447959;-9.13024;-0.109526;0.000564671;0.000597279;7.27795;0.137401;11.3334;56.3334;-0.00401478;0.000611102;0.000931225;-0.00164277;6.6702e-05;0.00956064;0.0048438;0;0.0407033;0.0114751;3.4554
191000;192;25.761;-0.00723189;-0.000280652;-1.87231;24.9646;6.07391;-0.0530151;0.093034;-0.414325;-0.0559577;-0.223935;-0.0564654;0.237627;-11.6191;-0.00033605;0.000544849;0.00201678;0.00213683;-0.000456097;0.00129646;0.166627;6.00143;0.00159842;0.00172862;4.68503;0.213446;96.8625;141.863;-0.00134466;-0.000335909;0.00121666;-0.000125384;0.00201619;-0.00151261;0.0149072;0;0.0243858;-0.106013;-0.324021;-0.453424;0.567293;-5.44464;0.000547823;-0.000305931;0.000181532;0.00072124;8.11584e-06;0.000356562;-3.01778;-0.33137;0.000478144;0.000475416;;;7.55689;52.5569;-0.00432357;0.000546593;0.000986596;-0.00159893;0.000181092;0.0121337;0.006591;0;0.0422702;0.0118006;3.46308
192000;193;25.7614;-0.00683971;-0.000265432;-1.87135;24.9651;6.07348;-0.0520603;0.0936147;-0.414755;-0.0566284;-0.223886;-0.0594741;0.238472;-11.6221;-0.000395935;0.000378255;0.00204889;0.00210607;-0.000453119;0.0012796;0.193244;5.17481;0.00157694;0.00170613;4.64794;0.215149;95.0428;140.043;-0.0018701;-0.000395864;0.000805374;-4.78225e-05;0.00204863;-0.00199885;0.0119692;0;0.0238373;-0.106558;-0.32449;-0.458797;0.571964;-5.45001;0.000564314;-0.000377163;0.000249914;0.000815726;-1.49833e-06;0.000408612;-2.25804;-0.442863;0.000544318;0.000544816;;;2.48907;47.4891;-0.00416105;0.000563008;0.000905404;-0.00166013;0.000249575;0.0104108;0.00448342;0;0.0428795;0.0126627;3.47051
193000;194;25.7605;-0.00765877;-0.000297218;-1.87237;24.9648;6.0713;-0.0530795;0.0932234;-0.416935;-0.0566266;-0.225168;-0.0567708;0.239019;-11.6194;-0.000504934;0.000351738;0.00258491;0.00262444;-0.000544469;0.00158446;0.195339;5.1193;0.00195654;0.00211261;4.82019;0.207461;96.8521;141.852;-0.00218871;-0.000504886;0.000872355;-0.000167274;0.00258459;-0.00170036;0.0110863;0;0.020544;-0.106605;-0.326063;-0.459295;0.573266;-5.45051;0.000586292;-0.000347033;0.000327277;0.000827195;8.63741e-05;0.00037041;-1.79142;-0.558215;0.000525045;0.00049388;-9.57688;-0.104418;0.64187;45.6419;-0.00430121;0.000584969;0.000968989;-0.00166339;0.000326868;0.011423;0.00572929;0;0.0399547;0.0133059;3.47816
194000;195;25.7606;-0.00760599;-0.00029517;-1.87356;24.9611;6.08627;-0.0542701;0.0895423;-0.401961;-0.0569971;-0.226989;-0.0538363;0.240148;-11.6164;-0.000481333;0.000582723;0.00194641;0.00207903;-0.000613957;0.00134649;0.247293;4.04379;0.00162969;0.00179533;3.38628;0.295309;94.8442;139.844;-0.00165225;-0.000481165;0.00110311;6.3599e-05;0.00194597;-0.00191725;0.0142007;0;0.0246568;-0.106779;-0.327826;-0.460823;0.575525;-5.45204;0.000753288;-0.000263087;0.000294223;0.000872897;0.000174613;0.000349142;-2.56026;-0.390585;0.000533342;0.000465523;-4.99904;-0.200038;9.32721;54.3272;-0.00489915;0.000752147;0.00100689;-0.00153365;0.00029375;0.0101623;0.00601045;0;0.0445812;0.0138599;3.48484
195000;196;25.7614;-0.00681168;-0.000264345;-1.87343;24.9627;6.0832;-0.0541403;0.0911208;-0.405034;-0.0568719;-0.225263;-0.0566713;0.239144;-11.6193;-0.000359514;0.000718087;0.00180316;0.00201987;-0.000576229;0.00129805;0.19938;5.01554;0.00157421;0.00173073;3.50533;0.28528;93.0186;138.019;-0.00126428;-0.000359263;0.00131697;0.000120497;0.00180255;-0.00109848;0.0145685;0;0.0205595;-0.106584;-0.32742;-0.465621;0.579109;-5.45683;0.000582201;-0.000336155;0.000451905;0.000859463;0.000174643;0.00034241;-1.28833;-0.7762;0.000524543;0.000456547;-4.92126;-0.2032;174.702;39.7023;-0.00488315;0.000580901;0.000974967;-0.00164745;0.000451486;0.0110467;0.00510006;0;0.0386073;0.0142176;3.48797
196000;197;25.7591;-0.00910077;-0.000353178;-1.87346;24.9618;6.0768;-0.0541671;0.0903164;-0.411438;-0.0564752;-0.226264;-0.0592074;0.240605;-11.6218;-0.000432342;0.000505594;0.00223092;0.00232367;-0.000525094;0.00142438;0.193796;5.16008;0.0017506;0.00189918;4.42525;0.225976;91.045;136.045;-0.0013301;-0.000432223;0.000885993;0.000126207;0.00223066;-0.00222968;0.015277;0;0.0223897;-0.106076;-0.329427;-0.471254;0.584684;-5.46247;0.000595099;-0.000280189;0.000681057;0.000921544;0.000354612;0.000283466;-0.873787;-1.14444;0.00053674;0.000377954;-2.59874;-0.384803;161.915;26.9152;-0.00316896;0.000593998;0.000950528;-0.0015108;0.000680645;0.00881547;0.00805334;0;0.0369806;0.0143176;3.49373
197000;198;25.7627;-0.00552092;-0.000214253;-1.87344;24.9649;6.07945;-0.0541496;0.0933666;-0.408788;-0.0572612;-0.227379;-0.0594869;0.241906;-11.6221;-0.000437402;0.000235002;0.00281923;0.0028361;-0.000454273;0.00164519;0.155149;6.4454;0.00205893;0.00219358;6.24317;0.160175;100.308;145.308;-0.00155759;-0.000437463;0.000892469;-0.00042033;0.00281886;-0.00204132;0.0120713;0;0.0212678;-0.10671;-0.331354;-0.475639;0.589419;-5.46685;0.000626032;-0.000261386;0.000503802;0.000833352;0.000296482;0.000268435;-1.24262;-0.804753;0.000487763;0.000357914;-2.8108;-0.35577;174.885;39.8847;-0.00461513;0.000624835;0.00104729;-0.00157022;0.000503288;0.0109194;0.0103627;0;0.0309721;0.0147322;3.50766
198000;199;25.7606;-0.00757332;-0.000293902;-1.87344;24.964;6.07453;-0.0541457;0.0924462;-0.413706;-0.0564188;-0.228027;-0.0587058;0.242128;-11.6213;-0.000442988;0.000285329;0.00259755;0.00262409;-0.000469532;0.00154681;0.170541;5.8637;0.00192509;0.00206242;5.58874;0.178931;99.3462;144.346;-0.00196402;-0.000442998;0.000892095;-0.000319596;0.00259719;-0.00180313;0.0116696;0;0.0215093;-0.105631;-0.332426;-0.477328;0.591191;-5.46854;0.000620641;-0.000367779;0.000600535;0.000978504;0.000242672;0.000367916;-1.03348;-0.967604;0.000588371;0.000490555;-4.03222;-0.248003;169.008;34.0079;-0.00454876;0.00061914;0.00103624;-0.00177182;0.000600066;0.00937888;0.0100824;0;0.0302625;0.0151842;3.51488
199000;200;25.7626;-0.00561245;-0.000217805;-1.87341;24.9652;6.07796;-0.0541138;0.0936363;-0.410272;-0.0566654;-0.228913;-0.0600213;0.243341;-11.6226;-0.000323458;0.000701751;0.00293439;0.00307912;-0.000468187;0.00177365;0.11023;9.07195;0.00222529;0.00236487;6.57669;0.152052;90.4064;135.406;-0.00144944;-0.000323218;0.00128804;0.000117365;0.00293381;-0.00236289;0.0123228;0;0.022696;-0.106011;-0.334005;-0.479839;0.594174;-5.47105;0.000449695;-0.000266767;0.000515979;0.000751655;0.000214019;0.000268818;-0.871537;-1.1474;0.000447174;0.000358424;-3.51209;-0.284731;166.167;31.1669;-0.00389697;0.000448522;0.00102174;-0.00155519;0.000515493;0.00754682;0.0100792;0;0.0304668;0.0158129;3.51557
200000;201;25.763;-0.00519337;-0.000201542;-1.87345;24.9658;6.07729;-0.0541572;0.0942293;-0.410945;-0.0566476;-0.229975;-0.0588083;0.24404;-11.6214;-0.00044188;0.000688637;0.0019475;0.00213176;-0.000626141;0.00137895;0.226896;4.40731;0.0016695;0.0018386;3.40461;0.29372;92.1786;137.179;-0.0017863;-0.000441658;0.00120359;0.000174914;0.00194702;-0.00100592;0.0132597;0;0.0223557;-0.105849;-0.3353;-0.48162;0.596312;-5.47283;0.000573082;-0.000254582;0.000479289;0.000785051;0.00026732;0.000258865;-1.19569;-0.836335;0.000460871;0.000345154;-2.93674;-0.340514;174.213;39.213;-0.00385457;0.0005719;0.00104974;-0.00155903;0.000478771;0.00817167;0.0110322;0;0.0296309;0.0171684;3.52239
201000;202;25.7627;-0.00545999;-0.000211889;-1.87025;24.9715;6.05356;-0.0509607;0.0999584;-0.434675;-0.0567929;-0.231463;-0.0583501;0.245367;-11.6209;-0.000236705;0.00115497;0.00223652;0.002692;-0.000692184;0.00169209;0.105836;9.44855;0.00206444;0.00225612;3.88914;0.257126;82.4718;127.472;-0.0015596;-0.000236233;0.00168764;0.00062362;0.00223577;-0.00262077;0.0133152;0;0.0229915;-0.10564;-0.338001;-0.484626;0.600223;-5.47617;0.000598934;-0.000223232;0.000510884;0.000782441;0.000327377;0.000227532;-1.17235;-0.85299;0.000453743;0.000303376;-2.39003;-0.418405;173.671;38.671;-0.00230487;0.00059786;0.0010365;-0.00148307;0.000510372;0.00938057;0.00751986;0;0.0299766;0.0176544;3.52995
202000;203;25.7618;-0.00639598;-0.000248212;-1.869;24.9721;6.04724;-0.0497112;0.100617;-0.440991;-0.0568887;-0.231885;-0.0599437;0.246171;-11.6225;-0.000202249;0.00110915;0.00144;0.0019989;-0.000761144;0.00138002;0.140451;7.11994;0.00164606;0.00184003;2.62617;0.380782;81.4276;126.428;-0.00082763;-0.000201848;0.00156519;0.000653856;0.00143939;-0.00404375;0.0119801;0;0.022212;-0.105602;-0.339628;-0.4888;0.604503;-5.48034;0.000582319;-0.000315865;0.00044339;0.000836267;0.000189442;0.000323413;-1.31334;-0.76142;0.000506319;0.000431217;-4.41438;-0.226532;174.96;39.9603;-0.00259173;0.000581157;0.000925767;-0.00155767;0.000443011;0.00952555;0.00789989;0;0.0287862;0.0179624;3.53784
203000;204;25.7625;-0.00565584;-0.000219489;-1.86962;24.9727;6.04775;-0.0503236;0.101212;-0.440485;-0.0570576;-0.233455;-0.0576709;0.247149;-11.6203;-0.000301057;0.000739293;0.00204928;0.00226248;-0.00051426;0.00138837;0.146909;6.80694;0.00170578;0.00185116;4.39949;0.227299;90.7079;135.708;-0.000763266;-0.000300797;0.00132112;0.000158827;0.00204868;-0.00358028;0.0145838;0;0.0219297;-0.105559;-0.341986;-0.488071;0.605236;-5.47961;0.000485642;-0.000311245;0.000249603;0.000700492;3.47528e-05;0.00033287;-1.94566;-0.513965;0.000455852;0.000443826;-20.1565;-0.0496119;2.31152;47.3115;-0.00304574;0.000484435;0.00096196;-0.00158475;0.000249189;0.011779;0.00428069;0;0.0311755;0.0180644;3.54502
204000;205;25.7581;-0.0100596;-0.000390386;-1.86871;24.97;6.04077;-0.0494161;0.0984262;-0.447464;-0.0575825;-0.235794;-0.0560359;0.249108;-11.6186;-0.000411085;0.000917627;0.0016926;0.00203661;-0.000755099;0.00139585;0.242872;4.11739;0.00166744;0.00186114;2.69714;0.370762;88.4073;133.407;-0.00163297;-0.000410752;0.00141767;0.000418633;0.00169201;-0.00150447;0.011368;0;0.0221396;-0.105944;-0.345073;-0.490329;0.60887;-5.48154;0.000269163;-0.000260668;0.000226427;0.000509338;-1.37477e-05;0.000261543;-1.18874;-0.841224;0.000344233;0.000348724;37.0488;0.0269914;175.506;40.5062;-0.00296161;0.000268376;0.000760218;-0.0012816;0.000226172;0.00693883;0.00672121;0;0.0274762;0.0188522;3.55205
205000;206;25.7587;-0.00947818;-0.000367825;-1.86783;24.972;6.03515;-0.0485351;0.100452;-0.453089;-0.0570561;-0.235007;-0.0602441;0.249225;-11.6228;-0.000403018;0.000550654;0.00117906;0.00135185;-0.000575806;0.000963827;0.341814;2.92557;0.0011426;0.0012851;2.34775;0.425941;91.0195;136.019;-0.00152086;-0.0004029;0.000842164;0.000259604;0.00117886;-0.00137003;0.0138464;0;0.0252292;-0.104948;-0.345959;-0.498988;0.61619;-5.4902;0.00053108;-0.000244928;0.000225408;0.000666945;8.95427e-05;0.000288701;-2.35608;-0.424434;0.000417992;0.000384935;-7.44835;-0.134258;6.7295;51.7295;-0.00368814;0.000530161;0.000887348;-0.00137755;0.000225045;0.00951625;0.00760751;0;0.0279044;0.0202109;3.55897
206000;207;25.7578;-0.010445;-0.000405344;-1.86825;24.9721;6.03026;-0.0489618;0.100603;-0.457977;-0.0569724;-0.238071;-0.0568117;0.2513;-11.6194;-0.00041795;0.000963083;0.00108873;0.00155811;-0.000887332;0.00122272;0.383888;2.60493;0.00142947;0.0016303;1.75595;0.569492;90.5264;135.526;-0.00153129;-0.00041762;0.00140909;0.000517742;0.0010882;-0.000168299;0.0137846;0;0.0212391;-0.105052;-0.349373;-0.498427;0.617679;-5.48964;0.000398339;-0.000456745;0.000168338;0.000754338;-0.000187662;0.000471;-2.36631;-0.422599;0.000575733;0.000628;4.01966;0.248777;0.0463377;45.0463;-0.0031912;0.000397175;0.00067909;-0.00159284;0.000168211;0.00888357;0.00566848;0;0.0268512;0.0213922;3.56661
207000;208;25.7558;-0.0124016;-0.000481277;-1.86788;24.9718;6.0236;-0.0485905;0.100221;-0.464638;-0.057722;-0.238728;-0.0584504;0.252467;-11.621;-0.000500892;0.000564855;0.00042765;0.000694548;-0.00076779;0.000731169;1.17127;0.853776;0.000844634;0.000974892;0.904606;1.10545;112.902;157.902;-0.00139144;-0.000500761;0.000891671;0.000238342;0.000427412;-0.000483998;0.0136398;0;0.0223984;-0.105425;-0.351031;-0.502975;0.622352;-5.49419;0.000326126;-0.000375401;0.000289519;0.000683669;-6.80243e-05;0.000375847;-1.12644;-0.887752;0.000480063;0.000501129;10.0504;0.0994988;172.241;37.2407;-0.00168734;0.000325342;0.000556408;-0.00130724;0.000289435;0.00648756;0.00900694;0;0.0292278;0.0216311;3.56917
208000;209;25.7574;-0.0107843;-0.000418513;-1.86809;24.9732;6.02432;-0.0487942;0.1017;-0.463917;-0.0570345;-0.239461;-0.0594373;0.253233;-11.622;-0.000522751;0.000559344;0.00128962;0.00144835;-0.000681478;0.00106491;0.405352;2.46699;0.00125594;0.00141988;2.12531;0.47052;98.0494;143.049;-0.00198488;-0.000522604;0.000982618;0.000136836;0.0012893;0.000408613;0.0138245;0;0.0210944;-0.104838;-0.352645;-0.508995;0.628033;-5.50021;0.000397821;-0.000435952;2.58863e-05;0.000685814;-0.000262106;0.00047396;-15.368;-0.0650701;0.000565213;0.000631947;2.61655;0.382183;5.71167;50.7117;-0.00302948;0.000396845;0.000591552;-0.00146384;2.58064e-05;0.00910542;0.00681093;0;0.0295479;0.0219907;3.58035
209000;210;25.7575;-0.0107127;-0.000415732;-1.86772;24.9746;6.01914;-0.048428;0.103049;-0.469092;-0.0573;-0.241489;-0.0585583;0.255008;-11.6212;-0.000571331;0.000658699;0.00104788;0.00128199;-0.000805442;0.00104372;0.545226;1.8341;0.0012156;0.00139162;1.59166;0.628275;96.0226;141.023;-0.00165065;-0.000571179;0.000955176;0.000362702;0.00104764;-0.000384029;0.012173;0;0.0222767;-0.104515;-0.355402;-0.510522;0.630767;-5.50174;0.000383734;-0.000561378;-8.4904e-05;0.000757733;-0.000458903;0.000608318;4.51962;0.221257;0.000709452;0.00081109;1.65118;0.605626;7.20319;52.2032;-0.00273572;0.000382618;0.000472812;-0.00159605;-8.48582e-05;0.0101803;0.0100017;0;0.0343853;0.0225024;3.58378
210000;211;25.7609;-0.00733139;-0.000284513;-1.86894;24.9768;6.02409;-0.0496476;0.105253;-0.464147;-0.0575577;-0.242605;-0.0572818;0.255834;-11.6199;-0.000445778;0.00102205;0.000708215;0.00130489;-0.00104246;0.00117368;0.62944;1.58871;0.00135807;0.0015649;1.25175;0.798883;96.3391;141.339;-0.0015023;-0.000445428;0.00145815;0.000586455;0.000707674;-0.00202947;0.00993542;0;0.0219684;-0.104557;-0.357019;-0.51214;0.632995;-5.50335;0.000240775;-0.000571381;0.000122504;0.000756073;-0.000392794;0.000574433;-1.96546;-0.508788;0.000674261;0.000765911;1.92486;0.519519;178.139;43.1395;-0.0027608;0.000239585;0.000502668;-0.00164556;0.000122541;0.0105313;0.00846697;0;0.0336414;0.0233308;3.58812
211000;212;25.7568;-0.0114372;-0.000443848;-1.86695;24.9756;6.01185;-0.0476527;0.104116;-0.476386;-0.056363;-0.243956;-0.0559142;0.256549;-11.6185;-0.000418614;0.000964319;0.00131639;0.00174599;-0.000848214;0.0012971;0.318002;3.14463;0.00152737;0.00172947;2.05843;0.485807;88.5715;133.572;-0.0015697;-0.000418281;0.00141655;0.00051287;0.00131585;-0.00390411;0.0108079;0;0.0224961;-0.103607;-0.358977;-0.513895;0.635364;-5.50511;0.000340461;-0.000536719;8.51005e-05;0.000764478;-0.000338916;0.000551697;-4.0007;-0.249956;0.000652647;0.000735596;2.25566;0.44333;0.872732;45.8727;-0.0024758;0.000339369;0.000499271;-0.00157297;8.51199e-05;0.00968426;0.00855872;0;0.0368787;0.0249045;3.59639
212000;213;25.7557;-0.0125401;-0.000486649;-1.86726;24.9758;6.0064;-0.0479688;0.104267;-0.481839;-0.0570583;-0.244259;-0.0564951;0.257118;-11.6191;-0.000593985;0.000885004;0.000804365;0.00123305;-0.00102267;0.00112786;0.738452;1.35418;0.00130423;0.00150382;1.20572;0.829383;101.788;146.788;-0.000937122;-0.000593711;0.00128565;0.000484922;0.000803931;-0.00301767;0.0130269;0;0.0217033;-0.103743;-0.359646;-0.52075;0.641318;-5.51196;0.000310227;-0.00063627;0.000309201;0.000945984;-0.000326556;0.00063627;-1.00332;-0.996694;0.000763164;0.000848361;2.89685;0.345203;171.955;36.9547;-0.0032012;0.000308969;0.000436497;-0.00170904;0.000309308;0.0114632;0.00894418;0;0.037018;0.0251831;3.6034
213000;214;25.7615;-0.00667705;-0.00025912;-1.86673;24.98;6.01439;-0.047436;0.108431;-0.473848;-0.0566918;-0.245228;-0.0568116;0.258028;-11.6194;-0.000501864;0.00062537;0.000664642;0.000936533;-0.000773755;0.000855144;0.755088;1.32435;0.000988925;0.00114019;1.21037;0.82619;105.433;150.433;-0.00160965;-0.000501699;0.00100439;0.000246788;0.000664334;-0.00205638;0.0130387;0;0.0225656;-0.103271;-0.361584;-0.521361;0.642826;-5.51258;0.000143746;-0.000643465;-0.000102727;0.00067567;-0.000634651;0.00065516;1.3993;0.714643;0.000756638;0.000873547;1.06463;0.939291;4.89146;49.8915;-0.00327352;0.000142354;0.000501311;-0.00178852;-0.000102646;0.0108407;0.00966345;0;0.0368327;0.0253936;3.61002
214000;215;25.7622;-0.00597075;-0.00023171;-1.87225;24.9754;6.03447;-0.0529619;0.103902;-0.453769;-0.0570327;-0.245963;-0.0584525;0.259167;-11.621;-0.00054664;0.000912385;0.00112977;0.00153053;-0.000947399;0.00123897;0.483848;2.06676;0.00144378;0.00165195;1.61551;0.618999;96.391;141.391;-0.00135361;-0.000546304;0.00142247;0.000403157;0.00112918;-0.00324853;0.0107292;0;0.021601;-0.103292;-0.362325;-0.526854;0.647707;-5.51807;0.000194447;-0.000716336;-5.44612e-05;0.00079706;-0.000657074;0.000727067;3.57038;0.280082;0.00084084;0.000969422;1.21304;0.824372;2.90198;47.902;-0.00338818;0.000193239;0.000278644;-0.00171156;-5.42434e-05;0.00998111;0.0104925;0;0.0374959;0.0262315;3.61732
215000;216;25.7612;-0.00703071;-0.000272844;-1.87181;24.9764;6.02619;-0.0525126;0.104842;-0.462047;-0.0570051;-0.24608;-0.0578299;0.259132;-11.6204;-0.000488628;0.000775952;0.000938165;0.00127883;-0.000829288;0.00105406;0.520833;1.92;0.00122631;0.00140541;1.54208;0.648477;96.634;141.634;-0.00131715;-0.000488397;0.00117656;0.00037591;0.000937774;-0.00153593;0.012398;0;0.0205104;-0.10305;-0.363042;-0.530652;0.651161;-5.52187;0.000375975;-0.000686451;6.87771e-05;0.000925802;-0.000481049;0.000703426;-5.46658;-0.18293;0.000825664;0.000937901;1.92455;0.519603;179.902;44.9024;-0.00428191;0.000374822;0.00029391;-0.00166711;6.89695e-05;0.0134391;0.0105339;0;0.0367118;0.0285593;3.62502
216000;217;25.7655;-0.0026772;-0.000103895;-1.87318;24.9796;6.03117;-0.0538867;0.108027;-0.457067;-0.056845;-0.247042;-0.0586604;0.260196;-11.6213;-0.000570981;0.000810622;0.000349424;0.000821367;-0.00104292;0.000932145;1.63406;0.611972;0.00107888;0.00124286;0.787562;1.26974;115.869;160.869;-0.000875035;-0.000570798;0.00108272;0.000538779;0.000349167;-0.00165829;0.0137032;0;0.0209577;-0.102766;-0.364338;-0.534476;0.654956;-5.52569;0.000254468;-0.000811725;6.6299e-05;0.000977542;-0.000656776;0.000817159;-3.83819;-0.26054;0.000949613;0.00108955;1.4884;0.671864;179.163;44.1625;-0.00407085;0.000252959;0.000293753;-0.00191741;6.65853e-05;0.0126204;0.00964997;0;0.0364376;0.0288728;3.63213
217000;218;25.7659;-0.00226157;-8.77661e-05;-1.87137;24.9806;6.02904;-0.0520803;0.109106;-0.459198;-0.0573408;-0.247631;-0.0586228;0.260856;-11.6212;-0.000670582;0.000675231;0.000315349;0.000658417;-0.00101365;0.000836034;2.12647;0.470262;0.000972603;0.00111471;0.649551;1.53953;120.129;165.129;-0.00101012;-0.000670393;0.00107176;0.000279088;0.000315003;-0.000134816;0.0157637;0;0.0221506;-0.10323;-0.365658;-0.536461;0.657383;-5.52767;0.000246734;-0.00077698;0.000118072;0.000962041;-0.000597235;0.000779638;-2.08968;-0.478541;0.000908424;0.00103952;1.61083;0.6208;177.034;42.0337;-0.00435215;0.000245508;0.000194161;-0.00174824;0.000118355;0.0115796;0.00982454;0;0.0388401;0.0290413;3.63853
218000;219;25.7666;-0.00161739;-6.2767e-05;-1.87191;24.9817;6.02711;-0.0526158;0.110195;-0.461126;-0.0570665;-0.247123;-0.0592747;0.26046;-11.6219;-0.000637967;0.000724425;0.000469058;0.00082723;-0.000996138;0.000911684;1.3601;0.735239;0.00105423;0.00121558;0.830436;1.20419;116.937;161.937;-0.00221521;-0.000637801;0.0010097;0.000439471;0.000468811;0.000775471;0.0118362;0;0.0231391;-0.102554;-0.365532;-0.541053;0.660961;-5.53227;0.000113585;-0.000810201;0.000104039;0.000919027;-0.000701403;0.000810215;-1.09176;-0.915954;0.000938364;0.00108029;1.31027;0.763201;177.159;42.1587;-0.00429023;0.000112208;0.000226801;-0.00184721;0.000104341;0.0116884;0.0117804;0;0.0394238;0.0298481;3.63991
219000;220;25.7574;-0.010781;-0.000418385;-1.86551;24.9818;5.98956;-0.0462172;0.110254;-0.498673;-0.0576617;-0.2478;-0.0591868;0.261214;-11.6218;-0.000620302;0.000323587;-3.03822e-05;0.000112505;-0.000763189;0.000437847;-20.4166;-0.0489798;0.000550142;0.000583795;0.147414;6.78362;139.429;4.42935;-0.00167161;-0.000620255;0.000538835;0.000108466;-3.04751e-05;0.000914827;0.0146859;0;0.02206;-0.103033;-0.367305;-0.544767;0.665056;-5.53598;0.000101481;-0.000827042;0.000139337;0.000947667;-0.00070685;0.000827259;-0.728316;-1.37303;0.000958603;0.00110301;1.34069;0.745884;176.045;41.0446;-0.00419246;0.00010007;0.000218527;-0.00187257;0.000139655;0.0118727;0.0128547;0;0.0348552;0.0324308;3.65481
220000;221;25.7678;-0.000360388;-1.39858e-05;-1.8712;24.9843;6.02197;-0.051912;0.112783;-0.466263;-0.0571717;-0.250042;-0.0550427;0.262334;-11.6176;-0.000547677;0.000695047;0.000615793;0.000940427;-0.000872311;0.000906369;0.889385;1.12437;0.00104683;0.00120849;1.07809;0.927569;106.54;151.54;-0.0020933;-0.00054752;0.000979102;0.000411322;0.000615555;0.00187529;0.0118841;0;0.0220098;-0.101876;-0.369084;-0.545836;0.666737;-5.53705;0.000306954;-0.000811682;0.000169728;0.00105292;-0.000576236;0.000814577;-1.80851;-0.552941;0.000953919;0.0010861;1.82723;0.547275;175.537;40.5372;-0.0041827;0.000305687;0.000163898;-0.0017874;0.000170044;0.0106218;0.0116838;0;0.0322497;0.0327782;3.65828
221000;222;25.7649;-0.00331387;-0.000128603;-1.87196;24.9828;6.01518;-0.0526624;0.111317;-0.473054;-0.0569438;-0.249287;-0.0559037;0.261748;-11.6185;-0.000807925;0.000559864;-8.35737e-05;0.000221048;-0.00111255;0.000666798;-9.66722;-0.103442;0.000825308;0.000889064;0.198687;5.03305;141.502;6.50165;-0.00220723;-0.000807848;0.000721165;0.00039868;-8.3677e-05;0.000587239;0.0120411;0;0.0232025;-0.101646;-0.368827;-0.550029;0.669997;-5.54124;0.000103591;-0.00074856;0.000167947;0.00088502;-0.000613483;0.000749252;-0.616807;-1.62125;0.000869883;0.000999002;1.44262;0.693185;174.93;39.9303;-0.00428803;0.000102323;0.000262475;-0.00175953;0.000168192;0.0120143;0.0123838;0;0.0352023;0.0334622;3.66159
222000;223;25.7601;-0.00811614;-0.000314967;-1.86588;24.9852;5.98685;-0.0465922;0.113623;-0.501381;-0.0573759;-0.249769;-0.0582857;0.262819;-11.6209;-0.000504938;0.000530777;0.000444662;0.000682013;-0.000742289;0.000712151;1.13555;0.880627;0.000822567;0.000949535;0.918797;1.08838;114.12;159.12;-0.00194203;-0.000504832;0.000798123;0.000263685;0.000444484;-0.000371999;0.0117408;0;0.0238679;-0.10179;-0.37064;-0.554807;0.674941;-5.54602;5.6224e-05;-0.000805261;0.000371443;0.00103437;-0.000606706;0.00082054;-0.151367;-6.60648;0.000958142;0.00109405;1.7049;0.586545;168.699;33.6987;-0.00481426;5.48253e-05;0.000246197;-0.00185639;0.000371737;0.012732;0.0131141;0;0.0307102;0.0361658;3.66984
223000;224;25.7587;-0.00951826;-0.00036938;-1.86576;24.985;5.98134;-0.0464723;0.113507;-0.506897;-0.0569031;-0.250384;-0.0572961;0.263084;-11.6199;-0.000598772;0.000339461;0.000524598;0.000619208;-0.000693382;0.000656295;1.14139;0.876123;0.000758228;0.000875061;0.893026;1.11979;123.136;168.136;-0.0019387;-0.000598716;0.000624136;5.51064e-05;0.00052446;0.00133234;0.0109149;0;0.0223072;-0.101359;-0.371505;-0.557368;0.677457;-5.54858;6.55227e-05;-0.000714677;0.0003196;0.000918442;-0.000533319;0.00072588;-0.205015;-4.8777;0.000847948;0.00096784;1.72212;0.580678;169.137;34.1372;-0.00508162;6.4415e-05;0.000222017;-0.00165113;0.000319831;0.0136382;0.01476;0;0.030095;0.0365343;3.67572
224000;225;25.7581;-0.0101049;-0.000392147;-1.86431;24.9852;5.97858;-0.0450127;0.113673;-0.50966;-0.0571942;-0.25141;-0.0537621;0.263379;-11.6164;-0.000697785;0.000903215;8.67715e-05;0.000679217;-0.00129023;0.000984723;8.04164;0.124353;0.00115516;0.00131296;0.526431;1.89959;133.963;178.963;-0.00177885;-0.000697664;0.00104927;0.00075728;8.66289e-05;8.64696e-05;0.0119704;0;0.0235164;-0.101237;-0.3724;-0.557634;0.678149;-5.54885;0.000175685;-0.000704388;0.000328901;0.000960835;-0.000456249;0.000708542;-0.534159;-1.8721;0.000835264;0.000944723;2.10595;0.474846;168.628;33.6285;-0.00414699;0.000174724;0.000146874;-0.00155552;0.000329138;0.0116522;0.0161277;0;0.0321942;0.0368509;3.68337
225000;226;25.7589;-0.00933688;-0.000362341;-1.86468;24.9871;5.97397;-0.0453893;0.115538;-0.514266;-0.0574173;-0.250153;-0.05623;0.262745;-11.6188;-0.000606344;0.000589172;0.000778665;0.000995383;-0.000823062;0.000909223;0.778697;1.2842;0.00105145;0.0012123;1.20937;0.82688;102.353;147.353;-0.00189763;-0.000606251;0.000774945;0.000403657;0.000778538;0.00147086;0.0128359;0;0.0222667;-0.101535;-0.372864;-0.56308;0.682932;-5.55429;0.000226661;-0.000673735;0.000487568;0.00104336;-0.000329134;0.000686248;-0.464882;-2.15109;0.000827403;0.000914998;3.17002;0.315455;163.65;28.6504;-0.00436196;0.000225655;0.000223241;-0.00157048;0.00048777;0.0128834;0.017189;0;0.0300257;0.0392859;3.69032
226000;227;25.7606;-0.00761566;-0.000295545;-1.86506;24.9872;5.98067;-0.0457633;0.115681;-0.507564;-0.0571832;-0.251034;-0.0545582;0.263182;-11.6172;-0.000560249;0.000702831;0.000574886;0.000910703;-0.000896067;0.000903385;0.97454;1.02613;0.00104315;0.00120451;1.01633;0.983928;108.501;153.501;-0.00152077;-0.000560119;0.00092188;0.00048403;0.000574708;-0.000872098;0.0131025;0;0.0232864;-0.100946;-0.373982;-0.565937;0.685811;-5.55748;6.49023e-05;-0.000499876;0.000501989;0.000829007;-0.000262115;0.000545561;-0.12929;-7.73453;0.00065769;0.000727415;3.16276;0.31618;157.968;22.9677;-0.00437656;6.42325e-05;0.000261417;-0.00126084;0.00050208;0.014937;0.0185054;0;0.0320193;0.0397955;3.698
227000;228;25.7547;-0.0135133;-0.000524419;-1.86228;24.9851;5.96508;-0.0429843;0.113535;-0.52315;-0.05708;-0.250945;-0.0579948;0.263809;-11.6206;-0.000510992;0.00059734;0.000426509;0.000717063;-0.000801545;0.000759304;1.19808;0.834669;0.000877221;0.00101241;0.8946;1.11782;120.873;165.873;-0.00154362;-0.000510939;0.000693944;0.000500827;0.000426447;0.000144389;0.0133911;0;0.0215102;-0.100567;-0.375009;-0.571722;0.691094;-5.56294;0.000323402;-0.000504761;0.000646654;0.00101503;-4.49777e-05;0.000530006;-0.500116;-1.99954;0.000692169;0.000706674;22.5675;0.0443115;157.419;22.4186;-0.00365469;0.000322491;0.000432101;-0.00144132;0.000646688;0.0102463;0.0130291;0;0.0299684;0.039959;3.70529
228000;229;25.7578;-0.0104388;-0.000405105;-1.86333;24.9879;5.96605;-0.0440368;0.116395;-0.522185;-0.0569084;-0.252512;-0.0557817;0.264788;-11.6184;-0.000657229;0.000457474;0.000655061;0.000798796;-0.000800964;0.00079988;1.00331;0.996702;0.000923622;0.00106651;0.997294;1.00271;117.773;162.773;-0.00181948;-0.000657174;0.000600288;0.000314846;0.000654986;0.00057665;0.0110496;0;0.0226937;-0.100122;-0.377281;-0.571855;0.692375;-5.56307;9.85239e-06;-0.000568998;0.000624359;0.000963761;-0.00032955;0.000646656;;;0.000776043;0.000862208;2.92448;0.341942;152.737;17.7374;-0.00311564;9.27603e-06;7.75093e-05;-0.00121511;0.000624518;0.0103689;0.0142818;0;0.0292659;0.0424304;3.71283
229000;230;25.7604;-0.00775725;-0.00030104;-1.86326;24.9901;5.96871;-0.0439649;0.11853;-0.519527;-0.0569248;-0.252187;-0.0570955;0.264761;-11.6197;-0.000579762;0.000599777;0.000241578;0.000557807;-0.000895991;0.000726899;2.3999;0.416685;0.000846887;0.000969199;0.622559;1.60627;133.259;178.259;-0.00195382;-0.000579692;0.000731352;0.00046831;0.000241491;0.000177539;0.0118566;0;0.0277431;-0.100345;-0.378467;-0.57561;0.696156;-5.56682;0.000297581;-0.000541552;0.000556216;0.000983676;-0.00012988;0.000556778;-0.53501;-1.86913;0.000703088;0.000742371;7.57374;0.132035;159.957;24.957;-0.00414467;0.000296757;0.000310068;-0.00139295;0.000556314;0.0119233;0.013288;0;0.0286886;0.0434525;3.71977
230000;231;25.7557;-0.0124788;-0.000484271;-1.8635;24.9883;5.95543;-0.0442123;0.116813;-0.532807;-0.0567877;-0.252684;-0.0559411;0.26496;-11.6185;-0.000728007;0.000515362;0.00112772;0.00126124;-0.000861524;0.00106138;0.645556;1.54905;0.0012328;0.00141517;1.46396;0.683079;96.7195;141.72;-0.00168493;-0.00072793;0.000698642;0.000332422;0.00112761;0.00085441;0.0120276;0;0.0253767;-0.0999042;-0.379559;-0.578395;0.698989;-5.56961;0.000174487;-0.0006056;0.00044431;0.000929844;-0.000311047;0.000620446;-0.392714;-2.54638;0.000745531;0.000827261;2.9894;0.334516;163.788;28.7876;-0.00399485;0.0001736;0.00025209;-0.00146306;0.000444461;0.0119609;0.0125851;0;0.0285015;0.0444737;3.72477
231000;232;25.7583;-0.00987214;-0.000383113;-1.86347;24.9907;5.957;-0.0441804;0.119127;-0.531233;-0.057343;-0.253749;-0.0538452;0.265661;-11.6164;-0.000602325;0.000801592;0.0002978;0.000767034;-0.00107156;0.000919296;2.02258;0.494417;0.00106635;0.00122573;0.715811;1.39702;124.776;169.776;-0.00204289;-0.000602197;0.000981554;0.000621792;0.000297639;0.00186001;0.0119527;0;0.0234072;-0.100063;-0.381097;-0.579376;0.700659;-5.57059;0.000167381;-0.000633202;0.000472739;0.000971409;-0.000331289;0.000651349;-0.354067;-2.82432;0.000781794;0.000868465;2.93221;0.341039;163.167;28.1668;-0.00411962;0.000166444;0.000242391;-0.00150853;0.00047291;0.0129561;0.0118377;0;0.0297515;0.0465661;3.72739
232000;233;25.7564;-0.0117638;-0.000456522;-1.86228;24.9903;5.95069;-0.0429835;0.11877;-0.537542;-0.05663;-0.253806;-0.0569613;0.266212;-11.6196;-0.000631409;0.000622864;0.000240062;0.000564475;-0.000955821;0.000760148;2.63019;0.380201;0.000887384;0.00101353;0.590565;1.69329;140.639;5.63877;-0.00221849;-0.000631359;0.000708769;0.000537034;0.000240005;0.00170569;0.0119216;0;0.03381;-0.0991643;-0.38207;-0.587508;0.707797;-5.57872;0.000194706;-0.000783476;0.000595991;0.00120411;-0.000413411;0.00080876;-0.326693;-3.06097;0.000970356;0.00107835;2.91262;0.343334;160.75;25.7503;-0.00342216;0.000193624;0.000100286;-0.00166688;0.000596293;0.0107529;0.0116951;0;0.0305973;0.0475039;3.73624
233000;234;25.7587;-0.00950734;-0.000368957;-1.8639;24.9926;5.95047;-0.0446057;0.121028;-0.537767;-0.0566219;-0.254127;-0.0558987;0.266292;-11.6185;-0.000720364;0.000250661;0.00061961;0.000664964;-0.000765718;0.000715341;1.16261;0.860134;0.000826687;0.000953788;0.868419;1.15152;138.636;3.63563;-0.00161496;-0.000720344;0.000346327;0.000155124;0.000619581;0.0012062;0.0113669;0;0.0234377;-0.0989454;-0.383823;-0.589497;0.710363;-5.58071;0.000195578;-0.000532931;0.000737632;0.00106449;-0.000131284;0.000597889;-0.265143;-3.77156;0.000757227;0.000797185;8.10831;0.12333;147.535;12.5345;-0.00245426;0.00019508;6.55058e-05;-0.00113104;0.000737772;0.00927651;0.0128223;0;0.028438;0.050375;3.7431
234000;235;25.7567;-0.011496;-0.000446133;-1.86259;24.9922;5.94388;-0.043297;0.120644;-0.544358;-0.0575616;-0.255145;-0.0554288;0.267366;-11.618;-0.000690706;0.000275685;0.000588296;0.000645188;-0.000747598;0.000696393;1.17408;0.851731;0.00080485;0.000928524;0.863014;1.15873;140.923;5.92267;-0.00229981;-0.000690688;0.000348404;0.000203059;0.000588273;0.00208541;0.0122513;0;0.0303494;-0.0997013;-0.385168;-0.589421;0.711134;-5.58063;8.8456e-05;-0.000505755;0.000615239;0.000922078;-0.000218383;0.000570231;-0.143775;-6.95531;0.000698979;0.000760307;4.2223;0.236838;152.029;17.0294;-0.00272525;8.79157e-05;0.000144921;-0.00115609;0.000615356;0.0110692;0.0130629;0;0.0282917;0.0510222;3.74921
235000;236;25.7622;-0.00598964;-0.000232443;-1.86361;24.9964;5.94949;-0.0443191;0.124907;-0.538744;-0.0571871;-0.254805;-0.0558544;0.26705;-11.6184;-0.000731293;0.00062211;-2.58505e-05;0.000336574;-0.00109372;0.000715146;-28.2893;-0.0353491;0.000863485;0.000953527;0.307734;3.24956;146.346;11.3457;-0.00208444;-0.000731266;0.000667658;0.000576594;-2.58799e-05;0.00129215;0.0120171;0;0.0217815;-0.0995688;-0.386063;-0.594419;0.715746;-5.58563;9.29414e-05;-0.000664534;0.000666037;0.00110317;-0.000344192;0.000723681;-0.139544;-7.1662;0.000873093;0.000964909;3.2051;0.312003;155.498;20.4978;-0.00360001;9.21044e-05;0.000125917;-0.00145453;0.00066625;0.0121739;0.0128577;0;0.0317919;0.0531218;3.75685
236000;237;25.7568;-0.0113852;-0.000441832;-1.8627;24.9942;5.9359;-0.0434081;0.122647;-0.552339;-0.0574461;-0.25731;-0.0509253;0.268518;-11.6135;-0.000461348;0.0004396;0.00012473;0.00036001;-0.000696627;0.000528318;3.69876;0.270361;0.000620283;0.000704424;0.51679;1.93502;134.207;179.207;-0.00268898;-0.000461302;0.000558663;0.000320607;0.000124671;0.00321053;0.0122372;0;0.0275137;-0.099142;-0.388532;-0.594388;0.716996;-5.5856;7.96569e-05;-0.000712453;0.000484834;0.00102294;-0.000458451;0.000740697;-0.164297;-6.08653;0.000875736;0.000987595;2.2313;0.448169;162.173;27.1727;-0.00365629;7.87886e-05;7.35586e-05;-0.00149815;0.000485085;0.0134948;0.0135121;0;0.0309029;0.0546904;3.76386
237000;238;25.76;-0.00817048;-0.000317076;-1.86316;24.9969;5.93822;-0.0438666;0.125373;-0.550012;-0.057533;-0.256768;-0.0526965;0.26836;-11.6153;-0.000495251;0.000428962;-0.000157552;0.000134595;-0.000787399;0.000460997;-3.14341;-0.318126;0.000575072;0.000614663;0.170937;5.85011;126.818;171.818;-0.00211427;-0.000495174;0.000682536;0.000175473;-0.000157693;0.000317053;0.0123177;0;0.0226007;-0.0993037;-0.388669;-0.598792;0.720747;-5.59001;0.000200645;-0.000731715;0.000422702;0.00105176;-0.000428417;0.000740091;-0.474673;-2.10671;0.00087948;0.000986787;2.455;0.407332;165.657;30.6572;-0.00340667;0.000199654;0.000123292;-0.00158653;0.000422962;0.0118768;0.0140003;0;0.0312878;0.0566748;3.77121
238000;239;25.7595;-0.00865315;-0.000335807;-1.86276;24.9973;5.93462;-0.0434641;0.125761;-0.553613;-0.0568818;-0.257641;-0.0544847;0.269413;-11.6171;-0.000669322;0.000627072;-7.51035e-05;0.000321684;-0.00106611;0.000693897;-8.91199;-0.112208;0.000838788;0.000925196;0.301737;3.31415;147.629;12.6294;-0.00167346;-0.000669322;0.000627675;0.000626469;-7.51039e-05;0.000187047;0.0138162;0;0.0269439;-0.0988219;-0.391168;-0.600748;0.723655;-5.59196;0.000170246;-0.000654765;0.00021742;0.000849023;-0.000461357;0.00065519;-0.783027;-1.27709;0.000767505;0.000873587;1.84028;0.543397;170.979;35.9794;-0.00319028;0.000169573;2.31422e-05;-0.00133264;0.000217634;0.0121484;0.014083;0;0.0351277;0.0584507;3.77739
239000;240;25.7623;-0.00586175;-0.00022748;-1.86344;24.9995;5.93707;-0.0441463;0.128005;-0.551163;-0.0566359;-0.25837;-0.0556963;0.270305;-11.6183;-0.000347122;0.000674236;-0.000541673;0.00023682;-0.00112561;0.000681217;-0.640834;-1.56047;0.000840545;0.00090829;0.210392;4.75304;121.784;166.784;-0.00229032;-0.000347034;0.000820451;0.000527993;-0.000541782;0.00165683;0.0123903;0;0.0312087;-0.098453;-0.392632;-0.604765;0.727732;-5.59598;8.64422e-05;-0.000569361;0.000187498;0.000708569;-0.000434628;0.000571599;-0.46103;-2.16906;0.000666312;0.000762131;1.63029;0.613389;171.778;36.7783;-0.00319967;8.5821e-05;0.000112942;-0.00125159;0.000187654;0.0124188;0.0138756;0;0.0400739;0.0615472;3.78453
240000;241;25.7626;-0.005564;-0.000215925;-1.86315;25.0001;5.9361;-0.0438584;0.128563;-0.552132;-0.057308;-0.258345;-0.0565007;0.27059;-11.6191;-0.000692419;0.000514472;0.000411058;0.000613705;-0.000895066;0.000754385;1.68448;0.593655;0.000876124;0.00100585;0.685653;1.45846;149.492;14.4918;-0.00235695;-0.000692397;0.00056025;0.000468745;0.000411034;0.00126101;0.012123;0;0.0255652;-0.0991353;-0.393432;-0.607028;0.730137;-5.59824;7.21551e-05;-0.000635011;0.000333556;0.000851177;-0.000445467;0.000648322;-0.216321;-4.62276;0.000760735;0.000864429;1.91075;0.523354;166.193;31.1925;-0.0038086;7.14534e-05;7.4263e-05;-0.0013441;0.000333754;0.0135497;0.0141144;0;0.0352353;0.0625373;3.79103
241000;242;25.7595;-0.00871238;-0.000338106;-1.86315;24.9988;5.92808;-0.043862;0.127223;-0.560158;-0.0572047;-0.259345;-0.0553905;0.271294;-11.618;-0.000697211;0.000335561;0.000288892;0.000392247;-0.000800566;0.000596407;2.4134;0.414353;0.000701992;0.000795209;0.489962;2.04097;174.908;39.9077;-0.00249436;-0.000697245;0.000244409;0.000426623;0.000288918;0.00166505;0.0108449;0;0.0246767;-0.0990825;-0.394543;-0.608432;0.731895;-5.59965;0.000112329;-0.000668498;0.000306671;0.000885023;-0.000466023;0.000675523;-0.366286;-2.7301;0.000792432;0.000900697;1.8991;0.526565;167.423;32.4225;-0.00360116;0.000111629;2.2717e-05;-0.00135958;0.000306894;0.0129377;0.0134466;0;0.0376027;0.0652813;3.7916
242000;243;25.7611;-0.00711925;-0.00027628;-1.86394;25.0005;5.92757;-0.0446507;0.128927;-0.560669;-0.0574297;-0.259989;-0.0561334;0.272109;-11.6187;-0.000510996;-5.37161e-05;0.000504995;0.000507827;-0.000513828;0.000510828;1.01188;0.988257;0.000589856;0.000681103;0.988321;1.01182;139.174;4.17366;-0.00286656;-0.000511003;2.05928e-05;-0.00012795;0.000504996;0.00402396;0.0136932;0;0.0225398;-0.0992136;-0.396321;-0.611218;0.735188;-5.60243;0.000134478;-0.000655367;0.000108301;0.000776887;-0.000534108;0.000655497;-1.24171;-0.805344;0.000761217;0.000873997;1.45455;0.687498;175.298;40.2984;-0.00443467;0.000133837;-2.19955e-06;-0.00130855;0.000108516;0.0134474;0.0136977;0;0.0340702;0.0675779;3.79978
243000;244;25.7615;-0.00670316;-0.000260133;-1.86325;25.0014;5.9258;-0.0439603;0.129825;-0.56243;-0.0571081;-0.261888;-0.0543075;0.273489;-11.6169;-0.000625308;0.000536617;0.000213095;0.00047484;-0.000887053;0.000680947;2.93441;0.340784;0.000798205;0.000907929;0.535301;1.86811;145.157;10.1573;-0.00223283;-0.000625275;0.000602337;0.000470953;0.000213058;0.00208693;0.0118925;0;0.0262031;-0.0990058;-0.398549;-0.612766;0.737648;-5.60398;0.000159419;-0.000628856;0.000142355;0.000779801;-0.000478027;0.000628914;-1.11987;-0.892959;0.000733141;0.000838552;1.63129;0.613012;173.774;38.7739;-0.00407134;0.000158808;1.39378e-05;-0.00127166;0.000142552;0.0132512;0.0139189;0;0.039378;0.070141;3.80842
244000;245;25.7601;-0.00807178;-0.000313246;-1.86366;25.001;5.92119;-0.0443714;0.129478;-0.567046;-0.0566612;-0.262725;-0.0547165;0.274279;-11.6173;-0.000533535;0.000519699;0.0001091;0.000398791;-0.000823227;0.000611009;4.89033;0.204485;0.000719578;0.000814679;0.484425;2.0643;151.906;16.9058;-0.0022536;-0.000533539;0.000511976;0.000527418;0.000109104;0.00279303;0.0131741;0;0.0259681;-0.0984496;-0.399754;-0.615003;0.740085;-5.60622;0.000207136;-0.000664106;0.000151438;0.000843977;-0.000485403;0.00066469;-1.36779;-0.731105;0.000776769;0.000886253;1.73871;0.575138;174.222;39.2218;-0.00425073;0.000206395;5.84018e-05;-0.00138665;0.000151657;0.0149097;0.0148555;0;0.0404641;0.0729845;3.81262
245000;246;25.7623;-0.00586664;-0.00022767;-1.86398;25.0028;5.92313;-0.0446897;0.131267;-0.565109;-0.0568367;-0.263729;-0.0564032;0.275617;-11.619;-0.000608695;0.00043482;-0.000420872;-6.99381e-05;-0.000959629;0.000444845;-1.44627;-0.691434;0.000617761;0.000593127;-0.0728804;-13.7211;138.466;3.46589;-0.00212767;-0.000608675;0.000482152;0.000387495;-0.000420894;0.00178146;0.0142168;0;0.0245659;-0.0986406;-0.401451;-0.61856;0.743982;-5.60977;0.000295485;-0.000691339;0.000424112;0.00105412;-0.000334526;0.000694324;-0.696714;-1.43531;0.00083685;0.000925766;3.1511;0.31735;164.153;29.1533;-0.00420858;0.000294719;3.4993e-05;-0.00141758;0.000424351;0.014223;0.0167502;0;0.0370837;0.0754475;3.82023
246000;247;25.7655;-0.00267993;-0.000104001;-1.86515;25.005;5.92718;-0.0458597;0.133502;-0.561054;-0.0563631;-0.265449;-0.0555019;0.276985;-11.6181;-0.000476457;0.000208174;8.05775e-06;8.52141e-05;-0.000553614;0.000319414;;;0.000400514;0.000425885;0.153923;6.49674;147.014;12.0142;-0.00200947;-0.00047644;0.000318872;9.75301e-05;8.02858e-06;0.00223472;0.0147834;0;0.0251806;-0.0982742;-0.403382;-0.621045;0.747042;-5.61226;0.000252877;-0.000673829;0.000403953;0.00100646;-0.000349635;0.000678049;-0.626007;-1.59743;0.000812981;0.000904066;2.87862;0.347389;165.221;30.2207;-0.00480885;0.000252064;9.48131e-05;-0.00144235;0.000404175;0.0152501;0.0168017;0;0.0386669;0.0796349;3.82835
247000;248;25.7619;-0.00625166;-0.000242612;-1.86336;25.0035;5.91872;-0.0440662;0.13196;-0.569513;-0.0564345;-0.266245;-0.0553432;0.27773;-11.6179;-0.000723096;0.000480859;-0.000141812;0.000129416;-0.000994325;0.00056187;-5.09898;-0.196118;0.000709965;0.000749161;0.130155;7.68316;151.228;16.2284;-0.00201133;-0.000723101;0.000470993;0.00049072;-0.000141807;0.00259353;0.0116693;0;0.0246363;-0.0984722;-0.40466;-0.622368;0.748858;-5.61358;0.000261225;-0.000671069;0.000280737;0.000942121;-0.000400159;0.00067114;-0.930498;-1.07469;0.000795743;0.000894853;2.35436;0.424743;167.777;32.7774;-0.00460934;0.000260616;-5.05687e-05;-0.00129156;0.00028096;0.0147166;0.0177037;0;0.0379352;0.0807939;3.83452
248000;249;25.7592;-0.00899122;-0.000348927;-1.86288;25.0024;5.91169;-0.0435856;0.130837;-0.576548;-0.0563568;-0.26746;-0.0543199;0.278678;-11.6169;-0.000667527;9.05222e-05;0.000669761;0.000675861;-0.000673626;0.000674744;0.996663;1.00335;0.000779127;0.000899658;1.00332;0.996693;130.79;175.79;-0.00215935;-0.000667523;0.000181059;1.06243e-07;0.000669749;0.00221697;0.0143488;0;0.0226494;-0.0983473;-0.405893;-0.624626;0.751385;-5.61584;0.000222349;-0.000604596;0.000748748;0.00114495;-0.000173853;0.000659402;-0.296961;-3.36745;0.000827362;0.000879202;6.58572;0.151844;148.708;13.7082;-0.00463396;0.000221808;-5.57808e-06;-0.0012033;0.00074893;0.014349;0.0165211;0;0.036367;0.0835794;3.84175
249000;250;25.7624;-0.00575041;-0.000223159;-1.86363;25.0047;5.91554;-0.044337;0.133209;-0.572694;-0.0561048;-0.269427;-0.0523598;0.280143;-11.615;-0.00068816;4.76844e-05;0.000548437;0.000550273;-0.000689996;0.000620134;1.25477;0.796961;0.000717583;0.000826846;0.797501;1.25392;159.168;24.1684;-0.00229664;-0.000688159;0.000100843;-5.40835e-06;0.000548433;0.00285622;0.0147818;0;0.0247771;-0.0981311;-0.408522;-0.624274;0.752488;-5.61549;0.000305;-0.00056716;0.000745346;0.00113357;-8.32233e-05;0.000608397;-0.409206;-2.44376;0.000784927;0.000811196;13.6208;0.073417;147.064;12.0645;-0.00474965;0.000304557;-3.50786e-05;-0.00109901;0.000745507;0.0144106;0.0179384;0;0.0353675;0.0888058;3.8492
250000;251;25.7607;-0.00745249;-0.000289213;-1.86492;25.0038;5.91184;-0.045623;0.132233;-0.57639;-0.0559995;-0.269547;-0.0554405;0.280829;-11.618;-0.000488405;0.000411558;0.000920976;0.00103235;-0.000599783;0.000816069;0.530312;1.88568;0.000953283;0.00108809;1.72121;0.580986;80.4809;125.481;-0.00244046;-0.000488388;0.000454611;0.000368565;0.000920957;0.00319255;0.0128121;0;0.0235228;-0.0982571;-0.409364;-0.628165;0.756191;-5.61938;0.000217312;-0.000654028;0.000757029;0.00119468;-0.000220344;0.000707514;-0.28706;-3.4836;0.000879157;0.000943352;5.42192;0.184437;152.225;17.2252;-0.00496828;0.000216545;9.348e-05;-0.00140113;0.000757238;0.0135888;0.0189368;0;0.0357631;0.0915765;3.85685
251000;252;25.7602;-0.00803766;-0.000311922;-1.86228;25.0039;5.90949;-0.0429901;0.132384;-0.578748;-0.0561877;-0.271153;-0.0519858;0.281751;-11.6146;-0.00068931;0.000350489;0.000935332;0.00100772;-0.000761697;0.000884708;0.736968;1.35691;0.00102486;0.00117961;1.32299;0.755862;81.6591;126.659;-0.00239348;-0.000689305;0.000364859;0.000336142;0.000935327;0.00298113;0.0127734;0;0.0263898;-0.0982931;-0.411187;-0.626511;0.755812;-5.61772;0.000291555;-0.000574027;0.00113063;0.00142209;9.28289e-08;0.000710998;-0.25787;-3.87792;0.000948028;0.000947997;;;138.072;3.07173;-0.00419888;0.000290973;7.40556e-05;-0.00122157;0.00113079;0.0122835;0.0198432;0;0.0365347;0.0948932;3.85867
252000;253;25.764;-0.00421666;-0.000163638;-1.8635;25.0068;5.91358;-0.0442114;0.135262;-0.574653;-0.0555042;-0.27162;-0.0535144;0.28235;-11.6161;-0.000550812;0.000593003;0.00109023;0.00128208;-0.000742669;0.00101238;0.505227;1.97931;0.00118274;0.00134983;1.72632;0.579267;69.7838;114.784;-0.00140558;-0.000550825;0.000571392;0.000614578;0.00109024;0.000119684;0.0152883;0;0.0246422;-0.0978881;-0.412039;-0.630471;0.759508;-5.62169;0.000199779;-0.000534113;0.00108333;0.00133469;-5.15853e-05;0.000693139;-0.184412;-5.42265;0.00090748;0.000924186;25.8735;0.0386495;138.225;3.2246;-0.00436814;0.000199202;0.000132209;-0.00119985;0.00108346;0.0131343;0.0206452;0;0.0329574;0.0990524;3.86773
253000;254;25.7607;-0.00752918;-0.000292189;-1.86377;25.0052;5.9057;-0.0444805;0.133692;-0.582537;-0.0559458;-0.27328;-0.0516794;0.283694;-11.6143;-0.000793368;0.000164682;0.00111885;0.00113292;-0.000807447;0.000970186;0.709095;1.41025;0.00112552;0.00129358;1.40309;0.71271;75.7787;120.779;-0.00275842;-0.000793379;0.000109632;0.000219627;0.00111885;0.00288015;0.0144952;0;0.0251147;-0.0985598;-0.414122;-0.631634;0.76169;-5.62317;0.000254978;-0.000284149;0.00143266;0.00149763;0.000190004;0.000653816;-0.177975;-5.61876;0.000941501;0.000871754;-7.88214;-0.126869;119.022;164.022;-0.00297962;0.000254684;0.000249831;-0.000817501;0.00143267;0.017769;0.0208499;0;0.0335357;0.104898;3.87776
254000;255;25.7627;-0.00553582;-0.000214831;-1.86211;25.007;5.90727;-0.0428208;0.135497;-0.58096;-0.0560628;-0.274295;-0.0515371;0.28467;-11.6141;-0.000589192;0.000441988;0.000587551;0.00073507;-0.000736711;0.00073589;1.00279;0.997215;0.000849733;0.000981187;0.997773;1.00223;117.704;162.704;-0.00221149;-0.000589183;0.000462218;0.000421783;0.000587542;0.00166162;0.0158347;0;0.0244411;-0.0988227;-0.415529;-0.632815;0.763469;-5.62435;0.000277502;-0.000290638;0.00130262;0.00137929;0.000200835;0.000589225;-0.213034;-4.69408;0.000860428;0.000785634;-6.86775;-0.145608;121.137;166.137;-0.00340428;0.000277226;0.000217675;-0.000798431;0.00130264;0.0177949;0.0202998;0;0.0344061;0.108286;3.87917
255000;256;25.764;-0.00419981;-0.000162984;-1.8632;25.008;5.90869;-0.0439027;0.136458;-0.579544;-0.0564551;-0.275935;-0.0515251;0.286326;-11.6141;-0.000609833;0.00032595;0.00102423;0.00108685;-0.000672451;0.00087965;0.595405;1.67953;0.00102508;0.00117287;1.61625;0.618716;73.8388;118.839;-0.00269949;-0.000609846;0.000287234;0.000364602;0.00102424;0.00359435;0.0133245;0;0.025381;-0.0989215;-0.417784;-0.63346;0.765245;-5.625;0.00013284;-0.000307933;0.00159983;0.00166185;7.08239e-05;0.000795513;-0.0830335;-12.0433;0.00108506;0.00106068;-23.4645;-0.0426175;113.886;158.886;-0.00364638;0.000132634;9.6713e-05;-0.000711987;0.00159988;0.0168506;0.0228196;0;0.0334236;0.112548;3.8868
256000;257;25.7642;-0.00397876;-0.000154406;-1.86399;25.0087;5.90624;-0.0447013;0.137205;-0.581993;-0.0553359;-0.277694;-0.0511028;0.287728;-11.6137;-0.000819007;0.000170721;0.000866196;0.000883317;-0.000836128;0.000859722;0.945521;1.05762;0.000992846;0.0011463;1.05644;0.946577;42.1049;87.1049;-0.00209064;-0.000819076;-6.76945e-05;0.000408734;0.000866208;0.000489525;0.015971;0;0.0232775;-0.0982554;-0.420622;-0.63499;0.767978;-5.6262;9.63289e-05;-0.000390636;0.00152084;0.00162093;-3.76062e-06;0.000812345;-0.0633393;-15.788;0.00108188;0.00108313;;;120.469;165.469;-0.00352557;9.60003e-05;0.000119331;-0.000899877;0.00152091;0.0118846;0.0196553;0;0.0307834;0.120387;3.89451
257000;258;25.7641;-0.00408519;-0.000158536;-1.86478;25.0098;5.90114;-0.0454907;0.13824;-0.587093;-0.0553787;-0.280523;-0.0535181;0.290903;-11.6161;-0.000692942;0.00017482;0.00123766;0.00125336;-0.000708645;0.000981005;0.55988;1.7861;0.00114723;0.00130801;1.76868;0.565394;62.3424;107.342;-0.00277137;-0.000693027;-9.83898e-05;0.000447504;0.00123767;0.00377322;0.0152563;0;0.0224057;-0.0982315;-0.424973;-0.637914;0.772778;-5.62913;0.000226095;-0.000568253;0.0013184;0.0015604;-1.59112e-05;0.000788157;-0.171493;-5.83115;0.00104561;0.00105088;98.0698;0.0101968;134.758;179.758;-0.00388112;0.000225414;0.000162732;-0.00129844;0.00131854;0.0150119;0.0176234;0;0.0321501;0.124706;3.90043
258000;259;25.7641;-0.00405167;-0.000157235;-1.8644;25.0106;5.89797;-0.045112;0.13905;-0.590261;-0.0554146;-0.281689;-0.0545401;0.292222;-11.6171;-0.000607932;0.000596185;0.0015456;0.00169964;-0.000761963;0.0012308;0.39333;2.5424;0.00145517;0.00164107;2.2306;0.44831;58.7288;103.729;-0.00139221;-0.000608166;0.000284532;0.000907168;0.00154574;0.00119436;0.01526;0;0.0208088;-0.0984245;-0.426702;-0.640365;0.775776;-5.63158;0.000272971;-0.000445902;0.00117216;0.00135578;8.93478e-05;0.000633217;-0.232878;-4.29409;0.000875593;0.000844289;-15.1742;-0.0659013;130.936;175.936;-0.00375404;0.000272577;0.000101475;-0.000992788;0.00117225;0.0146634;0.0163742;0;0.0325738;0.129071;3.90745
259000;260;25.7689;0.000710033;2.75546e-05;-1.86577;25.014;5.90399;-0.0464748;0.142435;-0.584248;-0.0560411;-0.283157;-0.0528719;0.293452;-11.6155;-0.000626357;0.000293817;0.00122594;0.00127143;-0.000671846;0.000971636;0.51092;1.95725;0.00113961;0.00129552;1.89244;0.528418;57.524;102.524;-0.00164523;-0.000626505;-3.20964e-05;0.000619127;0.00122598;0.000196943;0.015283;0;0.0324556;-0.0992387;-0.428631;-0.64142;0.777813;-5.63263;0.000149991;-0.00050343;0.00158149;0.0017408;-9.32529e-06;0.000875065;-0.0948415;-10.5439;0.00116366;0.00116675;;;127.955;172.955;-0.00405229;0.000149335;0.00024497;-0.00125076;0.00158158;0.0150904;0.0175369;0;0.032924;0.136129;3.91542
260000;261;25.7599;-0.00833974;-0.000323645;-1.8659;25.0095;5.88329;-0.0466048;0.13798;-0.604945;-0.0551528;-0.285778;-0.0538671;0.295994;-11.6165;-0.000691514;9.01641e-05;0.00150989;0.00151357;-0.000695201;0.00110439;0.457991;2.18345;0.00130409;0.00147252;2.17718;0.459311;63.3387;108.339;-0.00207486;-0.000691664;-0.000375441;0.000554746;0.00150982;0.00283568;0.0152358;0;0.0221027;-0.098627;-0.432634;-0.643312;0.781505;-5.63453;0.00010447;-0.000328905;0.00141939;0.00149707;2.67888e-05;0.000735139;-0.0736021;-13.5866;0.000989235;0.000980185;-55.8841;-0.0178942;121.3;166.3;-0.00354507;0.000104134;0.000226032;-0.000883113;0.00141941;0.0134624;0.016287;0;0.0328357;0.143741;3.92227
261000;262;25.7609;-0.00726076;-0.000281772;-1.86609;25.0105;5.88396;-0.046794;0.13892;-0.604276;-0.0559903;-0.288934;-0.0536368;0.299157;-11.6162;-0.000579141;0.000779747;0.0018138;0.00204546;-0.000810798;0.00142813;0.319297;3.13188;0.00169964;0.00190417;2.52277;0.396389;58.4117;103.412;-0.00153056;-0.000579484;0.000421438;0.0011372;0.00181402;0.00165758;0.0135379;0;0.0213324;-0.0993773;-0.435682;-0.64626;0.785714;-5.63747;0.000175575;-0.000505391;0.00141585;0.0015957;-4.28222e-06;0.000799993;-0.124007;-8.06405;0.00106523;0.00106666;;;128.537;173.537;-0.00349153;0.00017507;0.000114956;-0.00112497;0.00141597;0.0129543;0.0179437;0;0.0312634;0.149715;3.92956
262000;263;25.7614;-0.00680014;-0.000263897;-1.86571;25.0112;5.88298;-0.0464213;0.139653;-0.605257;-0.0555892;-0.289727;-0.0536203;0.299845;-11.6162;-0.000435707;0.000577739;0.00150936;0.00166802;-0.000594369;0.0011312;0.28867;3.46417;0.00135433;0.00150826;2.80638;0.356331;52.0706;97.0706;-0.000493773;-0.000436164;3.72065e-05;0.00111722;0.00150953;-0.000460259;0.0168962;0;0.0275116;-0.0995173;-0.437456;-0.646133;0.786613;-5.63735;0.000166129;-0.000377276;0.00116175;0.00128856;3.9317e-05;0.00062462;-0.142999;-6.99304;0.000846237;0.000832827;-32.7735;-0.0305124;127.557;172.557;-0.00312296;0.000165799;0.00014136;-0.000895396;0.00116181;0.0133698;0.018306;0;0.0348235;0.156665;3.93136
263000;264;25.7587;-0.00945609;-0.000366968;-1.86595;25.0093;5.87949;-0.0466547;0.13772;-0.608742;-0.0554227;-0.292046;-0.0558643;0.302463;-11.6185;-0.000448457;0.000866067;0.00107282;0.00146485;-0.000840487;0.00115267;0.418019;2.39224;0.00134716;0.00153689;1.74285;0.573772;37.2406;82.2406;-0.00054552;-0.000448984;0.000388128;0.00134328;0.00107312;-0.00122791;0.0149703;0;0.022242;-0.0995429;-0.43972;-0.65044;0.791413;-5.64165;7.19888e-05;-0.000525824;0.00124377;0.00144513;-0.000129368;0.000787248;-0.0578794;-17.2773;0.00100931;0.00104966;11.1707;0.0895198;132.408;177.408;-0.00283344;7.14801e-05;8.66258e-05;-0.00113756;0.00124391;0.0141074;0.0182213;0;0.0323119;0.165152;3.94447
264000;265;25.7601;-0.00807426;-0.000313342;-1.86654;25.0107;5.87938;-0.0472484;0.139126;-0.608859;-0.0555362;-0.293667;-0.0531016;0.303553;-11.6157;-0.000388042;0.000957832;0.00190986;0.00225675;-0.000734929;0.00149584;0.203178;4.92179;0.00180019;0.00199445;3.0707;0.325659;54.0774;99.0774;-0.000136261;-0.000388611;0.000480854;0.00143372;0.0019102;-0.00238075;0.015484;0;0.0221998;-0.100012;-0.441652;-0.648696;0.791117;-5.63991;3.04726e-05;-0.000386038;0.00111776;0.00124088;-9.26478e-05;0.000666763;-0.0272622;-36.6808;0.0008598;0.000889017;13.3935;0.0746631;131.432;176.432;-0.00322469;3.00345e-05;0.000241117;-0.00101251;0.0011178;0.0139718;0.0183518;0;0.0368435;0.172;3.94873
265000;266;25.7589;-0.00930232;-0.000361;-1.868;25.0098;5.87713;-0.0487124;0.138281;-0.611107;-0.0548664;-0.295482;-0.0523999;0.305067;-11.615;-0.000352001;0.00113094;0.00116124;0.00176532;-0.000956083;0.0013607;0.303126;3.29896;0.00159419;0.00181427;1.84641;0.541592;32.8611;77.8611;-0.000788185;-0.000352946;0.00048079;0.00178011;0.00116176;0.000188285;0.0152693;0;0.0224724;-0.0996291;-0.443467;-0.649451;0.792701;-5.64067;9.49024e-05;-0.000381547;0.00125889;0.00137281;-1.9017e-05;0.000695911;-0.075386;-13.2651;0.000921608;0.000927881;72.1884;0.0138526;128.658;173.658;-0.00334244;9.44375e-05;0.000274701;-0.00103703;0.00125892;0.0131269;0.0201974;0;0.0379395;0.179089;3.95234
266000;267;25.7597;-0.00846558;-0.000328528;-1.86779;25.01;5.87991;-0.0484972;0.138505;-0.608327;-0.0546091;-0.297992;-0.0537297;0.307682;-11.6163;-0.000195843;0.00120378;0.00113594;0.00184573;-0.000905634;0.00137568;0.172406;5.80025;0.00161912;0.00183424;2.03805;0.490664;34.44;79.44;0.000118063;-0.000196677;0.000641382;0.00176543;0.00113646;-0.00200122;0.0147912;0;0.0236112;-0.100108;-0.446229;-0.651621;0.796085;-5.64284;7.03319e-05;-0.000519899;0.000916043;0.00116334;-0.000176963;0.000670151;-0.076778;-13.0246;0.000840777;0.000893534;6.57389;0.152117;144.384;9.38371;-0.00392379;6.96138e-05;0.000267227;-0.00130636;0.000916142;0.0155119;0.0198671;0;0.0418095;0.189437;3.95994
267000;268;25.7599;-0.00827377;-0.000321085;-1.86783;25.0103;5.87947;-0.0485398;0.138802;-0.608764;-0.0542338;-0.297094;-0.0575823;0.307444;-11.6202;-0.00044621;0.00130098;0.00203637;0.00259323;-0.00100307;0.00179815;0.219121;4.5637;0.00214292;0.00239754;2.58529;0.386804;50.1544;95.1544;-0.000526784;-0.000447028;0.000776638;0.00182402;0.00203691;-0.000890319;0.0148793;0;0.0244107;-0.0999618;-0.445954;-0.656286;0.799737;-5.6475;0.000127287;-0.000500327;0.000953454;0.00118919;-0.000108447;0.000648818;-0.133501;-7.49057;0.000831303;0.000865091;10.9656;0.0911943;144.12;9.12007;-0.00428293;0.00012649;0.000358644;-0.00135859;0.000953515;0.0159437;0.0198973;0;0.0407145;0.197707;3.96717
268000;269;25.7579;-0.0103036;-0.000399858;-1.86813;25.009;5.876;-0.0488342;0.137505;-0.612236;-0.0543977;-0.298612;-0.0547802;0.30843;-11.6174;-0.000491966;0.00107747;0.000986169;0.00155368;-0.00105948;0.00130658;0.498866;2.00455;0.00151768;0.00174211;1.46646;0.681915;28.0465;73.0465;-0.000453376;-0.000492832;0.000453705;0.00170031;0.000986646;-0.000358116;0.0153173;0;0.022255;-0.100693;-0.447036;-0.65477;0.79919;-5.64598;5.05918e-05;-0.000612967;0.001066;0.00135422;-0.000237626;0.000795924;-0.0474593;-21.0707;0.00099156;0.00106123;5.69897;0.17547;143.948;8.9476;-0.00389181;4.96682e-05;0.000265918;-0.00149096;0.00106616;0.0163059;0.0184032;0;0.041198;0.204486;3.97471
269000;270;25.7577;-0.0105077;-0.000407777;-1.86952;25.0093;5.87353;-0.0502312;0.13777;-0.614703;-0.0545709;-0.299999;-0.052727;0.309447;-11.6153;-0.000464911;0.000791659;0.0011658;0.0014869;-0.000786009;0.00113645;0.39879;2.50758;0.0013329;0.00151527;1.89171;0.528623;34.059;79.059;-0.000476073;-0.000465955;-6.58497e-05;0.00164777;0.00116611;0.00191133;0.0155402;0;0.0224156;-0.101205;-0.448842;-0.65456;0.800094;-5.64577;-3.45743e-06;-0.00056884;0.00100882;0.0012641;-0.000258735;0.000761417;;;0.000940912;0.00101522;4.8857;0.204679;144.408;9.40787;-0.00422635;-4.35738e-06;0.000320435;-0.00145722;0.00100893;0.0158725;0.0194272;0;0.0405163;0.215239;3.98212
270000;271;25.7579;-0.010329;-0.000400842;-1.86965;25.0089;5.87586;-0.0503603;0.137398;-0.612374;-0.0539176;-0.300642;-0.0540744;0.310188;-11.6167;-0.000453558;0.00120437;0.000977739;0.00166304;-0.00113886;0.00140095;0.463884;2.15571;0.00162709;0.00186793;1.46027;0.684805;25.4381;70.4381;0.000351965;-0.000454674;0.000488985;0.00191873;0.000978345;-0.000725912;0.0140244;0;0.0261118;-0.101296;-0.449764;-0.656187;0.801954;-5.6474;-8.58655e-05;-0.000487143;0.00116106;0.00132881;-0.000253614;0.00079121;0.0739546;13.5218;0.000981393;0.00105495;5.23949;0.190858;138.986;3.98621;-0.00447471;-8.6752e-05;0.000444707;-0.00141783;0.00116108;0.0163216;0.0186039;0;0.045989;0.224374;3.98968
271000;272;25.7567;-0.0115158;-0.000446901;-1.87049;25.0086;5.87197;-0.0511962;0.137026;-0.616263;-0.0535889;-0.300998;-0.0536384;0.310401;-11.6162;-0.000377341;0.00121364;0.00137381;0.00199474;-0.000998279;0.00149651;0.274669;3.64075;0.00175966;0.00199535;1.99818;0.500455;35.9559;80.9559;0.000715662;-0.000378404;0.000529216;0.00189686;0.0013744;-0.00263161;0.0127027;0;0.0297945;-0.10168;-0.45042;-0.657248;0.803238;-5.64846;-4.10741e-05;-0.000478762;0.000870145;0.00107544;-0.000246367;0.000660903;0.0472037;21.1848;0.000811642;0.000881204;4.36518;0.229086;146.417;11.4166;-0.00476437;-4.19808e-05;0.000472559;-0.00142922;0.000870148;0.0155424;0.0193679;0;0.0462598;0.238449;3.99744
272000;273;25.7579;-0.0102638;-0.000398314;-1.86989;25.0098;5.87217;-0.0506011;0.138313;-0.616062;-0.0544175;-0.30322;-0.0530934;0.312606;-11.6157;-0.000459867;0.00107567;0.000992385;0.00156407;-0.00103156;0.00129782;0.463396;2.15798;0.00150906;0.00173042;1.51623;0.659532;25.7842;70.7842;0.000401681;-0.00046113;0.000231661;0.00191845;0.000992936;-0.00197736;0.0132264;0;0.0225697;-0.102554;-0.452281;-0.658033;0.805036;-5.64925;-2.37561e-06;-0.00044961;0.00105441;0.00121981;-0.000167775;0.000693792;;;0.000874513;0.000925056;7.2705;0.137542;140.159;5.15935;-0.00517783;-3.19747e-06;0.000460374;-0.00135863;0.0010544;0.0179078;0.0202449;0;0.0428261;0.243234;4.00409
273000;274;25.7561;-0.0121053;-0.000469777;-1.87177;25.0085;5.86922;-0.052478;0.136969;-0.619014;-0.0543044;-0.304627;-0.051325;0.313657;-11.6139;-0.000441462;0.00124264;0.000430357;0.00131133;-0.00132243;0.00131688;1.0258;0.974847;0.0015206;0.00175584;0.991603;1.00847;9.48863;54.4886;0.000804857;-0.000442864;0.000399429;0.00208511;0.000431049;-0.00199586;0.0177849;0;0.0234876;-0.10305;-0.453781;-0.656877;0.805;-5.64809;9.03526e-05;-0.00048015;0.00126745;0.00143846;-8.06604e-05;0.00075956;-0.0712871;-14.0278;0.000986959;0.00101275;17.8335;0.0560742;137.498;2.49847;-0.00539515;8.93735e-05;0.000520394;-0.00147952;0.00126743;0.0171212;0.0210868;0;0.0391482;0.255738;4.00958
274000;275;25.7562;-0.0120029;-0.000465802;-1.87075;25.0087;5.86906;-0.0514604;0.137188;-0.619175;-0.0531137;-0.304861;-0.0523591;0.313852;-11.615;-0.000404147;0.0010434;-6.05301e-05;0.00082511;-0.00128979;0.00105745;-6.67678;-0.149773;0.00123082;0.00140993;0.639726;1.56317;176.365;41.3648;0.00085503;-0.00040526;0.000266128;0.0018204;-6.00212e-05;-0.000998516;0.0171106;0;0.023018;-0.102885;-0.454362;-0.658925;0.806977;-5.65014;-4.99516e-05;-0.000532389;0.00134427;0.00152431;-0.000229996;0.000877155;0.037159;26.9114;0.00110091;0.00116954;6.62755;0.150885;138.933;3.93341;-0.00559667;-5.12165e-05;0.000614043;-0.00167722;0.00134422;0.0177907;0.0196607;0;0.0390875;0.273154;4.01927
275000;276;25.7582;-0.00997123;-0.000386959;-1.87231;25.0101;5.87177;-0.0530153;0.138527;-0.616461;-0.0531633;-0.305496;-0.0535404;0.314676;-11.6161;-0.000594972;0.000889522;0.000560857;0.00104371;-0.00107783;0.00106077;1.06083;0.942662;0.00122493;0.00141436;0.968349;1.03269;15.9405;60.9405;-0.000164327;-0.000596082;4.2704e-05;0.00173536;0.000561252;-0.000857946;0.0134685;0;0.0242579;-0.103568;-0.455497;-0.6606;0.809071;-5.65181;-5.50608e-05;-0.000553925;0.00140286;0.00158944;-0.000241641;0.000915542;0.0392489;25.4784;0.00114868;0.00122072;6.57769;0.152029;138.228;3.22794;-0.00545908;-5.63296e-05;0.000580358;-0.00168655;0.00140285;0.0181737;0.0228171;0;0.0378093;0.281835;4.02491
276000;277;25.7616;-0.0066192;-0.000256875;-1.87316;25.0123;5.87648;-0.0538682;0.14081;-0.61175;-0.053182;-0.304624;-0.0571143;0.314462;-11.6197;-0.00040248;0.00141978;-8.01311e-05;0.00118759;-0.0016702;0.0014289;-5.02277;-0.199093;0.00165777;0.00190519;0.711046;1.40638;176.116;41.1157;0.000259562;-0.000404277;0.000471142;0.0023681;-7.92341e-05;0.00065338;0.0164084;0;0.0218531;-0.10422;-0.455424;-0.66347;0.811459;-5.65468;-0.000148677;-0.000592014;0.00148739;0.00167914;-0.000340425;0.00100978;0.0999583;10.0042;0.00124847;0.00134638;4.93247;0.202738;139.519;4.51872;-0.00562036;-0.000150336;0.000733576;-0.00191544;0.0014873;0.0186222;0.0240767;0;0.0333123;0.297802;4.02912
277000;278;25.7589;-0.00925686;-0.000359236;-1.87302;25.0104;5.87313;-0.0537277;0.138891;-0.615102;-0.0534829;-0.306991;-0.0532319;0.316129;-11.6158;-0.000497921;0.00100518;-0.000123598;0.000711697;-0.00133322;0.00102246;-4.02856;-0.248228;0.00119867;0.00136328;0.53382;1.87329;176.445;41.4448;0.00053871;-0.000499376;3.05762e-05;0.00197942;-0.000123093;0.000651523;0.0158064;0;0.0243474;-0.105178;-0.456995;-0.661962;0.811234;-5.65318;-0.000152267;-0.000497608;0.00152704;0.00166341;-0.000288643;0.000976027;0.0997145;10.0286;0.00121662;0.00130137;5.76286;0.173525;136.524;1.52403;-0.00611769;-0.000153789;0.000820652;-0.00181366;0.00152682;0.0183863;0.0211567;0;0.0400405;0.314376;4.03876
278000;279;25.7635;-0.00467843;-0.000181558;-1.87398;25.0135;5.87989;-0.0546831;0.141947;-0.608343;-0.0533207;-0.307246;-0.0525423;0.316234;-11.6151;-0.00066303;0.000993811;-0.000288671;0.000535434;-0.00148714;0.00101128;-2.29684;-0.435381;0.00121006;0.00134838;0.360044;2.77744;171.46;36.4595;0.000314653;-0.000664337;9.03059e-05;0.00189698;-0.000288181;-0.000161098;0.0152945;0;0.0266091;-0.1055;-0.457999;-0.660002;0.810244;-5.65122;-0.000182634;-0.000498424;0.00154125;0.00167498;-0.000316367;0.000995676;0.118497;8.43903;0.00123569;0.00132757;5.29443;0.188878;135.894;0.893928;-0.00587175;-0.000184065;0.000769217;-0.00176388;0.00154108;0.0180646;0.0243364;0;0.0438191;0.324402;4.04035
279000;280;25.7602;-0.00801812;-0.000311163;-1.87543;25.0114;5.8735;-0.0561369;0.139901;-0.614739;-0.0531008;-0.307763;-0.0539455;0.316935;-11.6165;-0.000604719;0.00117839;-0.000180224;0.000804879;-0.00158982;0.00119735;-3.35537;-0.29803;0.00140712;0.00159647;0.50627;1.97523;172.661;37.6607;-0.000705276;-0.000606072;0.000333378;0.00202304;-0.000179586;0.00171396;0.0146653;0;0.0225387;-0.105746;-0.458606;-0.663022;0.813081;-5.65424;-0.000170804;-0.000380162;0.00164593;0.00172227;-0.000247147;0.00098471;0.103774;9.63635;0.00123881;0.00131295;6.96861;0.143501;130.184;175.184;-0.00617375;-0.000171927;0.000787615;-0.00154582;0.00164569;0.0182108;0.0254641;0;0.0363484;0.33581;4.04806
280000;281;25.7609;-0.0072985;-0.000283237;-1.87532;25.0122;5.87324;-0.0560256;0.140709;-0.61499;-0.053067;-0.308219;-0.0544989;0.317467;-11.6171;-0.000624326;0.00110184;-1.10456e-05;0.000826026;-0.0014614;0.00114371;-56.5228;-0.017692;0.00133752;0.00152495;0.56523;1.76919;178.784;43.7841;-0.000430467;-0.00062588;0.000124627;0.00207845;-1.04463e-05;0.00185707;0.015731;0;0.0244806;-0.106283;-0.459399;-0.663813;0.814243;-5.65503;-0.000212799;-0.000511383;0.00181803;0.00193953;-0.000334301;0.00113692;0.117049;8.54343;0.00141766;0.00151589;5.80176;0.172361;133.505;178.505;-0.00619328;-0.000214509;0.000898854;-0.00191876;0.00181776;0.0185348;0.0258504;0;0.0360163;0.356547;4.05542
281000;282;25.7627;-0.0055445;-0.000215168;-1.87531;25.0134;5.87595;-0.0560215;0.141881;-0.612287;-0.0527746;-0.308954;-0.0540665;0.318058;-11.6167;-0.000333405;0.00147134;-0.000220912;0.00119526;-0.00174958;0.00147242;-1.50922;-0.662593;0.00171021;0.00196323;0.683171;1.46376;171.603;36.6029;-0.000125835;-0.000334913;0.000666779;0.00227582;-0.000220051;-0.00153533;0.0131566;0;0.0227223;-0.107164;-0.46085;-0.663892;0.815242;-5.65511;-0.00026579;-0.000401064;0.00179521;0.0018705;-0.000341085;0.00110579;0.148055;6.75422;0.00137487;0.00147439;5.48397;0.18235;132.016;177.016;-0.0060941;-0.000267494;0.00108954;-0.0018886;0.00179469;0.0170506;0.025611;0;0.0344472;0.383203;4.06286
282000;283;25.765;-0.00316795;-0.00012294;-1.87512;25.0154;5.87807;-0.0558297;0.143846;-0.610169;-0.0525746;-0.310121;-0.0518275;0.318788;-11.6144;-0.000560387;0.000842922;-0.00053523;0.000295207;-0.00139082;0.000843016;-1.047;-0.955108;0.00103968;0.00112402;0.212253;4.71135;164.107;29.1072;-0.000331823;-0.000561473;-1.1299e-05;0.00169712;-0.000534875;0.00139656;0.016573;0;0.0225676;-0.107084;-0.461596;-0.663461;0.815302;-5.65467;-0.00019439;-0.000424854;0.00195845;0.00203926;-0.000275199;0.00115723;0.0992567;10.0749;0.00145991;0.00154298;7.41013;0.13495;129.529;174.529;-0.00628604;-0.000195941;0.000964892;-0.00181161;0.00195808;0.0180975;0.024401;0;0.0348425;0.387979;4.06911
283000;284;25.7615;-0.0066508;-0.000258101;-1.8754;25.0124;5.87559;-0.0561052;0.140819;-0.612644;-0.0525913;-0.310056;-0.052756;0.318878;-11.6153;-0.000657314;0.000657274;-9.5084e-05;0.000338668;-0.00109107;0.000714867;-6.91298;-0.144655;0.000862717;0.000953156;0.310401;3.22164;0.387054;45.3871;-0.000486563;-0.00065833;-0.000255161;0.0015692;-9.49006e-05;0.000841347;0.0154455;0;0.0237558;-0.107498;-0.461922;-0.66456;0.816436;-5.65577;-0.000322479;-0.00039177;0.00180347;0.00187337;-0.000392376;0.00113287;0.17881;5.59254;0.00139818;0.0015105;4.77443;0.209449;132.169;177.169;-0.00603517;-0.000324244;0.00113881;-0.0019191;0.0018029;0.0173548;0.0261578;0;0.035776;0.413531;4.07691
284000;285;25.7616;-0.00658293;-0.000255467;-1.87676;25.0123;5.87564;-0.0574688;0.140775;-0.612593;-0.0524574;-0.312499;-0.0482545;0.320525;-11.6108;-0.000818914;0.00106434;-1.48522e-05;0.000720853;-0.00155462;0.00113774;-55.1375;-0.0181365;0.00134282;0.00151698;0.463685;2.15664;177.45;42.4502;-0.000260163;-0.000820202;0.000202471;0.00192551;-1.43063e-05;0.000213803;0.0141622;0;0.0277129;-0.108068;-0.464375;-0.661605;0.815502;-5.65282;-0.000351351;-0.00041128;0.00189671;0.00196959;-0.000424232;0.00119691;0.185242;5.39833;0.00147495;0.00159588;4.64273;0.215391;132.36;177.36;-0.00640592;-0.000353353;0.00122358;-0.00204247;0.00189605;0.0178625;0.0255543;0;0.0366264;0.44304;4.08424
285000;286;25.759;-0.00917621;-0.000356106;-1.87549;25.0112;5.86919;-0.0561984;0.139714;-0.619042;-0.0515808;-0.312231;-0.0518705;0.320686;-11.6145;-0.000689832;0.000804748;-0.000488533;0.000221835;-0.0014002;0.000811018;-1.41205;-0.708192;0.00101552;0.00108136;0.158431;6.31189;167.671;32.6707;-0.000405665;-0.000691047;-0.000144773;0.00175408;-0.00048822;0.000654774;0.0145933;0;0.0279133;-0.107405;-0.464762;-0.665457;0.818763;-5.65667;-0.000288902;-0.000327421;0.00218358;0.0022262;-0.000331527;0.00127887;0.132307;7.55819;0.00160609;0.00170515;6.715;0.14892;127.373;172.373;-0.00575624;-0.000290779;0.00131352;-0.00196432;0.00218277;0.0166923;0.0247817;0;0.0365427;0.461079;4.09185
286000;287;25.7625;-0.00568615;-0.000220665;-1.87673;25.0146;5.8699;-0.0574401;0.143048;-0.618331;-0.0515625;-0.311659;-0.0525136;0.320231;-11.6151;-0.000664422;0.00089944;-0.000958547;9.98986e-05;-0.00172287;0.000911383;-0.693155;-1.44268;0.00118328;0.00121518;0.0579839;17.2462;154.849;19.8491;0.000177163;-0.000665696;-3.21511e-05;0.0018313;-0.000958143;-0.000612033;0.0147148;0;0.0283191;-0.107969;-0.464879;-0.666683;0.8199;-5.65822;-0.000297886;-0.000219659;0.00215301;0.00217254;-0.000317417;0.00124498;0.138358;7.22763;0.00156493;0.00165997;6.84443;0.146104;124.94;169.94;-0.00579499;-0.0002995;0.00137437;-0.00180979;0.00215209;0.0235865;0.0226852;0;0.0350969;0.482101;4.09364
287000;288;25.765;-0.00317226;-0.000123108;-1.87764;25.0166;5.87202;-0.0583426;0.145072;-0.616213;-0.0513441;-0.315244;-0.0504767;0.323361;-11.6131;-0.000698114;0.00052461;-0.000621767;-0.000133943;-0.00118594;0.000525997;-1.12279;-0.890637;0.000749975;0.00070133;-0.112943;-8.85403;162.484;27.4835;-0.000173776;-0.000698866;-0.000283803;0.00133296;-0.000621669;0.00128298;0.0149014;0;0.0215906;-0.107905;-0.469137;-0.665014;0.820961;-5.65623;-0.000394879;-6.32976e-05;0.00232425;0.00232573;-0.000396352;0.00136104;0.169895;5.88599;0.00169809;0.00181472;5.86783;0.170421;120.445;165.445;-0.00647312;-0.000396193;0.0014997;-0.00162206;0.00232313;0.0189569;0.0233753;0;0.0316337;0.513184;4.10571
288000;289;25.7656;-0.00261136;-0.00010134;-1.87768;25.0171;5.87215;-0.0583912;0.145616;-0.616084;-0.0514026;-0.316174;-0.0513118;0.324409;-11.6139;-0.000699187;0.00062935;-0.000857095;-0.000143858;-0.00141242;0.000634283;-0.815763;-1.22585;0.000897514;0.00084571;-0.101852;-9.81817;156.316;21.3163;-0.000489134;-0.000700188;-0.000289619;0.00154846;-0.000856939;0.00167192;0.0143326;0;0.025798;-0.107912;-0.470011;-0.667748;0.823676;-5.65896;-0.000410422;-6.14304e-05;0.00225326;0.00225468;-0.000411838;0.00133326;0.182146;5.49011;0.00165754;0.00177768;5.47467;0.182659;121.362;166.362;-0.00569996;-0.000411806;0.00154574;-0.00166433;0.00225207;0.0179245;0.0243695;0;0.0342072;0.530945;4.10709
289000;290;25.7668;-0.00138466;-5.37354e-05;-1.87777;25.0179;5.87424;-0.0584796;0.146381;-0.613991;-0.0510174;-0.316577;-0.0512674;0.324734;-11.6139;-0.00062829;0.000615579;-0.000703617;-4.92236e-05;-0.00128268;0.00061673;-0.892944;-1.11989;0.000839195;0.000822306;-0.0383755;-26.0583;158.113;23.1129;-0.000766707;-0.000629082;-0.000169523;0.00140074;-0.000703441;0.00298045;0.0140813;0;0.026052;-0.107556;-0.471341;-0.666582;0.823445;-5.6578;-0.000444451;-4.89419e-05;0.00270529;0.00270605;-0.000445211;0.00157563;0.16429;6.0868;0.00196928;0.00210084;6.07811;0.164525;117.155;162.155;-0.00559891;-0.000445612;0.00143122;-0.00152445;0.00270427;0.017003;0.0230056;0;0.0317519;0.557523;4.11466
290000;291;25.7658;-0.00243628;-9.4546e-05;-1.87837;25.0159;5.87803;-0.0590789;0.144364;-0.610207;-0.0508026;-0.318862;-0.048364;0.326485;-11.611;-0.000752261;0.000881761;-0.000112719;0.000505463;-0.00137044;0.000937953;-6.67378;-0.14984;0.00112078;0.0012506;0.368832;2.71126;173.659;38.6587;-0.00116474;-0.000753085;0.000206338;0.00155675;-0.000112351;0.00283867;0.0130366;0;0.0242956;-0.107538;-0.474009;-0.664756;0.823499;-5.65597;-0.000232624;-5.37449e-05;0.00257139;0.00257242;-0.000233654;0.00140304;0.0904661;11.0539;0.0017979;0.00187072;11.0096;0.0908302;117.876;162.876;-0.00590664;-0.000233965;0.00153564;-0.00163869;0.00257022;0.0184088;0.022955;0;0.029504;0.589398;4.1222
291000;292;25.7653;-0.0028947;-0.000112336;-1.8779;25.0186;5.86479;-0.0586106;0.147034;-0.623443;-0.0504069;-0.321344;-0.0451277;0.328389;-11.6077;-0.000638649;0.000544753;-0.000141976;0.000208375;-0.000989001;0.000598688;-4.49829;-0.222307;0.000738655;0.000798251;0.210693;4.74624;0.62368;45.6237;-0.000419166;-0.000639554;-0.000362225;0.00145128;-0.000141893;0.00272428;0.0150379;0;0.0233304;-0.107255;-0.477162;-0.663926;0.824612;-5.65514;-0.000266248;-8.99336e-05;0.0025809;0.00258374;-0.000269086;0.00142641;0.103161;9.69359;0.00181884;0.00190188;9.60191;0.104146;120.189;165.189;-0.00566578;-0.000267971;0.00168317;-0.001858;0.00257949;0.0186778;0.0214001;0;0.0321664;0.633259;4.12878
292000;293;25.7662;-0.00200852;-7.79457e-05;-1.87844;25.0194;5.86503;-0.059144;0.147851;-0.623206;-0.0496005;-0.321934;-0.0473418;0.329155;-11.6099;-0.000693641;0.000178996;-0.000989256;-0.000609314;-0.00107358;0.000232135;-0.701174;-1.42618;0.000621717;0.000309513;-0.567551;-1.76195;137.958;2.95804;-0.00148757;-0.000694159;-0.000674995;0.00103324;-0.000989468;0.00483876;0.013044;0;0.0257039;-0.106436;-0.478879;-0.66598;0.827154;-5.65719;-0.000261498;-6.31464e-05;0.00259529;0.00259668;-0.000262894;0.00142979;0.100759;9.92467;0.00182507;0.00190638;9.87731;0.101242;118.872;163.872;-0.00564204;-0.000263018;0.00162301;-0.0017445;0.00259397;0.0188758;0.0204524;0;0.031043;0.658679;4.13594
293000;294;25.7692;0.000993605;3.85593e-05;-1.87805;25.0217;5.86862;-0.0587536;0.15013;-0.619615;-0.0490808;-0.32338;-0.0470122;0.330445;-11.6096;-0.000708683;0.000609966;-0.00108157;-0.000257302;-0.00153295;0.000637823;-0.655238;-1.52616;0.000947911;0.000850431;-0.167848;-5.95779;148.068;13.0681;-9.31224e-05;-0.000709546;-0.000227396;0.00144764;-0.00108141;0.00168716;0.01266;0;0.0256289;-0.105965;-0.480968;-0.665977;0.828302;-5.65719;-2.86635e-05;-0.000109274;0.00266801;0.00267243;-3.30842e-05;0.00135276;0.0107434;93.0804;0.00179275;0.00180367;80.7766;0.0123798;118.578;163.578;-0.00547629;-3.03363e-05;0.00161845;-0.00183235;0.00266671;0.0187451;0.0207279;0;0.0311396;0.690364;4.14322
294000;295;25.7715;0.00325573;0.000126347;-1.87663;25.0236;5.87085;-0.0573395;0.152043;-0.617384;-0.048328;-0.324844;-0.0449972;0.331488;-11.6076;-0.000511882;0.000403808;-0.000933652;-0.000267209;-0.00117833;0.000455558;-0.548258;-1.82396;0.000713362;0.000607411;-0.22677;-4.40975;146.223;11.2225;-0.00141451;-0.000512601;-0.000456931;0.00126491;-0.000933675;0.00503205;0.0159344;0;0.0286011;-0.105299;-0.482407;-0.666592;0.829548;-5.65781;-0.000151529;-0.000139333;0.00260996;0.00261697;-0.000158541;0.00138776;0.0580578;17.2242;0.00179982;0.00185034;16.5066;0.0605818;120.54;165.54;-0.00517518;-0.000153358;0.001644;-0.00191776;0.00260862;0.0185257;0.020952;0;0.0299962;0.724636;4.15069
295000;296;25.767;-0.00121266;-4.70603e-05;-1.87803;25.0212;5.86096;-0.0587369;0.149654;-0.627274;-0.0476866;-0.326334;-0.0454016;0.332911;-11.608;-0.000552209;0.000448267;-0.000797339;-0.000210053;-0.0011395;0.000464721;-0.692565;-1.44391;0.000700228;0.000619628;-0.184338;-5.4248;151.888;16.8885;-0.00103431;-0.00055286;-0.000328892;0.00122562;-0.000797292;0.00314442;0.0145014;0;0.0242955;-0.104861;-0.484726;-0.668358;0.832261;-5.65957;-0.000104728;-1.46312e-05;0.00265219;0.00265227;-0.000104805;0.00137854;0.0394873;25.3246;0.00180413;0.00183805;25.3066;0.0395154;116.297;161.297;-0.00540966;-0.000106082;0.00162085;-0.00164562;0.00265088;0.0182874;0.0202429;0;0.0324896;0.768758;4.15773
296000;297;25.7684;0.000165324;6.41582e-06;-1.87835;25.0233;5.85793;-0.0590598;0.151758;-0.630302;-0.0467825;-0.327285;-0.0449467;0.333653;-11.6075;-0.000662214;-8.95473e-06;-0.00179154;-0.000662143;-0.00179161;0.000564735;-0.369634;-2.70538;0.00104605;0.00075298;-0.369579;-2.70578;105.551;150.551;-0.00107924;-0.000662501;-0.000774364;0.000757321;-0.00179184;0.00331439;0.0136794;0;0.0265718;-0.104103;-0.486634;-0.668445;0.833348;-5.65966;-0.000126377;7.58513e-05;0.00278854;0.00279052;-0.000128349;0.00145943;0.0453199;22.0653;0.00190457;0.00194591;21.7416;0.0459947;114.426;159.426;-0.00595308;-0.000127685;0.00177575;-0.00161911;0.00278697;0.0194478;0.0195255;0;0.0327355;0.800029;4.15973
297000;298;25.7717;0.00345153;0.000133945;-1.87807;25.0252;5.86423;-0.0587798;0.153688;-0.624002;-0.0465297;-0.328575;-0.0480358;0.335312;-11.6106;-0.000555361;0.000279892;-0.000895743;-0.000397979;-0.00105313;0.000327573;-0.620001;-1.6129;0.000614036;0.000436764;-0.377903;-2.64618;143.205;8.20536;-0.000495854;-0.000555902;-0.000516776;0.00107683;-0.000895838;0.0025177;0.016878;0;0.022225;-0.103689;-0.488779;-0.671887;0.83731;-5.6631;-4.07591e-05;-3.22819e-05;0.00277134;0.00277171;-4.11297e-05;0.00140642;0.0147074;67.993;0.00186167;0.00187522;67.3895;0.0148391;116.911;161.911;-0.00615495;-4.24039e-05;0.00175441;-0.00181396;0.0027698;0.0193976;0.0205645;0;0.0335962;0.842226;4.16672
298000;299;25.7755;0.00726868;0.000282079;-1.87851;25.029;5.86489;-0.0592172;0.157433;-0.623347;-0.0462486;-0.331406;-0.0446384;0.337582;-11.6072;-0.000734802;0.000355419;-0.000609882;-0.000311476;-0.00103321;0.000360866;-1.20483;-0.829996;0.000611997;0.000481154;-0.301465;-3.31713;165.739;30.7385;-0.000524605;-0.000735459;-0.000489166;0.0011999;-0.000609939;0.00235338;0.0129808;0;0.023807;-0.103459;-0.492635;-0.669573;0.837688;-5.66079;-0.00016582;2.55392e-05;0.00240247;0.00240273;-0.000166074;0.0012844;0.0690207;14.4884;0.00165995;0.00171253;14.4678;0.0691191;118.062;163.062;-0.00522274;-0.000167293;0.00177157;-0.00171601;0.00240091;0.0171327;0.0210514;0;0.0314012;0.904674;4.18034
299000;300;25.7726;0.00435398;0.000168967;-1.8803;25.027;5.85972;-0.0610101;0.155506;-0.628511;-0.0454754;-0.334641;-0.0403863;0.340123;-11.603;-0.000637023;-6.71729e-05;-0.000666911;-0.000583152;-0.000720782;6.88151e-05;-0.955184;-1.04692;0.000441848;9.17535e-05;-0.809054;-1.23601;78.7158;123.716;-0.00154106;-0.00063739;-0.000993229;0.000858911;-0.000667402;0.00549995;0.0156163;0;0.0224449;-0.102979;-0.495674;-0.667306;0.837612;-5.65852;-6.54621e-05;-0.000131367;0.00230569;0.00231294;-7.27179e-05;0.00119283;0.0283916;35.2217;0.00156676;0.00159044;31.8071;0.0314396;122.435;167.435;-0.0055036;-6.73847e-05;0.00170686;-0.00196525;0.00230424;0.018185;0.0210443;0;0.0333139;0.93261;4.18103
300000;301;25.7726;0.00435702;0.000169085;-1.87934;25.0273;5.85902;-0.0600492;0.155746;-0.629214;-0.0456088;-0.334281;-0.0435668;0.34018;-11.6062;-0.000517686;-0.000280459;-0.00136414;-0.000433194;-0.00144863;0.000507717;-0.379498;-2.63506;0.000858589;0.000676956;-0.299038;-3.34406;95.8892;140.889;-5.24466e-05;-0.000517872;-0.00122985;0.000669732;-0.00136485;0.00138283;0.0157979;0;0.0259917;-0.103188;-0.496243;-0.670425;0.840461;-5.66164;-0.000225324;-1.95143e-05;0.00226984;0.00226999;-0.000225477;0.00124773;0.0992689;10.0736;0.00159381;0.00166364;10.0675;0.0993295;120.728;165.728;-0.00518763;-0.000227005;0.00179871;-0.00183322;0.00226822;0.0185362;0.0213729;0;0.036989;0.974008;4.18815
301000;302;25.7771;0.0089203;0.000346175;-1.87995;25.0303;5.86611;-0.0606553;0.158739;-0.622125;-0.0445457;-0.335469;-0.0431981;0.34116;-11.6058;-0.000666999;-0.000397745;0.000436915;0.000565294;-0.000795379;0.000680336;1.52661;0.655045;0.00078932;0.000907115;0.710723;1.40702;59.0394;104.039;-0.00071002;-0.000667022;-0.00124654;0.00045011;0.000436217;0.00326842;0.015712;0;0.0235847;-0.102279;-0.497942;-0.671931;0.842555;-5.66315;-8.00341e-05;-0.000116982;0.0022369;0.00224279;-8.59255e-05;0.00116436;0.0357791;27.9493;0.00152464;0.00155248;26.1015;0.0383119;123.075;168.075;-0.00584377;-8.20618e-05;0.00178758;-0.00201714;0.00223531;0.0189446;0.0224938;0;0.0358087;1.03388;4.1956
302000;303;25.7754;0.00725026;0.000281365;-1.87948;25.0299;5.86054;-0.0601918;0.158359;-0.627696;-0.0444364;-0.337873;-0.0412304;0.343268;-11.6038;-0.00060512;-0.000196751;-0.000548014;-0.000377755;-0.000775379;0.000198812;-1.1042;-0.905629;0.000447715;0.000265083;-0.487187;-2.0526;72.0854;117.085;0.000402377;-0.000605511;-0.00129916;0.000905599;-0.000548839;-0.000385607;0.0156395;0;0.0257294;-0.102302;-0.500853;-0.671292;0.843773;-5.66251;2.39339e-05;-0.000257253;0.0022789;0.00230788;-5.04198e-06;0.00115646;-0.0105024;-95.2166;0.00154027;0.00154195;;;127.062;172.062;-0.00625672;2.11776e-05;0.00185219;-0.00236195;0.00227722;0.0196847;0.0214193;0;0.0384474;1.08782;4.20286
303000;304;25.7752;0.00704166;0.000273269;-1.87961;25.0303;5.85772;-0.0603193;0.158794;-0.630514;-0.0436973;-0.338689;-0.042134;0.344086;-11.6047;-0.000704826;0.00027065;0.000290229;0.000359081;-0.000773678;0.000566379;2.42851;0.411774;0.000668441;0.000755172;0.464122;2.15461;24.8698;69.8698;-0.000493163;-0.000705593;-0.000726964;0.00126727;0.000290002;0.00318283;0.0157772;0;0.0208097;-0.101747;-0.501952;-0.67237;0.845216;-5.66358;-2.80337e-06;-6.15348e-05;0.00212312;0.0021249;-4.583e-06;0.00106474;;;0.00141813;0.00141965;;;122.481;167.481;-0.00626105;-4.86158e-06;0.00191094;-0.00202982;0.0021213;0.0187398;0.0223829;0;0.0357821;1.12395;4.21083
304000;305;25.7732;0.00499687;0.000193916;-1.87941;25.029;5.85439;-0.0601142;0.157483;-0.633844;-0.0437072;-0.340308;-0.0400472;0.345433;-11.6026;-0.00049594;-0.000263799;0.000639324;0.000697629;-0.000554244;0.000625936;0.775724;1.28912;0.000724348;0.000834582;1.2587;0.794468;59.3014;104.301;0.00103374;-0.000496276;-0.00139006;0.000861187;0.000638394;-0.000434711;0.0151656;0;0.0224929;-0.101763;-0.50397;-0.671388;0.845638;-5.6626;-4.54578e-05;-0.000227987;0.0020044;0.00202945;-7.05085e-05;0.00104998;0.022679;44.0936;0.00137707;0.00139997;28.783;0.0347427;128.985;173.985;-0.00685524;-4.82526e-05;0.00192357;-0.00237514;0.00200258;0.0216806;0.0231595;0;0.0361112;1.17922;4.21795
305000;306;25.7736;0.00538856;0.000209117;-1.88136;25.0295;5.8533;-0.0620709;0.157994;-0.634931;-0.0429837;-0.342714;-0.0406084;0.347778;-11.6032;-0.000544869;0.000166394;0.00134436;0.0013589;-0.000559412;0.000959158;0.4053;2.46731;0.00113915;0.00127888;2.42916;0.411665;49.8566;94.8566;0.000337432;-0.00054568;-0.000953087;0.00128376;0.00134392;0.0014283;0.0165643;0;0.0235421;-0.101244;-0.507012;-0.673169;0.848804;-5.66438;2.41895e-05;-0.000131666;0.00207629;0.0020847;1.57762e-05;0.00103446;-0.0116504;-85.8343;0.00138457;0.00137928;-132.143;-0.00756758;125.783;170.783;-0.00699162;2.15199e-05;0.00205558;-0.00231443;0.00207419;0.0200594;0.0232085;0;0.0405677;1.24465;4.22537
306000;307;25.7729;0.00470513;0.000182594;-1.88098;25.0298;5.84945;-0.061687;0.15822;-0.638786;-0.0432429;-0.342231;-0.0446587;0.347831;-11.6073;-0.000566854;-2.95633e-05;0.000778578;0.000779228;-0.000567504;0.000673366;0.728064;1.37351;0.000780732;0.000897821;1.37308;0.72829;48.7028;93.7028;-0.000520572;-0.000567594;-0.00127714;0.00121634;0.000777764;0.0029365;0.0167082;0;0.0249035;-0.101343;-0.50776;-0.676101;0.851589;-5.66732;1.85051e-05;-0.000157813;0.00210215;0.00211404;6.62027e-06;0.00105371;-0.00880294;-113.598;0.00140716;0.00140494;;;125.935;170.935;-0.00675651;1.59489e-05;0.00195536;-0.00226659;0.00210026;0.0181676;0.0243472;0;0.0396335;1.28767;4.23246
307000;308;25.7728;0.00458958;0.00017811;-1.88103;25.0297;5.84902;-0.0617356;0.158198;-0.639216;-0.0424942;-0.346725;-0.0379456;0.351374;-11.6005;-0.000676868;-0.000176044;0.00174717;0.00175989;-0.000689586;0.00122474;0.387407;2.58126;0.00145851;0.00163299;2.5521;0.391834;60.7155;105.716;0.00104743;-0.000677431;-0.00143068;0.00107555;0.00174617;-0.00143161;0.01703;0;0.0236947;-0.100964;-0.511636;-0.671744;0.850415;-5.66296;0.000144454;-0.000143679;0.00215048;0.00216072;0.000134215;0.00101325;-0.0671728;-14.887;0.00139789;0.001351;-16.0989;-0.062116;125.556;170.556;-0.00707588;0.000141591;0.00211428;-0.00239712;0.00214826;0.0189027;0.0250986;0;0.0401896;1.33824;4.23628
308000;309;25.7714;0.0032372;0.000125628;-1.88086;25.0291;5.84582;-0.0615656;0.157565;-0.642414;-0.0417723;-0.348482;-0.0384548;0.353077;-11.601;-0.000695033;-0.000195788;0.00153894;0.00155597;-0.000712062;0.00113401;0.451631;2.2142;0.00133932;0.00151202;2.18516;0.457633;58.0281;103.028;0.00112001;-0.000695817;-0.00166229;0.00126744;0.00153758;0.00154244;0.0153507;0;0.021334;-0.100298;-0.513637;-0.673769;0.85314;-5.66498;0.000229285;-0.00022807;0.00232414;0.00234868;0.000204743;0.00107197;-0.0986539;-10.1364;0.0015022;0.00142929;-11.4714;-0.0871734;126.157;171.157;-0.0070532;0.000226319;0.0019953;-0.00244679;0.00232218;0.019247;0.0246631;0;0.0374804;1.40689;4.24755
309000;310;25.7726;0.00438732;0.000170261;-1.88026;25.0301;5.84693;-0.0609702;0.158536;-0.641309;-0.0419013;-0.350488;-0.0383278;0.355059;-11.6009;-0.000769274;0.00045599;0.00175;0.00183;-0.000849269;0.00133963;0.439584;2.27488;0.00158104;0.00178618;2.15479;0.464082;44.9604;89.9604;0.000824677;-0.000770824;-0.000909438;0.00181798;0.0017497;0.00125872;0.0149755;0;0.0214932;-0.100414;-0.516474;-0.673698;0.854808;-5.66491;7.25141e-05;-0.000188636;0.0024558;0.00247064;5.7676e-05;0.00120648;-0.0295277;-33.8665;0.00162821;0.00160864;-42.8365;-0.0233446;125.069;170.069;-0.00651265;6.94381e-05;0.00211578;-0.00248757;0.00245359;0.0178793;0.0270535;0;0.0382763;1.46291;4.25171
310000;311;25.7739;0.00574751;0.000223046;-1.88132;25.0308;5.84945;-0.0620228;0.159268;-0.638786;-0.0412593;-0.351297;-0.0385588;0.355807;-11.6012;-0.000501996;0.000300007;0.00201856;0.00205377;-0.000537212;0.00129549;0.248691;4.02106;0.00157901;0.00172732;3.82302;0.261573;53.1066;98.1066;0.000890982;-0.000503289;-0.00103891;0.00163555;0.00201806;-5.42423e-05;0.0144465;0;0.0217889;-0.0998884;-0.517898;-0.67468;0.856381;-5.66589;5.17206e-05;-2.28308e-06;0.00267312;0.00267312;5.17186e-05;0.0013107;-0.0193484;-51.6838;0.00176509;0.0017476;-51.6859;-0.0193477;119.353;164.353;-0.00668752;4.92142e-05;0.00224029;-0.002239;0.00267062;0.018881;0.0259076;0;0.0365164;1.51133;4.25599
311000;312;25.7738;0.00556063;0.000215794;-1.88;25.0313;5.84685;-0.0607037;0.159781;-0.64138;-0.0416411;-0.353219;-0.0388542;0.357781;-11.6014;-0.000780503;0.00024978;0.00229874;0.00231887;-0.000800633;0.00155975;0.339535;2.94521;0.0018708;0.00207967;2.8963;0.345268;54.6205;99.6205;0.000306338;-0.000781837;-0.00115594;0.00165118;0.00229811;0.00310497;0.0144067;0;0.0230179;-0.100418;-0.520571;-0.674466;0.857894;-5.66568;0.000108708;-4.03667e-06;0.00269936;0.00269937;0.000108702;0.00129533;-0.0402718;-24.8312;0.00176446;0.00172711;-24.8327;-0.0402694;119.566;164.566;-0.00684984;0.000105968;0.00233927;-0.00234129;0.00269664;0.0180759;0.0284419;0;0.0363284;1.57316;4.26271
312000;313;25.7712;0.0030161;0.000117048;-1.87948;25.0301;5.8412;-0.0601897;0.158519;-0.647032;-0.0409406;-0.35577;-0.0387243;0.360205;-11.6013;-0.000769242;0.000305108;0.00318511;0.00320851;-0.000792645;0.00200058;0.241512;4.14058;0.00244641;0.00266744;4.04786;0.247044;59.2043;104.204;0.000568789;-0.000770998;-0.00129414;0.00189805;0.00318432;0.00202484;0.0132594;0;0.0218739;-0.0996467;-0.523913;-0.675572;0.860705;-5.66679;4.83959e-05;0.000185198;0.00284099;0.00285322;3.61676e-05;0.00140853;-0.0170348;-58.7033;0.00189021;0.00187804;-78.889;-0.012676;114.064;159.064;-0.00645344;4.65417e-05;0.00231096;-0.00193464;0.00283835;0.0162126;0.0260956;0;0.0335873;1.64957;4.27056
313000;314;25.7744;0.00624102;0.000242198;-1.87955;25.0323;5.84582;-0.0602567;0.160757;-0.642416;-0.0407328;-0.357313;-0.0377903;0.361608;-11.6004;-0.000779584;-0.000121146;0.0021185;0.00212356;-0.000784639;0.0014541;0.367988;2.71748;0.00173735;0.0019388;2.70641;0.369493;59.038;104.038;-9.6927e-05;-0.000780607;-0.00168195;0.00143515;0.0021171;0.00444792;0.0125875;0;0.0210574;-0.0994083;-0.525793;-0.676229;0.862337;-5.66744;0.000136034;0.000236763;0.00309022;0.00310908;0.000117179;0.00149595;-0.0440207;-22.7166;0.00203478;0.0019946;-26.5327;-0.0376893;111.668;156.668;-0.00678502;0.000134324;0.00234403;-0.0018643;0.00308751;0.0179454;0.024144;0;0.0311085;1.69073;4.27672
314000;315;25.7719;0.00374512;0.000145339;-1.88017;25.031;5.84002;-0.0608799;0.159493;-0.648212;-0.0403585;-0.359015;-0.0366125;0.363127;-11.5992;-0.000710048;0.00027469;0.00228909;0.00231404;-0.000734999;0.00152452;0.310188;3.22385;0.00183737;0.00203269;3.14835;0.317626;53.1668;98.1668;0.000946833;-0.000711713;-0.0013002;0.00184487;0.00228828;0.000671192;0.0140096;0;0.0222091;-0.0992417;-0.528737;-0.674957;0.863121;-5.6665;7.00796e-05;0.00028049;0.00301893;0.00304537;4.3637e-05;0.00150087;-0.0232134;-43.0786;0.00201586;0.00200116;-69.7887;-0.014329;111.204;156.204;-0.00339255;6.85251e-05;0.00235256;-0.00178549;0.00301621;0.0192223;0.0214951;0;0.0337843;1.7503;4.28437
315000;316;25.7769;0.00872808;0.000338715;-1.88068;25.0349;5.84541;-0.0613891;0.163328;-0.642823;-0.0396777;-0.359957;-0.0406687;0.364414;-11.6033;-0.000507677;0.000545611;0.00279951;0.0028872;-0.000595366;0.00174128;0.181345;5.51435;0.0021509;0.00232171;4.84946;0.206209;54.4224;99.4224;0.00112972;-0.000509654;-0.000975037;0.00206124;0.00279919;-0.000482208;0.0148877;0;0.0225727;-0.0984923;-0.531488;-0.678329;0.867358;-5.66954;-8.82356e-05;0.000307763;0.00306053;0.00309033;-0.000118035;0.00160418;0.0288301;34.6859;0.00210067;0.00213891;26.1816;0.0381948;110.918;155.918;-0.00511442;-8.95652e-05;0.00228112;-0.0016594;0.00305799;0.0150889;0.0233808;0;0.0288341;1.83102;4.29163
316000;317;25.7757;0.00746597;0.000289736;-1.88079;25.0343;5.84238;-0.061494;0.162729;-0.645858;-0.0393258;-0.362382;-0.0397367;0.366669;-11.6023;-0.000573751;0.00067629;0.00350562;0.00361482;-0.000682945;0.00214888;0.163666;6.11001;0.00266684;0.00286518;5.29299;0.188929;56.8204;101.82;0.000472348;-0.000576182;-0.000959879;0.0023058;0.00350539;0.00129502;0.0135323;0;0.0222383;-0.0983152;-0.534553;-0.678275;0.869178;-5.66949;-0.000118021;0.000222526;0.00311349;0.00312874;-0.000133273;0.001631;0.0379065;26.3807;0.00213164;0.00217467;23.4762;0.0425964;112.811;157.811;-0.0044144;-0.000119619;0.002253;-0.00180141;0.00311098;0.0148723;0.0218648;0;0.0281669;1.8868;4.29944
317000;318;25.7752;0.00700189;0.000271726;-1.88096;25.0349;5.83767;-0.0616691;0.163335;-0.650562;-0.0393548;-0.364461;-0.037856;0.368529;-11.6004;-0.000525648;0.000736865;0.00240094;0.002576;-0.000700707;0.00163835;0.218934;4.56758;0.0019924;0.00218447;3.67629;0.272014;46.43;91.43;0.00114545;-0.000528233;-0.000920851;0.00238974;0.00240079;0.00192577;0.0141921;0;0.0231017;-0.0982258;-0.537596;-0.676947;0.870009;-5.66816;0.000100719;0.00016432;0.00285865;0.00286841;9.09629e-05;0.00138872;-0.035233;-28.3825;0.00188268;0.00185163;-31.5338;-0.031712;114.495;159.495;-0.00582214;9.87013e-05;0.00235016;-0.00201551;0.00285591;0.0180959;0.0203787;0;0.0299651;1.9462;4.305
318000;319;25.7792;0.0110131;0.00042739;-1.88051;25.0378;5.84283;-0.0612195;0.166296;-0.645406;-0.0385865;-0.366221;-0.0368894;0.370091;-11.5995;-0.000520472;0.00109844;0.00239364;0.0027613;-0.000888131;0.00182472;0.217439;4.59899;0.00219757;0.00243296;3.10912;0.321635;41.2302;86.2302;0.00149779;-0.000523672;-0.000565259;0.0027573;0.00239409;-0.000173892;0.0151223;0;0.0273834;-0.0974641;-0.540725;-0.676624;0.871609;-5.66784;-0.000112965;0.000283425;0.00297866;0.00300443;-0.000138733;0.00157158;0.0379246;26.3681;0.00205076;0.00209544;21.6562;0.0461761;112.09;157.09;-0.00451687;-0.000114427;0.00230627;-0.00173319;0.00297605;0.0156621;0.0211408;0;0.0280666;2.02061;4.31272
319000;320;25.7762;0.00804595;0.000312243;-1.88046;25.0365;5.83558;-0.0611654;0.164937;-0.65266;-0.0382725;-0.367115;-0.0423191;0.371523;-11.6049;-0.000541472;0.000645325;0.00297121;0.00308601;-0.000656275;0.00187114;0.18224;5.48727;0.00230742;0.00249486;4.70231;0.212661;51.9522;96.9522;0.00103739;-0.000544248;-0.00115818;0.00244251;0.00297074;0.00086785;0.0139316;0;0.0260789;-0.0972475;-0.542482;-0.683316;0.877875;-5.67453;-2.03138e-05;0.000143284;0.00303599;0.0030427;-2.70165e-05;0.00153486;0.006691;149.455;0.00203753;0.00204647;112.624;0.00887913;115.349;160.349;-0.00508143;-2.25097e-05;0.00239395;-0.00210052;0.00303315;0.0160012;0.0225033;0;0.030869;2.08901;4.31974
320000;321;25.7759;0.00771854;0.000299537;-1.87923;25.0365;5.83441;-0.0599356;0.164964;-0.653827;-0.0369072;-0.370986;-0.0355135;0.374505;-11.5981;-0.000667739;0.00101059;0.00295895;0.00322154;-0.00093033;0.00207594;0.225668;4.4313;0.00251581;0.00276791;3.46279;0.288784;46.9742;91.9742;0.00124083;-0.000671069;-0.000755722;0.00277051;0.00295918;0.00228415;0.0140083;0;0.0228299;-0.0959417;-0.546694;-0.677141;0.875557;-5.66836;-4.89506e-05;0.000216127;0.00240283;0.00242174;-6.78566e-05;0.0012448;0.020372;49.0869;0.00163758;0.00165973;35.6891;0.0280198;116.483;161.483;-0.00527277;-5.11224e-05;0.00253319;-0.00209527;0.00239965;0.0170196;0.0223097;0;0.0318012;2.13586;4.32058
321000;322;25.7796;0.0114191;0.000443147;-1.88016;25.0391;5.83917;-0.0608708;0.167594;-0.649065;-0.0369708;-0.371686;-0.0385921;0.375509;-11.6012;-0.00082248;0.000805545;0.00260366;0.00278361;-0.00100243;0.00189302;0.315893;3.16563;0.00226507;0.00252402;2.77687;0.360117;46.0372;91.0372;0.00117483;-0.000825372;-0.000930405;0.00253556;0.00260356;0.00120163;0.0150031;0;0.0240436;-0.0960623;-0.548852;-0.679239;0.878539;-5.67045;6.29513e-05;0.00026171;0.00271567;0.00274124;3.73782e-05;0.00135193;-0.0231808;-43.1392;0.00181516;0.00180257;-73.3379;-0.0136355;113.625;158.625;-0.00534828;6.09817e-05;0.00253142;-0.002002;0.0027125;0.0167138;0.022513;0;0.0322975;2.2022;4.32825
322000;323;25.7808;0.0125663;0.000487667;-1.88084;25.0403;5.83878;-0.0615492;0.168815;-0.649454;-0.037235;-0.373388;-0.0408668;0.377459;-11.6035;-0.000657306;0.00127149;0.00246876;0.00292061;-0.00110916;0.00201488;0.266249;3.75588;0.00240367;0.00268651;2.63318;0.379769;39.58;84.58;0.00154644;-0.000660869;-0.000418315;0.00295602;0.00246948;-0.000373088;0.0134294;0;0.02579;-0.0962558;-0.552366;-0.68184;0.882768;-5.67305;-2.77161e-05;0.000236754;0.00238896;0.00241194;-5.06917e-05;0.00123131;0.0116018;86.1939;0.00162512;0.00164175;47.5805;0.021017;115.73;160.73;-0.0049606;-2.977e-05;0.00251953;-0.00204052;0.00238582;0.0175368;0.0250546;0;0.0366955;2.29134;4.33658
323000;324;25.7825;0.0142935;0.000554695;-1.88067;25.0422;5.83848;-0.0613794;0.170675;-0.649751;-0.0361939;-0.375178;-0.0414974;0.379197;-11.6041;-0.000766495;0.000570722;0.00199138;0.00210482;-0.000879936;0.00149238;0.384907;2.59803;0.00177096;0.00198984;2.39201;0.418058;43.7453;88.7453;0.000939923;-0.000768884;-0.00112157;0.00225835;0.00199091;0.00234036;0.015681;0;0.021657;-0.0953667;-0.555001;-0.683373;0.885505;-5.67459;-1.12936e-05;0.00028286;0.00204472;0.00208292;-4.94988e-05;0.00106621;0.00552329;181.052;0.00140541;0.00142162;42.0803;0.0237641;115.044;160.044;-0.00538699;-1.31562e-05;0.002521;-0.00195069;0.00204159;0.0168052;0.0258162;0;0.0333514;2.34559;4.34324
324000;325;25.7824;0.0142386;0.000552564;-1.88146;25.042;5.83891;-0.0621654;0.17046;-0.649323;-0.0362122;-0.375824;-0.0420724;0.379902;-11.6047;-0.000747597;0.0012691;0.00238737;0.00283672;-0.00119695;0.00201683;0.313147;3.19339;0.00239212;0.00268911;2.36996;0.421947;37.9191;82.9191;0.00174248;-0.000751424;-0.000510244;0.00304287;0.00238804;0.000206925;0.0145297;0;0.0247212;-0.0953169;-0.556222;-0.684539;0.887165;-5.67575;-0.000141037;0.000298629;0.00192485;0.00196715;-0.000183338;0.00107524;0.0732717;13.6478;0.00137662;0.00143366;10.7296;0.0932001;116.342;161.342;-0.00527384;-0.000143009;0.00261036;-0.00200834;0.00192149;0.0175745;0.0273325;0;0.036687;2.3961;4.35082
325000;326;25.7816;0.0134466;0.000521829;-1.88123;25.0418;5.83637;-0.0619359;0.170254;-0.651864;-0.035683;-0.378143;-0.0411216;0.382042;-11.6037;-0.000750124;0.000873755;0.00210134;0.00234778;-0.000996564;0.00167217;0.356974;2.80133;0.0019827;0.00222956;2.35588;0.424471;40.7767;85.7767;0.000434597;-0.000752777;-0.000719931;0.0024629;0.00210146;0.00199447;0.0132279;0;0.0253701;-0.0950021;-0.5596;-0.683591;0.888524;-5.67481;2.70849e-05;0.000210405;0.00166034;0.00168701;4.14857e-07;0.0008433;-0.0163128;-61.3014;0.00112454;0.0011244;;;118.226;163.226;-0.00575032;2.461e-05;0.00265959;-0.00223479;0.00165684;0.019274;0.0271163;0;0.0406321;2.47651;4.35827
326000;327;25.7863;0.0180736;0.000701391;-1.88141;25.0451;5.84261;-0.062122;0.173549;-0.645626;-0.0351095;-0.379931;-0.0413583;0.383785;-11.604;-0.000967506;0.00054061;0.00165423;0.00176133;-0.00107461;0.00141797;0.584869;1.70979;0.00165325;0.00189062;1.63905;0.610111;39.7874;84.7874;0.000258902;-0.0009697;-0.00108556;0.00216252;0.00165379;0.00236648;0.0153563;0;0.0262141;-0.0944811;-0.562294;-0.684342;0.890745;-5.67556;-0.000103309;0.000165557;0.00163476;0.00165039;-0.000118939;0.000884666;0.0631954;15.8239;0.00114197;0.00117955;13.876;0.0720669;120.868;165.868;-0.00671097;-0.000105885;0.0026107;-0.00227534;0.00163138;0.0191561;0.0286085;0;0.0393632;2.54885;4.36479
327000;328;25.7872;0.01905;0.000739284;-1.88121;25.0461;5.84277;-0.0619124;0.174534;-0.645469;-0.0348476;-0.381243;-0.0422618;0.385158;-11.6049;-0.000921281;0.000583828;0.00210258;0.00221139;-0.00103009;0.00162074;0.438166;2.28224;0.00191244;0.00216098;2.1468;0.46581;43.676;88.676;0.000855038;-0.000923887;-0.00119338;0.00235567;0.00210204;0.00312997;0.0138761;0;0.0229119;-0.0942183;-0.56447;-0.686314;0.893605;-5.67753;6.47818e-05;0.000101438;0.00177365;0.00177965;5.87815e-05;0.000860435;-0.0365245;-27.3789;0.00116733;0.00114725;-30.2757;-0.0330298;121.816;166.816;-0.0066668;6.16871e-05;0.00269731;-0.00249;0.00177003;0.0186112;0.0293676;0;0.0378502;2.60176;4.37201
328000;329;25.7886;0.0204352;0.00079304;-1.88;25.0486;5.83853;-0.0607078;0.177037;-0.6497;-0.0342675;-0.382969;-0.043594;0.386963;-11.6062;-0.000882418;0.000241717;0.0016286;0.00165166;-0.000905475;0.00127857;0.541826;1.84561;0.00149717;0.00170475;1.82408;0.548222;45.7385;90.7385;1.0957e-05;-0.000884287;-0.00146822;0.00194736;0.00162755;0.00313474;0.0143916;0;0.025357;-0.0936864;-0.567165;-0.686539;0.895427;-5.67775;-5.91285e-05;0.000293669;0.00139142;0.00144862;-0.000116327;0.000782474;0.042495;23.5322;0.00100677;0.0010433;12.453;0.080302;116.659;161.659;-0.00610368;-6.166e-05;0.00286018;-0.00226913;0.00138738;0.016158;0.0306537;0;0.0392104;2.66732;4.37707
329000;330;25.7914;0.0231523;0.000898483;-1.88056;25.0506;5.84145;-0.0612703;0.179112;-0.646782;-0.0338609;-0.385352;-0.0424897;0.389163;-11.6051;-0.0011136;0.000322475;0.00184348;0.00187824;-0.00114835;0.0015133;0.604072;1.65543;0.00176426;0.00201773;1.63559;0.611399;45.5073;90.5073;-0.000471841;-0.00111529;-0.00122705;0.00186742;0.00184278;0.00499775;0.0135771;0;0.0249297;-0.0933157;-0.570381;-0.686603;0.897477;-5.67782;-0.0001506;0.000373939;0.00144514;0.00152842;-0.000233881;0.000881153;0.104211;9.59588;0.00110519;0.00117487;6.53505;0.153021;115.178;160.178;-0.00571235;-0.000152809;0.00288645;-0.00213457;0.00144105;0.0162566;0.0314518;0;0.0405368;2.75564;4.38684
330000;331;25.7951;0.0269469;0.00104574;-1.8811;25.0535;5.84561;-0.061811;0.182009;-0.642627;-0.0334458;-0.386876;-0.0438606;0.390788;-11.6065;-0.00113112;0.000292211;0.00207427;0.00210069;-0.00115754;0.00162911;0.545309;1.83382;0.00190723;0.00217215;1.81479;0.551028;47.9738;92.9738;-0.00110045;-0.0011329;-0.00133033;0.00190956;0.00207343;0.00732901;0.0139862;0;0.0254633;-0.0929511;-0.573104;-0.687935;0.90019;-5.67915;-0.000191314;0.0004364;0.00168117;0.00177788;-0.000288026;0.00103295;0.113798;8.7875;0.00129201;0.00137727;6.17264;0.162005;114.432;159.432;-0.00668952;-0.000193526;0.00302553;-0.00214789;0.0016767;0.0181697;0.0315863;0;0.03875;2.80345;4.3899
331000;332;25.797;0.0288266;0.00111869;-1.88323;25.0509;5.86447;-0.0639424;0.179375;-0.623763;-0.0331699;-0.388411;-0.044556;0.392363;-11.6071;-0.00105231;-9.14005e-05;0.00228196;0.00228446;-0.00105481;0.00166964;0.461143;2.16853;0.00197102;0.00222618;2.16575;0.461733;57.3568;102.357;-3.58445e-05;-0.00105338;-0.00165283;0.00146484;0.0022806;0.00392521;0.0138033;0;0.0248894;-0.0927912;-0.575425;-0.688906;0.902394;-5.68012;-6.56004e-05;0.000497866;0.00167059;0.00180322;-0.000198235;0.00100073;0.0392679;25.4661;0.00127338;0.0013343;9.09638;0.109934;110.992;155.992;-0.00591353;-6.73869e-05;0.00295466;-0.00195468;0.00166635;0.0164691;0.0320106;0;0.0355079;2.86183;4.39376
332000;333;25.8005;0.0322665;0.00125218;-1.88365;25.0532;5.86966;-0.0643577;0.181672;-0.618576;-0.0323948;-0.390283;-0.0448131;0.394181;-11.6074;-0.000883772;0.000513295;0.00223683;0.00231909;-0.000966033;0.00164256;0.395101;2.531;0.00194955;0.00219008;2.40063;0.416558;47.9488;92.9488;-0.000225971;-0.000885695;-0.00100453;0.00202639;0.00223645;0.00647978;0.0134606;0;0.0279037;-0.0922354;-0.57842;-0.689332;0.904574;-5.68055;-0.000344887;0.000464306;0.00197922;0.00206854;-0.000434212;0.00125138;0.174254;5.73875;0.00154425;0.0016685;4.76391;0.209912;115.425;160.425;-0.00533184;-0.000347108;0.00309284;-0.00215813;0.00197455;0.0154826;0.0320815;0;0.0358262;2.94513;4.40145
333000;334;25.8061;0.0379349;0.00147216;-1.88301;25.0578;5.87505;-0.0637141;0.186295;-0.613189;-0.0319881;-0.392411;-0.0438028;0.396142;-11.6064;-0.00112057;0.000385548;0.00248078;0.00252159;-0.00116139;0.00184149;0.451702;2.21385;0.00217417;0.00245532;2.17119;0.460576;51.1899;96.1899;-0.000765094;-0.00112227;-0.0011154;0.0018811;0.00248023;0.00550932;0.0129885;0;0.0255917;-0.0917151;-0.582099;-0.68822;0.906034;-5.67943;-0.000230996;0.000718416;0.00219272;0.00238966;-0.00042794;0.0014088;0.105347;9.49244;0.00175325;0.0018784;5.58411;0.17908;108.776;153.776;-0.00568835;-0.000232257;0.00318537;-0.00174258;0.00218791;0.0155874;0.0296469;0;0.029167;3.0141;4.40889
334000;335;25.8043;0.0360797;0.00140016;-1.883;25.0569;5.87088;-0.063709;0.185361;-0.617354;-0.0320496;-0.393852;-0.0459934;0.397822;-11.6086;-0.000986791;0.000259328;0.00165825;0.00168343;-0.00101198;0.0013477;0.595081;1.68044;0.00157221;0.00179694;1.66351;0.601139;45.9575;90.9575;-0.000650696;-0.000988231;-0.00120083;0.00171563;0.00165756;0.00560401;0.0152222;0;0.0212382;-0.0916267;-0.584984;-0.690305;0.909463;-5.68152;-0.000237594;0.000610105;0.00225305;0.00239447;-0.000379015;0.00138674;0.105454;9.48277;0.0017365;0.00184899;6.31762;0.158287;111.561;156.561;-0.00478656;-0.00023952;0.00328168;-0.00205483;0.00224786;0.0159891;0.028293;0;0.0265084;3.07039;4.41651
335000;336;25.8057;0.037453;0.00145346;-1.88037;25.0633;5.85026;-0.0610753;0.191795;-0.637971;-0.0314259;-0.396033;-0.0460284;0.399935;-11.6086;-0.00105062;0.000105487;0.00285374;0.00285659;-0.00105346;0.00195502;0.368154;2.71625;0.00233611;0.0026067;2.71161;0.368784;59.1709;104.171;-0.000774188;-0.00105186;-0.00137549;0.0015807;0.0028528;0.00604867;0.0163023;0;0.0198136;-0.0910769;-0.588487;-0.690804;0.912043;-5.68202;-0.000263576;0.000672079;0.00229041;0.00245647;-0.000429636;0.00144305;0.115078;8.68974;0.00179805;0.00192407;5.71755;0.1749;110.511;155.511;-0.00582544;-0.000265244;0.00329691;-0.00194607;0.00228521;0.0183602;0.0274978;0;0.0257942;3.14216;4.42356
336000;337;25.8073;0.0391259;0.00151838;-1.87965;25.0656;5.84833;-0.0603525;0.194022;-0.639904;-0.0312019;-0.398346;-0.0453132;0.402127;-11.6079;-0.000890243;0.000300161;0.00299105;0.00301412;-0.000913319;0.00196372;0.297636;3.35981;0.00237318;0.0026183;3.30019;0.303013;57.2826;102.283;-0.00062203;-0.000891997;-0.00130215;0.00189628;0.00299025;0.00663306;0.0151073;0;0.0225901;-0.0902918;-0.592762;-0.690415;0.914435;-5.68163;-0.000341652;0.000618309;0.00222134;0.00236271;-0.000483019;0.00142286;0.153804;6.50176;0.0017584;0.00189715;4.89154;0.204434;112.308;157.308;-0.00532219;-0.000343514;0.00326941;-0.00202602;0.0022162;0.0186343;0.0260556;0;0.024816;3.22837;4.43106
337000;338;25.8037;0.0354657;0.00137634;-1.87858;25.0628;5.8442;-0.0592843;0.191298;-0.644036;-0.0307013;-0.400209;-0.0450377;0.403903;-11.6076;-0.000898207;-8.1984e-05;0.00296623;0.00296797;-0.000899945;0.00193396;0.30281;3.3024;0.00233712;0.00257861;3.29795;0.303219;62.6787;107.679;-0.00136683;-0.000899352;-0.00168534;0.0015152;0.00296482;0.00834801;0.0167341;0;0.026995;-0.0898035;-0.59594;-0.690271;0.916343;-5.68149;-0.0004209;0.000662054;0.00194365;0.0021164;-0.000593649;0.00135503;0.216551;4.61785;0.00164492;0.0018067;3.56508;0.280499;112.015;157.015;-0.00597525;-0.000422453;0.00321206;-0.00188193;0.00193872;0.0167449;0.0243728;0;0.0250595;3.28575;4.43826
338000;339;25.8068;0.0386254;0.00149895;-1.879;25.0661;5.84398;-0.0597041;0.194571;-0.644256;-0.0297184;-0.400454;-0.0491074;0.404546;-11.6117;-0.000948446;0.000303867;0.00268903;0.00271424;-0.000973656;0.00184395;0.352709;2.8352;0.00220684;0.0024586;2.78768;0.358721;56.6793;101.679;-0.000295693;-0.000949766;-0.00104934;0.00165217;0.00268853;0.00536924;0.0174446;0;0.0274271;-0.0888844;-0.597384;-0.694691;0.920524;-5.68591;-0.000566274;0.000611053;0.00198618;0.00212492;-0.000705018;0.00141497;0.285107;3.50745;0.00170104;0.00188663;3.014;0.331785;114.576;159.576;-0.00537459;-0.000568092;0.00323047;-0.0020017;0.00198116;0.0169421;0.0255436;0;0.026751;3.34568;4.44558
339000;340;25.8079;0.0397281;0.00154175;-1.87994;25.0676;5.84192;-0.0606457;0.196116;-0.646318;-0.0296712;-0.403254;-0.0485077;0.407243;-11.6111;-0.00103786;0.000122268;0.00343009;0.00343343;-0.0010412;0.00223732;0.302575;3.30497;0.0027037;0.00298309;3.29757;0.303254;61.3033;106.303;-0.000209661;-0.00103944;-0.00154752;0.00178462;0.0034289;0.00531316;0.0164362;0;0.0232004;-0.0885631;-0.602072;-0.695269;0.923977;-5.68648;-0.000582422;0.000681813;0.00202136;0.00218909;-0.000750152;0.00146962;0.288133;3.47062;0.00176346;0.0019595;2.9182;0.342677;112.866;157.866;-0.00413614;-0.000583696;0.00310571;-0.00173579;0.00201678;0.0145551;0.0268813;0;0.0277405;3.43956;4.45297
340000;341;25.8086;0.0404367;0.00156925;-1.87923;25.0686;5.84128;-0.0599351;0.197048;-0.646959;-0.0288868;-0.405084;-0.050435;0.409233;-11.613;-0.00104778;-3.98722e-05;0.00413899;0.00413929;-0.00104809;0.00259369;0.253149;3.95025;0.00316723;0.00345825;3.94939;0.253204;67.0042;112.004;-0.000186222;-0.00104908;-0.00169824;0.00160993;0.00413755;0.00462073;0.0164897;0;0.0240228;-0.0881091;-0.605721;-0.694592;0.925807;-5.68581;-0.000519666;0.000466504;0.00180937;0.00189934;-0.000609631;0.00125449;0.287208;3.4818;0.001511;0.00167265;3.11555;0.32097;116.695;161.695;-0.00472432;-0.000521535;0.00292681;-0.00198809;0.00180521;0.0163269;0.02872;0;0.0289307;3.4958;4.46049
341000;342;25.8115;0.0433333;0.00168166;-1.87999;25.071;5.84356;-0.0606951;0.199441;-0.644672;-0.029255;-0.406217;-0.0514309;0.410504;-11.614;-0.000911532;8.27174e-05;0.00381017;0.00381162;-0.00091298;0.0023623;0.239236;4.17997;0.00289382;0.00314973;4.17492;0.239525;63.9375;108.937;-0.00104367;-0.000913181;-0.0016602;0.00181744;0.0038088;0.00718737;0.0148542;0;0.022313;-0.0882984;-0.607946;-0.69591;0.92827;-5.68712;-0.000707412;0.000549096;0.00197479;0.00208284;-0.000815469;0.00144916;0.358222;2.79157;0.00172585;0.00193221;2.55417;0.391517;116.629;161.629;-0.00417997;-0.000709097;0.00302033;-0.00191553;0.00197039;0.0161854;0.0280805;0;0.0302768;3.55684;4.46092
342000;343;25.8159;0.0477389;0.00185263;-1.88067;25.0742;5.84914;-0.0613801;0.202626;-0.6391;-0.0283934;-0.408367;-0.0508508;0.412499;-11.6134;-0.00109544;-0.000125395;0.00348234;0.00348578;-0.00109887;0.00229232;0.314569;3.17895;0.00276394;0.00305643;3.17215;0.315244;63.6726;108.673;-0.000381799;-0.00109676;-0.00188928;0.00163045;0.00348057;0.0057844;0.0152159;0;0.0231572;-0.0876203;-0.611345;-0.695236;0.929932;-5.68645;-0.000748657;0.000560536;0.00170416;0.00182619;-0.000870684;0.00134844;0.439311;2.27629;0.00158928;0.00179792;2.09742;0.476776;117.308;162.308;-0.00474155;-0.00075041;0.00308107;-0.00195383;0.00169958;0.0174689;0.0303171;0;0.032169;3.62554;4.46845
343000;344;25.8171;0.0488681;0.00189645;-1.88086;25.0754;5.84874;-0.0615672;0.203867;-0.639499;-0.0278767;-0.410722;-0.0525329;0.415005;-11.6151;-0.000969807;0.000388241;0.00455375;0.0045809;-0.000996962;0.00278893;0.212969;4.69552;0.00343483;0.00371858;4.59486;0.217634;63.8374;108.837;-0.000835824;-0.000972019;-0.00137137;0.00213817;0.00455289;0.0051875;0.0142006;0;0.0222874;-0.0871054;-0.615478;-0.696361;0.933444;-5.68758;-0.000858401;0.000429868;0.00146162;0.0015387;-0.000935488;0.0012371;0.587295;1.70272;0.00144256;0.00164946;1.64481;0.607971;121.471;166.471;-0.00534657;-0.00086063;0.0030196;-0.00215387;0.00145716;0.0183215;0.029681;0;0.0345484;3.71849;4.47985
344000;345;25.8139;0.0457284;0.0017746;-1.88053;25.0744;5.83942;-0.0612381;0.20283;-0.648813;-0.0275473;-0.412199;-0.0541777;0.416656;-11.6168;-0.00108224;0.000374834;0.0040778;0.00410489;-0.00110933;0.00260711;0.265399;3.76791;0.00317171;0.00347615;3.70033;0.270246;59.1912;104.191;-0.000593873;-0.00108503;-0.0016493;0.00238856;0.00407652;0.00543684;0.0147832;0;0.022914;-0.0867663;-0.617563;-0.698479;0.936368;-5.68969;-0.000824063;0.000302518;0.00144256;0.00148224;-0.000863744;0.00117299;0.571252;1.75054;0.00137005;0.00156399;1.71606;0.58273;124.168;169.168;-0.00556622;-0.000826782;0.00296169;-0.00235064;0.00143822;0.018588;0.0297392;0;0.0347167;3.76923;4.4832
345000;346;25.8117;0.0435023;0.00168822;-1.87965;25.0732;5.835;-0.0603596;0.201634;-0.653237;-0.0271153;-0.414396;-0.0514095;0.418452;-11.614;-0.00081729;0.000274052;0.00401564;0.00403113;-0.00083278;0.00243196;0.203527;4.91336;0.00300375;0.00324261;4.84057;0.206587;60.4757;105.476;-0.000657516;-0.000820052;-0.00182721;0.0023652;0.00401402;0.00740123;0.0129482;0;0.02217;-0.0860836;-0.620572;-0.696474;0.936801;-5.68769;-0.000964422;0.000352785;0.00137841;0.00143038;-0.00101639;0.00122338;0.699665;1.42926;0.00141937;0.00163118;1.40731;0.710577;124.327;169.327;-0.0056232;-0.000966934;0.00297953;-0.00226781;0.00137404;0.0184867;0.0320234;0;0.0337038;3.83455;4.49045
346000;347;25.8159;0.0476538;0.00184933;-1.88338;25.0709;5.86181;-0.0640894;0.199375;-0.626427;-0.0259545;-0.414967;-0.0547484;0.419366;-11.6173;-0.00142245;-0.000165394;0.00408329;0.00408825;-0.00142742;0.00275783;0.348359;2.8706;0.00330568;0.00367711;2.8641;0.34915;62.5361;107.536;-0.000762286;-0.00142443;-0.00233772;0.00199502;0.00408058;0.00653782;0.0144381;0;0.0263712;-0.0850041;-0.622438;-0.69843;0.939393;-5.68964;-0.00104221;0.000206165;0.00140594;0.00142318;-0.00105945;0.00124132;0.741291;1.349;0.00143847;0.00165509;1.34332;0.744425;128.132;173.132;-0.006232;-0.0010449;0.00274517;-0.00232664;0.0014022;0.017957;0.0312739;0;0.0400726;3.91856;4.49698
347000;348;25.8215;0.0533091;0.00206879;-1.8822;25.0739;5.87435;-0.062907;0.202351;-0.613881;-0.0253154;-0.416851;-0.0570945;0.421504;-11.6197;-0.0008233;0.000451538;0.00387885;0.00392182;-0.000866267;0.00239404;0.212253;4.71135;0.00294607;0.00319206;4.52726;0.220884;58.2159;103.216;-0.000662672;-0.00082622;-0.00156415;0.00245778;0.00387774;0.00600183;0.0124714;0;0.0225696;-0.0846724;-0.625838;-0.699436;0.942366;-5.69065;-0.00105439;0.000106628;0.00170245;0.00170657;-0.00105851;0.00138254;0.619338;1.61463;0.00161097;0.00184338;1.61224;0.620256;129.267;174.267;-0.00649862;-0.00105762;0.00276282;-0.00254225;0.00169864;0.0182353;0.0320783;0;0.0303653;3.98622;4.50471
348000;349;25.8225;0.0543318;0.00210848;-1.88291;25.0751;5.87326;-0.063619;0.203608;-0.614977;-0.0254112;-0.41924;-0.0555612;0.423668;-11.6182;-0.000895366;0.000349181;0.00387848;0.00390388;-0.000920772;0.00241233;0.230855;4.33172;0.00295768;0.00321644;4.2398;0.23586;59.5887;104.589;-0.00102869;-0.000897938;-0.00160466;0.00229373;0.00387726;0.0060678;0.0159981;0;0.0225804;-0.0844423;-0.628949;-0.698649;0.943831;-5.68986;-0.00115822;7.5167e-05;0.00192175;0.00192359;-0.00116005;0.00154182;0.602689;1.65923;0.00179844;0.00205576;1.65819;0.603068;129.199;174.199;-0.00744863;-0.00116112;0.0025637;-0.00240572;0.00191848;0.0195696;0.0318003;0;0.0342226;4.04659;4.51113
349000;350;25.825;0.0567818;0.00220356;-1.8829;25.077;5.87593;-0.0636025;0.205506;-0.612306;-0.0240687;-0.421708;-0.0570933;0.426236;-11.6197;-0.00100928;0.000726955;0.00288845;0.00301962;-0.00114045;0.00208003;0.349421;2.86188;0.00248215;0.00277338;2.64774;0.377681;47.1448;92.1448;-0.000573358;-0.00101285;-0.00132197;0.00276791;0.00288784;0.00763257;0.0155409;0;0.0219105;-0.0832076;-0.63219;-0.699862;0.946781;-5.69108;-0.00129643;-2.37743e-05;0.00218606;0.00218623;-0.00129659;0.00174141;0.593044;1.68622;0.00203256;0.00232188;1.68613;0.593074;130.28;175.28;-0.00731403;-0.00129957;0.00246562;-0.00250451;0.00218303;0.0173365;0.0350373;0;0.0332405;4.12583;4.51883
350000;351;25.8235;0.0553127;0.00214655;-1.88095;25.0763;5.87316;-0.0616549;0.204789;-0.615079;-0.0245344;-0.42599;-0.0546515;0.430181;-11.6172;-0.00128194;0.000672452;0.00324667;0.00334441;-0.00137968;0.00236205;0.394848;2.53262;0.00280498;0.00314939;2.42404;0.412534;49.0236;94.0236;0.000419629;-0.0012857;-0.00148649;0.00282164;0.00324579;0.00258308;0.0161392;0;0.0211086;-0.0831429;-0.636975;-0.698989;0.949335;-5.6902;-0.00124316;-5.992e-05;0.00262435;0.00262528;-0.00124409;0.00193469;0.473703;2.11103;0.00228093;0.00257958;2.1102;0.47389;128.011;173.011;-0.00687319;-0.00124633;0.00240553;-0.00251586;0.00262147;0.0173442;0.0327483;0;0.0287087;4.19723;4.52636
351000;352;25.8198;0.0516359;0.00200386;-1.87735;25.0789;5.84694;-0.0580576;0.207398;-0.641291;-0.0234439;-0.425274;-0.0587891;0.429958;-11.6214;-0.000756212;0.00110523;0.00263563;0.00296398;-0.00108456;0.00202427;0.286919;3.48531;0.00241992;0.00269903;2.73289;0.365914;40.6608;85.6608;0.000561203;-0.000760656;-0.000975252;0.00317866;0.00263577;0.00270191;0.0148368;0;0.0273715;-0.0820821;-0.638094;-0.701745;0.952023;-5.69296;-0.001436;-4.12901e-05;0.00286579;0.00286618;-0.00143639;0.00215129;0.501083;1.99568;0.0025294;0.00286839;1.9954;0.501152;126.921;171.921;-0.00750232;-0.00143876;0.00227511;-0.00234775;0.00286321;0.0200247;0.0309076;0;0.0302124;4.26138;4.53385
352000;353;25.819;0.0507591;0.00196984;-1.87568;25.0792;5.8423;-0.0563863;0.207703;-0.645937;-0.0223747;-0.426205;-0.0614356;0.431191;-11.624;-0.000801277;0.000735384;0.0031009;0.00323489;-0.000935263;0.00208508;0.258401;3.86995;0.00252672;0.0027801;3.4588;0.289118;49.7424;94.7424;0.00097243;-0.000804703;-0.00125477;0.00271779;0.00310039;0.00222704;0.0149229;0;0.0209873;-0.0807792;-0.639963;-0.705564;0.95598;-5.69678;-0.00137306;-0.000248332;0.00300655;0.00302058;-0.0013871;0.00220384;0.456691;2.18966;0.00260237;0.00293845;2.17762;0.459216;129.451;174.451;-0.00646764;-0.00137706;0.00234984;-0.00283516;0.00300382;0.0180301;0.0292841;0;0.028601;4.32488;4.53519
353000;354;25.822;0.0538082;0.00208816;-1.87766;25.0812;5.84651;-0.0583696;0.209712;-0.641725;-0.0216261;-0.429559;-0.0577853;0.433968;-11.6204;-0.00113899;0.000985438;0.00323533;0.00344707;-0.00135074;0.00239891;0.352049;2.84051;0.0028568;0.00319854;2.55199;0.391852;46.968;91.968;-0.000199809;-0.00114284;-0.000980107;0.00294241;0.00323533;0.00453058;0.0150866;0;0.0287898;-0.0799311;-0.644845;-0.703528;0.957687;-5.69474;-0.00149272;-0.000373026;0.00337535;0.00340377;-0.00152114;0.00246245;0.442241;2.26121;0.00291182;0.00328327;2.23765;0.446898;128.524;173.524;-0.00715284;-0.00149643;0.00201181;-0.00274629;0.00337341;0.0213904;0.0299203;0;0.0307945;4.41611;4.54642
354000;355;25.8222;0.0540336;0.00209691;-1.87794;25.0813;5.84726;-0.0586488;0.209748;-0.640975;-0.022819;-0.432903;-0.0557091;0.437069;-11.6183;-0.000882139;0.000811229;0.0020941;0.00230085;-0.00108889;0.00169487;0.42125;2.37389;0.00199833;0.00225983;2.11302;0.473256;38.9401;83.9401;0.00126429;-0.000885919;-0.00124904;0.00286538;0.00209365;0.00207328;0.0149849;0;0.0213302;-0.0811411;-0.649044;-0.701429;0.959085;-5.69264;-0.00126793;-0.000291813;0.00315561;0.00317478;-0.00128709;0.00223094;0.4018;2.4888;0.0026518;0.00297458;2.46663;0.405412;127.3;172.3;-0.00640084;-0.00127108;0.00195387;-0.00252759;0.00315375;0.0199965;0.0255319;0;0.0275649;4.46984;4.54814
355000;356;25.824;0.0558371;0.0021669;-1.87724;25.0827;5.84946;-0.0579427;0.211145;-0.638775;-0.0204068;-0.432262;-0.0641536;0.437473;-11.6267;-0.000993014;0.00101872;0.00177218;0.00210695;-0.00132779;0.00171737;0.560334;1.78465;0.00199998;0.00228983;1.58682;0.630192;32.4239;77.4239;0.00167906;-0.000996965;-0.000956534;0.00298851;0.00177224;0.00163255;0.01712;0;0.0222979;-0.078149;-0.650177;-0.710007;0.965892;-5.70122;-0.00134353;-0.000347799;0.00325518;0.00328133;-0.00136969;0.00232551;0.412737;2.42285;0.00275984;0.00310068;2.39568;0.417418;127.887;172.887;-0.00641533;-0.00134691;0.00193644;-0.00262157;0.00325337;0.0205903;0.0230246;0;0.0293361;4.53733;4.55563
356000;357;25.8175;0.0493284;0.00191431;-1.87613;25.0789;5.83705;-0.0568337;0.207418;-0.651181;-0.0205753;-0.434453;-0.064335;0.439672;-11.6269;-0.0010904;0.00085286;0.00268491;0.00286863;-0.00127413;0.00207138;0.406123;2.46231;0.00245017;0.00276184;2.25145;0.444158;44.3095;89.3095;-0.000289116;-0.00109379;-0.00104076;0.00273935;0.00268473;0.00262234;0.0125672;0;0.0287139;-0.0787626;-0.654397;-0.707854;0.967211;-5.69907;-0.00139702;-0.000377438;0.00320647;0.00323722;-0.00142776;0.00233249;0.435686;2.29523;0.00276003;0.00310998;2.26734;0.441045;128.134;173.134;-0.00576139;-0.00140009;0.00176156;-0.00250662;0.003205;0.0198533;0.0235409;0;0.0279327;4.61249;4.56323
357000;358;25.8193;0.0510731;0.00198202;-1.87688;25.0804;5.83838;-0.0575903;0.208848;-0.649851;-0.0200966;-0.436853;-0.063605;0.441916;-11.6262;-0.0010649;0.00062324;0.00123041;0.00138872;-0.00122321;0.00130596;0.865482;1.15543;0.001509;0.00174128;1.13531;0.880817;32.085;77.085;0.000617276;-0.00106765;-0.00118554;0.00242787;0.0012299;0.0023311;0.0150381;0;0.0319442;-0.0780389;-0.657776;-0.710301;0.971229;-5.70152;-0.00161133;-0.000326158;0.00306075;0.00308341;-0.00163399;0.0023587;0.52645;1.89952;0.00276612;0.00314494;1.88704;0.52993;128.9;173.9;-0.00575935;-0.00161394;0.00166042;-0.00230348;0.00305943;0.020657;0.0245781;0;0.0297989;4.68191;4.57031
358000;359;25.8207;0.0525108;0.00203781;-1.8763;25.0812;5.84132;-0.0570032;0.209688;-0.646916;-0.0196042;-0.437946;-0.0648816;0.44316;-11.6275;-0.000995904;0.000808726;0.0015494;0.00178462;-0.00123113;0.00150787;0.64277;1.55577;0.00175089;0.00201049;1.44958;0.689854;32.7613;77.7613;0.00147313;-0.000999503;-0.00118849;0.00280086;0.00154902;0.000615337;0.0160194;0;0.028636;-0.0773903;-0.659561;-0.713257;0.974548;-5.70447;-0.00130245;-0.000336987;0.00348148;0.0035051;-0.00132607;0.00241558;0.374108;2.67303;0.0028823;0.00322078;2.64323;0.378326;123.858;168.858;-0.00472445;-0.00130482;0.00153681;-0.00220184;0.00348036;0.0177678;0.0244624;0;0.0317224;4.74373;4.57762
359000;360;25.8234;0.0551964;0.00214203;-1.87786;25.0836;5.84264;-0.0585656;0.212029;-0.6456;-0.0183695;-0.439211;-0.0691048;0.444993;-11.6317;-0.00116776;0.000557194;0.00288878;0.00296392;-0.0012429;0.00210341;0.40424;2.47378;0.00249564;0.00280455;2.38467;0.419344;51.0861;96.0861;-0.000322674;-0.00117005;-0.00110089;0.00220857;0.00288833;0.00506371;0.0143811;0;0.022304;-0.0760792;-0.662921;-0.716004;0.978731;-5.70722;-0.0014382;-0.000391326;0.00331649;0.00334848;-0.00147019;0.00240933;0.433651;2.306;0.00285164;0.00321245;2.27758;0.439062;126.203;171.203;-0.00514117;-0.00144063;0.00146609;-0.00223994;0.00331549;0.0196132;0.0257638;0;0.0321026;4.82114;4.58569
360000;361;25.8258;0.0575715;0.00223421;-1.87773;25.0865;5.84064;-0.0584362;0.214948;-0.647591;-0.0181459;-0.44275;-0.0662975;0.448054;-11.6289;-0.000987773;0.000615941;0.00177459;0.0019057;-0.00111889;0.0015123;0.556621;1.79655;0.00176584;0.0020164;1.70321;0.587127;39.1894;84.1894;0.00109107;-0.000990487;-0.0011819;0.00240882;0.00177408;0.00170141;0.0150529;0;0.0248646;-0.0757899;-0.667022;-0.715643;0.981228;-5.70686;-0.00144297;-0.000415933;0.00338958;0.00342512;-0.00147851;0.00245181;0.425709;2.34902;0.00290452;0.00326909;2.3166;0.431667;126.489;171.489;-0.00478441;-0.00144564;0.00152209;-0.00234462;0.00338851;0.0193554;0.026612;0;0.0384836;4.90761;4.5932
361000;362;25.8264;0.0582296;0.00225975;-1.87825;25.0883;5.8357;-0.0589525;0.216737;-0.652535;-0.0177267;-0.444856;-0.0641294;0.449804;-11.6267;-0.000782898;0.00101843;0.00156485;0.00194506;-0.00116311;0.00155408;0.500302;1.99879;0.00181333;0.00207211;1.6723;0.59798;31.2985;76.2985;-0.000692473;-0.000785883;-0.000613018;0.00264605;0.00156518;0.00530198;0.0154702;0;0.0234456;-0.075368;-0.67037;-0.714843;0.982892;-5.70606;-0.00124747;-0.000614112;0.0034713;0.00354991;-0.00132608;0.00243799;0.359366;2.78268;0.00291111;0.00325066;2.677;0.373553;128.924;173.924;-0.00629807;-0.00125127;0.00160532;-0.0028231;0.0034702;0.0218804;0.0266856;0;0.0413294;4.95343;4.59933
362000;363;25.8335;0.0652847;0.00253354;-1.87812;25.0945;5.84012;-0.0588235;0.222982;-0.648117;-0.0177223;-0.445436;-0.0692755;0.451139;-11.6319;-0.00114833;7.55654e-05;0.00207235;0.00207412;-0.0011501;0.00161211;0.55412;1.80466;0.00188682;0.00214948;1.80342;0.554501;51.1158;96.1158;-0.000903367;-0.00114997;-0.00166786;0.00181339;0.00207096;0.00561047;0.0126066;0;0.021075;-0.0754034;-0.671969;-0.719904;0.987669;-5.71112;-0.00129995;-0.00067225;0.00322365;0.00332144;-0.00139774;0.00235959;0.403255;2.47982;0.00279906;0.00314612;2.37629;0.420824;131.676;176.676;-0.00671545;-0.00130399;0.00158492;-0.00291924;0.00322262;0.0227635;0.028295;0;0.0359504;5.02564;4.60404
363000;364;25.83;0.0617516;0.00239643;-1.87897;25.0929;5.83106;-0.0596773;0.221388;-0.657178;-0.0173108;-0.446587;-0.0705048;0.452449;-11.6331;-0.00104593;0.000531891;0.00159804;0.00170102;-0.00114892;0.00142497;0.654513;1.52785;0.00165568;0.00189997;1.48054;0.675431;38.7958;83.7958;-0.0011682;-0.00104819;-0.00112702;0.00218642;0.00159754;0.00692517;0.0144745;0;0.0231219;-0.0753043;-0.674768;-0.72063;0.990096;-5.71184;-0.00138254;-0.000543535;0.0032346;0.00329772;-0.00144566;0.00237169;0.427423;2.3396;0.00280732;0.00316226;2.28111;0.438383;130.475;175.475;-0.00756;-0.00138633;0.00172815;-0.00280476;0.00323326;0.0241437;0.0291101;0;0.0361644;5.108;4.61201
364000;365;25.8339;0.0657233;0.00255056;-1.87968;25.0956;5.83702;-0.0603918;0.224036;-0.651213;-0.0164938;-0.44796;-0.0718436;0.453985;-11.6344;-0.000921327;0.000341473;0.00196095;0.00200086;-0.00096123;0.00148104;0.469836;2.1284;0.00174492;0.00197472;2.08156;0.480409;46.4671;91.4671;-0.000386647;-0.000923533;-0.00144925;0.00212704;0.00195996;0.00664997;0.0146521;0;0.0188257;-0.0742136;-0.677227;-0.723949;0.994106;-5.71516;-0.00115555;-0.00053734;0.00357712;0.00363736;-0.00121579;0.00242658;0.323039;3.0956;0.00291592;0.00323543;2.99176;0.334251;127.263;172.263;-0.00775759;-0.0011593;0.00172718;-0.00279118;0.00357577;0.0245031;0.0305395;0;0.0336713;5.18073;4.61913
365000;366;25.8338;0.065554;0.00254399;-1.87862;25.0961;5.83414;-0.0593296;0.224612;-0.654096;-0.0161437;-0.450125;-0.0723938;0.456195;-11.635;-0.00108519;0.000262849;0.00190707;0.00192998;-0.0011081;0.00151904;0.569036;1.75736;0.00177531;0.00202539;1.7417;0.574153;46.9781;91.9781;-0.000152835;-0.00108701;-0.00140388;0.0019246;0.00190612;0.00551488;0.0162307;0;0.022852;-0.0739963;-0.679918;-0.724289;0.996172;-5.7155;-0.00128209;-0.000522906;0.00351814;0.00357444;-0.00133839;0.00245641;0.364423;2.74407;0.00293272;0.00327522;2.6707;0.374434;128.036;173.036;-0.00869033;-0.00128586;0.00176067;-0.00279556;0.00351673;0.0252349;0.0281819;0;0.0362899;5.23282;4.62192
366000;367;25.8326;0.0643936;0.00249896;-1.87861;25.0958;5.83055;-0.0593204;0.224253;-0.657688;-0.0162293;-0.449701;-0.0751644;0.456228;-11.6378;-0.000983326;0.000387874;0.00248817;0.00253098;-0.00102614;0.00177856;0.395201;2.53036;0.00211407;0.00237141;2.46651;0.405431;50.2007;95.2007;-0.000488119;-0.000985592;-0.00139304;0.00216262;0.00248727;0.00459937;0.0141466;0;0.0309492;-0.0737646;-0.681084;-0.727135;0.999021;-5.71835;-0.00108552;-0.000475344;0.00361443;0.00366203;-0.00113312;0.00239757;0.30033;3.32967;0.00289397;0.00319676;3.23182;0.309423;126.17;171.17;-0.0084414;-0.0010892;0.00180974;-0.00274972;0.00361292;0.0230593;0.0288242;0;0.0414466;5.30692;4.62874
367000;368;25.84;0.0717781;0.00278553;-1.87965;25.1004;5.84296;-0.0603526;0.22889;-0.645275;-0.0150143;-0.454038;-0.0722005;0.459988;-11.6348;-0.00109725;0.000337703;0.00220302;0.00223722;-0.00113145;0.00168433;0.498066;2.00777;0.00197952;0.00224578;1.9773;0.505739;48.1708;93.1708;-0.000342125;-0.0010993;-0.00138162;0.00205136;0.00220212;0.00411474;0.0188033;0;0.0284943;-0.07297;-0.685549;-0.72702;1.00193;-5.71823;-0.000926721;-0.000494808;0.00397031;0.00401981;-0.000976217;0.00249801;0.233413;4.28426;0.00305767;0.00333068;4.11774;0.242852;123.39;168.39;-0.00829182;-0.000930243;0.00171974;-0.00269855;0.00396896;0.0215672;0.0296043;0;0.0427857;5.39716;4.63643
368000;369;25.838;0.0697529;0.00270694;-1.87746;25.1001;5.83623;-0.0581712;0.228535;-0.652005;-0.014523;-0.454811;-0.0727107;0.460815;-11.6353;-0.00112993;0.000304122;0.00249535;0.00252068;-0.00115526;0.00183797;0.452813;2.20842;0.00217056;0.00245063;2.18191;0.458313;51.3374;96.3374;-0.00126038;-0.00113184;-0.00137651;0.00197868;0.00249445;0.00667207;0.0164331;0;0.0313267;-0.0723296;-0.687674;-0.727064;1.00337;-5.71828;-0.0010753;-0.000385437;0.00437575;0.00440287;-0.00110242;0.00275264;0.245741;4.06933;0.00336349;0.00367019;3.99383;0.250386;120.162;165.162;-0.00822592;-0.0010784;0.00176003;-0.00251926;0.00437428;0.0211561;0.0315561;0;0.0428324;5.4461;4.64378
369000;370;25.8361;0.0679395;0.00263656;-1.87711;25.0988;5.83377;-0.0578154;0.227268;-0.654469;-0.0143148;-0.456959;-0.0727491;0.462935;-11.6353;-0.00124412;5.83953e-05;0.00302268;0.00302348;-0.00124492;0.0021342;0.411595;2.42957;0.00253467;0.0028456;2.42865;0.411751;57.5444;102.544;9.93159e-05;-0.0012458;-0.00172158;0.0018308;0.00302121;0.00465523;0.0160457;0;0.0300828;-0.0720152;-0.690853;-0.728722;1.00673;-5.71994;-0.000989792;-0.000446656;0.00448829;0.00452447;-0.00102597;0.00277522;0.220528;4.53458;0.00341014;0.00370029;4.40994;0.22676;120.01;165.01;-0.00770818;-0.000993047;0.00170744;-0.002589;0.00448694;0.0214685;0.0294868;0;0.0410866;5.50897;4.65155
370000;371;25.8414;0.0732072;0.00284099;-1.87745;25.1036;5.83626;-0.0581572;0.232086;-0.65198;-0.0140466;-0.460179;-0.0727167;0.466101;-11.6353;-0.00117511;0.000268664;0.00296455;0.00298191;-0.00119248;0.00208719;0.396389;2.52278;0.0024828;0.00278293;2.5006;0.399903;54.2819;99.2819;0.000120361;-0.0011773;-0.00157802;0.00210772;0.00296334;0.00540305;0.0181297;0;0.02755;-0.0721595;-0.695973;-0.727485;1.00937;-5.71902;-0.00104571;-0.0001564;0.00505805;0.00506206;-0.00104971;0.00305588;0.206741;4.83697;0.00377359;0.00407451;4.82233;0.207369;112.929;157.929;-0.00617676;-0.00104774;0.00172047;-0.00202187;0.00505659;0.0247865;0.0242639;0;0.0394939;5.60042;4.65868
371000;372;25.8412;0.0730411;0.00283454;-1.87888;25.1041;5.83297;-0.0595882;0.232572;-0.655267;-0.0138937;-0.462922;-0.0717143;0.46865;-11.6343;-0.00120875;0.000163362;0.00338704;0.00339284;-0.00121455;0.0023037;0.356876;2.80209;0.0027574;0.0030716;2.79349;0.357975;57.7885;102.788;-0.000197759;-0.0012109;-0.00176022;0.00207814;0.00338551;0.00561833;0.017396;0;0.025282;-0.0716411;-0.699195;-0.728206;1.01207;-5.71975;-0.000954915;-0.00017873;0.00525083;0.00525597;-0.000960058;0.00310802;0.18186;5.49874;0.00386397;0.00414402;5.47464;0.18266;111.999;156.999;-0.00532253;-0.000956953;0.00168002;-0.002026;0.00524944;0.0245375;0.0229517;0;0.0348877;5.65184;4.66583
372000;373;25.842;0.0738106;0.00286441;-1.87818;25.1048;5.83352;-0.0588896;0.233288;-0.654715;-0.0129541;-0.463506;-0.0733627;0.469455;-11.636;-0.00116351;7.1057e-05;0.00342823;0.00342933;-0.00116461;0.00229697;0.33939;2.94646;0.00275765;0.00306262;2.94462;0.339602;59.0219;104.022;2.14444e-05;-0.0011656;-0.00191503;0.00204806;0.0034264;0.00373469;0.0171535;0;0.0288183;-0.0707287;-0.701081;-0.730272;1.0148;-5.72149;-0.000839955;-0.000250724;0.00533931;0.00534947;-0.000850112;0.00309979;0.157315;6.35667;0.00388085;0.00413305;6.29267;0.158915;112.506;157.506;-0.00651866;-0.000842266;0.00167389;-0.00216351;0.00533795;0.0210636;0.0255809;0;0.0317121;5.72054;4.67273
373000;374;25.8403;0.072092;0.00279771;-1.87951;25.1047;5.82614;-0.060214;0.233133;-0.662094;-0.0127312;-0.46578;-0.0735154;0.471718;-11.6361;-0.00100179;0.000383792;0.0024423;0.00248455;-0.00104404;0.00176429;0.410184;2.43793;0.00209305;0.00235239;2.37974;0.420214;49.447;94.447;0.000748588;-0.00100418;-0.00145738;0.00221864;0.00244131;0.00319367;0.0162388;0;0.0262486;-0.0704946;-0.70459;-0.731148;1.01784;-5.72236;-0.000833581;-0.00023045;0.00543192;0.00544039;-0.000842045;0.00314122;0.15346;6.51637;0.00393773;0.00418829;6.46092;0.154777;112.204;157.204;-0.0066578;-0.000835918;0.00172471;-0.00217343;0.00543047;0.0215718;0.0249639;0;0.0305008;5.78813;4.6796
374000;375;25.8395;0.0712887;0.00276654;-1.87941;25.1047;5.82259;-0.0601185;0.233138;-0.665648;-0.0117743;-0.469504;-0.0707094;0.474945;-11.6333;-0.00116694;-1.3287e-05;0.00306131;0.00306135;-0.00116699;0.00211417;0.381192;2.62335;0.00252157;0.00281889;2.6233;0.3812;58.7464;103.746;-0.000515257;-0.00116863;-0.00187066;0.00183625;0.00305956;0.00507807;0.0150011;0;0.027621;-0.0696552;-0.709267;-0.729818;1.02007;-5.72103;-0.0006806;-0.000174174;0.00531077;0.00531583;-0.000685659;0.00300074;0.128155;7.80307;0.00379315;0.00400099;7.75287;0.128984;111.127;156.127;-0.00607417;-0.000682676;0.00170697;-0.00204411;0.00530934;0.0209362;0.0245626;0;0.031057;5.86863;4.68742
375000;376;25.8396;0.0713885;0.00277041;-1.87983;25.1059;5.81758;-0.0605373;0.234369;-0.670651;-0.0114385;-0.471228;-0.0707123;0.476641;-11.6333;-0.00114657;0.000136898;0.00302382;0.00302831;-0.00115106;0.00208968;0.379178;2.63728;0.00249278;0.00278625;2.6309;0.380098;55.4031;100.403;0.000609557;-0.00114896;-0.00192766;0.00219288;0.00302198;0.00428827;0.0154923;0;0.0270984;-0.069224;-0.712136;-0.730766;1.02272;-5.72198;-0.00085282;-0.000247606;0.0052281;0.00523816;-0.000862885;0.00305053;0.163122;6.13037;0.00381243;0.00406737;6.07052;0.16473;112.38;157.38;-0.00557907;-0.000854975;0.00160597;-0.00208997;0.00522685;0.0197097;0.023929;0;0.0312277;5.92707;4.69108
376000;377;25.838;0.0697657;0.00270743;-1.87881;25.1054;5.81304;-0.059519;0.233829;-0.675198;-0.0109257;-0.472389;-0.0706174;0.477763;-11.6332;-0.000914477;0.000263067;0.00271371;0.00273269;-0.000933451;0.00183307;0.336984;2.9675;0.00219997;0.00244409;2.92751;0.341587;53.2941;98.2941;-0.000594575;-0.000916884;-0.00168977;0.00220883;0.00271232;0.00553187;0.0150606;0;0.0250291;-0.0686017;-0.714093;-0.732285;1.02512;-5.7235;-0.000770395;-0.000214745;0.0053745;0.005382;-0.000777891;0.00307994;0.143343;6.97629;0.00387342;0.00410659;6.9187;0.144536;110.956;155.956;-0.00558615;-0.000772389;0.00158912;-0.00200759;0.00537327;0.0198952;0.0256558;0;0.0313341;5.99286;4.69578
377000;378;25.8366;0.0684287;0.00265555;-1.87953;25.1051;5.80782;-0.0602422;0.233606;-0.680415;-0.00983122;-0.475277;-0.0684094;0.480276;-11.631;-0.000889375;0.000918655;0.00364763;0.00382658;-0.00106833;0.00244745;0.243823;4.10134;0.00297187;0.00326327;3.58184;0.279186;51.5661;96.5661;0.00174067;-0.000893093;-0.00104783;0.00287624;0.0036475;-0.00129364;0.0158505;0;0.0314151;-0.0678813;-0.71831;-0.730964;1.02708;-5.72218;-0.000736983;-0.000160093;0.0052567;0.00526098;-0.000741256;0.00300112;0.140199;7.13273;0.00377872;0.00400149;7.09738;0.140897;111.073;156.073;-0.00509058;-0.000738964;0.0016867;-0.00199588;0.0052553;0.0193075;0.0239151;0;0.0362672;6.06788;4.70315
378000;379;25.8414;0.0732268;0.00284175;-1.88065;25.1084;5.8146;-0.0613533;0.236891;-0.673633;-0.00895974;-0.477936;-0.0664111;0.482611;-11.629;-0.00097348;0.000568909;0.00290986;0.00299149;-0.00105511;0.0020233;0.334545;2.98913;0.00242383;0.00269773;2.83524;0.352704;50.5457;95.5457;0.000599928;-0.00097629;-0.00130597;0.00243653;0.00290917;0.00188127;0.0162853;0;0.0289111;-0.0671085;-0.721319;-0.730675;1.02893;-5.72189;-0.000632335;-9.88069e-05;0.00537136;0.00537298;-0.00063396;0.00300347;0.117723;8.49449;0.00381093;0.00400463;8.47527;0.11799;108.941;153.941;-0.00513374;-0.000633987;0.00163285;-0.00182012;0.00537004;0.0187913;0.0239156;0;0.0375724;6.13542;4.71065
379000;380;25.8399;0.0717174;0.00278317;-1.87995;25.1076;5.81157;-0.0606607;0.236091;-0.676661;-0.00821493;-0.477363;-0.074318;0.483184;-11.6369;-0.000797695;0.000430518;0.00369572;0.0037366;-0.000838572;0.00228759;0.215843;4.633;0.00281257;0.00305012;4.45591;0.224421;58.9266;103.927;0.00081285;-0.000800113;-0.00138683;0.00223973;0.00369486;0.000485199;0.0166984;0;0.0246731;-0.0662847;-0.722893;-0.73799;1.03518;-5.7292;-0.000579064;-2.05157e-05;0.00511611;0.00511618;-0.000579138;0.00284766;0.113184;8.83514;0.00361931;0.00379688;8.83414;0.113197;109.026;154.026;-0.00551725;-0.000580631;0.00173913;-0.00177019;0.0051146;0.0180406;0.0238154;0;0.0389779;6.19392;4.71713
380000;381;25.8436;0.075412;0.00292655;-1.87994;25.1102;5.81674;-0.0606444;0.238697;-0.671492;-0.00755757;-0.478472;-0.0764105;0.484594;-11.639;-0.000981904;0.000141056;0.00377684;0.00378102;-0.000986082;0.00238355;0.25998;3.84645;0.00290569;0.00317807;3.83439;0.260798;61.1214;106.121;0.000968157;-0.000984083;-0.00181839;0.00209121;0.0037752;0.00186736;0.0166812;0;0.022959;-0.0659357;-0.72477;-0.740518;1.03827;-5.73173;-0.000519298;-0.000128718;0.00507149;0.00507446;-0.00052226;0.00279836;0.102395;9.76606;0.00356981;0.00373114;9.71635;0.102919;110.907;155.907;-0.00564275;-0.000521259;0.00173696;-0.00198402;0.00507;0.0196484;0.0265303;0;0.0371445;6.25388;4.72424
381000;382;25.84;0.0718095;0.00278675;-1.88017;25.108;5.81044;-0.0608792;0.236431;-0.677792;-0.00657902;-0.481369;-0.0742183;0.487102;-11.6368;-0.000920564;0.000864417;0.00274162;0.00293541;-0.00111435;0.00202488;0.335773;2.9782;0.00241564;0.00269984;2.6342;0.379622;45.4555;90.4555;0.0021966;-0.000923888;-0.00099609;0.00271813;0.0027415;-0.00051656;0.0161696;0;0.0241798;-0.0651198;-0.727952;-0.741685;1.04127;-5.7329;-0.00048481;-0.000229038;0.00502978;0.00503928;-0.000494306;0.00276679;0.0963879;10.3747;0.00353582;0.00368906;10.1946;0.0980907;113.413;158.413;-0.00625156;-0.000487388;0.00183494;-0.00228169;0.00502813;0.0208428;0.0266502;0;0.0374992;6.32624;4.73086
382000;383;25.8371;0.0688934;0.00267358;-1.88087;25.1062;5.80476;-0.0615729;0.234691;-0.683471;-0.00562034;-0.484735;-0.0740991;0.490399;-11.6367;-0.000946707;0.000985532;0.00294641;0.00318167;-0.00118197;0.00218182;0.321309;3.11227;0.00260604;0.0029091;2.69183;0.371495;45.607;90.607;0.00205857;-0.000950321;-0.000898477;0.00286222;0.00294649;-0.000155907;0.0136366;0;0.0265031;-0.0643575;-0.731914;-0.742261;1.04441;-5.73348;-0.000384881;-0.000106693;0.00491794;0.00492009;-0.000387026;0.00265356;0.0782605;12.7778;0.00341638;0.00353807;12.7125;0.0786625;111.748;156.748;-0.00640116;-0.000387062;0.00188844;-0.00209129;0.00491617;0.0196744;0.0288832;0;0.0437457;6.37732;4.73861
383000;384;25.8385;0.0702745;0.00272718;-1.88046;25.1074;5.80597;-0.0611681;0.235864;-0.682266;-0.00493614;-0.487466;-0.0760108;0.493381;-11.6386;-0.000968714;0.000923103;0.00267148;0.00289218;-0.00118942;0.0020408;0.362614;2.75776;0.00242391;0.00272107;2.43159;0.411253;43.0952;88.0952;0.00206794;-0.000972566;-0.00108461;0.00292352;0.00267132;0.000407963;0.01459;0;0.0235695;-0.063689;-0.735419;-0.744719;1.04857;-5.73593;-0.000392825;-0.000138412;0.00502879;0.00503232;-0.000396356;0.00271434;0.0781152;12.8016;0.0034945;0.00361912;12.6965;0.0787621;112.229;157.229;-0.00619813;-0.00039522;0.00192715;-0.00219283;0.00502695;0.0185095;0.0309944;0;0.0389062;6.42451;4.74543
384000;385;25.8403;0.0720837;0.00279739;-1.87964;25.1081;5.81107;-0.060343;0.236608;-0.677166;-0.00395625;-0.492829;-0.0724184;0.498137;-11.635;-0.00101807;0.00134749;0.00198702;0.00250273;-0.00153378;0.00201826;0.512361;1.95175;0.00235276;0.00269101;1.63174;0.612844;30.6665;75.6665;0.00201552;-0.00102301;-0.000728284;0.00341703;0.00198766;-0.000822119;0.0126204;0;0.0241732;-0.0627788;-0.740244;-0.743969;1.05138;-5.73518;-0.000441079;5.47394e-05;0.00523442;0.00523495;-0.000441607;0.00283828;0.0842651;11.8673;0.0036461;0.00378437;11.8543;0.0843575;109.564;154.564;-0.00573541;-0.000443027;0.0020948;-0.00197381;0.00523224;0.0171822;0.0310892;0;0.0350199;6.50131;4.75277
385000;386;25.8424;0.0741965;0.00287938;-1.88096;25.1096;5.81352;-0.0616667;0.238116;-0.674716;-0.00161471;-0.497181;-0.0692001;0.501976;-11.6318;-0.000974264;0.00106978;0.00288133;0.00315826;-0.0012512;0.00220473;0.33813;2.95744;0.00262397;0.00293964;2.52419;0.396166;44.0742;89.0742;0.00124509;-0.000977984;-0.000796289;0.00292867;0.00288158;0.00199698;0.0122744;0;0.0226284;-0.0611136;-0.744869;-0.743383;1.05413;-5.7346;-0.000298062;0.000284604;0.00515614;0.00517095;-0.000312873;0.00274191;0.0578073;17.2989;0.00355618;0.00365588;16.5273;0.0605059;106.689;151.689;-0.00553137;-0.00029948;0.00228721;-0.00170714;0.00515358;0.0155877;0.030304;0;0.034453;6.53388;4.75988
386000;387;25.8429;0.074663;0.00289749;-1.88008;25.1104;5.81262;-0.0607847;0.238871;-0.675619;-0.00108501;-0.4981;-0.0720645;0.503287;-11.6347;-0.000856489;0.000956156;0.00216577;0.00244287;-0.00113358;0.00178823;0.395466;2.52866;0.00211048;0.0023843;2.15499;0.464038;38.2794;83.2794;0.00180923;-0.000860165;-0.000967399;0.00287391;0.00216576;-0.000538584;0.013225;0;0.0237575;-0.0604359;-0.746474;-0.747959;1.05845;-5.73917;-0.000310719;0.000358814;0.00517588;0.00519925;-0.000334086;0.00276667;0.0600321;16.6577;0.00358272;0.00368889;15.5626;0.0642565;105.898;150.898;-0.0060838;-0.000311983;0.00235802;-0.00162948;0.00517318;0.0180515;0.0304582;0;0.0365051;6.58142;4.76173
387000;388;25.8443;0.0760581;0.00295162;-1.88036;25.1112;5.81543;-0.0610656;0.239636;-0.672809;1.64745e-05;-0.5017;-0.0688792;0.506406;-11.6315;-0.00098335;0.000865987;0.00284387;0.00303069;-0.00117018;0.00210044;0.345779;2.89202;0.00250341;0.00280058;2.58994;0.386109;46.4202;91.4202;0.00160503;-0.000986565;-0.000953305;0.00267833;0.00284379;0.000209515;0.0135587;0;0.0272387;-0.059368;-0.750024;-0.746288;1.05972;-5.7375;-0.000375656;0.000337754;0.00525441;0.0052746;-0.000395845;0.00283522;0.0714934;13.9873;0.0036555;0.0037803;13.3249;0.0750475;106.089;151.089;-0.00556196;-0.000376943;0.00232648;-0.00163983;0.00525177;0.0162067;0.0283224;0;0.036978;6.62605;4.76802
388000;389;25.8447;0.0764573;0.00296712;-1.87991;25.1123;5.81235;-0.060615;0.240792;-0.675885;0.00128325;-0.50454;-0.0729066;0.509782;-11.6355;-0.00111286;0.000599534;0.0034204;0.00349835;-0.00119081;0.00234458;0.325359;3.07353;0.00281443;0.00312611;2.9378;0.340391;53.675;98.675;0.0018082;-0.00111564;-0.00124403;0.00243476;0.00341981;0.000512421;0.0136012;0;0.0243019;-0.0580215;-0.754138;-0.750184;1.0653;-5.7414;-0.000415844;0.000462457;0.0055556;0.0055912;-0.000451447;0.00302132;0.0748515;13.3598;0.0038867;0.00402843;12.3851;0.0807425;103.834;148.834;-0.00485962;-0.000416771;0.00237401;-0.00143774;0.0055529;0.0143209;0.0262795;0;0.0301885;6.68077;4.77567
389000;390;25.8464;0.0781786;0.00303392;-1.8799;25.1137;5.81416;-0.0606079;0.242146;-0.674076;0.00221494;-0.507093;-0.0723288;0.51223;-11.6349;-0.00125248;0.000325115;0.00228424;0.00231388;-0.00128212;0.001798;0.548313;1.82377;0.00210444;0.00239733;1.80473;0.554099;47.6258;92.6258;0.00109277;-0.00125478;-0.00152427;0.00216797;0.00228313;0.00202582;0.0144257;0;0.0306386;-0.0570878;-0.756734;-0.752027;1.06839;-5.74324;-0.000420322;0.000453493;0.00549636;0.00553092;-0.000454879;0.0029929;0.0764728;13.0765;0.00384788;0.00399053;12.1591;0.0822429;104.144;149.144;-0.00498983;-0.000421285;0.00237814;-0.00145983;0.00549365;0.0150648;0.0255042;0;0.0303141;6.71306;4.78172
390000;391;25.8475;0.0793305;0.00307862;-1.88114;25.1154;5.81133;-0.0618485;0.243893;-0.676903;0.00216234;-0.510901;-0.0710553;0.515823;-11.6336;-0.00128913;0.000185049;0.00316969;0.00317735;-0.0012968;0.00223708;0.406707;2.45877;0.00265812;0.00298277;2.45015;0.408138;55.9274;100.927;0.000894723;-0.00129125;-0.00170217;0.00206388;0.00316826;0.00314206;0.0146554;0;0.0253889;-0.0571042;-0.762052;-0.750127;1.07083;-5.74134;-0.000434619;0.000419714;0.00536559;0.0053958;-0.000464833;0.00293032;0.0810012;12.3455;0.00376173;0.00390709;11.608;0.0861472;105.143;150.143;-0.00474802;-0.000435723;0.00239445;-0.00154364;0.00536283;0.0170604;0.025912;0;0.0297174;6.75749;4.789
391000;392;25.8474;0.0791772;0.00307267;-1.88049;25.1164;5.8067;-0.061193;0.244856;-0.681537;0.00235901;-0.512238;-0.0749227;0.517694;-11.6375;-0.00121037;0.000262536;0.00363572;0.0036499;-0.00122455;0.00243722;0.332909;3.00382;0.00292808;0.00324963;2.98062;0.335501;58.2431;103.243;0.0017824;-0.00121265;-0.00163826;0.00215416;0.00363442;0.000144111;0.0142143;0;0.0232665;-0.0567433;-0.765591;-0.752762;1.07517;-5.74398;-0.000345105;0.00031458;0.00528634;0.00530385;-0.000362623;0.00283324;0.0652825;15.318;0.00366277;0.00377765;14.6263;0.0683698;106.087;151.087;-0.00461497;-0.000346425;0.00229517;-0.00165492;0.00528376;0.0161842;0.0227605;0;0.0294118;6.78649;4.79653
392000;393;25.8497;0.0815386;0.00316431;-1.88066;25.1192;5.80477;-0.061371;0.247718;-0.683464;0.00278885;-0.514983;-0.07576;0.520534;-11.6384;-0.00132695;0.000159632;0.00359672;0.00360189;-0.00133212;0.002467;0.368933;2.71052;0.00294741;0.00328934;2.70388;0.369839;57.8826;102.883;0.00121447;-0.00132929;-0.0018591;0.00216846;0.00359501;0.00159097;0.0161207;0;0.0272163;-0.0561876;-0.769008;-0.755727;1.07965;-5.74694;-0.00049181;0.000274513;0.00536467;0.00537751;-0.000504649;0.00294108;0.0916757;10.908;0.00376452;0.00392144;10.6559;0.0938444;107.6;152.6;-0.00484046;-0.000493414;0.00237254;-0.00181129;0.00536191;0.0161609;0.024599;0;0.0298405;6.82441;4.80401
393000;394;25.8508;0.0826398;0.00320705;-1.88188;25.1199;5.80649;-0.0625892;0.248362;-0.681743;0.00328135;-0.518984;-0.075543;0.524463;-11.6381;-0.00140246;0.000297887;0.00452136;0.0045363;-0.0014174;0.00297685;0.310185;3.22388;0.00359115;0.00396913;3.20044;0.312457;61.9003;106.9;0.000486569;-0.00140481;-0.00160166;0.00218623;0.00452013;0.00202695;0.01697;0;0.025392;-0.0558625;-0.773884;-0.75448;1.08225;-5.74569;-0.000444769;0.00047715;0.00509828;0.00513906;-0.000485543;0.0028123;0.0872391;11.4628;0.00359882;0.00374973;10.5841;0.0944809;104.883;149.883;-0.00469068;-0.000445698;0.00240882;-0.00144387;0.00509551;0.0154159;0.0266368;0;0.0325263;6.86714;4.81174
394000;395;25.8528;0.0845632;0.00328169;-1.8811;25.122;5.80633;-0.0618089;0.250438;-0.681909;0.00407034;-0.522088;-0.0743515;0.527371;-11.6369;-0.00151465;-0.000430233;0.00487983;0.00490865;-0.00154346;0.00322606;0.310389;3.22176;0.00389035;0.00430141;3.18028;0.314438;68.3613;113.361;0.00077715;-0.00151591;-0.0025165;0.00164276;0.00487677;0.0035759;0.0157173;0;0.0235845;-0.0547568;-0.77726;-0.755005;1.08497;-5.74622;-0.00050798;0.000433005;0.0046995;0.00473526;-0.000543739;0.0026395;0.108092;9.25136;0.00335282;0.00351933;8.70871;0.114828;107.337;152.337;-0.00406847;-0.000509167;0.00247658;-0.00159998;0.00469654;0.0156477;0.0296091;0;0.0331593;6.89609;4.81927
395000;396;25.8531;0.0848518;0.00329289;-1.88067;25.1225;5.80545;-0.0613736;0.25097;-0.682784;0.00347785;-0.524516;-0.077573;0.530232;-11.6402;-0.00130954;4.53118e-06;0.0049745;0.0049745;-0.00130954;0.00314202;0.26325;3.79867;0.00382825;0.00418936;3.79866;0.263251;65.1379;110.138;0.000705804;-0.00131187;-0.00216527;0.00216077;0.00497216;0.00250856;0.0148233;0;0.0270087;-0.0553168;-0.780484;-0.758361;1.08965;-5.74958;-0.000612818;0.000401322;0.00457572;0.00460657;-0.000643676;0.00262512;0.133928;7.46668;0.00330656;0.00350017;7.15667;0.13973;108.574;153.574;-0.00489308;-0.000614095;0.00246058;-0.0016473;0.00457278;0.0165897;0.0315448;0;0.0369524;6.94735;4.82712
396000;397;25.8552;0.0869993;0.00337623;-1.88156;25.124;5.80831;-0.0622718;0.252452;-0.679923;0.00354301;-0.527997;-0.0793891;0.533944;-11.642;-0.00119198;5.2501e-05;0.00532774;0.00532816;-0.0011924;0.00326028;0.223731;4.46966;0.00400913;0.00434704;4.46843;0.223792;66.1855;111.186;0.00160968;-0.00119451;-0.00215663;0.00224731;0.00532543;0.00197589;0.0131325;0;0.0232658;-0.055497;-0.784537;-0.760214;1.09385;-5.75143;-0.000570778;0.000318286;0.00431596;0.00433661;-0.000591421;0.00246401;0.132248;7.56155;0.00310703;0.00328535;7.33252;0.136379;110.539;155.539;-0.00513352;-0.000572347;0.00244655;-0.00179962;0.00431303;0.0161321;0.0337914;0;0.0363239;6.97053;4.83284
397000;398;25.8514;0.0832349;0.00323014;-1.88104;25.1216;5.80196;-0.0617426;0.250086;-0.68628;0.00365485;-0.531132;-0.0780949;0.536855;-11.6407;-0.00150838;0.000747778;0.00496179;0.00504709;-0.00159368;0.00332039;0.304;3.28947;0.00400313;0.00442718;3.16693;0.315763;58.4873;103.487;0.000210187;-0.00151205;-0.00132353;0.00280575;0.0049612;0.00534655;0.0111227;0;0.0231097;-0.0551463;-0.788699;-0.758505;1.09564;-5.74972;-0.000495622;0.000240175;0.00407916;0.00409173;-0.000508196;0.00229996;0.121501;8.23039;0.00291204;0.00306662;8.05148;0.124201;113.514;158.514;-0.00556464;-0.000497888;0.00263341;-0.00214215;0.00407573;0.0178479;0.0346542;0;0.0384808;7.01062;4.83975
398000;399;25.8497;0.0815286;0.00316392;-1.88055;25.1207;5.79852;-0.0612619;0.24916;-0.689718;0.00404723;-0.535168;-0.0768291;0.54067;-11.6394;-0.00124459;0.000939337;0.0053597;0.0054907;-0.0013756;0.00343315;0.232213;4.30639;0.00419487;0.00457753;3.9915;0.250532;58.027;103.027;0.00149938;-0.00124937;-0.0013664;0.00322992;0.00535921;0.00232689;0.0130126;0;0.0227864;-0.0549379;-0.792428;-0.758042;1.09799;-5.74926;-0.000680859;0.000446774;0.00371772;0.00376264;-0.00072578;0.00224421;0.183139;5.46034;0.00278209;0.00299228;5.18428;0.192891;112.498;157.498;-0.00511506;-0.000682467;0.00275152;-0.00184787;0.00371405;0.015881;0.0372125;0;0.0350934;7.03885;4.84172
399000;400;25.8498;0.0816159;0.00316731;-1.88038;25.1218;5.79402;-0.0610885;0.2503;-0.694214;0.00520139;-0.536187;-0.0815039;0.542371;-11.6441;-0.00114917;0.000626914;0.00492347;0.00498752;-0.00121322;0.00310037;0.233407;4.28436;0.00379463;0.00413382;4.11098;0.243251;59.083;104.083;0.00135674;-0.00115316;-0.00164978;0.00288984;0.00492231;0.00330085;0.0138924;0;0.0234589;-0.0540592;-0.794204;-0.763305;1.10287;-5.75452;-0.000691154;0.000530942;0.00400883;0.00406806;-0.000750386;0.00240922;0.172408;5.8002;0.00299368;0.0032123;5.42129;0.184458;110.735;155.735;-0.0061204;-0.000692583;0.00284404;-0.00177133;0.00400494;0.0185264;0.0367489;0;0.0336974;7.0722;4.84782
400000;401;25.8518;0.0836271;0.00324536;-1.88104;25.123;5.79771;-0.0617512;0.251468;-0.690522;0.0044368;-0.539725;-0.0817263;0.545895;-11.6443;-0.00133044;0.000849165;0.00503783;0.00514911;-0.00144173;0.00329542;0.264091;3.78657;0.00400086;0.00439389;3.57148;0.279996;57.7143;102.714;0.00171429;-0.00133468;-0.00134572;0.00303014;0.00503728;0.00163704;0.0141142;0;0.0254596;-0.0547195;-0.798292;-0.7636;1.10605;-5.75481;-0.00063987;0.000456794;0.00415137;0.00419453;-0.000683032;0.00243878;0.154135;6.48782;0.00304963;0.00325171;6.14104;0.162839;110.987;155.987;-0.00568366;-0.000641489;0.00278056;-0.00185589;0.00414762;0.0177678;0.0370878;0;0.0388495;7.11351;4.85585
401000;402;25.8545;0.086316;0.00334971;-1.8798;25.125;5.80165;-0.0605048;0.25342;-0.686584;0.00479121;-0.542934;-0.0816174;0.549055;-11.6442;-0.001297;0.000745796;0.00560345;0.00568313;-0.00137668;0.00352991;0.231464;4.32032;0.00432138;0.00470655;4.12813;0.24224;60.8129;105.813;0.00184391;-0.00130119;-0.00151298;0.00298907;0.00560259;0.00273057;0.0138108;0;0.0257979;-0.0544377;-0.801762;-0.764486;1.10916;-5.7557;-0.000654342;0.000624132;0.00436859;0.00444498;-0.000730732;0.00258785;0.149783;6.67631;0.00323453;0.00345047;6.08291;0.164395;107.89;152.89;-0.00539374;-0.00065538;0.00282914;-0.00156985;0.00436479;0.0152785;0.0345445;0;0.0350265;7.13452;4.86256
402000;403;25.856;0.0878227;0.00340818;-1.88272;25.1206;5.82632;-0.0634301;0.249041;-0.661911;0.00438396;-0.547138;-0.0795633;0.55291;-11.6422;-0.00113397;0.0010008;0.00564233;0.00578705;-0.00127868;0.00353287;0.200975;4.97575;0.0043474;0.00471049;4.52579;0.220956;58.9794;103.979;0.00293003;-0.00113892;-0.00131561;0.00330159;0.00564197;-0.00215385;0.0123549;0;0.0244962;-0.0544384;-0.805935;-0.763697;1.11163;-5.75491;-0.000755136;0.000705014;0.00472085;0.00481016;-0.000844447;0.00282731;0.159958;6.25166;0.00352216;0.00376974;5.69623;0.175555;106.201;151.201;-0.00483522;-0.000755883;0.00283201;-0.00141039;0.00471711;0.0148816;0.0314829;0;0.0322054;7.18104;4.87038
403000;404;25.8552;0.087007;0.00337653;-1.87889;25.1251;5.80456;-0.0596019;0.253527;-0.683677;0.00521692;-0.548116;-0.082608;0.55433;-11.6452;-0.00117153;0.00130412;0.00491464;0.00518231;-0.0014392;0.00331076;0.238376;4.19505;0.00402139;0.00441434;3.60082;0.277714;53.2576;98.2576;0.00318796;-0.00117702;-0.000963315;0.00355781;0.00491503;-0.000592767;0.0157177;0;0.0277998;-0.0537537;-0.808271;-0.765023;1.1142;-5.75624;-0.000705863;0.000747485;0.00471844;0.00481956;-0.000806983;0.00281327;0.149597;6.68464;0.00351307;0.00375103;5.97232;0.167439;105.437;150.437;-0.00430678;-0.000706497;0.00285793;-0.00135157;0.00471465;0.0158778;0.0304696;0;0.0326468;7.20436;4.87772
404000;405;25.856;0.0877692;0.00340611;-1.87936;25.1257;5.80481;-0.0600684;0.254218;-0.683423;0.00475578;-0.550671;-0.0841721;0.557088;-11.6468;-0.00120176;0.0010923;0.00499904;0.00518583;-0.00138855;0.00328719;0.240399;4.15976;0.0040012;0.00438292;3.73471;0.267759;54.6165;99.6165;0.00262179;-0.00120719;-0.00129804;0.00346789;0.0049988;-0.000719822;0.0130898;0;0.0356136;-0.054086;-0.811532;-0.766805;1.11781;-5.75802;-0.000650662;0.000685638;0.00487257;0.00495641;-0.000734502;0.00284546;0.133536;7.48864;0.00357435;0.00379394;6.74799;0.148192;104.976;149.976;-0.00445801;-0.000651333;0.00272854;-0.00134604;0.0048691;0.0166247;0.0271382;0;0.034898;7.23775;4.88507
405000;406;25.8569;0.088745;0.00344397;-1.87886;25.1256;5.80984;-0.0595661;0.254098;-0.678399;0.00467397;-0.55333;-0.0867776;0.560112;-11.6494;-0.00119588;0.00166671;0.00489793;0.005324;-0.00162195;0.00347298;0.244161;4.09567;0.00419582;0.00463064;3.28247;0.304649;51.9136;96.9136;0.00236827;-0.00120129;-0.000365001;0.00368609;0.00489925;0.000654098;0.0138762;0;0.0283273;-0.0538866;-0.815457;-0.769172;1.12227;-5.76039;-0.000818288;0.000790716;0.0050111;0.00511645;-0.00092364;0.00302005;0.163295;6.12388;0.00375689;0.00402673;5.53945;0.180523;104.534;149.534;-0.00391556;-0.000818759;0.0028449;-0.00125155;0.00500739;0.0133614;0.0288447;0;0.0260601;7.26997;4.89238
406000;407;25.8522;0.083979;0.00325902;-1.87844;25.1234;5.79857;-0.0591431;0.251828;-0.689665;0.00477726;-0.557277;-0.0852475;0.56378;-11.6478;-0.00118535;0.000691625;0.00507757;0.00515304;-0.00126081;0.00320693;0.233448;4.28362;0.00392375;0.0042759;4.08707;0.244674;59.464;104.464;0.000764538;-0.00118932;-0.00153117;0.00290057;0.00507664;0.00382806;0.0131225;0;0.0276105;-0.0536786;-0.820413;-0.767219;1.12454;-5.75843;-0.000863765;0.000596837;0.00462704;0.00469117;-0.00092789;0.00280953;0.186677;5.35684;0.00347825;0.00374604;5.05574;0.197795;108.138;153.138;-0.00405645;-0.000864764;0.0027391;-0.00153372;0.00462349;0.01565;0.0276305;0;0.0249913;7.2994;4.89983
407000;408;25.8568;0.0886487;0.00344024;-1.87906;25.1269;5.80403;-0.0597673;0.255325;-0.6842;0.00486382;-0.558916;-0.0883496;0.565876;-11.6509;-0.0012146;0.000468282;0.00453931;0.00457717;-0.00125246;0.00291482;0.267574;3.73729;0.0035435;0.00388642;3.65454;0.273632;58.9692;103.969;0.00140781;-0.00121803;-0.00173625;0.00266018;0.00453792;0.00107388;0.0134945;0;0.0296931;-0.0536241;-0.822875;-0.770559;1.12861;-5.76177;-0.000925502;0.000721938;0.00503101;0.00511726;-0.00101175;0.00306451;0.183959;5.43598;0.00379399;0.00408601;5.05782;0.197714;105.629;150.629;-0.00273491;-0.000926116;0.00277878;-0.00132272;0.00502742;0.0144625;0.0299139;0;0.0264321;7.33962;4.90545
408000;409;25.8567;0.0885263;0.00343549;-1.87938;25.128;5.79855;-0.0600911;0.256442;-0.689688;0.00496914;-0.561331;-0.0877968;0.568177;-11.6504;-0.00138874;0.000517028;0.00488592;0.00492823;-0.00143106;0.00317965;0.284234;3.51823;0.00385216;0.00423953;3.44376;0.29038;60.4594;105.459;0.000304252;-0.00139194;-0.00155913;0.00258022;0.00488484;0.00293459;0.0128658;0;0.0301005;-0.0533794;-0.826101;-0.770616;1.13099;-5.76183;-0.00089254;0.000634068;0.0049571;0.00502504;-0.00096048;0.00299276;0.180053;5.55392;0.00371184;0.00399035;5.2318;0.191139;106.034;151.034;-0.00347464;-0.00089325;0.00262908;-0.00134933;0.00495386;0.0147407;0.0285239;0;0.0283282;7.36843;4.91162
409000;410;25.8591;0.0908611;0.0035261;-1.87876;25.1301;5.80001;-0.0594719;0.258554;-0.68823;0.00477186;-0.564418;-0.0919947;0.571886;-11.6546;-0.0012439;0.000454656;0.00489408;0.00492757;-0.0012774;0.00310249;0.254165;3.93446;0.00378343;0.00413665;3.85751;0.259234;61.4041;106.404;0.00015253;-0.00124702;-0.00164024;0.00253675;0.00489284;0.00588791;0.0145644;0;0.0261617;-0.0536935;-0.830384;-0.773801;1.1363;-5.76502;-0.00084179;0.000586921;0.0046135;0.00467593;-0.000904221;0.00279008;0.182462;5.48059;0.00345833;0.0037201;5.17123;0.193378;107.247;152.247;-0.00387922;-0.000842613;0.00259509;-0.00141035;0.00461032;0.016234;0.0294626;0;0.0302527;7.40202;4.91814
410000;411;25.8617;0.0935135;0.00362903;-1.87926;25.1318;5.80426;-0.0599709;0.260263;-0.683971;0.00486207;-0.567495;-0.0901825;0.574636;-11.6528;-0.0015123;0.00025471;0.00418227;0.00419364;-0.00152367;0.00285866;0.361598;2.7655;0.00341877;0.00381155;2.75233;0.363329;59.0574;104.057;0.000141571;-0.0015149;-0.00179501;0.00229281;0.0041807;0.00477422;0.0151488;0;0.0248122;-0.0533299;-0.833959;-0.773417;1.13864;-5.76463;-0.000809143;0.000568412;0.00434625;0.00440817;-0.00087107;0.00263962;0.186171;5.37142;0.00326807;0.0035195;5.06064;0.197603;108.794;153.794;-0.00401806;-0.000810171;0.00268966;-0.00154195;0.0043428;0.0159684;0.0303998;0;0.0346303;7.43163;4.92265
411000;412;25.8603;0.0920942;0.00357395;-1.87937;25.1314;5.79947;-0.0600734;0.2599;-0.68876;0.00515467;-0.569091;-0.0918459;0.576478;-11.6544;-0.00155159;0.000396702;0.00512623;0.00514971;-0.00157507;0.00336239;0.302676;3.30386;0.00406128;0.00448319;3.26951;0.305856;62.2608;107.261;0.00051331;-0.00155446;-0.00165076;0.00243056;0.00512495;0.00483745;0.0142743;0;0.0282339;-0.0532783;-0.836253;-0.77503;1.14141;-5.76624;-0.00109985;0.000600237;0.00416271;0.0042303;-0.00116744;0.00269887;0.264214;3.7848;0.00327937;0.0035985;3.62357;0.275971;109.899;154.899;-0.00356674;-0.00110066;0.00261774;-0.00140669;0.00415948;0.0175259;0.0327807;0;0.0376614;7.46114;4.92934
412000;413;25.8622;0.0940421;0.00364954;-1.87947;25.1334;5.79967;-0.060179;0.261851;-0.688561;0.00517912;-0.571669;-0.094267;0.579412;-11.6569;-0.00140086;0.000411797;0.00546199;0.00548662;-0.00142548;0.00345605;0.256474;3.89903;0.00421405;0.00460806;3.84896;0.259811;63.9268;108.927;-0.000230857;-0.00140381;-0.00165373;0.00246322;0.00546072;0.00443292;0.0136876;0;0.0271799;-0.0530654;-0.839692;-0.777761;1.14578;-5.76898;-0.00120818;0.000502836;0.00414928;0.00419607;-0.00125496;0.00272552;0.291178;3.43433;0.00329632;0.00363402;3.34357;0.299081;113.138;158.138;-0.00420916;-0.00120959;0.00277262;-0.00175484;0.00414558;0.0168037;0.0354244;0;0.0380992;7.49485;4.93699
413000;414;25.8646;0.0963845;0.00374044;-1.87851;25.1358;5.79998;-0.0592146;0.264262;-0.688255;0.00497234;-0.574342;-0.0926291;0.581785;-11.6552;-0.00149952;0.000501785;0.00537595;0.00541238;-0.00153595;0.00347416;0.278931;3.58512;0.00421459;0.00463222;3.52381;0.283784;62.7266;107.727;0.00048874;-0.00150259;-0.00153539;0.00252503;0.00537491;0.00318775;0.0161487;0;0.0296966;-0.0532146;-0.843058;-0.777398;1.14801;-5.76861;-0.0012428;0.00045858;0.00404562;0.00408509;-0.00128227;0.00268368;0.307197;3.25524;0.00323662;0.00357824;3.18582;0.313891;114.337;159.337;-0.0050948;-0.00124437;0.00276013;-0.00183085;0.00404193;0.0190586;0.0348242;0;0.0392506;7.52635;4.9447
414000;415;25.8688;0.1006;0.00390405;-1.88035;25.1388;5.8051;-0.0610556;0.26728;-0.683131;0.00524391;-0.577476;-0.0955098;0.585344;-11.6581;-0.00144177;0.00020135;0.00572486;0.00573051;-0.00144742;0.00358897;0.251843;3.97073;0.00438321;0.00478529;3.95912;0.252581;66.118;111.118;0.000621451;-0.00144441;-0.00192093;0.0023085;0.00572304;0.00315221;0.0166956;0;0.0262221;-0.053202;-0.846815;-0.778976;1.15184;-5.77019;-0.00119705;0.000436722;0.00397601;0.00401262;-0.00123366;0.00262314;0.301067;3.32152;0.00316742;0.00349752;3.25263;0.307444;114.478;159.478;-0.00604502;-0.00119864;0.00272101;-0.0018358;0.00397242;0.0192229;0.0398824;0;0.0338835;7.55948;4.95178
415000;416;25.8695;0.101257;0.00392953;-1.88293;25.1342;5.82702;-0.0636334;0.262693;-0.661219;0.00476393;-0.579636;-0.0955445;0.587477;-11.6581;-0.00146972;0.000565014;0.00609771;0.00613966;-0.00151168;0.00382567;0.241029;4.14888;0.00467912;0.00510089;4.06149;0.246215;65.1645;110.165;0.000883711;-0.00147292;-0.0014733;0.002588;0.00609679;0.00251412;0.0148396;0;0.0313574;-0.0536735;-0.849551;-0.779946;1.15453;-5.77116;-0.00113265;0.000376151;0.00432957;0.00435535;-0.00115843;0.00275689;0.261608;3.82252;0.00335701;0.00367585;3.7597;0.265979;113.954;158.954;-0.00553653;-0.00113453;0.00273805;-0.0019729;0.00432591;0.0189345;0.0390201;0;0.0392501;7.58081;4.95883
416000;417;25.8713;0.103092;0.00400075;-1.88252;25.1368;5.82422;-0.0632271;0.26526;-0.664013;0.00467176;-0.582101;-0.0975531;0.590237;-11.6601;-0.00148345;0.000219732;0.00544408;0.00545104;-0.00149041;0.00347073;0.272489;3.66987;0.0042195;0.00462764;3.6574;0.273418;64.6448;109.645;0.00072691;-0.00148619;-0.00192393;0.00234863;0.00544226;0.00381706;0.0150953;0;0.0331181;-0.0537243;-0.853525;-0.780663;1.15794;-5.77188;-0.00135056;0.000504897;0.00434354;0.00438797;-0.00139498;0.00289147;0.310935;3.21611;0.00348465;0.0038553;3.14554;0.317911;113.05;158.05;-0.00578276;-0.00135192;0.00275002;-0.0017275;0.0043399;0.0200905;0.038517;0;0.0382064;7.60354;4.96585
417000;418;25.8746;0.106437;0.00413054;-1.88308;25.1388;5.83008;-0.0637835;0.267303;-0.658155;0.00491381;-0.586089;-0.0950653;0.593769;-11.6577;-0.00156798;0.000503104;0.00558377;0.00561899;-0.0016032;0.00361109;0.28081;3.56112;0.00437933;0.00481479;3.50486;0.285318;61.0902;106.09;0.00124324;-0.00157201;-0.00189048;0.00287967;0.00558212;0.00215448;0.0138315;0;0.0353723;-0.0535277;-0.857248;-0.779333;1.15978;-5.77055;-0.00137205;0.0005528;0.00453446;0.00458575;-0.00142334;0.00300455;0.302582;3.30489;0.00362596;0.00400606;3.22183;0.310383;111.439;156.439;-0.00484535;-0.00137315;0.00270099;-0.00158276;0.00453098;0.0177902;0.0363883;0;0.0400666;7.6577;4.97334
418000;419;25.8754;0.107226;0.00416118;-1.88231;25.1393;5.83195;-0.0630214;0.267739;-0.656287;0.00476478;-0.589025;-0.0973289;0.597031;-11.6599;-0.00143306;0.000423842;0.00639756;0.00642044;-0.00145593;0.00393818;0.224;4.46428;0.00483917;0.00525091;4.40985;0.226765;65.6211;110.621;0.000929391;-0.00143663;-0.00187407;0.00270388;0.00639591;0.00377096;0.0137087;0;0.034474;-0.0537428;-0.86132;-0.781252;1.16409;-5.77247;-0.00144853;0.000765651;0.00497578;0.00506577;-0.00153852;0.00330214;0.291116;3.43506;0.00399015;0.00440286;3.29263;0.303709;107.254;152.254;-0.00432284;-0.00144894;0.00273039;-0.00118653;0.00497236;0.0163341;0.0328218;0;0.0363633;7.6805;4.97998
419000;420;25.8732;0.105015;0.00407538;-1.8811;25.1386;5.82536;-0.0618085;0.267081;-0.66287;0.00535096;-0.591212;-0.0988994;0.599451;-11.6615;-0.0014012;0.000344644;0.00611671;0.00613248;-0.00141696;0.00377472;0.229077;4.36535;0.00463343;0.00503296;4.3279;0.231059;64.9234;109.923;0.000875207;-0.00140477;-0.00202326;0.00269485;0.00611474;0.00579026;0.0129232;0;0.0295122;-0.0532621;-0.86478;-0.781861;1.16704;-5.77307;-0.00142306;0.000712288;0.00520988;0.0052855;-0.00149869;0.0033921;0.273147;3.66104;0.00411523;0.00452279;3.52675;0.283547;106.74;151.74;-0.00387041;-0.00142355;0.00265789;-0.00122048;0.00520661;0.0155762;0.0299037;0;0.0298972;7.71219;4.98517
420000;421;25.8699;0.101744;0.00394842;-1.87838;25.1403;5.80419;-0.0590845;0.268815;-0.684045;0.0048266;-0.593657;-0.0991824;0.601905;-11.6618;-0.00143592;0.000604274;0.00588543;0.00593497;-0.00148546;0.00371021;0.243978;4.09872;0.00453366;0.00494695;3.99538;0.250289;61.868;106.868;0.000685718;-0.00144018;-0.0017894;0.00298052;0.00588402;0.00580143;0.0150833;0;0.0287552;-0.0534684;-0.867888;-0.78317;1.17023;-5.77438;-0.00124059;0.000772309;0.00519212;0.00528354;-0.00133202;0.00330778;0.238938;4.18519;0.00404023;0.00441037;3.96657;0.252107;106.454;151.454;-0.00379635;-0.00124114;0.0028608;-0.00130282;0.00518834;0.0144726;0.0300304;0;0.0269113;7.74231;4.99062
421000;422;25.8713;0.103147;0.00400288;-1.8786;25.1424;5.80166;-0.059312;0.270827;-0.686579;0.00455257;-0.597143;-0.100971;0.605636;-11.6636;-0.00142742;0.000482741;0.00614365;0.00617431;-0.00145808;0.00381619;0.232341;4.30402;0.00467859;0.00508825;4.23456;0.236152;64.3209;109.321;0.00142608;-0.00143114;-0.00181829;0.00276645;0.00614212;0.00240782;0.0146786;0;0.034466;-0.0535483;-0.872862;-0.784822;1.17503;-5.77604;-0.00130316;0.000591029;0.00547068;0.00552186;-0.00135435;0.0034381;0.238209;4.198;0.00420601;0.00458414;4.07714;0.24527;107.364;152.364;-0.0044808;-0.00130406;0.00266109;-0.00146509;0.00546733;0.0178497;0.0292054;0;0.0270872;7.77217;4.99904
422000;423;25.8681;0.0998921;0.00387656;-1.87737;25.1395;5.79976;-0.0580756;0.268007;-0.688473;0.00418838;-0.598978;-0.102231;0.607653;-11.6648;-0.00132288;0.000719197;0.00646575;0.0065316;-0.00138873;0.00396016;0.204598;4.88764;0.00488358;0.00528022;4.70329;0.212617;64.392;109.392;0.00209157;-0.00132693;-0.00151316;0.00293428;0.00646486;0.000910666;0.0147937;0;0.0279475;-0.0538778;-0.875012;-0.787202;1.17823;-5.77842;-0.0013923;0.000640603;0.00536895;0.00542911;-0.00145246;0.00344078;0.259324;3.85618;0.00418836;0.00458771;3.73788;0.267531;106.529;151.529;-0.00323141;-0.00139289;0.00255846;-0.00126436;0.0053659;0.0141647;0.0301441;0;0.0269589;7.78593;5.00305
423000;424;25.8539;0.0857484;0.00332768;-1.87958;25.1273;5.78881;-0.0602889;0.255813;-0.699423;0.00376219;-0.599949;-0.102835;0.608711;-11.6654;-0.00131353;0.000513948;0.0062208;0.0062557;-0.00134842;0.00380206;0.21115;4.73596;0.00468508;0.00506942;4.63927;0.215551;64.4196;109.42;0.000849099;-0.00131741;-0.00182269;0.00283309;0.00621928;0.00518289;0.0125097;0;0.0275951;-0.0542383;-0.876732;-0.788962;1.1807;-5.78018;-0.00155874;0.000614009;0.00497449;0.0050317;-0.00161594;0.00332382;0.313345;3.19137;0.00400334;0.00443176;3.11379;0.321152;108.764;153.764;-0.00382697;-0.00155938;0.00253391;-0.00129341;0.00497149;0.0161643;0.02871;0;0.028847;7.80804;5.00985
424000;425;25.8674;0.0991872;0.00384921;-1.8778;25.14;5.79435;-0.0585062;0.268498;-0.693887;0.00378038;-0.603938;-0.105619;0.613115;-11.6682;-0.00118569;0.00105227;0.00598956;0.00614069;-0.00133683;0.00373876;0.19796;5.05152;0.00460455;0.00498502;4.59348;0.2177;59.8995;104.899;0.00250341;-0.00119079;-0.00127188;0.00335984;0.00598931;0.00025338;0.0141298;0;0.0286371;-0.0543499;-0.882346;-0.791093;1.1863;-5.78231;-0.0014327;0.000648943;0.00507923;0.00514327;-0.00149674;0.00332;0.282071;3.54521;0.00402169;0.00442667;3.43631;0.29101;107.55;152.55;-0.00351423;-0.00143329;0.00257339;-0.00126303;0.00507614;0.0151222;0.0293718;0;0.0317542;7.86761;5.01737
425000;426;25.8723;0.104108;0.00404017;-1.87812;25.1435;5.80108;-0.0588301;0.271986;-0.68716;0.00398984;-0.607365;-0.102783;0.616013;-11.6654;-0.0012766;0.00120783;0.00559175;0.00579796;-0.00148281;0.00364039;0.228301;4.38018;0.00444284;0.00485385;3.91011;0.255747;57.291;102.291;0.00251298;-0.00128181;-0.00104472;0.00344498;0.00559193;0.000594457;0.0140228;0;0.0257134;-0.0540322;-0.886507;-0.78781;1.18721;-5.77902;-0.00151834;0.000506354;0.00518788;0.0052259;-0.00155636;0.00339113;0.29267;3.41681;0.00410233;0.0045215;3.35778;0.297816;108.65;153.65;-0.00402697;-0.00151917;0.00241059;-0.00138518;0.00518512;0.0177555;0.0287954;0;0.0318127;7.87769;5.02454
426000;427;25.8713;0.103114;0.00400159;-1.87884;25.1432;5.79777;-0.0595428;0.271671;-0.690461;0.00368888;-0.606951;-0.106193;0.616182;-11.6688;-0.00121615;0.00130384;0.0055478;0.00579043;-0.00145878;0.0036246;0.219212;4.56178;0.00442739;0.0048328;3.96937;0.251929;55.5439;100.544;0.00261322;-0.00122213;-0.00110362;0.0036951;0.00554804;0.00209561;0.0154177;0;0.0250164;-0.0543363;-0.887186;-0.791796;1.19037;-5.78301;-0.00144715;0.000582797;0.00506037;0.00511216;-0.00149893;0.00330554;0.285976;3.4968;0.00400243;0.00440739;3.41054;0.293208;107.212;152.212;-0.0037893;-0.00144769;0.00237367;-0.00119648;0.00505774;0.0164928;0.0300699;0;0.0339468;7.87148;5.03039
427000;428;25.8734;0.105212;0.00408301;-1.87864;25.1463;5.79363;-0.0593458;0.274799;-0.694602;0.00282188;-0.611631;-0.107918;0.621085;-11.6705;-0.00120707;0.00108454;0.00570026;0.00586654;-0.00137335;0.00361995;0.211757;4.7224;0.00444018;0.0048266;4.2717;0.234099;58.8672;103.867;0.00132445;-0.00121199;-0.00116416;0.00331778;0.00570017;0.00304225;0.0127602;0;0.0272304;-0.0551466;-0.89325;-0.794111;1.19647;-5.78532;-0.00153785;0.000474193;0.00527378;0.00530664;-0.00157071;0.00343867;0.291603;3.42931;0.00416134;0.00458489;3.3785;0.295989;110.197;155.197;-0.00388631;-0.00153906;0.00258573;-0.00162304;0.00527057;0.0169659;0.0345474;0;0.0373606;7.97307;5.04009
428000;429;25.8753;0.107081;0.00415555;-1.87847;25.1471;5.79888;-0.0591754;0.275527;-0.689359;0.00277222;-0.614317;-0.105637;0.623339;-11.6682;-0.00158767;0.000845203;0.00523295;0.00533612;-0.00169085;0.00351349;0.3034;3.29598;0.00423508;0.00468465;3.15588;0.316869;57.6815;102.681;0.000903824;-0.00159205;-0.00139774;0.00307292;0.00523233;0.00466017;0.0134333;0;0.0262868;-0.0553024;-0.896797;-0.791443;1.19737;-5.78266;-0.00161287;0.000459236;0.00491285;0.00494501;-0.00164503;0.00329502;0.328296;3.04603;0.00396058;0.00439336;3.00603;0.332664;110.909;155.909;-0.00452043;-0.00161388;0.00242564;-0.0014944;0.00491003;0.0186241;0.0359806;0;0.0382072;7.9637;5.04722
429000;430;25.8737;0.10549;0.00409381;-1.87779;25.1463;5.7955;-0.0584993;0.274719;-0.692736;0.00323862;-0.61466;-0.107989;0.624083;-11.6706;-0.00140462;0.000755535;0.00491909;0.0050081;-0.00149364;0.00325087;0.285546;3.50206;0.00393234;0.00433449;3.35295;0.298245;57.3455;102.345;0.00129298;-0.00140883;-0.00149736;0.00299425;0.00491825;0.00309096;0.0146845;0;0.0353057;-0.0551199;-0.898018;-0.793955;1.19993;-5.78517;-0.00154118;0.000374345;0.00488486;0.00490659;-0.00156292;0.00323476;0.315502;3.16955;0.00389792;0.00431301;3.13938;0.318534;112.007;157.007;-0.00527325;-0.0015425;0.00242651;-0.0016647;0.004882;0.0205271;0.0363873;0;0.0447338;7.97187;5.0501
430000;431;25.877;0.108753;0.00422045;-1.87873;25.1489;5.7983;-0.0594377;0.277361;-0.689935;0.00290766;-0.615962;-0.108069;0.625377;-11.6707;-0.00150172;0.000723012;0.00470809;0.00479116;-0.00158479;0.00318797;0.318967;3.13512;0.00383317;0.00425063;3.02321;0.330775;57.3675;102.367;0.000913279;-0.00150535;-0.00135305;0.00278624;0.00470744;0.00290249;0.0158157;0;0.0242143;-0.0555335;-0.899713;-0.794646;1.20168;-5.78586;-0.00163763;0.000477772;0.00519054;0.00522381;-0.00167089;0.00344735;0.315502;3.16955;0.0041531;0.00459647;3.12635;0.319861;110.345;155.345;-0.00537642;-0.0016387;0.00250962;-0.00154028;0.00518752;0.0184808;0.0396637;0;0.0324281;7.98382;5.05491
431000;432;25.8866;0.11841;0.00459519;-1.88231;25.1509;5.83152;-0.0630153;0.279349;-0.656711;0.00291246;-0.621728;-0.109422;0.63129;-11.672;-0.00147792;0.000542092;0.00506153;0.00510616;-0.00152256;0.00331436;0.291992;3.42476;0.00400918;0.00441914;3.35368;0.29818;60.1942;105.194;0.000428744;-0.00148141;-0.00162203;0.00269213;0.00506036;0.00403937;0.0127088;0;0.0287675;-0.0557948;-0.906969;-0.797216;1.20883;-5.78843;-0.00179019;0.000460456;0.0052203;0.00525041;-0.0018203;0.00353536;0.342928;2.91606;0.00423937;0.00471381;2.88437;0.346697;111.728;156.728;-0.00540399;-0.00179145;0.00258758;-0.00165184;0.00521708;0.0182806;0.040327;0;0.0347652;8.04274;5.0692
432000;433;25.889;0.120758;0.00468631;-1.88373;25.1523;5.83541;-0.0644389;0.280757;-0.652821;0.00284399;-0.622304;-0.112277;0.632358;-11.6749;-0.00175979;0.000241478;0.00496724;0.0049759;-0.00176844;0.00337217;0.354279;2.82264;0.00403796;0.00449623;2.81371;0.355402;61.5268;106.527;0.000675416;-0.00176254;-0.00188791;0.00235661;0.00496549;0.00484783;0.0143252;0;0.0271624;-0.0560513;-0.908824;-0.799549;1.21177;-5.79076;-0.0017069;0.000343794;0.00537329;0.00538994;-0.00172355;0.00355675;0.317664;3.14799;0.00428496;0.00474233;3.12723;0.319772;111.384;156.384;-0.00546594;-0.00170831;0.00241593;-0.00171375;0.00537045;0.0167036;0.0387085;0;0.0335898;8.05637;5.06898
433000;434;25.8869;0.118746;0.00460826;-1.88227;25.152;5.82828;-0.0629813;0.280449;-0.65995;0.00263875;-0.622943;-0.112901;0.633097;-11.6755;-0.00170473;0.000411094;0.00472345;0.00474963;-0.00173091;0.00324027;0.360907;2.7708;0.00387449;0.00432036;2.74401;0.36443;59.5758;104.576;0.00107406;-0.00170766;-0.00164565;0.00245467;0.00472219;0.0032239;0.0164465;0;0.0277117;-0.0561274;-0.910149;-0.80019;1.21319;-5.7914;-0.00177477;0.000510974;0.00554126;0.00557678;-0.00181029;0.00369353;0.320283;3.12224;0.00444588;0.00492471;3.0806;0.324612;108.852;153.852;-0.00503846;-0.00177564;0.00245036;-0.00141431;0.0055384;0.0169884;0.0367369;0;0.0340793;8.04986;5.07629
434000;435;25.8966;0.128417;0.00498354;-1.88223;25.1589;5.84127;-0.062934;0.287393;-0.646963;0.00239309;-0.62893;-0.114453;0.639264;-11.677;-0.00171825;0.000546166;0.0055613;0.00560205;-0.001759;0.00368053;0.308966;3.2366;0.00443877;0.00490737;3.18479;0.313992;62.0016;107.002;0.000691668;-0.00172159;-0.00156215;0.00263922;0.00556024;0.00269903;0.0162787;0;0.028953;-0.0564333;-0.918893;-0.800616;1.22006;-5.79183;-0.00182354;0.000503558;0.00621115;0.00624259;-0.00185497;0.00404878;0.293591;3.4061;0.00489856;0.00539837;3.36533;0.297148;106.439;151.439;-0.00426073;-0.0018243;0.00235875;-0.00133683;0.00620851;0.0157862;0.0291617;0;0.029673;8.17057;5.09134
435000;436;25.8912;0.123026;0.00477432;-1.87742;25.1607;5.81102;-0.0581227;0.28921;-0.677216;0.00217606;-0.629709;-0.114318;0.640006;-11.6769;-0.00161592;-6.52858e-05;0.00627652;0.00627706;-0.00161646;0.00394676;0.257455;3.88418;0.00481484;0.00526235;3.88322;0.257518;69.6646;114.665;1.40184e-05;-0.00161793;-0.00215049;0.00200357;0.00627423;0.00583332;0.0152243;0;0.0309405;-0.0565978;-0.920831;-0.801852;1.22233;-5.79307;-0.00191812;0.000438014;0.00642431;0.00644724;-0.00194105;0.00419415;0.298572;3.34928;0.00507057;0.0055922;3.32152;0.301067;106.333;151.333;-0.00412239;-0.00191895;0.0022534;-0.00136232;0.00642188;0.0166563;0.0287399;0;0.0288089;8.14151;5.0913
436000;437;25.8908;0.122567;0.00475653;-1.878;25.1608;5.80857;-0.0587048;0.289261;-0.679668;0.00248607;-0.630996;-0.114454;0.641297;-11.677;-0.0016421;-0.000272748;0.00551436;0.00552474;-0.00165248;0.00358861;0.297786;3.35811;0.00434015;0.00478482;3.3433;0.299106;68.5662;113.566;0.000369006;-0.00164372;-0.00237944;0.00181896;0.00551158;0.00595971;0.015778;0;0.0300412;-0.0563813;-0.923273;-0.802345;1.22449;-5.79356;-0.00182785;0.000399473;0.00648277;0.00650192;-0.00184701;0.00417447;0.281955;3.54666;0.00506384;0.00556595;3.52025;0.284071;106.386;151.386;-0.00438444;-0.0018288;0.00224838;-0.00143417;0.00648033;0.0174492;0.0260886;0;0.0273903;8.14899;5.09826
437000;438;25.8905;0.122255;0.00474443;-1.87768;25.1613;5.80528;-0.058387;0.289722;-0.682956;0.00270602;-0.63253;-0.114726;0.642856;-11.6773;-0.00158123;0.000599626;0.00567789;0.00572709;-0.00163043;0.00367876;0.278489;3.59081;0.00446196;0.00490501;3.51263;0.284687;61.8126;106.813;0.000872443;-0.00158496;-0.00161155;0.00279484;0.00567678;0.00241699;0.0161399;0;0.029869;-0.055987;-0.926243;-0.801952;1.22645;-5.79317;-0.0018204;0.000440035;0.00687601;0.00689822;-0.00184261;0.00437041;0.264747;3.7772;0.00532046;0.00582722;3.74372;0.267114;105.881;150.881;-0.00415477;-0.00182143;0.00239739;-0.00150042;0.00687325;0.0178914;0.0270192;0;0.0261458;8.19029;5.10334
438000;439;25.8951;0.126868;0.00492343;-1.87907;25.1663;5.8037;-0.0597735;0.294729;-0.684535;0.00185578;-0.635977;-0.117063;0.646664;-11.6797;-0.00168401;0.00031367;0.00712796;0.00713911;-0.00169516;0.00441714;0.236255;4.23272;0.00541367;0.00588952;4.21146;0.237448;68.44;113.44;0.000119267;-0.00168714;-0.00191204;0.0025199;0.0071262;0.00571586;0.0145556;0;0.0277035;-0.0570159;-0.93316;-0.805049;1.23375;-5.79626;-0.00195328;0.000386411;0.00660834;0.00662574;-0.00197069;0.00429821;0.295578;3.3832;0.00520006;0.00573095;3.36215;0.297429;105.222;150.222;-0.00315977;-0.00195403;0.0020649;-0.0012778;0.00660629;0.0173395;0.0303557;0;0.0275727;8.21016;5.11361
439000;440;25.8964;0.128241;0.00497673;-1.87914;25.1681;5.80196;-0.0598463;0.296538;-0.686274;0.00185861;-0.636571;-0.119409;0.647676;-11.682;-0.00167445;-7.69746e-05;0.00640435;0.00640508;-0.00167518;0.00404013;0.261454;3.82476;0.00492436;0.00538684;3.82352;0.261539;69.1434;114.143;0.000436761;-0.00167668;-0.00228358;0.00211192;0.00640176;0.00507223;0.0155485;0;0.0293481;-0.0572544;-0.935329;-0.80795;1.2373;-5.79916;-0.00211787;0.000433472;0.00662297;0.00664441;-0.00213931;0.00439186;0.319776;3.12719;0.00528895;0.00585581;3.10587;0.321971;105.596;150.596;-0.00308332;-0.00211856;0.00213433;-0.00125261;0.0066208;0.017169;0.0310483;0;0.0292477;8.23585;5.11893
440000;441;25.8938;0.125556;0.00487253;-1.87937;25.1671;5.79418;-0.0600764;0.29555;-0.694053;0.0013156;-0.638878;-0.115658;0.649263;-11.6782;-0.00163819;0.000168434;0.00661735;0.00662079;-0.00164162;0.00413121;0.247559;4.03944;0.00505079;0.00550827;4.03308;0.24795;67.5889;112.589;0.000676206;-0.00164117;-0.00212918;0.00244721;0.00661512;0.00454688;0.0141658;0;0.0286656;-0.0581592;-0.938775;-0.804222;1.23752;-5.79544;-0.0021638;0.000443934;0.00692617;0.0069478;-0.00218543;0.00456662;0.312409;3.20093;0.00550684;0.00608882;3.17915;0.31455;104.413;149.413;-0.00356131;-0.0021644;0.00208688;-0.00118418;0.00692411;0.0174129;0.0285455;0;0.031397;8.2367;5.1209
441000;442;25.9013;0.133088;0.00516481;-1.88146;25.1735;5.79928;-0.0621712;0.301969;-0.688955;0.00139147;-0.642906;-0.120977;0.654191;-11.6836;-0.0016011;0.000697227;0.00655602;0.00661519;-0.00166027;0.00413773;0.244218;4.0947;0.00505526;0.00551697;3.98442;0.250978;63.7711;108.771;0.000921897;-0.00160532;-0.00161093;0.00298668;0.00655498;0.00510166;0.0136215;0;0.0290678;-0.0584561;-0.947035;-0.809074;1.24695;-5.80029;-0.00205264;0.000456181;0.00696108;0.00698411;-0.00207567;0.00452989;0.294874;3.39128;0.00548059;0.00603985;3.36475;0.297199;104.438;149.438;-0.00360477;-0.00205331;0.00216561;-0.00123795;0.00695885;0.0162809;0.0326434;0;0.0382415;8.31751;5.13493
442000;443;25.9041;0.135862;0.00527245;-1.88013;25.1746;5.80729;-0.0608372;0.303076;-0.680943;0.00199318;-0.643515;-0.118343;0.654309;-11.6809;-0.00167089;0.000456526;0.00760113;0.00762355;-0.00169331;0.00465843;0.219821;4.54915;0.00573081;0.00621124;4.50215;0.222116;68.2338;113.234;0.0002572;-0.00167461;-0.0018721;0.00276372;0.00759949;0.00627523;0.0126888;0;0.0307429;-0.0577495;-0.949861;-0.805733;1.24691;-5.79695;-0.00226983;0.000329542;0.00717532;0.00718681;-0.00228131;0.00473406;0.316338;3.16117;0.00570574;0.00631208;3.15029;0.317431;104.151;149.151;-0.003523;-0.00227052;0.00189155;-0.00121782;0.0071736;0.0157079;0.0333334;0;0.0383949;8.31036;5.14159
443000;444;25.905;0.136835;0.00531021;-1.88018;25.1774;5.79949;-0.0608827;0.305872;-0.688747;0.00229525;-0.643023;-0.120127;0.654151;-11.6827;-0.00158981;0.000262995;0.00684166;0.00684985;-0.00159801;0.00422393;0.232372;4.30344;0.00518203;0.00563191;4.28649;0.233291;68.4537;113.454;0.000155361;-0.00159273;-0.00192018;0.00242789;0.00683986;0.00698141;0.0138578;0;0.0297384;-0.0578627;-0.950645;-0.809084;1.24968;-5.8003;-0.00243799;0.00029115;0.00758503;0.00759348;-0.00244644;0.00501996;0.321421;3.11119;0.00604513;0.00669328;3.10389;0.322176;104.846;149.846;-0.00349388;-0.0024389;0.00197709;-0.00137802;0.00758313;0.0148129;0.0343834;0;0.0374108;8.29457;5.14235
444000;445;25.9063;0.138125;0.0053603;-1.88102;25.1792;5.79709;-0.0617242;0.30769;-0.691147;0.00216819;-0.645646;-0.119673;0.656647;-11.6823;-0.0015881;0.00069429;0.00729618;0.00735011;-0.00164203;0.00449607;0.217661;4.5943;0.0055293;0.00599476;4.47625;0.223401;66.1633;111.163;0.000952153;-0.00159232;-0.00161849;0.00298666;0.00729512;0.00456735;0.0144401;0;0.030061;-0.0582123;-0.955381;-0.808135;1.25269;-5.79935;-0.00251943;0.000204881;0.00771622;0.00772032;-0.00252353;0.00512193;0.326511;3.06268;0.00616276;0.00682924;3.05933;0.326869;105.958;150.958;-0.00490297;-0.00252063;0.00198595;-0.0015581;0.00771429;0.0178104;0.0364629;0;0.0365391;8.36717;5.15024
445000;446;25.9128;0.144645;0.0056133;-1.88067;25.1838;5.80649;-0.0613811;0.312258;-0.681746;0.0018303;-0.649213;-0.121485;0.660484;-11.6841;-0.00157795;0.000629194;0.00651324;0.00656187;-0.00162659;0.00409423;0.242269;4.12764;0.00500566;0.00545897;4.03413;0.247885;63.4553;108.455;0.000197646;-0.00158236;-0.00179311;0.00303202;0.00651184;0.00592893;0.0132294;0;0.02889;-0.0591167;-0.963093;-0.810287;1.26;-5.8015;-0.00234846;0.000199065;0.00808037;0.00808417;-0.00235226;0.00521821;0.290638;3.44071;0.00632114;0.00695762;3.43677;0.290971;103.903;148.903;-0.00483601;-0.0023495;0.00186739;-0.001452;0.00807866;0.0170549;0.0400025;0;0.0364602;8.38358;5.16413
446000;447;25.9152;0.146957;0.00570302;-1.8855;25.1819;5.82333;-0.0662071;0.310387;-0.664904;0.00209091;-0.648608;-0.122625;0.660101;-11.6852;-0.00160098;0.000276837;0.00721467;0.00722336;-0.00160967;0.00441651;0.221907;4.5064;0.00543221;0.00588868;4.48748;0.222842;68.1078;113.108;0.00123625;-0.00160445;-0.00211385;0.0026466;0.00721249;0.00357879;0.0127715;0;0.0294388;-0.0592293;-0.965067;-0.811986;1.26261;-5.8032;-0.00260425;0.000207783;0.00862479;0.00862863;-0.00260809;0.00561836;0.301949;3.31182;0.00679083;0.00749115;3.30841;0.30226;102.853;147.853;-0.00443233;-0.00260518;0.00181101;-0.0013776;0.00862318;0.0156817;0.0378173;0;0.0358222;8.3796;5.16464
447000;448;25.9195;0.151267;0.00587031;-1.88568;25.186;5.82484;-0.0663852;0.31446;-0.663393;0.00263446;-0.648923;-0.121095;0.66013;-11.6837;-0.00171873;7.53972e-05;0.00649777;0.00649846;-0.00171943;0.00410894;0.264511;3.78056;0.00500489;0.00547859;3.77944;0.26459;67.2041;112.204;0.000169449;-0.00172168;-0.00229412;0.00242557;0.00649516;0.00689343;0.0140429;0;0.030885;-0.0588442;-0.967063;-0.809391;1.26245;-5.80061;-0.0028692;0.00019711;0.00896755;0.00897083;-0.00287248;0.00592166;0.319954;3.12545;0.0071335;0.00789554;3.12302;0.320203;102.293;147.293;-0.0052379;-0.00287005;0.00173112;-0.0013189;0.00896608;0.0189261;0.0372526;0;0.0363699;8.37202;5.16569
448000;449;25.9213;0.153123;0.00594232;-1.88128;25.1922;5.80762;-0.0619871;0.320675;-0.680614;0.00203387;-0.654127;-0.122988;0.665592;-11.6856;-0.0014661;0.000695985;0.00598933;0.00605375;-0.00153051;0.00379213;0.244785;4.08523;0.00463109;0.00505617;3.95538;0.25282;61.5916;106.592;0.000768934;-0.00147053;-0.00168289;0.00305722;0.00598817;0.00544756;0.0133053;0;0.0247524;-0.0600875;-0.976954;-0.813774;1.2729;-5.80499;-0.00283322;0.000303324;0.00981784;0.00982511;-0.00284049;0.0063328;0.288579;3.46526;0.00767417;0.00844373;3.45895;0.289105;99.0059;144.006;-0.00330418;-0.00283369;0.00164027;-0.00101688;0.00981655;0.015297;0.0292567;0;0.0295512;8.46906;5.18572
449000;450;25.9237;0.155491;0.00603423;-1.88631;25.191;5.82188;-0.0670224;0.319445;-0.666359;0.00196996;-0.65317;-0.123185;0.664688;-11.6858;-0.00162507;0.000898568;0.00682872;0.00692318;-0.00171953;0.00432135;0.237976;4.2021;0.00528275;0.00576181;4.02621;0.248373;63.6754;108.675;0.00067056;-0.00162958;-0.00135264;0.00313087;0.00682822;0.00429115;0.0120706;0;0.0292271;-0.0604304;-0.978888;-0.814068;1.27459;-5.80528;-0.00286608;0.00024476;0.0104117;0.0104162;-0.00287059;0.00664341;0.275275;3.63273;0.00807296;0.00885788;3.6286;0.275589;99.3256;144.326;-0.00356229;-0.00286675;0.00169038;-0.00118186;0.0104103;0.0162276;0.0277384;0;0.0289349;8.42459;5.18668
450000;451;25.9257;0.157495;0.00611199;-1.88331;25.1966;5.80728;-0.064019;0.325101;-0.680957;0.00226943;-0.652208;-0.123633;0.663826;-11.6862;-0.00165319;0.000647631;0.00715039;0.00719777;-0.00170057;0.00444917;0.231202;4.32521;0.00545447;0.00593223;4.23255;0.236264;65.2653;110.265;0.000582454;-0.00165762;-0.00176977;0.0030439;0.00714904;0.00556507;0.0124503;0;0.0281159;-0.0603075;-0.98034;-0.814245;1.27581;-5.80546;-0.00294787;0.000248172;0.0108243;0.0108288;-0.00295234;0.00689056;0.272338;3.6719;0.00837852;0.00918742;3.66786;0.272639;97.6739;142.674;-0.00352087;-0.00294833;0.00149684;-0.000983487;0.0108232;0.0173225;0.0277498;0;0.0314691;8.41856;5.18674
451000;452;25.9208;0.152598;0.00592197;-1.88354;25.1958;5.78907;-0.0642432;0.324236;-0.699165;0.00207392;-0.656986;-0.123289;0.668457;-11.6859;-0.00151412;0.00106121;0.00688998;0.00702191;-0.00164605;0.00433398;0.219758;4.55047;0.0053156;0.00577864;4.2659;0.234417;63.0408;108.041;0.00173579;-0.001519;-0.00119142;0.00329503;0.00688983;0.00211922;0.013519;0;0.0257236;-0.0609244;-0.989158;-0.813922;1.28242;-5.80514;-0.00308223;0.000292874;0.0112157;0.0112217;-0.00308823;0.00715495;0.274815;3.63882;0.00869529;0.00953994;3.63369;0.275202;96.0872;141.087;-0.0037809;-0.00308248;0.0013581;-0.000757291;0.0112148;0.0184519;0.0282527;0;0.0287878;8.52401;5.20029
452000;453;25.9288;0.160569;0.0062313;-1.88286;25.2021;5.7975;-0.0635669;0.330549;-0.690735;0.00187579;-0.658531;-0.12432;0.670166;-11.6869;-0.00142558;0.00151511;0.00666275;0.00693724;-0.00170008;0.00431866;0.213963;4.6737;0.0052835;0.00575822;4.08054;0.245066;58.7555;103.756;0.00202819;-0.00143193;-0.000856804;0.00386797;0.00666352;0.00189448;0.0129246;0;0.0299242;-0.0617834;-0.996837;-0.815662;1.2895;-5.80688;-0.00346096;0.000175459;0.0117239;0.011726;-0.00346298;0.00759447;0.295205;3.38748;0.00919171;0.010126;3.38608;0.295326;96.4853;141.485;-0.00282754;-0.00346132;0.00124062;-0.000873719;0.0117232;0.0170765;0.0278228;0;0.0364424;8.51482;5.20779
453000;454;25.9345;0.166334;0.00645501;-1.88307;25.2068;5.80252;-0.0637788;0.33531;-0.68572;0.00177571;-0.657532;-0.125206;0.669349;-11.6878;-0.00144521;0.00104595;0.00641667;0.00655345;-0.00158199;0.00406772;0.225228;4.43995;0.00498076;0.00542363;4.14254;0.241398;61.5775;106.577;0.00105276;-0.00145005;-0.00120448;0.00327881;0.0064165;0.00390947;0.0138015;0;0.0284137;-0.0622366;-0.999682;-0.81694;1.29253;-5.80815;-0.00377304;0.000172402;0.0118498;0.0118517;-0.00377494;0.00781334;0.318404;3.14066;0.0094152;0.0104178;3.13959;0.318513;96.3549;141.355;-0.00280527;-0.00377337;0.00118938;-0.000828878;0.0118492;0.0144709;0.0286484;0;0.0369528;8.49372;5.21099
454000;455;25.9349;0.166748;0.00647106;-1.88286;25.2093;5.79374;-0.0635661;0.33777;-0.694495;0.00198671;-0.656872;-0.123813;0.668442;-11.6864;-0.00166842;0.000814423;0.00751541;0.00758707;-0.00174008;0.00466358;0.222;4.50451;0.00572688;0.0062181;4.36018;0.229349;66.9702;111.97;0.00184546;-0.00167241;-0.00132741;0.00293673;0.00751486;0.00165906;0.0140682;0;0.0317329;-0.0626223;-1.00136;-0.815817;1.29313;-5.80703;-0.0037999;0.000206813;0.012111;0.0121137;-0.00380259;0.00795814;0.313756;3.18719;0.00959779;0.0106109;3.18564;0.313908;95.2194;140.219;-0.00230394;-0.0038001;0.00109535;-0.000667757;0.0121104;0.0148307;0.0309725;0;0.0389788;8.48088;5.21454
455000;456;25.9401;0.171863;0.00666959;-1.88561;25.2148;5.79198;-0.0663205;0.343232;-0.696255;0.00207085;-0.661703;-0.124494;0.673316;-11.6871;-0.00156458;0.00099672;0.00589115;0.00602209;-0.00169552;0.00385881;0.265581;3.76533;0.00468335;0.00514508;3.55176;0.281551;59.8748;104.875;0.0017783;-0.00156915;-0.00120321;0.00318034;0.00589092;0.00208048;0.0146651;0;0.0260144;-0.0631092;-1.01159;-0.817623;1.30223;-5.80884;-0.00390026;-2.63722e-05;0.0130766;0.0130766;-0.0039003;0.00848847;0.298262;3.35276;0.0102678;0.011318;3.35273;0.298264;96.1951;141.195;-0.00328837;-0.00390077;0.00097974;-0.00101562;0.0130761;0.014508;0.037921;0;0.0363162;8.58314;5.22911
456000;457;25.9472;0.178961;0.00694503;-1.88701;25.2214;5.79434;-0.0677173;0.349888;-0.6939;0.00180699;-0.662337;-0.124998;0.674031;-11.6876;-0.00150986;0.00109958;0.00667021;0.00681544;-0.00165509;0.00423527;0.226359;4.41776;0.00518415;0.00564702;4.11787;0.242844;62.8453;107.845;0.000386008;-0.00151441;-0.0010253;0.00320718;0.00667029;0.0043991;0.0133845;0;0.0266719;-0.0640444;-1.0176;-0.817923;1.30714;-5.80914;-0.0039686;0.000139653;0.0130374;0.0130386;-0.00396975;0.00850415;0.304401;3.28514;0.0102745;0.0113389;3.28448;0.304462;95.1963;140.196;-0.00299357;-0.00396888;0.00106041;-0.000765651;0.0130369;0.0162964;0.0401887;0;0.0352192;8.55877;5.23451
457000;458;25.9527;0.184483;0.00715931;-1.88732;25.2261;5.79877;-0.0680242;0.354526;-0.689464;0.00237933;-0.662346;-0.12299;0.673672;-11.6856;-0.00144982;0.00126476;0.00636535;0.00656494;-0.0016494;0.00410717;0.227767;4.39045;0.00501762;0.00547623;3.98019;0.251244;59.8704;104.87;0.00131078;-0.00145516;-0.000990072;0.00350208;0.00636566;0.00370714;0.0142632;0;0.0267052;-0.0640724;-1.02029;-0.816821;1.30854;-5.80804;-0.00390874;-0.000181452;0.0140159;0.0140178;-0.00391057;0.00896418;0.278878;3.5858;0.0108854;0.0119522;3.58458;0.278972;95.4614;140.461;-0.00303822;-0.00390927;0.000700339;-0.00104766;0.0140157;0.0150468;0.0375803;0;0.0338233;8.51835;5.23748
458000;459;25.9551;0.186857;0.00725147;-1.88659;25.229;5.79704;-0.0672949;0.357422;-0.691197;0.0020224;-0.663538;-0.126995;0.675584;-11.6896;-0.00152391;0.000788609;0.00733345;0.00740312;-0.00159358;0.00449835;0.207803;4.81225;0.00554349;0.0059978;4.64559;0.215258;65.8172;110.817;0.000910809;-0.00152835;-0.00152177;0.00307867;0.00733261;0.00328771;0.0135724;0;0.0275466;-0.0646226;-1.02558;-0.819512;1.31438;-5.81073;-0.00444003;0.000180303;0.0143116;0.0143134;-0.00444176;0.00937756;0.310239;3.22332;0.0113172;0.0125034;3.22245;0.310323;93.1981;138.198;-0.00182255;-0.00444012;0.000839246;-0.000466458;0.0143113;0.0116615;0.0346316;0;0.0324473;8.62129;5.24393
459000;460;25.9616;0.193409;0.00750572;-1.88951;25.2352;5.79838;-0.0702188;0.363636;-0.689856;0.00198294;-0.666906;-0.124296;0.678393;-11.6869;-0.0014835;0.00127359;0.00631511;0.00651783;-0.00168622;0.00410202;0.234912;4.25691;0.00500293;0.00546936;3.86536;0.258708;59.6768;104.677;0.00246284;-0.00148879;-0.000960914;0.00349077;0.00631546;0.00138666;0.0149546;0;0.0307269;-0.0656605;-1.03604;-0.817153;1.32114;-5.80837;-0.00423238;2.39231e-05;0.0161897;0.0161897;-0.00423241;0.010211;0.261425;3.82519;0.0124462;0.0136147;3.82517;0.261426;91.7574;136.757;-0.00244427;-0.00423244;0.000411391;-0.000355758;0.0161896;0.0127746;0.0272989;0;0.0364778;8.62016;5.25159
460000;461;25.9599;0.191732;0.00744066;-1.89008;25.2343;5.79439;-0.0707876;0.362785;-0.693847;0.00280507;-0.666588;-0.127252;0.678631;-11.6898;-0.00152189;0.000994516;0.00638737;0.0065105;-0.00164502;0.00407776;0.238266;4.197;0.00498008;0.00543702;3.95769;0.252673;61.2939;106.294;0.00118679;-0.0015268;-0.00131481;0.00328569;0.006387;0.00223422;0.0147457;0;0.0364377;-0.0652814;-1.04002;-0.820745;1.32647;-5.81196;-0.00442062;4.87206e-05;0.0168245;0.0168246;-0.00442074;0.0106227;0.262749;3.80591;0.0129441;0.0141636;3.80584;0.262754;90.5006;135.501;-0.00104408;-0.00442063;0.000187864;-8.75153e-05;0.0168245;0.0125478;0.0247936;0;0.0362488;8.59191;5.25836
461000;462;25.9626;0.194437;0.00754563;-1.89032;25.2375;5.79246;-0.071026;0.365992;-0.695772;0.00250247;-0.665044;-0.124833;0.676663;-11.6874;-0.0015204;0.00113065;0.0065371;0.00669275;-0.00167605;0.0041844;0.23258;4.29959;0.00511292;0.0055792;3.99317;0.250428;60.801;105.801;0.00262476;-0.00152571;-0.00120336;0.00344598;0.00653702;-0.000424113;0.015581;0;0.0296301;-0.0659869;-1.04153;-0.818523;1.32631;-5.80974;-0.00445858;1.53521e-05;0.0170768;0.0170768;-0.00445859;0.0107677;0.261089;3.83011;0.0131256;0.0143569;3.8301;0.26109;90.2984;135.298;-0.00133611;-0.00445858;9.13354e-05;-5.90224e-05;0.0170768;0.0122888;0.0250807;0;0.0344165;8.58713;5.25832
462000;463;25.9675;0.199257;0.00773268;-1.89054;25.2433;5.7888;-0.0712521;0.371772;-0.69943;0.0017033;-0.668508;-0.125947;0.680271;-11.6885;-0.00173642;0.00080835;0.00609798;0.00618051;-0.00181896;0.00399974;0.284754;3.5118;0.00484192;0.00533298;3.39783;0.294306;61.2507;106.251;0.00153124;-0.00174076;-0.00145354;0.00305263;0.00609725;0.00358177;0.0127501;0;0.0270737;-0.0673269;-1.05113;-0.821319;1.33566;-5.81253;-0.00456212;2.39579e-06;0.0172736;0.0172736;-0.00456212;0.0109179;0.264109;3.78632;0.0132999;0.0145572;3.78632;0.264109;89.7555;134.756;-0.00108985;-0.00456212;-5.13643e-05;5.50019e-05;0.0172736;0.0130265;0.0274674;0;0.033689;8.67812;5.27355
463000;464;25.9818;0.213597;0.00828919;-1.89246;25.2561;5.7966;-0.0731647;0.384592;-0.691634;0.00152669;-0.668695;-0.126586;0.680573;-11.6892;-0.00126162;0.00108815;0.00588006;0.00604218;-0.00142373;0.00373296;0.214559;4.66073;0.00457711;0.00497727;4.2439;0.235633;58.791;103.791;0.00174367;-0.00126693;-0.00127595;0.00343545;0.00587984;0.00272922;0.0143203;0;0.0298063;-0.0683172;-1.05724;-0.821521;1.34064;-5.81273;-0.00470963;0.000123259;0.0178162;0.0178168;-0.0047103;0.0112636;0.264346;3.78292;0.0137202;0.0150181;3.78253;0.264374;88.6015;133.601;-0.00136204;-0.00470969;-0.000129483;0.000370408;0.0178162;0.0121541;0.0288374;0;0.0362509;8.65913;5.28054
464000;465;25.9852;0.217045;0.00842298;-1.8929;25.2596;5.79677;-0.0736032;0.388067;-0.691464;0.00264259;-0.668169;-0.124262;0.679631;-11.6869;-0.00165451;0.00119071;0.00609053;0.00626946;-0.00183343;0.00405144;0.271652;3.68118;0.00490633;0.00540192;3.41952;0.292439;58.9539;103.954;0.00215074;-0.00165961;-0.00104336;0.00340757;0.0060907;0.00178573;0.0160503;0;0.0323161;-0.0677235;-1.05932;-0.820196;1.34145;-5.81141;-0.00487744;5.88013e-05;0.0182177;0.0182179;-0.00487759;0.0115477;0.267731;3.7351;0.0140561;0.015397;3.73501;0.267737;88.9304;133.93;-0.00124671;-0.00487748;-0.000160256;0.00027289;0.0182177;0.0125429;0.0299275;0;0.0417381;8.60962;5.2806
465000;466;25.9886;0.220351;0.00855129;-1.89314;25.2643;5.79102;-0.0738469;0.392769;-0.697216;0.00264121;-0.671275;-0.126163;0.683033;-11.6888;-0.00161919;0.000923499;0.00600378;0.00611406;-0.00172947;0.00392177;0.269694;3.7079;0.00475848;0.00522902;3.53522;0.282868;61.2861;106.286;0.00143062;-0.00162334;-0.00119419;0.00302514;0.0060035;0.0024442;0.0127046;0;0.0284379;-0.0682045;-1.06742;-0.822617;1.34934;-5.81383;-0.00510048;5.91471e-05;0.0189956;0.0189958;-0.00510063;0.0120482;0.268508;3.72428;0.0146628;0.0160643;3.7242;0.268514;88.9023;133.902;-0.000852023;-0.00510052;-0.000177454;0.000290153;0.0189956;0.00939926;0.0326639;0;0.0368261;8.72632;5.29556
466000;467;25.9947;0.226528;0.008791;-1.89366;25.2703;5.79222;-0.074364;0.39881;-0.696019;0.00279316;-0.671373;-0.127017;0.683288;-11.6896;-0.00157832;0.000844277;0.00594119;0.00603482;-0.00167195;0.00385339;0.265658;3.76424;0.00468114;0.00513785;3.60945;0.277051;60.782;105.782;0.000940508;-0.00158273;-0.00141328;0.00308495;0.00594055;0.00358212;0.0115364;0;0.0270609;-0.0689774;-1.07384;-0.824694;1.35573;-5.81591;-0.00508615;7.80393e-05;0.0197401;0.0197403;-0.00508639;0.0124134;0.257656;3.88115;0.0151431;0.0165511;3.88101;0.257665;89.2766;134.277;-0.00155643;-0.00508617;-6.36725e-05;0.000216301;0.0197401;0.0112518;0.0339625;0;0.0373899;8.71346;5.30237
467000;468;25.9989;0.230664;0.0089515;-1.89399;25.2747;5.79178;-0.0746927;0.403138;-0.69645;0.00195454;-0.671553;-0.124924;0.683076;-11.6875;-0.00152298;0.00127806;0.00581747;0.00603363;-0.00173914;0.00388638;0.261793;3.81981;0.0047104;0.00518185;3.46933;0.28824;58.0126;103.013;0.00107673;-0.00152797;-0.000867104;0.00340756;0.00581791;0.00384332;0.0134166;0;0.0299138;-0.0700567;-1.07794;-0.822936;1.35797;-5.81415;-0.00515573;0.000107156;0.0203126;0.0203131;-0.00515619;0.0127346;0.253819;3.93982;0.0155484;0.0169795;3.93956;0.253836;89.3528;134.353;-0.00126371;-0.00515575;-2.46505e-06;0.000214041;0.0203127;0.0108377;0.0323609;0;0.0343388;8.66716;5.30225
468000;469;26.0045;0.23634;0.00917176;-1.89465;25.2789;5.79848;-0.0753526;0.407393;-0.689757;0.00311842;-0.671111;-0.125837;0.682813;-11.6884;-0.00163608;0.000807756;0.00592705;0.00601236;-0.00172139;0.00386688;0.276037;3.62271;0.00468858;0.00515583;3.49273;0.286309;61.7881;106.788;0.00132337;-0.00163998;-0.00130541;0.00290503;0.00592653;0.00308729;0.0125575;0;0.0268944;-0.0694109;-1.08085;-0.82199;1.35968;-5.8132;-0.00525214;0.000252507;0.0207268;0.0207293;-0.0052546;0.0129919;0.253398;3.94636;0.0158638;0.0173226;3.94498;0.253487;88.3467;133.347;-0.00156117;-0.00525226;-4.99079e-05;0.000547224;0.0207269;0.0120556;0.0320813;0;0.0342174;8.68932;5.30491
469000;470;26.0086;0.240374;0.00932831;-1.89479;25.2845;5.79206;-0.0754967;0.413002;-0.696172;0.00244821;-0.674276;-0.128161;0.686352;-11.6908;-0.00161485;0.000871196;0.0061145;0.00621148;-0.00171183;0.00396165;0.264102;3.78641;0.00481414;0.00528221;3.62856;0.275591;61.3642;106.364;0.000891841;-0.00161924;-0.00136096;0.0030862;0.00611396;0.00440945;0.014052;0;0.030703;-0.0708422;-1.09164;-0.826407;1.371;-5.81762;-0.00529347;0.000267596;0.0213373;0.02134;-0.00529616;0.0133181;0.248086;4.03087;0.0162817;0.0177574;4.02933;0.24818;87.7526;132.753;-0.000555801;-0.00529371;-0.000211051;0.000733763;0.0213373;0.0100657;0.0303588;0;0.0364023;8.77064;5.32387
470000;471;26.0114;0.243225;0.00943898;-1.89668;25.2866;5.79514;-0.0773831;0.41509;-0.693097;0.00288612;-0.674152;-0.127466;0.686103;-11.6901;-0.00171605;0.00092969;0.00619518;0.00630296;-0.00182384;0.0040634;0.276998;3.61013;0.00492383;0.00541787;3.45588;0.289362;61.7699;106.77;0.000512448;-0.00172023;-0.00119104;0.00303374;0.0061949;0.00346618;0.0129046;0;0.0320427;-0.0708617;-1.09632;-0.824913;1.37383;-5.81613;-0.00533435;-1.74592e-05;0.0224486;0.0224486;-0.00533436;0.0138915;0.237625;4.20831;0.0170247;0.018522;4.2083;0.237626;88.656;133.656;-0.000857271;-0.00533443;-0.000439235;0.000392856;0.0224485;0.0142968;0.0295838;0;0.0386716;8.73351;5.32403
471000;472;26.0135;0.245289;0.00951904;-1.89622;25.2888;5.79498;-0.0769312;0.417283;-0.693259;0.00224699;-0.672414;-0.128587;0.684603;-11.6912;-0.00168006;0.000908275;0.0057528;0.00586218;-0.00178944;0.00382581;0.292043;3.42416;0.00462156;0.00510108;3.27598;0.305252;59.4349;104.435;0.0014054;-0.00168453;-0.00132143;0.0031215;0.00575234;0.00427351;0.0128368;0;0.033644;-0.0719199;-1.09739;-0.826127;1.37547;-5.81734;-0.00547491;0.00014009;0.0224723;0.022473;-0.00547562;0.0139743;0.24363;4.10459;0.0171019;0.0186324;4.10419;0.243654;88.1687;133.169;-0.000289013;-0.00547508;-0.000328737;0.000596103;0.0224722;0.0130146;0.0297343;0;0.0379459;8.69299;5.32395
472000;473;26.0176;0.249366;0.00967729;-1.89665;25.2949;5.78662;-0.0773604;0.423359;-0.701618;0.00287892;-0.67809;-0.123895;0.689322;-11.6865;-0.00153421;0.000708864;0.00589132;0.00595838;-0.00160128;0.00377983;0.260419;3.83996;0.00459988;0.00503978;3.72102;0.268744;62.0397;107.04;4.66048e-05;-0.00153816;-0.00149348;0.00289495;0.00589046;0.00650064;0.0127918;0;0.0320961;-0.0721916;-1.10856;-0.823015;1.38256;-5.81423;-0.0055888;4.27858e-05;0.0234292;0.0234293;-0.00558886;0.0145091;0.23854;4.19217;0.0177777;0.0193454;4.19214;0.238542;87.9413;132.941;-0.000427101;-0.00558901;-0.000587355;0.000655059;0.023429;0.0129924;0.0282293;0;0.0395929;8.83362;5.33865
473000;474;26.0275;0.2593;0.0100628;-1.89867;25.3031;5.79455;-0.0793725;0.431611;-0.693688;0.00236759;-0.677795;-0.126208;0.689449;-11.6888;-0.00184436;0.000497218;0.00571066;0.00574324;-0.00187694;0.00381009;0.322968;3.09628;0.00458439;0.00508013;3.05989;0.326809;61.7088;106.709;0.0012366;-0.00184796;-0.00174884;0.0027264;0.00570926;0.00247796;0.0123084;0;0.0249719;-0.0730045;-1.11528;-0.82466;1.38897;-5.81587;-0.00565708;7.20754e-05;0.0238204;0.0238205;-0.00565725;0.0147389;0.237489;4.21072;0.0180639;0.0196519;4.21062;0.237495;87.7208;132.721;-0.000184809;-0.00565736;-0.000623521;0.000747645;0.0238202;0.0133134;0.0322202;0;0.0366078;8.78724;5.34597
474000;475;26.031;0.262836;0.0102;-1.8997;25.3079;5.78922;-0.0804043;0.43639;-0.699018;0.00391098;-0.677666;-0.123764;0.688887;-11.6864;-0.00147508;0.000884649;0.00555969;0.00566923;-0.00158462;0.00362692;0.265317;3.76908;0.00440377;0.0048359;3.57766;0.279512;59.4352;104.435;0.00164424;-0.00147942;-0.00132115;0.00307502;0.00555921;0.00216694;0.0142613;0;0.0273935;-0.0723179;-1.11852;-0.822733;1.3904;-5.81395;-0.00573052;2.3176e-05;0.0242735;0.0242735;-0.00573053;0.015002;0.236081;4.23583;0.0183925;0.0200027;4.23582;0.236082;88.2398;133.24;-0.00112148;-0.00573068;-0.000546319;0.000575989;0.0242733;0.0149168;0.032952;0;0.0373053;8.74797;5.34603
475000;476;26.0366;0.26839;0.0104156;-1.89869;25.3142;5.78704;-0.0794017;0.442677;-0.701198;0.0029931;-0.676538;-0.12707;0.688375;-11.6897;-0.0016016;0.000423612;0.00593918;0.0059629;-0.00162532;0.00379411;0.269667;3.70827;0.00461348;0.00505882;3.66874;0.272573;64.6986;109.699;0.000138385;-0.00160472;-0.00169958;0.00253088;0.00593783;0.00561215;0.0135928;0;0.0308851;-0.07363;-1.12054;-0.82634;1.39422;-5.81755;-0.00583489;7.91989e-05;0.0245416;0.0245418;-0.0058351;0.0151884;0.237755;4.20601;0.0186136;0.0202513;4.20589;0.237762;88.2996;133.3;-0.000462447;-0.00583506;-0.00044015;0.00058315;0.0245415;0.0110867;0.0321139;0;0.0408009;8.78475;5.35392
476000;477;26.0424;0.274219;0.0106417;-1.89951;25.319;5.79206;-0.0802219;0.447461;-0.696171;0.00370082;-0.681753;-0.121576;0.692518;-11.6842;-0.00169537;0.000734917;0.00612748;0.00619592;-0.00176381;0.00397987;0.276683;3.61424;0.00482719;0.00530649;3.5128;0.284673;62.6613;107.661;0.000468049;-0.00169924;-0.00142317;0.00287622;0.00612674;0.00419594;0.015224;0;0.0401522;-0.0735527;-1.13346;-0.821964;1.40206;-5.81318;-0.00588404;3.43274e-05;0.0254165;0.0254165;-0.00588408;0.0156503;0.231505;4.31956;0.0192085;0.020867;4.31954;0.231506;88.3971;133.397;0.000301933;-0.00588419;-0.000504564;0.000556769;0.0254163;0.00950497;0.0327699;0;0.0403321;8.85544;5.36814
477000;478;26.0533;0.285131;0.0110652;-1.90172;25.3293;5.79549;-0.0824237;0.457737;-0.69275;0.00373234;-0.679753;-0.127677;0.691649;-11.6903;-0.00174306;0.000597157;0.00635466;0.00639846;-0.00178686;0.00409266;0.274296;3.6457;0.00496952;0.00545688;3.58085;0.279264;64.0806;109.081;0.000808113;-0.00174675;-0.00160322;0.00277983;0.00635356;0.00381084;0.015664;0;0.0288972;-0.0744615;-1.13738;-0.827027;1.40825;-5.81857;-0.00600283;0.000412068;0.0260622;0.0260674;-0.00600813;0.0160378;0.230328;4.34164;0.019689;0.0213837;4.3387;0.230484;86.7893;131.789;0.000807457;-0.00600357;-0.000479124;0.00127541;0.0260621;0.0136452;0.0326483;0;0.0401804;8.82865;5.3709
478000;479;26.054;0.285836;0.0110926;-1.90116;25.3295;5.79772;-0.0818667;0.457993;-0.690516;0.00352569;-0.680117;-0.125774;0.691658;-11.6884;-0.00177869;0.000532695;0.00605181;0.00608788;-0.00181476;0.00395132;0.29391;3.4024;0.00477976;0.00526842;3.35465;0.298094;63.4333;108.433;0.000594609;-0.00178219;-0.00164831;0.00269672;0.0060506;0.00463736;0.0128979;0;0.0251396;-0.0750421;-1.14027;-0.825952;1.40998;-5.81749;-0.00602474;0.000408536;0.0263941;0.0263993;-0.00602989;0.0162146;0.228261;4.38095;0.0199161;0.0216194;4.37807;0.228411;86.8505;131.851;0.00061511;-0.00602547;-0.000479451;0.00126848;0.0263941;0.0147546;0.0314736;0;0.0395655;8.79813;5.37506
479000;480;26.0548;0.28659;0.0111219;-1.90317;25.3311;5.79367;-0.0838737;0.459544;-0.694562;0.00364482;-0.683207;-0.125123;0.69458;-11.6877;-0.00208622;2.93915e-05;0.00598204;0.00598214;-0.00208633;0.00403424;0.348748;2.8674;0.00483596;0.00537898;2.8673;0.34876;65.4788;110.479;0.000506201;-0.00208874;-0.00219805;0.00223896;0.00597964;0.0046132;0.014841;0;0.0268152;-0.0752752;-1.14888;-0.825156;1.4165;-5.81637;-0.00612306;-2.31428e-05;0.0268602;0.0268602;-0.00612308;0.0164916;0.227961;4.38672;0.0202587;0.0219889;4.38671;0.227961;88.0981;133.098;-0.000783139;-0.00612329;-0.000746043;0.000676537;0.0268599;0.0147759;0.0307801;0;0.0309042;8.90914;5.38578
480000;481;26.0585;0.290285;0.0112652;-1.90247;25.3369;5.7852;-0.0831798;0.465333;-0.703039;0.00368672;-0.683249;-0.126102;0.694798;-11.6887;-0.002024;0.000248514;0.0065282;0.00653541;-0.00203122;0.00428331;0.31004;3.22539;0.00516881;0.00571108;3.21749;0.310801;66.6444;111.644;-3.52731e-05;-0.00202679;-0.00189614;0.00237494;0.00652644;0.00678759;0.013654;0;0.0320815;-0.0758143;-1.15645;-0.825535;1.42289;-5.81675;-0.00610322;-1.05933e-05;0.0275714;0.0275714;-0.00610323;0.0168373;0.22136;4.51752;0.0207172;0.0224498;4.51752;0.22136;88.2542;133.254;2.6879e-05;-0.00610344;-0.000690582;0.000647111;0.0275712;0.0139896;0.0302619;0;0.0361694;8.89464;5.3947
481000;482;26.0657;0.297525;0.0115462;-1.90201;25.3429;5.79167;-0.0827175;0.471334;-0.696561;0.00330221;-0.682546;-0.127644;0.694386;-11.6902;-0.00180516;-8.99664e-05;0.00665253;0.00665349;-0.00180611;0.0042298;0.271349;3.68529;0.00514449;0.00563974;3.68387;0.271454;70.0504;115.05;0.000179145;-0.00180721;-0.00222166;0.00202382;0.00665009;0.00589607;0.0139198;0;0.0270477;-0.0767526;-1.15952;-0.828202;1.42699;-5.81942;-0.00622067;-0.000108187;0.0280266;0.028027;-0.00622101;0.017124;0.221956;4.5054;0.0210667;0.022832;4.50521;0.221965;88.6254;133.625;0.0001158;-0.00622078;-0.000717433;0.000480762;0.0280264;0.0149876;0.0299822;0;0.0339093;8.84576;5.39803
482000;483;26.0656;0.297378;0.0115405;-1.9039;25.3439;5.78595;-0.0846123;0.472348;-0.702284;0.00383097;-0.683459;-0.124127;0.694649;-11.6867;-0.00190372;0.000378729;0.00714731;0.00716313;-0.00191954;0.00454134;0.266355;3.75439;0.00552751;0.00605512;3.73169;0.267975;68.5536;113.554;-0.000299282;-0.00190661;-0.00169406;0.00243288;0.00714596;0.00460258;0.0139248;0;0.0295261;-0.0766368;-1.16373;-0.824466;1.42824;-5.81568;-0.00621781;-0.000178592;0.0286972;0.0286982;-0.00621872;0.0174584;0.216669;4.61533;0.0215068;0.0232779;4.6148;0.216694;88.8033;133.803;-0.000651874;-0.00621788;-0.000780417;0.000402806;0.028697;0.0171864;0.0315669;0;0.0395395;8.87843;5.39835
483000;484;26.0799;0.311743;0.012098;-1.90572;25.3575;5.79019;-0.0864226;0.486018;-0.698044;0.00367894;-0.685695;-0.127815;0.697515;-11.6904;-0.00200679;0.000477438;0.00662426;0.00665059;-0.00203312;0.00434186;0.302945;3.30093;0.00524449;0.00578914;3.27113;0.305705;65.8115;110.811;-8.55697e-05;-0.00200995;-0.0016218;0.00255868;0.00662307;0.00462245;0.0155623;0;0.0306914;-0.0779059;-1.17385;-0.828609;1.43895;-5.81982;-0.00659899;0.000171389;0.0292666;0.0292674;-0.0065998;0.0179336;0.225479;4.43501;0.0220434;0.0239115;4.43458;0.2255;87.3814;132.381;-0.000994717;-0.00659957;-0.000785611;0.00109504;0.0292663;0.0149955;0.0344994;0;0.0386172;8.94544;5.41327
484000;485;26.0861;0.317885;0.0123363;-1.90561;25.3653;5.78404;-0.0863186;0.493746;-0.704192;0.00359742;-0.685035;-0.128699;0.697029;-11.6913;-0.00190485;7.12519e-05;0.00686814;0.00686872;-0.00190543;0.00438707;0.277346;3.60561;0.00532907;0.00584943;3.60482;0.277407;68.7665;113.766;-0.000110598;-0.00190742;-0.0021444;0.0022676;0.00686586;0.00689076;0.0137846;0;0.0272539;-0.0786371;-1.17889;-0.829778;1.44378;-5.82099;-0.0064171;-0.000135443;0.0294169;0.0294174;-0.00641762;0.0179175;0.218143;4.58414;0.0220642;0.02389;4.58386;0.218157;88.9455;133.946;-0.00187836;-0.00641716;-0.000661027;0.000371845;0.0294167;0.0143826;0.0338242;0;0.0427204;8.91586;5.42055
485000;486;26.0936;0.325417;0.0126286;-1.90737;25.3707;5.79369;-0.0880727;0.49916;-0.69455;0.00457438;-0.684646;-0.127025;0.696345;-11.6896;-0.00204627;3.40979e-05;0.00694845;0.00694858;-0.00204639;0.00449749;0.294492;3.39567;0.00544426;0.00599665;3.39552;0.294506;68.7345;113.734;-0.000754881;-0.00204879;-0.002198;0.00224625;0.00694605;0.00736177;0.01465;0;0.0303053;-0.078025;-1.18155;-0.827923;1.44485;-5.81914;-0.00647924;-0.000343958;0.0297546;0.0297578;-0.00648251;0.0181202;0.217756;4.59229;0.0223155;0.0241602;4.59048;0.217842;89.4905;134.49;-0.00184986;-0.00647918;-0.000784793;8.13644e-05;0.0297543;0.0157001;0.0324769;0;0.0420049;8.88391;5.42051
486000;487;26.0973;0.329122;0.0127724;-1.90722;25.3756;5.78883;-0.0879312;0.504089;-0.699402;0.00356945;-0.689859;-0.123102;0.700765;-11.6857;-0.00193235;0.000246248;0.00646787;0.00647508;-0.00193956;0.00420732;0.298761;3.34716;0.005088;0.00560976;3.33843;0.299542;67.2574;112.257;-0.000329301;-0.00193495;-0.00182017;0.00229542;0.00646626;0.00617647;0.0150326;0;0.0378854;-0.0795046;-1.19256;-0.826223;1.45299;-5.81744;-0.00638956;-0.000196074;0.0298597;0.0298608;-0.00639062;0.0181257;0.213986;4.67321;0.0223441;0.0241676;4.6726;0.214014;89.1014;134.101;-0.000683364;-0.00638958;-0.000706222;0.000296118;0.0298595;0.0115034;0.0325771;0;0.0409799;8.99747;5.43421
487000;488;26.1024;0.334189;0.012969;-1.90675;25.3802;5.7917;-0.0874539;0.508682;-0.696539;0.00331153;-0.689285;-0.126342;0.700776;-11.6889;-0.00187492;3.93832e-05;0.00676638;0.00676656;-0.0018751;0.00432083;0.277094;3.60889;0.00524893;0.00576111;3.60864;0.277113;68.6896;113.69;-0.000290805;-0.00187745;-0.00218757;0.00224722;0.006764;0.00566801;0.0140347;0;0.0304439;-0.0804604;-1.1996;-0.828601;1.46017;-5.81981;-0.00673891;4.30868e-05;0.0310064;0.0310065;-0.00673896;0.0188727;0.217339;4.60111;0.0232452;0.0251636;4.60108;0.21734;88.0259;133.026;-0.000680002;-0.00673927;-0.000791678;0.00084729;0.0310061;0.0119856;0.0297118;0;0.0348932;8.98131;5.44213
488000;489;26.1047;0.336487;0.0130582;-1.90879;25.3843;5.78348;-0.0895;0.512764;-0.70475;0.00380544;-0.688071;-0.125128;0.699366;-11.6877;-0.00178472;0.000225317;0.00662378;0.00662982;-0.00179075;0.00421029;0.269441;3.71138;0.00512222;0.00561371;3.70225;0.270106;68.0758;113.076;-0.000420354;-0.00178737;-0.00187746;0.00231053;0.00662206;0.0058472;0.0140432;0;0.0299119;-0.0804307;-1.20233;-0.828716;1.46248;-5.81993;-0.00678741;-4.31961e-05;0.0312464;0.0312464;-0.00678746;0.0190169;0.217223;4.60357;0.0234235;0.0253559;4.60355;0.217224;88.0044;133.004;0.000153248;-0.00678776;-0.000951947;0.000832039;0.0312459;0.0117007;0.0286226;0;0.0341873;8.92698;5.44223
489000;490;26.105;0.33684;0.0130719;-1.90822;25.3831;5.79058;-0.0889283;0.511552;-0.697651;0.00397291;-0.688024;-0.125262;0.699345;-11.6879;-0.00201107;0.000187865;0.00701712;0.00702102;-0.00201498;0.004518;0.286596;3.48924;0.00547731;0.006024;3.48441;0.286993;69.1755;114.175;0.000113304;-0.00201355;-0.00187444;0.00223168;0.00701539;0.00516072;0.0141507;0;0.0340485;-0.0806324;-1.20542;-0.828315;1.4648;-5.81953;-0.00689613;3.77124e-05;0.0319048;0.0319049;-0.00689617;0.0194005;0.216147;4.62648;0.0239026;0.0258674;4.62646;0.216148;87.7479;132.748;-0.000222724;-0.00689663;-0.000953543;0.000991696;0.0319044;0.0125873;0.0288665;0;0.0379455;8.95656;5.44791
490000;491;26.1131;0.344901;0.0133848;-1.90986;25.3922;5.78651;-0.0905664;0.520648;-0.701729;0.00427464;-0.69065;-0.128555;0.702525;-11.6911;-0.00187668;0.000158627;0.00750021;0.00750289;-0.00187937;0.00469113;0.250218;3.99652;0.00573202;0.00625484;3.99225;0.250486;71.5694;116.569;-0.00060936;-0.00187892;-0.00182067;0.0021195;0.00749858;0.00642889;0.0139396;0;0.030852;-0.081683;-1.2173;-0.831419;1.4764;-5.82263;-0.00695526;-0.000351594;0.0326567;0.0326598;-0.00695838;0.0198091;0.212981;4.69525;0.0244253;0.0264121;4.69359;0.213056;89.0865;134.087;-0.00160842;-0.00695524;-0.00101085;0.000282374;0.0326563;0.0179283;0.0325965;0;0.0384765;9.02327;5.46392
491000;492;26.1162;0.348024;0.013506;-1.91056;25.3965;5.78162;-0.0912629;0.524921;-0.706617;0.00428134;-0.689896;-0.126596;0.701428;-11.6892;-0.00188748;0.000196725;0.00735029;0.00735448;-0.00189167;0.00462307;0.25679;3.89423;0.00564029;0.0061641;3.88782;0.257213;70.0869;115.087;0.000387776;-0.00189007;-0.00190766;0.00228181;0.0073485;0.0034573;0.0143839;0;0.0300708;-0.0821787;-1.22144;-0.829796;1.47893;-5.82101;-0.00693598;-0.000454826;0.0333292;0.0333343;-0.00694111;0.0201377;0.208105;4.80526;0.0248617;0.0268503;4.80244;0.208227;89.6116;134.612;-0.00156013;-0.00693587;-0.000947941;1.90739e-05;0.0333288;0.0179851;0.0348478;0;0.0407043;8.98839;5.46365
492000;493;26.1148;0.346633;0.013452;-1.91008;25.3966;5.77464;-0.0907904;0.525113;-0.713596;0.0040126;-0.691186;-0.120798;0.701674;-11.6834;-0.00201826;6.88749e-05;0.00681514;0.00681567;-0.00201879;0.00441723;0.296143;3.37674;0.00534534;0.00588965;3.37611;0.296199;70.2753;115.275;-0.000132798;-0.00202021;-0.00185725;0.0019781;0.00681343;0.0048734;0.0150611;0;0.0318435;-0.0824059;-1.22474;-0.825414;1.47922;-5.81663;-0.00683648;-0.000437363;0.033719;0.0337237;-0.0068412;0.0202824;0.202749;4.93221;0.0250759;0.0270432;4.9295;0.20286;89.4504;134.45;-0.00265899;-0.00683639;-0.00100387;0.000106923;0.0337186;0.0209586;0.0348284;0;0.0421297;8.96068;5.46345
493000;494;26.1275;0.359305;0.0139437;-1.91167;25.4089;5.77767;-0.0923804;0.537335;-0.710564;0.00446404;-0.694433;-0.124019;0.705434;-11.6866;-0.00195202;-3.45641e-05;0.00748746;0.00748759;-0.00195215;0.00471987;0.260706;3.83574;0.00575391;0.00629316;3.83556;0.260718;71.3637;116.364;-0.000349514;-0.00195424;-0.00219089;0.00210156;0.00748508;0.00560337;0.0151864;0;0.0332986;-0.0829718;-1.23583;-0.827383;1.48954;-5.8186;-0.00721091;-0.000314022;0.0344427;0.034445;-0.00721328;0.0208292;0.20936;4.77646;0.0257074;0.0277722;4.77522;0.209414;88.9371;133.937;-0.0027914;-0.00721094;-0.00104964;0.000391977;0.0344422;0.0183903;0.0352564;0;0.0468818;9.09484;5.48514
494000;495;26.1376;0.369412;0.014336;-1.91375;25.4191;5.77775;-0.0944534;0.547555;-0.710488;0.00513292;-0.693789;-0.125828;0.705126;-11.6884;-0.00192953;7.91276e-06;0.0071695;0.00716951;-0.00192954;0.00454952;0.26913;3.71567;0.0055361;0.00606603;3.71566;0.269131;70.5845;115.584;6.67094e-05;-0.00193175;-0.0021103;0.00210699;0.00716729;0.0047523;0.0156402;0;0.0306678;-0.0831878;-1.24163;-0.830086;1.49586;-5.8213;-0.00719261;-0.000259159;0.0344738;0.0344754;-0.00719423;0.0208348;0.20864;4.79294;0.0257193;0.0277797;4.79209;0.208677;88.8425;133.842;-0.00252058;-0.00719269;-0.00100554;0.000457157;0.0344733;0.0174234;0.0338365;0;0.0419761;9.04549;5.48558
495000;496;26.141;0.37285;0.0144694;-1.91306;25.423;5.77634;-0.0937673;0.55146;-0.71189;0.00520137;-0.693038;-0.125741;0.704372;-11.6883;-0.00186331;-8.70066e-05;0.00793141;0.00793218;-0.00186409;0.00489813;0.234929;4.25661;0.00600668;0.00653084;4.25526;0.235003;73.5084;118.508;-0.000433862;-0.00186523;-0.00215123;0.00195716;0.00792911;0.00534798;0.0134744;0;0.0322869;-0.0834118;-1.24476;-0.829399;1.49809;-5.82061;-0.00744585;-0.000210004;0.034602;0.0346031;-0.0074469;0.021025;0.215185;4.64716;0.0259102;0.0280333;4.64664;0.215209;88.4557;133.456;-0.000732644;-0.00744604;-0.00110884;0.000652306;0.0346014;0.0132128;0.0333071;0;0.0397721;8.99534;5.48521
496000;497;26.1478;0.379631;0.0147325;-1.91412;25.4278;5.78562;-0.0948307;0.556243;-0.702611;0.00464128;-0.695075;-0.123656;0.706004;-11.6862;-0.00185684;8.93395e-05;0.00738223;0.00738309;-0.0018577;0.0046204;0.251528;3.9757;0.00564414;0.00616053;3.97432;0.251615;71.1435;116.144;-0.000525636;-0.00185912;-0.00197952;0.00213923;0.00738029;0.00802856;0.015772;0;0.0297746;-0.0844332;-1.25079;-0.82881;1.50284;-5.82002;-0.00734226;-0.000234366;0.0346624;0.0346637;-0.00734357;0.0210036;0.211822;4.72094;0.0259063;0.0280048;4.72028;0.211852;88.5798;133.58;-0.00136785;-0.00734241;-0.00109379;0.000590171;0.0346618;0.0124067;0.031172;0;0.0397868;9.09097;5.49281
497000;498;26.1591;0.390872;0.0151688;-1.91667;25.4396;5.78356;-0.0973821;0.568078;-0.70467;0.00487235;-0.69649;-0.125087;0.70765;-11.6877;-0.00191934;-9.99934e-05;0.00757309;0.00757415;-0.0019204;0.00474727;0.253442;3.94567;0.00579659;0.0063297;3.94405;0.253546;72.8377;117.838;-0.000396361;-0.00192118;-0.00213548;0.00191632;0.00757084;0.00593992;0.0144082;0;0.0279925;-0.085204;-1.26205;-0.830162;1.51301;-5.82138;-0.0075013;-0.000179577;0.0356575;0.0356583;-0.00750205;0.0215802;0.210371;4.75351;0.0266275;0.0287735;4.75314;0.210387;88.1189;133.119;-0.000694621;-0.00750165;-0.0012603;0.000856106;0.0356568;0.0143133;0.0316026;0;0.0383811;9.09627;5.50749
498000;499;26.1606;0.39243;0.0152292;-1.91645;25.4424;5.77835;-0.0971622;0.570881;-0.709882;0.0049511;-0.696286;-0.125986;0.70761;-11.6886;-0.00185308;0.000466198;0.00723549;0.00725934;-0.00187693;0.00456814;0.25611;3.90458;0.0055716;0.00609085;3.86767;0.258554;68.6919;113.692;-1.70533e-05;-0.00185604;-0.00156013;0.00247424;0.00723439;0.00556591;0.0146979;0;0.0285841;-0.0857372;-1.26554;-0.833196;1.51761;-5.82441;-0.00734675;-0.000430805;0.0360313;0.0360356;-0.00735103;0.0216933;0.203899;4.90438;0.0268121;0.0289244;4.90211;0.203994;89.0147;134.015;-0.00235635;-0.00734672;-0.00123777;0.00034237;0.0360306;0.0187005;0.0310688;0;0.0384439;9.0587;5.50858
499000;500;26.1629;0.394737;0.0153188;-1.91677;25.4448;5.77806;-0.0974737;0.573296;-0.710172;0.00502314;-0.695321;-0.122959;0.706127;-11.6856;-0.00193345;0.000200271;0.00738426;0.00738856;-0.00193776;0.00466316;0.261834;3.81921;0.00568284;0.00621754;3.81295;0.262264;69.4782;114.478;-0.000630769;-0.00193625;-0.00199195;0.00237222;0.00738231;0.00828139;0.0154457;0;0.0310312;-0.085944;-1.2678;-0.829352;1.51741;-5.82057;-0.00739334;-0.000495082;0.0364877;0.0364933;-0.00739893;0.0219461;0.202626;4.93521;0.0271335;0.0292615;4.93224;0.202748;89.3916;134.392;-0.00310819;-0.00739323;-0.00115592;0.000137779;0.0364872;0.023088;0.0321808;0;0.0410249;9.05527;5.51499
500000;501;26.168;0.399776;0.0155143;-1.91666;25.4503;5.7767;-0.0973706;0.578795;-0.711539;0.00437377;-0.69933;-0.12991;0.711308;-11.6925;-0.00180138;0.000388007;0.00780131;0.00781697;-0.00181703;0.004817;0.230907;4.33075;0.00591083;0.00642266;4.30206;0.232447;69.7157;114.716;-0.000290334;-0.00180459;-0.00180619;0.00256129;0.00779977;0.00634126;0.0118725;0;0.0316196;-0.0873214;-1.28045;-0.835147;1.53122;-5.82636;-0.00762582;-0.000481794;0.037528;0.0375332;-0.00763096;0.0225821;0.203203;4.92118;0.0279156;0.0301094;4.91854;0.203312;89.4253;134.425;-0.00292518;-0.00762571;-0.00112432;0.000132774;0.0375276;0.021886;0.0359747;0;0.0400068;9.17832;5.53026
501000;502;26.1748;0.406595;0.0157789;-1.91624;25.4569;5.77885;-0.096949;0.585349;-0.709384;0.00397236;-0.7005;-0.125501;0.711665;-11.6881;-0.00210969;-5.60833e-05;0.00806888;0.00806919;-0.00211;0.0050896;0.26146;3.82468;0.00620358;0.00678613;3.82427;0.261488;73.1683;118.168;-0.000590135;-0.00211164;-0.00210605;0.00197318;0.00806669;0.00685246;0.0129906;0;0.0289556;-0.0883423;-1.28809;-0.833047;1.53654;-5.82426;-0.00762483;-0.000324733;0.0382229;0.0382252;-0.00762713;0.0229262;0.199483;5.01295;0.0283697;0.0305682;5.01174;0.199531;89.16;134.16;-0.00362338;-0.00762483;-0.00101588;0.000335895;0.0382225;0.0206613;0.0358123;0;0.0413438;9.12844;5.53681
502000;503;26.1774;0.409219;0.0158808;-1.9191;25.4593;5.77932;-0.0998124;0.587725;-0.708915;0.0048483;-0.699295;-0.124208;0.710256;-11.6868;-0.00211717;-5.01721e-05;0.00807755;0.00807779;-0.00211741;0.0050976;0.262105;3.81526;0.00621247;0.0067968;3.81493;0.262128;74.0915;119.091;-0.000684167;-0.00211886;-0.00195648;0.00183686;0.00807565;0.00698974;0.0126987;0;0.0258112;-0.0881043;-1.29032;-0.832416;1.53805;-5.82363;-0.0077106;-0.000562362;0.0383934;0.0384003;-0.00771745;0.0230589;0.200831;4.97931;0.0285228;0.0307452;4.97577;0.200974;89.5527;134.553;-0.00392077;-0.00771044;-0.0012;4.6965e-05;0.0383929;0.0215031;0.0359631;0;0.0415907;9.07292;5.53688
503000;504;26.1836;0.415356;0.0161189;-1.91946;25.4666;5.77469;-0.100168;0.595059;-0.713548;0.00586659;-0.699494;-0.127477;0.711039;-11.6901;-0.0018489;0.000231918;0.00770105;0.00770668;-0.00185453;0.0047806;0.240084;4.16521;0.0058547;0.00637413;4.15561;0.240639;71.0507;116.051;-0.000174451;-0.00185149;-0.00184329;0.00228745;0.00769939;0.005549;0.0135786;0;0.0263613;-0.087857;-1.29509;-0.833179;1.54246;-5.82439;-0.00783991;-0.000628543;0.0385135;0.038522;-0.00784843;0.0231852;0.203563;4.91249;0.028658;0.0309136;4.90825;0.203739;89.4899;134.49;-0.00313591;-0.00783971;-0.00134445;5.54153e-05;0.0385128;0.0197659;0.0348378;0;0.0414945;9.13409;5.53863
504000;505;26.1969;0.428699;0.0166368;-1.92168;25.4782;5.78336;-0.10239;0.606643;-0.704874;0.00418666;-0.700989;-0.132633;0.713439;-11.6952;-0.0019574;4.3302e-05;0.00829971;0.0082999;-0.00195759;0.00512874;0.23584;4.24016;0.0062882;0.00683832;4.23986;0.235857;72.1068;117.107;-0.00124092;-0.00196002;-0.00222266;0.00228621;0.00829727;0.00810615;0.0125317;0;0.0316512;-0.0900816;-1.3066;-0.837012;1.55432;-5.82823;-0.00802474;-0.000493964;0.0386889;0.0386941;-0.00802996;0.023362;0.207417;4.8212;0.0288477;0.0311494;4.81872;0.207524;88.7473;133.747;-0.00206925;-0.00802474;-0.00152859;0.000494134;0.0386879;0.0147864;0.0320273;0;0.0409256;9.19867;5.55338
505000;506;26.198;0.429797;0.0166794;-1.92164;25.4816;5.77319;-0.102347;0.610081;-0.715044;0.00575418;-0.706713;-0.115299;0.71608;-11.6779;-0.00194674;0.000171522;0.00750728;0.00751039;-0.00194985;0.00473012;0.259314;3.85633;0.0057678;0.00630683;3.85177;0.259621;69.6689;114.669;0.000283596;-0.00194958;-0.0020653;0.00238736;0.00750517;0.00501327;0.0128277;0;0.0257843;-0.0894339;-1.31572;-0.825361;1.55575;-5.8169;-0.0078664;-0.000360532;0.0387166;0.0387194;-0.00786919;0.0232943;0.203179;4.92177;0.0287967;0.0310591;4.92038;0.203236;88.4155;133.416;-0.000847893;-0.0078666;-0.00149664;0.000724629;0.0387156;0.0203186;0.0287163;0;0.045131;9.14552;5.55861
506000;507;26.1995;0.431287;0.0167372;-1.92046;25.4837;5.77116;-0.101169;0.612161;-0.717071;0.00387855;-0.7016;-0.130527;0.713649;-11.6931;-0.00199237;1.23451e-05;0.0083083;0.00830831;-0.00199238;0.00515035;0.239804;4.17007;0.00630876;0.00686713;4.17004;0.239806;73.1188;118.119;-0.000601603;-0.0019946;-0.00210672;0.00210977;0.0083061;0.00705739;0.0123376;0;0.0331696;-0.091485;-1.31522;-0.837194;1.56175;-5.82873;-0.00829817;-1.87265e-05;0.0392667;0.0392667;-0.00829818;0.0237824;0.211328;4.73197;0.0293377;0.0317099;4.73197;0.211328;87.1025;132.102;0.000508082;-0.00829938;-0.00166484;0.00155205;0.0392654;0.0186838;0.0334261;0;0.0494198;9.10306;5.55886
507000;508;26.2048;0.436583;0.0169427;-1.92182;25.4896;5.76857;-0.102523;0.618089;-0.71966;0.00447626;-0.708151;-0.126276;0.719335;-11.6889;-0.00185381;0.000673818;0.00734206;0.00739117;-0.00190292;0.00464705;0.252492;3.96052;0.00566923;0.00619606;3.88411;0.257459;66.5546;111.555;0.000383831;-0.00185768;-0.00153113;0.00285863;0.00734112;0.00498543;0.0137494;0;0.0238944;-0.091537;-1.32863;-0.832641;1.57065;-5.82386;-0.00806669;-0.000732741;0.0400871;0.0400983;-0.00807784;0.0240881;0.201229;4.96946;0.0297921;0.0321174;4.96398;0.201451;89.4299;134.43;-0.00328739;-0.00806642;-0.00157148;6.71625e-05;0.0400862;0.022229;0.0352121;0;0.0421657;9.24536;5.57363
508000;509;26.2105;0.442296;0.0171644;-1.92155;25.4956;5.76836;-0.102254;0.624031;-0.719872;0.00480132;-0.703517;-0.126795;0.714868;-11.6894;-0.00195618;0.000505793;0.00786746;0.00789344;-0.00198215;0.00493779;0.248641;4.02186;0.00603255;0.00658373;3.98226;0.251114;68.7529;113.753;-0.00044428;-0.0019597;-0.00170955;0.00269954;0.00786614;0.00673035;0.0121513;0;0.0255289;-0.0923585;-1.33127;-0.837155;1.57532;-5.82837;-0.00839188;-0.000763906;0.0410996;0.0411114;-0.00840367;0.0247575;0.204184;4.89754;0.030596;0.03301;4.89208;0.204412;89.1444;134.144;-0.00310644;-0.00839161;-0.00179916;0.000222139;0.0410983;0.023711;0.0375771;0;0.0412415;9.20991;5.58132
509000;510;26.2157;0.447511;0.0173668;-1.92127;25.5004;5.77058;-0.101975;0.628912;-0.717657;0.00420409;-0.701654;-0.131289;0.713843;-11.6939;-0.001801;0.000262269;0.0072683;0.00727588;-0.00180858;0.00454223;0.247788;4.03571;0.00555251;0.0060563;4.02299;0.248571;67.6684;112.668;-0.000191887;-0.00180452;-0.00216385;0.00266654;0.00726601;0.00609025;0.0122517;0;0.0544337;-0.0929718;-1.33385;-0.84058;1.57936;-5.83179;-0.00841914;-0.000785979;0.0413968;0.0414092;-0.00843154;0.0249204;0.203377;4.91698;0.0308037;0.0332271;4.91122;0.203615;89.4853;134.485;-0.00313916;-0.00841883;-0.00163687;2.42089e-05;0.0413958;0.0237438;0.0367125;0;0.0517357;9.14727;5.58094
510000;511;26.2165;0.448264;0.017396;-1.92414;25.5018;5.76722;-0.104848;0.630229;-0.721013;0.00487301;-0.707387;-0.125913;0.718522;-11.6885;-0.00193439;-0.000147643;0.00840508;0.00840719;-0.0019365;0.00517185;0.230146;4.34507;0.0063495;0.00689579;4.34143;0.230339;73.842;118.842;-0.000995982;-0.00193644;-0.00234589;0.00202806;0.00840236;0.00756067;0.0123248;0;0.0363032;-0.0931383;-1.34324;-0.834807;1.58425;-5.82602;-0.00863238;-0.000611278;0.0416914;0.0416989;-0.0086398;0.0251693;0.207054;4.82966;0.0310821;0.0335591;4.82637;0.207195;88.8058;133.806;-0.00308186;-0.0086323;-0.00174896;0.000471446;0.0416902;0.0219709;0.0370256;0;0.0448426;9.2526;5.5885
511000;512;26.2275;0.459302;0.0178244;-1.92504;25.5135;5.76503;-0.105745;0.642003;-0.723201;0.00440114;-0.709987;-0.123559;0.720672;-11.6862;-0.00202823;0.000253546;0.00782318;0.0078297;-0.00203475;0.00493223;0.259259;3.85715;0.00601391;0.0065763;3.84799;0.259876;70.051;115.051;-0.000466566;-0.00203116;-0.00194487;0.00243047;0.00782134;0.00711509;0.0124355;0;0.0304754;-0.0944884;-1.35425;-0.834191;1.59336;-5.82541;-0.00859923;-0.000949741;0.0420281;0.0420459;-0.00861704;0.0253315;0.204607;4.88742;0.0313008;0.0337753;4.87939;0.204944;89.7012;134.701;-0.00374234;-0.00859879;-0.00178518;-0.000154887;0.042027;0.020125;0.0360035;0;0.0434253;9.26161;5.60332
512000;513;26.2318;0.463568;0.0179899;-1.92524;25.5187;5.76154;-0.10595;0.647161;-0.72669;0.00400286;-0.70785;-0.125909;0.718972;-11.6885;-0.00184649;0.000382652;0.00833508;0.00834944;-0.00186085;0.00510514;0.221532;4.51403;0.00627917;0.00680686;4.48691;0.222871;70.3709;115.371;0.000278776;-0.00184993;-0.00190635;0.00264854;0.00833335;0.0057583;0.0120295;0;0.038338;-0.095597;-1.35743;-0.837767;1.598;-5.82898;-0.0087789;-0.000949102;0.0422633;0.042281;-0.00879654;0.0255388;0.207719;4.8142;0.0315312;0.0340517;4.80655;0.20805;89.6734;134.673;-0.00413427;-0.00877846;-0.00179739;-0.000142359;0.0422622;0.0229456;0.0364124;0;0.0486392;9.2073;5.60308
513000;514;26.2322;0.463975;0.0180057;-1.92457;25.5196;5.75952;-0.10528;0.648086;-0.728711;0.00426805;-0.71052;-0.116055;0.719948;-11.6786;-0.00223087;8.27918e-05;0.00778908;0.00778976;-0.00223156;0.00501066;0.28641;3.49149;0.00607522;0.00668088;3.49073;0.286473;69.5787;114.579;-0.000697349;-0.00223376;-0.00226093;0.00240321;0.00778655;0.00773262;0.0129634;0;0.0271346;-0.0953654;-1.36196;-0.829662;1.59761;-5.82088;-0.00891156;-0.000947595;0.0425772;0.0425946;-0.00892899;0.0257618;0.209304;4.77775;0.0317935;0.0343491;4.77037;0.209627;89.4181;134.418;-0.00341836;-0.00891111;-0.00195087;6.13633e-06;0.0425758;0.0173032;0.036005;0;0.0451076;9.19269;5.60319
514000;515;26.2434;0.475151;0.0184394;-1.9268;25.5299;5.76433;-0.107506;0.658322;-0.723907;0.00565205;-0.711328;-0.128149;0.722801;-11.6907;-0.00182786;0.000546198;0.00760759;0.0076391;-0.00185937;0.00474924;0.240268;4.16202;0.00581252;0.00633232;4.10843;0.243402;68.5316;113.532;-0.000619305;-0.00183128;-0.00159701;0.00266933;0.00760647;0.00668413;0.0139659;0;0.0285961;-0.0953183;-1.37308;-0.839008;1.61194;-5.83022;-0.00904015;-0.000685674;0.0424561;0.0424653;-0.00904928;0.0257573;0.212929;4.6964;0.0317593;0.034343;4.69267;0.213098;88.4697;133.47;-0.00165496;-0.00904012;-0.00208287;0.000642501;0.0424543;0.0172439;0.0366667;0;0.0425508;9.32714;5.62447
515000;516;26.2535;0.485282;0.0188326;-1.92862;25.5396;5.76652;-0.109328;0.668103;-0.721713;0.00452889;-0.712826;-0.122127;0.723227;-11.6847;-0.00191124;0.000521638;0.00738871;0.00741787;-0.00194041;0.00467914;0.258671;3.86592;0.00570317;0.00623885;3.82284;0.261586;67.5227;112.523;0.000195318;-0.00191476;-0.0016791;0.00270206;0.00738744;0.00535425;0.0114869;0;0.0349732;-0.0969918;-1.38178;-0.835835;1.61782;-5.82705;-0.00923327;-0.000727485;0.0428625;0.0428727;-0.00924343;0.026058;0.215416;4.64218;0.0321095;0.0347441;4.63818;0.215602;88.4967;133.497;-0.0017221;-0.0092332;-0.00214037;0.000614825;0.0428606;0.01808;0.0362616;0;0.0460525;9.28925;5.62785
516000;517;26.2517;0.483454;0.0187617;-1.92817;25.5397;5.75808;-0.108874;0.668163;-0.730155;0.0056696;-0.711011;-0.124137;0.721788;-11.6867;-0.00175538;0.000726702;0.0074175;0.00747471;-0.0018126;0.00464365;0.236655;4.22557;0.0056845;0.00619154;4.12375;0.242497;65.8773;110.877;0.00028884;-0.00175974;-0.00160506;0.00303723;0.00741648;0.00546905;0.013357;0;0.0291219;-0.0965418;-1.38331;-0.8382;1.62033;-5.82941;-0.00927299;-0.000876511;0.0435988;0.0436133;-0.00928751;0.0264504;0.212689;4.7017;0.0326152;0.0352672;4.69591;0.212951;89.0738;134.074;-0.0031115;-0.00927263;-0.00205093;0.000238407;0.0435971;0.0222982;0.0368419;0;0.0461991;9.21106;5.62614
517000;518;26.2569;0.488671;0.0189641;-1.92849;25.5448;5.75926;-0.109198;0.673236;-0.728978;0.00531084;-0.712116;-0.124143;0.722876;-11.6867;-0.00185466;0.000242324;0.00749797;0.00750424;-0.00186094;0.00468259;0.247356;4.04276;0.00572487;0.00624346;4.03251;0.247985;69.1628;114.163;0.000611461;-0.00185777;-0.00203791;0.00250139;0.00749594;0.00531964;0.0123445;0;0.0346022;-0.0972544;-1.38906;-0.837539;1.62493;-5.82875;-0.00935574;-0.000968011;0.0443048;0.0443222;-0.0093732;0.0268477;0.211168;4.73557;0.0331177;0.0357969;4.72861;0.211479;89.2833;134.283;-0.00278517;-0.00935527;-0.00208408;9.07075e-05;0.0443031;0.0198041;0.0390746;0;0.0459138;9.30029;5.63424
518000;519;26.2605;0.492293;0.0191047;-1.92776;25.5492;5.75645;-0.10847;0.677646;-0.731787;0.00538358;-0.714663;-0.124354;0.725422;-11.6869;-0.00168738;0.000819242;0.00797538;0.00804434;-0.00175634;0.00490034;0.211574;4.72649;0.00603416;0.00653379;4.58016;0.218333;67.6861;112.686;-0.000180604;-0.00169161;-0.0014018;0.00301899;0.00797474;0.00510591;0.0115019;0;0.0384176;-0.0981808;-1.40065;-0.838554;1.63543;-5.82977;-0.00952383;-0.00109903;0.045398;0.04542;-0.00954581;0.0274829;0.209785;4.76678;0.0339128;0.0366439;4.75811;0.210167;89.5401;134.54;-0.00335951;-0.00952323;-0.00215122;-0.000102113;0.0453964;0.0207804;0.0379369;0;0.0472929;9.33476;5.64771
519000;520;26.2648;0.496642;0.0192734;-1.92992;25.5538;5.75518;-0.110629;0.682239;-0.733053;0.00618517;-0.712939;-0.1245;0.723754;-11.6871;-0.00179685;0.000695446;0.00753768;0.00758921;-0.00184838;0.0047188;0.238383;4.19493;0.00577506;0.00629173;4.10586;0.243554;66.7986;111.799;-0.000672153;-0.00180091;-0.00156018;0.00293017;0.00753671;0.00631086;0.0121299;0;0.0358265;-0.0981841;-1.40407;-0.839193;1.63869;-5.83041;-0.00964181;-0.00131766;0.0455683;0.0455998;-0.00967324;0.0276365;0.21159;4.72612;0.0340849;0.0368487;4.71401;0.212134;89.8863;134.886;-0.00431695;-0.00964102;-0.00228894;-0.000397669;0.0455667;0.0228544;0.0359404;0;0.0470368;9.27128;5.64861
520000;521;26.268;0.499804;0.0193962;-1.92894;25.5566;5.75719;-0.109646;0.685111;-0.731046;0.00542593;-0.714409;-0.124614;0.725216;-11.6872;-0.00189721;0.00047332;0.00685381;0.00687933;-0.00192274;0.00440104;0.276812;3.61256;0.00534371;0.00586805;3.57788;0.279495;65.9504;110.95;-0.000197691;-0.00190075;-0.0017698;0.00269694;0.00685236;0.00739993;0.0126217;0;0.0206199;-0.0992093;-1.40975;-0.838817;1.64343;-5.83003;-0.00983324;-0.00148746;0.045831;0.0458707;-0.00987296;0.0278718;0.214554;4.66082;0.0343478;0.0371625;4.6461;0.215234;90.1843;135.184;-0.00392442;-0.00983234;-0.0023721;-0.000649893;0.0458294;0.0218119;0.0384862;0;0.0441166;9.29571;5.65373
521000;522;26.2834;0.515167;0.0199924;-1.92928;25.5704;5.76604;-0.109989;0.698881;-0.722193;0.00437936;-0.717584;-0.125773;0.728536;-11.6884;-0.00202773;0.000550412;0.0075652;0.00759668;-0.0020592;0.00482794;0.268033;3.73088;0.00587245;0.00643725;3.68913;0.271066;67.5591;112.559;0.000304669;-0.00203133;-0.00165747;0.00273727;0.00756398;0.00539797;0.0117225;0;0.0239733;-0.101165;-1.42105;-0.841327;1.65453;-5.83254;-0.0101148;-0.00109592;0.0463111;0.0463323;-0.0101361;0.0282342;0.218411;4.57853;0.034763;0.0376456;4.57102;0.218769;89.1253;134.125;-0.00322314;-0.0101142;-0.00241145;0.000148676;0.0463088;0.0183683;0.0377628;0;0.0440615;9.37769;5.6676
522000;523;26.2889;0.520745;0.0202088;-1.93268;25.5778;5.75776;-0.113383;0.706223;-0.730474;0.00507416;-0.718678;-0.121755;0.728936;-11.6843;-0.00164968;0.000687118;0.00827765;0.00832498;-0.00169702;0.005011;0.199294;5.01772;0.00619365;0.00668133;4.90566;0.203846;68.9841;113.984;0.000519572;-0.00165376;-0.00158121;0.00293311;0.00827664;0.0045943;0.0132241;0;0.027992;-0.101131;-1.42976;-0.838303;1.66048;-5.82952;-0.0102385;-0.00108365;0.0464212;0.0464419;-0.0102592;0.0283506;0.220557;4.53398;0.0348875;0.0378007;4.52684;0.220905;88.743;133.743;-0.00215126;-0.010238;-0.0026417;0.000390029;0.0464184;0.015961;0.0394738;0;0.041733;9.34248;5.67446
523000;524;26.2932;0.525044;0.0203756;-1.93423;25.5815;5.76037;-0.114935;0.709937;-0.727865;0.00433228;-0.720873;-0.11937;0.730702;-11.682;-0.00198199;0.000929612;0.00757151;0.00766112;-0.00207161;0.00486637;0.26177;3.82015;0.00592003;0.00648849;3.69815;0.270405;65.3995;110.4;0.000607219;-0.00198645;-0.00128727;0.00312547;0.00757111;0.00367313;0.0128269;0;0.0365426;-0.102481;-1.43515;-0.836986;1.66454;-5.8282;-0.0104992;-0.001185;0.0467232;0.0467478;-0.0105238;0.0286358;0.224711;4.45016;0.0352014;0.038181;4.44211;0.225118;88.8171;133.817;-0.00148595;-0.0104986;-0.00275624;0.000300336;0.0467203;0.0154686;0.040355;0;0.0476582;9.30464;5.67525
524000;525;26.2982;0.53;0.020568;-1.93344;25.5871;5.75821;-0.114147;0.715576;-0.730023;0.00397622;-0.721896;-0.121719;0.732096;-11.6843;-0.00190797;0.000972831;0.00756376;0.00766264;-0.00200685;0.00483475;0.252251;3.9643;0.00589242;0.00644633;3.81824;0.261901;65.1947;110.195;0.000257543;-0.00191256;-0.00125541;0.00318012;0.00756344;0.00482679;0.0145727;0;0.0279976;-0.103222;-1.44217;-0.838227;1.67127;-5.82944;-0.010746;-0.00125743;0.0473614;0.0473886;-0.0107732;0.0290809;0.226893;4.40736;0.035729;0.0387745;4.39876;0.227337;88.7793;133.779;-0.000659588;-0.0107452;-0.00290802;0.000301581;0.0473581;0.0142911;0.0399372;0;0.0456562;9.38155;5.6815
525000;526;26.3065;0.538311;0.0208905;-1.93536;25.5949;5.7608;-0.116072;0.723391;-0.727436;0.00418048;-0.725366;-0.117026;0.734757;-11.6796;-0.00185748;0.000812149;0.00765515;0.00772399;-0.00192632;0.00482516;0.242645;4.12125;0.00589725;0.00643354;4.00971;0.249395;66.4061;111.406;0.000826727;-0.00186176;-0.00143099;0.0030341;0.00765446;0.00322877;0.0134523;0;0.0363809;-0.10396;-1.45271;-0.835919;1.67927;-5.82713;-0.0109928;-0.00151515;0.0484587;0.0484973;-0.0110314;0.0297644;0.226849;4.40822;0.0365676;0.0396858;4.3963;0.227464;89.3748;134.375;-0.00236102;-0.0109917;-0.00294662;-0.000164858;0.0484557;0.0165497;0.0395212;0;0.0457733;9.39185;5.6894
526000;527;26.3068;0.538646;0.0209035;-1.93513;25.5985;5.7465;-0.115836;0.726967;-0.741733;0.00530766;-0.72214;-0.122299;0.732442;-11.6849;-0.00171317;0.00135313;0.00820432;0.00838562;-0.00189448;0.00514005;0.208814;4.78896;0.00631732;0.0068534;4.42635;0.22592;65.8585;110.858;0.000939364;-0.00171825;-0.000774952;0.00346026;0.00820493;0.00287689;0.011033;0;0.0298169;-0.103571;-1.45563;-0.841359;1.68448;-5.83257;-0.0109811;-0.00172702;0.0490954;0.049145;-0.0110307;0.0300878;0.223668;4.47091;0.0369925;0.0401171;4.4553;0.224452;90.0962;135.096;-0.00287576;-0.0109798;-0.00280915;-0.000706846;0.049093;0.0179849;0.0385682;0;0.0436866;9.34855;5.69675
527000;528;26.2907;0.522533;0.0202782;-1.93453;25.5829;5.7425;-0.115239;0.71135;-0.745732;0.00459661;-0.724429;-0.119331;0.734206;-11.6819;-0.00174758;0.0014719;0.00661806;0.00686948;-0.001999;0.00443424;0.264062;3.78698;0.00537144;0.00591232;3.43646;0.290997;59.029;104.029;0.000720265;-0.00175338;-0.000781029;0.00370611;0.00661884;0.00325854;0.0132478;0;0.0258368;-0.104772;-1.46266;-0.835673;1.68781;-5.82689;-0.0114596;-0.00195488;0.0495598;0.0496224;-0.0115222;0.0305723;0.231229;4.32472;0.0375168;0.0407631;4.30667;0.232198;90.219;135.219;-0.00360029;-0.0114581;-0.00308263;-0.000892691;0.0495571;0.0219442;0.0395295;0;0.0424665;9.37545;5.70104
528000;529;26.317;0.548812;0.021298;-1.93487;25.6088;5.74704;-0.115575;0.737313;-0.741195;0.00772538;-0.728268;-0.116879;0.737628;-11.6795;-0.00197308;0.00124596;0.0074112;0.00757381;-0.00213569;0.00485475;0.26623;3.75615;0.00589158;0.006473;3.5463;0.281984;63.7908;108.791;0.00106667;-0.00197787;-0.000861198;0.00333348;0.0074116;0.00190534;0.0119731;0;0.0322478;-0.102529;-1.47426;-0.837602;1.69868;-5.82882;-0.0117139;-0.00162182;0.049888;0.0499306;-0.0117565;0.0308436;0.234803;4.25888;0.03782;0.0411248;4.24705;0.235457;89.6108;134.611;-0.0042797;-0.0117126;-0.00295022;-0.00037136;0.0498851;0.0190676;0.0373035;0;0.0464523;9.44837;5.71616
529000;530;26.335;0.566818;0.0219968;-1.93445;25.6224;5.76914;-0.115156;0.750882;-0.719094;0.00613714;-0.727205;-0.116889;0.736565;-11.6795;-0.00177595;0.000938658;0.00742716;0.00752192;-0.00187071;0.00469632;0.239116;4.18208;0.0057407;0.00626176;4.02089;0.248701;64.785;109.785;0.000985138;-0.00178069;-0.00136042;0.00321673;0.00742668;0.00327612;0.0132709;0;0.0322032;-0.105171;-1.48206;-0.836322;1.70499;-5.82754;-0.0122348;-0.00159991;0.050348;0.0503889;-0.0122757;0.0313323;0.243004;4.11516;0.0383452;0.0417764;4.10479;0.243618;89.1279;134.128;-0.00305048;-0.0122335;-0.00323551;-6.17529e-05;0.0503443;0.0152707;0.0406592;0;0.0511427;9.38385;5.71849
530000;531;26.3402;0.57203;0.0221991;-1.9355;25.6273;5.77086;-0.116207;0.755772;-0.717372;0.00520983;-0.724562;-0.120113;0.734468;-11.6827;-0.001708;0.00117032;0.00772377;0.00786682;-0.00185105;0.00485893;0.221135;4.52212;0.00595819;0.00647858;4.24993;0.235298;67.39;112.39;4.4196e-06;-0.00171181;-0.000672406;0.0029958;0.00772423;0.00323978;0.0110185;0;0.0244299;-0.106292;-1.48271;-0.841464;1.70815;-5.83268;-0.0121085;-0.0017115;0.0507373;0.0507839;-0.0121551;0.0314695;0.238651;4.19021;0.0385518;0.0419593;4.17799;0.23935;89.4028;134.403;-0.00326549;-0.0121071;-0.00324181;-0.000272709;0.0507337;0.0170761;0.0391028;0;0.0452178;9.32729;5.71856
531000;532;26.3374;0.569164;0.0220878;-1.9381;25.6279;5.75444;-0.118809;0.756322;-0.733794;0.00592245;-0.730856;-0.117795;0.740312;-11.6804;-0.00179416;0.00138555;0.0070842;0.0072954;-0.00200536;0.00465038;0.253262;3.94848;0.00565192;0.00620051;3.63794;0.27488;62.9003;107.9;0.00190602;-0.00179888;-0.000613436;0.0033669;0.00708497;0.00143665;0.0128708;0;0.0524687;-0.106077;-1.49334;-0.841095;1.7172;-5.83231;-0.0121645;-0.00148355;0.0512825;0.0513172;-0.0121992;0.0317582;0.237206;4.21575;0.0389205;0.0423443;4.20661;0.237721;88.7903;133.79;-0.00105897;-0.0121634;-0.00331768;0.00023989;0.0512784;0.0129729;0.0426088;0;0.0536542;9.45341;5.72818
532000;533;26.3494;0.581175;0.022554;-1.93978;25.6388;5.76006;-0.120488;0.767276;-0.72817;0.00544119;-0.730279;-0.118257;0.739812;-11.6808;-0.00174545;0.000919861;0.00711406;0.00720856;-0.00183995;0.00452425;0.245353;4.07576;0.00552216;0.00603234;3.9178;0.255246;65.9767;110.977;0.00121523;-0.00174922;-0.00106856;0.00289078;0.00711391;0.00254309;0.0125343;0;0.0298456;-0.107992;-1.50311;-0.839725;1.72515;-5.83094;-0.0126046;-0.00174042;0.0522244;0.0522711;-0.0126513;0.0324612;0.241355;4.14328;0.0397415;0.0432816;4.13168;0.242033;88.9654;133.965;-0.00247026;-0.0126031;-0.00361648;2.00548e-05;0.0522197;0.0165944;0.0407788;0;0.0480972;9.45154;5.74061
533000;534;26.3521;0.583942;0.0226613;-1.93992;25.6432;5.75317;-0.120623;0.771656;-0.735061;0.00595452;-0.728457;-0.119682;0.738247;-11.6823;-0.0017098;0.00103534;0.00732864;0.00744572;-0.00182688;0.0046363;0.233304;4.28625;0.00567171;0.00618174;4.07564;0.24536;64.6485;109.648;0.00091957;-0.00171444;-0.00116164;0.00321261;0.0073285;0.0024572;0.0123329;0;0.0343164;-0.107809;-1.50597;-0.842149;1.72881;-5.83336;-0.0126573;-0.00156025;0.0521618;0.0521993;-0.0126949;0.0324471;0.242655;4.12107;0.0397134;0.0432628;4.11184;0.2432;89.0192;134.019;-0.00268911;-0.0126561;-0.00327546;4.93013e-05;0.0521578;0.0152106;0.0441342;0;0.0467289;9.3887;5.7404
534000;535;26.3574;0.589228;0.0228665;-1.93965;25.6486;5.75347;-0.120353;0.777043;-0.734767;0.00537541;-0.730307;-0.116171;0.739509;-11.6788;-0.00174072;0.0011324;0.00760931;0.0077445;-0.00187591;0.00481021;0.228761;4.37137;0.00588876;0.00641361;4.1284;0.242225;64.9933;109.993;0.000921222;-0.00174551;-0.00104892;0.00329348;0.0076094;0.00324661;0.0121321;0;0.0314025;-0.108366;-1.51228;-0.8395;1.73306;-5.83071;-0.0127652;-0.00186766;0.0528762;0.0529293;-0.0128183;0.0328738;0.241417;4.14222;0.0402452;0.0438317;4.1292;0.242178;89.2309;134.231;-0.00325752;-0.0127634;-0.00363915;-0.000206616;0.0528716;0.016926;0.0417941;0;0.046828;9.42465;5.74814
535000;536;26.3665;0.598279;0.0232177;-1.94185;25.6568;5.75752;-0.122556;0.78527;-0.73072;0.00601145;-0.733385;-0.116217;0.742561;-11.6788;-0.0018056;0.00161739;0.00713486;0.00741846;-0.0020892;0.00475383;0.253067;3.95152;0.00576954;0.00633844;3.55086;0.281622;62.5909;107.591;0.000656766;-0.00181034;-0.000257885;0.00347601;0.00713613;0.00206262;0.0116625;0;0.0478201;-0.109247;-1.52264;-0.840506;1.74264;-5.83172;-0.0133881;-0.0019275;0.0533686;0.0534242;-0.0134438;0.033434;0.250862;3.98626;0.0408417;0.0445787;3.97391;0.251641;89.3201;134.32;-0.00327243;-0.0133863;-0.00364581;-0.000318074;0.0533641;0.0175138;0.0435058;0;0.053549;9.48719;5.75573
536000;537;26.3537;0.585493;0.0227215;-1.94308;25.6469;5.74279;-0.123788;0.775338;-0.745446;0.00611225;-0.732354;-0.118069;0.741835;-11.6807;-0.00181056;0.000947479;0.00726054;0.00735845;-0.00190847;0.00463346;0.24937;4.01011;0.00565026;0.00617794;3.85568;0.259358;65.9539;110.954;0.000818494;-0.00181446;-0.00106972;0.0029465;0.00726042;0.00243482;0.0105198;0;0.027082;-0.110101;-1.52968;-0.841156;1.74917;-5.83237;-0.0136569;-0.00206911;0.054134;0.054197;-0.01372;0.0339585;0.252279;3.96386;0.0414683;0.045278;3.95023;0.25315;89.5067;134.507;-0.00334016;-0.0136548;-0.00374067;-0.000505048;0.0541293;0.0164013;0.0390406;0;0.0488096;9.44198;5.76321
537000;538;26.3715;0.603282;0.0234119;-1.94229;25.6652;5.74288;-0.122992;0.793657;-0.745356;0.00646871;-0.73335;-0.115769;0.742459;-11.6784;-0.0018669;0.00152509;0.00739093;0.00763569;-0.00211166;0.00487368;0.252593;3.95894;0.00592122;0.00649824;3.61597;0.276551;62.4441;107.444;0.000342203;-0.0018722;-0.000563842;0.00359482;0.00739193;0.00474705;0.0124316;0;0.0269276;-0.110452;-1.53487;-0.842883;1.75456;-5.8341;-0.0138697;-0.00202557;0.053947;0.0540074;-0.0139301;0.0339688;0.257098;3.88957;0.0414363;0.0452917;3.87703;0.257929;89.1192;134.119;-0.00262885;-0.0138676;-0.00394045;-0.000233908;0.0539416;0.0151305;0.0436175;0;0.0469144;9.44002;5.76793
538000;539;26.3833;0.615071;0.0238694;-1.9435;25.6753;5.75147;-0.124206;0.803755;-0.736765;0.00460706;-0.737162;-0.118003;0.746561;-11.6806;-0.00187665;0.000704649;0.00670515;0.00676263;-0.00193412;0.00434837;0.279881;3.57295;0.00527272;0.00579783;3.49649;0.286001;64.5275;109.527;0.00107134;-0.00188046;-0.00145672;0.00284758;0.00670434;0.00202281;0.0122759;0;0.0320181;-0.112499;-1.54797;-0.842276;1.76587;-5.83349;-0.0141911;-0.00179572;0.0545742;0.054621;-0.014238;0.0344295;0.260033;3.84566;0.0419728;0.045906;3.83629;0.260668;88.6846;133.685;-0.00108687;-0.0141895;-0.00389146;0.00016337;0.0545685;0.01244;0.048081;0;0.0500507;9.55666;5.78093
539000;540;26.3944;0.626194;0.024301;-1.94542;25.6865;5.75161;-0.126124;0.815009;-0.736628;0.00647133;-0.736779;-0.116061;0.745893;-11.6787;-0.00175839;0.00163587;0.00680539;0.00710724;-0.00206024;0.00458374;0.258382;3.87024;0.00555378;0.00611165;3.44971;0.289879;61.2729;106.273;0.000856416;-0.0017632;-0.000248533;0.00350425;0.00680669;0.00165636;0.0111896;0;0.0241622;-0.112122;-1.55809;-0.842063;1.77462;-5.83328;-0.0145478;-0.00149524;0.0556116;0.0556434;-0.0145797;0.0351116;0.261598;3.82266;0.0427916;0.0468154;3.8165;0.26202;87.7751;132.775;-0.00185902;-0.0145472;-0.00411481;0.000950242;0.0556046;0.0138258;0.0447049;0;0.0465344;9.4851;5.78665
540000;541;26.3991;0.63091;0.0244841;-1.94705;25.6909;5.75317;-0.12776;0.819382;-0.735064;0.00576257;-0.734327;-0.120729;0.744207;-11.6833;-0.0017578;0.00123527;0.00701665;0.00718723;-0.00192838;0.00455781;0.250518;3.99173;0.00554716;0.00607708;3.72708;0.268307;63.596;108.596;0.00101813;-0.00176223;-0.000767577;0.00322066;0.00701711;0.00147829;0.0125545;0;0.0254732;-0.113743;-1.5589;-0.850238;1.77933;-5.84145;-0.014416;-0.00177751;0.0561494;0.0561942;-0.0144608;0.0353275;0.256744;3.89493;0.0430994;0.0471033;3.88597;0.257336;88.291;133.291;-0.00136513;-0.0144145;-0.0042117;0.000494041;0.0561425;0.0149133;0.0451586;0;0.0470953;9.40676;5.78649
541000;542;26.4001;0.631918;0.0245232;-1.94561;25.6929;5.74945;-0.126314;0.82136;-0.738789;0.00595244;-0.733802;-0.123943;0.74422;-11.6865;-0.00156136;0.00136545;0.00700237;0.00721481;-0.00177381;0.00449431;0.222977;4.48478;0.00549738;0.00599241;4.06741;0.245857;62.6343;107.634;0.000921105;-0.00156628;-0.000703883;0.00341718;0.00700305;0.00237098;0.0136121;0;0.026558;-0.113783;-1.56229;-0.85074;1.78254;-5.84195;-0.0143079;-0.00184968;0.0561958;0.0562443;-0.0143564;0.0353003;0.254608;3.92761;0.0430864;0.0470671;3.91772;0.255251;88.7309;133.731;-0.00269621;-0.0143062;-0.0039962;0.00015356;0.0561898;0.0166829;0.0408557;0;0.0505319;9.44528;5.79203
542000;543;26.4093;0.641141;0.0248811;-1.94591;25.7035;5.7442;-0.126618;0.831986;-0.744031;0.00573781;-0.736978;-0.121989;0.747028;-11.6846;-0.00201273;0.00103599;0.00713046;0.00724638;-0.00212865;0.00468751;0.282272;3.54268;0.00567513;0.00625002;3.40422;0.293753;64.4458;109.446;0.000892705;-0.00201688;-0.00100386;0.00305731;0.0071305;0.003447;0.0138984;0;0.0439487;-0.11477;-1.57596;-0.847576;1.7931;-5.83879;-0.0147728;-0.00212978;0.057159;0.057222;-0.0148358;0.0360289;0.258451;3.86921;0.0439363;0.0480385;3.85702;0.259267;88.921;133.921;-0.00313877;-0.0147705;-0.00430584;-0.00010178;0.0571523;0.0139795;0.0420818;0;0.0510017;9.55299;5.8064
543000;544;26.4193;0.651119;0.0252683;-1.94658;25.7123;5.75071;-0.127284;0.840734;-0.737525;0.00662578;-0.738675;-0.119419;0.748295;-11.682;-0.00192001;0.00107269;0.00663359;0.00676606;-0.00205248;0.00440927;0.289438;3.45497;0.00532831;0.00587903;3.29653;0.30335;62.8191;107.819;0.000242637;-0.00192415;-0.000939679;0.00306795;0.00663372;0.00362167;0.0120887;0;0.0332028;-0.114732;-1.5841;-0.848586;1.80073;-5.8398;-0.0150851;-0.00201602;0.0578234;0.0578791;-0.0151408;0.0365099;0.260881;3.83316;0.0445;0.0486799;3.82273;0.261593;88.6028;133.603;-0.00377219;-0.015083;-0.00437609;0.000181392;0.0578163;0.0170467;0.0408408;0;0.0541765;9.49269;5.81393
544000;545;26.4193;0.651088;0.0252671;-1.9476;25.7136;5.74407;-0.128305;0.842108;-0.744165;0.00619303;-0.738629;-0.113107;0.747265;-11.6757;-0.00182902;0.00124248;0.00744474;0.00760832;-0.0019926;0.00480046;0.245679;4.07035;0.00585064;0.00640061;3.81829;0.261897;64.3869;109.387;0.00137535;-0.00183369;-0.000831389;0.00329725;0.00744517;0.00205524;0.011033;0;0.0354769;-0.115824;-1.58736;-0.841294;1.80025;-5.83251;-0.0156111;-0.00215186;0.0580854;0.0581482;-0.0156739;0.036911;0.268761;3.72078;0.0449112;0.0492147;3.70988;0.26955;88.57;133.57;-0.00300867;-0.0156087;-0.00459411;0.000120292;0.0580777;0.0140076;0.042788;0;0.0531145;9.44361;5.81387
545000;546;26.436;0.667765;0.0259143;-1.94367;25.7253;5.76999;-0.124379;0.85374;-0.718246;0.00575115;-0.742026;-0.113552;0.750686;-11.6761;-0.00187648;0.000876182;0.00575527;0.00585457;-0.00197578;0.00391518;0.326046;3.06705;0.00470211;0.00522024;2.96316;0.337477;59.9061;104.906;0.000942387;-0.00188053;-0.00123676;0.00297309;0.00575489;0.0035285;0.0131121;0;0.0340279;-0.117049;-1.5973;-0.842231;1.80953;-5.83344;-0.0157639;-0.00229823;0.0583673;0.0584385;-0.0158351;0.0371368;0.270081;3.70259;0.0451722;0.0495158;3.69044;0.270971;88.7456;133.746;-0.00102006;-0.0157613;-0.00469072;-7.33183e-05;0.0583594;0.00960032;0.0461263;0;0.0558938;9.56415;5.82177
546000;547;26.4348;0.666628;0.0258702;-1.95029;25.7294;5.74393;-0.131001;0.857901;-0.744305;0.0058387;-0.742082;-0.114077;0.750822;-11.6767;-0.00186622;0.000550326;0.00683635;0.00687102;-0.00190088;0.00438595;0.272984;3.66322;0.00532855;0.00584793;3.61465;0.276652;66.9009;111.901;0.000846701;-0.00186935;-0.00147673;0.00255986;0.00683542;0.00338339;0.0131074;0;0.0327147;-0.117729;-1.60744;-0.843756;1.81925;-5.83497;-0.0160492;-0.00206176;0.0593247;0.0593811;-0.0161055;0.0377433;0.270531;3.69643;0.0459075;0.0503244;3.687;0.271224;88.2007;133.201;-0.00123478;-0.0160471;-0.00476701;0.000451005;0.059316;0.0127649;0.0485397;0;0.0535904;9.55415;5.8348
547000;548;26.4372;0.669035;0.0259636;-1.95148;25.733;5.73845;-0.132192;0.861508;-0.749789;0.00582661;-0.742248;-0.111126;0.750543;-11.6737;-0.00194818;0.000919377;0.00666911;0.00676611;-0.00204517;0.00440564;0.292119;3.42326;0.00532503;0.00587418;3.30833;0.302267;63.5691;108.569;0.000496979;-0.00195213;-0.00113474;0.0029559;0.00666889;0.00269452;0.012262;0;0.0351438;-0.118;-1.61264;-0.842164;1.82312;-5.83338;-0.0164611;-0.00205546;0.0601672;0.0602223;-0.0165162;0.0383693;0.27359;3.65511;0.0466388;0.051159;3.64625;0.274254;88.3032;133.303;-0.00234851;-0.0164591;-0.00468091;0.000380225;0.0601589;0.0152837;0.0501559;0;0.0513736;9.5018;5.8361
548000;549;26.4463;0.678139;0.0263169;-1.95112;25.7413;5.74333;-0.131827;0.869799;-0.744906;0.00580636;-0.742286;-0.113443;0.750927;-11.676;-0.00178278;0.00112013;0.00648782;0.00663684;-0.0019318;0.00428432;0.274789;3.63916;0.00518976;0.00571243;3.43557;0.291072;62.2251;107.225;0.000896748;-0.00178703;-0.000896287;0.00311997;0.00648805;0.00182726;0.0128007;0;0.0288252;-0.118795;-1.61907;-0.845335;1.83033;-5.83655;-0.0164424;-0.00194868;0.0604772;0.0605265;-0.0164917;0.0385091;0.271878;3.67812;0.0468265;0.0513455;3.67011;0.272471;88.2516;133.252;-0.00221189;-0.0164406;-0.00456697;0.000479707;0.0604691;0.012859;0.0481658;0;0.0479298;9.53597;5.84315
549000;550;26.4592;0.69097;0.0268149;-1.95204;25.7531;5.74927;-0.132749;0.881588;-0.738969;0.00613939;-0.744976;-0.113123;0.753541;-11.6757;-0.00200536;0.00064206;0.00641935;0.00646801;-0.00205401;0.00426101;0.312393;3.2011;0.00513547;0.00568134;3.14896;0.317565;64.7402;109.74;0.000877509;-0.00200858;-0.00134936;0.00261681;0.00641865;0.00117697;0.0141688;0;0.0316314;-0.119536;-1.63037;-0.845156;1.8403;-5.83637;-0.0166426;-0.00184007;0.0610174;0.061061;-0.0166861;0.0388736;0.272751;3.66635;0.0472617;0.0518314;3.65938;0.27327;87.9926;132.993;-0.0020476;-0.0166411;-0.00461758;0.000734157;0.061009;0.0128717;0.0440988;0;0.0535288;9.57928;5.85097
550000;551;26.46;0.691827;0.0268481;-1.95283;25.7565;5.73772;-0.133541;0.884982;-0.750517;0.0061861;-0.744436;-0.111831;0.752814;-11.6744;-0.00190369;0.00106272;0.00747801;0.00759688;-0.00202257;0.00480973;0.254572;3.92816;0.00585638;0.00641297;3.75606;0.266236;65.5799;110.58;0.000378934;-0.00190791;-0.000984579;0.00309094;0.00747809;0.00265508;0.012365;0;0.0271007;-0.120183;-1.63603;-0.844834;1.8452;-5.83605;-0.0167657;-0.00224155;0.0616387;0.0617027;-0.0168297;0.0392662;0.271999;3.67648;0.0477442;0.0523549;3.6663;0.272755;88.5867;133.587;-0.00315285;-0.0167631;-0.00478707;0.000115985;0.0616302;0.0141963;0.0443847;0;0.0540049;9.52574;5.85767
551000;552;26.4603;0.692085;0.0268581;-1.95038;25.7594;5.72663;-0.131085;0.887902;-0.761606;0.00608269;-0.745563;-0.110304;0.753703;-11.6729;-0.00205911;0.000919578;0.00688489;0.00697846;-0.00215268;0.00456557;0.299077;3.34362;0.00551182;0.00608742;3.24175;0.308475;65.0819;110.082;0.000707568;-0.00206266;-0.000994817;0.00281696;0.00688482;0.00217123;0.0114659;0;0.026986;-0.121002;-1.642;-0.844218;1.85027;-5.83543;-0.0170266;-0.00208483;0.0617341;0.0617893;-0.0170817;0.0394355;0.275805;3.62575;0.0479127;0.0525807;3.61728;0.276451;88.7323;133.732;-0.00323339;-0.0170244;-0.00439792;5.66791e-05;0.0617271;0.0126032;0.0463593;0;0.054332;9.53797;5.85824
552000;553;26.4756;0.707427;0.0274535;-1.95365;25.7717;5.741;-0.134354;0.900216;-0.747235;0.00605094;-0.746309;-0.114735;0.755101;-11.6773;-0.00215071;0.000640899;0.0073873;0.00743018;-0.00219358;0.00481188;0.291136;3.43482;0.00582401;0.00641584;3.38724;0.295226;68.2617;113.262;0.000439286;-0.00215371;-0.00126431;0.00252806;0.00738671;0.00217517;0.0126452;0;0.0319883;-0.12212;-1.65231;-0.847604;1.86104;-5.83882;-0.0171216;-0.00227775;0.0628321;0.062897;-0.0171864;0.0400417;0.272497;3.66976;0.0486821;0.0533889;3.65969;0.273247;88.397;133.397;-0.00240089;-0.017119;-0.00503166;0.000269007;0.0628227;0.0141341;0.0446355;0;0.0546247;9.61939;5.87366
553000;554;26.4834;0.715205;0.0277553;-1.95437;25.7806;5.7371;-0.135079;0.909021;-0.751138;0.00531571;-0.748395;-0.111022;0.756604;-11.6736;-0.00208349;0.000812413;0.00705978;0.0071314;-0.00215512;0.00464326;0.295122;3.38843;0.00561231;0.00619101;3.30905;0.302201;66.5682;111.568;0.00174493;-0.00208674;-0.0010625;0.0026703;0.00705955;0.000276009;0.0134995;0;0.0245218;-0.12386;-1.66338;-0.845517;1.87005;-5.83673;-0.0176862;-0.00239597;0.0642884;0.0643584;-0.0177561;0.0410573;0.275107;3.63495;0.0498889;0.054743;3.62457;0.275895;88.5349;133.535;-0.000989927;-0.0176833;-0.0051235;0.000121498;0.0642788;0.0116991;0.0488223;0;0.0492631;9.57824;5.8814
554000;555;26.4867;0.718494;0.027883;-1.95664;25.7844;5.73432;-0.137351;0.912843;-0.75391;0.00630797;-0.745078;-0.117793;0.754358;-11.6804;-0.00197882;0.000340485;0.00689614;0.00690918;-0.00199186;0.00445052;0.286946;3.48498;0.00539409;0.00593403;3.46871;0.288292;68.6444;113.644;-0.000160843;-0.00198137;-0.0016178;0.00228151;0.00689489;0.00458421;0.0139482;0;0.0245266;-0.123932;-1.66585;-0.853981;1.87608;-5.8452;-0.0176691;-0.00239572;0.0647776;0.0648472;-0.0177386;0.0412929;0.272765;3.66616;0.0502001;0.0550572;3.6557;0.273545;88.5946;133.595;-0.00194379;-0.0176662;-0.00509265;9.23984e-05;0.0647681;0.0117199;0.050006;0;0.0513815;9.53521;5.88077
555000;556;26.4961;0.727925;0.028249;-1.95817;25.792;5.74327;-0.138877;0.920425;-0.744966;0.00530506;-0.747286;-0.115057;0.75611;-11.6776;-0.00193149;0.00079883;0.007192;0.00726142;-0.00200091;0.00463116;0.268561;3.72355;0.00562776;0.00617488;3.62906;0.275553;67.2282;112.228;0.000419345;-0.00193477;-0.00109983;0.00268029;0.00719172;0.00336381;0.0130796;0;0.0233493;-0.124935;-1.6734;-0.850958;1.88149;-5.84217;-0.0181894;-0.0023793;0.06473;0.0647982;-0.0182576;0.0415279;0.281004;3.55867;0.0503994;0.0553706;3.54911;0.281761;88.6081;133.608;-0.00325942;-0.0181865;-0.0050136;4.98599e-05;0.0647209;0.0144128;0.0505316;0;0.0498691;9.5731;5.88825
556000;557;26.5019;0.733717;0.0284737;-1.95805;25.7996;5.73579;-0.138753;0.928049;-0.752447;0.00557303;-0.752796;-0.105891;0.760228;-11.6685;-0.00219764;0.000851004;0.00776261;0.00783479;-0.00226983;0.00505231;0.283106;3.53224;0.00612172;0.00673642;3.45171;0.289711;68.3574;113.357;0.000531901;-0.00220092;-0.00101234;0.00269593;0.00776246;0.00109792;0.0138064;0;0.0245496;-0.125813;-1.68651;-0.844085;1.89014;-5.8353;-0.0186219;-0.00216025;0.0646193;0.0646753;-0.0186779;0.0416766;0.288178;3.47008;0.0505075;0.0555688;3.46267;0.288795;88.2724;133.272;-0.00253279;-0.0186196;-0.00491846;0.000382319;0.0646101;0.0115856;0.0522551;0;0.0502317;9.61168;5.8977
557000;558;26.4942;0.726001;0.0281743;-1.96057;25.7918;5.73433;-0.141281;0.920255;-0.753903;0.00634699;-0.747921;-0.117745;0.75716;-11.6803;-0.00199379;0.000801836;0.00740984;0.00747772;-0.00206167;0.0047697;0.269074;3.71646;0.00579591;0.00635959;3.62702;0.275709;68.3831;113.383;0.000775138;-0.00199684;-0.00100875;0.00259552;0.00740965;0.00226778;0.0138813;0;0.024301;-0.126067;-1.68823;-0.855729;1.89691;-5.84694;-0.0182075;-0.00233351;0.0658342;0.065899;-0.0182722;0.0420856;0.276565;3.61578;0.0511237;0.0561141;3.60651;0.277276;88.6345;133.635;-0.00309233;-0.0182047;-0.00496094;8.67492e-05;0.0658252;0.0137944;0.047811;0;0.0520316;9.56695;5.9024
558000;559;26.5088;0.740643;0.0287425;-1.95763;25.8098;5.72192;-0.138335;0.938273;-0.76631;0.00636586;-0.746724;-0.122539;0.756738;-11.6851;-0.00225268;0.000505907;0.0076173;0.00764317;-0.00227854;0.00496085;0.295731;3.38145;0.00600093;0.00661447;3.35442;0.298115;69.8833;114.883;-0.000608612;-0.00225529;-0.00134449;0.00233818;0.00761653;0.00374182;0.0111395;0;0.0286679;-0.126752;-1.69447;-0.858585;1.9038;-5.8498;-0.0182554;-0.00240991;0.0664853;0.0665537;-0.0183238;0.0424388;0.274578;3.64196;0.0515738;0.0565851;3.63208;0.275324;88.8006;133.801;-0.00309647;-0.0182524;-0.00495645;-6.57069e-05;0.0664765;0.0133967;0.0440486;0;0.0539707;9.60102;5.90992
559000;560;26.5241;0.755858;0.029333;-1.96029;25.8221;5.73583;-0.140996;0.950614;-0.752409;0.00512269;-0.754085;-0.109392;0.761996;-11.672;-0.00220428;0.000425826;0.00792565;0.00794352;-0.00222215;0.00508284;0.27812;3.59557;0.00617123;0.00677712;3.5747;0.279744;71.4903;116.49;-2.68937e-05;-0.00220667;-0.00139192;0.0022253;0.00792478;0.00234512;0.0147181;0;0.0254805;-0.128521;-1.71005;-0.847294;1.91277;-5.83851;-0.0187765;-0.00252156;0.0682423;0.0683153;-0.0188495;0.0435824;0.275144;3.63446;0.052957;0.0581099;3.62425;0.275919;88.8646;133.865;-0.00302583;-0.0187732;-0.0051067;-0.000146984;0.0682331;0.0143572;0.0483965;0;0.0559162;9.65966;5.91994
560000;561;26.5337;0.765531;0.0297084;-1.96253;25.8318;5.7365;-0.143236;0.96023;-0.751736;0.00570149;-0.756367;-0.104132;0.763523;-11.6667;-0.00234378;0.000433636;0.00841026;0.00842772;-0.00236124;0.00539448;0.278681;3.58833;0.00654902;0.00719264;3.56919;0.280175;71.4562;116.456;6.24481e-05;-0.00234648;-0.00151446;0.00236096;0.00840922;0.00252214;0.0140669;0;0.0233263;-0.128591;-1.72171;-0.842249;1.92099;-5.83346;-0.0190233;-0.00244338;0.0697316;0.0697989;-0.0190905;0.0444447;0.272807;3.6656;0.0540322;0.0592596;3.65621;0.273507;88.4651;133.465;-0.0038972;-0.0190203;-0.00540038;0.000268305;0.0697208;0.016891;0.0463858;0;0.0525787;9.59623;5.92405
561000;562;26.534;0.765848;0.0297207;-1.96402;25.8336;5.72899;-0.144727;0.962109;-0.759246;0.00578333;-0.752859;-0.110384;0.76093;-11.673;-0.00210007;0.000115644;0.00723703;0.00723847;-0.0021015;0.00466998;0.290184;3.44609;0.00565777;0.00622664;3.44443;0.290324;71.2611;116.261;0.000842432;-0.00210203;-0.00176933;0.00198314;0.00723549;0.00118032;0.0141821;0;0.0303162;-0.129868;-1.72362;-0.848582;1.92557;-5.8398;-0.0191999;-0.00235494;0.0701541;0.0702161;-0.019262;0.044739;0.273683;3.65387;0.0543806;0.059652;3.64532;0.274324;88.5984;133.598;-0.00330242;-0.0191971;-0.00513453;0.000192576;0.0701443;0.0152939;0.0500329;0;0.0501003;9.58005;5.93069
562000;563;26.5457;0.777528;0.0301739;-1.96421;25.8438;5.73731;-0.144913;0.972245;-0.750926;0.00504383;-0.753981;-0.111033;0.762129;-11.6736;-0.00214469;0.000374092;0.00765821;0.00767247;-0.00215895;0.00491571;0.280051;3.57077;0.00596629;0.00655428;3.5538;0.281389;71.431;116.431;6.3121e-05;-0.00214693;-0.00141532;0.0021461;0.00765729;0.0039192;0.0148695;0;0.0251146;-0.130876;-1.73143;-0.851972;1.93412;-5.84319;-0.0192722;-0.00227437;0.0696786;0.0697367;-0.0193303;0.0445335;0.276587;3.6155;0.0540983;0.059378;3.60764;0.27719;88.6467;133.647;-0.00299007;-0.0192696;-0.00493421;0.000164298;0.0696696;0.0145361;0.0553004;0;0.0553791;9.64231;5.9396
563000;564;26.5519;0.783724;0.0304144;-1.96572;25.8511;5.73243;-0.146428;0.979579;-0.75581;0.00551795;-0.757951;-0.105731;0.76531;-11.6683;-0.0022943;0.000416498;0.00774379;0.00776104;-0.00231155;0.00503629;0.296276;3.37523;0.00609251;0.00671506;3.35751;0.29784;70.3193;115.319;0.000242604;-0.00229685;-0.00148021;0.00229432;0.00774279;0.00242138;0.0150496;0;0.0247799;-0.132345;-1.74294;-0.849095;1.94327;-5.84031;-0.0196736;-0.0022449;0.0699229;0.0699792;-0.0197298;0.0448545;0.281361;3.55415;0.0544346;0.059806;3.54687;0.281939;88.8309;133.831;-0.00373924;-0.019671;-0.00469482;-1.21831e-07;0.069915;0.0156614;0.0493272;0;0.05407;9.64141;5.94573
564000;565;26.5555;0.787333;0.0305545;-1.9658;25.8562;5.72637;-0.146512;0.98462;-0.761862;0.00619983;-0.758153;-0.10344;0.765203;-11.666;-0.00212477;0.000466013;0.00886873;0.00888845;-0.00214449;0.00551647;0.23958;4.17398;0.0067549;0.00735529;4.14479;0.241267;73.1482;118.148;0.000557917;-0.00212736;-0.00140962;0.0023212;0.00886785;0.00234525;0.0139102;0;0.0252146;-0.131747;-1.74862;-0.847899;1.94781;-5.83911;-0.0197954;-0.00217944;0.0701852;0.0702379;-0.0198482;0.0450431;0.282046;3.54553;0.0546561;0.0600574;3.53876;0.282585;88.3738;133.374;-0.00390108;-0.0197931;-0.005026;0.000427794;0.0701756;0.0174515;0.0476164;0;0.0534986;9.60101;5.94619
565000;566;26.5635;0.79533;0.0308648;-1.96601;25.8633;5.73118;-0.146712;0.991753;-0.757056;0.00641556;-0.758119;-0.106089;0.765533;-11.6687;-0.00225872;0.000631077;0.00799468;0.00803338;-0.00229741;0.00516539;0.282527;3.53948;0.00626345;0.00688719;3.49671;0.285983;70.7424;115.742;-5.94483e-06;-0.00226137;-0.00114127;0.00238539;0.00799423;0.00354616;0.0146251;0;0.0330669;-0.1318;-1.75534;-0.849444;1.95452;-5.84066;-0.0196439;-0.00217005;0.0707752;0.0708272;-0.019696;0.0452616;0.277554;3.6029;0.0549725;0.0603488;3.59602;0.278085;88.2704;133.27;-0.00586531;-0.0196417;-0.0051479;0.000556362;0.070765;0.0162572;0.0505225;0;0.0563241;9.6236;5.95381
566000;567;26.5713;0.803094;0.0311661;-1.96514;25.8727;5.72501;-0.145845;1.00116;-0.763229;0.00565877;-0.761274;-0.10602;0.768642;-11.6686;-0.00220452;4.19099e-05;0.00850195;0.00850212;-0.00220469;0.0053534;0.259296;3.8566;0.00652827;0.00713787;3.85638;0.25931;75.2188;120.219;-0.00117467;-0.00220613;-0.00172741;0.00179245;0.00850047;0.0080559;0.0144885;0;0.0415407;-0.133911;-1.76846;-0.851405;1.9673;-5.84262;-0.0199908;-0.00239637;0.0735789;0.0736402;-0.0200522;0.0468462;0.271693;3.68063;0.0569664;0.0624616;3.67243;0.272299;89.022;134.022;-0.00293317;-0.0199879;-0.0048567;-0.000150469;0.0735706;0.0145857;0.0487807;0;0.061927;9.70687;5.96859
567000;568;26.5841;0.815876;0.0316621;-1.96922;25.8844;5.73017;-0.149925;1.01283;-0.758064;0.0056744;-0.758866;-0.108452;0.766597;-11.671;-0.0022561;0.000272519;0.00840017;0.00840713;-0.00226307;0.0053351;0.268578;3.72331;0.00649195;0.00711347;3.71493;0.269184;73.7521;118.752;-0.00130537;-0.00225809;-0.00148587;0.00201233;0.00839911;0.00651423;0.0142753;0;0.0403873;-0.134888;-1.77636;-0.852161;1.97479;-5.84337;-0.0200612;-0.00273694;0.0743915;0.0744708;-0.0201404;0.0473056;0.26967;3.70823;0.0575477;0.0630741;3.69758;0.270447;89.0915;134.092;-0.00249151;-0.0200574;-0.00535933;-0.000345071;0.0743816;0.0150047;0.0497018;0;0.0564748;9.61557;5.97556
568000;569;26.586;0.817779;0.031736;-1.97015;25.8868;5.72786;-0.150857;1.01523;-0.760379;0.00507246;-0.758992;-0.104511;0.76617;-11.6671;-0.00238766;0.000346129;0.00816153;0.00817288;-0.002399;0.00528594;0.29255;3.41822;0.00639993;0.00704792;3.40678;0.293532;72.0019;117.002;-0.000119244;-0.00238994;-0.00149073;0.00216376;0.00816049;0.0029439;0.0133749;0;0.0476643;-0.136027;-1.77961;-0.850736;1.97718;-5.84195;-0.0203537;-0.00256417;0.0749863;0.0750552;-0.0204226;0.0477389;0.271432;3.68416;0.0580543;0.0636519;3.6751;0.272101;89.1365;134.137;-0.00296489;-0.0203504;-0.00503325;-0.000314053;0.0749776;0.014791;0.0502685;0;0.0577481;9.55756;5.9756
569000;570;26.5928;0.824573;0.0319996;-1.9708;25.8928;5.73168;-0.151505;1.02131;-0.756559;0.00598009;-0.76088;-0.10526;0.76815;-11.6679;-0.00233215;0.000190429;0.00806255;0.00806604;-0.00233564;0.00520084;0.289257;3.45713;0.00630187;0.00693445;3.45346;0.289565;72.6745;117.674;-0.000164132;-0.00233417;-0.00165444;0.00201627;0.00806121;0.00414731;0.0127065;0;0.0333469;-0.135837;-1.78603;-0.852032;1.98351;-5.84325;-0.0205072;-0.00233499;0.0751964;0.0752533;-0.0205641;0.0479087;0.272715;3.66683;0.0582464;0.0638783;3.65945;0.273265;89.0505;134.051;-0.003109;-0.0205044;-0.00474853;-0.000136266;0.0751884;0.0173475;0.0576097;0;0.0547339;9.65318;5.9833
570000;571;26.6012;0.832999;0.0323266;-1.97145;25.9026;5.72641;-0.152159;1.03108;-0.761826;0.0061259;-0.763549;-0.102961;0.770484;-11.6656;-0.00244695;-0.000181118;0.008951;0.00895388;-0.00244982;0.00570185;0.273371;3.65803;0.0069317;0.00760247;3.65491;0.273605;77.3976;122.398;-0.00111299;-0.00244802;-0.00185547;0.00147431;0.00894931;0.00718716;0.0139581;0;0.042603;-0.137002;-1.79999;-0.851839;1.99609;-5.84305;-0.0208497;-0.00220073;0.075059;0.0751094;-0.0209002;0.0480048;0.277777;3.60001;0.0583021;0.0640064;3.59373;0.278263;88.7717;133.772;-0.00581448;-0.0208472;-0.00479351;0.000160762;0.0750505;0.0184955;0.0575103;0;0.0645107;9.6899;5.99525
571000;572;26.6083;0.840143;0.0326039;-1.97184;25.9097;5.72723;-0.152544;1.03821;-0.761007;0.00595882;-0.761305;-0.105205;0.768563;-11.6678;-0.00243381;0.000107954;0.00824561;0.00824671;-0.0024349;0.0053408;0.295164;3.38795;0.00646415;0.00712107;3.38688;0.295257;73.4962;118.496;-0.00040714;-0.00243563;-0.00171316;0.00190978;0.00824416;0.00609103;0.0148863;0;0.0368845;-0.137943;-1.80337;-0.853273;1.99981;-5.84475;-0.0208453;-0.00254207;0.0759193;0.0759861;-0.020912;0.048449;0.274571;3.64204;0.0588792;0.0645987;3.63361;0.275208;88.8883;133.888;-0.00300513;-0.020842;-0.00525489;-7.3225e-05;0.0759095;0.0133234;0.0549858;0;0.0616169;9.61975;5.99852
572000;573;26.6115;0.843327;0.0327274;-1.97138;25.9142;5.72187;-0.152087;1.0427;-0.766362;0.00634741;-0.7608;-0.107809;0.768427;-11.6704;-0.00215847;0.00100194;0.00916453;0.0092525;-0.00224645;0.00574948;0.235525;4.24584;0.0070377;0.00766597;4.11873;0.242794;71.6525;116.652;0.000500213;-0.00216178;-0.000773668;0.00275762;0.00916473;0.00229945;0.012722;0;0.0349926;-0.137657;-1.80996;-0.856589;2.00715;-5.8478;-0.021074;-0.00258847;0.0763291;0.0763978;-0.0211427;0.0487703;0.276094;3.62196;0.0592505;0.065027;3.61343;0.276745;88.925;133.925;-0.00549473;-0.0210706;-0.00529099;-0.000130506;0.0763192;0.0182413;0.0509924;0;0.0614658;9.64518;6.00089
573000;574;26.6179;0.849721;0.0329756;-1.96667;25.9165;5.74311;-0.147374;1.04492;-0.745122;0.00641315;-0.76346;-0.107207;0.770977;-11.6698;-0.00208692;0.000319281;0.00907566;0.00908478;-0.00209605;0.00559042;0.229948;4.34882;0.00686274;0.00745389;4.33424;0.230721;75.491;120.491;-0.000202972;-0.00208888;-0.00138173;0.00200148;0.00907476;0.00539468;0.0135339;0;0.0333053;-0.139182;-1.82082;-0.858388;2.01782;-5.8496;-0.0210908;-0.00254664;0.0779747;0.0780401;-0.0211562;0.0495982;0.270483;3.69709;0.0603283;0.0661309;3.68875;0.271094;88.6255;133.625;-0.00264154;-0.0210875;-0.00560308;0.00022894;0.0779631;0.0122794;0.0468721;0;0.0667025;9.70283;6.01271
574000;575;26.631;0.862762;0.0334817;-1.97406;25.9333;5.72502;-0.154768;1.06176;-0.763217;0.00643935;-0.762518;-0.105094;0.769753;-11.6677;-0.00237709;0.000301408;0.00866547;0.00867369;-0.00238531;0.0055295;0.274317;3.64541;0.00672019;0.00737267;3.63629;0.275005;74.3481;119.348;-0.000787891;-0.00237901;-0.00139837;0.00198258;0.00866455;0.00560546;0.0135231;0;0.0343267;-0.139843;-1.82815;-0.856366;2.02363;-5.84758;-0.0211838;-0.002656;0.0789318;0.0790022;-0.0212542;0.0501282;0.268381;3.72605;0.0609999;0.0668376;3.71702;0.269033;88.7516;133.752;-0.00251914;-0.0211802;-0.00567471;8.26104e-05;0.0789201;0.0153755;0.0514675;0;0.0613882;9.65252;6.01846
575000;576;26.6305;0.862327;0.0334648;-1.97525;25.9359;5.71079;-0.155956;1.06435;-0.777445;0.00601715;-0.763869;-0.102391;0.770724;-11.665;-0.00208112;0.000191733;0.00887913;0.00888249;-0.00208448;0.00548348;0.234384;4.26651;0.00672504;0.00731131;4.26126;0.234673;75.1114;120.111;-0.000455621;-0.00208307;-0.00161509;0.00197893;0.00887786;0.00474412;0.0124007;0;0.0324103;-0.140506;-1.83523;-0.854306;2.0292;-5.84552;-0.0211075;-0.00268911;0.0796879;0.0797596;-0.0211792;0.0504694;0.264877;3.77534;0.0614614;0.0672925;3.76594;0.265538;88.9654;133.965;-0.00179354;-0.0211038;-0.00552484;-0.00011809;0.0796771;0.0140747;0.0516736;0;0.0575777;9.65475;6.01978
576000;577;26.6404;0.87217;0.0338468;-1.97718;25.9444;5.71754;-0.157892;1.07283;-0.770695;0.00666737;-0.766909;-0.100144;0.773448;-11.6627;-0.00255406;0.000394187;0.00919383;0.00920704;-0.00256727;0.00588716;0.277802;3.59969;0.00714913;0.00784954;3.58631;0.278838;73.7404;118.74;0.000453386;-0.00255642;-0.00143949;0.00220652;0.00919288;0.002013;0.0122168;0;0.0361092;-0.141344;-1.84396;-0.853018;2.03662;-5.84449;-0.0215885;-0.00270504;0.0810543;0.0811255;-0.0216598;0.0513926;0.266346;3.75451;0.0625661;0.0685235;3.74545;0.266991;89.2243;134.224;-0.00240487;-0.0215849;-0.00527361;-0.000380327;0.0810448;0.0181124;0.05819;0;0.0568476;9.71759;6.02852
577000;578;26.6491;0.880899;0.0341855;-1.97872;25.9536;5.71554;-0.159428;1.08211;-0.772692;0.0069802;-0.76797;-0.0985931;0.774305;-11.6612;-0.00226305;0.000267727;0.00840831;0.00841503;-0.00226976;0.00534239;0.269144;3.71548;0.00650007;0.00712319;3.70745;0.269727;74.0023;119.002;-0.000754294;-0.00226497;-0.00145931;0.00197648;0.00840729;0.00457456;0.0130611;0;0.0368987;-0.142215;-1.85484;-0.853325;2.04666;-5.84488;-0.0220179;-0.00252062;0.08152;0.0815813;-0.0220793;0.0518303;0.270093;3.70243;0.0630494;0.069107;3.69493;0.270641;88.6861;133.686;-0.00401585;-0.0220147;-0.00557127;0.000237999;0.0815085;0.0202878;0.0550078;0;0.0633432;9.69262;6.04162
578000;579;26.6561;0.887906;0.0344574;-1.97882;25.9608;5.71559;-0.159532;1.08929;-0.77265;0.00753664;-0.767064;-0.0995443;0.773533;-11.6621;-0.00257106;0.000374485;0.00936004;0.00937178;-0.0025828;0.00597729;0.274685;3.64054;0.00726351;0.00796972;3.62853;0.275593;74.3256;119.326;0.00062836;-0.00257332;-0.00142953;0.00215718;0.0093591;0.0014581;0.0105519;0;0.04375;-0.142421;-1.86243;-0.856312;2.0548;-5.84753;-0.0222677;-0.00243911;0.0819132;0.0819703;-0.0223247;0.0521475;0.271845;3.67857;0.0634122;0.06953;3.67173;0.272352;88.3407;133.341;-0.00338718;-0.0222648;-0.00583065;0.000625879;0.0819002;0.0199956;0.0518969;0;0.0646902;9.66523;6.04154
579000;580;26.6662;0.897991;0.0348488;-1.97908;25.9702;5.71985;-0.159789;1.09869;-0.768382;0.0076403;-0.768994;-0.0955494;0.774946;-11.6581;-0.00229227;0.000683417;0.00939042;0.00943026;-0.00233212;0.00588119;0.244108;4.09655;0.00719138;0.00784158;4.04365;0.247301;73.9141;118.914;0.0008556;-0.00229486;-0.00102589;0.00237294;0.00939013;0.000845826;0.0121754;0;0.0341367;-0.142877;-1.87026;-0.855131;2.06144;-5.84634;-0.0224121;-0.00274263;0.0826989;0.0827704;-0.0224836;0.052627;0.271008;3.68992;0.064005;0.0701693;3.68137;0.271638;88.7575;133.757;-0.00366939;-0.0224082;-0.00586968;8.08604e-05;0.0826865;0.0188694;0.0450959;0;0.0683861;9.6843;6.04937
580000;581;26.6712;0.902995;0.035043;-1.97403;25.9704;5.74397;-0.154738;1.09889;-0.744268;0.00767829;-0.770775;-0.0958419;0.776749;-11.6584;-0.0023776;0.000206245;0.00944361;0.00944721;-0.0023812;0.0059142;0.251768;3.9719;0.0072239;0.0078856;3.96742;0.252053;76.0486;121.049;-0.000325394;-0.00237943;-0.00152654;0.00191874;0.00944248;0.00447622;0.0125565;0;0.0340915;-0.143713;-1.88154;-0.852686;2.07073;-5.84396;-0.0226818;-0.00238793;0.0846409;0.084694;-0.0227349;0.0537145;0.267977;3.73166;0.0653723;0.0716193;3.72528;0.268436;88.1763;133.176;-0.00216518;-0.0226793;-0.00603619;0.000899365;0.0846268;0.0225824;0.0513579;0;0.0714145;9.72726;6.05751
581000;582;26.6795;0.911324;0.0353662;-1.98147;25.9851;5.7134;-0.162182;1.11361;-0.774835;0.00807039;-0.770301;-0.0946986;0.776142;-11.6573;-0.00232891;0.000604193;0.00879328;0.00882601;-0.00236163;0.00559382;0.264851;3.77571;0.00680913;0.00745843;3.73725;0.267576;72.8613;117.861;-0.000261079;-0.00233143;-0.00113592;0.00232512;0.00879282;0.0049386;0.0115744;0;0.0279926;-0.144286;-1.88912;-0.852767;2.0777;-5.84398;-0.0225409;-0.00254838;0.0851103;0.0851706;-0.0226012;0.0538859;0.264844;3.77581;0.0656246;0.0718479;3.76841;0.265364;88.6491;133.649;-0.00346355;-0.0225377;-0.00576522;0.000349349;0.085098;0.0191172;0.0519578;0;0.0651681;9.68035;6.064
582000;583;26.6807;0.912454;0.0354101;-1.98175;25.9888;5.70187;-0.162458;1.11729;-0.786366;0.00803641;-0.769739;-0.0964696;0.775802;-11.6591;-0.00236086;0.000282284;0.00874916;0.00875633;-0.00236802;0.00556217;0.269838;3.70593;0.00676645;0.00741623;3.69774;0.270436;74.4018;119.402;-0.000888172;-0.00236282;-0.00145253;0.00199799;0.00874815;0.00568779;0.0124858;0;0.0421615;-0.145168;-1.89383;-0.857404;2.08394;-5.84868;-0.0227424;-0.00253803;0.0864146;0.0864736;-0.0228014;0.0546375;0.263178;3.79972;0.0665642;0.07285;3.79247;0.26368;88.7584;133.758;-0.00187132;-0.0227391;-0.00565306;0.000264036;0.0864028;0.0175443;0.0418747;0;0.0621352;9.6814;6.07047
583000;584;26.693;0.924778;0.0358883;-1.9838;25.9993;5.71102;-0.164511;1.12777;-0.777213;0.00794053;-0.77264;-0.0947767;0.778471;-11.6574;-0.00251042;0.00020123;0.00948003;0.00948341;-0.0025138;0.0059986;0.264811;3.77628;0.00730581;0.00799814;3.77255;0.265073;75.5916;120.592;-0.000591726;-0.00251233;-0.00158384;0.00196509;0.00947881;0.00524443;0.0101154;0;0.033691;-0.146143;-1.90501;-0.856477;2.0938;-5.84769;-0.0228378;-0.0026307;0.087109;0.0871719;-0.0229007;0.0550363;0.262175;3.81425;0.0670644;0.0733818;3.80652;0.262707;89.1901;134.19;-0.00345957;-0.0228343;-0.0052942;-0.000236561;0.0870993;0.0214807;0.0552997;0;0.0610188;9.74232;6.0784
584000;585;26.7013;0.933143;0.036213;-1.98606;26.008;5.70953;-0.166763;1.13652;-0.778708;0.00785794;-0.77175;-0.09403;0.777497;-11.6566;-0.00253075;5.11068e-05;0.00861291;0.00861314;-0.00253099;0.00557206;0.293832;3.4033;0.00674592;0.00742942;3.40308;0.293852;75.1794;120.179;-0.000611535;-0.00253227;-0.00165803;0.00174136;0.00861155;0.00483818;0.0114675;0;0.0373613;-0.147117;-1.91376;-0.858873;2.1028;-5.85009;-0.0232147;-0.00265351;0.0883265;0.0883896;-0.0232778;0.0558337;0.262828;3.80477;0.0680265;0.074445;3.79717;0.263354;89.0805;134.08;-0.00463296;-0.0232111;-0.00548154;-0.000115301;0.088316;0.0199995;0.0537723;0;0.0661832;9.71074;6.08686
585000;586;26.708;0.939828;0.0364724;-1.98522;26.0151;5.70914;-0.165926;1.14353;-0.779095;0.00730242;-0.772765;-0.0919714;0.778253;-11.6546;-0.0025454;0.000228978;0.00896336;0.00896791;-0.00254995;0.00575893;0.283978;3.5214;0.00698549;0.00767858;3.51689;0.284342;74.8157;119.816;-0.000271609;-0.00254726;-0.00149987;0.00193811;0.00896227;0.00284384;0.0131;0;0.0288695;-0.148243;-1.92122;-0.857935;2.10929;-5.84915;-0.0233562;-0.0025322;0.0883819;0.0884393;-0.0234136;0.0559264;0.264265;3.78408;0.0681188;0.0745686;3.77726;0.264742;88.4766;133.477;-0.003993;-0.0233531;-0.00602853;0.000605205;0.0883682;0.0226505;0.0514277;0;0.0676659;9.68898;6.08954
586000;587;26.7128;0.944641;0.0366592;-1.97803;26.0145;5.73686;-0.158738;1.14292;-0.751375;0.00751239;-0.774023;-0.0923322;0.779547;-11.6549;-0.00255397;0.00030196;0.00919871;0.00920646;-0.00256172;0.00588409;0.277644;3.60173;0.00714627;0.00784546;3.59386;0.278252;74.7217;119.722;-0.000365829;-0.002556;-0.00145283;0.00203631;0.00919771;0.00395749;0.0111459;0;0.0298402;-0.149129;-1.929;-0.85748;2.11626;-5.84875;-0.0237853;-0.00246496;0.0889092;0.0889631;-0.0238392;0.0564012;0.267524;3.73799;0.068649;0.0752015;3.7318;0.267967;88.5493;133.549;-0.00192385;-0.0237824;-0.00582099;0.000543775;0.0888965;0.0275713;0.0491967;0;0.0744437;9.71505;6.09408
587000;588;26.7202;0.951951;0.0369429;-1.985;26.0306;5.6952;-0.165703;1.15905;-0.793033;0.00583327;-0.778167;-0.0858544;0.78291;-11.6484;-0.00258533;0.000714216;0.00868786;0.00873293;-0.0026304;0.00568167;0.29758;3.36044;0.00686874;0.00757556;3.32;0.301205;70.457;115.457;0.000221627;-0.00258849;-0.00120002;0.00260706;0.0086874;0.00309699;0.0123363;0;0.0411269;-0.151766;-1.94307;-0.850904;2.12664;-5.84218;-0.0241832;-0.00238595;0.0910504;0.0910998;-0.0242326;0.0576662;0.265603;3.76502;0.0702187;0.0768883;3.75939;0.266001;88.2292;133.229;-0.00095304;-0.0241808;-0.00616458;0.00099362;0.0910356;0.0223853;0.0450575;0;0.0736845;9.74553;6.10859
588000;589;26.7246;0.956431;0.0371167;-1.98596;26.0362;5.69027;-0.166669;1.16465;-0.797962;0.00722032;-0.776582;-0.0916915;0.78201;-11.6543;-0.00264586;0.000134359;0.00872118;0.00872277;-0.00264745;0.00568511;0.303384;3.29616;0.00686986;0.00758014;3.29478;0.30351;74.7437;119.744;-0.000138392;-0.00264752;-0.00157603;0.00182547;0.00871996;0.00400494;0.0105419;0;0.038152;-0.151173;-1.94845;-0.858306;2.13448;-5.84958;-0.0242468;-0.00236969;0.0910193;0.091068;-0.0242955;0.0576817;0.266392;3.75387;0.0702256;0.076909;3.74835;0.266784;88.332;133.332;-0.0017178;-0.0242443;-0.00599991;0.000877026;0.0910054;0.0224282;0.050769;0;0.0697981;9.69941;6.10875
589000;590;26.7339;0.965715;0.037477;-1.9902;26.0442;5.69573;-0.170911;1.17266;-0.792509;0.00754373;-0.776684;-0.0958427;0.782612;-11.6584;-0.00231855;0.000767788;0.00991208;0.00996009;-0.00236656;0.00616332;0.233912;4.27512;0.00755352;0.00821777;4.20868;0.237604;74.0242;119.024;0.000806535;-0.00232143;-0.00100431;0.00251842;0.00991187;0.000380301;0.0106687;0;0.0456982;-0.152132;-1.95509;-0.86059;2.14152;-5.85186;-0.0243546;-0.00240678;0.0920062;0.0920559;-0.0244044;0.0582302;0.264707;3.77777;0.0709192;0.0776402;3.7721;0.265104;88.5935;133.593;-0.00122276;-0.0243519;-0.00575708;0.000586543;0.0919936;0.0211807;0.0551893;0;0.0697558;9.708;6.11661
590000;591;26.7391;0.970933;0.0376795;-1.99139;26.0504;5.69147;-0.172092;1.17886;-0.796765;0.00752579;-0.779;-0.0928564;0.784551;-11.6554;-0.00249472;0.000527182;0.00963375;0.00965662;-0.0025176;0.00608711;0.258957;3.86165;0.00742069;0.00811614;3.83565;0.260712;74.2069;119.207;0.000438912;-0.00249727;-0.00127973;0.00231239;0.00963308;0.00212901;0.0110311;0;0.0268775;-0.152814;-1.96798;-0.864711;2.155;-5.85538;-0.024695;-0.00263539;0.0940729;0.0941314;-0.0247535;0.0594424;0.262509;3.80939;0.0724294;0.0792566;3.80276;0.262967;88.4565;133.457;-0.00276959;-0.0246917;-0.00637596;0.000699142;0.0940575;0.0267756;0.0468897;0;0.074592;9.75492;6.12503
591000;592;26.7476;0.979354;0.0380063;-1.9907;26.0591;5.69139;-0.171406;1.18757;-0.796846;0.00716162;-0.778063;-0.0902567;0.783313;-11.6528;-0.00246399;0.000519681;0.00925663;0.00927963;-0.00248698;0.0058833;0.266186;3.75677;0.00716084;0.00784441;3.73128;0.268005;74.8927;119.893;-0.000454857;-0.00246608;-0.00109003;0.00211069;0.00925617;0.00476764;0.00948232;0;0.0484568;-0.153678;-1.9737;-0.864456;2.16018;-5.85567;-0.0247996;-0.00298131;0.0945505;0.094625;-0.0248741;0.0597495;0.26229;3.81258;0.0728051;0.079666;3.80416;0.26287;89.2121;134.212;-0.00428502;-0.0247951;-0.00594284;-0.000342697;0.0945385;0.0223278;0.0639434;0;0.0705969;9.72812;6.13208
592000;593;26.7582;0.99001;0.0384198;-1.99152;26.069;5.69571;-0.172228;1.1975;-0.792525;0.00844084;-0.777851;-0.0936914;0.783518;-11.6563;-0.00247872;0.000100456;0.00840567;0.00840659;-0.00247965;0.00544312;0.294887;3.39113;0.00658837;0.00725749;3.39024;0.294965;73.8251;118.825;-0.000382225;-0.00248052;-0.00171696;0.00189825;0.00840421;0.00560563;0.0122995;0;0.0397153;-0.153694;-1.98051;-0.867018;2.16744;-5.85829;-0.025044;-0.00265898;0.0952058;0.0952646;-0.0251028;0.0601837;0.263052;3.80153;0.0733239;0.0802449;3.79498;0.263506;88.5579;133.558;-0.00344429;-0.0250406;-0.00630244;0.000584467;0.0951909;0.0283438;0.0577299;0;0.0719726;9.7105;6.13883
593000;594;26.7615;0.993296;0.0385473;-1.98925;26.0753;5.68331;-0.169953;1.20375;-0.804922;0.00716353;-0.779417;-0.0897873;0.784604;-11.6524;-0.0024214;0.000621214;0.00969326;0.00972504;-0.00245317;0.0060891;0.249802;4.00317;0.00743719;0.0081188;3.96427;0.252253;75.0731;120.073;0.000588333;-0.00242371;-0.00101376;0.00223657;0.00969295;0.00208313;0.0100941;0;0.0275251;-0.155219;-1.98779;-0.864864;2.17334;-5.85635;-0.025256;-0.0019551;0.0970036;0.0970349;-0.0252872;0.061161;0.260361;3.84082;0.0745623;0.081548;3.83731;0.260599;87.9946;132.995;-0.00299399;-0.0252554;-0.00598278;0.00162373;0.096989;0.0285687;0.0493708;0;0.0780757;9.73795;6.14658
594000;595;26.7722;1.00401;0.038963;-1.99233;26.0854;5.6862;-0.173034;1.21388;-0.802037;0.00683721;-0.779993;-0.0910097;0.785315;-11.6536;-0.00235;0.000588433;0.00939816;0.00942756;-0.0023794;0.00590348;0.250049;3.99922;0.00721025;0.0078713;3.96216;0.252387;72.9612;117.961;-0.000501659;-0.00235292;-0.00133249;0.00248699;0.00939745;0.00595368;0.0116615;0;0.0370562;-0.156897;-2.0006;-0.867756;2.18632;-5.85897;-0.025905;-0.00247829;0.0968662;0.0969163;-0.025955;0.0614356;0.267431;3.73928;0.0747793;0.0819142;3.73401;0.267809;88.7071;133.707;-0.00271365;-0.025902;-0.00581349;0.000483627;0.0968536;0.0171351;0.0465098;0;0.0813069;9.74053;6.1529
595000;596;26.7764;1.00823;0.0391271;-1.99323;26.0905;5.68227;-0.173936;1.21901;-0.80596;0.00753318;-0.779405;-0.090231;0.784647;-11.6528;-0.00244923;0.000602307;0.00915577;0.00918695;-0.00248041;0.00583368;0.267507;3.73822;0.00709741;0.00777824;3.7038;0.269993;72.6118;117.612;4.83359e-05;-0.00245205;-0.00126287;0.00244603;0.00915516;0.00346231;0.0103034;0;0.0307868;-0.157315;-2.00603;-0.867287;2.19114;-5.85856;-0.0261559;-0.00192374;0.0983407;0.0983704;-0.0261856;0.062278;0.265972;3.75979;0.0758311;0.0830373;3.75666;0.266194;87.906;132.906;-0.000785329;-0.0261555;-0.00606178;0.00174528;0.0983256;0.0210574;0.0466862;0;0.0765595;9.68477;6.15615
596000;597;26.7776;1.00937;0.0391712;-1.99375;26.0946;5.66873;-0.174459;1.22308;-0.819509;0.00718182;-0.779163;-0.0938234;0.784824;-11.6564;-0.0024461;0.000460502;0.00951077;0.00952848;-0.00246381;0.00599615;0.257193;3.88813;0.00731327;0.00799486;3.86737;0.258573;74.2054;119.205;0.00106222;-0.00244858;-0.00137177;0.00227107;0.00950994;0.000154358;0.00990728;0;0.035746;-0.158488;-2.01105;-0.869463;2.19668;-5.86095;-0.0263332;-0.00183019;0.0997559;0.0997825;-0.0263598;0.0630711;0.263976;3.78822;0.0768306;0.0840948;3.78541;0.264172;87.9685;132.968;-0.00235103;-0.0263331;-0.00587915;0.00175457;0.0997417;0.029415;0.0576956;0;0.0798616;9.73741;6.16077
597000;598;26.7852;1.01696;0.0394656;-1.99558;26.103;5.6655;-0.176287;1.23142;-0.822734;0.0085074;-0.782961;-0.0903398;0.788202;-11.6529;-0.00244016;0.000830627;0.00951513;0.00957257;-0.00249759;0.00603508;0.25645;3.89939;0.00735694;0.00804677;3.83272;0.260911;73.7946;118.795;0.000212117;-0.00244279;-0.000797436;0.00243941;0.00951516;0.00214051;0.00909963;0;0.0316195;-0.158518;-2.02964;-0.873625;2.21535;-5.86429;-0.0265202;-0.00299391;0.101472;0.101542;-0.0265902;0.0640661;0.261355;3.82621;0.0780821;0.0854214;3.81877;0.261865;88.6688;133.669;-0.00142886;-0.0265157;-0.00685351;0.000417239;0.101455;0.019144;0.0472238;0;0.0814108;9.78095;6.17551
598000;599;26.7958;1.02758;0.0398779;-1.99947;26.1134;5.66603;-0.18018;1.24192;-0.82221;0.00795135;-0.783079;-0.086475;0.78788;-11.6491;-0.00249866;0.00107379;0.00960408;0.00969861;-0.00259319;0.0061459;0.260166;3.8437;0.00748148;0.00819454;3.74003;0.267377;72.1659;117.166;0.00128835;-0.00250193;-0.000645905;0.00277287;0.00960445;-0.000423029;0.0110949;0;0.028577;-0.160287;-2.03844;-0.872286;2.22302;-5.86295;-0.0267752;-0.0034434;0.102971;0.103062;-0.0268665;0.0649645;0.260026;3.84576;0.0791976;0.0866193;3.83609;0.260682;88.9308;133.931;-0.000535269;-0.0267691;-0.00725097;-8.36845e-05;0.102953;0.0123747;0.043855;0;0.0867959;9.71506;6.18188
599000;600;26.8028;1.03456;0.0401486;-1.99715;26.1207;5.66629;-0.177861;1.24919;-0.821946;0.00838318;-0.784055;-0.0822207;0.788399;-11.6448;-0.00239082;0.00123614;0.00870338;0.00883944;-0.00252689;0.00568316;0.2747;3.64033;0.00689145;0.00757755;3.49816;0.285865;69.2372;114.237;0.00142525;-0.0023945;-0.000526801;0.00297969;0.008704;-0.000584068;0.00978996;0;0.0302822;-0.16069;-2.04133;-0.86776;2.22393;-5.85918;-0.0269852;-0.00222665;0.103663;0.103701;-0.0270231;0.0653622;0.260316;3.84149;0.0796842;0.0871496;3.8375;0.260586;88.3673;133.367;0.000284914;-0.0269834;-0.00609117;0.00118043;0.103649;0.0189714;0.0453215;0;0.0746774;9.70336;6.18198
600000;601;26.8117;1.04348;0.0404949;-1.99567;26.1286;5.6728;-0.176379;1.25705;-0.815435;0.00781034;-0.783697;-0.0873036;0.788583;-11.6499;-0.00223747;0.000661342;0.00956003;0.00959699;-0.00227442;0.00593571;0.234044;4.27271;0.00727562;0.00791428;4.21953;0.236993;74.0682;119.068;0.000725611;-0.00224014;-0.00109979;0.00240189;0.00955965;0.00248651;0.00807564;0;0.0377995;-0.161419;-2.05032;-0.87284;2.23421;-5.86411;-0.0272938;-0.00248498;0.10429;0.104337;-0.0273407;0.0658389;0.26171;3.82103;0.0802397;0.0877852;3.81619;0.262042;88.3077;133.308;-0.00479937;-0.0272913;-0.00661493;0.00115289;0.104273;0.0306155;0.0472737;0;0.081073;9.7416;6.18934
601000;602;26.8249;1.05671;0.0410083;-1.99869;26.1412;5.67636;-0.179395;1.26962;-0.811878;0.00718149;-0.783088;-0.0892437;0.78819;-11.6518;-0.00252593;0.000566897;0.00904979;0.00907749;-0.00255362;0.00581556;0.279114;3.58276;0.00705856;0.00775407;3.55475;0.281314;73.1657;118.166;4.07157e-05;-0.00252843;-0.00118951;0.00230315;0.00904925;0.00378075;0.00939733;0;0.0401786;-0.163342;-2.06017;-0.876426;2.24479;-5.86764;-0.0279299;-0.00216873;0.10538;0.105416;-0.0279652;0.0666905;0.265039;3.77303;0.0812199;0.0889206;3.76954;0.265285;88.2138;133.214;-0.000681121;-0.0279285;-0.00624287;0.00141409;0.105365;0.0185293;0.0453514;0;0.0798144;9.74123;6.19821
602000;603;26.8255;1.05728;0.0410305;-2.00039;26.1447;5.66209;-0.181094;1.27317;-0.826144;0.00802901;-0.783537;-0.0867929;0.78837;-11.6494;-0.00241631;0.000832517;0.00859711;0.00865968;-0.00247888;0.00556928;0.28106;3.55795;0.00675282;0.00742571;3.49338;0.286256;71.4815;116.482;-0.000212767;-0.0024191;-0.000856395;0.00250298;0.00859709;0.00377169;0.0113541;0;0.0532277;-0.163348;-2.06697;-0.875141;2.25054;-5.86636;-0.0283093;-0.0020455;0.106718;0.106749;-0.0283403;0.0675446;0.265272;3.76971;0.0822565;0.0900595;3.76668;0.265486;88.0209;133.021;-0.00273944;-0.0283088;-0.00637215;0.00175329;0.106702;0.0172657;0.0443237;0;0.0838073;9.71294;6.20428
603000;604;26.8245;1.0563;0.0409925;-2.00126;26.1462;5.65013;-0.181968;1.27469;-0.8381;0.00690832;-0.785892;-0.0827485;0.790266;-11.6453;-0.00260009;0.000709042;0.00943862;0.00948024;-0.0026417;0.00606097;0.275473;3.63012;0.00736048;0.00808129;3.58868;0.278654;73.9855;118.986;0.000245051;-0.00260254;-0.000923914;0.00232252;0.00943845;0.00207454;0.0119543;0;0.0362708;-0.164725;-2.07536;-0.871851;2.25708;-5.86313;-0.028854;-0.00176964;0.107998;0.108021;-0.0288769;0.0684489;0.267171;3.74292;0.0833246;0.0912652;3.74075;0.267326;87.6328;132.633;-0.000527351;-0.0288554;-0.00654617;0.00241695;0.10798;0.0220835;0.0569503;0;0.084069;9.72934;6.21139
604000;605;26.8334;1.06522;0.0413385;-2.00259;26.1552;5.6503;-0.183293;1.2837;-0.837936;0.00765556;-0.786714;-0.0814089;0.790952;-11.644;-0.00249394;0.000213654;0.00923763;0.00924152;-0.00249783;0.00586967;0.269976;3.70403;0.00714076;0.00782623;3.69982;0.270283;76.2613;121.261;-0.000637489;-0.00249556;-0.00140219;0.00181071;0.00923668;0.00500656;0.010783;0;0.0450759;-0.16534;-2.08418;-0.876788;2.26713;-5.868;-0.0286788;-0.00236474;0.107447;0.107488;-0.0287199;0.0681037;0.266912;3.74655;0.0829068;0.090805;3.74262;0.267193;88.3407;133.341;-0.000567945;-0.0286767;-0.00641802;0.00119036;0.10743;0.0158144;0.056914;0;0.079468;9.76406;6.21872
605000;606;26.8417;1.07354;0.0416615;-2.00261;26.1643;5.64781;-0.18332;1.29277;-0.840428;0.00757136;-0.785108;-0.0840187;0.789627;-11.6466;-0.00253295;0.000671648;0.00899236;0.00903137;-0.00257196;0.00580166;0.281678;3.55016;0.0070367;0.00773555;3.51148;0.28478;73.1511;118.151;0.000100467;-0.00253541;-0.000993042;0.00231732;0.0089921;0.00377396;0.0116095;0;0.0441966;-0.166404;-2.08963;-0.876906;2.27227;-5.86816;-0.0291705;-0.00295114;0.109641;0.109704;-0.0292332;0.0694686;0.266054;3.75863;0.0845815;0.0926248;3.75271;0.266474;89.0518;134.052;0.000799068;-0.029166;-0.006333;7.69615e-06;0.109627;0.0121423;0.0543523;0;0.0929253;9.73226;6.22628
606000;607;26.8522;1.084;0.0420673;-2.00508;26.1738;5.65264;-0.185788;1.30227;-0.835593;0.00791799;-0.786085;-0.0815098;0.790339;-11.6441;-0.00262562;0.000922278;0.0090633;0.00913563;-0.00269794;0.00591678;0.289697;3.45188;0.00716119;0.00788904;3.38615;0.29532;72.4674;117.467;2.88163e-05;-0.00262831;-0.000669361;0.00249548;0.0090635;0.0032839;0.0119424;0;0.0268049;-0.166999;-2.09945;-0.878326;2.28189;-5.86954;-0.0294487;-0.00255608;0.111112;0.111158;-0.0294952;0.0703267;0.265037;3.77306;0.0856472;0.0937689;3.76869;0.265344;88.5125;133.513;-0.00196007;-0.0294458;-0.00657211;0.00095193;0.111095;0.0152538;0.0508414;0;0.0877654;9.73258;6.23182
607000;608;26.8661;1.09788;0.0426061;-2.00532;26.1854;5.665;-0.186032;1.31382;-0.823234;0.00835993;-0.788988;-0.0785019;0.792928;-11.6411;-0.0027037;0.000822946;0.00904455;0.00910192;-0.00276107;0.00593149;0.298932;3.34525;0.00716781;0.00790866;3.29652;0.30335;72.5836;117.584;9.07073e-05;-0.00270631;-0.000797752;0.00242477;0.00904457;0.00274759;0.0111073;0;0.0244495;-0.168559;-2.11371;-0.876758;2.29453;-5.86798;-0.0290892;-0.0028324;0.112908;0.112964;-0.0291457;0.071055;0.257637;3.88142;0.0866739;0.0947399;3.87584;0.258008;87.8538;132.854;-0.00110558;-0.0290869;-0.00821146;0.00186041;0.112881;0.0236407;0.0380283;0;0.0929617;9.7627;6.24089
608000;609;26.874;1.10583;0.0429146;-2.006;26.1948;5.65902;-0.186706;1.32322;-0.829216;0.00795873;-0.78805;-0.0815609;0.7923;-11.6442;-0.00238271;0.00111311;0.00958482;0.00968747;-0.00248536;0.00608641;0.248592;4.02265;0.00742671;0.00811522;3.89781;0.256554;71.6906;116.691;0.00191184;-0.00238622;-0.000667211;0.00287232;0.00958521;-0.00223892;0.00823332;0;0.0311491;-0.170487;-2.12302;-0.881725;2.30515;-5.87239;-0.0300361;-0.00276533;0.116131;0.116184;-0.0300884;0.0731361;0.258639;3.86639;0.0891933;0.0975147;3.86141;0.258973;88.1536;133.154;0.000681488;-0.0300334;-0.00769741;0.0015209;0.116108;0.0189129;0.0544291;0;0.0974343;9.74004;6.24814
609000;610;26.875;1.10679;0.042952;-2.00701;26.1983;5.6469;-0.187718;1.32675;-0.841333;0.00872869;-0.788436;-0.0785481;0.792387;-11.6411;-0.00258209;0.000884884;0.00946903;0.00953366;-0.00264672;0.00609019;0.272688;3.66719;0.00739756;0.00812025;3.60207;0.277618;72.7557;117.756;0.000617615;-0.00258501;-0.000821308;0.0025707;0.00946908;0.00174876;0.00974129;0;0.0258701;-0.169627;-2.12849;-0.881518;2.31005;-5.87273;-0.0308175;-0.00191035;0.114392;0.114417;-0.0308427;0.07263;0.269403;3.71192;0.0883717;0.09684;3.70971;0.269563;87.5899;132.59;-0.000901466;-0.0308191;-0.00707522;0.00258156;0.114371;0.00985301;0.0447105;0;0.0883078;9.71481;6.24901
610000;611;26.8831;1.11488;0.0432659;-2.00978;26.2066;5.64575;-0.190491;1.33508;-0.842481;0.00882602;-0.789345;-0.0770104;0.793142;-11.6396;-0.00259811;0.00105864;0.00949872;0.00959067;-0.00269006;0.00614037;0.273522;3.65601;0.00745406;0.00818715;3.56523;0.280487;72.3071;117.307;0.000519557;-0.0026012;-0.000600223;0.00269763;0.0094991;0.00140594;0.0103503;0;0.0266092;-0.170253;-2.13592;-0.880607;2.31659;-5.87182;-0.0309114;-0.00198999;0.116381;0.116408;-0.0309383;0.0736731;0.265605;3.76498;0.0897142;0.0982308;3.76258;0.265775;87.8933;132.893;0.000178084;-0.0309119;-0.00680446;0.00218931;0.116362;0.0122566;0.0531018;0;0.0974183;9.73404;6.25463
611000;612;26.8852;1.11689;0.0433437;-2.01058;26.2122;5.62935;-0.191287;1.34067;-0.859139;0.00912956;-0.788721;-0.0813931;0.792962;-11.644;-0.00237839;0.000665043;0.0101124;0.0101477;-0.0024137;0.0062807;0.235195;4.25179;0.0076969;0.00837427;4.20422;0.237856;76.4352;121.435;0.000468032;-0.00238048;-0.000838823;0.00215031;0.0101123;0.00102936;0.00897695;0;0.0233341;-0.170631;-2.14522;-0.883104;2.32614;-5.87439;-0.0311689;-0.00206545;0.117536;0.117564;-0.0311976;0.0743809;0.265187;3.77092;0.0905842;0.0991745;3.76838;0.265366;87.8985;132.899;0.000628019;-0.0311692;-0.0069635;0.00218088;0.117516;0.0069985;0.0399236;0;0.103684;9.75688;6.26703
612000;613;26.8972;1.12893;0.043811;-2.01007;26.223;5.63656;-0.190775;1.35151;-0.851932;0.00909875;-0.789583;-0.0781255;0.793491;-11.6407;-0.00275678;0.000985061;0.0103218;0.0103956;-0.00283055;0.00661307;0.267083;3.74416;0.00804171;0.00881743;3.67263;0.272284;73.8096;118.81;0.00067366;-0.00275981;-0.000702215;0.00265049;0.010322;0.00174033;0.00808825;0;0.0295442;-0.17165;-2.15383;-0.885289;2.33499;-5.87658;-0.0315831;-0.0027712;0.120198;0.120248;-0.0316337;0.0759409;0.26276;3.80575;0.0925304;0.101255;3.80127;0.26307;88.6061;133.606;-0.000485604;-0.0315796;-0.00700856;0.000892055;0.120179;0.0135262;0.0489059;0;0.0988018;9.72218;6.2692
613000;614;26.9039;1.13572;0.0440745;-2.00977;26.2303;5.63501;-0.190478;1.35876;-0.853226;0.0088376;-0.790606;-0.0736442;0.794077;-11.6362;-0.0026322;0.000875145;0.00955694;0.00961945;-0.00269471;0.00615708;0.275423;3.63078;0.00747491;0.00820944;3.56975;0.280132;73.3157;118.316;0.000626902;-0.00263495;-0.000770111;0.00250053;0.00955702;0.00117198;0.0128265;0;0.0278945;-0.173813;-2.16141;-0.884739;2.34194;-5.87643;-0.0320188;-0.00254622;0.122484;0.122526;-0.0320607;0.0772931;0.261413;3.82537;0.094207;0.103058;3.82167;0.261666;87.407;132.407;0.00797978;-0.0320197;-0.00884879;0.00288893;0.122452;0.00930373;0.0480161;0;0.116954;9.72201;6.27658
614000;615;26.9146;1.14635;0.044487;-2.01027;26.2396;5.64227;-0.19098;1.36807;-0.845966;0.00870493;-0.7898;-0.0772445;0.793616;-11.6398;-0.00254369;0.000812051;0.00930878;0.00936416;-0.00259907;0.00598161;0.273257;3.65956;0.00726577;0.00797548;3.60289;0.277555;72.8494;117.849;-0.000513624;-0.00254648;-0.000890751;0.00249485;0.00930871;0.00447123;0.0110791;0;0.0263675;-0.173939;-2.17052;-0.889271;2.35206;-5.88049;-0.0332928;-0.00244153;0.123933;0.123971;-0.0333307;0.0786507;0.268635;3.72252;0.0957119;0.104868;3.71942;0.268859;88.1543;133.154;0.00195474;-0.0332913;-0.00732047;0.00175495;0.123912;0.0134362;0.0521389;0;0.0916637;9.75912;6.28393
615000;616;26.9234;1.15515;0.0448287;-2.01168;26.2485;5.64252;-0.192383;1.37694;-0.845712;0.00818717;-0.791331;-0.0728364;0.794718;-11.6354;-0.00246009;0.00111577;0.00956259;0.00966527;-0.00256276;0.00611401;0.257261;3.8871;0.00744625;0.00815202;3.77143;0.265151;72.2295;117.229;0.000759916;-0.00246331;-0.000558675;0.00277027;0.00956306;0.00160551;0.0113991;0;0.0287689;-0.175798;-2.18078;-0.886689;2.3607;-5.87796;-0.0337801;-0.00225964;0.124259;0.124291;-0.0338124;0.0790518;0.271853;3.67846;0.0961345;0.105402;3.6759;0.272042;87.6442;132.644;0.00469125;-0.033781;-0.00792084;0.0026058;0.124233;0.0179112;0.0527117;0;0.0996911;9.73787;6.29167
616000;617;26.9282;1.16001;0.0450172;-2.01471;26.2558;5.63048;-0.195421;1.38427;-0.857753;0.00924316;-0.787551;-0.0798687;0.791644;-11.6425;-0.00251989;0.000670729;0.0095469;0.00958407;-0.00255706;0.00607056;0.263948;3.78862;0.00739068;0.00809408;3.74809;0.266803;74.5307;119.531;-0.000373538;-0.00252226;-0.000953466;0.00227551;0.00954667;0.00335047;0.0118236;0;0.0291974;-0.175665;-2.19185;-0.89659;2.37465;-5.88694;-0.0336852;-0.00439628;0.124578;0.1247;-0.0338073;0.0792539;0.270394;3.69831;0.0963994;0.105672;3.68857;0.271108;89.0728;134.073;0.00872435;-0.0336754;-0.0088992;-0.000526997;0.124552;0.00134461;0.0581916;0;0.106496;9.71817;6.29838
617000;618;26.9298;1.16157;0.0450774;-2.01496;26.2603;5.61719;-0.19567;1.38876;-0.871302;0.0080987;-0.788843;-0.0782921;0.79276;-11.6409;-0.00268261;0.000775391;0.00988579;0.00993344;-0.00273026;0.00633185;0.27136;3.68514;0.00769556;0.00844247;3.63827;0.274856;74.5844;119.584;0.000623063;-0.0026851;-0.00082916;0.00235997;0.00988574;0.00228635;0.0102918;0;0.0444344;-0.177056;-2.19368;-0.892462;2.37489;-5.88375;-0.0340413;-0.00254528;0.126577;0.126617;-0.0340816;0.0803495;0.268937;3.71834;0.0977726;0.107133;3.71512;0.26917;88.1435;133.143;0.00509213;-0.0340396;-0.00759142;0.00178146;0.126554;0.0100591;0.0446683;0;0.111731;9.73766;6.30572
618000;619;26.9447;1.17642;0.0456539;-2.01369;26.2726;5.63152;-0.194399;1.40102;-0.856969;0.00847001;-0.793919;-0.0709517;0.797128;-11.6335;-0.00245387;0.00102123;0.00927115;0.00935943;-0.00254215;0.00595079;0.264678;3.77818;0.00723739;0.00793439;3.6817;0.271614;72.6181;117.618;5.84116e-06;-0.00245673;-0.00057497;0.00259888;0.0092715;0.00310882;0.00843343;0;0.0214919;-0.178475;-2.20382;-0.886584;2.38216;-5.87864;-0.0355502;-0.00303665;0.13001;0.130066;-0.0356059;0.0828359;0.273441;3.65709;0.1007;0.110448;3.65294;0.273752;88.0672;133.067;0.0054996;-0.0355469;-0.00861591;0.00172525;0.129982;0.0198283;0.0533331;0;0.119446;9.75078;6.31296
619000;620;26.9561;1.18786;0.046098;-2.01697;26.284;5.63146;-0.197673;1.41245;-0.856771;0.00878669;-0.794201;-0.0640261;0.796826;-11.6266;-0.00263328;0.00112621;0.00916337;0.00926992;-0.00273984;0.00600488;0.287371;3.47982;0.00726747;0.00800651;3.38338;0.295562;70.9617;115.962;-0.000277669;-0.00263659;-0.000572758;0.00280532;0.00916383;0.00465334;0.0101935;0;0.0281441;-0.179314;-2.21369;-0.883766;2.39032;-5.87605;-0.0355205;-0.00305426;0.132076;0.132132;-0.0355761;0.0838539;0.26894;3.71831;0.102035;0.111805;3.71405;0.269248;88.3963;133.396;0.00629605;-0.0355165;-0.00812032;0.00126187;0.132051;0.0177606;0.0584101;0;0.113044;9.71136;6.3204
620000;621;26.9633;1.19511;0.0463794;-2.01618;26.2909;5.63403;-0.196885;1.4194;-0.854208;0.00903938;-0.793867;-0.065974;0.796655;-11.6286;-0.00260424;0.000937065;0.00916028;0.00923445;-0.00267841;0.00595643;0.284297;3.51745;0.00721673;0.00794191;3.44773;0.290046;72.6774;117.677;0.000286366;-0.00260694;-0.00064805;0.0025037;0.0091605;0.00120385;0.0108504;0;0.0278872;-0.179034;-2.22356;-0.889792;2.40167;-5.88093;-0.0354751;-0.0026939;0.133463;0.133506;-0.035518;0.0845118;0.265805;3.76215;0.102907;0.112682;3.75881;0.266041;88.4275;133.427;0.0050356;-0.0354723;-0.00752562;0.00141771;0.133441;0.00759841;0.0622353;0;0.11552;9.71861;6.32144
621000;622;26.9756;1.20741;0.0468567;-2.01788;26.3019;5.64092;-0.198587;1.4304;-0.847313;0.00925616;-0.793801;-0.0662427;0.796614;-11.6288;-0.00255151;0.000651039;0.0105489;0.0105812;-0.00258379;0.00658249;0.241874;4.13438;0.00805474;0.00877666;4.09523;0.244187;76.5228;121.523;0.000299451;-0.00255374;-0.000923156;0.00220482;0.0105487;0.00307888;0.00850948;0;0.0329539;-0.17979;-2.23321;-0.891041;2.41112;-5.88217;-0.036245;-0.00240085;0.134675;0.134709;-0.0362787;0.0854939;0.269128;3.7157;0.104029;0.113992;3.71317;0.269311;88.1875;133.187;0.00769863;-0.036244;-0.00751769;0.00194527;0.134653;0.00840544;0.0629622;0;0.119669;9.75187;6.3351
622000;623;26.9798;1.21156;0.0470177;-2.02021;26.3094;5.62528;-0.200915;1.43783;-0.862955;0.00884091;-0.793676;-0.0663159;0.796491;-11.6289;-0.00241189;0.000942343;0.0096591;0.00973222;-0.00248502;0.00610862;0.249702;4.00478;0.00745583;0.00814483;3.91636;0.255339;73.275;118.275;0.00117262;-0.00241483;-0.000731471;0.00259614;0.00965927;0.000785298;0.00746742;0;0.0238777;-0.181529;-2.24607;-0.896648;2.42523;-5.8877;-0.0352294;-0.00298241;0.135838;0.13589;-0.0352814;0.0855856;0.259349;3.85581;0.104361;0.114114;3.8516;0.259632;88.1874;133.187;0.00985366;-0.0352265;-0.00860839;0.00179632;0.135809;0.0067139;0.050803;0;0.130631;9.71437;6.33965
623000;624;26.9817;1.21344;0.0470903;-2.02068;26.3129;5.61783;-0.201392;1.44137;-0.870664;0.00964018;-0.793498;-0.0673286;0.796407;-11.6299;-0.0025816;0.00100568;0.00971414;0.00979585;-0.00266331;0.00622958;0.265757;3.76284;0.00757603;0.00830611;3.67807;0.271882;73.9513;118.951;0.00123534;-0.00258423;-0.000509013;0.00250193;0.00971451;0.000185985;0.00898834;0;0.0292638;-0.180848;-2.24592;-0.89564;2.42467;-5.88757;-0.0368948;-0.00322509;0.136423;0.136483;-0.0369548;0.0867188;0.270444;3.69762;0.105487;0.115625;3.69324;0.270765;88.5067;133.507;0.00374797;-0.03689;-0.00829105;0.00106832;0.136397;0.00206486;0.056799;0;0.126172;9.70322;6.34339
624000;625;26.9873;1.21903;0.0473076;-2.02349;26.3208;5.60667;-0.2042;1.44928;-0.881818;0.00966558;-0.794833;-0.0647303;0.797523;-11.6273;-0.00267567;0.00120161;0.00978811;0.0099029;-0.00279046;0.00634668;0.273359;3.65819;0.00770246;0.00846224;3.54885;0.281782;71.8168;116.817;0.00199931;-0.00267913;-0.000508278;0.00289039;0.0097887;0.000125539;0.00640912;0;0.0295858;-0.1823;-2.25787;-0.894654;2.43549;-5.88632;-0.0364526;-0.00206791;0.139208;0.139233;-0.0364769;0.0878547;0.261856;3.81889;0.107072;0.11714;3.81701;0.261985;87.8998;132.9;0.00436302;-0.0364543;-0.00775564;0.00274285;0.139184;0.00593073;0.0616464;0;0.123967;9.72645;6.35097
625000;626;27.0047;1.2364;0.0479816;-2.02166;26.3349;5.62459;-0.202368;1.4634;-0.863896;0.0104535;-0.796577;-0.06049;0.798938;-11.6231;-0.00249012;0.000937853;0.0099596;0.0100299;-0.00256037;0.00629512;0.250022;3.99965;0.00768357;0.00839349;3.91734;0.255275;73.7345;118.735;0.000611384;-0.00249305;-0.00073923;0.00259426;0.00995977;0.0016852;0.007131;0;0.0324204;-0.182214;-2.27069;-0.895366;2.44764;-5.88675;-0.0370536;-0.00273984;0.143273;0.143315;-0.0370953;0.0902051;0.258622;3.86664;0.110013;0.120273;3.86343;0.258837;88.2517;133.252;0.00693447;-0.0370517;-0.00830665;0.00194899;0.143246;0.00246648;0.065527;0;0.117088;9.7228;6.35826
626000;627;27.014;1.24584;0.0483478;-2.02226;26.3434;5.6297;-0.202963;1.47188;-0.858538;0.00972772;-0.797146;-0.0586345;0.799359;-11.6212;-0.00262998;0.000433193;0.0100238;0.0100386;-0.00264479;0.0063417;0.262373;3.81136;0.0077264;0.00845561;3.79562;0.263462;76.4322;121.432;0.00067923;-0.00263192;-0.00116918;0.00201549;0.0100232;0.000505554;0.00824331;0;0.0345477;-0.184562;-2.27787;-0.895251;2.45443;-5.88628;-0.0397193;-0.00184292;0.143812;0.14383;-0.0397378;0.0917841;0.27619;3.6207;0.111518;0.122379;3.61948;0.276283;88.1805;133.18;0.00928568;-0.0397204;-0.00683189;0.00234557;0.143793;0.00561406;0.0674568;0;0.117143;9.689;6.36546
627000;628;27.0219;1.25366;0.0486514;-2.02368;26.3513;5.63001;-0.204383;1.47972;-0.858225;0.00919906;-0.796181;-0.0601696;0.798504;-11.6228;-0.0025303;0.000948536;0.00967617;0.00974944;-0.00260357;0.0061765;0.261499;3.82411;0.00751926;0.00823534;3.74464;0.267049;72.5087;117.509;0.00142907;-0.0025335;-0.000823331;0.00269898;0.00967628;0.00114301;0.010189;0;0.0365159;-0.185319;-2.28673;-0.900227;2.46453;-5.89102;-0.0391897;-0.00298062;0.1469;0.146948;-0.0392375;0.0930928;0.266778;3.74844;0.113332;0.124124;3.7451;0.267016;88.5551;133.555;0.0111198;-0.039186;-0.00808635;0.00129674;0.146876;0.00875344;0.0436958;0;0.136867;9.70312;6.37209
628000;629;27.0286;1.26036;0.0489115;-2.02525;26.3595;5.62289;-0.205957;1.48799;-0.865349;0.00931209;-0.798795;-0.0552529;0.800758;-11.6178;-0.00251643;0.0012587;0.00937714;0.00950889;-0.00264818;0.00607853;0.268358;3.72637;0.00738205;0.00810471;3.59073;0.278495;70.1229;115.123;0.000906692;-0.00252034;-0.000568011;0.00306388;0.00937776;0.00100022;0.0086849;0;0.0237977;-0.186745;-2.30445;-0.898198;2.48035;-5.88883;-0.0392095;-0.00377381;0.14556;0.145637;-0.0392865;0.0924619;0.26937;3.71237;0.112497;0.123283;3.70705;0.269756;88.77;133.77;0.00794063;-0.0392022;-0.00888897;0.000516377;0.145532;-0.00196039;0.0575664;0;0.141988;9.73696;6.37987
629000;630;27.0254;1.25715;0.0487869;-2.02678;26.3627;5.59219;-0.207484;1.49118;-0.896297;0.00971829;-0.798976;-0.0531954;0.800804;-11.6158;-0.00258867;0.00108278;0.0100128;0.0101051;-0.00268103;0.00639309;0.258536;3.86793;0.00778586;0.00852412;3.76913;0.265313;73.5041;118.504;0.00112673;-0.00259166;-0.000527852;0.00267332;0.0100132;-0.00112275;0.00771717;0;0.0508625;-0.186284;-2.30036;-0.893902;2.47495;-5.88572;-0.0428452;-0.00269923;0.148318;0.148356;-0.0428833;0.0956198;0.288874;3.46172;0.115875;0.127493;3.45953;0.289057;88.3323;133.332;0.0132567;-0.0428429;-0.00794829;0.00167606;0.148294;-0.00155984;0.0603857;0;0.141693;9.68864;6.38629
630000;631;27.0298;1.26156;0.0489581;-2.02975;26.3693;5.58128;-0.210459;1.49779;-0.907215;0.009641;-0.798401;-0.0534955;0.800249;-11.6161;-0.002618;0.00095493;0.0105998;0.0106684;-0.00268663;0.00667753;0.246986;4.04881;0.00815667;0.00890337;3.97093;0.25183;74.2826;119.283;0.000738442;-0.0026211;-0.000775411;0.00266264;0.0105999;0.000179585;0.00929377;0;0.0301878;-0.185872;-2.31492;-0.901954;2.49137;-5.89241;-0.0404671;-0.00119052;0.154522;0.15453;-0.0404744;0.0975021;0.261885;3.81847;0.118832;0.130003;3.81796;0.26192;88.2591;133.259;0.00494704;-0.0404705;-0.0060048;0.00281068;0.154507;0.00045274;0.0578379;0;0.149133;9.67437;6.39245
631000;632;27.0365;1.26823;0.0492167;-2.03112;26.3766;5.57879;-0.211828;1.50504;-0.909702;0.0102074;-0.798299;-0.0533255;0.800143;-11.6159;-0.00275988;0.00120283;0.0100114;0.0101237;-0.00287218;0.00649793;0.275674;3.62747;0.0078829;0.0086639;3.52474;0.283709;72.7452;117.745;-0.000182474;-0.00276309;-0.000416117;0.00280131;0.010012;0.00141118;0.00853644;0;0.0362821;-0.188679;-2.31634;-0.901332;2.49267;-5.89274;-0.0414095;-0.00190038;0.154802;0.15482;-0.0414279;0.0981241;0.2675;3.73831;0.119442;0.130832;3.7371;0.267587;88.1799;133.18;0.0137169;-0.0414112;-0.00734177;0.00261651;0.15478;-0.00194602;0.0641547;0;0.132887;9.69888;6.39546
632000;633;27.0581;1.28986;0.0500564;-2.02866;26.393;5.60642;-0.209368;1.52149;-0.881816;0.0104065;-0.798366;-0.0549006;0.800319;-11.6175;-0.00266784;0.00080466;0.0100035;0.0100544;-0.00271873;0.00638655;0.266691;3.74965;0.00776936;0.00851539;3.69818;0.270403;74.0634;119.063;0.00135798;-0.0026706;-0.00089479;0.00248279;0.0100034;0.000110879;0.00985625;0;0.0347688;-0.190391;-2.33633;-0.907367;2.51356;-5.89872;-0.0406385;-0.000875395;0.155717;0.155721;-0.0406424;0.0981816;0.260977;3.83176;0.119684;0.130909;3.83149;0.260995;87.1626;132.163;0.00235331;-0.0406517;-0.00808506;0.00510938;0.155689;-0.0220156;0.0799476;0;0.135154;9.69212;6.40738
633000;634;27.0682;1.29997;0.0504487;-2.03036;26.4028;5.60839;-0.211066;1.5313;-0.879841;0.0107034;-0.797615;-0.054127;0.799521;-11.6167;-0.00275191;0.0003808;0.0108927;0.0109034;-0.00276253;0.00683294;0.252637;3.95824;0.00834361;0.00911059;3.94687;0.253365;76.2646;121.265;0.00105283;-0.00275429;-0.00147578;0.00221232;0.0108917;0.00116488;0.00909335;0;0.0332062;-0.189049;-2.34601;-0.911386;2.52391;-5.90125;-0.0429834;4.85396e-05;0.159495;0.159495;-0.0429834;0.101239;0.269497;3.71062;0.123184;0.134986;3.71062;0.269497;87.6539;132.654;-0.00552878;-0.0429945;-0.00546413;0.00459855;0.159482;-0.00242564;0.055342;0;0.144105;9.66759;6.40901
634000;635;27.0747;1.30647;0.0507008;-2.0317;26.4103;5.60457;-0.212411;1.53874;-0.883921;0.0101012;-0.797239;-0.0539449;0.799126;-11.6165;-0.00263819;0.00059981;0.010488;0.0105153;-0.00266554;0.00659044;0.251544;3.97545;0.00804727;0.00878726;3.94492;0.253491;76.2595;121.26;0.00109571;-0.00264044;-0.00102402;0.00220255;0.0104876;0.000893946;0.00794693;0;0.0453521;-0.190473;-2.36081;-0.916038;2.53946;-5.90578;-0.0415032;-0.00196794;0.159524;0.159543;-0.0415225;0.100533;0.260169;3.84366;0.12257;0.134044;3.84234;0.260258;87.7786;132.779;0.00203287;-0.0415078;-0.00863605;0.00354417;0.159494;-0.0130935;0.0494125;0;0.15907;9.67854;6.41584
635000;636;27.0768;1.30852;0.0507804;-2.03527;26.4167;5.58281;-0.215978;1.54517;-0.905681;0.0103863;-0.796811;-0.0569366;0.79891;-11.6195;-0.00266747;0.000819496;0.0105731;0.0106236;-0.002718;0.0066708;0.252289;3.96371;0.00814107;0.0088944;3.90861;0.255845;75.4035;120.404;0.00154318;-0.00267008;-0.000806033;0.00242373;0.0105731;-0.000193785;0.00962619;0;0.0359772;-0.189045;-2.37063;-0.918177;2.54925;-5.90756;-0.0437446;-0.00277162;0.16309;0.163127;-0.0437817;0.103455;0.268223;3.72824;0.125909;0.137939;3.72593;0.268389;89.0136;134.014;0.0045851;-0.0437408;-0.0070267;0.000726799;0.163072;0.017385;0.0653089;0;0.157982;9.69127;6.42564
636000;637;27.0796;1.31133;0.0508894;-2.03979;26.4247;5.55694;-0.220493;1.55316;-0.931549;0.0104859;-0.795939;-0.0545061;0.797872;-11.6171;-0.00260444;0.00099483;0.0107028;0.0107768;-0.0026784;0.00672759;0.243341;4.10946;0.00822401;0.00897012;4.02359;0.248534;74.565;119.565;0.000633738;-0.00260748;-0.000689747;0.00265722;0.0107031;0.000209853;0.00820825;0;0.0411597;-0.192855;-2.37872;-0.915856;2.55623;-5.90631;-0.0431773;-0.00385326;0.1654;0.165471;-0.0432484;0.10436;0.261048;3.83072;0.127205;0.139146;3.82606;0.261366;88.1867;133.187;0.00504032;-0.0431717;-0.0110176;0.00202896;0.165354;-0.00968359;0.0668287;0;0.139177;9.65267;6.4304
637000;638;27.0891;1.32086;0.051259;-2.03967;26.4333;5.56235;-0.22038;1.56179;-0.926137;0.0106575;-0.796446;-0.0527687;0.798263;-11.6154;-0.00269789;0.000433584;0.0105024;0.0105166;-0.00271212;0.00661435;0.256884;3.8928;0.00806849;0.00881914;3.87763;0.25789;75.8418;120.842;0.000243272;-0.00270025;-0.00136899;0.0022126;0.0105015;0.00228301;0.00834593;0;0.0326455;-0.194348;-2.38719;-0.919824;2.56564;-5.91035;-0.0426502;-0.00360786;0.167257;0.167319;-0.0427122;0.105016;0.254998;3.9216;0.128178;0.140021;3.91736;0.255274;88.514;133.514;0.00105819;-0.0426447;-0.00989609;0.00154966;0.167221;-0.0131914;0.0568767;0;0.145242;9.64604;6.43815
638000;639;27.0972;1.3289;0.0515711;-2.03992;26.4412;5.5638;-0.220626;1.5697;-0.924691;0.0103366;-0.795074;-0.0586409;0.797301;-11.6212;-0.00248188;0.000909435;0.0103082;0.0103726;-0.00254622;0.0064594;0.240766;4.15341;0.00790175;0.00861253;4.07372;0.245476;74.4169;119.417;0.000517858;-0.00248478;-0.000775234;0.00257278;0.0103084;0.001564;0.00873047;0;0.032203;-0.194753;-2.38775;-0.926289;2.56852;-5.91746;-0.0448516;-0.00254094;0.168463;0.168494;-0.0448818;0.106688;0.266239;3.75602;0.129901;0.14225;3.75416;0.266371;88.3609;133.361;-0.00821999;-0.0448509;-0.00840698;0.00225425;0.168436;0.011588;0.0613972;0;0.144589;9.67014;6.44519
639000;640;27.1049;1.33663;0.051871;-2.0398;26.4505;5.55761;-0.220511;1.57893;-0.93088;0.0106241;-0.797444;-0.050526;0.799114;-11.6131;-0.00285452;0.000949828;0.0100267;0.0100964;-0.00292418;0.00651027;0.284692;3.51257;0.00788842;0.00868037;3.45271;0.289627;74.0541;119.054;0.000271697;-0.00285722;-0.000625807;0.00250537;0.010027;0.00232818;0.00802835;0;0.0241962;-0.196951;-2.40408;-0.924799;2.58334;-5.91573;-0.0439076;-0.00360983;0.170558;0.170619;-0.0439683;0.107294;0.257434;3.88449;0.130887;0.143058;3.8805;0.257699;88.642;133.642;0.0160884;-0.0439016;-0.00963252;0.00130948;0.170524;-0.0116635;0.0478599;0;0.145872;9.64608;6.45277
640000;641;27.1202;1.35195;0.0524657;-2.04006;26.4634;5.57083;-0.220768;1.59184;-0.917665;0.010863;-0.798622;-0.049006;0.800198;-11.6116;-0.00270214;0.00075664;0.0103256;0.0103694;-0.00274594;0.00655768;0.261693;3.82128;0.00798718;0.00874357;3.77628;0.264811;74.4153;119.415;0.000587397;-0.00270497;-0.00100266;0.00249326;0.0103254;0.00177538;0.00877766;0;0.0317679;-0.195196;-2.41067;-0.92507;2.58944;-5.91536;-0.0484687;-0.00279607;0.174644;0.174679;-0.0485037;0.111591;0.277529;3.60323;0.135545;0.148788;3.60135;0.277674;89.2438;134.244;-0.00518432;-0.0484646;-0.0066128;0.000295741;0.174628;0.0226312;0.057689;0;0.159783;9.62631;6.46007
641000;642;27.1213;1.35307;0.0525093;-2.04128;26.468;5.55386;-0.221986;1.59646;-0.934627;0.0105058;-0.798104;-0.0494865;0.799706;-11.6121;-0.00257058;0.000891448;0.0110204;0.0110786;-0.0026288;0.00685371;0.233256;4.28713;0.00840026;0.00913828;4.21433;0.237286;75.4012;120.401;0.00130372;-0.00257349;-0.000811023;0.00257103;0.0110205;0.000589321;0.0083159;0;0.0330871;-0.195711;-2.4238;-0.927714;2.60265;-5.91758;-0.0486436;-0.00393961;0.177592;0.177661;-0.0487121;0.113186;0.273906;3.65088;0.137583;0.150915;3.64715;0.274186;90.0454;135.045;-0.0159098;-0.0486373;-0.00646353;-0.00190056;0.177581;0.0332238;0.0308906;0;0.16864;9.64072;6.4633
642000;643;27.1295;1.36124;0.0528261;-2.04596;26.4795;5.53693;-0.226666;1.60801;-0.951564;0.0104937;-0.798211;-0.0490994;0.799789;-11.6117;-0.0028324;0.000719535;0.0105064;0.0105451;-0.0028711;0.00670812;0.269587;3.70938;0.00815732;0.00894416;3.67286;0.272267;75.0527;120.053;0.000710802;-0.00283503;-0.000986126;0.00240268;0.0105062;0.000988699;0.00783118;0;0.0305159;-0.199782;-2.44016;-0.930724;2.61926;-5.92083;-0.0454678;-0.00466608;0.176347;0.176445;-0.0455659;0.111005;0.257832;3.87849;0.135399;0.148007;3.8723;0.258245;88.8339;133.834;0.0110078;-0.0454565;-0.0110523;0.000516058;0.176304;-0.00308759;0.0369293;0;0.148493;9.65229;6.47476
643000;644;27.1377;1.36946;0.0531454;-2.04468;26.4866;5.54388;-0.225384;1.61509;-0.944612;0.0105477;-0.798334;-0.0446188;0.799649;-11.6072;-0.00281785;0.000721995;0.0107908;0.0108289;-0.00285605;0.0068425;0.261136;3.82943;0.00833603;0.00912333;3.79158;0.263742;75.8962;120.896;-0.000368648;-0.00282034;-0.000918901;0.0023408;0.0107906;0.00311997;0.00872872;0;0.0317364;-0.197412;-2.45306;-0.930974;2.63119;-5.91977;-0.047392;-0.00408746;0.178688;0.178762;-0.0474659;0.113114;0.265222;3.77043;0.13775;0.150819;3.76611;0.265526;89.4304;134.43;0.0116674;-0.0473834;-0.00842768;-0.000579679;0.178665;-0.00618687;0.0217197;0;0.184389;9.61538;6.47965
644000;645;27.1481;1.37988;0.0535498;-2.04359;26.4967;5.5469;-0.224302;1.62521;-0.94159;0.0111959;-0.797257;-0.0471148;0.798727;-11.6097;-0.00265639;0.000664057;0.0117147;0.0117453;-0.002687;0.00721615;0.226757;4.41001;0.0088627;0.00962154;4.37115;0.228773;77.5241;122.524;0.000419159;-0.00265877;-0.000974534;0.00227937;0.0117144;0.00221898;0.00769241;0;0.0350826;-0.20099;-2.45152;-0.932322;2.63051;-5.92269;-0.0486861;-0.00280971;0.181002;0.181036;-0.0487205;0.114878;0.268982;3.71773;0.13979;0.153171;3.71581;0.26912;88.2949;133.295;0.00930501;-0.0486853;-0.00938835;0.00248955;0.180968;0.000766224;0.0495843;0;0.170056;9.61215;6.48181
645000;646;27.161;1.39276;0.0540496;-2.04717;26.5099;5.54586;-0.227882;1.63835;-0.942628;0.0108217;-0.798385;-0.0453166;0.799743;-11.6079;-0.00251653;0.000841166;0.0103222;0.0103771;-0.00257141;0.00647425;0.243798;4.10176;0.00791566;0.00863233;4.03556;0.247797;73.6508;118.651;0.00202493;-0.00251977;-0.00101793;0.00267663;0.010322;-0.000148197;0.00883298;0;0.0309656;-0.202463;-2.46374;-0.93529;2.64307;-5.92471;-0.0477989;-0.00288254;0.18696;0.186995;-0.0478342;0.117415;0.255664;3.91139;0.143295;0.156553;3.90923;0.255805;88.5012;133.501;0.00862087;-0.0477971;-0.00924501;0.00222163;0.186927;0.00103553;0.0529931;0;0.160392;9.63229;6.49397
646000;647;27.1636;1.39535;0.0541499;-2.05051;26.5159;5.52861;-0.231219;1.64434;-0.959876;0.0109259;-0.797408;-0.0465336;0.79884;-11.6091;-0.00256724;0.00065091;0.0106304;0.0106624;-0.00259926;0.00663086;0.241499;4.1408;0.00811469;0.00884114;4.1021;0.243778;76.0049;121.005;0.000664159;-0.00256969;-0.00102543;0.00230535;0.0106301;0.00169714;0.00889303;0;0.0351858;-0.202155;-2.48219;-0.941765;2.66253;-5.93037;-0.0504809;-0.00402673;0.192166;0.192233;-0.0505477;0.12139;0.262694;3.80671;0.147912;0.161854;3.803;0.262951;88.7634;133.763;-0.00998141;-0.050473;-0.0104882;0.00111973;0.192127;0.00621278;0.0393691;0;0.156908;9.58305;6.49637
647000;648;;;;;;;;;;0.011196;-0.797502;-0.0448859;0.798842;-11.6075;-0.00243368;0.000756561;0.0104282;0.0104725;-0.00247803;0.00647527;0.233375;4.28494;0.00793768;0.00863369;4.22615;0.236622;76.1102;121.11;-0.00011556;-0.00243603;-0.000799954;0.00229326;0.0104281;0.00296265;0.00623303;0;0.0346234;-0.20561;-2.48346;-0.934796;2.66152;-5.92478;-0.0494311;-0.00317513;0.19308;0.193121;-0.0494726;0.121297;0.256014;3.90604;0.14802;0.161729;3.9036;0.256174;87.872;132.872;0.0176373;-0.049433;-0.011816;0.00370951;0.193026;-0.00637046;0.0134513;0;0.156352;9.57176;6.50361
648000;649;;;;;;;;;;0.010851;-0.798235;-0.0431526;0.799474;-11.6057;-0.00254199;0.0009492;0.0112723;0.0113372;-0.0026069;0.00697206;0.225508;4.43444;0.00856046;0.00929608;4.34892;0.229942;75.7458;120.746;0.000400329;-0.00254491;-0.000717925;0.00259355;0.0112725;0.00163354;0.0066768;0;0.035057;-0.205189;-2.48778;-0.940017;2.66736;-5.93008;-0.0530351;-0.0038393;0.195575;0.195634;-0.0530944;0.124364;0.271176;3.68764;0.15126;0.165819;3.68464;0.271397;88.4451;133.445;0.0120101;-0.0530293;-0.0111144;0.0019231;0.195529;-0.0414695;0.0291418;0;0.160491;9.58889;6.51136
649000;650;;;;;;;;;;0.0113678;-0.797168;-0.0437544;0.798449;-11.6063;-0.00254916;0.000998474;0.0113984;0.0114695;-0.00262028;0.00704488;0.223643;4.47142;0.00865302;0.00939318;4.3772;0.228457;75.6764;120.676;0.000266433;-0.00255218;-0.000675125;0.00264899;0.0113986;0.00243185;0.00655213;0;0.0283109;-0.201711;-2.5115;-0.94347;2.69044;-5.93249;-0.052863;-0.00379372;0.197995;0.198053;-0.0529204;0.125487;0.266991;3.74544;0.152762;0.167315;3.74247;0.267204;89.1133;134.113;-0.00458634;-0.0528555;-0.00912054;0.000417737;0.197967;0.0225721;0.020747;0;0.183777;9.59031;6.51896
650000;651;;;;;;;;;;0.0109586;-0.796899;-0.039834;0.797969;-11.6024;-0.00279582;0.00129024;0.010666;0.0107885;-0.00291837;0.00685345;0.262125;3.81497;0.00833718;0.00913794;3.69677;0.270507;74.0139;119.014;0.0008644;-0.00279894;-0.000246499;0.0028065;0.0106668;3.45541e-06;0.00795493;0;0.0317711;-0.205103;-2.51711;-0.945049;2.69648;-5.93453;-0.0505546;-0.00383966;0.204664;0.204722;-0.0506123;0.127667;0.247012;4.04838;0.156111;0.170223;4.0449;0.247225;89.2857;134.286;-0.0136457;-0.0505468;-0.00895206;0.000189693;0.204637;-0.00980775;-0.00292571;0;0.188823;9.54098;6.52658
651000;652;;;;;;;;;;0.0103678;-0.797751;-0.0377652;0.798712;-11.6004;-0.00253214;0.000764526;0.0105189;0.0105635;-0.00257677;0.00657013;0.240724;4.15414;0.00804009;0.00876018;4.0995;0.243932;74.1968;119.197;0.000650139;-0.00253528;-0.00111151;0.00261633;0.0105185;0.00069742;0.00855638;0;0.0341087;-0.205136;-2.52527;-0.942907;2.70336;-5.93214;-0.0537425;-0.00241176;0.207232;0.207255;-0.0537648;0.13051;0.259334;3.85603;0.159148;0.174013;3.85484;0.259414;89.0745;134.075;-0.0363552;-0.0537403;-0.00712144;0.00127984;0.207214;0.0170629;0.0162341;0;0.176776;9.54594;6.53337
652000;653;;;;;;;;;;0.0111002;-0.798311;-0.037714;0.799279;-11.6003;-0.00269648;0.000620321;0.0107044;0.0107331;-0.00272513;0.0067291;0.251904;3.96977;0.00821581;0.00897213;3.93854;0.253901;75.3028;120.303;0.000305215;-0.00269919;-0.00119106;0.00240768;0.0107039;0.00210548;0.00987459;0;0.0407733;-0.206547;-2.53279;-0.944831;2.71116;-5.93525;-0.0541915;-0.00137454;0.209779;0.209786;-0.0541986;0.131992;0.258326;3.87107;0.160994;0.17599;3.87069;0.258352;89.075;134.075;-0.0463015;-0.0541921;-0.00539609;0.00176953;0.209768;0.0334797;0.0324151;0;0.156744;9.56798;6.5409
653000;654;;;;;;;;;;0.0112308;-0.796534;-0.0378742;0.797513;-11.6005;-0.00286925;0.000554313;0.0102773;0.0103006;-0.00289259;0.00659659;0.279185;3.58186;0.00800735;0.00879546;3.56104;0.280817;74.8715;119.872;0.00032209;-0.00287178;-0.00122624;0.00231169;0.0102767;0.00257361;0.00845456;0;0.034541;-0.205436;-2.54834;-0.950593;2.72761;-5.9397;-0.057813;0.0014313;0.211752;0.211759;-0.0578206;0.13479;0.273023;3.6627;0.163882;0.17972;3.66235;0.273049;88.0746;133.075;-0.0130627;-0.0578282;-0.00385308;0.0055401;0.211746;0.0266356;0.0392926;0;0.172747;9.52241;6.54782
654000;655;;;;;;;;;;0.0112572;-0.796381;-0.0383486;0.797383;-11.6009;-0.00277136;0.000793435;0.0116316;0.0116752;-0.00281494;0.00724507;0.238261;4.19708;0.00887191;0.00966009;4.14758;0.241104;77.1033;122.103;0.000460784;-0.00277384;-0.000794581;0.00235884;0.0116316;0.00236226;0.005281;0;0.0276896;-0.20523;-2.55595;-0.94954;2.73435;-5.93801;-0.057657;-0.000330225;0.21676;0.21676;-0.0576574;0.137209;0.265995;3.75947;0.167076;0.182945;3.75945;0.265996;89.1387;134.139;-0.0119276;-0.0576593;-0.00347443;0.00210487;0.216755;0.0185115;0.0328531;0;0.181191;9.50165;6.54841
655000;656;;;;;;;;;;0.0115766;-0.797143;-0.037493;0.798108;-11.6001;-0.00277615;0.000721158;0.0111652;0.0112024;-0.00281336;0.00700788;0.248643;4.02183;0.00856155;0.00934384;3.98187;0.251138;76.2521;121.252;0.000472953;-0.00277872;-0.000957739;0.00237691;0.011165;0.00103877;0.00665231;0;0.0293029;-0.210311;-2.5546;-0.947242;2.73267;-5.93675;-0.0578606;4.07731e-05;0.218784;0.218784;-0.0578606;0.138322;0.264464;3.78123;0.168488;0.18443;3.78123;0.264465;88.1593;133.159;0.0143796;-0.0578733;-0.00624093;0.00489663;0.218768;-0.0331223;0.00456921;0;0.174551;9.52357;6.55593
656000;657;;;;;;;;;;0.0115514;-0.795315;-0.0368153;0.79625;-11.5994;-0.00271353;0.000910714;0.011078;0.0111378;-0.00277341;0.00695562;0.244949;4.08249;0.00850184;0.00927417;4.01594;0.249008;75.8078;120.808;0.00126974;-0.00271625;-0.000701202;0.00250064;0.0110781;-0.000599076;0.0083092;0;0.0319963;-0.213008;-2.58005;-0.949945;2.75761;-5.94083;-0.059386;-0.00109807;0.22323;0.223235;-0.0593902;0.141312;0.26603;3.75897;0.172071;0.188417;3.75878;0.266044;88.5006;133.501;-0.00792353;-0.059392;-0.00712962;0.00353997;0.22321;-0.0173856;-0.00434663;0;0.185119;9.48137;6.57043
657000;658;;;;;;;;;;0.0118584;-0.793359;-0.037897;0.794352;-11.6005;-0.00289313;0.00042806;0.0109569;0.0109701;-0.00290635;0.00693821;0.264048;3.78719;0.00845043;0.00925095;3.77452;0.264935;77.5737;122.574;9.20327e-05;-0.00289504;-0.00116287;0.0019972;0.0109563;0.00235924;0.00649932;0;0.0362199;-0.21521;-2.58194;-0.955145;2.76134;-5.94578;-0.0599203;-0.000709062;0.229471;0.229473;-0.059922;0.144698;0.261123;3.82961;0.176382;0.19293;3.82953;0.261129;87.221;132.221;0.0244245;-0.0599495;-0.0113724;0.0074444;0.229419;-0.0550226;0.0149482;0;0.183757;9.37896;6.57051
658000;659;;;;;;;;;;0.0119183;-0.7946;-0.0361593;0.795512;-11.5988;-0.00268045;0.000984365;0.0113601;0.0114288;-0.00274913;0.00708898;0.235952;4.23814;0.00868191;0.00945197;4.15725;0.240544;75.8744;120.874;0.000466886;-0.00268331;-0.000637048;0.00258327;0.0113604;0.000923871;0.00754332;0;0.0306171;-0.212585;-2.59372;-0.95795;2.77313;-5.94778;-0.0616946;0.000474128;0.225828;0.225829;-0.0616953;0.143762;0.273192;3.66042;0.174786;0.191683;3.66039;0.273195;87.3306;132.331;0.0361582;-0.0617237;-0.00859551;0.00741643;0.225798;-0.0362479;0.0487957;0;0.20115;9.40222;6.57066
659000;660;;;;;;;;;;0.0123222;-0.797407;-0.0332559;0.798196;-11.5958;-0.00274211;0.000699382;0.0112681;0.0113029;-0.00277694;0.00703994;0.243352;4.10928;0.0086115;0.00938658;4.07028;0.245683;76.1271;121.127;0.000219993;-0.00274481;-0.00104689;0.00242145;0.0112678;0.00193357;0.00846535;0;0.0370099;-0.206834;-2.60632;-0.959464;2.78501;-5.94805;-0.0588718;0.00379687;0.232737;0.232786;-0.0589212;0.145854;0.252955;3.95328;0.17811;0.194472;3.9508;0.253113;88.6694;133.669;-0.010647;-0.05888;0.00160901;0.00546718;0.232741;0.0252512;-0.0115056;0;0.21564;9.5093;6.58572
660000;661;;;;;;;;;;0.0120603;-0.794687;-0.0319148;0.795419;-11.5945;-0.00258442;0.000660939;0.0113115;0.0113429;-0.00261579;0.00697934;0.228477;4.37681;0.008568;0.00930578;4.33631;0.230611;76.1921;121.192;-5.92517e-05;-0.00258718;-0.00113895;0.0024361;0.0113111;0.00320506;0.00531847;0;0.0423585;-0.215924;-2.63499;-0.952697;2.81023;-5.9425;-0.0616393;-0.00298195;0.244632;0.244661;-0.0616683;0.153165;0.251967;3.96877;0.187083;0.20422;3.96737;0.252056;88.7925;133.793;-0.00106914;-0.0616374;-0.0100091;0.00231611;0.244596;0.0230323;0.0144429;0;0.192418;9.42239;6.59426
661000;662;;;;;;;;;;0.011705;-0.795278;-0.0305266;0.795949;-11.5931;-0.00285355;0.000906015;0.0109912;0.0110502;-0.00291259;0.00698139;0.259622;3.85175;0.00850555;0.00930852;3.79395;0.263578;75.7301;120.73;0.000973267;-0.0028562;-0.000680355;0.00247066;0.0109913;0.000502671;0.00924803;0;0.0312011;-0.21534;-2.656;-0.961866;2.833;-5.95041;-0.0597124;0.000273648;0.245206;0.245207;-0.0597126;0.15246;0.243519;4.10646;0.186588;0.20328;4.10645;0.24352;88.5251;133.525;-0.0280425;-0.0597237;-0.00547018;0.00461096;0.245194;-0.00959547;-0.00647201;0;0.195435;9.38173;6.59857
662000;663;;;;;;;;;;0.0121761;-0.795454;-0.0284526;0.796056;-11.591;-0.00265342;0.000719592;0.0110462;0.0110839;-0.00269111;0.00688751;0.240211;4.16301;0.00843071;0.00918334;4.11871;0.242794;76.6394;121.639;-0.000684061;-0.00265582;-0.000886129;0.00230355;0.0110461;0.00477268;0.0076321;0;0.0309077;-0.215257;-2.66607;-0.961845;2.84243;-5.94994;-0.0588132;0.00145242;0.247746;0.247753;-0.05882;0.153287;0.237393;4.21243;0.18787;0.204382;4.21205;0.237414;87.8899;132.89;-0.0103999;-0.0588393;-0.00612455;0.00716776;0.247732;-0.00267474;-0.00194158;0;0.198061;9.40036;6.60576
663000;664;;;;;;;;;;0.0117713;-0.792634;-0.0287613;0.793243;-11.5914;-0.00261079;0.000578513;0.0114449;0.0114687;-0.00263456;0.00705162;0.228118;4.38371;0.00865863;0.00940217;4.35318;0.229717;77.431;122.431;0.000382809;-0.00261309;-0.00108635;0.00222023;0.0114445;0.00205322;0.00807324;0;0.0345436;-0.224592;-2.67457;-0.962434;2.85133;-5.9527;-0.0617767;-0.000257042;0.249852;0.249852;-0.0617769;0.155815;0.247253;4.04444;0.190529;0.207753;4.04443;0.247253;86.728;131.728;-0.0298705;-0.0618301;-0.0139449;0.010018;0.249774;-0.0252278;0.0373693;0;0.212497;9.32618;6.61338
664000;665;;;;;;;;;;0.0120903;-0.791845;-0.0282463;0.792441;-11.5908;-0.00279831;0.00065295;0.0112779;0.0113081;-0.00282853;0.00706831;0.248124;4.03025;0.00863736;0.00942442;3.99787;0.250133;77.0874;122.087;-0.000204014;-0.0028006;-0.000952717;0.00223627;0.0112776;0.00283178;0.00827645;0;0.037268;-0.219737;-2.67285;-0.96119;2.84892;-5.9514;-0.0649175;-0.00243973;0.25462;0.254639;-0.0649362;0.159788;0.254958;3.92221;0.195042;0.21305;3.92137;0.255013;87.8569;132.857;-0.00177872;-0.064931;-0.0131923;0.00557441;0.254553;-0.015696;-0.00868126;0;0.200289;9.24613;6.61309
665000;666;;;;;;;;;;0.0120893;-0.791275;-0.0312237;0.791983;-11.5938;-0.00278699;0.00061186;0.0113252;0.0113517;-0.00281347;0.00708257;0.246088;4.06359;0.00865932;0.00944342;4.03476;0.247846;77.5012;122.501;-0.000716893;-0.00278915;-0.000963573;0.00216531;0.0113249;0.00406543;0.00763734;0;0.0336373;-0.219775;-2.69372;-0.969476;2.87129;-5.95822;-0.0602061;-0.00155492;0.256357;0.256365;-0.0602137;0.158289;0.234853;4.25799;0.194119;0.211052;4.25758;0.234875;88.2901;133.29;-0.0129026;-0.0602174;-0.0101356;0.00486379;0.256317;0.00459203;-0.00313178;0;0.19028;9.25121;6.61429
666000;667;;;;;;;;;;0.0125725;-0.795061;-0.0253094;0.795563;-11.5879;-0.00273008;0.000479592;0.0113008;0.0113172;-0.00274645;0.0070318;0.241583;4.13936;0.00860757;0.00937574;4.12065;0.24268;76.6029;121.603;-0.000752334;-0.00273258;-0.00135028;0.00228408;0.0113;0.00388629;0.00687115;0;0.0334876;-0.221897;-2.71306;-0.966634;2.88865;-5.95498;-0.0625054;0.000567184;0.25909;0.259091;-0.0625064;0.160799;0.241249;4.14509;0.196898;0.214399;4.14504;0.241252;87.4064;132.406;0.000388737;-0.0625447;-0.010232;0.00860798;0.259049;-0.0441453;0.0707146;0;0.170901;9.40495;6.63491
667000;668;;;;;;;;;;0.0132989;-0.787991;-0.0197851;0.788352;-11.5824;-0.00265533;0.000665766;0.0109967;0.0110291;-0.00268772;0.00685839;0.241467;4.14135;0.0083933;0.00914452;4.1035;0.243695;76.7903;121.79;0.00037087;-0.00265765;-0.000940532;0.00225037;0.0109964;0.000962621;0.00972651;0;0.0349722;-0.229909;-2.7765;-0.970769;2.95029;-5.95896;-0.0570141;0.00234542;0.270476;0.270493;-0.0570308;0.163762;0.210792;4.74402;0.20204;0.218349;4.74292;0.210841;86.4186;131.419;0.00161358;-0.0571083;-0.0127361;0.0135391;0.270414;-0.0209885;0.0288626;0;0.181841;9.11103;6.64256
668000;669;;;;;;;;;;0.0138045;-0.786004;-0.0259787;0.786554;-11.5886;-0.00286385;0.000248282;0.0113107;0.0113151;-0.00286819;0.00709163;0.253197;3.94949;0.00865926;0.00945551;3.94502;0.253484;77.9729;122.973;-0.000651301;-0.00286573;-0.00148215;0.00195446;0.0113097;0.00487172;0.0105516;0;0.0326329;-0.229675;-2.46776;-0.987846;2.66804;-5.98794;-0.0964843;0.0166864;0.208715;0.209624;-0.0973939;0.153509;0.462279;2.1632;0.181162;0.204679;2.15233;0.464612;85.0856;130.086;0.0235973;-0.0965487;0.0124323;0.0198662;0.208766;0.00278499;0.0963077;0;0.212007;9.08896;6.64221
669000;670;;;;;;;;;;0.0134241;-0.788303;-0.0235249;0.788769;-11.5861;-0.00251914;0.00094839;0.011305;0.0113697;-0.0025839;0.00697682;0.222834;4.48764;0.00857194;0.00930243;4.40023;0.227261;76.8942;121.894;0.000154567;-0.00252159;-0.000529738;0.00240631;0.0113053;0.00267626;0.00852533;0;0.030735;-0.22777;-2.78586;-0.971053;2.95902;-5.9585;-0.0590011;0.000905335;0.27371;0.273713;-0.0590036;0.166358;0.21556;4.63907;0.204993;0.221811;4.63892;0.215567;87.6646;132.665;-0.0124418;-0.05904;-0.00952081;0.00860797;0.273675;-0.0127174;0.0603742;0;0.202798;9.14111;6.64267
669001;671;;;;;;;;;;;;;;;;;;;;;;;;;;;;;;;;;;;;;;;;;;;;;;;;;;;;;;;;;;;;;;;;;;9.19228;6.64881
671000;672;;;;;;;;;;-0.798662;4.04074;-0.936158;4.22396;-12.4987;-0.000661629;0.00163057;0.00221482;0.00295082;-0.00139763;0.00217422;0.298728;3.34753;0.0025634;0.00289896;2.11131;0.47364;30.7748;75.7748;0.012236;-0.000667347;-0.000498321;0.00375334;0.00221602;-0.0150194;-0.120718;0;0.0502577;;;;;;;;;;;;;;;;;;;;;;;;;;;;;-0.0218074;6.67644
672000;673;;;;;;;;;;-0.797152;4.04139;-0.935191;4.22408;-12.4978;-0.000560346;0.00185434;0.00298871;0.00378079;-0.00135243;0.00256661;0.187488;5.33368;0.00307222;0.00342215;2.79555;0.357712;35.5688;80.5688;0.0128938;-0.000567455;-0.000500634;0.00420096;0.0029903;-0.0177581;-0.118221;0;0.0420306;;;;;;;;;;;;;;;;;;;;;;;;;;;;;-0.0211088;6.67143
