Time;Image index (Image index);Distance L(t) (Extensometer 1);Change in distance (Extensometer 1);Strain - RC (Extensometer 1);Distance x L(t) (Extensometer 1);Distance y L(t) (Extensometer 1);Distance z L(t) (Extensometer 1);Change in distance x (Extensometer 1);Change in distance y (Extensometer 1);Change in distance z (Extensometer 1);X-displacement (Strain Gauge 1);Y-displacement (Strain Gauge 1);Z-displacement (Strain Gauge 1);Displacement (Strain Gauge 1);Height (Strain Gauge 1);Exx - RC (Strain Gauge 1);Exy - RC (Strain Gauge 1);Eyy - RC (Strain Gauge 1);Max. principal strain - RC (Strain Gauge 1);Min. principal strain - RC (Strain Gauge 1);Max. shear strain - RC (Strain Gauge 1);Poisson ratio -Exx/Eyy (Strain Gauge 1);Poisson ratio -Eyy/Exx (Strain Gauge 1);Von Mises - RC (Strain Gauge 1);Tresca - RC (Strain Gauge 1);Poisson ratio -strain max/min (Strain Gauge 1);Poisson ratio -strain min/max (Strain Gauge 1);Max. strain angle (Strain Gauge 1);Max. shear angle (Strain Gauge 1);Vorticity-z (Strain Gauge 1);du/dx (Strain Gauge 1);du/dy (Strain Gauge 1);dv/dx (Strain Gauge 1);dv/dy (Strain Gauge 1);dw/dx (Strain Gauge 1);dw/dy (Strain Gauge 1);Ezz plane stress state (Strain Gauge 1);Stereo reconstruction error (Strain Gauge 1);X-displacement (Strain Gauge 2);Y-displacement (Strain Gauge 2);Z-displacement (Strain Gauge 2);Displacement (Strain Gauge 2);Height (Strain Gauge 2);Exx - RC (Strain Gauge 2);Exy - RC (Strain Gauge 2);Eyy - RC (Strain Gauge 2);Max. principal strain - RC (Strain Gauge 2);Min. principal strain - RC (Strain Gauge 2);Max. shear strain - RC (Strain Gauge 2);Poisson ratio -Exx/Eyy (Strain Gauge 2);Poisson ratio -Eyy/Exx (Strain Gauge 2);Von Mises - RC (Strain Gauge 2);Tresca - RC (Strain Gauge 2);Poisson ratio -strain max/min (Strain Gauge 2);Poisson ratio -strain min/max (Strain Gauge 2);Max. strain angle (Strain Gauge 2);Max. shear angle (Strain Gauge 2);Vorticity-z (Strain Gauge 2);du/dx (Strain Gauge 2);du/dy (Strain Gauge 2);dv/dx (Strain Gauge 2);dv/dy (Strain Gauge 2);dw/dx (Strain Gauge 2);dw/dy (Strain Gauge 2);Ezz plane stress state (Strain Gauge 2);Stereo reconstruction error (Strain Gauge 2);Load ADC 1 channel 1;Position ADC 1 channel 2
ms;;mm;mm;S;mm;mm;mm;mm;mm;mm;mm;mm;mm;mm;mm;S;S;S;S;S;S;;;S;S;;;°;°;S;S;S;S;S;S;S;S;pixel;mm;mm;mm;mm;mm;S;S;S;S;S;S;;;S;S;;;°;°;S;S;S;S;S;S;S;S;pixel;kN;mm
0.02515;1;24.1941;0;0;-2.1724;24.0959;-0.153704;0;0;0;0;0;0;0;-5.40752;-3.33067e-16;-1.17961e-16;0;3.75455e-17;-3.70612e-16;2.04079e-16;;;2.60494e-16;2.72105e-16;;;0;45;0;-3.33067e-16;-1.249e-16;-1.11022e-16;0;0;0;0;0;0;0;0;0;-5.57848;-2.22045e-16;-3.46945e-17;0;5.29476e-18;-2.27339e-16;1.16317e-16;;;1.53355e-16;1.55089e-16;;;0;45;0;-2.22045e-16;-2.77556e-17;-4.16334e-17;0;0;0;0;0;-0.0255761;-1.00916
1000.03;2;24.19;-0.00412911;-0.000170666;-2.17144;24.0918;-0.164981;0.000966084;-0.00413344;-0.0112767;0.00140605;-0.0173858;0.00638101;0.0185731;-5.40114;0.000154552;0.000184113;7.13836e-05;0.000301718;-7.57825e-05;0.00018875;-2.16509;-0.461875;0.000230595;0.000251667;3.98137;0.25117;179.964;44.9641;0.000321726;0.000154332;-0.000319582;0.000687849;7.13495e-05;0.000670708;-0.00482128;0;0.0162136;0.000614379;-0.0153105;0.000364015;0.0153271;-5.57811;0.000415216;1.86872e-05;-0.000243433;0.000415746;-0.000243963;0.000329854;1.70567;0.586281;0.000385163;0.000439806;1.70413;0.586809;169.662;34.6624;0.00193949;0.000415214;-1.94066e-05;5.68061e-05;-0.000243433;-0.00613684;-0.00195193;0;0.017796;-0.0254941;-1.00618
2000.03;3;24.1896;-0.004499;-0.000185954;-2.172;24.0913;-0.175043;0.00040552;-0.00462637;-0.0213391;-0.000282123;-0.0380981;0.0145765;0.0407924;-5.39294;0.000193375;-0.000116847;0.000444479;0.000490439;0.000147415;0.000171512;-0.435059;-2.29854;0.000290566;0.000228683;-3.32694;-0.300577;83.5001;128.5;0.000683998;0.000193319;-0.000589037;0.000355226;0.000444313;6.84432e-05;-0.00422521;0;0.0180881;-0.00104159;-0.0355639;0.00189149;0.0356294;-5.57658;0.000582302;-7.06071e-05;-0.000627507;0.000586408;-0.000631614;0.000609011;0.92796;1.07763;0.000703387;0.000812015;0.928428;1.07709;46.7085;91.7085;0.00150663;0.000582285;5.64838e-05;-0.000197852;-0.000627506;-0.0021429;-0.00166408;0;0.0184447;-0.025261;-0.996655
3000.03;4;24.1922;-0.00190656;-7.88026e-05;-2.17283;24.0938;-0.174267;-0.000433759;-0.0020934;-0.0205634;-0.0023519;-0.0601852;0.0186989;0.063067;-5.38882;0.000206617;-5.42481e-05;0.00102273;0.00102632;0.000203027;0.000411647;-0.202025;-4.94988;0.000627582;0.000548862;-5.05509;-0.19782;80.5592;125.559;0.000363127;0.000206587;-0.000360437;0.000251691;0.00102267;0.000129418;-0.00339999;0;0.0189834;-0.00286962;-0.0594791;0.00189776;0.0595786;-5.57658;0.000182344;-8.25534e-05;-0.000534488;0.000191728;-0.000543872;0.0003678;0.341157;2.93121;0.000440622;0.0004904;0.352525;2.83668;70.0588;115.059;0.000525843;0.000182333;6.76865e-06;-0.00017194;-0.000534484;-0.00283953;-0.00160064;0;0.0200051;-0.0253968;-0.98507
4000.03;5;24.1885;-0.00560296;-0.000231584;-2.17027;24.0903;-0.181589;0.0021265;-0.0056282;-0.0278854;-0.00352503;-0.07647;0.0215506;0.0795268;-5.38597;0.000167995;2.03431e-05;0.000490228;0.000491508;0.000166716;0.000162396;-0.342688;-2.91811;0.000288623;0.000216528;-2.94817;-0.339193;63.6227;108.623;8.09972e-05;0.000167932;-0.000315468;0.000356046;0.000490179;0.000710433;-0.0038578;0;0.0180033;-0.00415179;-0.0740567;0.00055171;0.074175;-5.57792;0.000203217;-5.80464e-05;-0.000424298;0.000208541;-0.000429623;0.000319082;0.478949;2.08791;0.000375742;0.000425443;0.485406;2.06013;53.1485;98.1485;0.00112894;0.000203181;0.000160852;-0.000277082;-0.00042431;-0.00460517;-0.00131182;0;0.0181773;-0.0254831;-0.984221
5000.03;6;24.1891;-0.00505598;-0.000208975;-2.17066;24.0908;-0.185834;0.00174382;-0.00514583;-0.0321301;-0.00457747;-0.0927769;0.0241141;0.0959687;-5.38341;0.000249458;0.000265599;0.000246398;0.000513532;-1.76756e-05;0.000265604;-1.01242;-0.987737;0.000348396;0.000354138;29.0531;0.0344198;10.3271;55.3271;0.00155645;0.000249076;-0.000381513;0.000912713;0.000246361;-0.00206926;-0.00462269;0;0.0201192;-0.00528113;-0.08934;-0.000583454;0.0894978;-5.57906;0.000247886;-4.39725e-05;-0.000498837;0.000250466;-0.000501418;0.000375942;0.496927;2.01237;0.000442087;0.000501256;0.499516;2.00194;49.6865;94.6865;0.000846375;0.000247772;0.000390487;-0.000478757;-0.000498913;-0.000920008;-0.00154715;0;0.0198894;-0.0254462;-0.976988
6000.03;7;24.1896;-0.00455614;-0.000188316;-2.17155;24.0911;-0.194739;0.000852595;-0.00479461;-0.0410352;-0.0061479;-0.109792;0.0267363;0.113168;-5.38078;0.000276956;6.90959e-05;0.000553757;0.000570046;0.000260667;0.00015469;-0.50014;-1.99944;0.000329517;0.000206253;-2.18688;-0.457273;59.1104;104.11;0.00177373;0.000276893;-0.000224629;0.00036274;0.000553734;-0.00301752;-0.00329885;0;0.0242507;-0.00686977;-0.107994;-0.000649409;0.108214;-5.57912;0.000270925;-1.73947e-05;-0.000591723;0.000271276;-0.000592073;0.000431675;0.457859;2.18408;0.000509796;0.000575566;0.45818;2.18255;61.8353;106.835;0.0010071;0.000270897;0.000203374;-0.000238354;-0.000591743;-0.0011526;0.00012985;0;0.0294547;-0.0254173;-0.965047
7000.03;8;24.1914;-0.00270505;-0.000111806;-2.1719;24.093;-0.191269;0.00049645;-0.00294026;-0.0375651;-0.00797435;-0.120496;0.0253071;0.123383;-5.38221;0.000195531;-0.000268273;0.000296834;0.000519196;-2.68306e-05;0.000273013;-0.658721;-1.51809;0.000355412;0.000364018;19.3509;0.0516772;114.801;159.801;-0.000108391;0.000195559;-0.000408781;-0.00012778;0.000296787;-0.00070506;-0.00235236;0;0.0322341;-0.00873245;-0.120256;-0.00572741;0.120708;-5.5842;0.000140024;-0.000138069;-0.000377053;0.000174581;-0.00041161;0.000293096;0.371364;2.69278;0.000347538;0.000390794;0.424142;2.3577;40.7334;85.7334;0.00117585;0.000139922;0.00019502;-0.00047133;-0.000377063;-0.00531544;-0.00152577;0;0.0309002;-0.0254738;-0.962403
8000.03;9;24.1902;-0.00393465;-0.000162628;-2.17098;24.0918;-0.190448;0.00141611;-0.00408548;-0.0367442;-0.00819979;-0.131674;0.0205757;0.133524;-5.38694;0.000202706;0.000212518;0.00107051;0.00111976;0.000153457;0.000483153;-0.189354;-5.28111;0.000700978;0.000644204;-7.29689;-0.137045;63.1218;108.122;0.000725621;0.00020258;-0.000121551;0.000546298;0.00107053;-0.000467712;-0.00437926;0;0.0216243;-0.00886717;-0.129998;-0.0121421;0.130864;-5.59062;0.000174582;-6.21178e-05;-0.000242284;0.000183641;-0.000251344;0.000217492;0.720565;1.3878;0.000252151;0.00028999;0.730637;1.36867;41.7274;86.7274;0.00082873;0.000174552;0.00012874;-0.000253055;-0.000242291;-0.00283717;0.000266223;0;0.0196476;-0.0255047;-0.955214
9000.03;10;24.1871;-0.00702384;-0.000290312;-2.17;24.0887;-0.199003;0.00240017;-0.00716777;-0.0452986;-0.00925646;-0.146716;0.0228514;0.148773;-5.38467;0.000275717;0.000367975;0.000830304;0.00101377;9.22526e-05;0.000460757;-0.332067;-3.01144;0.000647289;0.000614343;-10.989;-0.0909998;46.9411;91.9411;0.000432084;0.000275519;6.87862e-06;0.000728872;0.000830371;-0.00117605;-0.00477025;0;0.0198459;-0.00986621;-0.142726;-0.0113382;0.143516;-5.58981;0.000244439;2.09472e-05;-0.000488644;0.000245037;-0.000489242;0.000367139;0.50024;1.99904;0.00043168;0.000489519;0.500851;1.9966;52.9216;97.9216;0.00111547;0.000244301;0.0005675;-0.000526007;-0.000488804;-0.00257248;0.000755265;0;0.0210026;-0.025181;-0.947715
10000;11;24.1876;-0.0064812;-0.000267883;-2.17112;24.0892;-0.199642;0.00127629;-0.00672947;-0.0459377;-0.0104539;-0.155278;0.0236791;0.15742;-5.38384;0.000390182;0.000229303;0.000135131;0.000525035;2.77509e-07;0.000262379;-2.88744;-0.346328;0.000349931;0.000349838;;;179.152;44.1518;0.00144767;0.000389937;-0.000278078;0.000736813;0.000135118;-0.00267892;-0.00269588;0;0.0202648;-0.0112927;-0.151343;-0.0119283;0.152232;-5.5904;0.000268072;-0.000107374;-0.000604929;0.000281085;-0.000617941;0.000449513;0.443147;2.25659;0.000531059;0.00059935;0.454873;2.19842;49.7319;94.7319;0.00129567;0.000267954;0.000283608;-0.000498697;-0.000604963;-0.000834971;0.00296218;0;0.0202582;-0.0251618;-0.940242
11000;12;24.1881;-0.00598216;-0.000247257;-2.17136;24.0896;-0.206576;0.00103844;-0.0063083;-0.0528716;-0.0113284;-0.162597;0.0237573;0.164713;-5.38376;0.000525488;0.000515364;0.000641978;0.00110238;6.50874e-05;0.000518645;-0.818545;-1.22168;0.000714212;0.000691527;-16.9369;-0.0590427;30.8449;75.8449;0.00117082;0.000525197;0.000109972;0.00092071;0.000642104;-0.0020063;-0.0038078;0;0.020081;-0.0120795;-0.159968;-0.0127295;0.160927;-5.5912;0.000188414;1.44071e-06;-0.000542606;0.000188417;-0.000542609;0.000365513;0.347238;2.87987;0.00043826;0.000487351;0.347242;2.87984;57.9056;102.906;0.00100455;0.000188346;0.000370967;-0.000368356;-0.000542675;-0.00133762;-0.000436325;0;0.0216348;-0.0252672;-0.935786
12000;13;24.1925;-0.00163443;-6.75548e-05;-2.17144;24.094;-0.198738;0.000957173;-0.00188418;-0.0450343;-0.0108467;-0.175636;0.0258678;0.177862;-5.38165;0.000390267;0.000206545;0.000591993;0.000720987;0.000261273;0.000229857;-0.659242;-1.51689;0.000421485;0.000306476;-2.75952;-0.362382;44.309;89.309;0.00129165;0.000390181;-4.83065e-05;0.000461345;0.000592013;-0.00282849;-0.00307665;0;0.0244092;-0.0117938;-0.176477;-0.0115024;0.177244;-5.58998;-8.17083e-05;-0.000109865;-0.000406311;-4.80198e-05;-0.000439999;0.00019599;-0.201098;-4.9727;0.000278709;0.00026132;-0.109136;-9.16287;44.4317;89.4317;0.000210992;-8.18204e-05;0.000266216;-0.000486068;-0.00040634;-0.0020363;0.00138821;0;0.0331739;-0.0251822;-0.925859
13000;14;24.1913;-0.00281582;-0.000116385;-2.17088;24.0928;-0.204366;0.00151666;-0.00306707;-0.0506623;-0.0119437;-0.181986;0.0173563;0.183201;-5.39016;0.000451398;0.000360972;0.0009634;0.00114993;0.000264863;0.000442535;-0.468547;-2.13426;0.000695358;0.000590047;-4.34161;-0.230329;53.5687;98.5687;0.000164929;0.000451287;0.000128065;0.000593761;0.000963457;-1.33118e-05;-0.00424562;0;0.0242643;-0.0129975;-0.182494;-0.0229818;0.184394;-5.60146;0.000216605;-0.000191913;-0.0002473;0.000285705;-0.0003164;0.000301053;0.875879;1.14171;0.000347776;0.000401403;0.902986;1.10744;37.1332;82.1332;0.00071674;0.000216598;-0.000157241;-0.000226602;-0.000247294;-0.0041923;0.000829374;0;0.0210565;-0.0248711;-0.92208
14000;15;24.1887;-0.00538143;-0.000222427;-2.17006;24.0903;-0.202776;0.00233892;-0.00555564;-0.0490721;-0.0141046;-0.194636;0.0186794;0.196038;-5.38884;0.000215468;0.000187797;0.00101503;0.00105694;0.000173556;0.000441692;-0.212278;-4.7108;0.000654491;0.000588923;-6.08991;-0.164206;61.043;106.043;9.9199e-05;0.000215315;-0.000208427;0.000583705;0.00101502;0.000305721;-0.00545324;0;0.0287443;-0.0148876;-0.192673;-0.0223297;0.194533;-5.6008;0.000319884;-0.000104217;-0.000477939;0.000333273;-0.000491328;0.0004123;0.669299;1.4941;0.00047899;0.000549734;0.678311;1.47425;46.1213;91.1213;0.000925139;0.000319823;0.000155916;-0.000364557;-0.000477946;-0.00218756;0.00207079;0;0.0210718;-0.024885;-0.91763
15000;16;24.187;-0.00713759;-0.000295014;-2.1741;24.0881;-0.215635;-0.00169876;-0.00779474;-0.0619312;-0.0189869;-0.217063;0.0236015;0.219167;-5.38392;0.00030559;0.000500912;0.00045507;0.000886787;-0.000126127;0.000506457;-0.671522;-1.48916;0.000637407;0.000675276;7.03089;0.14223;29.2956;74.2956;0.00146731;0.00030538;0.000182775;0.000819002;0.000455179;-0.00235381;-0.00402539;0;0.0234396;-0.0233737;-0.212514;-0.0249277;0.215244;-5.6034;0.000211773;6.49354e-05;-0.00058777;0.000217012;-0.000593009;0.000405011;0.360299;2.77547;0.000484169;0.000540014;0.365951;2.7326;57.9834;102.983;0.000590302;0.000211619;0.000688937;-0.000559566;-0.000588005;-0.000529393;0.00159691;0;0.022999;-0.0185205;-0.909899
16000;17;24.1941;2.66923e-05;1.10326e-06;-2.18436;24.0945;-0.197307;-0.0119623;-0.00137227;-0.0436034;-0.04384;-0.219944;0.0200594;0.225166;-5.38746;0.000175367;-0.000326058;-0.000418345;0.000319462;-0.00056244;0.000440951;0.419193;2.38554;0.000515568;0.000587934;0.567993;1.76059;31.327;76.327;2.47833e-05;0.000175207;1.41908e-06;-0.00065373;-0.000418292;-0.00119239;-0.00155359;0;0.0216485;-0.0572234;-0.217716;-0.027676;0.226805;-5.60615;0.00025288;-0.000100375;-0.000393988;0.000268097;-0.000409205;0.000338651;0.641847;1.558;0.000393859;0.000451535;0.655166;1.52633;38.7008;83.7008;-0.000301256;0.00025242;0.000763448;-0.000964758;-0.000394274;-0.00133048;-0.00112144;0;0.0323072;-0.0157931;-0.902785
17000;18;24.1954;0.00126049;5.20988e-05;-2.18415;24.0958;-0.195316;-0.0117504;-9.79549e-05;-0.0416121;-0.0452089;-0.219773;0.0155018;0.224909;-5.39202;0.000342891;0.000113904;-5.94247e-05;0.000372901;-8.94348e-05;0.000231168;5.77017;0.173305;0.00028316;0.000308224;4.16953;0.239835;45.309;90.309;-4.65344e-05;0.000342887;0.000370673;-0.000142968;-5.94869e-05;-0.000918475;-0.00112792;0;0.0194071;-0.058254;-0.218738;-0.0311093;0.22849;-5.60958;0.00014861;-9.41344e-05;-0.000531105;0.000161405;-0.000543901;0.000352653;0.279812;3.57383;0.000426702;0.000470204;0.296755;3.36978;43.5557;88.5557;-0.000977821;0.000148164;0.000759847;-0.000948697;-0.000531389;-0.000587421;-0.000155355;0;0.028099;-0.017694;-0.896951
18000;19;24.1943;0.000191048;7.89648e-06;-2.18349;24.0947;-0.20063;-0.0110892;-0.00115555;-0.0469264;-0.0457376;-0.220669;0.0176698;0.226051;-5.38985;0.000358352;9.22286e-05;0.000126785;0.000390595;9.45414e-05;0.000148027;-2.82646;-0.353799;0.000235302;0.000197369;-4.13147;-0.242044;40.638;85.638;0.000577575;0.000358348;0.000316402;-0.000131997;0.000126739;-0.00351466;-0.00247656;0;0.0219779;-0.0585555;-0.219689;-0.0295134;0.229266;-5.60799;0.000221795;-9.4096e-05;-0.000492836;0.000233977;-0.000505018;0.000369497;0.450038;2.22204;0.00043612;0.000492663;0.463304;2.15841;43.2294;88.2294;-0.000669992;0.000221498;0.000588055;-0.000776735;-0.000493004;-0.000599897;0.000333843;0;0.0242975;-0.018067;-0.890039
19000;20;24.1959;0.00173882;7.18696e-05;-2.18299;24.0964;-0.196143;-0.0105843;0.000481315;-0.0424387;-0.0457545;-0.221256;0.0168184;0.226563;-5.3907;0.000306106;4.88558e-06;0.00025495;0.000306568;0.000254488;2.60403e-05;-1.20065;-0.832882;0.00018942;3.47203e-05;-1.20465;-0.830118;32.0613;77.0613;-6.99967e-05;0.000306037;0.000381555;-0.000371803;0.000254877;-0.00124791;-0.00120578;0;0.020278;-0.0582414;-0.220623;-0.0301991;0.230171;-5.60867;0.000195795;-5.57297e-05;-0.000453383;0.000200545;-0.000458133;0.000329339;0.431853;2.3156;0.00038986;0.000439118;0.437743;2.28444;45.4152;90.4152;-0.000167027;0.000195519;0.000632709;-0.000744616;-0.000453582;-0.00102994;0.00114088;0;0.0246473;-0.018207;-0.882521
20000;21;24.1955;0.00134657;5.56568e-05;-2.18343;24.0959;-0.196625;-0.0110309;4.30513e-05;-0.0429208;-0.0459568;-0.220712;0.0167233;0.226065;-5.3908;0.000236689;-7.41464e-05;-7.17524e-05;0.000253587;-8.86507e-05;0.000171119;3.29869;0.303151;0.000205097;0.000228159;2.86052;0.349587;21.4812;66.4812;0.000792603;0.000236651;0.00013676;-0.000285118;-7.1759e-05;-0.00173523;-0.00110036;0;0.0232658;-0.0583543;-0.220012;-0.0300907;0.2296;-5.60857;0.000195225;-0.000141285;-0.000414955;0.000226351;-0.000446081;0.000336216;0.470472;2.12552;0.000395078;0.000448289;0.507421;1.97075;36.6643;81.6643;-0.000741264;0.000194826;0.000620943;-0.000903979;-0.000415138;-0.0018616;2.72332e-05;0;0.0239034;-0.018167;-0.876059
21000;22;24.1973;0.00315626;0.000130456;-2.18241;24.0979;-0.193713;-0.0100138;0.00197594;-0.0400091;-0.0462627;-0.222475;0.0184036;0.227978;-5.38912;0.000352989;-0.000117762;-0.000109468;0.00038125;-0.000137728;0.000259489;3.22459;0.310117;0.000310433;0.000345985;2.76813;0.361254;21.0008;66.0008;0.000467633;0.000352902;0.000199379;-0.000435049;-0.000109481;-0.00254372;-0.00095642;0;0.0240097;-0.0581599;-0.222057;-0.0299976;0.231499;-5.60847;0.000283643;-0.000140498;-0.000418699;0.000310706;-0.000445762;0.000378234;0.677439;1.47615;0.000439061;0.000504312;0.697022;1.43467;37.2486;82.2486;-0.00062964;0.000283371;0.000468959;-0.000750384;-0.000418799;-8.33567e-05;-0.000784703;0;0.0233439;-0.0181586;-0.868494
22000;23;24.1955;0.00135183;5.58742e-05;-2.18303;24.096;-0.19757;-0.0106286;7.70467e-05;-0.0438663;-0.0456768;-0.223288;0.0175104;0.228584;-5.39001;0.000371362;6.67266e-06;0.000488397;0.000488776;0.000370983;5.88966e-05;-0.760369;-1.31515;0.000294545;7.85288e-05;-1.31752;-0.759004;107.234;152.234;5.03443e-05;0.000371295;0.000380242;-0.000366853;0.000488325;-0.00166453;-0.00269627;0;0.0208631;-0.0572894;-0.223162;-0.0314756;0.232539;-5.60995;0.000176128;-0.000110242;-0.000308923;0.000200008;-0.000332803;0.000266406;0.570136;1.75397;0.000310787;0.000355207;0.600981;1.66395;35.1774;80.1774;-0.000232717;0.000175731;0.000676624;-0.000897491;-0.000309146;-0.00171013;-0.000350981;0;0.0238135;-0.0180937;-0.860938
23000;24;24.1956;0.00146031;6.0358e-05;-2.18224;24.0961;-0.198904;-0.00984249;0.000246215;-0.0451996;-0.0457844;-0.223874;0.0181763;0.229229;-5.38934;0.000239787;-0.000527916;0.000257371;0.000776569;-0.000279411;0.00052799;-0.931676;-1.07333;0.000631791;0.000703986;2.77931;0.359802;162.994;27.9937;-0.000247638;0.000239512;-0.000145783;-0.000910044;0.0002575;8.98089e-05;-0.00129492;0;0.019182;-0.0572528;-0.223643;-0.0309788;0.232924;-5.60945;5.98338e-05;-7.54729e-05;-0.000352251;7.32216e-05;-0.000365639;0.00021943;0.169861;5.88716;0.000271478;0.000292574;0.200257;4.99359;39.1762;84.1762;-0.0012185;5.92811e-05;0.000902784;-0.00105413;-0.000352656;0.00055372;-0.00157754;0;0.02859;-0.0180795;-0.855707
24000;25;24.1969;0.00278803;0.000115236;-2.18194;24.0975;-0.197238;-0.00954158;0.00162035;-0.0435341;-0.045679;-0.224882;0.0169454;0.230099;-5.39057;0.000368872;-0.000229431;-0.000224544;0.00044723;-0.000302902;0.000375066;1.64276;0.608731;0.000435753;0.000500088;1.47649;0.677284;20.1746;65.1746;3.09286e-05;0.000368735;0.000112103;-0.000571168;-0.000224524;-0.00117795;-0.000947812;0;0.0186633;-0.0569042;-0.225511;-0.031791;0.234742;-5.61027;0.00018174;-5.95773e-05;-0.000219172;0.000190406;-0.000227838;0.000209122;0.829212;1.20596;0.000241796;0.000278829;0.835708;1.19659;37.4933;82.4933;-0.00036254;0.000181462;0.000628057;-0.000747487;-0.000219367;-0.0011469;-0.00150095;0;0.0232786;-0.018082;-0.847505
25000;26;24.1966;0.00243949;0.00010083;-2.18193;24.0971;-0.199668;-0.00952897;0.0012515;-0.0459644;-0.0451535;-0.226798;0.0177964;0.231933;-5.38972;0.000298021;-0.000148839;0.000490685;0.000571647;0.00021706;0.000177294;-0.607357;-1.64648;0.000333209;0.000236391;-2.63359;-0.37971;137.833;2.83291;0.000170125;0.000297925;0.000165911;-0.000463529;0.000490683;-0.0017894;-0.00147015;0;0.0189687;-0.0560215;-0.227618;-0.0331592;0.236745;-5.61163;0.000223139;-9.547e-05;-0.000204183;0.000243498;-0.000224543;0.00023402;1.09284;0.91505;0.000270297;0.000312027;1.08442;0.922153;32.566;77.566;-0.000544595;0.000222824;0.000608317;-0.000799558;-0.000204364;-0.000839202;-0.000116915;0;0.0214483;-0.0179746;-0.838985
26000;27;24.1961;0.00197461;8.16154e-05;-2.1812;24.0967;-0.199668;-0.00879615;0.000851051;-0.0459645;-0.0445831;-0.22797;0.0193214;0.233091;-5.3882;0.000170588;-0.000195025;0.000140621;0.000351204;-3.99948e-05;0.000195599;-1.2131;-0.824334;0.000248542;0.000260799;8.78124;0.113879;171.032;36.0321;6.54879e-05;0.000170442;0.00018406;-0.000574121;0.000140623;-0.00154582;-0.00129468;0;0.019484;-0.0553304;-0.228458;-0.0328848;0.237352;-5.61136;0.000341335;-0.000205406;-0.000432702;0.000392467;-0.000483833;0.00043815;0.788847;1.26767;0.000506848;0.0005842;0.811161;1.2328;32.7546;77.7546;-0.000941003;0.0003409;0.000543914;-0.000955307;-0.000432829;-0.000489532;-0.00115021;0;0.0217036;-0.0181275;-0.838891
27000;28;24.1957;0.0016222;6.70492e-05;-2.18125;24.0964;-0.202105;-0.00884792;0.000472186;-0.0484008;-0.0445535;-0.228589;0.0165737;0.233479;-5.39095;0.000259769;-0.000391208;3.42123e-05;0.000554131;-0.000260149;0.00040714;-7.59287;-0.131702;0.000480229;0.000542853;2.13005;0.469472;177.6;42.5999;0.000806854;0.000259544;-5.69584e-06;-0.000776807;3.42888e-05;-0.00294876;-0.00155943;0;0.0183826;-0.0551473;-0.229718;-0.0354134;0.238885;-5.61389;0.000357966;-0.000101508;-0.000274933;0.000373848;-0.000290816;0.000332332;1.30201;0.768044;0.00038474;0.000443109;1.28552;0.777898;34.339;79.339;-0.000426329;0.000357669;0.000573636;-0.00077708;-0.000275093;-0.00166386;-0.000417274;0;0.0210564;-0.0179535;-0.83185
28000;29;24.1964;0.00225206;9.3083e-05;-2.18058;24.0971;-0.202164;-0.0081782;0.00116476;-0.0484601;-0.0438958;-0.231539;0.0179284;0.236345;-5.38959;0.00012593;-9.36812e-05;0.000429524;0.000456105;9.93493e-05;0.000178378;-0.293184;-3.41083;0.000276958;0.000237837;-4.59092;-0.217821;131.669;176.669;0.000281459;0.000125835;0.000257663;-0.000444918;0.000429496;-0.001687;-0.00164877;0;0.0182987;-0.0543176;-0.232597;-0.0361421;0.241574;-5.61462;0.000171963;-0.00010238;-0.000364021;0.000190853;-0.000382912;0.000286882;0.472397;2.11686;0.000337393;0.00038251;0.498426;2.00632;38.5006;83.5006;-0.000455347;0.000171654;0.000586871;-0.000792002;-0.000364188;-0.00169152;-0.000838796;0;0.0209406;-0.018154;-0.822009
29000;30;24.1956;0.00150635;6.22609e-05;-2.1808;24.0963;-0.205015;-0.00840188;0.000371647;-0.0513108;-0.0439558;-0.233415;0.0192912;0.2383;-5.38823;0.000276621;-0.000112477;-0.000222898;0.000300779;-0.000247056;0.000273917;1.24102;0.805788;0.000316799;0.000365223;1.21745;0.821387;30.2635;75.2635;0.000297496;0.000276545;0.000181443;-0.000406544;-0.000222908;-0.00282859;0.00061289;0;0.0198125;-0.053978;-0.234138;-0.0354557;0.242881;-5.61393;0.000272199;-8.03307e-05;-0.00013854;0.000287351;-0.000153692;0.000220521;1.96477;0.508967;0.000258504;0.000294028;1.86965;0.534859;31.3584;76.3584;-0.00021367;0.000271938;0.000566085;-0.000727012;-0.000138697;-0.00118088;-0.00040161;0;0.0200595;-0.018123;-0.816856
30000;31;24.195;0.000853924;3.52947e-05;-2.18023;24.0956;-0.209873;-0.00783356;-0.000273862;-0.0561691;-0.0437217;-0.23465;0.0192318;0.239462;-5.38829;0.000526898;-0.000151893;0.000429798;0.000637811;0.000318885;0.000159463;-1.22592;-0.815714;0.00036824;0.000212617;-2.00013;-0.499968;165.841;30.841;2.27749e-06;0.000526721;0.00030964;-0.000613469;0.000429762;-0.00115328;-0.000921229;0;0.0190906;-0.0535404;-0.235412;-0.036478;0.244164;-5.61495;0.000380935;-2.94353e-05;-0.000242983;0.00038232;-0.000244369;0.000313345;1.56774;0.63786;0.00036473;0.000417793;1.56452;0.639172;38.8447;83.8447;-0.000335849;0.000380756;0.000540053;-0.000599279;-0.000243129;-0.00148588;8.48351e-05;0;0.0235856;-0.0182264;-0.809318
31000;32;24.1944;0.000281506;1.16353e-05;-2.17982;24.0951;-0.210344;-0.00741993;-0.000815327;-0.0566405;-0.0434842;-0.237523;0.0196828;0.242272;-5.38784;0.00026583;-0.000140257;0.000128441;0.000353312;4.09594e-05;0.000156176;-2.06966;-0.483172;0.000223144;0.000208235;-8.62589;-0.11593;179.186;44.1857;1.42215e-05;0.000265707;0.000235049;-0.000515615;0.000128424;-0.00107476;-0.000890965;0;0.0176064;-0.0530854;-0.238297;-0.0369442;0.246917;-5.61542;0.000261867;-3.40088e-06;-0.000382058;0.000261885;-0.000382076;0.00032198;0.685412;1.45898;0.000373943;0.000429307;0.685427;1.45895;47.0292;92.0292;-0.000386589;0.000261595;0.000729715;-0.000736989;-0.000382324;-0.00183952;-0.000945308;0;0.0214586;-0.0180239;-0.80189
32000;33;24.1951;0.00103174;4.26444e-05;-2.17942;24.0959;-0.208857;-0.0070219;-1.30504e-05;-0.0551527;-0.0433589;-0.238472;0.0180366;0.243051;-5.38948;0.000383373;-0.000150155;0.000439116;0.000563964;0.000258525;0.00015272;-0.873055;-1.1454;0.00032598;0.000203626;-2.18147;-0.458407;152.931;17.931;-0.000511896;0.000383215;0.000281643;-0.000581928;0.000439088;0.000291941;0.000692333;0;0.0200842;-0.053022;-0.238813;-0.0381782;0.247589;-5.61665;0.000373934;-3.77626e-05;-0.000350102;0.000375899;-0.000352066;0.000363983;1.06807;0.936266;0.000420366;0.00048531;1.06769;0.9366;41.4976;86.4976;-0.000444684;0.00037369;0.000624339;-0.000700344;-0.000350297;-0.000375462;-0.00136641;0;0.0296762;-0.0181592;-0.79405
33000;34;24.1942;9.26256e-05;3.82843e-06;-2.17977;24.0949;-0.209989;-0.00737316;-0.000997651;-0.0562846;-0.0434195;-0.242609;0.0185324;0.247159;-5.38899;0.000128939;-1.8529e-05;0.000515962;0.000516847;0.000128054;0.000194396;-0.2499;-4.00159;0.000310801;0.000259195;-4.03616;-0.24776;119.075;164.075;-0.00115472;0.000128842;0.0004048;-0.000441694;0.00051588;0.000775429;-0.00165304;0;0.0210892;-0.0525948;-0.24213;-0.0381847;0.250702;-5.61666;0.000293525;3.33391e-05;-0.00043044;0.000295057;-0.000431972;0.000363514;0.681918;1.46645;0.000422224;0.000484686;0.683047;1.46403;51.1431;96.1431;0.00020968;0.00029339;0.000587463;-0.000521186;-0.000430612;-0.00168753;-0.00090911;0;0.0218421;-0.0177687;-0.787466
34000;35;24.1926;-0.0015634;-6.46188e-05;-2.17852;24.0933;-0.210876;-0.00612305;-0.00255518;-0.0571716;-0.0431452;-0.246168;0.0191957;0.250656;-5.38832;0.000160606;0.000362551;0.000399419;0.000661721;-0.000101696;0.000381708;-0.4021;-2.48695;0.000478661;0.000508945;6.50688;0.153683;70.526;115.526;-0.00113266;0.000160656;0.000543247;0.000181899;0.000399338;0.00116548;-0.00226337;0;0.0225001;-0.0521567;-0.244592;-0.0397223;0.253226;-5.6182;0.000361373;3.51561e-05;-0.000360695;0.000363081;-0.000362403;0.000362742;1.00188;0.998124;0.000418858;0.000483656;1.00187;0.998133;47.7567;92.7567;6.2778e-05;0.000361174;0.000702268;-0.000632437;-0.000360941;-0.000628746;-0.00148482;0;0.0233881;-0.0178925;-0.780229
35000;36;24.1928;-0.0012962;-5.35752e-05;-2.17869;24.0936;-0.211239;-0.00628818;-0.002305;-0.0575354;-0.0431683;-0.248346;0.0178343;0.2527;-5.38969;0.000358169;0.000105008;8.3876e-05;0.000393753;4.8292e-05;0.000172731;-4.27022;-0.23418;0.000247977;0.000230307;-8.15359;-0.122645;48.8485;93.8485;-0.000689058;0.000358135;0.000491991;-0.000282081;8.37605e-05;0.000548065;-0.000377695;0;0.0287041;-0.0522542;-0.246337;-0.0401027;0.254991;-5.61858;0.000465233;4.83359e-05;-0.000401393;0.00046792;-0.000404081;0.000436001;1.15905;0.862779;0.0005039;0.000581334;1.15799;0.863567;46.7671;91.7671;-5.13117e-05;0.000465053;0.000697863;-0.000601754;-0.000401636;-0.000284242;-0.00115309;0;0.0212088;-0.0179521;-0.774161
36000;37;24.1914;-0.00273003;-0.000112839;-2.17909;24.0921;-0.214872;-0.00668574;-0.00381282;-0.0611686;-0.0434626;-0.252264;0.0187197;0.256664;-5.3888;0.000221178;0.000218634;0.000556608;0.000664445;0.00011334;0.000275553;-0.397368;-2.51656;0.000410434;0.000367404;-5.86241;-0.170578;84.3358;129.336;-0.000905349;0.000221194;0.000559082;-0.000121699;0.000556475;0.00137734;-0.00230333;0;0.020363;-0.0521911;-0.249069;-0.0402208;0.257638;-5.6187;0.000442689;5.03624e-06;-0.000348214;0.000442721;-0.000348246;0.000395484;1.27131;0.786589;0.00045775;0.000527312;1.27129;0.786605;43.5124;88.5124;0.000242733;0.000442423;0.000738448;-0.000728956;-0.000348487;-0.000385904;-0.000549328;0;0.0230263;-0.017821;-0.771291
37000;38;24.1928;-0.00126924;-5.24606e-05;-2.17879;24.0936;-0.207122;-0.00638969;-0.00225136;-0.0534178;-0.0428641;-0.255645;0.0215442;0.260107;-5.38598;0.000339238;3.9013e-05;0.000298069;0.000362764;0.000274543;4.41105e-05;-1.13812;-0.878643;0.000218456;5.8814e-05;-1.32134;-0.756808;40.8434;85.8434;-0.000738968;0.000339236;0.000151917;-7.38955e-05;0.000298058;0.00150227;-0.00212972;0;0.0193282;-0.0517886;-0.251615;-0.0391739;0.259859;-5.61765;0.000274895;5.14931e-05;-0.000408653;0.000278752;-0.00041251;0.000345631;0.672685;1.48658;0.000401583;0.000460842;0.675746;1.47985;51.7645;96.7645;0.000592758;0.00027464;0.000818264;-0.000715802;-0.000408986;-0.000159711;-0.00221241;0;0.0257409;-0.0178766;-0.759508
38000;39;24.1919;-0.00224885;-9.29503e-05;-2.17825;24.0927;-0.209676;-0.0058535;-0.00320861;-0.0559722;-0.0430702;-0.258141;0.0201183;0.262482;-5.3874;0.000315895;0.000205466;0.000146677;0.00045349;9.08172e-06;0.000222204;-2.15367;-0.464323;0.000299346;0.000296272;;;51.3253;96.3253;-0.00119426;0.000315915;0.00036764;4.32637e-05;0.000146631;0.00180039;-0.00175559;0;0.0210056;-0.0518074;-0.253761;-0.0409529;0.262213;-5.61943;0.000353167;0.000107876;-0.000448698;0.000367426;-0.000462958;0.000415192;0.787093;1.2705;0.000480479;0.000553589;0.79365;1.26;54.9739;99.9739;0.000134707;0.000353072;0.000664317;-0.000449011;-0.000448913;0.000833305;-0.000776236;0;0.0232633;-0.0179738;-0.758258
39000;40;24.1916;-0.00256137;-0.000105867;-2.17778;24.0924;-0.211217;-0.00537962;-0.00349304;-0.0575133;-0.0429735;-0.260306;0.016649;0.264354;-5.39087;0.000269577;0.00015959;0.000395841;0.000504332;0.000161085;0.000171623;-0.681022;-1.46838;0.00029744;0.000228831;-3.13084;-0.319403;66.4854;111.485;-0.000254116;0.000269589;0.000289948;2.9248e-05;0.000395812;-0.000725683;-0.00151559;0;0.0207261;-0.0516334;-0.255683;-0.0443242;0.264584;-5.6228;0.000395569;4.04822e-05;-0.00045002;0.000397502;-0.000451954;0.000424728;0.879002;1.13765;0.000490769;0.000566304;0.87952;1.13698;49.0711;94.0711;0.000952853;0.000395424;0.000619832;-0.000539358;-0.000450211;-0.000447117;-0.000485435;0;0.0212432;-0.0178342;-0.751076
40000;41;24.1913;-0.00284529;-0.000117602;-2.17901;24.092;-0.210417;-0.00660936;-0.00388231;-0.0567128;-0.0437182;-0.26662;0.0230389;0.271161;-5.38448;0.000434266;-0.00013946;0.000913517;0.000951145;0.000396638;0.000277253;-0.475378;-2.10359;0.000551659;0.000369671;-2.39802;-0.417011;105.712;150.712;-0.000498356;0.000434264;-0.000125036;-0.000153877;0.000913519;0.000922656;-0.0031012;0;0.0189881;-0.0522061;-0.262028;-0.0377079;0.269826;-5.61618;0.000261687;-2.38602e-05;-0.000560203;0.000262379;-0.000560895;0.000411637;0.467129;2.14074;0.000485621;0.000548849;0.467787;2.13773;48.5198;93.5198;0.000252298;0.000261336;0.000790118;-0.000838508;-0.000560515;0.000230902;-0.00137031;0;0.0235432;-0.0179641;-0.743613
41000;42;24.1895;-0.00461494;-0.000190746;-2.1773;24.0903;-0.216127;-0.00489958;-0.00555522;-0.0624226;-0.0441724;-0.26758;0.0147709;0.271604;-5.39275;0.000522382;0.000339834;0.000789677;0.0010212;0.00029086;0.00036517;-0.661514;-1.51168;0.000607517;0.000486893;-3.51097;-0.284822;54.8009;99.8009;0.000564036;0.000522375;0.000318438;0.000361225;0.000789684;-0.002436;-0.00216315;0;0.0193622;-0.0522857;-0.261818;-0.0476378;0.271204;-5.62611;0.000278961;3.85331e-05;-0.000604841;0.000280638;-0.000606517;0.000443578;0.461214;2.16819;0.000523591;0.000591437;0.462704;2.16121;54.0166;99.0166;0.000617361;0.000278742;0.000740031;-0.000663585;-0.000605114;-0.000487907;-0.00166719;0;0.0226315;-0.0180117;-0.735832
42000;43;24.1907;-0.00336793;-0.000139205;-2.17882;24.0915;-0.21687;-0.00641892;-0.00444712;-0.0631665;-0.0431749;-0.271236;0.0193315;0.27533;-5.38819;0.000249638;9.67108e-05;0.000620791;0.000644479;0.00022595;0.000209264;-0.402129;-2.48676;0.000377587;0.000279019;-2.8523;-0.350594;75.3885;120.388;2.94719e-05;0.000249637;8.38064e-05;0.00010961;0.000620792;-0.000572814;-0.00202908;0;0.0196099;-0.0514237;-0.26632;-0.04519;0.274978;-5.62367;0.000306143;4.91745e-05;-0.00048528;0.000309187;-0.000488324;0.000398755;0.630859;1.58514;0.000464299;0.000531674;0.63316;1.57938;53.5431;98.5431;0.000524005;0.00030604;0.000556035;-0.000458087;-0.000485433;0.000627531;0.000138158;0;0.0212765;-0.0176567;-0.729018
43000;44;24.1917;-0.00239913;-9.91618e-05;-2.17837;24.0925;-0.217168;-0.00597208;-0.0034366;-0.0634643;-0.0430528;-0.273487;0.0172217;0.27739;-5.3903;0.000220139;-0.000223534;0.000715368;0.00080134;0.000134166;0.000333587;-0.307729;-3.24961;0.000495596;0.000444783;-5.97273;-0.167428;116.591;161.591;0.000406195;0.000220114;-0.000131633;-0.000315389;0.000715384;-0.00163496;-0.00181489;0;0.0199356;-0.0509304;-0.269204;-0.0481589;0.278179;-5.62663;0.00021047;-3.2662e-05;-0.000519295;0.000211928;-0.000520754;0.000366341;0.405299;2.46732;0.00043536;0.000488455;0.406965;2.45721;49.3345;94.3345;6.93561e-05;0.000210251;0.000595618;-0.000661401;-0.000519472;0.00145864;-0.00136281;0;0.0240288;-0.0180738;-0.721618
44000;45;24.1933;-0.000805911;-3.33102e-05;-2.178;24.0941;-0.212996;-0.00559441;-0.00176543;-0.0592921;-0.0430318;-0.2777;0.021178;0.281812;-5.38634;0.000442466;9.18329e-05;0.000570953;0.000618783;0.000394636;0.000112074;-0.77496;-1.29039;0.000361746;0.000149432;-1.56799;-0.637761;59.765;104.765;0.00104962;0.00044246;4.35015e-05;0.000140158;0.000570956;-0.00218099;-0.00193428;0;0.0227976;-0.0508602;-0.274164;-0.0450609;0.282459;-5.62354;0.000191108;-2.47853e-06;-0.000333949;0.00019112;-0.000333961;0.000262541;0.572268;1.74743;0.000306872;0.000350054;0.572283;1.74739;48.7393;93.7393;-0.000130912;0.000190979;0.00050337;-0.000508593;-0.000334076;0.000685956;-0.000722442;0;0.0270449;-0.0176337;-0.714357
45000;46;24.1942;4.32368e-05;1.78708e-06;-2.17888;24.0949;-0.21323;-0.00647796;-0.000994744;-0.0595263;-0.0421479;-0.279907;0.0216499;0.283889;-5.38587;0.000451042;-9.0259e-07;0.000451992;0.000452537;0.000450497;1.01993e-06;-0.997898;-1.00211;0.000301014;1.3599e-06;-1.00453;-0.995492;118.853;163.853;0.000575981;0.000451041;-3.67767e-05;3.49715e-05;0.000451991;-0.000724261;-0.00213381;0;0.0209135;-0.0500906;-0.276511;-0.047609;0.285015;-5.62608;6.01435e-05;6.63184e-05;-0.00038629;6.97869e-05;-0.000395933;0.00023286;0.155695;6.4228;0.00029003;0.00031048;0.176259;5.67346;62.6523;107.652;-1.90857e-05;6.00602e-05;0.000545982;-0.000413559;-0.000386437;0.000326093;8.06031e-05;0;0.0262735;-0.0176035;-0.712856
46000;47;24.1936;-0.00056001;-2.31466e-05;-2.17799;24.0943;-0.21731;-0.00559205;-0.00155683;-0.0636062;-0.0425859;-0.284488;0.0208135;0.288409;-5.38671;0.00016305;-6.53375e-05;0.000183392;0.000239345;0.000107096;6.61244e-05;-0.889079;-1.12476;0.00013844;8.81659e-05;-2.23486;-0.447455;128.269;173.269;0.000801613;0.00016305;-7.93168e-05;-5.13585e-05;0.000183391;-0.000653795;-0.00142663;0;0.0196305;-0.0498721;-0.28244;-0.049339;0.291022;-5.62781;0.000186694;2.876e-05;-0.000423212;0.000188047;-0.000424565;0.000306306;0.441136;2.26688;0.000362372;0.000408408;0.442917;2.25776;54.5161;99.5161;-0.000301885;0.000186589;0.000515233;-0.00045801;-0.000423344;0.00169654;0.000176062;0;0.0207422;-0.0174103;-0.699979
47000;48;24.1944;0.000301524;1.24627e-05;-2.17746;24.0952;-0.220498;-0.00505544;-0.000672208;-0.0667938;-0.0426582;-0.287823;0.0195947;0.291626;-5.38793;0.000417475;-0.000156236;0.000722315;0.000788165;0.000351626;0.00021827;-0.577968;-1.7302;0.000455927;0.000291026;-2.24149;-0.446132;112.201;157.201;0.0010933;0.000417477;-0.000169238;-0.000143238;0.000722313;-0.00141029;-0.000385394;0;0.0191479;-0.049422;-0.286876;-0.0518791;0.295689;-5.63035;0.000364282;-5.36036e-05;-0.00022149;0.000369147;-0.000226355;0.000297751;1.64469;0.608018;0.000347092;0.000397002;1.63083;0.613184;35.4673;80.4673;-4.83715e-05;0.000364148;0.000413904;-0.000521386;-0.000221575;0.000568685;-0.000269022;0;0.0208076;-0.0178283;-0.691829
48000;49;24.1929;-0.00126035;-5.20933e-05;-2.17668;24.0937;-0.219894;-0.0042783;-0.00216477;-0.0661898;-0.0421121;-0.289678;0.0169634;0.293214;-5.39056;0.000494947;-0.000194663;0.000743194;0.000849939;0.000388202;0.000230868;-0.665973;-1.50156;0.000491324;0.000307824;-2.18942;-0.456741;121.089;166.089;0.00103901;0.000494936;-0.000143728;-0.000245585;0.000743203;-0.000944287;-6.14374e-06;0;0.0199575;-0.0485028;-0.289165;-0.0523742;0.297845;-5.63085;0.000335393;-4.53385e-05;-0.000403527;0.000338164;-0.000406299;0.000372231;0.831152;1.20315;0.000430415;0.000496309;0.832304;1.20148;43.485;88.485;0.000484224;0.00033525;0.000444101;-0.00053514;-0.000403625;-0.000228148;-0.000643124;0;0.0195319;-0.0176969;-0.691646
49000;50;24.1944;0.000262766;1.08608e-05;-2.17558;24.0953;-0.226191;-0.00317543;-0.000594076;-0.0724869;-0.0416568;-0.295962;0.0207461;0.299598;-5.38677;0.000383288;-4.55546e-05;0.00119114;0.0011937;0.000380727;0.000406485;-0.321783;-3.10768;0.000704081;0.00054198;-3.13531;-0.318948;95.7465;140.747;0.0012005;0.000383282;2.4209e-05;-0.000115262;0.00119114;-0.00142267;0.000302393;0;0.0180602;-0.0475129;-0.295508;-0.0523122;0.303841;-5.63079;0.000480376;0.000153512;-0.000289606;0.000509853;-0.000319083;0.000414468;1.65872;0.602874;0.000482793;0.000552625;1.59787;0.625834;47.2255;92.2255;0.000659489;0.000480376;0.000460041;-0.000153253;-0.0002897;0.000378884;0.000336911;0;0.0237184;-0.0175055;-0.683857
50000;51;24.1932;-0.000912681;-3.77233e-05;-2.17513;24.0941;-0.227839;-0.00273236;-0.00174988;-0.074135;-0.0416362;-0.300814;0.0220443;0.30448;-5.38548;0.000322641;-2.55127e-05;0.00132144;0.00132209;0.00032199;0.000500048;-0.24416;-4.09568;0.000796071;0.000666731;-4.10598;-0.243547;95.3971;140.397;0.000145633;0.000322632;8.82628e-05;-0.000139175;0.00132143;0.000158283;0.000212623;0;0.0214121;-0.0463773;-0.30025;-0.0511154;0.308081;-5.62959;0.000446104;0.000171579;-0.000366251;0.000480857;-0.000401004;0.00044093;1.21803;0.820999;0.000509838;0.000587907;1.19913;0.833936;54.4806;99.4806;0.000809974;0.000446034;0.000753667;-0.000410983;-0.000366521;0.000667413;4.01869e-06;0;0.0208877;-0.0178744;-0.675589
51000;52;24.1931;-0.000977685;-4.04101e-05;-2.17433;24.0942;-0.226799;-0.00193069;-0.00173299;-0.0730955;-0.0411699;-0.303499;0.0223935;0.307096;-5.38513;0.000321185;0.000118557;0.00139296;0.00140591;0.000308227;0.000548843;-0.230578;-4.33693;0.000853296;0.000731791;-4.56129;-0.219236;81.8692;126.869;0.00047717;0.000321177;6.17523e-05;0.000175301;0.00139296;-0.000177348;-0.0019441;0;0.0295816;-0.0456319;-0.302044;-0.0520629;0.309876;-5.63054;0.000541893;0.000237109;-0.000398588;0.00059829;-0.000454985;0.000526637;1.35953;0.735548;0.000609982;0.000702183;1.31497;0.760476;54.7737;99.7737;0.00084667;0.000541866;0.00080446;-0.000330776;-0.000398884;-6.06112e-05;0.00195945;0;0.0199294;-0.0175297;-0.669489
52000;53;24.192;-0.00210206;-8.68831e-05;-2.17273;24.0932;-0.226953;-0.000332105;-0.00271921;-0.0732488;-0.0410385;-0.311299;0.0242266;0.314925;-5.38329;0.000460166;0.00034988;0.00156193;0.00166365;0.000358447;0.000652601;-0.294613;-3.39428;0.00101102;0.000870135;-4.64127;-0.215458;65.8795;110.879;0.000192464;0.000460024;6.29344e-05;0.000636511;0.00156199;-8.26588e-05;-0.00213571;0;0.0221044;-0.0439567;-0.30967;-0.0473726;0.316341;-5.62585;0.000510963;9.43618e-05;-0.000414975;0.000520481;-0.000424494;0.000472487;1.23131;0.812144;0.000546519;0.000629983;1.22612;0.815579;48.4665;93.4665;0.0013338;0.000510839;0.000694538;-0.00050637;-0.000415212;0.000102806;-0.000108399;0;0.030496;-0.0177684;-0.662494
53000;54;24.1891;-0.00504357;-0.000208463;-2.17085;24.0903;-0.23301;0.00154746;-0.00556117;-0.0793058;-0.0391904;-0.31821;0.0255169;0.321628;-5.382;0.000442275;0.000394833;0.00182191;0.00192692;0.000337271;0.000794823;-0.242753;-4.11942;0.00118825;0.00105976;-5.71326;-0.175031;66.5469;111.547;0.000346241;0.000442076;4.54535e-05;0.000743731;0.00182199;-0.000351553;-0.00416327;0;0.024641;-0.0403705;-0.313585;-0.0481026;0.319811;-5.62658;0.000435668;0.000102779;-0.000493674;0.000446899;-0.000504905;0.000475902;0.882503;1.13314;0.000549865;0.000634536;0.885116;1.1298;52.8819;97.8819;0.00113495;0.000435594;0.000604647;-0.000399554;-0.000493851;0.00113908;0.00140234;0;0.0240264;-0.017333;-0.655372
54000;55;24.1892;-0.00491114;-0.000202989;-2.17026;24.0906;-0.229154;0.0021458;-0.0053373;-0.0754504;-0.0391887;-0.320201;0.0180279;0.323093;-5.38949;0.000301092;0.000304533;0.00143981;0.00151614;0.000224766;0.000645686;-0.209119;-4.78196;0.000944791;0.000860914;-6.74541;-0.148249;64.1863;109.186;0.000392093;0.000300906;-7.42811e-05;0.000682916;0.00143985;0.000478777;-0.00317933;0;0.0234058;-0.0393716;-0.316137;-0.0540948;0.323139;-5.63257;0.000419536;0.000144762;-0.000574656;0.000440185;-0.000595305;0.000517745;0.730065;1.36974;0.000600073;0.000690327;0.739428;1.3524;60.0696;105.07;0.00154797;0.000419532;0.000457725;-0.000168512;-0.00057475;0.000276118;0.00151758;0;0.0207128;-0.0174737;-0.64778
55000;56;24.1908;-0.00326614;-0.000134997;-2.16886;24.0923;-0.229164;0.00353982;-0.00356012;-0.0754601;-0.037934;-0.324893;0.0167769;0.32753;-5.39074;0.000432307;0.000238322;0.00181773;0.00185758;0.000392457;0.000732561;-0.237828;-4.20472;0.00113051;0.000976748;-4.73321;-0.211273;70.3096;115.31;0.000703485;0.00043212;-0.000180757;0.000656821;0.00181774;-0.000748919;-0.00252745;0;0.0205483;-0.0366445;-0.321704;-0.0533079;0.328143;-5.63178;0.000325816;2.79543e-05;-0.000484841;0.000326779;-0.000485804;0.000406291;0.672005;1.48808;0.00047213;0.000541722;0.672655;1.48665;59.0953;104.095;0.0015165;0.000325805;0.000204385;-0.000148619;-0.000484862;-2.58141e-05;0.00387878;0;0.0203739;-0.0171546;-0.640934
56000;57;24.1896;-0.00447434;-0.000184935;-2.16833;24.0911;-0.232853;0.00406836;-0.00476106;-0.0791492;-0.0362185;-0.329452;0.0153629;0.331793;-5.39216;0.000323229;0.000565883;0.00101801;0.00133463;6.61412e-06;0.000664007;-0.31751;-3.14951;0.000887555;0.000885342;;;39.3049;84.3049;0.000948209;0.000322681;-5.88925e-05;0.00119022;0.00101817;-0.00126367;-0.00415667;0;0.0218616;-0.0334985;-0.326574;-0.0564585;0.333107;-5.63493;0.000264344;0.000119213;-0.000468925;0.000283238;-0.000487819;0.000385529;0.563724;1.77392;0.000450363;0.000514038;0.580622;1.72229;71.4984;116.498;0.00150799;0.000264351;0.000265298;-2.69797e-05;-0.000468953;0.00196891;0.00424766;0;0.0209216;-0.0178431;-0.633364
57000;58;24.1892;-0.00493492;-0.000203972;-2.16688;24.0908;-0.237355;0.00552032;-0.00513681;-0.0836509;-0.0359331;-0.333875;0.018707;0.336324;-5.38881;0.000367132;0.00027879;0.0012448;0.00132587;0.000286063;0.000519905;-0.294931;-3.39062;0.000805671;0.000693207;-4.6349;-0.215754;57.0768;102.077;0.00133814;0.000366842;-0.000253784;0.000810898;0.00124481;-0.00158974;-0.00292497;0;0.021879;-0.0316159;-0.331388;-0.0552202;0.337442;-5.6337;0.000218803;-1.62535e-05;-0.000563135;0.000219141;-0.000563472;0.000391307;0.388545;2.5737;0.000466192;0.000521742;0.388912;2.57128;113.084;158.084;0.0018817;0.000218787;-0.000211058;0.000178703;-0.000563157;0.000123492;0.00486067;0;0.0210523;-0.0173692;-0.629344
58000;59;24.1913;-0.00281569;-0.000116379;-2.16373;24.0932;-0.233651;0.00867217;-0.00268946;-0.0799474;-0.0341905;-0.338974;0.0206237;0.341317;-5.3869;0.000399275;0.00048703;0.00138714;0.00158687;0.000199546;0.000693663;-0.28784;-3.47415;0.00099807;0.000924884;-7.95241;-0.125748;51.742;96.742;0.00128203;0.000398849;-7.02283e-05;0.00104374;0.00138726;-0.00181903;-0.00313221;0;0.0224888;-0.0284347;-0.338162;-0.0540758;0.343637;-5.63255;0.000205777;-4.38896e-06;-0.000555057;0.000205802;-0.000555083;0.000380442;0.37073;2.69738;0.000454463;0.000507256;0.370759;2.69717;120.043;165.043;0.00172446;0.000205729;-0.000315944;0.000307403;-0.000555107;0.000710539;0.00491372;0;0.0225116;-0.0172316;-0.623352
59000;60;24.1935;-0.000600733;-2.48297e-05;-2.16365;24.0954;-0.234778;0.00875002;-0.000469451;-0.0810744;-0.0344387;-0.342593;0.0137832;0.344595;-5.39374;0.00057292;0.000168904;0.00128238;0.00132054;0.000534761;0.000392891;-0.446762;-2.23833;0.000766993;0.000523854;-2.46941;-0.404956;62.2771;107.277;0.00136938;0.000572687;-0.000367112;0.00070454;0.00128233;-0.00127314;-0.00239067;0;0.0231074;-0.0273895;-0.343967;-0.0639254;0.350927;-5.6424;0.000242103;-0.000213905;-0.000262783;0.000320542;-0.000341222;0.000330882;0.921304;1.08542;0.000382131;0.000441175;0.939394;1.06452;114.205;159.205;0.00212292;0.000242098;-0.000660418;0.000232833;-0.000262978;-0.00296406;0.00256936;0;0.0217232;-0.0169484;-0.613268
60000;61;24.194;-0.000142745;-5.9e-06;-2.16154;24.096;-0.239674;0.0108625;0.000131796;-0.0859702;-0.0344068;-0.346078;0.0105976;0.347945;-5.39692;0.000390817;0.000266359;0.00159313;0.00164949;0.000334451;0.00065752;-0.245315;-4.07639;0.00100687;0.000876694;-4.93194;-0.20276;63.9103;108.91;0.00222177;0.000390533;-0.000268294;0.00080037;0.00159312;-0.00242544;-0.000385913;0;0.0220737;-0.0256806;-0.34829;-0.0711854;0.356417;-5.64966;0.000250312;-0.000140312;-0.000232455;0.00028813;-0.000270273;0.000279201;1.07682;0.928659;0.000322449;0.000372269;1.06607;0.938023;120.581;165.581;0.00175875;0.000250291;-0.000528047;0.00024761;-0.000232584;-0.00229535;0.0047084;0;0.0200758;-0.0174597;-0.611402
61000;62;24.194;-7.27358e-05;-3.00634e-06;-2.15987;24.0962;-0.241202;0.0125274;0.000336136;-0.087498;-0.0338984;-0.353117;0.0131373;0.354983;-5.39438;0.000307229;0.000191047;0.0014028;0.00143516;0.00027487;0.000580145;-0.219011;-4.56597;0.000879585;0.000773527;-5.22123;-0.191526;66.1745;111.175;0.00207618;0.000307034;-0.000272432;0.000654018;0.00140278;-0.00187864;-0.00123188;0;0.0211985;-0.0236183;-0.355354;-0.0698808;0.362929;-5.64836;0.000204702;-0.000160218;-0.000232301;0.000257148;-0.000284748;0.000270948;0.881192;1.13483;0.000312999;0.000361264;0.903074;1.10733;115.077;160.077;0.00200547;0.000204713;-0.000379474;5.91338e-05;-0.000232361;-0.00254575;0.00403248;0;0.0226043;-0.016976;-0.603874
62000;63;24.1927;-0.00146006;-6.03476e-05;-2.15773;24.095;-0.245433;0.0146674;-0.000907812;-0.0917296;-0.0332422;-0.359979;0.0148091;0.361814;-5.39271;0.000408142;5.82869e-05;0.00163015;0.00163292;0.000405368;0.000613778;-0.250371;-3.99408;0.000981797;0.000818371;-4.02825;-0.248247;73.6151;118.615;0.00161205;0.000407973;-0.000469125;0.000585055;0.00163004;-0.00167454;-0.00111351;0;0.0200179;-0.0210276;-0.360695;-0.0728362;0.368576;-5.65131;0.000349774;-0.000266655;-0.000418021;0.000433297;-0.000501544;0.000467421;0.836738;1.19512;0.00054021;0.000623228;0.863927;1.15751;115.386;160.386;0.00233096;0.000349795;-0.000704266;0.000171292;-0.000418233;-0.00133958;0.00230296;0;0.0266635;-0.0173816;-0.596559
63000;64;24.1926;-0.00149129;-6.16385e-05;-2.15587;24.0951;-0.249561;0.0165306;-0.000814791;-0.095857;-0.0325061;-0.365084;0.0111236;0.366697;-5.3964;0.00035253;0.000327067;0.00223801;0.00229313;0.000297406;0.000997862;-0.15752;-6.34841;0.00143989;0.00133048;-7.71042;-0.129695;67.9457;112.946;0.00153161;0.000352151;-0.000277677;0.000930674;0.00223802;0.000183048;-0.00170487;0;0.0293616;-0.0185748;-0.364631;-0.0793697;0.373631;-5.65784;0.000436496;-0.000178915;-0.000410813;0.000472726;-0.000447043;0.000459884;1.06252;0.941159;0.000531098;0.000613179;1.05745;0.945669;124.497;169.497;0.00224234;0.00043649;-0.00057025;0.000212753;-0.000410959;-0.00181814;0.00188954;0;0.0213848;-0.0170371;-0.589017
64000;65;24.1901;-0.0040159;-0.000165987;-2.15585;24.0926;-0.246038;0.0165465;-0.00331196;-0.0923344;-0.0316811;-0.371326;0.011717;0.372859;-5.3958;0.000605309;0.000639572;0.00199649;0.00224583;0.000355967;0.000944933;-0.303187;-3.2983;0.0013938;0.00125991;-6.3091;-0.158501;51.8035;96.8035;0.00142696;0.000604373;-0.00023315;0.00151108;0.00199667;0.00157122;-0.00192515;0;0.0326529;-0.0168185;-0.368909;-0.0803227;0.377926;-5.6588;0.000261358;-0.000190415;-0.000604136;0.000301399;-0.000644176;0.000472787;0.432615;2.31152;0.000557756;0.000630383;0.467883;2.13729;100.385;145.385;0.00186121;0.000261376;-0.000358847;-2.18376e-05;-0.000604182;-0.00140875;0.00199678;0;0.021614;-0.0171683;-0.582194
65000;66;24.1888;-0.00530288;-0.00021918;-2.15455;24.0914;-0.247741;0.0178482;-0.00450515;-0.0940374;-0.0317535;-0.378639;0.0117418;0.38015;-5.39578;0.00041379;0.000497467;0.00119925;0.00144033;0.000172714;0.000633807;-0.34504;-2.89822;0.000908138;0.000845076;-8.33938;-0.119913;38.7622;83.7622;0.00175773;0.00041281;-0.000491991;0.00148615;0.00119925;-0.0008034;-0.00242333;0;0.021411;-0.0159835;-0.374871;-0.0833119;0.384349;-5.66179;0.000373476;-0.000126183;-0.000613916;0.000389347;-0.000629786;0.000509566;0.608351;1.64379;0.00059383;0.000679422;0.618221;1.61755;118.553;163.553;0.00222313;0.000373458;-0.000483898;0.000231886;-0.000614025;-0.00101622;0.00256075;0;0.0231457;-0.0173831;-0.574685
66000;67;24.1895;-0.00456657;-0.000188747;-2.15396;24.0922;-0.249938;0.0184418;-0.00373549;-0.0962345;-0.0323444;-0.386134;0.0132714;0.387713;-5.39425;0.000521054;0.000486964;0.0017455;0.00191555;0.000351004;0.000782274;-0.298512;-3.34995;0.0011776;0.00104303;-5.45735;-0.183239;52.2292;97.2292;0.00117854;0.000520271;-0.00037012;0.001343;0.00174555;-0.000339831;-0.00431825;0;0.0243812;-0.0156229;-0.382103;-0.0832014;0.391369;-5.66168;0.000143106;-0.000134598;-0.000499999;0.00017014;-0.000527034;0.000348587;0.286213;3.4939;0.000419726;0.000464783;0.322827;3.09764;112.724;157.724;0.0023113;0.000143067;-0.000579419;0.000310509;-0.000500158;-0.0006601;0.00128593;0;0.0246572;-0.0173246;-0.567367
67000;68;24.1885;-0.00562243;-0.000232388;-2.15273;24.0911;-0.255857;0.0196759;-0.00474744;-0.102153;-0.0325545;-0.388717;0.0118965;0.390259;-5.39562;0.000526564;0.000305308;0.00156711;0.00165008;0.000443598;0.000603239;-0.336009;-2.97611;0.000986027;0.000804319;-3.71976;-0.268835;54.0123;99.0123;0.00140851;0.000525848;-0.000624976;0.00123463;0.00156696;0.000242078;-0.00351164;0;0.0214141;-0.0148764;-0.385136;-0.0874435;0.395219;-5.66592;0.000159709;-0.00014201;-0.00046013;0.000190695;-0.000491116;0.000340906;0.347095;2.88105;0.000406182;0.000454541;0.38829;2.5754;113.739;158.739;0.00202226;0.000159667;-0.000606402;0.000322671;-0.000460303;-0.00127174;0.00274263;0;0.0242341;-0.017066;-0.564673
68000;69;24.1917;-0.00242473;-0.00010022;-2.15283;24.0944;-0.25244;0.0195696;-0.00151027;-0.0987358;-0.0311483;-0.397566;0.0115809;0.398952;-5.39594;0.000613202;0.00038959;0.00151038;0.00165594;0.000467642;0.000594149;-0.405992;-2.46311;0.000985774;0.000792199;-3.54104;-0.282403;49.9157;94.9157;0.00214198;0.000612489;-0.000477841;0.00125624;0.00151034;-0.00181025;-0.00267783;0;0.0212233;-0.0131886;-0.396256;-0.090888;0.406759;-5.66936;0.000235241;-0.000103855;-0.000232373;0.000257269;-0.000254401;0.000255835;1.01234;0.987811;0.000295414;0.000341113;1.01127;0.988855;123.094;168.094;0.0021285;0.000235073;-0.000795168;0.000587782;-0.000232684;-0.000714877;0.00129936;0;0.0277934;-0.0173526;-0.552366
69000;70;24.1931;-0.00105223;-4.34912e-05;-2.15127;24.0958;-0.258517;0.0211311;-5.72022e-05;-0.104813;-0.0311649;-0.402055;0.0090792;0.403364;-5.39844;0.000575556;0.000410409;0.0011283;0.00134672;0.000357137;0.000494789;-0.510111;-1.96036;0.000805599;0.000659719;-3.77086;-0.265191;37.7918;82.7918;0.00273887;0.000574702;-0.000549821;0.00137011;0.00112823;-0.00208523;-0.00156271;0;0.0250636;-0.0125261;-0.402521;-0.0973098;0.414306;-5.67578;0.000308546;-2.37021e-05;-0.000367738;0.000309376;-0.000368568;0.000338972;0.839038;1.19184;0.000391908;0.000451962;0.8394;1.19133;131.439;176.439;0.00190266;0.000308412;-0.00056501;0.000517972;-0.000367897;-0.00159406;0.000328278;0;0.0249381;-0.0168859;-0.545288
70000;71;24.1924;-0.00171313;-7.08079e-05;-2.15086;24.0952;-0.263444;0.0215445;-0.000737236;-0.10974;-0.0312922;-0.408143;0.0101785;0.409467;-5.39734;0.000397126;2.98729e-05;0.00126344;0.00126447;0.000396097;0.000434187;-0.31432;-3.18147;0.000746824;0.000578916;-3.19233;-0.313251;67.9236;112.924;0.00262225;0.000396858;-0.000673058;0.000732196;0.00126322;-0.00255269;-0.00104873;0;0.0218622;-0.0118845;-0.409225;-0.0971945;0.420777;-5.67567;0.000284445;-4.44468e-05;-0.000338423;0.000287601;-0.000341578;0.00031459;0.840503;1.18976;0.000363702;0.000419453;0.841977;1.18768;129.537;174.537;0.0023042;0.000284319;-0.000592241;0.000503688;-0.000338597;-0.00127871;0.00154042;0;0.0244706;-0.0171404;-0.54524
71000;72;24.1918;-0.00231615;-9.57319e-05;-2.14981;24.0946;-0.265955;0.0225918;-0.0012768;-0.112251;-0.0318617;-0.416068;0.0119095;0.417456;-5.39561;0.000612995;0.000388245;0.00134918;0.00151609;0.000446086;0.000535003;-0.454345;-2.20097;0.000899683;0.000713337;-3.39865;-0.294234;45.986;90.986;0.0023755;0.00061228;-0.00048131;0.00125716;0.00134914;-0.00116685;9.77602e-05;0;0.0219692;-0.0115739;-0.416075;-0.0985573;0.427746;-5.67703;0.000438169;2.54976e-05;-0.000534332;0.000438837;-0.000535;0.000486918;0.82003;1.21947;0.000563158;0.000649224;0.820255;1.21913;133.542;178.542;0.00199018;0.00043805;-0.000437041;0.000488487;-0.000534427;-0.000353942;0.00128506;0;0.0260096;-0.0168413;-0.537381
72000;73;24.1922;-0.00187486;-7.74926e-05;-2.14877;24.0952;-0.264374;0.0236278;-0.000723932;-0.110671;-0.031525;-0.425282;0.00667371;0.426502;-5.40085;0.000602929;0.000507395;0.00138159;0.00163181;0.000352707;0.000639553;-0.436402;-2.29147;0.000991445;0.000852738;-4.62654;-0.216144;39.591;84.591;0.00220342;0.000601741;-0.000609224;0.00162314;0.00138154;0.000769818;9.00297e-05;0;0.0364829;-0.010146;-0.424196;-0.104399;0.436972;-5.68287;0.000265535;-8.27575e-05;-0.000595657;0.000273416;-0.000603538;0.000438477;0.445786;2.24323;0.00051813;0.000584636;0.453022;2.2074;121.353;166.353;0.00277846;0.000265425;-0.000642186;0.000477153;-0.00059586;-0.00095777;0.00167576;0;0.0212152;-0.0167512;-0.528971
73000;74;24.1904;-0.00375342;-0.000155138;-2.14896;24.0933;-0.265291;0.0234414;-0.00263675;-0.111587;-0.0309748;-0.432492;0.0106041;0.433729;-5.39692;0.00057088;0.00067639;0.00177579;0.00207912;0.000267545;0.000905788;-0.32148;-3.11061;0.00130607;0.00120772;-7.77111;-0.128682;43.5469;88.5469;0.00258117;0.000569427;-0.000483282;0.00183467;0.0017759;-0.000342681;-0.00210748;0;0.028101;-0.00934607;-0.429727;-0.103262;0.442059;-5.68174;0.000304768;6.71124e-07;-0.000692125;0.000304768;-0.000692125;0.000498447;0.440336;2.27099;0.000589862;0.000664596;0.440337;2.27099;123.46;168.46;0.00235761;0.000304665;-0.000451591;0.000453384;-0.000692227;-0.000129284;0.00259064;0;0.0214296;-0.0170488;-0.523178
74000;75;24.1899;-0.00418315;-0.000172899;-2.1475;24.093;-0.265802;0.0249005;-0.00294375;-0.112098;-0.0306728;-0.441367;0.0068137;0.442484;-5.40071;0.00050905;0.000565229;0.00157271;0.00181698;0.000264783;0.000776098;-0.323677;-3.0895;0.00113341;0.0010348;-6.86214;-0.145727;43.4939;88.4939;0.0025986;0.000507842;-0.000525124;0.00165442;0.00157273;-0.00278361;-0.00262814;0;0.0259228;-0.00831242;-0.438228;-0.106795;0.45113;-5.68527;0.000241647;1.93912e-05;-0.000703092;0.000242045;-0.00070349;0.000472768;0.343692;2.90958;0.000567161;0.000630357;0.344063;2.90645;127.393;172.393;0.00229335;0.000241368;-0.000708151;0.000747621;-0.000703343;-0.000694123;0.00186881;0;0.0258399;-0.0167368;-0.515753
75000;76;24.1908;-0.00329604;-0.000136233;-2.14644;24.0939;-0.266778;0.0259624;-0.00196924;-0.113075;-0.0306728;-0.450093;0.00582732;0.451175;-5.40169;0.000553371;0.000400382;0.00144498;0.00159838;0.00039997;0.000599206;-0.38296;-2.61124;0.000960439;0.000798942;-3.99626;-0.250234;45.4176;90.4176;0.002184;0.000552353;-0.000682242;0.00148204;0.00144483;-0.000162918;-0.00167727;0;0.0216869;-0.00793647;-0.447393;-0.113209;0.461562;-5.69168;0.000215866;0.000133961;-0.000363815;0.000245327;-0.000393276;0.000319301;0.593341;1.68537;0.000371981;0.000425735;0.623804;1.60307;144.814;9.81388;0.00230357;0.000215427;-0.000678399;0.000946792;-0.000364036;-5.3395e-05;0.00298145;0;0.0210686;-0.0167865;-0.508364
76000;77;24.1917;-0.0023838;-9.85282e-05;-2.14637;24.0948;-0.272134;0.0260336;-0.00110688;-0.11843;-0.0309113;-0.456542;0.0104373;0.457707;-5.39708;0.000540974;0.000249058;0.00139348;0.00146091;0.000473545;0.000493681;-0.388218;-2.57587;0.000860669;0.000658242;-3.08505;-0.324144;52.7867;97.7867;0.00255304;0.000540299;-0.000690933;0.00118825;0.00139327;-0.00135778;-0.00210664;0;0.0257449;-0.00761828;-0.456042;-0.109255;0.469009;-5.68773;0.000355074;-1.60667e-05;-0.00045495;0.000355393;-0.000455268;0.000405331;0.780469;1.28128;0.000469218;0.000540441;0.780622;1.28103;131.916;176.916;0.00232446;0.00035482;-0.000745175;0.000713632;-0.000455227;-0.000208916;0.00092943;0;0.0208299;-0.0165692;-0.500923
77000;78;24.191;-0.00308878;-0.000127667;-2.14689;24.094;-0.277971;0.0255148;-0.00192755;-0.124267;-0.0287432;-0.46191;0.00683574;0.462854;-5.40068;0.000660163;0.000434942;0.0013249;0.00153993;0.000445135;0.000547397;-0.498274;-2.00693;0.000915071;0.000729862;-3.45946;-0.289062;42.2369;87.2369;0.0028218;0.000659336;-0.000489386;0.00135866;0.00132487;-0.00250657;-0.00212329;0;0.0269779;-0.00578567;-0.462667;-0.114974;0.476774;-5.69345;0.00055422;0.000148934;-0.00041769;0.00057653;-0.00044;0.000508265;1.32687;0.753654;0.000588656;0.000677687;1.31029;0.763187;145.945;10.9446;0.00262638;0.000553772;-0.000659077;0.000957731;-0.000417896;-0.000126664;0.00259158;0;0.0269096;-0.0167258;-0.493821
78000;79;24.1937;-0.000431497;-1.78348e-05;-2.14442;24.0968;-0.281717;0.0279822;0.000916642;-0.128013;-0.0303161;-0.473573;0.00959483;0.474639;-5.39793;0.000446804;-6.41412e-05;0.00185336;0.00185628;0.000443885;0.000706197;-0.241077;-4.14804;0.00111929;0.000941597;-4.1819;-0.239126;74.1255;119.126;0.00291995;0.000446484;-0.00093142;0.00080192;0.00185293;-0.00189875;-0.00118155;0;0.0218985;-0.00568345;-0.47523;-0.11517;0.48902;-5.69365;0.000474289;3.31768e-05;-0.000454236;0.000475473;-0.00045542;0.000465446;1.04415;0.957721;0.000537493;0.000620595;1.04403;0.957826;137.546;2.54609;0.00348549;0.0004741;-0.000547909;0.000614802;-0.000454386;-0.00170819;0.000947433;0;0.0257993;-0.0161835;-0.48637
79000;80;24.1931;-0.00105059;-4.34235e-05;-2.14503;24.0961;-0.281395;0.0273681;0.000244156;-0.127691;-0.0294196;-0.479748;0.00761093;0.480709;-5.39991;0.000499931;0.000417745;0.00169642;0.00182784;0.000368513;0.000729663;-0.294697;-3.39331;0.00111619;0.000972884;-4.96004;-0.201611;49.9425;94.9425;0.00262735;0.000498857;-0.000690196;0.00152436;0.00169627;-0.000275534;-0.000461614;0;0.0243522;-0.0043887;-0.480264;-0.118764;0.49475;-5.69724;0.000369558;6.42547e-05;-0.000513213;0.000374211;-0.000517866;0.000446038;0.720088;1.38872;0.000517262;0.000594718;0.722602;1.38389;136.208;1.20849;0.00336215;0.000369271;-0.000632181;0.000761306;-0.000513411;-0.000729873;0.00205897;0;0.0225977;-0.0166772;-0.480618
80000;81;24.192;-0.00210375;-8.6953e-05;-2.14297;24.0953;-0.280615;0.0294289;-0.000620771;-0.126912;-0.0293694;-0.489131;0.0101398;0.490117;-5.39738;0.000435918;0.000496263;0.00224279;0.00237012;0.00030859;0.00103077;-0.194364;-5.145;0.00148792;0.00137435;-7.68048;-0.1302;54.3326;99.3326;0.00272236;0.00043455;-0.000736838;0.00172714;0.00224265;0.000661194;-0.00144347;0;0.0278119;-0.00347026;-0.487401;-0.118046;0.501505;-5.69652;0.000377067;4.8723e-05;-0.000617411;0.000379449;-0.000619792;0.00049962;0.610724;1.6374;0.000582448;0.00066616;0.612219;1.6334;133.534;178.534;0.00306861;0.000376709;-0.000749961;0.000848202;-0.000617691;0.000288511;0.00114555;0;0.0223709;-0.0163646;-0.476955
81000;82;24.1885;-0.00559679;-0.000231329;-2.14381;24.0916;-0.291054;0.0285931;-0.00432605;-0.137351;-0.0276874;-0.502606;0.0135897;0.503552;-5.39393;0.000357283;0.000487937;0.0019058;0.00204673;0.000216359;0.000915184;-0.187471;-5.33416;0.00129839;0.00122025;-9.45985;-0.10571;49.8011;94.8011;0.00286934;0.000355864;-0.000779995;0.00175391;0.00190562;-0.00135411;-0.0026016;0;0.0207512;-0.00124724;-0.499846;-0.11705;0.513369;-5.69553;0.000219997;0.000199205;-0.00055484;0.000268211;-0.000603054;0.000435633;0.396506;2.52203;0.00051526;0.000580844;0.444755;2.24843;144.272;9.27249;0.00322867;0.00021918;-0.000894637;0.0012939;-0.000555221;-0.000756035;0.00395116;0;0.0212185;-0.0162617;-0.464642
82000;83;24.1916;-0.0025397;-0.000104972;-2.1428;24.0949;-0.28077;0.029597;-0.00104533;-0.127066;-0.0280937;-0.509013;0.00631943;0.509827;-5.4012;0.000429327;0.000425755;0.00159129;0.00173059;0.000290027;0.000720283;-0.269798;-3.70648;0.00107023;0.000960378;-5.96702;-0.167588;46.6252;91.6252;0.00270924;0.000428051;-0.000803369;0.00165345;0.00159106;-0.000927206;-0.0036785;0;0.0202425;-0.000715115;-0.509342;-0.122246;0.523807;-5.70072;0.000320554;2.80336e-05;-0.000430655;0.000321598;-0.000431699;0.000376649;0.74434;1.34347;0.000436462;0.000502198;0.744959;1.34236;135.66;0.660188;0.00386315;0.000319964;-0.00102962;0.00108648;-0.000431185;-0.00180028;0.00345402;0;0.0311556;-0.0163599;-0.463672
83000;84;24.1908;-0.00334623;-0.000138308;-2.14252;24.0939;-0.295857;0.0298799;-0.00201046;-0.142153;-0.0268617;-0.518202;0.0136977;0.519078;-5.39382;0.000384321;0.000119954;0.00199514;0.00200402;0.000375437;0.000814293;-0.192629;-5.19134;0.00123012;0.00108572;-5.33784;-0.187342;63.1232;108.123;0.00389538;0.000383454;-0.00108469;0.00132266;0.00199456;-0.00281079;-0.00322575;0;0.0213851;0.000684947;-0.518961;-0.120387;0.532742;-5.69886;0.000345351;1.63986e-05;-0.000360138;0.000345732;-0.000360519;0.000353125;0.958941;1.04282;0.000407784;0.000470834;0.958985;1.04277;136.124;1.12371;0.0038998;0.000344875;-0.000942226;0.0009757;-0.000360582;-0.00295979;0.00456127;0;0.0207099;-0.0163231;-0.456915
84000;85;24.1892;-0.00495362;-0.000204745;-2.14192;24.0922;-0.305952;0.0304845;-0.00369664;-0.152248;-0.0264707;-0.529067;0.0167046;0.529992;-5.39082;0.000406657;0.000424927;0.00186955;0.00198402;0.000292186;0.000845919;-0.217516;-4.59737;0.00123685;0.00112789;-6.79028;-0.147269;51.352;96.352;0.00468237;0.000405382;-0.000804725;0.00165278;0.00186932;-0.00436872;-0.00216767;0;0.0194482;0.00241761;-0.530567;-0.119736;0.543915;-5.69821;0.0003786;-8.08951e-05;-0.000443765;0.000386482;-0.000451647;0.000419064;0.853155;1.17212;0.000484381;0.000558753;0.855718;1.16861;128.438;173.438;0.00299696;0.000378248;-0.00100423;0.000843199;-0.000444266;-0.00148474;0.0041465;0;0.0239385;-0.0161173;-0.44941
85000;86;24.1925;-0.00166203;-6.86958e-05;-2.14025;24.0957;-0.301118;0.0321538;-0.00018259;-0.147414;-0.0255897;-0.537031;0.0136918;0.537815;-5.39383;0.000365818;-8.86104e-05;0.00155739;0.00156394;0.000359264;0.000602339;-0.234892;-4.25728;0.000945896;0.000803119;-4.35318;-0.229717;68.6745;113.675;0.00480601;0.000365211;-0.00128353;0.00110488;0.00155657;-0.00524357;1.70944e-06;0;0.0219955;0.00422942;-0.539031;-0.122785;0.552854;-5.70126;0.000363438;-0.00010953;-0.000639901;0.000375256;-0.000651719;0.000513487;0.56796;1.76069;0.000600043;0.000684649;0.575794;1.73673;124.386;169.386;0.00322039;0.000363148;-0.000988127;0.00076995;-0.000640384;0.000453071;0.00633872;0;0.0217514;-0.0165445;-0.442228
86000;87;24.1904;-0.00369005;-0.000152518;-2.14043;24.0936;-0.303936;0.0319713;-0.00227034;-0.150232;-0.0258491;-0.544479;0.0134621;0.545259;-5.39406;0.000377787;0.000410009;0.0025984;0.00267168;0.000304503;0.00118359;-0.145392;-6.87793;0.0016888;0.00157812;-8.77392;-0.113974;58.1084;103.108;0.00363586;0.000376208;-0.00100751;0.00182439;0.00259797;-0.000333063;-0.00121703;0;0.0261111;0.00471471;-0.544984;-0.126044;0.559389;-5.70452;0.000344806;-9.99037e-05;-0.000590302;0.00035536;-0.000600856;0.000478108;0.584118;1.71198;0.000558103;0.000637477;0.591423;1.69084;125.743;170.743;0.00347838;0.00034433;-0.00117956;0.000980765;-0.000590993;9.62224e-05;0.00674533;0;0.0241829;-0.0163422;-0.434948
87000;88;24.1893;-0.00485105;-0.000200505;-2.13969;24.0925;-0.305692;0.0327072;-0.00339285;-0.151988;-0.0255349;-0.557707;0.0152043;0.558498;-5.39232;0.000350377;0.000376218;0.0027399;0.00279774;0.000292543;0.0012526;-0.127879;-7.81988;0.00177569;0.00167013;-9.56351;-0.104564;58.1801;103.18;0.0036257;0.000348474;-0.00123861;0.0019872;0.00273921;-0.000628217;-0.00316278;0;0.0376811;0.00586558;-0.556512;-0.129325;0.571371;-5.7078;0.000174411;9.17924e-05;-0.000498535;0.000186708;-0.000510832;0.00034877;0.349847;2.85839;0.000416965;0.000465026;0.365497;2.736;139.182;4.18155;0.00318434;0.000173401;-0.00124014;0.00142462;-0.000499301;0.00206234;0.00768143;0;0.0301362;-0.0158605;-0.427743
88000;89;24.1907;-0.00342272;-0.000141469;-2.13813;24.0941;-0.301817;0.0342715;-0.00177108;-0.148113;-0.0247263;-0.567952;0.0158812;0.568712;-5.39164;0.000129224;0.000667289;0.00263062;0.00279749;-3.76537e-05;0.00141757;-0.049123;-20.3571;0.00187767;0.0018901;74.2953;0.0134598;51.006;96.006;0.00383308;0.000126783;-0.000977713;0.00230818;0.00263036;-0.00182736;-0.00340815;0;0.0245035;0.00746162;-0.567538;-0.130105;0.582308;-5.70858;0.00031971;-5.25839e-05;-0.000347817;0.000323827;-0.000351934;0.000337881;0.91919;1.08791;0.000390264;0.000450508;0.920136;1.0868;130.259;175.259;0.00423767;0.000318786;-0.00146526;0.00136103;-0.00034889;-0.0015023;0.00817921;0;0.0395412;-0.0160168;-0.421367
89000;90;24.1892;-0.00491481;-0.000203141;-2.1374;24.0926;-0.310456;0.035003;-0.003314;-0.156752;-0.0241311;-0.575208;0.0185763;0.576014;-5.38894;0.000328653;0.000369791;0.00213593;0.00220866;0.000255916;0.000976373;-0.153869;-6.49904;0.00139498;0.00130183;-8.63042;-0.115869;52.5527;97.5527;0.00368717;0.000326749;-0.00124942;0.00198608;0.00213522;-0.00204082;-0.00320914;0;0.0205401;0.00826399;-0.574695;-0.133584;0.590073;-5.71206;0.000335476;-0.000139488;-0.000205368;0.000369332;-0.000239224;0.000304278;1.63354;0.612169;0.000354016;0.000405703;1.54388;0.647721;122.588;167.588;0.00438707;0.000334504;-0.00167947;0.00140133;-0.000206769;-0.00272321;0.00732089;0;0.0213927;-0.0162217;-0.41512
90000;91;24.1896;-0.0045603;-0.000188488;-2.13761;24.0928;-0.318792;0.0347884;-0.00308597;-0.165088;-0.0240596;-0.584013;0.0158659;0.584724;-5.39165;0.000275945;0.000171824;0.00176745;0.00178699;0.000256406;0.000765291;-0.156126;-6.40509;0.00111572;0.00102039;-6.96937;-0.143485;54.6397;99.6397;0.00443345;0.000274352;-0.00145215;0.00179338;0.00176641;-0.00352881;-0.00219495;0;0.0195357;0.00909757;-0.584769;-0.139781;0.601312;-5.71826;0.000398138;-0.000316276;-0.000311675;0.000518614;-0.000432151;0.000475383;1.27741;0.782831;0.000549681;0.000633843;1.20008;0.833281;114.995;159.995;0.00367445;0.00039749;-0.00181309;0.0011816;-0.000313269;-0.00182033;0.00808362;0;0.0228667;-0.0160174;-0.407378
91000;92;24.191;-0.00315698;-0.000130486;-2.13555;24.0943;-0.32499;0.0368559;-0.00157648;-0.171286;-0.0238559;-0.594321;0.0179856;0.595071;-5.38953;0.000398942;0.000290851;0.00169331;0.00175566;0.00033659;0.000709536;-0.235599;-4.2445;0.00107594;0.000946048;-5.21603;-0.191717;50.1208;95.1208;0.00465269;0.000397331;-0.00123891;0.00181863;0.00169259;-0.00291053;-0.00142656;0;0.021824;0.010407;-0.594817;-0.142235;0.611675;-5.72071;0.000411696;-0.000377457;-0.000416967;0.000557851;-0.000563122;0.000560486;0.987358;1.0128;0.000647196;0.000747315;0.990639;1.00945;113.795;158.795;0.00361146;0.000411313;-0.00170721;0.000953395;-0.000418354;0.000940984;0.0104708;0;0.0238414;-0.0161204;-0.39956
92000;93;24.192;-0.00209671;-8.66619e-05;-2.13629;24.0954;-0.320639;0.0361117;-0.000519633;-0.166935;-0.0221022;-0.600103;0.0161889;0.600728;-5.39133;9.06466e-05;0.000147261;0.00200837;0.00201961;7.94043e-05;0.000970103;-0.0451344;-22.156;0.00132073;0.00129347;-25.4345;-0.0393167;56.703;101.703;0.0045439;8.90009e-05;-0.00152897;0.00182029;0.00200721;-0.00291406;0.00039532;0;0.0209867;0.0125689;-0.600522;-0.144524;0.617796;-5.723;0.000438175;-0.000359559;-0.000487677;0.000561409;-0.000610911;0.00058616;0.898494;1.11297;0.00067704;0.000781546;0.91897;1.08818;115.596;160.596;0.00417655;0.000437697;-0.00175967;0.00104185;-0.000489162;-0.00132447;0.0103025;0;0.0232431;-0.0159642;-0.399417
93000;94;24.1916;-0.00255702;-0.000105687;-2.13593;24.0949;-0.32376;0.0364716;-0.00099162;-0.170056;-0.0234738;-0.610981;0.013428;0.611579;-5.39409;0.00031422;0.000470915;0.00269741;0.00278709;0.000224542;0.00128127;-0.116489;-8.58447;0.00178792;0.00170837;-12.4123;-0.0805651;54.3076;99.3076;0.00418215;0.000311786;-0.001319;0.00225658;0.00269666;0.000138638;-0.00188311;0;0.0293452;0.0119966;-0.610416;-0.153921;0.629638;-5.7324;0.000390423;-0.000290392;-0.000540523;0.000473578;-0.000623678;0.000548628;0.722305;1.38446;0.000635473;0.000731504;0.75933;1.31695;117.746;162.746;0.00433799;0.000389534;-0.00194379;0.00136454;-0.000542371;-0.00106084;0.00891038;0;0.0252544;-0.0156962;-0.391544
94000;95;24.1899;-0.00416805;-0.000172275;-2.13325;24.0935;-0.327765;0.039156;-0.00242543;-0.174061;-0.0219582;-0.624425;0.016647;0.625033;-5.39087;0.000264434;0.000694864;0.00235507;0.00256495;5.45519e-05;0.0012552;-0.112283;-8.90608;0.00169207;0.0016736;-47.0185;-0.0212682;44.7271;89.7271;0.00435914;0.000261003;-0.00132463;0.00271014;0.00235443;-0.00140071;-0.0020969;0;0.0308649;0.0141808;-0.622237;-0.155516;0.641533;-5.73399;0.000409708;-0.000219472;-0.000303505;0.000471833;-0.00036563;0.000418731;1.34992;0.740784;0.000484803;0.000558308;1.29047;0.774914;119.98;164.98;0.0048916;0.000408128;-0.00222867;0.00179116;-0.000305965;-0.00394849;0.00918633;0;0.0301591;-0.0153372;-0.380396
95000;96;24.1921;-0.00197061;-8.145e-05;-2.13273;24.0958;-0.32396;0.039667;-0.000122511;-0.170256;-0.0225605;-0.630284;0.0107699;0.63078;-5.39675;8.2197e-05;0.000579735;0.00160735;0.0018027;-0.000113149;0.000957922;-0.0511382;-19.5548;0.00124123;0.00127723;15.932;0.0627667;38.3975;83.3975;0.0044583;7.92952e-05;-0.00132134;0.00247791;0.00160665;-0.00183135;7.21375e-06;0;0.0250458;0.0146227;-0.6304;-0.161527;0.650929;-5.74;0.000422592;-0.00035457;-0.000184541;0.000585793;-0.000347742;0.000466768;2.28996;0.436689;0.000544787;0.000622357;1.68456;0.593627;112.565;157.565;0.00377239;0.000421991;-0.00186042;0.00115219;-0.000186209;-0.00345375;0.006804;0;0.0225264;-0.0155707;-0.378326
96000;97;24.1917;-0.00246184;-0.000101754;-2.13317;24.0951;-0.334597;0.0392265;-0.000800049;-0.180893;-0.022083;-0.639192;0.0117336;0.639681;-5.39579;0.000239011;0.0002021;0.00137396;0.00140887;0.000204097;0.000602387;-0.173958;-5.74852;0.000879148;0.000803183;-6.90295;-0.144866;47.681;92.681;0.00416169;0.000237154;-0.00153581;0.00193804;0.0013728;-0.00267095;-0.00044231;0;0.0219417;0.0151193;-0.638977;-0.168181;0.660912;-5.74666;0.000505379;-0.000387084;-0.000387942;0.000649768;-0.000532331;0.000591049;1.30272;0.767625;0.000683607;0.000788066;1.22061;0.819263;115.835;160.835;0.00388323;0.000505017;-0.00170751;0.000934523;-0.000389325;-0.00224813;0.00673749;0;0.0212661;-0.0155441;-0.370919
97000;98;24.1916;-0.00248318;-0.000102636;-2.13309;24.095;-0.339094;0.0393121;-0.00087678;-0.18539;-0.0206972;-0.651102;0.0152196;0.651608;-5.3923;5.82405e-05;3.54752e-06;0.000876421;0.000876436;5.82251e-05;0.000409106;-0.0664526;-15.0483;0.000565882;0.000545474;-15.0526;-0.0664339;52.4496;97.4496;0.00480334;5.67853e-05;-0.00170029;0.001706;0.000874977;-0.00404205;0.000754303;0;0.023229;0.0172861;-0.650076;-0.168601;0.671806;-5.74708;0.000474656;-0.000246327;-0.000558781;0.000530367;-0.000614492;0.000572429;0.84945;1.17723;0.000661579;0.000763239;0.863099;1.15862;121.441;166.441;0.00438543;0.000473972;-0.0016874;0.00119624;-0.000560175;-0.00271176;0.00526563;0;0.0253774;-0.0155321;-0.363786
98000;99;24.1926;-0.001563;-6.46023e-05;-2.13357;24.0959;-0.337214;0.0388317;3.09543e-05;-0.18351;-0.0205795;-0.658299;0.0146517;0.658784;-5.39287;0.00037072;0.000443617;0.00159503;0.00173887;0.000226879;0.000755997;-0.232422;-4.30252;0.00109151;0.001008;-7.66431;-0.130475;41.7253;86.7253;0.00505089;0.000368416;-0.00130759;0.00219268;0.00159428;-0.00333155;0.00187415;0;0.0230027;0.0179061;-0.65735;-0.172084;0.679737;-5.75056;0.000378818;-0.000236838;-0.000609189;0.000432657;-0.000663028;0.000547843;0.62184;1.60813;0.000637238;0.000730457;0.652548;1.53245;120.269;165.269;0.0046281;0.000377788;-0.00192721;0.00145521;-0.000611019;-0.00204688;0.00586904;0;0.0210772;-0.0153583;-0.355858
99000;100;24.1924;-0.00170608;-7.05163e-05;-2.13268;24.0958;-0.338459;0.0397181;-5.16839e-05;-0.184755;-0.020409;-0.668412;0.0130242;0.66885;-5.3945;0.000249242;0.000203075;0.00172422;0.00175167;0.000221794;0.000764937;-0.144554;-6.91784;0.00110132;0.00101992;-7.89772;-0.126619;51.3523;96.3523;0.00547809;0.000247153;-0.00165131;0.00205473;0.00172288;-0.00198433;0.0030199;0;0.0430628;0.0185264;-0.666903;-0.176954;0.690229;-5.75543;0.000152271;-4.07429e-05;-0.000531088;0.000154692;-0.000533509;0.0003441;0.286715;3.48778;0.000416915;0.0004588;0.289951;3.44886;128.247;173.247;0.00434051;0.000151056;-0.00163978;0.00155939;-0.000532433;-0.00167945;0.00527112;0;0.0323367;-0.0153502;-0.348829
100000;101;24.1919;-0.00219652;-9.07872e-05;-2.13205;24.0954;-0.339465;0.0403503;-0.000502299;-0.185761;-0.020357;-0.680754;0.00944525;0.681124;-5.39808;0.000471117;0.000670967;0.00156089;0.00188035;0.000151655;0.000864349;-0.301826;-3.31317;0.0012062;0.00115246;-12.3989;-0.0806523;31.8423;76.8423;0.00488538;0.00046715;-0.00155655;0.00289606;0.0015599;-0.00252936;-0.00102737;0;0.031722;0.0184958;-0.679675;-0.183451;0.70424;-5.76193;0.000273911;-0.000177951;-0.000258923;0.000327876;-0.000312888;0.000320382;1.05789;0.945281;0.000369979;0.000427176;1.0479;0.954287;118.304;163.304;0.00398746;0.000273196;-0.00156391;0.00120874;-0.00026013;-0.000963212;0.00601267;0;0.0241661;-0.0153382;-0.341188
101000;102;24.1912;-0.00296356;-0.000122491;-2.1301;24.0947;-0.348464;0.0423044;-0.00122805;-0.19476;-0.0196574;-0.691028;0.0091686;0.691369;-5.39835;0.000555872;0.000568635;0.00136847;0.00166104;0.000263297;0.000698873;-0.4062;-2.46184;0.00103087;0.000931831;-6.30862;-0.158513;30.248;75.248;0.00458109;0.000552544;-0.00150695;0.00264254;0.0013675;-0.00283537;0.00121126;0;0.0254385;0.0194062;-0.691051;-0.185201;0.715701;-5.76368;0.000400921;-0.000209571;-0.000417799;0.000451448;-0.000468326;0.000459887;0.959602;1.0421;0.000531061;0.000613182;0.963961;1.03739;121.293;166.293;0.00381644;0.000400227;-0.00161474;0.00119674;-0.000419081;-0.00121626;0.00489573;0;0.0206965;-0.0153212;-0.333569
102000;103;24.1895;-0.00458105;-0.000189345;-2.12985;24.093;-0.3556;0.0425546;-0.00293416;-0.201896;-0.0201606;-0.699773;0.0114471;0.700157;-5.39607;0.000216296;2.06191e-05;0.000662239;0.00066319;0.000215345;0.000223923;-0.326614;-3.06172;0.000390658;0.000298564;-3.07966;-0.324711;49.0113;94.0113;0.00392274;0.000214519;-0.00184535;0.00188576;0.000660538;-0.000935985;0.000922411;0;0.0305916;0.019772;-0.698128;-0.189156;0.72357;-5.76763;0.000400609;-0.000190274;-0.00056329;0.00043681;-0.000599491;0.00051815;0.711196;1.40608;0.000600761;0.000690867;0.728636;1.37243;122.394;167.394;0.00408671;0.000400059;-0.0014459;0.00106656;-0.000564318;-0.00206997;0.00457785;0;0.0283253;-0.0152554;-0.333412
103000;104;24.1928;-0.00127668;-5.27682e-05;-2.13159;24.0961;-0.354917;0.0408065;0.000238943;-0.201213;-0.0204643;-0.710811;0.0058113;0.711129;-5.40171;0.000399737;0.000436266;0.00115004;0.00135028;0.000199506;0.000575385;-0.347584;-2.877;0.000841602;0.00076718;-6.76811;-0.147752;32.6329;77.6329;0.0052326;0.000397555;-0.00126346;0.00213472;0.00114934;-0.00550241;0.00284317;0;0.0240176;0.0189039;-0.710482;-0.196902;0.737505;-5.77538;0.000163567;-0.00012363;-0.000516157;0.000185354;-0.000537944;0.000361649;0.316893;3.15564;0.000433821;0.000482199;0.34456;2.90225;121.435;166.435;0.00385245;0.00016276;-0.00152252;0.00127621;-0.000517309;-0.000703325;0.0054065;0;0.0208276;-0.0151426;-0.319939
104000;105;24.1952;0.00106711;4.41063e-05;-2.13231;24.0985;-0.34749;0.0400931;0.00263727;-0.193786;-0.0199264;-0.719679;0.00551891;0.719976;-5.402;0.000286241;0.000140764;0.00103454;0.00106014;0.000260637;0.000399752;-0.276685;-3.61422;0.000637885;0.000533002;-4.06749;-0.245852;45.4229;90.4229;0.00458779;0.000284587;-0.00154422;0.00182449;0.00103336;-0.00379388;0.00171078;0;0.0266491;0.0196722;-0.719976;-0.19789;0.746936;-5.77636;0.000240549;3.0372e-05;-0.000651461;0.000241582;-0.000652494;0.000447038;0.369245;2.70823;0.000534058;0.000596051;0.370244;2.70092;133.428;178.428;0.00454829;0.000239132;-0.00162145;0.00168367;-0.000652776;-0.000802832;0.00416725;0;0.022173;-0.0150545;-0.316563
105000;106;24.1937;-0.000371891;-1.53711e-05;-2.13131;24.0971;-0.352705;0.0410902;0.00120493;-0.199001;-0.0206454;-0.730404;0.00854865;0.730746;-5.39897;0.000259255;0.000465019;0.00118969;0.00138225;6.66956e-05;0.000657775;-0.217919;-4.58886;0.00090009;0.000877034;-20.7247;-0.0482516;31.853;76.853;0.00518494;0.000255949;-0.00168545;0.00261349;0.00118838;-0.0020751;0.00154008;0;0.0399445;0.0190764;-0.730401;-0.200171;0.757574;-5.77865;0.000288903;1.53192e-05;-0.000470468;0.000289211;-0.000470777;0.000379994;0.614075;1.62846;0.000442934;0.000506659;0.614329;1.62779;134.391;179.391;0.00434698;0.000287821;-0.00143908;0.00147082;-0.000471503;-0.000648334;0.00529327;0;0.0265978;-0.015041;-0.312347
106000;107;24.1923;-0.00177631;-7.34191e-05;-2.13095;24.0956;-0.3641;0.0414481;-0.000342954;-0.210396;-0.0215391;-0.746101;0.00858143;0.746461;-5.39894;0.000378538;0.000368872;0.00131909;0.0014465;0.00025113;0.000597686;-0.286968;-3.48471;0.000892481;0.000796914;-5.75997;-0.173612;37.2301;82.2301;0.00439417;0.000375686;-0.00168106;0.00241688;0.00131775;-0.00266951;0.000221363;0;0.0271799;0.0180769;-0.745707;-0.204868;0.773548;-5.78334;0.00035858;-4.52264e-05;-0.000392749;0.000361293;-0.000395462;0.000378377;0.913001;1.09529;0.000437061;0.000504503;0.913598;1.09457;131.249;176.249;0.00366266;0.000357607;-0.00148583;0.00139646;-0.000393852;0.000551909;0.00326731;0;0.0222588;-0.0150167;-0.305547
107000;108;24.1919;-0.0022003;-9.09435e-05;-2.13054;24.0952;-0.365106;0.0418651;-0.000746992;-0.211402;-0.022566;-0.757892;0.00987746;0.758292;-5.39764;0.000287645;0.000158501;0.000619315;0.000682879;0.000224081;0.000229399;-0.464456;-2.15306;0.000401948;0.000305865;-3.04746;-0.328142;29.9243;74.9243;0.00453542;0.000285561;-0.00173125;0.00204763;0.00061783;-0.00236437;0.000704014;0;0.0297463;0.0175012;-0.756475;-0.208245;0.78481;-5.78672;0.00053276;-7.32871e-05;-0.000481314;0.000538029;-0.000486583;0.000512306;1.10689;0.903435;0.000591809;0.000683075;1.10573;0.90438;131.447;176.447;0.00387174;0.000531927;-0.00143871;0.00129352;-0.000482347;-0.000588066;0.00391632;0;0.0257751;-0.0150578;-0.298074
108000;109;24.1928;-0.00132019;-5.45667e-05;-2.13021;24.096;-0.369015;0.0421914;0.000105947;-0.215311;-0.0222651;-0.765599;0.00845195;0.765969;-5.39907;0.000546176;0.000221251;0.0003474;0.000689336;0.000204239;0.000242549;-1.57218;-0.636059;0.000408851;0.000323398;-3.37515;-0.296283;175.126;40.1262;0.00488588;0.000544275;-0.00152003;0.00196288;0.000346269;-0.0034693;0.00209307;0;0.026129;0.0176574;-0.764424;-0.210868;0.793172;-5.78934;0.000416189;-2.60806e-05;-0.000676038;0.000416812;-0.000676661;0.000546736;0.61563;1.62435;0.000637231;0.000728982;0.615984;1.62342;130.841;175.841;0.00403787;0.000415352;-0.00134517;0.00129445;-0.000676943;-0.000510369;0.00485618;0;0.0235319;-0.0148613;-0.291261
109000;110;24.1959;0.00174921;7.22991e-05;-2.13093;24.099;-0.367608;0.0414711;0.00314551;-0.213904;-0.0233812;-0.777842;0.00856741;0.778241;-5.39895;0.00045388;0.000232582;0.000632056;0.000792028;0.000293907;0.000249061;-0.7181;-1.39256;0.000462317;0.000332081;-2.69482;-0.371082;19.0413;64.0413;0.0059245;0.000451906;-0.00153596;0.00200081;0.000630904;-0.00538;0.00266307;0;0.0261133;0.0165452;-0.778068;-0.215145;0.807435;-5.79362;0.000247857;0.000131512;-0.000663002;0.000266465;-0.000681609;0.000474037;0.373841;2.67493;0.000564592;0.00063205;0.390935;2.55797;139.545;4.54454;0.00403806;0.000246234;-0.0015422;0.00180675;-0.000664183;0.000665927;0.00478411;0;0.0236696;-0.0148231;-0.28339
110000;111;24.1924;-0.00174031;-7.19312e-05;-2.13122;24.0954;-0.376786;0.041184;-0.000525203;-0.223082;-0.0255441;-0.793283;0.0135104;0.793809;-5.39401;0.000313088;0.000473181;0.00151825;0.00168183;0.000149507;0.000766162;-0.206217;-4.84927;0.00107486;0.00102155;-11.2492;-0.0888954;39.3401;84.3401;0.00467661;0.000310584;-0.00134387;0.00228805;0.00151746;-0.000587417;0.00263335;0;0.0336251;0.014506;-0.792965;-0.217937;0.822497;-5.79641;0.000476769;-2.2132e-06;-0.000480429;0.000476774;-0.000480434;0.000478604;0.992382;1.00768;0.000552645;0.000638138;0.992382;1.00768;134.857;179.857;0.0038191;0.000475517;-0.00158549;0.00158258;-0.000481686;-0.0016055;0.00507382;0;0.0218042;-0.0148675;-0.275865
111000;112;24.1919;-0.00218302;-9.02296e-05;-2.13029;24.0949;-0.385607;0.0421071;-0.00102763;-0.231904;-0.0264014;-0.801529;0.0138927;0.802084;-5.39363;0.0003732;0.00049132;0.00163893;0.00180726;0.000204869;0.000801193;-0.22771;-4.39155;0.00114269;0.00106826;-8.82151;-0.113359;40.6139;85.6139;0.00541271;0.000370662;-0.00132575;0.00230609;0.00163817;-0.00305677;0.000864533;0;0.0361115;0.0134388;-0.80107;-0.220519;0.830977;-5.79899;0.000496881;-5.76004e-05;-0.000446714;0.000500384;-0.000450218;0.000475301;1.1123;0.899037;0.000549085;0.000633735;1.11143;0.899744;132.04;177.04;0.00408193;0.00049593;-0.00149428;0.00138044;-0.00044783;-0.000890917;0.00407254;0;0.0217452;-0.0148415;-0.26883
112000;113;24.1904;-0.00368321;-0.000152236;-2.12956;24.0933;-0.39369;0.0428386;-0.0025999;-0.239986;-0.0285727;-0.8141;0.0132278;0.814709;-5.39429;0.000613332;0.000909988;0.000965382;0.00171621;-0.000137499;0.000926856;-0.635326;-1.574;0.00119262;0.00123581;12.4816;0.0801179;16.4442;61.4442;0.00569406;0.000609614;-0.00105628;0.00287556;0.000965238;-0.00636837;9.1219e-05;0;0.0282916;0.0108803;-0.8119;-0.226202;0.842892;-5.80468;0.000424621;-8.80017e-05;-0.000586334;0.000432225;-0.000593937;0.000513081;0.724197;1.38084;0.000594902;0.000684108;0.727728;1.37414;128.266;173.266;0.00402687;0.00042392;-0.00136257;0.00118786;-0.000587259;-0.000214844;0.00568517;0;0.02513;-0.0147498;-0.261697
113000;114;24.1911;-0.00305184;-0.00012614;-2.1299;24.0938;-0.399204;0.0424998;-0.00208667;-0.2455;-0.0315686;-0.823817;0.00993177;0.824482;-5.39759;0.000432971;0.000676299;0.000840757;0.00134323;-6.95014e-05;0.000706365;-0.514978;-1.94183;0.000919529;0.000941821;19.3267;0.051742;18.8264;63.8264;0.00513017;0.000430438;-0.000998696;0.00235061;0.000840487;-0.00700835;-0.000306032;0;0.0307246;0.00731175;-0.82202;-0.232309;0.854247;-5.81078;0.000259451;-8.27157e-05;-0.000574076;0.00026758;-0.000582205;0.000424892;0.451945;2.21266;0.000501707;0.000566523;0.459597;2.17582;126.369;171.369;0.00392277;0.000258481;-0.00155924;0.00139504;-0.000575288;-0.000736809;0.00608407;0;0.0243264;-0.0146986;-0.253837
114000;115;24.1924;-0.00175341;-7.24724e-05;-2.13166;24.095;-0.399257;0.0407379;-0.00093968;-0.245553;-0.0334871;-0.831993;0.0123966;0.832759;-5.39512;0.00046071;0.000494561;0.00116454;0.00141962;0.000205637;0.00060699;-0.395614;-2.52772;0.000885857;0.000809319;-6.90349;-0.144854;32.6197;77.6197;0.00519824;0.000458998;-0.000927508;0.00191563;0.00116424;-0.0055944;0.000999138;0;0.0287994;0.00459233;-0.830562;-0.23372;0.862832;-5.8122;0.000234794;-1.58522e-05;-0.000649364;0.000235078;-0.000649648;0.000442363;0.361575;2.76568;0.00052916;0.000589817;0.361855;2.76354;129.797;174.797;0.00425369;0.000233829;-0.00142015;0.00138969;-0.000650373;-0.000537302;0.00708046;0;0.0245653;-0.0147465;-0.253828
115000;116;24.1955;0.00136259;5.6319e-05;-2.13248;24.098;-0.400733;0.0399187;0.00209193;-0.247029;-0.0367038;-0.840331;0.0122456;0.841221;-5.39527;0.000564497;0.000482735;0.00165767;0.00184032;0.000381845;0.00072924;-0.340536;-2.93654;0.00112148;0.000972319;-4.81956;-0.207488;44.0954;89.0954;0.00456644;0.000562948;-0.000861691;0.00182569;0.00165742;-0.00284955;-0.000246632;0;0.0294998;0.000535391;-0.840315;-0.237806;0.873317;-5.81628;0.000305496;-0.000238376;-0.000396476;0.000378791;-0.000469771;0.000424281;0.770528;1.29781;0.000490855;0.000565708;0.806331;1.24019;117.127;162.127;0.00374379;0.00030457;-0.00185705;0.00138143;-0.000398173;-0.00113736;0.00858177;0;0.0260025;-0.0146058;-0.245921
116000;117;24.1939;-0.000216976;-8.96812e-06;-2.13373;24.0962;-0.407168;0.0386679;0.000287383;-0.253464;-0.0416697;-0.850704;0.0116382;0.851803;-5.39588;0.000741896;0.00111069;0.00250939;0.00304503;0.000206263;0.00141938;-0.295648;-3.3824;0.00196487;0.00189251;-14.7628;-0.0677377;42.3983;87.3983;0.00447134;0.000738958;-0.000448514;0.00266714;0.00250991;-0.00136186;0.000661076;0;0.0327814;-0.00615028;-0.850869;-0.240868;0.884327;-5.81934;0.000565299;-0.000433159;-0.000400889;0.000731055;-0.000566645;0.00064885;1.41011;0.709163;0.000751229;0.000865133;1.29015;0.775106;115.561;160.561;0.00377375;0.000564722;-0.00202365;0.00115888;-0.000402844;-0.00212316;0.0105345;0;0.0287964;-0.014654;-0.23414
117000;118;24.1925;-0.00157977;-6.52957e-05;-2.1357;24.0946;-0.409816;0.036702;-0.00130001;-0.256112;-0.0445094;-0.858252;0.0104399;0.859469;-5.39708;0.000448736;0.000927978;0.00280942;0.00313053;0.000127628;0.00150145;-0.159725;-6.26074;0.0020458;0.00200193;-24.5285;-0.0407689;50.9539;95.9539;0.00372571;0.00044654;-0.000439616;0.00229235;0.00280975;-0.0012049;-0.00197683;0;0.037681;-0.0106727;-0.858318;-0.241602;0.891737;-5.82008;0.000643639;-0.000428296;-0.000410689;0.000795695;-0.000562745;0.00067922;1.56722;0.638074;0.00078813;0.000905627;1.41395;0.707238;117.665;162.665;0.0035884;0.000643133;-0.00194883;0.00109384;-0.000412497;-0.00169243;0.0108552;0;0.0240709;-0.0145844;-0.231676
118000;119;24.1923;-0.00180588;-7.46412e-05;-2.13725;24.0942;-0.410169;0.0351512;-0.00167056;-0.256466;-0.0474417;-0.868352;0.0186545;0.869848;-5.38887;0.000274024;0.000856268;0.0028165;0.00307799;1.25392e-05;0.00153273;-0.0972924;-10.2783;0.00204783;0.00204363;-245.47;-0.00407382;53.6005;98.6005;0.0027668;0.000272184;-0.000391884;0.00210125;0.00281679;-5.76324e-05;-0.00321358;0;0.037305;-0.0157396;-0.86743;-0.233413;0.898424;-5.81189;0.000452758;-0.000269324;-0.000597874;0.000517775;-0.00066289;0.000590333;0.757281;1.32051;0.000683372;0.00078711;0.781087;1.28027;120.179;165.179;0.00345744;0.000451864;-0.00190129;0.00136435;-0.000599646;0.00130905;0.0120435;0;0.0272218;-0.0145571;-0.223832
119000;120;24.1897;-0.00439177;-0.000181522;-2.14011;24.0912;-0.418957;0.0322864;-0.00467253;-0.265253;-0.0521576;-0.877192;0.0158772;0.878884;-5.39164;0.000320121;0.000700468;0.00169043;0.00198512;2.54325e-05;0.000979841;-0.189373;-5.28058;0.00131501;0.00130646;-78.0542;-0.0128116;40.7183;85.7183;0.00268084;0.000318301;-0.000633619;0.00203273;0.00169047;-0.00215526;-0.00183447;0;0.0359881;-0.0226393;-0.875773;-0.237274;0.907629;-5.81575;0.000333902;-4.64755e-05;-0.000703856;0.000335979;-0.000705933;0.000520956;0.47439;2.10797;0.000614058;0.000694608;0.475936;2.10112;127.782;172.782;0.0030011;0.000333323;-0.00116933;0.00107754;-0.000704539;0.00207756;0.0105647;0;0.0208881;-0.0145687;-0.216435
120000;121;24.1918;-0.0023346;-9.64944e-05;-2.14226;24.0931;-0.419046;0.0301392;-0.00279931;-0.265342;-0.0546327;-0.880154;0.00804804;0.881884;-5.39947;0.000370841;0.00072212;0.00214134;0.00239851;0.00011367;0.00114242;-0.173182;-5.77427;0.00156249;0.00152322;-21.1006;-0.047392;48.9232;93.9232;0.00222233;0.000369312;-0.000450243;0.00189241;0.0021415;-0.00054071;-0.0026673;0;0.0371341;-0.0264177;-0.880011;-0.249728;0.91514;-5.8282;0.000273753;4.48034e-05;-0.000550729;0.00027618;-0.000553157;0.000414669;0.497073;2.01178;0.000487638;0.000552892;0.49928;2.00288;135.131;0.131016;0.00314974;0.000272819;-0.00127695;0.00136764;-0.000551544;0.00232349;0.0105678;0;0.0226156;-0.0143429;-0.208489
121000;122;24.1932;-0.000918344;-3.79573e-05;-2.14436;24.0944;-0.416526;0.0280402;-0.00152026;-0.262822;-0.0575709;-0.886119;0.0106843;0.888052;-5.39684;0.000173009;0.000718773;0.0017046;0.00198908;-0.00011147;0.00105027;-0.101496;-9.85264;0.00136473;0.00140037;17.844;0.0560411;42.5891;87.5891;0.00273257;0.000171452;-0.000470147;0.00190587;0.00170475;-0.000741215;0.000405322;0;0.0335244;-0.0307835;-0.885966;-0.251533;0.921495;-5.83001;0.00027388;0.000151671;-0.000641608;0.000298353;-0.000666081;0.000482217;0.426865;2.34266;0.000570149;0.000642956;0.447923;2.23253;139.622;4.62227;0.0041559;0.00027305;-0.000992957;0.00129735;-0.000642089;-0.000659461;0.0109388;0;0.031561;-0.0142581;-0.201225
122000;123;24.1937;-0.000422054;-1.74445e-05;-2.14635;24.0945;-0.427768;0.0260502;-0.00139609;-0.274064;-0.0622811;-0.894587;0.00851032;0.896793;-5.39901;7.88543e-05;0.000629489;0.00201524;0.00220189;-0.000107792;0.00115484;-0.039129;-25.5565;0.00150514;0.00153979;20.4271;0.0489546;50.3819;95.3819;0.00297955;7.75695e-05;-0.000465398;0.00172226;0.00201533;4.79443e-06;0.00182743;0;0.0348108;-0.0382999;-0.89407;-0.264146;0.933061;-5.84262;0.000501035;0.000153822;-0.000424112;0.00052594;-0.000449018;0.000487479;1.18137;0.846473;0.000563476;0.000649972;1.17131;0.853743;146.289;11.2886;0.00349668;0.000500814;-0.000373692;0.000681825;-0.00042417;-0.000708337;0.0102971;0;0.0261523;-0.0139302;-0.194287
123000;124;24.1933;-0.000862115;-3.56333e-05;-2.14789;24.0938;-0.431985;0.024513;-0.00205019;-0.278281;-0.0663204;-0.900357;0.00939826;0.902845;-5.39812;0.000241801;0.000572553;0.00176577;0.0019569;5.06653e-05;0.000953119;-0.136938;-7.30258;0.00128805;0.00127083;-38.6242;-0.0258905;47.5198;92.5198;0.00461566;0.000240537;-0.000546465;0.00168987;0.00176578;-0.00102547;0.00709601;0;0.0403926;-0.0437447;-0.898395;-0.270443;0.939237;-5.84892;0.000463065;0.00011721;-0.000634226;0.000475446;-0.000646606;0.000561026;0.730127;1.36963;0.000650324;0.000748035;0.735294;1.36;136.972;1.97199;0.00304373;0.000462816;-0.000481329;0.000716407;-0.000634335;-0.000462723;0.00807987;0;0.0241252;-0.0140329;-0.187815
124000;125;24.1926;-0.00151656;-6.26832e-05;-2.14835;24.0931;-0.436853;0.0240531;-0.00283613;-0.283149;-0.0703523;-0.904401;0.00240135;0.907136;-5.40512;0.00016754;0.00044941;0.00206718;0.00216814;6.65854e-05;0.00105077;-0.0810477;-12.3384;0.00142375;0.00140103;-32.5617;-0.0307109;54.587;99.587;0.00428034;0.000166381;-0.000690821;0.00158748;0.00206704;0.00228899;0.00634227;0;0.0417975;-0.0489303;-0.901723;-0.283665;0.946554;-5.86214;0.000471158;0.000105065;-0.000655688;0.00048087;-0.000665401;0.000573135;0.718569;1.39165;0.000664652;0.00076418;0.722677;1.38374;135.517;0.517217;0.00254027;0.000470949;-0.000443349;0.000654098;-0.000655781;0.000239537;0.00892731;0;0.0268828;-0.0138545;-0.184335
125000;126;24.1911;-0.00304366;-0.000125802;-2.14966;24.0913;-0.443935;0.0227396;-0.00461615;-0.290231;-0.0761409;-0.9155;0.00613551;0.918681;-5.40138;0.00016474;0.000590899;0.00180578;0.0019964;-2.58852e-05;0.00101114;-0.0912294;-10.9614;0.00133965;0.00134819;77.1251;0.0129659;47.7739;92.7739;0.00380749;0.000163448;-0.000533045;0.001713;0.00180581;0.000173406;0.00437055;0;0.0487134;-0.0557669;-0.911457;-0.285307;0.956694;-5.86378;0.000438739;8.1518e-05;-0.000695813;0.000444566;-0.000701641;0.000573103;0.630541;1.58594;0.000667288;0.000764138;0.633609;1.57826;132.186;177.186;0.0022164;0.000438559;-0.000440636;0.000604265;-0.000695907;0.00111764;0.00773169;0;0.0277057;-0.0130359;-0.173158
126000;127;24.1911;-0.00304729;-0.000125952;-2.15018;24.0912;-0.446388;0.0222242;-0.00471112;-0.292684;-0.0827169;-0.921997;0.00647047;0.925723;-5.40105;-6.68903e-06;0.000574666;0.00151667;0.00170914;-0.000199157;0.000954148;;;0.00121128;0.0012722;8.58189;0.116524;43.7797;88.7797;0.004053;-7.91877e-06;-0.00052258;0.00167024;0.0015167;0.000422196;0.00495407;0;0.0433471;-0.0621113;-0.917195;-0.287043;0.963067;-5.86552;0.000367909;2.50048e-05;-0.000710174;0.000368489;-0.000710753;0.000539621;0.518056;1.93029;0.000633459;0.000719495;0.518449;1.92883;130.237;175.237;0.00324284;0.000367576;-0.000765736;0.000816599;-0.000710467;-0.00120984;0.00863334;0;0.022974;-0.0129244;-0.171819
127000;128;24.1893;-0.00482375;-0.000199377;-2.14981;24.0893;-0.454465;0.0225941;-0.00661295;-0.300761;-0.0885673;-0.926245;0.00363791;0.930477;-5.40388;0.000248535;0.000371732;0.000281799;0.000637271;-0.000106937;0.000372104;-0.881956;-1.13384;0.000464614;0.000496139;5.95932;0.167804;8.71362;53.7136;0.00487068;0.000247662;-0.000629437;0.00137287;0.00028167;-0.00328984;0.0053365;0;0.034035;-0.0682127;-0.92155;-0.290557;0.968675;-5.86903;0.000265917;-1.40007e-05;-0.000634614;0.000266135;-0.000634831;0.000450483;0.419022;2.38651;0.000534494;0.000600644;0.419221;2.38538;128.27;173.27;0.00271853;0.000265533;-0.00090334;0.00087614;-0.000635022;-0.00115151;0.00964737;0;0.0233311;-0.0128286;-0.165651
128000;129;24.1921;-0.00201595;-8.33241e-05;-2.14983;24.0922;-0.450198;0.0225671;-0.00371581;-0.296494;-0.0969319;-0.933035;-0.00284677;0.938061;-5.41037;0.00039886;0.000829267;0.000549769;0.00130701;-0.000358378;0.000832692;-0.725505;-1.37835;0.00101217;0.00111026;3.64701;0.274198;15.9096;60.9096;0.0034701;0.000397626;-0.000118496;0.00177689;0.000550105;-0.00298044;0.00350692;0;0.0369188;-0.0769861;-0.931207;-0.29527;0.979927;-5.87374;0.000307235;-0.000153227;-0.000523666;0.000334591;-0.000551022;0.000442807;0.586699;1.70445;0.000516374;0.000590409;0.607218;1.64686;121.814;166.814;0.00328831;0.000306885;-0.00115626;0.000850637;-0.000524323;-0.00170201;0.0119032;0;0.0309965;-0.0121677;-0.1565
129000;130;24.1908;-0.00329217;-0.000136073;-2.15214;24.0906;-0.457418;0.0202601;-0.0053393;-0.303714;-0.103544;-0.939763;0.00247674;0.945453;-5.40504;0.000490093;0.000824539;0.000471994;0.00130563;-0.000343546;0.000824589;-1.03835;-0.96307;0.00100471;0.00109945;3.80046;0.263126;16.8391;61.8391;0.00429753;0.000489263;0.000118843;0.00153025;0.000472327;-0.0043486;0.00430107;0;0.0422325;-0.0858448;-0.938371;-0.29024;0.985976;-5.86871;0.000262522;-0.000176347;-0.000529288;0.000300021;-0.000566787;0.000433404;0.49599;2.01617;0.00050829;0.000577872;0.529336;1.88916;118.487;163.487;0.00369033;0.000262318;-0.00101429;0.000662263;-0.000529787;-0.00117022;0.0149974;0;0.0240314;-0.0119628;-0.15075
130000;131;24.1932;-0.000945349;-3.90735e-05;-2.15518;24.0927;-0.452513;0.0172242;-0.00316148;-0.298809;-0.10841;-0.942901;-0.00219017;0.949115;-5.40971;0.000385108;0.000949096;0.000500163;0.00139347;-0.000508203;0.000950838;-0.769964;-1.29876;0.0011369;0.00126778;2.74197;0.364702;20.7125;65.7125;0.00419743;0.000384408;0.000381168;0.00151696;0.000500541;-0.00327189;0.00553571;0;0.0403864;-0.0933588;-0.941181;-0.299112;0.991971;-5.87759;0.000380299;-7.25615e-05;-0.000601406;0.000385633;-0.000606741;0.000496187;0.632349;1.5814;0.000577668;0.000661582;0.635582;1.57336;121.665;166.665;0.00311316;0.000380267;-0.000407243;0.000262449;-0.000601487;-0.000739005;0.0117559;0;0.0271278;-0.011712;-0.144523
131000;132;24.1926;-0.00155499;-6.42714e-05;-2.15867;24.0917;-0.46003;0.0137332;-0.00422856;-0.306326;-0.113941;-0.94644;-0.000913087;0.953274;-5.40843;0.000342515;0.000865678;0.0011105;0.00167353;-0.000220515;0.00094702;-0.308434;-3.24219;0.00119598;0.00126269;7.58918;0.131766;38.1958;83.1958;0.00373069;0.000341876;0.000306883;0.00142404;0.00111082;-0.00153863;0.00527144;0;0.0409274;-0.102704;-0.943206;-0.305546;0.996767;-5.88402;0.000418348;0.000134507;-0.000751788;0.000433611;-0.00076705;0.000600331;0.556471;1.79704;0.000702056;0.000800441;0.565297;1.76898;70.1332;115.133;0.00192813;0.000418354;0.000353011;-8.42524e-05;-0.000751841;0.00234293;0.0113833;0;0.0216847;-0.0114159;-0.136843
132000;133;24.1943;0.000168023;6.9448e-06;-2.16253;24.0931;-0.456051;0.00987125;-0.00276902;-0.302347;-0.118703;-0.947998;-0.000453329;0.955401;-5.40797;0.000163468;0.000965047;0.001447;0.00196419;-0.000353722;0.00115896;-0.11297;-8.85191;0.0014419;0.00154528;5.55292;0.180085;44.5752;89.5752;0.00213617;0.000162781;0.000411259;0.00151812;0.00144738;-0.000173436;0.0022248;0;0.0425364;-0.11072;-0.944293;-0.307914;0.999379;-5.88639;0.000428459;6.31461e-05;-0.000588334;0.000432366;-0.000592241;0.000512303;0.728258;1.37314;0.000593952;0.000683071;0.73005;1.36977;74.0202;119.02;0.000977881;0.000428461;0.00012793;-1.70411e-06;-0.000588341;0.00111735;0.00850398;0;0.0228112;-0.0114896;-0.129432
133000;134;24.1939;-0.000201081;-8.31117e-06;-2.16472;24.0925;-0.459661;0.00768466;-0.00340465;-0.305958;-0.124007;-0.950138;-0.00577032;0.958214;-5.41329;7.80971e-05;0.000655313;0.00198116;0.00218499;-0.000125727;0.00115536;-0.0394198;-25.3679;0.00150032;0.00154048;17.3788;0.0575412;61.7276;106.728;0.00207188;7.77381e-05;0.000238665;0.00107117;0.00198135;0.000562306;0.00183685;0;0.0421167;-0.118;-0.946657;-0.314857;1.0046;-5.89333;0.000539538;-0.000140987;-0.000664108;0.000555832;-0.000680401;0.000618117;0.812426;1.23088;0.000714946;0.000824156;0.816918;1.22411;63.2483;108.248;0.0011478;0.000539529;-8.81669e-05;-0.000193871;-0.000664102;0.000175669;0.00756872;0;0.0272931;-0.0112651;-0.122111
134000;135;24.1928;-0.00132918;-5.4938e-05;-2.16701;24.091;-0.465505;0.00539152;-0.00485586;-0.311801;-0.128621;-0.95534;-0.00715062;0.963986;-5.41467;0.000356091;0.000683404;0.0016839;0.00197278;6.72037e-05;0.000952789;-0.211469;-4.72884;0.00129337;0.00127039;-29.3553;-0.0340655;57.8278;102.828;0.00277765;0.000355799;0.000341225;0.00102513;0.00168407;0.00101706;0.0067342;0;0.0458862;-0.12548;-0.951106;-0.320889;1.01159;-5.89936;0.000469441;-0.000135335;-0.000588922;0.000486472;-0.000605954;0.000546213;0.797118;1.25452;0.000631969;0.000728284;0.80282;1.24561;112.073;157.073;0.000548224;0.000469449;-0.000232727;-3.784e-05;-0.00058894;0.00135481;0.00959273;0;0.0291352;-0.0112474;-0.11459
135000;136;24.1918;-0.00235403;-9.72977e-05;-2.17152;24.0896;-0.467953;0.000877617;-0.00633894;-0.314249;-0.134772;-0.960748;-0.00474856;0.970167;-5.41227;0.000165125;0.000717111;0.0014455;0.00176661;-0.000155982;0.000961296;-0.114234;-8.75397;0.00123303;0.00128173;11.3257;0.0882945;61.1973;106.197;0.00161198;0.000165021;0.000584152;0.0008499;0.00144559;0.00158982;0.00458623;0;0.0529825;-0.134927;-0.956008;-0.318091;1.01653;-5.89657;0.000443617;-0.000189634;-0.000596113;0.000477124;-0.00062962;0.000553372;0.744184;1.34375;0.000640998;0.000737829;0.757798;1.31961;60.0034;105.003;0.00106072;0.000443603;-0.000125802;-0.000253532;-0.000596103;-0.000774512;0.0110634;0;0.0292547;-0.0111653;-0.106984
136000;137;24.1933;-0.000801239;-3.31171e-05;-2.1756;24.0907;-0.468273;-0.00319984;-0.00515366;-0.314569;-0.139674;-0.961923;-0.00675466;0.972035;-5.41427;0.000213273;0.000736935;0.00214493;0.00239397;-3.5764e-05;0.00121486;-0.0994313;-10.0572;0.00160803;0.00161982;66.9378;0.0149392;73.8357;118.836;0.00124335;0.000213344;0.000840635;0.000633435;0.00214485;0.000903914;0.00215822;0;0.0524092;-0.143555;-0.95789;-0.317489;1.01929;-5.89596;0.000485111;-0.000120306;-0.000512586;0.000499412;-0.000526888;0.00051315;0.946398;1.05664;0.000592606;0.0006842;0.947853;1.05502;71.2902;116.29;0.00193617;0.00048511;-0.000114232;-0.000126385;-0.000512586;-0.000554731;0.0145388;0;0.0303464;-0.0112171;-0.106607
137000;138;24.1917;-0.00238096;-9.84109e-05;-2.17957;24.0888;-0.469825;-0.00717011;-0.00712923;-0.316121;-0.144614;-0.965865;-0.0114636;0.976698;-5.41898;0.000244359;0.000864664;0.00119471;0.00170616;-0.000267093;0.000986628;-0.204535;-4.88915;0.00123613;0.0013155;6.38788;0.156546;67.2509;112.251;0.000668627;0.000244514;0.00106731;0.00066221;0.00119451;0.000568284;0.00337732;0;0.0438225;-0.153071;-0.960462;-0.323764;1.02506;-5.90224;0.000549075;0.000105206;-0.000601454;0.000558616;-0.000610995;0.000584806;0.912913;1.09539;0.000675501;0.000779741;0.914273;1.09377;52.7225;97.7225;0.00114432;0.000549063;0.000399089;-0.000189016;-0.000601528;0.000971219;0.0168642;0;0.0242768;-0.0111518;-0.0972407
138000;139;24.192;-0.00211615;-8.74656e-05;-2.18154;24.0888;-0.471083;-0.0091354;-0.00706575;-0.317379;-0.148882;-0.965892;-0.0136879;0.977395;-5.42121;0.000378008;0.000576135;0.00126226;0.00154636;9.39062e-05;0.000726226;-0.29947;-3.33923;0.00100107;0.000968302;-16.4671;-0.0607273;84.5301;129.53;0.000256513;0.000378163;0.00130435;-0.000151441;0.00126157;0.000593589;0.00487718;0;0.0396715;-0.161557;-0.960423;-0.32769;1.02757;-5.90617;0.000435188;8.81555e-05;-0.000402124;0.000444369;-0.000411305;0.000427837;1.08222;0.924024;0.000494146;0.000570449;1.08039;0.925593;50.1276;95.1276;0.000271377;0.000435068;0.000672799;-0.000496978;-0.000402346;0.0010129;0.0115921;0;0.0341955;-0.0111922;-0.0882626
139000;140;24.1913;-0.00285383;-0.000117956;-2.18501;24.0878;-0.47224;-0.0126051;-0.00814374;-0.318536;-0.153463;-0.970761;-0.00381473;0.982824;-5.41134;0.000729844;0.00121902;0.000817243;0.00199334;-0.000446256;0.0012198;-0.893057;-1.11975;0.00149994;0.0016264;4.46681;0.223873;70.9807;115.981;0.000879278;0.000730542;0.00213915;0.000298959;0.000815699;-0.00540096;0.0029072;0;0.0438936;-0.168583;-0.963039;-0.323075;1.02968;-5.90155;0.000377259;0.000148158;-0.000624947;0.000398703;-0.000646391;0.000522547;0.603665;1.65655;0.000609007;0.000696729;0.616813;1.62124;59.6656;104.666;-0.000310717;0.000377192;0.000689637;-0.000393864;-0.000625174;0.00139201;0.00983136;0;0.0257585;-0.0112571;-0.0849757
140000;141;24.192;-0.00207049;-8.55782e-05;-2.18733;24.0883;-0.4727;-0.0149337;-0.00757739;-0.318996;-0.15893;-0.971722;-0.00455688;0.984644;-5.41208;0.0006196;0.00103936;0.00103694;0.00188837;-0.000231825;0.0010601;-0.597526;-1.67357;0.00134287;0.00141346;8.14566;0.122765;76.6256;121.626;0.00151974;0.00062014;0.00209745;-1.83033e-05;0.00103528;-0.00645017;0.00587254;0;0.0467499;-0.175993;-0.963817;-0.327424;1.03302;-5.9059;0.000391759;5.99451e-05;-0.00070456;0.000395027;-0.000707828;0.000551428;0.556034;1.79845;0.000645214;0.000735237;0.558084;1.79185;54.463;99.463;-0.000631661;0.00039156;0.000753237;-0.000634107;-0.000704842;0.00027767;0.00928702;0;0.024143;-0.0111268;-0.0778465
141000;142;24.1921;-0.00205872;-8.50918e-05;-2.18952;24.0881;-0.4749;-0.0171182;-0.00780731;-0.321196;-0.163241;-0.972346;-0.0112192;0.986018;-5.41874;0.000727333;0.0007559;0.000975619;0.0016175;8.54498e-05;0.000766026;-0.745509;-1.34137;0.00105101;0.00102137;-18.9293;-0.0528282;75.8658;120.866;0.000130509;0.000727557;0.00186364;-0.000351567;0.00097417;-0.00427475;0.00435371;0;0.0448472;-0.183354;-0.965537;-0.331989;1.03735;-5.91046;0.000419153;-6.64426e-05;-0.00066199;0.000423221;-0.000666058;0.00054464;0.633172;1.57935;0.000634083;0.000726186;0.635412;1.57378;45.852;90.852;-0.000974282;0.000418788;0.000723442;-0.000857182;-0.000662249;2.45349e-05;0.00901222;0;0.0258717;-0.0111498;-0.0708079
142000;143;24.1921;-0.00205873;-8.50921e-05;-2.19265;24.0878;-0.473791;-0.0202484;-0.0080702;-0.320087;-0.167955;-0.972294;-0.0114308;0.98676;-5.41895;0.000551035;0.000943921;0.0014468;0.00204371;-4.58727e-05;0.00104479;-0.380865;-2.6256;0.00137802;0.00139305;44.5517;0.0224458;79.8048;124.805;-0.00154312;0.00055148;0.00191806;-2.93515e-05;0.00144541;-0.000718883;0.00179766;0;0.044448;-0.190242;-0.965682;-0.332056;1.03875;-5.91053;0.00038854;1.30349e-05;-0.000650434;0.000388704;-0.000650598;0.000519651;0.597356;1.67404;0.000606358;0.000692868;0.597457;1.67376;49.3255;94.3255;-0.000705781;0.000388023;0.00104273;-0.00101773;-0.000650978;0.000149796;0.00959346;0;0.0233354;-0.0111842;-0.0633498
143000;144;24.1908;-0.00327418;-0.00013533;-2.19711;24.0861;-0.476843;-0.0247107;-0.00975777;-0.323139;-0.172281;-0.975104;-0.00824114;0.990241;-5.41576;0.000626079;0.00097291;0.00128553;0.00198307;-7.14584e-05;0.00102727;-0.487018;-2.05331;0.0013465;0.00136969;27.7514;0.0360342;78.7232;123.723;-0.000637028;0.000626545;0.00206389;-0.000117356;0.00128388;-0.0024231;0.00298276;0;0.0452523;-0.198535;-0.968058;-0.329864;1.04181;-5.90834;0.000312809;-7.31156e-05;-0.000485025;0.000319454;-0.000491671;0.000405562;0.644933;1.55055;0.000471808;0.00054075;0.649732;1.5391;41.9564;86.9564;-0.00105005;0.00031208;0.00106319;-0.00121033;-0.000485588;-0.00168022;0.0121501;0;0.0225224;-0.0111673;-0.05648
144000;145;24.1906;-0.00356468;-0.000147337;-2.20281;24.0853;-0.476402;-0.0304064;-0.010561;-0.322698;-0.180571;-0.977863;-0.0112178;0.994459;-5.41874;0.000456125;0.0013464;0.00186776;0.00268212;-0.000358243;0.00152018;-0.24421;-4.09484;0.00191868;0.00202691;7.48689;0.133567;79.043;124.043;-0.00218511;0.000456967;0.0023383;0.00035589;0.00186593;-0.00124634;-0.000745712;0;0.0413743;-0.213958;-0.970779;-0.33053;1.04759;-5.909;0.000404825;0.000240372;-0.00036704;0.000473561;-0.000435775;0.000454668;1.10295;0.906663;0.000525156;0.000606224;1.08671;0.920211;60.6061;105.606;-0.000700211;0.000403862;0.00188809;-0.00140862;-0.000368794;-0.000314029;0.0126619;0;0.0294014;-0.0110895;-0.0489755
145000;146;24.1898;-0.00427056;-0.000176512;-2.20604;24.0843;-0.477534;-0.0336408;-0.0115885;-0.32383;-0.184495;-0.980277;-0.00614308;0.997507;-5.41366;0.000279811;0.000704834;0.000909442;0.00136657;-0.000177319;0.000771946;-0.307673;-3.2502;0.000975541;0.00102926;7.70684;0.129755;88.6821;133.682;-0.00169492;0.000279945;0.00188939;-0.000478974;0.000907907;-0.00093341;0.00330495;0;0.0460826;-0.221208;-0.971636;-0.329205;1.04947;-5.90768;0.00033121;0.000184774;-0.000463366;0.000372076;-0.000504232;0.000438154;0.714791;1.39901;0.000507851;0.000584206;0.737907;1.35519;58.4559;103.456;-0.00162663;0.000329805;0.00205481;-0.00168675;-0.000465461;0.00231183;0.0101192;0;0.02295;-0.0110845;-0.04186
146000;147;24.1902;-0.00388882;-0.000160734;-2.20837;24.0845;-0.475429;-0.03597;-0.0113769;-0.321725;-0.190229;-0.982274;-0.00351337;1.00053;-5.41103;-0.000103444;0.000653291;0.000828304;0.00116482;-0.000439959;0.000802389;0.124886;8.00728;0.000957506;0.00106985;2.64756;0.377706;99.1793;144.179;-0.0012398;-0.000103368;0.00183208;-0.000524396;0.00082684;-0.000415711;0.00387362;0;0.0468383;-0.228801;-0.972781;-0.326741;1.05139;-5.90522;0.000357944;3.43258e-05;-0.000490647;0.00035933;-0.000492034;0.000425682;0.729534;1.37074;0.000493521;0.000567576;0.730296;1.36931;48.3783;93.3783;-0.00226286;0.000356486;0.0017755;-0.00170833;-0.000492224;0.00150581;0.00819621;0;0.024581;-0.010991;-0.0343169
147000;148;24.1918;-0.00228753;-9.45491e-05;-2.21039;24.086;-0.472098;-0.0379939;-0.00988867;-0.318394;-0.192772;-0.978517;-0.0111962;0.997387;-5.41872;0.000293002;0.000922301;0.00100241;0.00163586;-0.000340451;0.000988157;-0.292297;-3.42118;0.00122;0.00131754;4.80499;0.208117;86.7208;131.721;-0.00180852;0.000293376;0.00216426;-0.00031878;0.0010005;-0.000767878;0.00211823;0;0.0418448;-0.233389;-0.970002;-0.333332;1.0519;-5.91181;0.000348036;-2.86824e-05;-0.000548246;0.000348953;-0.000549163;0.000449058;0.634817;1.57526;0.000522804;0.000598744;0.635427;1.57375;44.7966;89.7966;-0.00231742;0.000346483;0.00170399;-0.00176291;-0.000549698;0.00126224;0.00783834;0;0.0332592;-0.0108204;-0.0261339
148000;149;24.1918;-0.00230052;-9.50859e-05;-2.21218;24.0859;-0.468521;-0.039775;-0.0099954;-0.314817;-0.197523;-0.979983;-0.00786296;0.999722;-5.41538;0.000252557;0.000590109;0.00104486;0.00135946;-6.20406e-05;0.00071075;-0.241713;-4.13714;0.000927679;0.000947667;21.9124;0.0456362;94.534;139.534;-0.00242545;0.000252398;0.00199725;-0.000815919;0.00104304;0.00209362;0.00542177;0;0.0421718;-0.238604;-0.970931;-0.329611;1.05275;-5.90809;0.000437395;-9.09539e-05;-0.000618839;0.00044517;-0.000626614;0.000535892;0.7068;1.41483;0.000621744;0.000714523;0.710438;1.40758;41.6187;86.6187;-0.00231904;0.000435798;0.00160638;-0.00179008;-0.000620126;-3.07129e-06;0.00675774;0;0.0265024;-0.0107011;-0.025431
149000;150;24.1915;-0.00263367;-0.000108856;-2.2132;24.0855;-0.469193;-0.0407976;-0.010437;-0.315489;-0.197377;-0.979534;-0.00546171;0.999236;-5.41298;-8.49251e-05;0.000613485;0.000990915;0.00126891;-0.000362923;0.000815918;0.0857037;11.6681;0.000989359;0.00108789;3.49637;0.286011;102.521;147.521;-0.00301509;-8.51876e-05;0.00217806;-0.000949407;0.000988733;0.00223647;0.00281605;0;0.0418996;-0.239869;-0.970339;-0.326717;1.05159;-5.90519;0.000379777;-3.24282e-05;-0.000716558;0.000380735;-0.000717516;0.000549126;0.530002;1.88679;0.000643936;0.000732167;0.530629;1.88455;45.8827;90.8827;-0.00245843;0.000378007;0.00181531;-0.00188219;-0.000718206;-5.61278e-05;0.00699968;0;0.0280496;-0.0106358;-0.0185627
150000;151;24.1918;-0.00226696;-9.36988e-05;-2.21293;24.0858;-0.471226;-0.0405243;-0.0100833;-0.317522;-0.197667;-0.977329;-0.00610158;0.997136;-5.41362;0.000389325;0.000977428;0.000727743;0.0015505;-0.000433433;0.000991967;-0.534975;-1.86925;0.00120443;0.00132262;3.57726;0.279544;83.91;128.91;-0.00190386;0.000389719;0.00236312;-0.0004078;0.00072543;-0.000614208;0.00444171;0;0.0440463;-0.240736;-0.9688;-0.326617;1.05034;-5.90509;0.000347729;-0.00012643;-0.000606187;0.000364201;-0.00062266;0.00049343;0.573633;1.74327;0.000576241;0.000657907;0.584913;1.70966;39.6159;84.6159;-0.00239306;0.0003459;0.00166264;-0.00191721;-0.000607562;0.000488849;0.00680831;0;0.0317086;-0.0106472;-0.00998528
151000;152;24.193;-0.00106774;-4.41324e-05;-2.21405;24.0869;-0.469563;-0.0416469;-0.00894949;-0.315859;-0.200845;-0.976884;-0.00404326;0.997325;-5.41156;0.000493218;0.00104735;0.000666948;0.00163102;-0.000470859;0.00105094;-0.739515;-1.35224;0.00127365;0.00140126;3.46394;0.288689;82.405;127.405;-0.00270884;0.000493611;0.00265169;-0.000556726;0.000663983;-0.000404765;0.00445637;0;0.04583;-0.244515;-0.96771;-0.324944;1.04968;-5.90342;0.000384727;-0.000145321;-0.000443818;0.000409476;-0.000468568;0.000439022;0.866857;1.15359;0.000507321;0.000585362;0.873889;1.14431;35.8197;80.8197;-0.00276272;0.0003831;0.00151791;-0.00180994;-0.00044496;0.000367168;0.00766032;0;0.0373866;-0.0108334;-0.00368792
152000;153;24.1907;-0.00337754;-0.000139602;-2.21491;24.0845;-0.471745;-0.0425117;-0.0113916;-0.318042;-0.20112;-0.975269;-0.00966292;0.995838;-5.41718;-7.99806e-05;0.000779124;0.00155593;0.00186761;-0.000391665;0.00112964;0.0514039;19.4538;0.00139409;0.00150618;4.76838;0.209715;103.121;148.121;-0.00207135;-8.04428e-05;0.00279896;-0.00123742;0.00155232;0.000387944;0.00611711;0;0.0408663;-0.245791;-0.966147;-0.327888;1.04946;-5.90636;0.000311835;-7.92873e-05;-0.000541275;0.000319142;-0.000548581;0.000433861;0.576113;1.73577;0.000506784;0.000578482;0.581758;1.71893;41.6547;86.6547;-0.00271423;0.000310276;0.00160802;-0.00176803;-0.000542565;0.000877587;0.00770486;0;0.0256745;-0.0105441;0.00351702
153000;154;24.1915;-0.00256787;-0.000106136;-2.21641;24.0853;-0.46573;-0.0440077;-0.0105989;-0.312026;-0.202385;-0.975456;-0.00665368;0.996252;-5.41417;0.000118442;0.000812404;0.00125619;0.00167909;-0.000304459;0.000991776;-0.0942861;-10.606;0.00123347;0.00132237;5.51501;0.181323;97.9985;142.998;-0.0026526;0.000118064;0.00281638;-0.00118929;0.00125256;0.000178985;0.00496907;0;0.0404682;-0.248158;-0.966421;-0.322593;1.04863;-5.90107;0.000325089;-5.05458e-05;-0.00055958;0.000327967;-0.000562459;0.000445213;0.580952;1.72131;0.000519996;0.000593617;0.583096;1.71498;43.6344;88.6344;-0.00287322;0.000323473;0.00169632;-0.00179895;-0.000561018;-1.74215e-05;0.00886124;0;0.0232778;-0.0108579;0.0109935
154000;155;24.1901;-0.00398587;-0.000164746;-2.21783;24.0837;-0.469599;-0.0454282;-0.0122291;-0.315896;-0.20301;-0.975135;-0.0055899;0.996059;-5.41311;2.67251e-05;0.000654718;0.00116336;0.00146201;-0.00027193;0.000866971;-0.0229724;-43.5304;0.00107682;0.00115596;5.37642;0.185997;101.639;146.639;-0.00323519;2.61984e-05;0.00252895;-0.00121739;0.00116038;0.000698437;0.00450538;0;0.042349;-0.249742;-0.966052;-0.321584;1.04835;-5.90006;0.000285619;-0.000104831;-0.000613943;0.000297674;-0.000625998;0.000461836;0.46522;2.14952;0.000544396;0.000615781;0.475519;2.10297;41.0555;86.0555;-0.00246091;0.000283855;0.00167002;-0.00188128;-0.000615333;0.000114614;0.0076364;0;0.0226092;-0.0106453;0.0182184
155000;156;24.1899;-0.00417272;-0.000172468;-2.21703;24.0835;-0.471264;-0.0446325;-0.012376;-0.31756;-0.205108;-0.975902;-0.000584814;0.997223;-5.40811;0.00033056;0.000740103;0.00085633;0.00137885;-0.00019196;0.000785405;-0.386019;-2.59054;0.000989446;0.00104721;7.18301;0.139217;91.0688;136.069;-0.0028512;0.000330163;0.00263914;-0.00115794;0.000853124;-0.000392028;0.00520663;0;0.0389922;-0.252876;-0.966491;-0.315589;1.04769;-5.89406;0.000337012;-1.87619e-06;-0.000541257;0.000337016;-0.000541261;0.000439138;0.622647;1.60605;0.000511623;0.000585518;0.62265;1.60604;46.5384;91.5384;-0.00213664;0.000335505;0.00173083;-0.0017361;-0.000542756;-0.000842149;0.00775317;0;0.0253299;-0.0106605;0.0258621
156000;157;24.1918;-0.00227003;-9.38256e-05;-2.21978;24.0852;-0.467817;-0.0473799;-0.0106508;-0.314113;-0.206523;-0.973273;-0.00752611;0.994972;-5.41505;0.000278041;0.000605919;0.000487893;0.000997904;-0.00023197;0.000614937;-0.569882;-1.75475;0.000754573;0.000819915;4.30187;0.232457;89.8374;134.837;-0.00285539;0.000277029;0.00275916;-0.00154688;0.000484272;-0.00119006;0.00438616;0;0.0398094;-0.255536;-0.965208;-0.319723;1.0484;-5.8982;0.000275709;1.91671e-05;-0.000564592;0.000276146;-0.000565029;0.000420587;0.488333;2.04778;0.000495107;0.000560783;0.488729;2.04612;48.5937;93.5937;-0.0023684;0.000274149;0.00180318;-0.00176635;-0.000566218;-0.000370612;0.00925819;0;0.026865;-0.010521;0.0320966
157000;158;24.1916;-0.00248013;-0.00010251;-2.22103;24.0849;-0.46647;-0.0486324;-0.0109511;-0.312766;-0.208262;-0.972444;-0.0102897;0.994548;-5.41781;0.00030851;0.000854136;0.000855524;0.00147888;-0.000314841;0.000896858;-0.36061;-2.77308;0.0011059;0.00119581;4.69721;0.212892;91.6531;136.653;-0.00239629;0.000307874;0.00312474;-0.00141524;0.00085101;-0.00209905;0.00557765;0;0.038673;-0.258269;-0.964362;-0.320942;1.04867;-5.89942;0.000286189;-1.86237e-05;-0.000466593;0.00028665;-0.000467054;0.000376852;0.613359;1.63037;0.000439286;0.000502469;0.61374;1.62935;44.8462;89.8462;-0.00234911;0.000284151;0.00198048;-0.00201923;-0.000468555;-0.00304355;0.00815632;0;0.022929;-0.0106376;0.0392113
158000;159;24.1908;-0.00334135;-0.000138106;-2.22113;24.0839;-0.473782;-0.048732;-0.0119681;-0.320078;-0.210978;-0.972612;-0.00924704;0.995274;-5.41677;0.000562905;0.00103745;-0.000272887;0.00126346;-0.000973444;0.00111845;2.06278;0.484784;0.00129509;0.00149127;1.29793;0.770458;77.2745;122.275;-0.00313118;0.000562498;0.0034477;-0.00137483;-0.000278294;-0.0035959;0.0036446;0;0.041208;-0.261718;-0.964341;-0.319544;1.04907;-5.89802;0.000232375;6.46977e-05;-0.000504224;0.000238015;-0.000509863;0.000373939;0.460857;2.16987;0.000441194;0.000498585;0.466821;2.14215;51.6882;96.6882;-0.00278801;0.000230017;0.0023007;-0.00217295;-0.00050687;-0.00133324;0.00996768;0;0.0200532;-0.0104311;0.039984
159000;160;24.1899;-0.00420207;-0.000173681;-2.22166;24.0831;-0.47054;-0.0492578;-0.0128176;-0.316836;-0.212584;-0.972499;-0.00689117;0.995487;-5.41441;0.000181605;0.000694681;-0.000143073;0.000732663;-0.000694131;0.000713397;1.26932;0.787825;0.00082386;0.000951196;1.05551;0.947408;83.1698;128.17;-0.00239973;0.00018014;0.00323595;-0.00184742;-0.000148068;-0.00273548;0.00571239;0;0.0408147;-0.26443;-0.964046;-0.316684;1.04862;-5.89516;0.000241079;0.000121296;-0.000625877;0.000257729;-0.000642528;0.000450129;0.385185;2.59615;0.000535357;0.000600172;0.401118;2.49303;55.1301;100.13;-0.00265906;0.000238617;0.00246294;-0.00222238;-0.000628905;-0.00155451;0.0104652;0;0.021006;-0.0106181;0.0517008
160000;161;24.1923;-0.00178052;-7.35931e-05;-2.22163;24.0856;-0.468174;-0.0492258;-0.0103362;-0.31447;-0.21382;-0.970762;-0.00943163;0.994075;-5.41695;0.000699171;0.000979257;0.000271961;0.00148785;-0.000516717;0.00100228;-2.57085;-0.388976;0.00120176;0.00133638;2.87943;0.347292;78.5583;123.558;-0.00420354;0.000698305;0.00359838;-0.00164099;0.000265968;-0.000603112;0.00308776;0;0.0422875;-0.266775;-0.963226;-0.317843;1.04881;-5.89632;0.000186865;0.000162055;-0.000587831;0.000219398;-0.000620365;0.000419881;0.317888;3.14576;0.000502922;0.000559842;0.35366;2.82758;58.5852;103.585;-0.002836;0.000184085;0.00268578;-0.00236362;-0.000591427;-0.00167289;0.0123509;0;0.0217197;-0.0105594;0.0590456
161000;162;24.1901;-0.0040208;-0.000166189;-2.22424;24.083;-0.472571;-0.0518354;-0.0129132;-0.318867;-0.214855;-0.972237;-0.00794191;0.995726;-5.41546;0.000472343;0.000907549;-0.000229453;0.00109447;-0.000851578;0.000973023;2.05856;0.485776;0.00112646;0.00129736;1.28522;0.778075;77.9708;122.971;-0.00227921;0.00047158;0.00334643;-0.00153305;-0.000234641;-0.00215648;0.00724446;0;0.0380537;-0.268706;-0.963513;-0.316463;1.04915;-5.89494;0.000386297;0.000287004;-0.000507762;0.000470499;-0.000591964;0.000531231;0.760783;1.31443;0.000614748;0.000708309;0.79481;1.25816;62.0141;107.014;-0.00291933;0.000383913;0.00277446;-0.00220268;-0.000511572;-0.00141011;0.0130871;0;0.0223656;-0.0103664;0.0601661
162000;163;24.19;-0.00409183;-0.000169125;-2.22462;24.0829;-0.470846;-0.0522181;-0.0129861;-0.317142;-0.215239;-0.971541;-0.0100657;0.995149;-5.41759;0.000490279;0.000514697;-0.000244225;0.000755314;-0.00050926;0.000632287;2.00749;0.498135;0.000734694;0.000843049;1.48316;0.674236;70.8233;115.823;-0.00273926;0.000488356;0.00305524;-0.00202771;-0.000248761;-0.00172278;0.00678865;0;0.0399782;-0.270542;-0.962981;-0.319342;1.05;-5.89782;0.000382122;0.00030912;-0.000457855;0.000483617;-0.00055935;0.000521484;0.834592;1.19819;0.000602687;0.000695312;0.864605;1.1566;63.5476;108.548;-0.00310679;0.00037942;0.00296184;-0.00234584;-0.000462196;-0.000837274;0.0116815;0;0.0275307;-0.0107815;0.067615
163000;164;24.1896;-0.00448891;-0.000185537;-2.22519;24.0825;-0.470508;-0.0527845;-0.0134307;-0.316804;-0.216794;-0.975316;0.000995547;0.99912;-5.40652;0.000393023;0.000556401;-0.000189347;0.000729827;-0.000526151;0.000627989;2.07567;0.481771;0.000728311;0.000837319;1.3871;0.720926;75.0734;120.073;-0.00292353;0.000390854;0.00326741;-0.0021562;-0.000194531;-0.00116703;0.0065164;0;0.0418086;-0.272566;-0.965171;-0.309735;1.04966;-5.88821;0.00033066;0.000282172;-0.000555336;0.000412894;-0.00063757;0.000525232;0.595423;1.67948;0.000611092;0.000700309;0.647605;1.54415;62.464;107.464;-0.00347431;0.000328088;0.00284777;-0.0022857;-0.000559353;0.000385516;0.00956839;0;0.0203706;-0.0105349;0.0753402
164000;165;24.1917;-0.00237428;-9.81345e-05;-2.22575;24.0846;-0.466462;-0.0533536;-0.0112805;-0.312758;-0.218921;-0.970376;-0.0178382;0.994924;-5.42536;0.000586483;0.000565549;0.000565789;0.00114178;1.04927e-05;0.000565643;-1.03658;-0.964714;0.000757713;0.000754191;-108.817;-0.00918974;83.3769;128.377;-0.00251938;0.000584402;0.00324889;-0.00211785;0.000560674;-0.00217734;0.00674727;0;0.0401039;-0.275415;-0.962055;-0.326573;1.05264;-5.90505;0.000276365;0.00026687;-0.000382724;0.000370872;-0.00047723;0.000424051;0.722101;1.38485;0.000490934;0.000565401;0.777134;1.28678;65.0652;110.065;-0.00321633;0.000273828;0.00280054;-0.00226847;-0.000386611;0.000463481;0.0111601;0;0.0223289;-0.010347;0.0827463
165000;166;24.1884;-0.00569523;-0.000235397;-2.22568;24.0812;-0.472686;-0.0532771;-0.0147305;-0.318982;-0.217375;-0.975873;-0.000302295;0.99979;-5.40782;0.000329153;0.000722243;-0.000852108;0.000671517;-0.00119447;0.000932995;0.386281;2.58879;0.00109134;0.00124399;0.562187;1.77877;73.2047;118.205;-0.00312657;0.000327663;0.00331299;-0.00187158;-0.000857339;-0.00131375;0.007922;0;0.0421338;-0.274425;-0.965021;-0.312755;1.0509;-5.89123;0.000405011;0.000356589;-0.000489129;0.000529803;-0.000613922;0.000571863;0.828023;1.2077;0.000660925;0.000762484;0.862981;1.15877;64.6395;109.64;-0.0035732;0.000401445;0.00340512;-0.00269467;-0.000494866;0.000873583;0.0124987;0;0.0206902;-0.0104463;0.0891983
166000;167;24.1904;-0.00368688;-0.000152388;-2.22671;24.0832;-0.469281;-0.0543049;-0.0127417;-0.315577;-0.2185;-0.973389;-0.00338691;0.997617;-5.41091;0.000622118;0.000745825;9.7874e-05;0.00115054;-0.00043055;0.000790546;-6.35631;-0.157324;0.000943866;0.00105406;2.67226;0.374215;76.3225;121.322;-0.00264071;0.000620696;0.00333438;-0.00184409;9.25936e-05;-0.00113716;0.00606766;0;0.0381559;-0.276405;-0.963241;-0.314689;1.05036;-5.89316;0.000340083;0.000345569;-0.00047203;0.000467224;-0.000599172;0.000533198;0.720468;1.38799;0.000617253;0.000710931;0.779784;1.28241;65.8676;110.868;-0.00410359;0.000337428;0.00301927;-0.00233031;-0.000476531;0.00168323;0.0117192;0;0.0202074;-0.0107108;0.0967278
167000;168;24.1908;-0.00329758;-0.000136297;-2.22688;24.0836;-0.465181;-0.0544779;-0.0122871;-0.311477;-0.220379;-0.97397;-0.000970402;0.998592;-5.40849;0.000693493;0.000719952;-0.000107243;0.00111691;-0.000530662;0.000823787;6.46656;0.154642;0.000971093;0.00109838;2.10475;0.475116;72.4567;117.457;-0.00332949;0.000691538;0.0035427;-0.00210507;-0.00011326;-0.00346333;0.00376064;0;0.0433099;-0.278487;-0.963831;-0.311521;1.05051;-5.89;0.000352243;0.000290636;-0.000503005;0.00044166;-0.000592423;0.000517041;0.700277;1.42801;0.000599139;0.000689388;0.745515;1.34135;62.8066;107.807;-0.00401772;0.000348904;0.00317975;-0.00260096;-0.000508021;0.00288909;0.0112056;0;0.0201984;-0.0105969;0.103097
168000;169;24.1905;-0.00360219;-0.000148887;-2.22692;24.0832;-0.468208;-0.0545186;-0.0126555;-0.314504;-0.21923;-0.973369;-0.000539355;0.997752;-5.40806;0.000548496;0.000743901;3.18482e-05;0.00107765;-0.000497305;0.000787477;-17.2222;-0.0580646;0.000929649;0.00104997;2.16698;0.461472;77.2659;122.266;-0.00330512;0.000546949;0.00339644;-0.00191002;2.63571e-05;-0.00174953;0.00443228;0;0.0397793;-0.277958;-0.963075;-0.3109;1.04949;-5.88937;0.00037711;0.000241684;-0.000533268;0.000437294;-0.000593451;0.000515372;0.707169;1.41409;0.000597373;0.000687163;0.736866;1.3571;59.7818;104.782;-0.00431697;0.000374185;0.00291216;-0.00243123;-0.000537481;0.00227389;0.0116535;0;0.0240757;-0.0107844;0.107298
169000;170;24.1902;-0.00387764;-0.000160272;-2.22694;24.0829;-0.469757;-0.0545428;-0.0129645;-0.316053;-0.221995;-0.971945;-0.0120769;0.997048;-5.4196;0.000918329;0.00121325;0.00114356;0.00224941;-0.000187516;0.00121846;-0.80304;-1.24527;0.00156586;0.00162462;11.9958;0.0833622;81.2974;126.297;-0.00449594;0.000918271;0.00368692;-0.00125987;0.00113751;-0.00448941;-0.000963483;0;0.0452303;-0.281409;-0.961852;-0.323979;1.05324;-5.90245;0.000582496;0.000212368;-0.000487741;0.000623096;-0.000528341;0.000575719;1.19427;0.83733;0.000665533;0.000767625;1.17934;0.84793;55.2793;100.279;-0.00361454;0.000579458;0.00289646;-0.0024746;-0.000491915;0.00346683;0.0111396;0;0.0200036;-0.0104172;0.118326
170000;171;24.1919;-0.00218537;-9.03263e-05;-2.22925;24.0845;-0.465205;-0.0568452;-0.0113894;-0.311501;-0.223111;-0.974067;-0.00557839;0.999308;-5.4131;0.000821973;0.000866432;0.000673993;0.00161757;-0.000121603;0.000869586;-1.21956;-0.81997;0.00112111;0.00115945;13.302;0.0751765;79.5999;124.6;-0.00319198;0.000820782;0.00350286;-0.00177039;0.000668237;-0.00521419;0.0023029;0;0.0433442;-0.283143;-0.964244;-0.32041;1.0548;-5.89889;0.000514842;0.000230185;-0.000413436;0.000568786;-0.00046738;0.000518083;1.24528;0.803035;0.000599185;0.000690777;1.21697;0.821715;57.6455;102.646;-0.00372071;0.000511326;0.00311997;-0.00266229;-0.000418279;0.0032451;0.00915466;0;0.0312495;-0.010742;0.120658
171000;172;24.1903;-0.00380243;-0.000157163;-2.22938;24.0828;-0.46996;-0.0569765;-0.0131181;-0.316256;-0.225462;-0.975995;-0.00372485;1.00171;-5.41125;0.000726884;0.000627029;0.000754241;0.00136774;0.000113385;0.000627178;-0.963728;-1.03764;0.00087648;0.000836237;-12.0628;-0.0828993;82.7767;127.777;-0.00373862;0.000725036;0.00327678;-0.00202265;0.000749073;-0.00175326;0.00241585;0;0.0436496;-0.285672;-0.965948;-0.318851;1.05656;-5.89733;0.000445799;0.000144281;-0.000497889;0.000467366;-0.000519455;0.00049341;0.89538;1.11684;0.000570006;0.00065788;0.899723;1.11145;53.726;98.726;-0.00422632;0.000442242;0.00295789;-0.00267198;-0.000502255;0.00385086;0.00928198;0;0.0293455;-0.0105017;0.126443
172000;173;24.1912;-0.00288679;-0.000119318;-2.23005;24.0836;-0.472911;-0.0576499;-0.0123185;-0.319207;-0.229396;-0.978427;-0.00515167;1.00497;-5.41267;0.000645206;0.000839119;0.00052702;0.00142731;-0.000255084;0.000841197;-1.22425;-0.816824;0.00104698;0.0011216;5.59546;0.178716;81.2338;126.234;-0.0033488;0.000644254;0.00329349;-0.00161555;0.000521951;-0.00208539;0.00361787;0;0.0441897;-0.289889;-0.967531;-0.323746;1.06064;-5.90222;0.000439941;7.24058e-05;-0.000526691;0.000445334;-0.000532084;0.000488709;0.835292;1.19719;0.000565053;0.000651612;0.836962;1.1948;49.6884;94.6884;-0.00384925;0.000436585;0.00273456;-0.00259233;-0.000530429;0.00189465;0.00781729;0;0.0295466;-0.0101476;0.139616
173000;174;24.1905;-0.00359046;-0.000148402;-2.22994;24.0829;-0.473726;-0.057535;-0.0130307;-0.320022;-0.229989;-0.979862;-0.00084926;1.00649;-5.40837;0.000463325;0.000821089;0.000302416;0.00120789;-0.000442151;0.000825021;-1.53208;-0.652707;0.000986254;0.00110003;2.73185;0.366052;82.3757;127.376;-0.00442385;0.000462616;0.00308803;-0.00144622;0.000297986;-0.000565105;0.00359382;0;0.0414357;-0.290873;-0.968869;-0.320164;1.06105;-5.89864;0.000397484;-1.4959e-05;-0.000656808;0.000397696;-0.00065702;0.000527358;0.605176;1.65241;0.000615046;0.000703144;0.605303;1.65206;45.519;90.519;-0.00377516;0.000393774;0.0026917;-0.00272448;-0.000660433;0.000378866;0.00792585;0;0.033007;-0.0102257;0.14178
174000;175;24.1906;-0.00356376;-0.000147299;-2.22938;24.0829;-0.475344;-0.0569784;-0.0129842;-0.321641;-0.230894;-0.980435;-0.00454062;1.00727;-5.41206;0.000658838;0.000688521;0.000392332;0.00122688;-0.000175712;0.000701297;-1.67928;-0.595492;0.000882343;0.000935063;6.98235;0.143218;78.3917;123.392;-0.00398261;0.000657554;0.00312107;-0.00174468;0.000387701;-0.00120694;0.00420212;0;0.0426461;-0.29146;-0.969596;-0.324672;1.06324;-5.90315;0.000350183;-8.26625e-05;-0.000573965;0.000357519;-0.0005813;0.00046941;0.610112;1.63904;0.000547136;0.000625879;0.615032;1.62593;41.0552;86.0552;-0.00396546;0.000346178;0.00266389;-0.00283175;-0.000577512;0.00149278;0.00832364;0;0.0308425;-0.0103585;0.147979
175000;176;24.1917;-0.00236886;-9.79105e-05;-2.23089;24.084;-0.475962;-0.058492;-0.0119363;-0.322258;-0.232556;-0.983411;-0.00487443;1.01055;-5.41239;0.000810143;0.0009541;0.000593294;0.00166196;-0.000258523;0.000960241;-1.3655;-0.732333;0.00120344;0.00128032;6.42868;0.155553;78.6156;123.616;-0.00395925;0.000809533;0.00336742;-0.00145975;0.000588083;-0.00322767;-0.000330164;0;0.0430762;-0.293575;-0.972838;-0.327109;1.06752;-5.90558;0.000402214;-8.06008e-05;-0.00070303;0.000408061;-0.000708877;0.000558469;0.572116;1.7479;0.000652614;0.000744625;0.575645;1.73718;42.3756;87.3756;-0.00367762;0.000398203;0.00266982;-0.00283406;-0.000706593;0.000917777;0.00759827;0;0.0327717;-0.0101844;0.155466
176000;177;24.1921;-0.00200257;-8.27709e-05;-2.23035;24.0844;-0.47586;-0.0579498;-0.0115162;-0.322156;-0.234879;-0.984331;-0.00962483;1.01201;-5.41715;0.000538892;0.000709375;0.000476973;0.00121798;-0.000202118;0.00071005;-1.12982;-0.885099;0.00088707;0.000946734;6.02609;0.165945;82.5885;127.589;-0.00335454;0.000537817;0.0030479;-0.0016293;0.000472581;-0.00206065;0.00294574;0;0.0426883;-0.295546;-0.974073;-0.332558;1.07087;-5.91103;0.00042941;-0.000277808;-0.00075196;0.000491477;-0.000814028;0.000652753;0.571053;1.75115;0.000761364;0.000870337;0.60376;1.65629;34.0708;79.0708;-0.00330659;0.000424987;0.00242893;-0.00298774;-0.000754874;-0.000192542;0.00713352;0;0.0288388;-0.00993944;0.162427
177000;178;24.1923;-0.0018348;-7.58368e-05;-2.23138;24.0844;-0.478109;-0.058978;-0.0114875;-0.324406;-0.235601;-0.984495;-0.0108197;1.01235;-5.41834;0.000757026;0.00108259;0.00020274;0.00159738;-0.000637615;0.0011175;-3.73397;-0.267811;0.00132944;0.00149;2.50524;0.399163;76.6387;121.639;-0.00365821;0.000756985;0.00328339;-0.00111945;0.000197937;-0.000578431;0.00312654;0;0.048807;-0.296932;-0.974972;-0.335086;1.07286;-5.91356;0.000420446;-0.000252663;-0.000752717;0.000472547;-0.000804819;0.000638683;0.558571;1.79028;0.000745758;0.000851577;0.587148;1.70315;35.0256;80.0256;-0.00350728;0.000415911;0.00251412;-0.00302269;-0.000755848;-8.45604e-05;0.00826582;0;0.022677;-0.0103107;0.168164
178000;179;24.1934;-0.000729673;-3.01591e-05;-2.23194;24.0854;-0.480492;-0.0595409;-0.010477;-0.326788;-0.236421;-0.989167;-0.0128238;1.01711;-5.42034;0.000444868;0.000781007;0.000870926;0.00146744;-0.000151642;0.000809539;-0.510799;-1.95772;0.00103256;0.00107939;9.67699;0.103338;89.6236;134.624;-0.00323946;0.000444015;0.00308512;-0.00152213;0.000866476;-0.000670797;0.00396766;0;0.0414261;-0.297685;-0.97903;-0.340235;1.07837;-5.91871;0.000358532;-0.000392904;-0.000824487;0.000477133;-0.000943089;0.000710111;0.434854;2.29962;0.000834546;0.000946815;0.505926;1.97657;30.4039;75.4039;-0.00396885;0.000352955;0.00257409;-0.00336341;-0.000827726;0.000737347;0.00786254;0;0.0246466;-0.0102202;0.176728
179000;180;24.1925;-0.00162925;-6.73407e-05;-2.23217;24.0844;-0.485947;-0.0597646;-0.0115107;-0.332243;-0.237126;-0.992408;-0.0133615;1.02043;-5.42088;0.000595425;0.000740669;0.0006569;0.00136747;-0.000115144;0.000741307;-0.906416;-1.10325;0.000952351;0.000988409;11.8762;0.0842023;83.4905;128.49;-0.00297309;0.000594508;0.0030256;-0.00154413;0.0006526;0.000201246;0.00523663;0;0.0407571;-0.298569;-0.982513;-0.342412;1.08246;-5.92089;0.000458624;-0.000382688;-0.000904445;0.000558716;-0.00100454;0.000781626;0.507078;1.97208;0.000914696;0.00104217;0.556193;1.79794;32.3713;77.3713;-0.0041335;0.000452714;0.00269057;-0.00346014;-0.000907994;-0.000429746;0.00776763;0;0.0234922;-0.0101067;0.184504
180000;181;24.1944;0.000329762;1.36299e-05;-2.23187;24.0865;-0.481473;-0.0594677;-0.00942557;-0.327769;-0.237704;-0.993516;-0.015017;1.02167;-5.42254;0.000514783;0.000704824;0.000796273;0.00137427;-6.32117e-05;0.00071874;-0.646491;-1.54681;0.000937959;0.000958319;21.7407;0.0459966;87.7129;132.713;-0.00308879;0.000513732;0.00302239;-0.00161209;0.000791957;0.000223307;0.00405048;0;0.0431754;-0.299537;-0.983991;-0.343661;1.08446;-5.92214;0.000490092;-0.000357703;-0.000904907;0.000576466;-0.000991281;0.000783873;0.541594;1.8464;0.00091564;0.00104516;0.581537;1.71958;33.4154;78.4154;-0.00399785;0.000484786;0.00255856;-0.00327804;-0.000908119;-0.000485638;0.00889481;0;0.0250203;-0.00960111;0.184689
181000;182;24.1921;-0.00196914;-8.13891e-05;-2.23356;24.0838;-0.491094;-0.0611547;-0.0120854;-0.33739;-0.238007;-1.00146;-0.0106117;1.02941;-5.41813;0.000538861;0.000594983;0.000679155;0.00120811;9.90456e-06;0.000599103;-0.793428;-1.26035;0.000802126;0.000798805;;;86.2917;131.292;-0.00325407;0.000537354;0.00302565;-0.00183535;0.000674758;0.000689706;0.00444614;0;0.0529377;-0.301295;-0.990468;-0.345369;1.09137;-5.92384;0.000382668;-0.000226239;-0.000856843;0.000422671;-0.000896845;0.000659758;0.446603;2.23913;0.000778047;0.000879677;0.471286;2.12185;37.387;82.387;-0.00387629;0.000378229;0.00253295;-0.00298884;-0.000860028;-0.000426723;0.0095203;0;0.0263169;-0.00989776;0.199903
182000;183;24.1912;-0.00295639;-0.000122195;-2.234;24.0827;-0.494668;-0.0616003;-0.0131916;-0.340964;-0.241985;-1.00512;-0.0101661;1.03389;-5.41769;0.000449686;0.000633892;0.00129344;0.00163301;0.000110117;0.000761445;-0.347667;-2.87631;0.00105389;0.00101526;-14.8297;-0.0674322;96.6124;141.612;-0.003958;0.000448416;0.00298537;-0.0017156;0.00128919;0.00125041;0.00482459;0;0.0546911;-0.305655;-0.994808;-0.345673;1.09661;-5.92415;0.000454609;-0.000201569;-0.000817831;0.000485776;-0.000848998;0.000667387;0.555872;1.79898;0.000780085;0.000889849;0.572176;1.74771;38.1523;83.1523;-0.00455537;0.000450635;0.00242059;-0.00282707;-0.000820742;0.00158813;0.00849606;0;0.0304042;-0.00994181;0.205016
183000;184;24.1917;-0.00236903;-9.79177e-05;-2.23516;24.0832;-0.492984;-0.0627571;-0.0126744;-0.33928;-0.243236;-1.0077;-0.0138605;1.03673;-5.42138;0.000580495;0.000630441;0.00121901;0.00160642;0.000193082;0.000706668;-0.476203;-2.09995;0.00101274;0.000942225;-8.31986;-0.120194;92.9474;137.947;-0.00328084;0.000579203;0.00298903;-0.00172665;0.00121474;0.00113917;0.00568637;0;0.0520019;-0.307949;-0.997289;-0.349856;1.10083;-5.92833;0.00049432;-0.000216776;-0.000836705;0.000528735;-0.00087112;0.000699927;0.590793;1.69264;0.000816225;0.000933237;0.606959;1.64756;37.7427;82.7427;-0.00450703;0.000490036;0.0024984;-0.00293556;-0.000839805;0.000113917;0.00830714;0;0.0296281;-0.00946257;0.206898
184000;185;24.1915;-0.00260816;-0.000107801;-2.23514;24.0828;-0.49989;-0.0627368;-0.0130551;-0.346186;-0.244584;-1.01119;-0.0139435;1.04044;-5.42146;0.000626487;0.000792412;0.00127275;0.00180538;9.38537e-05;0.000855762;-0.492233;-2.03156;0.00117355;0.00114102;-19.2361;-0.0519856;89.5107;134.511;-0.00480822;0.000625773;0.00302059;-0.00143433;0.0012685;0.00301277;0.00363985;0;0.0581341;-0.310129;-1.00131;-0.353104;1.10611;-5.93158;0.000347612;-0.000182482;-0.000682457;0.000378984;-0.000713829;0.000546407;0.509354;1.96327;0.000640733;0.000728543;0.530917;1.88353;37.0068;82.0068;-0.00449243;0.000343583;0.00247732;-0.00284503;-0.000685511;6.07754e-05;0.0095802;0;0.0234442;-0.00960568;0.215598
185000;186;24.1918;-0.00235505;-9.73399e-05;-2.23638;24.0831;-0.496356;-0.0639757;-0.0128428;-0.342652;-0.246086;-1.01284;-0.0127597;1.04238;-5.42028;0.000625521;0.000860119;0.00091576;0.00164292;-0.000101635;0.000872275;-0.683062;-1.464;0.00113068;0.00116303;16.1649;0.0618624;85.3533;130.353;-0.00396727;0.000624906;0.00312437;-0.00140348;0.000911253;0.00275042;0.00612033;0;0.0598553;-0.312417;-1.00282;-0.351281;1.10755;-5.92976;0.000480435;-0.000144303;-0.000706608;0.000497725;-0.000723898;0.000610811;0.679917;1.47077;0.000709322;0.000814415;0.687563;1.45441;39.3871;84.3871;-0.00482791;0.000476742;0.00243049;-0.00272216;-0.000709553;0.000289362;0.00819197;0;0.0227909;-0.00907215;0.221392
186000;187;24.1915;-0.00260584;-0.000107706;-2.23721;24.0827;-0.499759;-0.064809;-0.0132425;-0.346055;-0.247488;-1.01087;-0.0214403;1.04094;-5.42896;0.000356705;0.000735204;0.000793182;0.00134185;-0.000191968;0.000766911;-0.449714;-2.22364;0.000964945;0.00102255;6.98999;0.143062;91.2977;136.298;-0.00382623;0.000355706;0.00306466;-0.00159324;0.00078876;0.0025619;0.00596956;0;0.0572019;-0.314708;-1.00038;-0.3625;1.1096;-5.94098;0.000471068;-4.83569e-05;-0.000685418;0.000473087;-0.000687436;0.000580261;0.687272;1.45503;0.000673827;0.000773682;0.68819;1.45309;43.6391;88.6391;-0.00477266;0.000466817;0.00281687;-0.0029169;-0.000689387;3.4291e-05;0.01023;0;0.0229024;-0.00905442;0.229288
187000;188;24.1915;-0.00264076;-0.000109149;-2.24002;24.0824;-0.496955;-0.067614;-0.0134802;-0.343252;-0.253996;-1.01612;-0.0106836;1.04744;-5.4182;0.000318187;0.000858642;0.00154115;0.00198379;-0.000124454;0.00105412;-0.206461;-4.84353;0.0013659;0.0014055;15.9399;0.0627355;97.2408;142.241;-0.00550336;0.000317316;0.00329514;-0.00157489;0.0015361;0.00357928;0.000952081;0;0.0512739;-0.322903;-1.0054;-0.35021;1.11254;-5.92868;0.000332521;8.31752e-05;-0.000575289;0.000340079;-0.000582846;0.000461463;0.578008;1.73008;0.000538961;0.000615284;0.583479;1.71386;51.2971;96.2971;-0.00474085;0.000328192;0.00310768;-0.00294408;-0.000580117;5.30276e-05;0.0121539;0;0.0203038;-0.008454;0.236445
188000;189;24.1916;-0.00253545;-0.000104796;-2.24073;24.0824;-0.49773;-0.068324;-0.0134565;-0.344026;-0.258193;-1.01336;-0.0141011;1.04583;-5.42162;7.95499e-05;0.000477155;0.00140822;0.00156182;-7.405e-05;0.000817935;-0.0564897;-17.7023;0.00106675;0.00109058;21.0914;0.0474127;109.172;154.172;-0.00492914;7.73858e-05;0.00309234;-0.00213457;0.00140356;0.00350833;0.00197084;0;0.0538862;-0.328627;-1.00254;-0.353426;1.11266;-5.9319;0.000488489;0.000313842;-0.000542585;0.000576504;-0.0006306;0.000603552;0.900301;1.11074;0.000697155;0.000804736;0.914216;1.09383;60.8487;105.849;-0.00469694;0.00048391;0.00366763;-0.0030434;-0.000549265;8.89134e-05;0.0132582;0;0.0181292;-0.00840355;0.244124
189000;190;24.193;-0.00111647;-4.61462e-05;-2.24157;24.0839;-0.493904;-0.0691656;-0.0120306;-0.3402;-0.261754;-1.01143;-0.0187235;1.04492;-5.42624;0.000192171;0.000799094;0.00141046;0.00180611;-0.000203477;0.00100479;-0.136247;-7.33964;0.00127731;0.00133973;8.87625;0.11266;100.09;145.09;-0.0040221;0.00019085;0.00341244;-0.00181108;0.00140497;0.00342819;0.00759865;0;0.047124;-0.333569;-1.0006;-0.358721;1.11407;-5.9372;0.000324574;0.000230778;-0.000561392;0.000381083;-0.000617902;0.000499492;0.578159;1.72963;0.000582141;0.00066599;0.616738;1.62143;59.7552;104.755;-0.00504901;0.000320036;0.0034806;-0.00302193;-0.000567426;0.00193651;0.015552;0;0.0197399;-0.00865962;0.249526
190000;191;24.1911;-0.00297904;-0.000123131;-2.2423;24.0818;-0.500007;-0.0698982;-0.0140958;-0.346303;-0.26841;-1.01287;-0.0122119;1.0479;-5.41973;0.000503685;0.00110937;0.000589168;0.00165662;-0.000563764;0.00111019;-0.854909;-1.16972;0.00133269;0.00148025;2.9385;0.34031;85.7055;130.705;-0.00410023;0.000502717;0.00399865;-0.00177968;0.000581793;0.00205814;0.00749497;0;0.0709115;-0.340926;-1.00181;-0.352179;1.1153;-5.93065;0.000438794;0.000215221;-0.000451595;0.000488088;-0.000500888;0.000494488;0.971655;1.02917;0.000571001;0.000659317;0.974445;1.02623;57.9154;102.915;-0.00495258;0.000434687;0.00330245;-0.00287476;-0.000457027;0.00252543;0.0117713;0;0.0307662;-0.00842768;0.259262
191000;192;24.1925;-0.00157828;-6.5234e-05;-2.24034;24.0835;-0.493278;-0.0679351;-0.0123672;-0.339574;-0.2737;-1.01179;-0.0164444;1.04829;-5.42396;0.000349469;0.000936996;0.000368136;0.00129584;-0.00057824;0.000937043;-0.949293;-1.05342;0.00110813;0.00124939;2.24101;0.446226;87.2099;132.21;-0.00510822;0.000346916;0.00432071;-0.00244666;0.000359244;-0.000124284;0.00541386;0;0.0548217;-0.344583;-1.00173;-0.354802;1.11717;-5.93328;0.000419496;-3.60913e-05;-0.000574503;0.000420805;-0.000575812;0.000498308;0.730189;1.36951;0.000577712;0.000664411;0.730803;1.36836;43.6233;88.6233;-0.00486723;0.000414921;0.00295058;-0.00302573;-0.000578858;0.00384689;0.0088349;0;0.0196972;-0.00854155;0.266447
192000;193;24.1932;-0.000957213;-3.95639e-05;-2.23926;24.0842;-0.494635;-0.0668542;-0.0116706;-0.340931;-0.274846;-1.01232;-0.017865;1.04912;-5.42539;0.000452622;0.000687977;0.000274064;0.00105709;-0.000330402;0.000693745;-1.65152;-0.605505;0.00083689;0.000924994;3.1994;0.312559;83.1572;128.157;-0.00463849;0.000449323;0.00403514;-0.0026598;0.000266162;0.000707859;0.00761705;0;0.0608482;-0.34526;-1.00251;-0.357225;1.11885;-5.9357;0.000366398;5.57275e-05;-0.00045832;0.000370146;-0.000462068;0.000416107;0.799437;1.25088;0.000481455;0.00055481;0.801064;1.24834;49.2578;94.2578;-0.00500721;0.000362304;0.00297148;-0.00286243;-0.000462735;0.00351369;0.00941228;0;0.0282757;-0.008628;0.266391
193000;194;24.1917;-0.00242574;-0.000100261;-2.23827;24.0828;-0.498464;-0.0658671;-0.013133;-0.34476;-0.278316;-1.016;-0.00617233;1.05345;-5.41369;0.000618549;0.00122618;-0.000133351;0.00152512;-0.00103992;0.00128252;4.63851;0.215587;0.00148973;0.00171002;1.46657;0.681862;79.2689;124.269;-0.004571;0.000617334;0.00443344;-0.0019835;-0.000142428;-9.29909e-05;0.003604;0;0.0584636;-0.347315;-1.0039;-0.350235;1.11853;-5.92871;0.000345402;8.08654e-05;-0.000547796;0.000352664;-0.000555058;0.000453861;0.630531;1.58597;0.000528398;0.000605148;0.635365;1.5739;51.0693;96.0693;-0.00448485;0.000341267;0.00303634;-0.00287725;-0.000552405;0.00320619;0.00917599;0;0.020895;-0.00832916;0.276393
194000;195;24.1909;-0.00317976;-0.000131427;-2.23617;24.0822;-0.497475;-0.0637737;-0.0136755;-0.343771;-0.282325;-1.01714;-0.00102425;1.0556;-5.40854;0.000653908;0.00132382;-0.000715546;0.0014596;-0.00152124;0.00149042;0.913858;1.09426;0.00172111;0.00198723;0.959481;1.04223;76.5668;121.567;-0.00402604;0.000653224;0.00441015;-0.00176675;-0.000724401;-0.00343667;0.00462112;0;0.0622754;-0.349561;-1.00528;-0.345042;1.11885;-5.92352;0.000516432;-6.86298e-05;-0.000489379;0.000521094;-0.000494041;0.000507567;1.05528;0.947616;0.000586157;0.000676756;1.05476;0.948084;40.9272;85.9272;-0.00456724;0.000512936;0.00250615;-0.002646;-0.000492519;0.00321076;0.00822184;0;0.023354;-0.00854575;0.285658
195000;196;24.1907;-0.00345018;-0.000142604;-2.23509;24.082;-0.501904;-0.0626853;-0.013938;-0.3482;-0.282426;-1.0157;-0.0114011;1.0543;-5.41892;0.000917938;0.0012288;-0.000169461;0.00171795;-0.00096947;0.00134371;5.41681;0.184611;0.00157151;0.00179161;1.77205;0.564319;74.6137;119.614;-0.00525981;0.00091688;0.00435906;-0.00190488;-0.000178208;0.00216999;0.00451048;0;0.0573877;-0.349074;-1.00489;-0.355116;1.1215;-5.93359;0.000445391;6.9683e-05;-0.000479351;0.000450613;-0.000484573;0.000467593;0.929155;1.07625;0.000540048;0.000623457;0.929918;1.07536;49.4237;94.4237;-0.00438757;0.000441835;0.0028054;-0.00266857;-0.000483286;0.00262907;0.00952392;0;0.0280356;-0.00816978;0.287702
196000;197;24.1904;-0.00373733;-0.000154473;-2.23439;24.0817;-0.502187;-0.0619844;-0.0141673;-0.348483;-0.283469;-1.0175;-0.00626936;1.05627;-5.41379;0.000756247;0.000986417;-0.00048469;0.00130111;-0.00102955;0.00116533;1.56027;0.640914;0.00134865;0.00155378;1.26376;0.791288;72.6596;117.66;-0.00529805;0.000754247;0.00419978;-0.00223095;-0.000493026;0.00163444;0.00307839;0;0.0507532;-0.349402;-1.00624;-0.349832;1.12115;-5.92831;0.00051599;9.12919e-05;-0.000409855;0.000524906;-0.000418771;0.000471838;1.25896;0.794307;0.00054598;0.000629118;1.25345;0.797801;49.9977;94.9977;-0.00422086;0.000512284;0.00290503;-0.00272505;-0.000414072;0.00374747;0.00900889;0;0.0212128;-0.00820304;0.294636
197000;198;24.1929;-0.00124904;-5.16257e-05;-2.23271;24.0845;-0.49783;-0.0603113;-0.0114222;-0.344126;-0.288077;-1.01493;-0.0164714;1.05515;-5.42399;0.000751345;0.000833528;-0.00014452;0.00124967;-0.00064285;0.000946262;5.1989;0.192349;0.00111121;0.00126168;1.94396;0.514414;72.884;117.884;-0.00490072;0.000749474;0.00377143;-0.00210701;-0.000151286;0.000201766;0.00637194;0;0.0518804;-0.352447;-1.00483;-0.358771;1.12367;-5.93725;0.00036902;-7.267e-05;-0.000438236;0.00037551;-0.000444725;0.000410118;0.842059;1.18757;0.000474125;0.000546824;0.844364;1.18432;40.2349;85.2349;-0.00376593;0.000365349;0.00256381;-0.00271128;-0.000441521;0.00187015;0.00729909;0;0.023211;-0.0078989;0.302172
198000;199;24.1916;-0.00247388;-0.000102251;-2.23219;24.0833;-0.49772;-0.0597845;-0.0126014;-0.344016;-0.288763;-1.01722;-0.0109742;1.05747;-5.41849;0.000661076;0.000784485;0.000528445;0.00138204;-0.000192523;0.000787283;-1.25098;-0.799371;0.000991785;0.00104971;7.1786;0.139303;82.1981;127.198;-0.00315082;0.000658577;0.00393842;-0.00236988;0.000521001;-3.05363e-05;0.00928339;0;0.0464193;-0.352686;-1.00732;-0.350674;1.12342;-5.92915;0.000471236;-2.19582e-05;-0.000425627;0.000471774;-0.000426164;0.000448969;1.10716;0.903213;0.000518647;0.000598625;1.10702;0.903323;43.3223;88.3223;-0.0042477;0.000467355;0.00274033;-0.00278673;-0.000429383;0.00216868;0.00751731;0;0.0212083;-0.00811074;0.309578
199000;200;24.1934;-0.000700528;-2.89545e-05;-2.23139;24.0852;-0.494227;-0.0589904;-0.0106746;-0.340523;-0.290095;-1.01708;-0.0161576;1.05776;-5.42368;0.000495288;0.000797926;0.00078255;0.00144967;-0.000171831;0.00081075;-0.632915;-1.57999;0.00102852;0.001081;8.43662;0.118531;88.7198;133.72;-0.00366271;0.000493524;0.00363816;-0.0020415;0.000776255;-0.00151086;0.00785032;0;0.0473943;-0.353404;-1.00746;-0.357474;1.1259;-5.93595;0.000392781;-2.43508e-05;-0.000473271;0.000393465;-0.000473955;0.00043371;0.829928;1.20492;0.000501524;0.00057828;0.830174;1.20457;43.7906;88.7906;-0.00385482;0.000389246;0.00260881;-0.0026598;-0.000476675;0.00274329;0.0064628;0;0.0215856;-0.00803324;0.317415
200000;201;24.1915;-0.00262114;-0.000108338;-2.22954;24.0833;-0.502772;-0.0571347;-0.0126088;-0.349068;-0.293154;-1.02001;-0.00829368;1.06133;-5.41581;0.000694628;0.000729102;0.00125253;0.00175422;0.000192936;0.000780643;-0.554579;-1.80317;0.00111077;0.00104086;-9.09224;-0.109984;91.3421;136.342;-0.00443467;0.00069239;0.0036982;-0.00223834;0.00124597;0.000529639;0.00230734;0;0.045001;-0.354426;-1.00937;-0.353347;1.12664;-5.93182;0.000423131;-1.94898e-05;-0.000459003;0.000423561;-0.000459433;0.000441497;0.921847;1.08478;0.000509937;0.000588663;0.921921;1.08469;43.9002;88.9002;-0.00374087;0.000419835;0.0025267;-0.00256792;-0.000462196;0.00170377;0.00834932;0;0.027006;-0.00796634;0.324259
201000;202;24.1928;-0.0012985;-5.36701e-05;-2.23046;24.0846;-0.498324;-0.0580619;-0.0112737;-0.34462;-0.294471;-1.01825;-0.0129763;1.06006;-5.4205;0.000600378;0.000771372;0.00151699;0.00195593;0.000161433;0.000897249;-0.395771;-2.52672;0.00125361;0.00119633;-12.1161;-0.0825349;94.9455;139.946;-0.0038581;0.000598629;0.00356917;-0.00202388;0.00151092;0.000920841;0.00356156;0;0.0468938;-0.355577;-1.00722;-0.357974;1.12653;-5.93645;0.000521737;-6.00789e-05;-0.000407107;0.000525606;-0.000410976;0.000468291;1.28157;0.780291;0.000542085;0.000624389;1.27892;0.781909;40.6232;85.6232;-0.0037508;0.000518448;0.00244354;-0.00256602;-0.000410091;0.00183051;0.00743376;0;0.0259503;-0.00790859;0.330089
202000;203;24.1917;-0.00240182;-9.92728e-05;-2.22924;24.0836;-0.499945;-0.056837;-0.0123021;-0.346241;-0.296971;-1.01664;-0.0233086;1.05939;-5.43083;0.000579232;0.000683351;0.00150644;0.00186861;0.000217066;0.000825772;-0.384503;-2.60076;0.00118006;0.00110103;-8.60848;-0.116165;96.0972;141.097;-0.00294777;0.000577637;0.00328193;-0.00191283;0.0015013;0.000882699;0.0064038;0;0.0442023;-0.357685;-1.00778;-0.36407;1.12965;-5.94254;0.000433048;-2.49525e-05;-0.000539987;0.000433687;-0.000540627;0.000487157;0.801959;1.24695;0.000563649;0.000649542;0.802193;1.24658;44.1614;89.1614;-0.00404633;0.000430317;0.00228557;-0.00233773;-0.0005426;0.00284925;0.00617601;0;0.022212;-0.0076781;0.334104
203000;204;24.1933;-0.000806823;-3.33479e-05;-2.22907;24.0853;-0.494039;-0.0566736;-0.010563;-0.340336;-0.299566;-1.02107;-0.0140241;1.0642;-5.42154;0.000515738;0.000999325;0.00104766;0.00181581;-0.000252411;0.00103411;-0.492276;-2.03138;0.00130285;0.00137881;7.19386;0.139007;88.0525;133.053;-0.00441917;0.000515385;0.00330599;-0.00130612;0.0010427;0.000691554;-4.13422e-05;0;0.0466809;-0.359685;-1.0112;-0.357086;1.13111;-5.93556;0.000382809;-5.37431e-05;-0.000558294;0.000385868;-0.000561354;0.000473611;0.685676;1.45841;0.000549998;0.000631481;0.687389;1.45478;42.7479;87.7479;-0.00332007;0.000379762;0.00236004;-0.0024698;-0.000561079;0.00146118;0.00741187;0;0.0217418;-0.00764283;0.34631
204000;205;24.191;-0.00312692;-0.000129243;-2.22953;24.0829;-0.499042;-0.0571328;-0.0130391;-0.345338;-0.303631;-1.02318;-0.016015;1.06741;-5.42354;0.000563733;0.00104211;0.001304;0.00203976;-0.000172022;0.00110589;-0.432309;-2.31316;0.00142065;0.00147452;11.8575;0.0843347;88.4746;133.475;-0.00498874;0.000563546;0.00329406;-0.00120818;0.00129913;0.000230418;-0.0028071;0;0.0475932;-0.363153;-1.01279;-0.360615;1.13475;-5.93909;0.000462199;-0.000129976;-0.000623759;0.000477538;-0.000639098;0.000558318;0.74099;1.34955;0.000646936;0.000744425;0.747206;1.33832;39.1843;84.1843;-0.00350918;0.000458916;0.00230346;-0.00256606;-0.000626405;0.00108384;0.00790057;0;0.0253212;-0.00754723;0.34904
205000;206;24.1914;-0.00274025;-0.000113261;-2.23015;24.0832;-0.49957;-0.057747;-0.0127185;-0.345866;-0.306093;-1.02494;-0.0154842;1.06978;-5.423;0.000381678;0.000726781;0.00148143;0.00184291;2.01952e-05;0.000911359;-0.257641;-3.88137;0.00122193;0.00121515;-91.2549;-0.0109583;97.1233;142.123;-0.00546442;0.000380834;0.00294502;-0.00148903;0.00147736;0.00279789;-0.00180724;0;0.0488586;-0.365748;-1.01513;-0.359913;1.13745;-5.93839;0.000409477;-0.000149868;-0.00063119;0.00043063;-0.000652342;0.000541486;0.648738;1.54145;0.000629607;0.000721981;0.660128;1.51486;38.2314;83.2314;-0.00339973;0.000406131;0.00228957;-0.00259185;-0.000633801;0.000923551;0.00846063;0;0.0277496;-0.00789652;0.353299
206000;207;24.1906;-0.0035129;-0.000145196;-2.22998;24.0823;-0.504642;-0.0575749;-0.0135845;-0.350938;-0.308053;-1.03242;-0.0152636;1.07751;-5.42278;0.000167336;0.000483085;0.000167296;0.000650401;-0.000315769;0.000483085;-1.00024;-0.999758;0.000568862;0.000644114;2.05974;0.485499;87.7393;132.739;-0.00410252;0.00016607;0.00262952;-0.00166335;0.000163956;0.00219092;0.00455869;0;0.0501092;-0.367283;-1.0209;-0.365994;1.14503;-5.94447;0.00039822;-0.000244237;-0.000868998;0.000443663;-0.000914441;0.000679052;0.458252;2.18221;0.000799651;0.000905403;0.485174;2.06112;36.9306;81.9306;-0.00331338;0.000393969;0.00243454;-0.00292641;-0.000871934;0.000677083;0.00941839;0;0.0243514;-0.00769985;0.365522
207000;208;24.1928;-0.00135352;-5.59441e-05;-2.22993;24.0846;-0.501104;-0.0575336;-0.0113377;-0.3474;-0.310893;-1.03283;-0.0172351;1.07875;-5.42476;0.000232717;0.000818803;4.43546e-05;0.000962737;-0.000685666;0.000824201;-5.24673;-0.190595;0.000956177;0.00109894;1.40409;0.712205;84.5625;129.563;-0.00376991;0.00023251;0.0026785;-0.00104125;4.11028e-05;0.00180724;0.00409564;0;0.0485067;-0.369402;-1.02264;-0.366329;1.14737;-5.9448;0.000413409;-0.000245771;-0.000796384;0.000461432;-0.000844406;0.000652919;0.519108;1.92638;0.000764657;0.000870559;0.546457;1.82997;35.9398;80.9398;-0.00354405;0.000409122;0.00244436;-0.00293916;-0.000799344;0.00212815;0.00888382;0;0.0235095;-0.00747961;0.36871
208000;209;24.1938;-0.00035652;-1.47358e-05;-2.22944;24.0856;-0.502748;-0.0570353;-0.0103244;-0.349044;-0.311487;-1.03593;-0.0218111;1.08197;-5.42933;0.000193576;0.000488523;0.000483385;0.000848041;-0.00017108;0.000509561;-0.400459;-2.49713;0.000630177;0.000679414;4.95698;0.201736;93.258;138.258;-0.00295287;0.000192657;0.00241859;-0.00144099;0.000480581;0.00206807;0.00658362;0;0.050662;-0.369338;-1.02512;-0.373284;1.15179;-5.95176;0.00044893;-0.000308141;-0.00090292;0.000515854;-0.000969844;0.000742849;0.497198;2.01127;0.000871015;0.000990466;0.531894;1.88008;35.1297;80.1297;-0.00347461;0.000444514;0.00236856;-0.00298846;-0.00090568;0.00170559;0.00931266;0;0.0319616;-0.00749441;0.376547
209000;210;24.1924;-0.00173377;-7.16608e-05;-2.22787;24.0841;-0.514306;-0.0554693;-0.0118069;-0.360602;-0.314265;-1.03964;-0.0248239;1.08639;-5.43234;1.04182e-05;0.000800052;0.000562477;0.00113278;-0.000559883;0.000846331;-0.018522;-53.9897;0.000995742;0.00112844;2.02324;0.494257;94.8621;139.862;-0.00303324;1.02808e-05;0.00255757;-0.000956498;0.000559528;0.00355363;0.00763279;0;0.0464786;-0.371105;-1.02968;-0.38067;1.15882;-5.95915;0.000429345;-0.000334552;-0.000963074;0.000505556;-0.00103928;0.00077242;0.445807;2.24312;0.000909485;0.00102989;0.486446;2.05573;35.012;80.012;-0.00349202;0.000424966;0.00230626;-0.00297904;-0.00096568;0.00187022;0.0101555;0;0.0255217;-0.00744067;0.383053
210000;211;24.1927;-0.00144745;-5.98264e-05;-2.22711;24.0843;-0.519081;-0.0547065;-0.0115512;-0.365377;-0.31559;-1.0445;-0.0234307;1.09139;-5.43095;0.000150851;0.000590083;0.000883228;0.00121151;-0.000177433;0.000694472;-0.170795;-5.85498;0.000872851;0.000925963;6.82799;0.146456;97.9602;142.96;-0.00358755;0.000150267;0.00241234;-0.00123084;0.000880494;0.00364006;0.00472469;0;0.0500147;-0.37155;-1.03405;-0.383816;1.16389;-5.96229;0.000394529;-0.000224785;-0.000939362;0.00043139;-0.000976224;0.000703807;0.419996;2.38097;0.000832732;0.00093841;0.441897;2.26297;38.7526;83.7526;-0.00363059;0.000390822;0.0022797;-0.00273261;-0.000941938;0.0014594;0.0110322;0;0.0293687;-0.0072504;0.390223
211000;212;24.193;-0.0010752;-4.44404e-05;-2.22742;24.0847;-0.517383;-0.0550149;-0.0111693;-0.363679;-0.315674;-1.04624;-0.028792;1.0932;-5.43631;0.000264166;0.000342108;0.000745236;0.000922906;8.64967e-05;0.000418205;-0.354473;-2.82109;0.000588561;0.000557606;-10.6698;-0.0937221;99.9424;144.942;-0.00264978;0.000263072;0.00220414;-0.00151903;0.000742868;0.00360878;0.00582841;0;0.049183;-0.371477;-1.03672;-0.388539;1.16779;-5.96701;0.000433227;-7.6238e-06;-0.000788754;0.000433275;-0.000788801;0.000611038;0.549255;1.82065;0.000715449;0.000814718;0.549283;1.82056;46.7126;91.7126;-0.00362517;0.00043029;0.00240602;-0.00242422;-0.000791651;0.00304873;0.00970968;0;0.0355583;-0.0072621;0.395769
212000;213;24.1933;-0.000852016;-3.52158e-05;-2.22578;24.085;-0.521041;-0.053375;-0.0108723;-0.367337;-0.31872;-1.05244;-0.0295317;1.10004;-5.43705;-1.12937e-05;0.000374242;0.00160166;0.00168426;-9.38961e-05;0.00088908;0.00705127;141.819;0.00115541;0.00118544;17.9375;0.0557491;110.814;155.814;-0.00310463;-1.229e-05;0.00221176;-0.00146032;0.00159929;0.00456059;0.00423477;0;0.0522946;-0.373266;-1.04312;-0.393159;1.17558;-5.97163;0.000519852;-5.13445e-05;-0.000842318;0.000521785;-0.00084425;0.000683018;0.617169;1.6203;0.000795972;0.00091069;0.618045;1.618;44.9794;89.9794;-0.00331522;0.000517475;0.002076;-0.00218159;-0.000844473;0.00225551;0.010548;0;0.0300719;-0.00727581;0.404456
213000;214;24.1938;-0.000323719;-1.33801e-05;-2.2244;24.0858;-0.517824;-0.0520022;-0.0101454;-0.36412;-0.320322;-1.05899;-0.023173;1.10661;-5.43069;-5.19668e-05;0.000319049;0.00117508;0.00125308;-0.000129966;0.000691521;0.0442242;22.612;0.000881904;0.000922028;9.64154;0.103718;112.648;157.648;-0.00370095;-5.30366e-05;0.00213741;-0.00149709;0.00117285;0.00695427;0.00717579;0;0.0520436;-0.374098;-1.05063;-0.385484;1.17999;-5.96396;0.000318706;-6.50512e-05;-0.00075817;0.000322621;-0.000762085;0.000542353;0.420362;2.3789;0.00064316;0.000723138;0.42334;2.36217;44.5315;89.5315;-0.00301111;0.000316392;0.00202013;-0.00215248;-0.00076021;0.00313443;0.00975923;0;0.0244265;-0.00728787;0.411069
214000;215;24.1924;-0.0017305;-7.15258e-05;-2.22433;24.0842;-0.522437;-0.0519262;-0.0116511;-0.368733;-0.321045;-1.06164;-0.0229482;1.10935;-5.43047;-0.000180795;0.000231317;0.00106106;0.00110275;-0.000222482;0.000662616;0.170391;5.86887;0.000819457;0.000883488;4.95657;0.201752;117.57;162.57;-0.00349278;-0.000181871;0.00194953;-0.00148477;0.00105919;0.00629457;0.00452253;0;0.049414;-0.374776;-1.05169;-0.393229;1.1837;-5.9717;0.000562411;0.000135011;-0.000523257;0.000578949;-0.000539795;0.000559372;1.07483;0.930382;0.000646039;0.000745829;1.07253;0.932371;51.6913;96.6913;-0.00293646;0.000560399;0.0022787;-0.00201101;-0.000525846;0.00181188;0.0113054;0;0.022182;-0.00727398;0.411425
215000;216;24.1937;-0.000390567;-1.61431e-05;-2.22231;24.0857;-0.525649;-0.0499084;-0.0101888;-0.371945;-0.323097;-1.06782;-0.026433;1.11595;-5.43395;-0.000151381;0.000170141;0.00147045;0.0014881;-0.000169038;0.00082857;0.102949;9.71355;0.00105295;0.00110476;8.80338;0.113593;119.434;164.434;-0.00466909;-0.000152846;0.00206319;-0.00171985;0.00146834;0.00604671;0.00171598;0;0.0501989;-0.37501;-1.05938;-0.397024;1.19187;-5.9755;0.000537514;-2.6225e-05;-0.000791463;0.000538031;-0.00079198;0.000665006;0.67914;1.47245;0.000772534;0.000886674;0.67935;1.472;45.4042;90.4042;-0.00293565;0.000534764;0.00229044;-0.00234598;-0.000794087;0.00193982;0.00932947;0;0.025816;-0.00703125;0.425569
216000;217;24.193;-0.00116039;-4.79615e-05;-2.22309;24.0847;-0.531603;-0.0506908;-0.011165;-0.377899;-0.323565;-1.07073;-0.0328802;1.11904;-5.4404;-0.000258828;0.000169658;0.000866434;0.000891457;-0.000283851;0.000587654;0.298728;3.34753;0.000708146;0.000783539;3.14058;0.318413;122.019;167.019;-0.00409723;-0.000260294;0.00206181;-0.00172037;0.000864325;0.00567577;0.00394708;0;0.055874;-0.375858;-1.06182;-0.409475;1.1985;-5.98795;0.000464993;5.70339e-05;-0.000746738;0.000467671;-0.000749416;0.000608544;0.622699;1.60591;0.000708934;0.000811392;0.624047;1.60244;49.3363;94.3363;-0.00276446;0.000462255;0.0024523;-0.00234113;-0.000749745;0.00287827;0.0105512;0;0.0331645;-0.00695887;0.428832
217000;218;24.1915;-0.00264683;-0.0001094;-2.22332;24.0831;-0.535434;-0.0509174;-0.0127639;-0.38173;-0.325669;-1.07538;-0.02904;1.12398;-5.43656;-3.67602e-05;0.000427929;0.00122826;0.00135942;-0.00016792;0.000763671;0.0299287;33.4128;0.000967126;0.00101823;8.09563;0.123523;109.886;154.886;-0.00418519;-3.80085e-05;0.0024954;-0.00163693;0.00122524;0.00427517;0.0020361;0;0.0485683;-0.377713;-1.06499;-0.409516;1.2019;-5.98799;0.00046261;6.28021e-05;-0.000784705;0.000465764;-0.000787859;0.000626811;0.589533;1.69626;0.000731699;0.000835748;0.591177;1.69154;49.6805;94.6805;-0.0027858;0.000459634;0.00256333;-0.00244085;-0.000787991;0.00112465;0.010706;0;0.0210067;-0.00610091;0.43445
218000;219;24.1913;-0.00279842;-0.000115665;-2.22389;24.0828;-0.539133;-0.0514874;-0.0130513;-0.38543;-0.325705;-1.07662;-0.0365394;1.1254;-5.44406;0.0001346;0.000611645;0.000994884;0.00131249;-0.000183009;0.000747751;-0.135292;-7.39141;0.000941943;0.000997001;7.17176;0.139436;99.6156;144.616;-0.00470862;0.000133835;0.00260501;-0.00138001;0.000991682;0.00363937;0.000922613;0;0.0506112;-0.377466;-1.06558;-0.424852;1.20766;-6.00333;0.000436698;-2.95855e-05;-0.000864327;0.000437371;-0.000865;0.000651185;0.505246;1.97923;0.000765316;0.000868247;0.505631;1.97773;46.1275;91.1275;-0.00229032;0.000433551;0.00244726;-0.00250965;-0.000867324;0.00105789;0.0109695;0;0.0233228;-0.0041514;0.441309
219000;220;24.1925;-0.0016326;-6.74793e-05;-2.22443;24.0838;-0.547839;-0.0520265;-0.0121265;-0.394135;-0.329489;-1.07322;-0.0463412;1.12361;-5.45386;-4.51675e-05;0.000388661;0.00113691;0.00125325;-0.000161507;0.00070738;0.0397282;25.1711;0.000894212;0.000943173;7.75975;0.12887;111.713;156.713;-0.00242751;-4.69775e-05;0.00272194;-0.00194186;0.00113329;0.0013734;0.0100532;0;0.0611532;-0.381794;-1.06277;-0.441458;1.21249;-6.01993;0.000807587;0.000264606;-0.000778883;0.000850557;-0.000821853;0.000836205;1.03685;0.964457;0.000965614;0.00111494;1.03493;0.966253;54.0447;99.0447;-0.00268789;0.000803796;0.00329177;-0.00276736;-0.00078427;0.00244866;0.0129315;0;0.0333056;-0.00372059;0.448617
220000;221;24.1901;-0.00405505;-0.000167605;-2.22449;24.0811;-0.556857;-0.0520914;-0.0147727;-0.403154;-0.329092;-1.07935;-0.0344704;1.12893;-5.44199;0.000135507;0.000373294;0.000171413;0.000527185;-0.000220265;0.000373725;-0.790527;-1.26498;0.000443502;0.0004983;2.39341;0.417814;89.2892;134.289;-0.00288454;0.000134027;0.00250713;-0.00176047;0.00016834;0.00091848;0.00558823;0;0.0486261;-0.381846;-1.06718;-0.435517;1.21423;-6.01399;0.000556977;0.000174203;-0.000878825;0.00057781;-0.000899659;0.000738734;0.633774;1.57785;0.000859737;0.000984979;0.642255;1.55701;53.3795;98.3795;-0.00312278;0.000553337;0.00304856;-0.00270428;-0.000883461;0.00276927;0.0131562;0;0.0226368;-0.0036281;0.455859
221000;222;24.1905;-0.0036646;-0.000151467;-2.22653;24.0811;-0.566721;-0.0541267;-0.0147987;-0.413017;-0.331106;-1.0808;-0.039916;1.13108;-5.44744;-0.000214597;0.000418778;0.000409111;0.000619395;-0.00042488;0.000522138;0.524544;1.90642;0.000606389;0.000696183;1.45781;0.685961;107.037;152.037;-0.00121991;-0.000216086;0.00261461;-0.00177569;0.000405782;0.000127384;0.0134431;0;0.0518547;-0.385293;-1.06697;-0.453066;1.22154;-6.03154;0.000619516;0.00017205;-0.000895932;0.000638804;-0.00091522;0.000777012;0.691477;1.44618;0.000901935;0.00103602;0.697979;1.43271;52.7011;97.7011;-0.00287466;0.000615704;0.00310722;-0.00276757;-0.000900749;0.00318742;0.0129255;0;0.0224341;-0.000465307;0.463567
222000;223;24.1906;-0.00355905;-0.000147104;-2.22655;24.0812;-0.568136;-0.0541439;-0.0147276;-0.414432;-0.332263;-1.08001;-0.0412109;1.13072;-5.44873;-0.000242444;0.000379727;8.37829e-06;0.000282868;-0.000516933;0.0003999;;;0.00046831;0.0005332;0.547204;1.82747;100.602;145.602;-0.00295358;-0.000244099;0.00261866;-0.00185864;5.02173e-06;-0.000246459;0.00754156;0;0.0513169;-0.38736;-1.06631;-0.458417;1.22361;-6.03689;0.000668937;9.4305e-05;-0.000904634;0.000674568;-0.000910266;0.000792417;0.739456;1.35235;0.000918371;0.00105656;0.741068;1.3494;49.4632;94.4632;-0.00295787;0.000664433;0.00318738;-0.00300364;-0.000909714;0.00396413;0.0125419;0;0.0237091;0.000315887;0.470898
223000;224;24.1915;-0.0026213;-0.000108344;-2.22581;24.0821;-0.571711;-0.0534121;-0.0138026;-0.418007;-0.337376;-1.07943;-0.0487237;1.13198;-5.45624;-0.000262097;7.69104e-05;-0.00155382;-0.000257533;-0.00155839;0.000650427;-0.168678;-5.92844;0.000964609;0.000867236;-0.165256;-6.05121;58.561;103.561;-0.00383868;-0.000264891;0.00251551;-0.00236484;-0.00155699;0.00189842;0.00939121;0;0.0575597;-0.392664;-1.06652;-0.467953;1.22907;-6.04643;0.000665647;-0.000190288;-0.000998497;0.000687129;-0.00101998;0.000853553;0.66665;1.50004;0.000991824;0.00113807;0.67367;1.48441;40.3088;85.3088;-0.00314642;0.000661591;0.00247068;-0.00285569;-0.00100153;0.00282813;0.0101485;0;0.0280669;0.000222671;0.47437
224000;225;24.1923;-0.00176786;-7.30697e-05;-2.22656;24.0827;-0.58069;-0.054162;-0.0132294;-0.426986;-0.33843;-1.08118;-0.0446851;1.13379;-5.45221;-0.00013031;0.00052256;-0.0008424;0.000145972;-0.00111868;0.000632326;-0.154689;-6.46459;0.000798902;0.000843102;0.130485;7.66369;78.3377;123.338;-0.00373134;-0.000132126;0.00301952;-0.00197619;-0.000846826;-0.000165219;0.010216;0;0.0577187;-0.39431;-1.0682;-0.473061;1.23301;-6.05154;0.000598564;-0.000101366;-0.000888574;0.000605442;-0.000895452;0.000750447;0.673623;1.48451;0.000871917;0.0010006;0.67613;1.47901;42.631;87.631;-0.00325131;0.000594709;0.00257258;-0.00277929;-0.000891881;0.00291368;0.0106361;0;0.0301899;0.00294753;0.485794
225000;226;24.1912;-0.00294394;-0.00012168;-2.22694;24.0812;-0.591995;-0.0545358;-0.0147207;-0.438291;-0.342212;-1.08119;-0.0498445;1.13515;-5.45736;0.000207051;0.000793887;-0.00106488;0.000588291;-0.00144612;0.00101721;0.194436;5.14309;0.00120887;0.00135628;0.406806;2.45817;74.9067;119.907;-0.00374404;0.000205273;0.00363013;-0.00204598;-0.00107116;-0.000263442;0.010382;0;0.055085;-0.398186;-1.06808;-0.48461;1.23863;-6.06309;0.000559549;-9.07224e-05;-0.000738605;0.000565858;-0.000744914;0.000655386;0.757575;1.32;0.000759125;0.000873848;0.759629;1.31643;42.0101;87.0101;-0.00294978;0.000556188;0.0024103;-0.002595;-0.000741507;0.00179092;0.0103974;0;0.0348414;0.00403634;0.493232
226000;227;24.1932;-0.000949175;-3.92317e-05;-2.22697;24.0832;-0.590047;-0.0545704;-0.0126722;-0.436343;-0.345088;-1.08035;-0.0522577;1.13533;-5.45978;-3.06093e-06;0.000565005;-0.000842916;0.000280978;-0.00112696;0.000703967;;;0.000860395;0.000938623;0.249325;4.01083;76.3142;121.314;-0.00438467;-4.92559e-06;0.00313994;-0.0020121;-0.00084769;0.00201611;0.00674781;0;0.0524626;-0.401081;-1.06811;-0.486016;1.24014;-6.06449;0.000523701;-0.000218908;-0.000843292;0.000557901;-0.000877492;0.000717697;0.621019;1.61026;0.000835544;0.000956929;0.63579;1.57285;37.9393;82.9393;-0.00235641;0.00052012;0.00224472;-0.0026859;-0.00084579;0.00212163;0.010888;0;0.039159;0.00407345;0.493431
227000;228;24.1925;-0.00159831;-6.60618e-05;-2.22811;24.0822;-0.600497;-0.0557082;-0.0136878;-0.446793;-0.348179;-1.07964;-0.0566266;1.13581;-5.46415;-4.71497e-05;0.000352649;-0.000763224;9.73586e-05;-0.000907732;0.000502545;-0.061777;-16.1872;0.00064008;0.00067006;0.107255;9.32359;71.8295;116.83;-0.00387252;-4.94184e-05;0.00286255;-0.00215905;-0.000767262;0.00253692;0.00932204;0;0.0482658;-0.404715;-1.06683;-0.500392;1.24592;-6.07887;0.000503997;-0.000197359;-0.000900097;0.00053121;-0.00092731;0.00072926;0.559936;1.78592;0.000852365;0.000972347;0.57285;1.74566;39.3768;84.3768;-0.00311349;0.000500372;0.00230206;-0.00270029;-0.000902729;0.00152223;0.0101254;0;0.0370625;0.00745759;0.502869
228000;229;24.1938;-0.000363371;-1.5019e-05;-2.22709;24.0835;-0.603728;-0.0546847;-0.0124333;-0.450024;-0.351456;-1.07999;-0.0571566;1.13717;-5.46468;7.36622e-05;0.000709953;-6.60785e-05;0.000717175;-0.000709591;0.000713383;1.11477;0.897046;0.000823748;0.000951178;1.01069;0.989425;87.1097;132.11;-0.00452669;7.25838e-05;0.00305083;-0.00163126;-7.04805e-05;0.0036826;0.00848879;0;0.0581351;-0.40882;-1.06848;-0.502567;1.24954;-6.08104;0.000360062;-0.00020066;-0.000870051;0.000391966;-0.000901956;0.000646961;0.413839;2.4164;0.000766145;0.000862615;0.434574;2.30111;38.8158;83.8158;-0.00289927;0.000356372;0.00231984;-0.00272426;-0.000872725;0.00296115;0.0109359;0;0.0319302;0.00795292;0.511004
229000;230;24.193;-0.00112273;-4.64052e-05;-2.22841;24.0825;-0.605596;-0.0560095;-0.0133656;-0.451892;-0.354446;-1.083;-0.0537533;1.14079;-5.46127;7.75798e-05;0.000717138;0.00032457;0.000928769;-0.000526619;0.000727694;-0.239023;-4.18369;0.000850894;0.000970259;1.76365;0.567007;92.3712;137.371;-0.00369138;7.6559e-05;0.00303362;-0.00159877;0.000320227;0.00118009;0.00605685;0;0.0568569;-0.412564;-1.07058;-0.500785;1.25185;-6.07926;0.000455147;-0.000101104;-0.000769577;0.000463437;-0.000777868;0.000620652;0.591424;1.69083;0.000724291;0.000827537;0.595779;1.67848;42.1576;87.1576;-0.00320069;0.00045204;0.00229011;-0.00249525;-0.000772197;0.00335157;0.0118281;0;0.0401303;0.00796882;0.515542
230000;231;24.1929;-0.00117846;-4.87087e-05;-2.22981;24.0821;-0.614117;-0.0574136;-0.0137674;-0.460413;-0.358299;-1.08143;-0.0569267;1.14067;-5.46445;7.40512e-05;0.000595699;0.00111049;0.00138183;-0.000197292;0.000789561;-0.0666835;-14.9962;0.000993535;0.00105275;7.004;0.142776;102.49;147.49;-0.002614;7.31458e-05;0.0026652;-0.00147167;0.00110712;0.00195773;0.00938749;0;0.0525171;-0.418072;-1.06985;-0.507873;1.25591;-6.08635;0.000369136;-7.94063e-05;-0.000866479;0.000374218;-0.000871562;0.00062289;0.426018;2.34732;0.00073811;0.00083052;0.429365;2.32902;43.8298;88.8298;-0.00363693;0.000364974;0.00272469;-0.00288697;-0.000870191;0.00376501;0.0157325;0;0.0297043;0.0109115;0.523071
231000;232;24.1911;-0.00296667;-0.00012262;-2.23275;24.0798;-0.623122;-0.0603457;-0.0160668;-0.469418;-0.362351;-1.08255;-0.0541656;1.14287;-5.45787;-6.3304e-05;0.000399287;0.000632611;0.00081428;-0.000244973;0.000529627;0.100068;9.99322;0.000640327;0.000706169;3.32396;0.300846;106.842;151.842;-0.00222461;-6.48716e-05;0.00261514;-0.00181503;0.000629273;0.00229911;0.0109447;0;0.0511496;-0.424841;-1.06995;-0.5117;1.25981;-6.09017;0.00068962;0.000137535;-0.000964824;0.000700976;-0.00097618;0.000838578;0.714763;1.39907;0.000972642;0.0011181;0.718081;1.3926;50.944;95.944;-0.0033785;0.000685222;0.00324008;-0.00297015;-0.000970069;0.00227302;0.015933;0;0.0215726;0.0126355;0.529681
232000;233;24.1922;-0.00188418;-7.78776e-05;-2.23358;24.0808;-0.623551;-0.061182;-0.015068;-0.469848;-0.364437;-1.08077;-0.0593068;1.14211;-5.46683;-0.000385583;0.000299539;0.000941494;0.00100597;-0.000450061;0.000728016;0.409544;2.44174;0.000860822;0.000970688;2.23519;0.447389;119.191;164.191;-0.00452315;-0.000387308;0.00248294;-0.00188096;0.00093846;0.0024506;0.00332988;0;0.0576498;-0.428602;-1.06787;-0.521314;1.26326;-6.09979;0.000734746;0.000215337;-0.00100326;0.000761028;-0.00102955;0.000895288;0.732355;1.36546;0.00103766;0.00119372;0.739187;1.35284;53.0706;98.0706;-0.0042934;0.000729958;0.00352785;-0.00310294;-0.00100947;0.00507787;0.0176716;0;0.0299218;0.0124778;0.537338
233000;234;24.1928;-0.00129114;-5.33661e-05;-2.23596;24.0811;-0.627454;-0.0635588;-0.0147942;-0.47375;-0.367771;-1.08097;-0.0566572;1.14323;-5.46418;-6.57774e-05;0.000490064;0.000937831;0.00113743;-0.000265379;0.000701406;0.0701378;14.2577;0.000860498;0.000935208;4.28607;0.233314;107.043;152.043;-0.00409055;-6.70131e-05;0.00262891;-0.00164664;0.000934499;0.00227463;0.00541115;0;0.054278;-0.434121;-1.06717;-0.529251;1.26784;-6.10773;0.000616036;0.0002169;-0.000876108;0.000646926;-0.000906998;0.000776962;0.703151;1.42217;0.000901337;0.00103595;0.713261;1.40201;54.2272;99.2272;-0.00395688;0.000611641;0.00340276;-0.00297372;-0.000881879;0.00691693;0.0145965;0;0.0192806;0.0153973;0.544737
234000;235;24.1925;-0.00165494;-6.84024e-05;-2.23749;24.0803;-0.638394;-0.0650882;-0.0155892;-0.48469;-0.371681;-1.07935;-0.0588071;1.14307;-5.46633;-0.000166875;0.000374571;0.000554625;0.000713918;-0.000326167;0.000520042;0.300879;3.3236;0.000614246;0.00069339;2.18881;0.45687;109.463;154.463;-0.0032661;-0.000168555;0.00262154;-0.00187078;0.000551261;0.00146955;0.00697247;0;0.0580942;-0.440366;-1.06501;-0.540602;1.27296;-6.11908;0.000589079;0.00012461;-0.000718822;0.000600845;-0.000730589;0.000665717;0.819506;1.22025;0.000769919;0.000887623;0.822413;1.21593;50.9846;95.9846;-0.00449926;0.000585128;0.00306011;-0.00281474;-0.0007235;0.0056564;0.0139841;0;0.0280157;0.0181222;0.552489
235000;236;24.1937;-0.000378784;-1.56561e-05;-2.23944;24.0814;-0.63794;-0.0670435;-0.0144769;-0.484236;-0.374471;-1.07974;-0.0598998;1.14441;-5.46742;-0.000327812;0.000160688;0.000805162;0.000827511;-0.000350162;0.000588836;0.407139;2.45617;0.000698299;0.000785115;2.36323;0.42315;124.096;169.096;-0.00375823;-0.000330103;0.00246982;-0.00214584;0.000802127;0.00279967;0.00714046;0;0.0576275;-0.444446;-1.06566;-0.544278;1.27648;-6.12275;0.000646575;6.91157e-05;-0.000686248;0.00065015;-0.000689822;0.000669986;0.942189;1.06136;0.000773746;0.000893315;0.942489;1.06102;48.1279;93.1279;-0.00399053;0.000642984;0.00281646;-0.00268189;-0.000690214;0.00506619;0.0122926;0;0.0215586;0.0181463;0.557905
236000;237;24.1929;-0.00120134;-4.96542e-05;-2.23996;24.0803;-0.646027;-0.0675637;-0.0155672;-0.492323;-0.377933;-1.07859;-0.0622693;1.14458;-5.46979;-0.000273797;0.000442541;-0.000268305;0.000171498;-0.0007136;0.000442549;-1.02047;-0.979943;0.00054202;0.000590066;0.240328;4.16098;93.4745;138.474;-0.003527;-0.000275464;0.00276358;-0.00187849;-0.000272027;0.00297069;0.00798464;0;0.0560863;-0.448754;-1.0648;-0.550148;1.27978;-6.12862;0.00059337;-6.87025e-05;-0.000708893;0.000596985;-0.000712507;0.000654746;0.837038;1.19469;0.000757016;0.000872995;0.837864;1.19351;42.572;87.572;-0.00391495;0.000589644;0.00259077;-0.00273164;-0.000712249;0.00339944;0.0116225;0;0.0216597;0.0213911;0.558979
237000;238;24.1922;-0.00188664;-7.79791e-05;-2.24272;24.0791;-0.655104;-0.0703155;-0.0167571;-0.5014;-0.381084;-1.07631;-0.0606607;1.14339;-5.46818;-0.000436046;-4.3479e-05;-0.000300247;-0.000287519;-0.000448774;8.06273e-05;-1.45229;-0.688567;0.000262496;0.000107503;-0.640677;-1.56085;155.415;20.4152;-0.00375679;-0.000439364;0.00248914;-0.00257575;-0.000303345;0.00316728;0.0098471;0;0.055882;-0.453478;-1.06268;-0.555978;1.2822;-6.13445;0.000590379;-0.000116083;-0.000846291;0.000599698;-0.00085561;0.000727654;0.697608;1.43347;0.000844542;0.000970206;0.700901;1.42673;41.6407;86.6407;-0.00409908;0.000585893;0.00276212;-0.00299842;-0.000850102;0.00396244;0.0114021;0;0.022501;0.0252726;0.572046
238000;239;24.1933;-0.000769308;-3.17973e-05;-2.24438;24.0801;-0.656772;-0.0719765;-0.0158347;-0.503068;-0.383634;-1.07554;-0.0604821;1.14352;-5.468;-0.000604382;-3.73701e-05;-0.000287295;-0.000282951;-0.000608727;0.000162888;-2.1037;-0.475354;0.000351738;0.000217184;-0.464824;-2.15135;146.174;11.174;-0.00375857;-0.000608304;0.00272607;-0.00279993;-0.000291012;0.00293972;0.0119723;0;0.0572802;-0.456684;-1.06147;-0.559426;1.28384;-6.1379;0.000619752;-2.35128e-05;-0.000809155;0.000620139;-0.000809542;0.000714841;0.765925;1.30561;0.000827838;0.000953121;0.766037;1.30542;44.9136;89.9136;-0.00456791;0.00061513;0.00299017;-0.00304151;-0.000813629;0.00410136;0.0130359;0;0.02403;0.0257734;0.573765
239000;240;24.1928;-0.00127766;-5.28088e-05;-2.24562;24.0793;-0.661793;-0.0732182;-0.0165987;-0.508089;-0.387675;-1.07292;-0.065112;1.14267;-5.46761;-0.000700303;-1.37702e-05;-0.000461538;-0.000460746;-0.000701095;0.000120174;-1.51733;-0.659054;0.00041139;0.000160232;-0.657181;-1.52165;143.308;8.30775;-0.00273026;-0.000705634;0.00323741;-0.00326417;-0.00046678;0.001677;0.0127439;0;0.0582881;-0.46181;-1.05907;-0.568226;1.28755;-6.1467;0.000557529;6.32013e-05;-0.000941299;0.000560189;-0.00094396;0.000752074;0.592297;1.68834;0.000877792;0.00100277;0.593446;1.68507;49.2222;94.2222;-0.00394415;0.000553331;0.00302104;-0.00289908;-0.000945865;0.00259238;0.0142399;0;0.021376;0.0291411;0.581111
240000;241;24.1916;-0.00254245;-0.000105085;-2.24773;24.0774;-0.677206;-0.0753303;-0.0184951;-0.523502;-0.391922;-1.06905;-0.0697844;1.14077;-5.4773;-0.000433463;0.000323479;-0.000847079;-0.000256333;-0.00102421;0.000383938;-0.511715;-1.95421;0.000615421;0.000511917;-0.250274;-3.99562;78.9556;123.956;-0.00462855;-0.000438209;0.00374257;-0.00309703;-0.000854036;0.00230064;0.0154949;0;0.0564422;-0.467487;-1.05542;-0.582024;1.29275;-6.1605;0.000768861;0.000363139;-0.000952741;0.000842324;-0.0010262;0.000934264;0.806999;1.23916;0.00108053;0.00124568;0.820816;1.2183;57.137;102.137;-0.004157;0.000763978;0.0038675;-0.00314726;-0.000960161;0.00273088;0.0157902;0;0.0197489;0.0346703;0.588081
241000;242;24.1933;-0.00078494;-3.24434e-05;-2.24835;24.0791;-0.678185;-0.0759489;-0.0168146;-0.524481;-0.395367;-1.06658;-0.0720791;1.13979;-5.4796;-0.000340691;0.000209367;-0.00141513;-0.000301335;-0.00145448;0.000576574;-0.240749;-4.1537;0.00088645;0.000768765;-0.207177;-4.8268;62.2935;107.293;-0.00512304;-0.000346712;0.0038907;-0.00347593;-0.00142268;0.00263975;0.0166451;0;0.0584381;-0.472361;-1.05219;-0.594164;1.2974;-6.17264;0.000826814;0.000363521;-0.000917589;0.000899538;-0.000990313;0.000944925;0.901072;1.10979;0.00109153;0.0012599;0.908337;1.10091;56.6137;101.614;-0.00481534;0.000821383;0.00403778;-0.00331715;-0.000925683;0.00553389;0.0151257;0;0.0187721;0.036652;0.59548
242000;243;24.1934;-0.000714139;-2.9517e-05;-2.24863;24.079;-0.681253;-0.0762239;-0.0168557;-0.527549;-0.397867;-1.06728;-0.0698153;1.14117;-5.47734;-0.000236478;0.000324058;-0.000851302;-9.72183e-05;-0.000990562;0.000446672;-0.277784;-3.59992;0.000630472;0.000595562;-0.0981446;-10.189;72.2464;117.246;-0.00526691;-0.000242557;0.00414704;-0.00350128;-0.000859856;0.00401434;0.0160242;0;0.0576285;-0.475894;-1.05204;-0.597203;1.29997;-6.17568;0.000813776;0.000375646;-0.000839339;0.000895132;-0.000920695;0.000907913;0.969544;1.03141;0.0010484;0.00121055;0.972235;1.02856;57.2599;102.26;-0.00482175;0.000807779;0.00422991;-0.003485;-0.000848222;0.00542779;0.016011;0;0.018914;0.0396235;0.603312
243000;244;24.1947;0.000617938;2.55408e-05;-2.25001;24.0802;-0.684282;-0.0776097;-0.0157327;-0.530578;-0.402076;-1.06643;-0.0702289;1.14187;-5.47775;-0.000151349;0.000404436;0.00038621;0.000603035;-0.000368173;0.000485604;0.391882;2.55179;0.000566166;0.000647472;1.63791;0.610534;105.912;150.912;-0.00616712;-0.000157853;0.00444006;-0.00362902;0.000376439;0.00278558;0.0125536;0;0.0601269;-0.481864;-1.05066;-0.607658;1.30588;-6.18613;0.000737424;0.000229114;-0.000674932;0.000773662;-0.000711169;0.000742415;1.09259;0.915255;0.00085752;0.000989887;1.08787;0.919225;53.6918;98.6918;-0.00454321;0.000731481;0.0039095;-0.00345648;-0.000682553;0.00623975;0.0129468;0;0.0182555;0.0478395;0.611146
244000;245;24.1953;0.00122348;5.05692e-05;-2.25068;24.0805;-0.691128;-0.0782825;-0.0153826;-0.537425;-0.405668;-1.06853;-0.0681432;1.14498;-5.47566;-0.000723973;8.53812e-05;0.000911016;0.000915463;-0.000728419;0.000821941;0.794687;1.25836;0.000951141;0.00109592;1.25678;0.795684;131.269;176.269;-0.00539479;-0.000731084;0.00394802;-0.00377094;0.000903234;0.00412921;0.0129584;0;0.0560422;-0.486243;-1.05247;-0.611516;1.31075;-6.18999;0.0005851;5.1916e-05;-0.000835414;0.000586995;-0.000837309;0.000712152;0.700371;1.42781;0.000826545;0.000949536;0.70105;1.42643;48.0636;93.0636;-0.00403177;0.000579147;0.00355086;-0.00345201;-0.000841723;0.00540212;0.0120885;0;0.0243574;0.0544771;0.617898
245000;246;24.1933;-0.000822024;-3.39762e-05;-2.25157;24.0781;-0.700241;-0.0791707;-0.0177842;-0.546537;-0.40796;-1.06778;-0.0707206;1.14524;-5.47824;-0.00041734;0.000424624;0.00102612;0.00114176;-0.000532987;0.000837376;0.406718;2.45871;0.000987983;0.0011165;2.1422;0.46681;117.414;162.414;-0.00514016;-0.000422906;0.00421723;-0.00336252;0.00101732;0.000128027;0.0118201;0;0.0612721;-0.489371;-1.05133;-0.616925;1.31353;-6.1954;0.000362938;-4.28796e-05;-0.000734425;0.000364611;-0.000736098;0.000550355;0.494179;2.02356;0.000647447;0.000733806;0.495329;2.01886;44.1706;89.1706;-0.00394547;0.000356122;0.0036034;-0.00369316;-0.000740922;0.00385613;0.0112821;0;0.0205415;0.0580055;0.622473
246000;247;24.1948;0.000713777;2.95021e-05;-2.2525;24.0796;-0.699699;-0.0800984;-0.0163121;-0.545995;-0.413152;-1.07341;-0.067997;1.15218;-5.47552;-0.00031512;0.000294902;0.00121786;0.00127264;-0.000369894;0.000821265;0.258748;3.86476;0.000994913;0.00109502;3.44055;0.290651;120.672;165.672;-0.00526546;-0.000319963;0.00372062;-0.00312558;0.00121099;0.00238307;0.00983182;0;0.0576671;-0.496117;-1.05672;-0.615005;1.31948;-6.19348;0.000348484;-6.72505e-05;-0.000627459;0.000353097;-0.000632072;0.000492584;0.55539;1.80054;0.000576339;0.000656779;0.558634;1.79008;42.0932;87.0932;-0.00403593;0.000341264;0.00366325;-0.0038014;-0.000634171;0.00557167;0.0134776;0;0.0208292;0.0726184;0.630941
247000;248;24.1947;0.000545707;2.25554e-05;-2.25354;24.0793;-0.701797;-0.0811412;-0.0166396;-0.548093;-0.417583;-1.07813;-0.0680963;1.15818;-5.47562;-0.000308388;0.000457872;0.00179315;0.00188858;-0.000403814;0.0011462;0.171981;5.8146;0.00141302;0.00152826;4.67686;0.213819;116.738;161.738;-0.00525585;-0.000312162;0.0037074;-0.00278485;0.0017864;0.00260205;0.00668652;0;0.0565874;-0.501786;-1.06097;-0.615537;1.32527;-6.19401;0.000317321;-0.000145529;-0.000845287;0.000335261;-0.000863226;0.000599244;0.3754;2.66382;0.000713977;0.000798991;0.388381;2.57479;39.9263;84.9263;-0.0045099;0.000309698;0.0036124;-0.00390783;-0.000851806;0.00543694;0.0139098;0;0.0239033;0.082015;0.638658
248000;249;24.1953;0.0011385;4.70569e-05;-2.25682;24.0795;-0.704676;-0.0844208;-0.0164352;-0.550972;-0.421265;-1.08022;-0.0649209;1.16127;-5.47244;-6.76711e-05;0.000404441;0.00253551;0.0025969;-0.000129059;0.00136298;0.0266894;37.4681;0.00177585;0.0018173;20.1218;0.0496975;116.33;161.33;-0.00557808;-7.20499e-05;0.00380444;-0.00298673;0.00252837;0.0029843;0.00785738;0;0.0563557;-0.508346;-1.0633;-0.614133;1.32898;-6.19261;0.000374322;-2.26945e-05;-0.000974138;0.000374704;-0.00097452;0.000674612;0.38426;2.60241;0.000804224;0.000899482;0.384501;2.60077;46.2372;91.2372;-0.00452197;0.000367006;0.00377539;-0.0038259;-0.000981271;0.00388925;0.0156118;0;0.0244636;0.0901127;0.639881
249000;250;24.1955;0.00139408;5.76208e-05;-2.25872;24.0795;-0.705545;-0.0863178;-0.0163817;-0.551841;-0.424223;-1.08255;-0.0646152;1.1645;-5.47214;-0.000283498;0.000456449;0.00231817;0.00239593;-0.000361255;0.00137859;0.122294;8.17704;0.00173032;0.00183812;6.63223;0.150779;116.955;161.955;-0.00513303;-0.000287719;0.00386259;-0.00294086;0.00231083;0.0038913;0.00739458;0;0.0578211;-0.512568;-1.06485;-0.618629;1.33392;-6.1971;0.000573372;8.88848e-05;-0.00115689;0.000577926;-0.00116144;0.000869685;0.495615;2.0177;0.00102289;0.00115958;0.497593;2.00968;49.9612;94.9612;-0.00542972;0.000565718;0.0040856;-0.00391475;-0.00116524;0.00647995;0.0162936;0;0.020704;0.101818;0.646371
250000;251;24.1945;0.00037319;1.54248e-05;-2.2615;24.0781;-0.710378;-0.0890943;-0.0178102;-0.556674;-0.427618;-1.08693;-0.0641403;1.16978;-5.47166;-0.00058249;0.000337396;0.00232092;0.00235961;-0.000621182;0.0014904;0.250974;3.98448;0.0018159;0.0019872;3.79858;0.263256;120.934;165.934;-0.0052931;-0.000586681;0.00359783;-0.0029136;0.00231452;0.00391502;0.0088254;0;0.0564364;-0.518151;-1.06905;-0.620565;1.34031;-6.19904;0.000686125;0.000202502;-0.00112875;0.000708446;-0.00115107;0.000929757;0.607864;1.64511;0.00108368;0.00123968;0.615468;1.62478;52.6717;97.6717;-0.00573738;0.000677389;0.00458329;-0.00418625;-0.00113924;0.00533633;0.016204;0;0.0214513;0.119212;0.654069
251000;252;24.192;-0.00211748;-8.75203e-05;-2.26345;24.075;-0.723262;-0.091047;-0.02088;-0.569558;-0.430293;-1.08848;-0.0672057;1.17237;-5.47473;-0.000547901;0.000319873;0.00226498;0.0023009;-0.000583817;0.00144236;0.241901;4.13392;0.00176109;0.00192314;3.94112;0.253735;121.209;166.209;-0.00513173;-0.000552218;0.0036041;-0.00295514;0.00225855;0.00350009;0.00941223;0;0.0574169;-0.522715;-1.06844;-0.634023;1.34788;-6.2125;0.000897183;0.000340215;-0.00114799;0.000952293;-0.0012031;0.0010777;0.781525;1.27955;0.00124722;0.00143693;0.791533;1.26337;54.864;99.864;-0.00639644;0.000886833;0.00523486;-0.00456446;-0.00116165;0.00819188;0.0191673;0;0.0213341;0.128038;0.661416
252000;253;24.1933;-0.000778651;-3.21835e-05;-2.26534;24.0762;-0.723301;-0.0929439;-0.0197143;-0.569597;-0.433217;-1.09235;-0.0676932;1.17707;-5.47521;-0.00071518;0.000161773;0.0023329;0.00234147;-0.000723741;0.0015326;0.306562;3.26198;0.00185003;0.00204347;3.23522;0.309098;125.44;170.44;-0.00542666;-0.000720778;0.00368325;-0.003349;0.00232615;0.00465707;0.0115031;0;0.0571297;-0.527264;-1.07226;-0.638433;1.35475;-6.21691;0.000828648;0.000312558;-0.00114951;0.000876859;-0.00119772;0.00103729;0.720869;1.38721;0.00120253;0.00138305;0.732105;1.36592;54.6767;99.6767;-0.006477;0.000819023;0.00501624;-0.00440045;-0.00116206;0.00568337;0.0189427;0;0.0258336;0.145773;0.669071
253000;254;24.1948;0.000708244;2.92734e-05;-2.26633;24.0774;-0.728084;-0.0939253;-0.0184567;-0.57438;-0.433833;-1.09571;-0.0670755;1.18037;-5.4746;-0.000570552;0.000398062;0.0027495;0.00279656;-0.000617611;0.00170708;0.207511;4.81901;0.00210072;0.00227611;4.52802;0.220847;120.112;165.112;-0.00519596;-0.000576093;0.00416014;-0.00335156;0.00274095;0.00185569;0.0124555;0;0.0576722;-0.529489;-1.07684;-0.642578;1.36119;-6.22105;0.000818709;0.00028066;-0.00119449;0.000857104;-0.00123289;0.00104499;0.685404;1.45899;0.00121314;0.00139333;0.695201;1.43843;53.7792;98.7792;-0.00772957;0.000807286;0.00534096;-0.00478985;-0.00120873;0.00647709;0.0186178;0;0.0341704;0.171224;0.676156
254000;255;24.1945;0.000388054;1.60392e-05;-2.26753;24.0769;-0.730325;-0.0951287;-0.0189596;-0.576621;-0.436011;-1.10018;-0.0648736;1.18521;-5.47239;-0.000695889;-4.60545e-05;0.00171269;0.00171357;-0.000696769;0.00120517;0.406312;2.46116;0.00143229;0.0016069;2.45932;0.406617;132.083;177.083;-0.00517573;-0.000702726;0.00361364;-0.00369695;0.00170618;0.00404879;0.0138193;0;0.0562239;-0.532915;-1.08046;-0.645338;1.36669;-6.22381;0.000743668;0.000180461;-0.00110888;0.000761084;-0.0011263;0.000943691;0.670646;1.4911;0.00109646;0.00125825;0.675739;1.47986;51.5066;96.5066;-0.00744963;0.000732485;0.00508642;-0.0047346;-0.00112182;0.00695842;0.0182836;0;0.0301711;0.183113;0.683451
255000;256;24.1954;0.00124061;5.12773e-05;-2.26937;24.0775;-0.734836;-0.0969724;-0.0184138;-0.581132;-0.436163;-1.10177;-0.0688013;1.18696;-5.47632;-0.000504948;0.00055131;0.00284073;0.00292924;-0.000593453;0.00176134;0.177753;5.62579;0.00217776;0.00234846;4.93592;0.202596;117.628;162.628;-0.00556438;-0.00051063;0.00453086;-0.00341497;0.00283065;0.00187073;0.0129042;0;0.0573278;-0.534613;-1.08276;-0.651842;1.37225;-6.23032;0.000629892;0.000136452;-0.00108349;0.000640691;-0.00109429;0.000867488;0.581356;1.72012;0.00101304;0.00115665;0.585488;1.70798;50.8556;95.8556;-0.00756673;0.000619722;0.00477834;-0.0045134;-0.00109491;0.0065299;0.0178819;0;0.0282198;0.201887;0.690952
256000;257;24.1958;0.00166406;6.87795e-05;-2.26969;24.0777;-0.739115;-0.097284;-0.0181486;-0.585411;-0.437528;-1.10704;-0.0676253;1.19228;-5.47515;-0.000465627;0.00081599;0.00285169;0.00304154;-0.000655478;0.00184851;0.163281;6.12442;0.00227785;0.00246468;4.64019;0.215508;113.579;158.579;-0.00663646;-0.000470413;0.00484429;-0.003199;0.00284032;0.0035196;0.0114182;0;0.0564998;-0.537069;-1.08945;-0.655291;1.38013;-6.23377;0.000635979;0.000330018;-0.000666549;0.000714822;-0.000745392;0.000730107;0.954137;1.04807;0.000843117;0.000973477;0.958988;1.04277;58.4735;103.474;-0.0069634;0.000627813;0.00471043;-0.00405611;-0.000677596;0.00744351;0.0169578;0;0.0219054;0.235708;0.698532
257000;258;24.1965;0.00243232;0.000100533;-2.27037;24.0784;-0.739664;-0.0979714;-0.0174583;-0.58596;-0.438477;-1.10872;-0.0724107;1.19448;-5.47993;-0.000804105;0.000276359;0.00211637;0.00214229;-0.000830026;0.00148616;0.379946;2.63195;0.00177094;0.00198154;2.58099;0.387449;125.228;170.228;-0.0055689;-0.000812091;0.00456965;-0.00400443;0.00210599;0.0042435;0.015885;0;0.0595298;-0.538977;-1.09163;-0.661313;1.38545;-6.23979;0.000740448;0.000317127;-0.000501484;0.000816739;-0.000577775;0.000697257;1.47651;0.677271;0.000809054;0.000929676;1.41359;0.707417;57.6683;102.668;-0.00619432;0.000732584;0.00460886;-0.00397995;-0.000512059;0.00631459;0.0140865;0;0.0193629;0.250768;0.704649
258000;259;24.1956;0.00149475;6.17814e-05;-2.27084;24.0773;-0.74309;-0.0984364;-0.0185498;-0.589386;-0.438874;-1.11223;-0.0731798;1.19792;-5.4807;-0.000555295;0.000454108;0.00290097;0.00295964;-0.000613963;0.0017868;0.191417;5.2242;0.00220641;0.0023824;4.82055;0.207445;119.774;164.774;-0.00647903;-0.000562186;0.00466166;-0.00373895;0.00289024;0.00315065;0.0109329;0;0.058065;-0.5401;-1.09489;-0.663595;1.38955;-6.24207;0.000753165;0.000310794;-0.000625404;0.000819993;-0.000692232;0.000756112;1.20429;0.830368;0.000874122;0.00100815;1.18456;0.844192;56.6562;101.656;-0.00623633;0.000744846;0.00470796;-0.00409245;-0.000636445;0.00677565;0.0151374;0;0.0189791;0.272165;0.706606
259000;260;24.1969;0.00276226;0.000114171;-2.27283;24.0784;-0.743857;-0.100433;-0.0174881;-0.590153;-0.43919;-1.11687;-0.0739648;1.20239;-5.48149;-0.000552191;0.000602536;0.00278821;0.00289357;-0.000657552;0.00177556;0.198045;5.04935;0.00218152;0.00236741;4.40051;0.227246;117.594;162.594;-0.00596244;-0.000558523;0.00482749;-0.00360836;0.00277677;0.00113245;0.010095;0;0.0582672;-0.541256;-1.09983;-0.666712;1.39538;-6.24519;0.000701139;0.000266666;-0.000537993;0.00075609;-0.000592944;0.000674517;1.30325;0.767313;0.000780761;0.000899356;1.27515;0.784224;56.0484;101.048;-0.00582857;0.000692674;0.00465267;-0.00412478;-0.000548787;0.00619414;0.0143665;0;0.0204173;0.314888;0.720872
260000;261;24.1966;0.00248031;0.000102517;-2.27314;24.0779;-0.74896;-0.100744;-0.017959;-0.595256;-0.439511;-1.11968;-0.0763798;1.20527;-5.4839;-0.000916245;8.13346e-05;0.00282564;0.00282741;-0.000918012;0.00187271;0.324261;3.08393;0.00225414;0.00249695;3.07992;0.324684;127.01;172.01;-0.00603312;-0.000923964;0.00410574;-0.00392806;0.00281724;0.00446007;0.0120324;0;0.0564359;-0.542391;-1.1021;-0.671068;1.3997;-6.24954;0.00062882;0.000240901;-0.000391142;0.000682855;-0.000445177;0.000564016;1.60765;0.622026;0.000656071;0.000752021;1.53389;0.651935;56.8165;101.816;-0.00589359;0.000619914;0.00470588;-0.00422864;-0.00040219;0.00588587;0.0147196;0;0.0207459;0.336097;0.721921
261000;262;24.1967;0.00256671;0.000106088;-2.2742;24.078;-0.748164;-0.101796;-0.0179468;-0.59446;-0.439664;-1.12236;-0.0792393;1.208;-5.48676;-0.000840789;1.85028e-05;0.00233484;0.00233494;-0.000840897;0.00158792;0.360106;2.77696;0.0019;0.00211723;2.77673;0.360136;129.456;174.456;-0.00548386;-0.000849145;0.00413641;-0.00408636;0.0023263;0.00372761;0.0118028;0;0.0573042;-0.543003;-1.10481;-0.67407;1.40351;-6.25255;0.000635928;0.000209894;-0.000742023;0.000667191;-0.000773286;0.000720238;0.857019;1.16684;0.000832411;0.000960318;0.8628;1.15902;53.7463;98.7463;-0.00531651;0.000626809;0.00469081;-0.0042772;-0.000753011;0.00546748;0.0149104;0;0.0213468;0.354443;0.728718
262000;263;24.197;0.00289753;0.000119762;-2.27426;24.0782;-0.750737;-0.101862;-0.0177007;-0.597033;-0.43989;-1.12748;-0.0775955;1.21273;-5.48512;-0.000552149;0.000541816;0.0025209;0.00261363;-0.000644879;0.00162926;0.219028;4.56562;0.00199248;0.00217234;4.0529;0.246737;118.428;163.428;-0.00591518;-0.000558206;0.00461774;-0.00352163;0.00251041;0.00361622;0.0132207;0;0.0585624;-0.543559;-1.10988;-0.674561;1.40795;-6.25304;0.000569324;4.44535e-05;-0.000711725;0.000570865;-0.000713266;0.000642065;0.799921;1.25012;0.000742911;0.000856087;0.800353;1.24945;47.3866;92.3866;-0.00559535;0.000559873;0.00443224;-0.00434896;-0.000721554;0.00506504;0.0144162;0;0.0227884;0.402711;0.735871
263000;264;24.1995;0.00535315;0.000221258;-2.27504;24.0807;-0.745888;-0.102638;-0.0151555;-0.592184;-0.438972;-1.13061;-0.0792646;1.21542;-5.48678;-0.000793951;0.000301758;0.00298424;0.00300819;-0.0008179;0.00191304;0.266048;3.75872;0.00232652;0.00255073;3.67794;0.271891;122.605;167.605;-0.00603259;-0.000800444;0.00423301;-0.00361469;0.00297535;0.00411675;0.0134193;0;0.0570497;-0.542824;-1.11262;-0.677844;1.4114;-6.25632;0.00063755;7.3561e-05;-0.00073291;0.000641487;-0.000736847;0.000689167;0.869889;1.14957;0.000796416;0.000918889;0.870584;1.14865;48.2991;93.2991;-0.00592273;0.000627549;0.00461523;-0.00447434;-0.000743565;0.00570671;0.0158186;0;0.0227483;0.431286;0.74311
264000;265;24.1987;0.00454011;0.000187654;-2.27521;24.0798;-0.747936;-0.102812;-0.0160525;-0.594232;-0.439519;-1.13417;-0.0798388;1.21898;-5.48736;-0.00062525;0.000471267;0.00307872;0.00313774;-0.00068427;0.001911;0.203088;4.92398;0.00235331;0.002548;4.58552;0.218078;119.492;164.492;-0.00599867;-0.000631743;0.00459089;-0.00363315;0.00306832;0.00370417;0.0130714;0;0.0584157;-0.543697;-1.11669;-0.678653;1.41533;-6.25713;0.000525451;1.51849e-05;-0.000754845;0.000525631;-0.000755025;0.000640328;0.696105;1.43657;0.00074333;0.000853771;0.696177;1.43642;46.3311;91.3311;-0.00619192;0.000515025;0.00459213;-0.00456762;-0.000765396;0.00512194;0.0161152;0;0.0219311;0.457168;0.749663
265000;266;24.2001;0.00597238;0.000246853;-2.27598;24.0812;-0.748724;-0.103581;-0.0147104;-0.59502;-0.43921;-1.13895;-0.0796161;1.2233;-5.48714;-0.000745396;0.000407849;0.00335249;0.00339268;-0.000785593;0.00208914;0.222341;4.49759;0.00256409;0.00278552;4.31863;0.231555;120.513;165.513;-0.0068487;-0.000752147;0.00452846;-0.00369594;0.00334235;0.00355596;0.0108809;0;0.0573836;-0.543833;-1.12251;-0.679988;1.42062;-6.25846;0.000519049;-0.000103288;-0.00064159;0.000528169;-0.000650711;0.00058944;0.809003;1.23609;0.000681851;0.00078592;0.81168;1.23201;40.2578;85.2578;-0.00660887;0.000507395;0.00461797;-0.00483002;-0.000652255;0.0049314;0.0150639;0;0.0244039;0.507089;0.757392
266000;267;24.2014;0.00728341;0.00030104;-2.27523;24.0825;-0.750646;-0.102829;-0.0133816;-0.596942;-0.438698;-1.1426;-0.0813528;1.22663;-5.48887;-0.000659219;0.000290215;0.00357138;0.00359119;-0.000679035;0.00213511;0.184584;5.41758;0.00264964;0.00284682;5.28867;0.189083;121.346;166.346;-0.00601399;-0.00066657;0.00444189;-0.00384396;0.00356159;0.00351107;0.0143634;0;0.0582968;-0.543367;-1.1271;-0.683737;1.42587;-6.26221;0.000607544;-6.70158e-05;-0.000673847;0.000611039;-0.000677342;0.00064419;0.901605;1.10913;0.000744175;0.000858921;0.902113;1.10851;42.1488;87.1488;-0.00653843;0.000596153;0.00463487;-0.00477493;-0.000684593;0.00424663;0.0175942;0;0.021939;0.541975;0.763864
267000;268;24.2005;0.00638456;0.000263889;-2.27481;24.0814;-0.757451;-0.102408;-0.0144582;-0.603747;-0.43857;-1.14594;-0.078905;1.22953;-5.48643;-0.000606586;0.000201767;0.00337757;0.00338776;-0.000616778;0.00200227;0.179592;5.56816;0.0024897;0.00266969;5.49268;0.182061;122.964;167.964;-0.00641214;-0.00061463;0.0044351;-0.00401476;0.00336779;0.00332588;0.0140423;0;0.058419;-0.543358;-1.13123;-0.681864;1.42823;-6.26034;0.000693761;-0.000100316;-0.00061585;0.000701401;-0.000623489;0.000662445;1.12651;0.887697;0.000765366;0.00088326;1.12496;0.88892;40.3367;85.3367;-0.0076693;0.000682691;0.00450136;-0.00470802;-0.000625982;0.00539992;0.0188376;0;0.0248993;0.563276;0.768649
268000;269;24.2015;0.00736663;0.00030448;-2.27486;24.0825;-0.753878;-0.102455;-0.0133636;-0.600174;-0.438255;-1.14987;-0.0823415;1.23331;-5.48986;-0.000525515;0.000771751;0.00384246;0.00397481;-0.000657861;0.00231633;0.136765;7.3118;0.00289419;0.00308844;6.04202;0.165508;114.063;159.063;-0.00625592;-0.000530557;0.00482845;-0.0032673;0.00383114;0.00322587;0.0128756;0;0.0571688;-0.543348;-1.13701;-0.687107;1.43532;-6.26558;0.000615215;3.11201e-05;-0.000435363;0.000616136;-0.000436284;0.00052621;1.41311;0.70766;0.000610566;0.000701614;1.41224;0.708097;46.0229;91.0229;-0.00696681;0.000606485;0.00423787;-0.00418005;-0.000444346;0.00464262;0.0173512;0;0.024551;0.623254;0.778795
269000;270;24.2024;0.00824704;0.00034087;-2.27579;24.0833;-0.754859;-0.10339;-0.0125979;-0.601155;-0.43789;-1.15426;-0.0799754;1.23712;-5.4875;-0.000454819;0.00080773;0.00393498;0.00407889;-0.000598724;0.00233881;0.115583;8.65177;0.00293923;0.00311841;6.81264;0.146786;113.854;158.854;-0.00669287;-0.000460624;0.00513544;-0.00350107;0.00392218;0.00272828;0.0121974;0;0.0590147;-0.543176;-1.14261;-0.685284;1.43882;-6.26376;0.000599197;0.000233751;-0.000132448;0.000667501;-0.000200751;0.000434126;4.52403;0.221042;0.000524875;0.000578835;3.32501;0.300751;59.7123;104.712;-0.00668162;0.000590483;0.00464672;-0.00418245;-0.000143218;0.00653627;0.0167209;0;0.0214569;0.659133;0.785564
270000;271;24.2019;0.00776365;0.00032089;-2.27431;24.0828;-0.760924;-0.101909;-0.0131347;-0.60722;-0.4371;-1.15656;-0.0790955;1.23892;-5.48662;-0.000472905;0.000638481;0.00357115;0.00366956;-0.000571315;0.00212044;0.132424;7.5515;0.00265736;0.00282725;6.423;0.15569;116.043;161.043;-0.00653356;-0.00047901;0.00484498;-0.00355108;0.00355965;0.00275528;0.0136229;0;0.0588679;-0.542344;-1.14544;-0.683447;1.43989;-6.26192;0.00053709;0.000392789;8.80063e-05;0.000764989;-0.000139892;0.000452441;-6.10286;-0.163857;0.000562453;0.000603254;5.46841;0.182869;73.0445;118.044;-0.00598025;0.000528986;0.00482975;-0.00404617;7.64211e-05;0.00596626;0.0176572;0;0.0185416;0.67884;0.786788
271000;272;24.2046;0.0105178;0.000434725;-2.27555;24.0856;-0.755628;-0.103149;-0.0103173;-0.601924;-0.435379;-1.16094;-0.0807964;1.24252;-5.48832;-0.000624691;0.00013338;0.00307739;0.00308219;-0.00062949;0.00185584;0.202994;4.92626;0.0022936;0.00247445;4.89632;0.204235;125.224;170.224;-0.00618408;-0.00063412;0.00462668;-0.00434334;0.00306673;0.00324477;0.0201793;0;0.0616616;-0.540824;-1.15047;-0.68673;1.44488;-6.26521;0.000602675;0.000532756;1.60494e-05;0.000917524;-0.0002988;0.000608162;-37.5513;-0.0266302;0.000731904;0.000810883;3.0707;0.325659;73.5797;118.58;-0.00589875;0.000594672;0.00510003;-0.00403721;3.18627e-06;0.00612226;0.0179272;0;0.0203413;0.743275;0.79325
272000;273;24.2045;0.0103659;0.000428448;-2.27575;24.0853;-0.760269;-0.103351;-0.0106351;-0.606565;-0.434342;-1.16476;-0.0827386;1.24586;-5.49026;-0.000377273;0.000715741;0.0037911;0.00391058;-0.000496746;0.00220366;0.0995153;10.0487;0.00278743;0.00293822;7.87238;0.127026;115.111;160.111;-0.00823987;-0.000384228;0.0052473;-0.00379702;0.00377764;0.00335209;0.0103249;0;0.0602197;-0.540115;-1.15499;-0.689902;1.44972;-6.26838;0.000620127;0.0006694;-1.84352e-05;0.00104249;-0.000440798;0.000741645;33.6382;0.0297281;0.00087955;0.000988859;2.36501;0.422832;75.277;120.277;-0.00598613;0.000612977;0.00517761;-0.00384171;-3.16153e-05;0.00662479;0.0181939;0;0.0242904;0.807065;0.801323
273000;274;24.2051;0.0109713;0.000453471;-2.27587;24.0859;-0.759034;-0.103473;-0.0099992;-0.60533;-0.434582;-1.16842;-0.085198;1.24953;-5.49272;-0.000768259;0.000375432;0.00329747;0.00333185;-0.000802636;0.00206724;0.232984;4.29213;0.00253155;0.00275632;4.15113;0.240898;121.646;166.646;-0.00637631;-0.000776173;0.00476318;-0.00399454;0.00328623;0.00301439;0.0159514;0;0.0580824;-0.540235;-1.15802;-0.692609;1.45347;-6.27108;0.000596343;0.000553113;-1.76272e-05;0.000921951;-0.000343235;0.000632593;33.8308;0.0295588;0.000755498;0.000843457;2.68607;0.372292;73.5907;118.591;-0.00575346;0.000588601;0.00507834;-0.00397491;-3.03693e-05;0.00560097;0.0186759;0;0.0213167;0.831983;0.808157
274000;275;24.2059;0.0117441;0.000485413;-2.27613;24.0866;-0.760338;-0.10373;-0.00928795;-0.606634;-0.433073;-1.17185;-0.0874167;1.25236;-5.49494;-0.000477203;0.00032693;0.00347305;0.00349992;-0.000504078;0.002002;0.137402;7.27792;0.00251818;0.00266933;6.94322;0.144025;121.18;166.18;-0.00730759;-0.000486175;0.00491957;-0.00424763;0.00346104;0.00308519;0.0145739;0;0.0596064;-0.538895;-1.16255;-0.694458;1.45747;-6.27293;0.000551375;0.0005038;5.95707e-05;0.000866082;-0.000255136;0.000560609;-9.25582;-0.10804;0.000678613;0.000747478;3.39459;0.294586;75.0358;120.036;-0.00638117;0.000543008;0.00512804;-0.00412272;4.65499e-05;0.00550601;0.0212423;0;0.0207711;0.893595;0.815998
275000;276;24.2081;0.0140263;0.000579739;-2.27714;24.0889;-0.756173;-0.104738;-0.00695873;-0.602469;-0.431504;-1.17596;-0.0892819;1.25581;-5.4968;-0.000676338;0.000377205;0.00326694;0.0033027;-0.000712097;0.0020074;0.207025;4.83033;0.00247357;0.00267653;4.63799;0.215611;121.568;166.568;-0.00604583;-0.000684938;0.00493527;-0.00416295;0.00325487;0.00166122;0.01712;0;0.0583557;-0.537652;-1.16772;-0.694658;1.46123;-6.27313;0.000497448;0.00048791;-4.41767e-05;0.000784664;-0.000331392;0.000558028;11.2604;0.0888066;0.000661833;0.000744038;2.36778;0.422337;74.0009;119.001;-0.00636297;0.000489204;0.00506419;-0.00409086;-5.68813e-05;0.00494435;0.0217708;0;0.0257465;0.951347;0.823247
276000;277;24.2082;0.0140515;0.000580782;-2.27586;24.0891;-0.756961;-0.10346;-0.00683737;-0.603257;-0.431109;-1.1797;-0.0859062;1.25893;-5.49343;-0.000649179;0.000285188;0.00304194;0.00306385;-0.000671084;0.00186747;0.21341;4.68583;0.00229914;0.00248995;4.56552;0.219033;123.417;168.417;-0.00687388;-0.000658918;0.00500886;-0.00442111;0.00302948;0.00410382;0.0181205;0;0.0606139;-0.537044;-1.17079;-0.693054;1.4627;-6.27153;0.000378944;0.000483368;1.34529e-05;0.000712958;-0.000320561;0.000516759;-28.1681;-0.0355011;0.00061087;0.000689012;2.22409;0.449621;78.4781;123.478;-0.00720013;0.000368223;0.0056213;-0.00465646;-2.22968e-06;0.00641814;0.0234368;0;0.0216611;0.980375;0.830669
277000;278;24.2089;0.014764;0.000610232;-2.27691;24.0897;-0.756359;-0.104505;-0.00620118;-0.602655;-0.429193;-1.18072;-0.0949339;1.25989;-5.50245;-0.000741757;-6.98988e-05;0.00301783;0.00301913;-0.000743056;0.00188109;0.245791;4.06849;0.00230079;0.00250813;4.06313;0.246116;129.479;174.479;-0.00601934;-0.000754167;0.00485922;-0.00498054;0.00300606;0.00288948;0.0187051;0;0.0624694;-0.53531;-1.17341;-0.70051;1.46771;-6.27898;0.00037483;0.000431563;-5.26365e-05;0.000642687;-0.000320493;0.00048159;7.12111;0.140428;0.000566368;0.000642119;2.00531;0.498676;75.8352;120.835;-0.00738825;0.000364401;0.00544924;-0.00458827;-6.73914e-05;0.00594885;0.0235147;0;0.0214247;1.03497;0.838269
278000;279;24.2101;0.0159564;0.000659515;-2.27633;24.0909;-0.758942;-0.103934;-0.00503015;-0.605238;-0.427535;-1.18551;-0.0951986;1.26383;-5.50272;-0.000818721;0.00041128;0.00382985;0.00386595;-0.000854828;0.00236039;0.213774;4.67784;0.00290448;0.00314719;4.52249;0.221117;121.223;166.223;-0.00691359;-0.000828284;0.00523573;-0.00439084;0.00381628;0.000978029;0.0133098;0;0.0571424;-0.533851;-1.17934;-0.700105;1.47173;-6.27858;0.00040875;0.000298334;-4.09123e-05;0.000557486;-0.000189648;0.000373567;9.99088;0.100091;0.000448446;0.000498089;2.93958;0.340185;70.3784;115.378;-0.00741015;0.000397628;0.00532114;-0.00472674;-5.50257e-05;0.00540257;0.0263144;0;0.0216348;1.10072;0.845976
279000;280;24.2109;0.0168305;0.000695646;-2.27591;24.0918;-0.759605;-0.103506;-0.00413216;-0.605901;-0.425744;-1.18974;-0.0933897;1.26707;-5.50091;-0.000896681;0.000244948;0.00336682;0.00338085;-0.000910708;0.00214578;0.266329;3.75475;0.00261096;0.00286104;3.71233;0.269373;124.561;169.561;-0.00788992;-0.0009074;0.00514507;-0.00463436;0.00335366;0.00371033;0.0153061;0;0.0551516;-0.532004;-1.18515;-0.696041;1.4738;-6.27452;0.000473;0.000273073;0.000177235;0.000635663;1.45722e-05;0.000310545;-2.66877;-0.374704;0.000419002;0.00041406;-43.6216;-0.0229244;73.8664;118.866;-0.00768198;0.000461634;0.00532133;-0.00477669;0.000163116;0.00350188;0.025358;0;0.0222351;1.13072;0.849928
280000;281;24.2125;0.0184116;0.000760997;-2.27619;24.0933;-0.75892;-0.103791;-0.0025486;-0.605216;-0.425404;-1.19255;-0.0983146;1.26996;-5.50583;-0.000742779;0.000212689;0.00323146;0.00324281;-0.000754129;0.00199847;0.229859;4.3505;0.00245221;0.00266463;4.30008;0.232554;124.732;169.732;-0.00728606;-0.000753655;0.00511194;-0.00466716;0.00321846;0.00337589;0.019012;0;0.0592799;-0.531539;-1.18946;-0.703634;1.48069;-6.28211;0.00039708;0.000333458;1.2976e-05;0.000589837;-0.000179781;0.000384809;-30.601;-0.0326786;0.000464887;0.000513078;3.28086;0.304798;73.7349;118.735;-0.00737005;0.000387228;0.00511734;-0.00445227;-6.18637e-08;0.00442768;0.0254555;0;0.0235181;1.18668;0.856307
281000;282;24.2136;0.0195092;0.000806362;-2.27611;24.0944;-0.761215;-0.103711;-0.00151043;-0.607511;-0.422906;-1.19705;-0.0978364;1.27332;-5.50536;-0.000695512;0.000378306;0.00254163;0.00258525;-0.000739135;0.00166219;0.273648;3.65433;0.00201557;0.00221626;3.49768;0.285904;123.155;168.155;-0.0074278;-0.000706257;0.00542244;-0.00464956;0.00252704;0.00266004;0.0208724;0;0.0610094;-0.529212;-1.1956;-0.702281;1.48416;-6.28076;0.000263523;0.000343955;0.000393697;0.000678669;-2.1449e-05;0.000350059;-0.669355;-1.49398;0.000459762;0.000466745;31.641;0.0316046;93.2839;138.284;-0.00756765;0.000254167;0.00502845;-0.00433994;0.000381118;0.00461297;0.0253508;0;0.0251236;1.25766;0.866309
282000;283;24.2131;0.0189837;0.000784642;-2.27617;24.0938;-0.761872;-0.103772;-0.002065;-0.608168;-0.42194;-1.19966;-0.0977885;1.27546;-5.50531;-0.000715498;-2.81085e-05;0.00255197;0.00255221;-0.00071574;0.00163398;0.280371;3.56671;0.00198358;0.00217864;3.56584;0.280439;130.567;175.567;-0.0083795;-0.000730061;0.00535635;-0.00539502;0.00253766;0.00594317;0.0202127;0;0.059771;-0.528298;-1.19913;-0.701513;1.48631;-6.27999;0.000171072;0.000500396;0.000594142;0.000925878;-0.000160664;0.000543271;-0.287932;-3.47305;0.00067719;0.000724362;5.76282;0.173526;98.9653;143.965;-0.00679152;0.000163186;0.00500587;-0.00400318;0.000581745;0.00459478;0.0252326;0;0.0190406;1.29162;0.866986
283000;284;24.2148;0.0206528;0.00085363;-2.27621;24.0957;-0.756958;-0.103806;-0.000235963;-0.603254;-0.420187;-1.20287;-0.100323;1.27809;-5.50784;-0.0008431;0.000208997;0.00211886;0.00213354;-0.000857774;0.00149566;0.397902;2.51318;0.00177862;0.00199421;2.4873;0.402043;127.351;172.351;-0.00781817;-0.000855055;0.00532526;-0.00489215;0.00210474;0.00508623;0.0227275;0;0.0559665;-0.527205;-1.204;-0.700944;1.48959;-6.27942;0.000219368;0.000472917;0.000654199;0.000957283;-8.37162e-05;0.0005205;-0.335323;-2.9822;0.000667845;0.000694;11.4349;0.0874519;99.5215;144.522;-0.00643811;0.000211284;0.00499682;-0.00404903;0.000641835;0.00396873;0.0245054;0;0.0194688;1.34705;0.874618
284000;285;24.2148;0.0206601;0.000853929;-2.27796;24.0955;-0.758566;-0.105556;-0.000444644;-0.604862;-0.417853;-1.20456;-0.107831;1.27953;-5.51535;-0.000663965;0.000771157;0.0026159;0.00278816;-0.000836231;0.0018122;0.253819;3.93981;0.00219136;0.00241626;3.3342;0.299922;117.125;162.125;-0.00856056;-0.000673952;0.00609336;-0.00453366;0.00259768;0.00390871;0.0186355;0;0.0614219;-0.525075;-1.20661;-0.710245;1.49534;-6.28872;0.000161167;0.000466221;0.000759152;0.00101402;-9.3698e-05;0.000553858;-0.212298;-4.71035;0.00070931;0.000738477;10.8222;0.0924028;103.299;148.299;-0.00545476;0.000153474;0.00488538;-0.00395031;0.000747336;0.00286495;0.0234331;0;0.0195198;1.41855;0.881986
285000;286;24.2155;0.0213854;0.000883911;-2.27818;24.0961;-0.758985;-0.10578;0.000249919;-0.605281;-0.41596;-1.21029;-0.103085;1.28392;-5.5106;-0.0007542;0.000544452;0.00173419;0.0018481;-0.00086811;0.0013581;0.434901;2.29938;0.00160187;0.00181081;2.12888;0.469731;120.545;165.545;-0.0092728;-0.00076616;0.00602165;-0.00491916;0.00171624;0.00437971;0.0208433;0;0.0589327;-0.523074;-1.21222;-0.705166;1.49677;-6.28364;-4.69551e-06;0.000254832;0.000492507;0.000599914;-0.000112103;0.000356008;;;0.000442074;0.000474678;5.35147;0.186864;110.458;155.458;-0.0053916;-1.28154e-05;0.0045497;-0.0040379;0.000482194;0.00317495;0.0223322;0;0.0200127;1.46334;0.889069
286000;287;24.2158;0.0217043;0.00089709;-2.27816;24.0965;-0.758545;-0.105764;0.000585789;-0.604841;-0.41489;-1.21286;-0.104841;1.28614;-5.51236;-0.000678813;0.000725996;0.00209613;0.00227459;-0.000857275;0.00156593;0.323841;3.08793;0.00186888;0.00208791;2.65328;0.376892;117.543;162.543;-0.0086673;-0.000690723;0.00640031;-0.00493262;0.00207595;0.00397714;0.0221959;0;0.0615103;-0.522224;-1.21472;-0.708522;1.50009;-6.287;-0.000120724;0.000183086;0.000571119;0.000616582;-0.000166187;0.000391385;0.211381;4.73079;0.000476217;0.000521846;3.71017;0.26953;119.531;164.531;-0.00530314;-0.000129648;0.00459768;-0.00422846;0.000560572;0.00342226;0.0228968;0;0.0203781;1.51026;0.896937
287000;288;24.2168;0.0227198;0.000939064;-2.27909;24.0974;-0.758837;-0.106686;0.00150987;-0.605133;-0.414333;-1.21902;-0.104358;1.29173;-5.51188;-0.000986385;0.000301576;0.00164121;0.00167538;-0.00102055;0.00134797;0.601009;1.66387;0.00157173;0.00179729;1.64164;0.609147;126.813;171.813;-0.00955242;-0.00100094;0.00601923;-0.00540109;0.00162317;0.00482592;0.0222459;0;0.0606391;-0.522026;-1.22043;-0.709685;1.5052;-6.28816;-0.000272062;9.16037e-05;0.000461198;0.000472469;-0.000283332;0.000377901;0.589903;1.6952;0.000440893;0.000503867;1.66754;0.599685;127.336;172.336;-0.00517102;-0.000282416;0.00473748;-0.00455087;0.000449986;0.0042265;0.0218392;0;0.0238519;1.58736;0.904698
288000;289;24.215;0.0208739;0.000862766;-2.27955;24.0953;-0.766316;-0.107148;-0.00062562;-0.612612;-0.409867;-1.22112;-0.106068;1.29243;-5.51359;-0.000948565;0.000229761;0.000982672;0.00100963;-0.000975523;0.000992577;0.965291;1.03596;0.00114619;0.00132344;1.03496;0.966218;128.14;173.14;-0.00800487;-0.000962643;0.005779;-0.00530878;0.000966016;0.00417682;0.0231077;0;0.0680591;-0.517355;-1.22139;-0.7161;1.5074;-6.29457;-0.000163086;1.17979e-05;0.00054802;0.000548216;-0.000163281;0.000355749;0.297591;3.36032;0.000430356;0.000474332;3.35749;0.297842;132.772;177.772;-0.0055167;-0.000173357;0.00455876;-0.00453193;0.000537635;0.004599;0.020234;0;0.0280208;1.6434;0.911654
289000;290;24.2171;0.0229503;0.00094859;-2.2791;24.0974;-0.767374;-0.106702;0.00146969;-0.61367;-0.408551;-1.22149;-0.110094;1.2927;-5.51761;-0.00112424;0.000303984;0.00136157;0.0013982;-0.00116087;0.00127954;0.825693;1.2111;0.0014796;0.00170605;1.20444;0.83026;127.414;172.414;-0.00781439;-0.00113677;0.00563464;-0.00501345;0.00134576;0.00507021;0.0236706;0;0.0588356;-0.516438;-1.22394;-0.718043;1.51008;-6.29652;-0.000165222;-6.43658e-05;0.000614512;0.000619789;-0.0001705;0.000395144;0.268867;3.71931;0.000480223;0.000526859;3.63514;0.275093;138.212;3.21198;-0.00465344;-0.000175909;0.00449815;-0.00462332;0.000604403;0.00409492;0.0216544;0;0.0212324;1.68364;0.918042
290000;291;24.2196;0.0254751;0.00105295;-2.28052;24.0998;-0.765133;-0.108114;0.00394472;-0.611429;-0.405961;-1.22663;-0.111471;1.29686;-5.51899;-0.00110211;3.1572e-05;0.00186628;0.00186661;-0.00110244;0.00148453;0.590538;1.69337;0.00173301;0.00197937;1.69316;0.590612;132.225;177.225;-0.00774654;-0.00111557;0.00526529;-0.00518664;0.00185244;0.00476117;0.0246945;0;0.0566255;-0.514007;-1.22939;-0.72228;1.51568;-6.30076;-4.45801e-05;-0.000279167;0.000478332;0.00059936;-0.000165608;0.000382484;0.093199;10.7297;0.000464718;0.000509978;3.61916;0.276307;156.965;21.9654;-0.0057109;-5.55029e-05;0.00412612;-0.00468214;0.000469863;0.00437538;0.0191738;0;0.0238633;1.76234;0.926154
291000;292;24.2215;0.0274228;0.00113345;-2.28059;24.1019;-0.761101;-0.108193;0.00602223;-0.607397;-0.405811;-1.22716;-0.123343;1.29839;-5.53086;-0.00098287;0.000157126;0.00174823;0.00175724;-0.00099188;0.00137456;0.562207;1.7787;0.00160758;0.00183275;1.77163;0.564452;129.591;174.591;-0.00652237;-0.000996256;0.00550288;-0.00517406;0.00173313;0.0018954;0.0251437;0;0.0596074;-0.513063;-1.23146;-0.73408;1.5227;-6.31255;-1.08683e-05;-0.000403795;0.00055482;0.000764978;-0.000221026;0.000493002;0.0195888;51.0495;0.000597448;0.000657336;3.46102;0.288932;160.713;25.7125;-0.00651733;-2.29585e-05;0.00412886;-0.00493388;0.000546382;0.00401594;0.0196061;0;0.0225135;1.83446;0.934215
292000;293;24.2216;0.0275272;0.00113776;-2.28118;24.102;-0.761419;-0.108783;0.00606128;-0.607715;-0.402988;-1.23231;-0.116246;1.30173;-5.52377;-0.00111747;0.000284049;0.00196165;0.00198764;-0.00114345;0.00156554;0.569657;1.75544;0.0018295;0.00208739;1.73828;0.575283;127.242;172.242;-0.00654696;-0.00112807;0.00519396;-0.00461078;0.00194823;0.00327955;0.0254384;0;0.054855;-0.511442;-1.23654;-0.727942;1.52332;-6.30642;1.99376e-05;-0.0005537;0.000633197;0.000959501;-0.000306366;0.000632934;-0.0314873;-31.7589;0.000762587;0.000843912;3.13188;0.319298;163.398;28.3979;-0.00578681;7.02222e-06;0.00400792;-0.00511251;0.000625324;0.00301733;0.0188575;0;0.024085;1.86947;0.935788
293000;294;24.2191;0.0250149;0.00103393;-2.28012;24.0991;-0.774846;-0.107724;0.00320884;-0.621142;-0.401168;-1.2352;-0.115907;1.30388;-5.52343;-0.000921549;0.000462735;0.00269634;0.00275458;-0.000979796;0.00186719;0.341778;2.92588;0.00223574;0.00248959;2.81139;0.355696;122.791;167.791;-0.00670039;-0.000932044;0.00554659;-0.00460279;0.0026811;0.00123973;0.0231047;0;0.0593906;-0.509743;-1.24021;-0.731878;1.52761;-6.31035;7.83771e-05;-0.000460088;0.000697982;0.000942849;-0.000166491;0.00055467;-0.112291;-8.90543;0.000690784;0.00073956;5.66308;0.176582;160.401;25.4007;-0.00607454;6.70027e-05;0.0038744;-0.00479189;0.000690587;0.00210052;0.0189132;0;0.0284204;1.92796;0.941253
294000;295;24.2232;0.0290519;0.00120079;-2.27956;24.1035;-0.767509;-0.107163;0.00755379;-0.613805;-0.399783;-1.23813;-0.120536;1.30665;-5.52806;-0.0010823;0.000411627;0.00337141;0.00340914;-0.00112003;0.00226458;0.321024;3.11504;0.00272397;0.00301944;3.0438;0.328537;122.957;167.957;-0.00672684;-0.00109172;0.00520069;-0.00435619;0.00335802;0.00250219;0.0217413;0;0.0583877;-0.508385;-1.24475;-0.736544;1.53309;-6.31502;7.3866e-05;-0.000447316;0.000822731;0.00103164;-0.000135047;0.000583345;-0.0897815;-11.1382;0.000736914;0.000777794;7.63917;0.130904;156.888;21.8876;-0.00613107;6.34311e-05;0.00369885;-0.00459037;0.000815996;0.00253533;0.0196575;0;0.0222195;1.99478;0.948811
295000;296;24.2223;0.0281499;0.0011635;-2.27927;24.1025;-0.769762;-0.106865;0.00660351;-0.616058;-0.39869;-1.24121;-0.121078;1.30928;-5.5286;-0.000984966;0.000524053;0.00313046;0.00319615;-0.00105065;0.0021234;0.314639;3.17825;0.00255406;0.0028312;3.04207;0.328724;121.329;166.329;-0.00663167;-0.000993427;0.0052122;-0.00414487;0.00311706;0.00131177;0.0223346;0;0.0591728;-0.507231;-1.24786;-0.737799;1.53584;-6.31627;-2.19759e-05;-0.000263173;0.00085794;0.000930645;-9.46807e-05;0.000512663;0.0256147;39.04;0.000654278;0.00068355;9.8293;0.101737;147.592;12.5916;-0.0063815;-3.22449e-05;0.00401688;-0.00453946;0.000849914;0.00271028;0.0174114;0;0.0221762;2.04019;0.956079
296000;297;24.2235;0.029378;0.00121426;-2.27998;24.1036;-0.770472;-0.10758;0.0077474;-0.616768;-0.397104;-1.24411;-0.128641;1.31227;-5.53616;-0.00116015;0.00013477;0.00329224;0.00329632;-0.00116423;0.00223027;0.352389;2.83777;0.00267156;0.00297369;2.83134;0.35319;126.897;171.897;-0.00655374;-0.00117085;0.00491492;-0.00462417;0.00328021;0.00247201;0.0214801;0;0.0592515;-0.505931;-1.25302;-0.745294;1.54321;-6.32377;0.00017117;2.06197e-05;0.000990743;0.000991261;0.000170651;0.000410305;-0.172769;-5.78807;0.000611941;0.000547073;-5.80869;-0.172156;129.223;174.223;-0.00605104;0.00016381;0.00388138;-0.00383698;0.000983218;0.00277974;0.0171234;0;0.0232478;2.11577;0.963571
297000;298;24.2233;0.029149;0.0012048;-2.27917;24.1034;-0.774262;-0.106765;0.00747293;-0.620558;-0.395041;-1.24797;-0.126771;1.31513;-5.53429;-0.00110749;0.000353087;0.00349253;0.00351947;-0.00113443;0.00232695;0.317102;3.15356;0.00280208;0.0031026;3.10241;0.32233;123.328;168.328;-0.00616566;-0.00111649;0.00498302;-0.00425563;0.00348022;0.00265124;0.0209936;0;0.0618668;-0.503825;-1.25654;-0.747035;1.54622;-6.32551;0.000234872;7.31682e-05;0.000901378;0.000909315;0.000226934;0.000341191;-0.26057;-3.83775;0.000546504;0.000454921;-4.00696;-0.249566;124.549;169.549;-0.00561334;0.000227771;0.00391848;-0.00376959;0.00089371;0.00330885;0.0177836;0;0.0226936;2.18506;0.970078
298000;299;24.2238;0.0297062;0.00122783;-2.27984;24.1039;-0.774127;-0.107437;0.00797362;-0.620423;-0.39455;-1.24961;-0.129881;1.31684;-5.5374;-0.00104679;0.000456613;0.00332221;0.00336942;-0.001094;0.00223171;0.315088;3.17372;0.00268626;0.00297561;3.07991;0.324684;122.004;167.004;-0.00617193;-0.00105501;0.00501332;-0.00408026;0.00330979;0.00211356;0.022316;0;0.0659039;-0.503354;-1.25829;-0.749796;1.54883;-6.32827;0.000168714;0.000114108;0.00102827;0.00104316;0.000153824;0.000444668;-0.164076;-6.09475;0.000650258;0.00059289;-6.78152;-0.14746;123.2;168.2;-0.005674;0.000161372;0.00406569;-0.00383408;0.00102002;0.00216595;0.0192522;0;0.0214955;2.21992;0.97734
299000;300;24.2237;0.0295665;0.00122206;-2.27975;24.1037;-0.774677;-0.107348;0.00782405;-0.620973;-0.392446;-1.25584;-0.122223;1.32139;-5.52974;-0.000667558;0.000566161;0.00394338;0.00401188;-0.000736057;0.00237397;0.169286;5.90718;0.0029507;0.00316529;5.4505;0.183469;118.083;163.083;-0.00595254;-0.000675204;0.00510316;-0.00395001;0.00393057;0.000637166;0.020455;0;0.0668981;-0.501164;-1.26478;-0.743513;1.55037;-6.32199;0.000117487;0.000147578;0.00105821;0.00108082;9.48791e-05;0.000492969;-0.111025;-9.007;0.000691093;0.000657293;-11.3915;-0.0877845;121.858;166.858;-0.00548497;0.000110768;0.00396779;-0.00366905;0.00105036;0.00277866;0.018023;0;0.0219594;2.29793;0.984139
300000;301;24.2246;0.0304348;0.00125794;-2.27952;24.1046;-0.774866;-0.107117;0.00871245;-0.621162;-0.39087;-1.25682;-0.131021;1.3227;-5.53854;-0.000709806;0.000653921;0.00422596;0.00431113;-0.000794972;0.00255305;0.167963;5.95368;0.00317245;0.00340407;5.42299;0.1844;116.503;161.503;-0.00630047;-0.000716385;0.0050137;-0.00368444;0.00421366;0.00265385;0.0215516;0;0.0616826;-0.49994;-1.26619;-0.753749;1.55606;-6.33222;0.000158357;0.000153145;0.000980724;0.00100832;0.000130764;0.000438777;-0.16147;-6.19311;0.000633141;0.000585036;-7.71099;-0.129685;120.624;165.624;-0.00533997;0.000151177;0.00410241;-0.00379288;0.000972329;0.00316624;0.0184642;0;0.0220695;2.36641;0.991652
301000;302;24.2247;0.0306284;0.00126594;-2.2793;24.1048;-0.777066;-0.106904;0.00885633;-0.623362;-0.390032;-1.25983;-0.129337;1.32515;-5.53686;-0.000705335;0.000743672;0.00489862;0.00499563;-0.000802345;0.00289899;0.143987;6.94509;0.00362756;0.00386531;6.22628;0.160609;114.647;159.647;-0.00701514;-0.000711549;0.00511346;-0.00360176;0.00488588;0.0025464;0.0148656;0;0.0601636;-0.499234;-1.2695;-0.752663;1.558;-6.33114;0.000205278;0.000201151;0.00111885;0.00116118;0.000162949;0.000499116;-0.183472;-5.45043;0.000725926;0.000665488;-7.12602;-0.140331;118.484;163.484;-0.00534285;0.000197655;0.00431611;-0.00391006;0.00110957;0.00327053;0.0192822;0;0.022877;2.4173;0.996645
302000;303;24.2255;0.0313625;0.00129628;-2.27979;24.1055;-0.775854;-0.107384;0.00958767;-0.62215;-0.38818;-1.26292;-0.128876;1.3275;-5.5364;-0.000739089;0.000622122;0.00459779;0.00466936;-0.00081065;0.00274;0.160748;6.2209;0.00341534;0.00365334;5.76001;0.173611;116.886;161.886;-0.00793454;-0.000746588;0.00518944;-0.00392094;0.00458458;0.00257009;0.0157078;0;0.062988;-0.497209;-1.27293;-0.753069;1.56035;-6.33154;0.000172794;0.000224524;0.000958954;0.00101856;0.00011319;0.000452684;-0.18019;-5.5497;0.00064463;0.000603579;-8.99869;-0.111127;116.292;161.292;-0.00573654;0.000164665;0.00449105;-0.00403865;0.000948904;0.00422316;0.0193996;0;0.0227196;2.48226;1.0036
303000;304;24.2271;0.0329576;0.00136222;-2.27942;24.1071;-0.775807;-0.10702;0.0112266;-0.622103;-0.385819;-1.26564;-0.133601;1.32987;-5.54112;-0.000721112;0.000793646;0.00501559;0.00512336;-0.000828884;0.00297612;0.143774;6.95535;0.00372275;0.00396816;6.18103;0.161785;114.267;159.267;-0.00732108;-0.000727374;0.00523822;-0.00362557;0.00500225;0.000971776;0.0148154;0;0.0621134;-0.495034;-1.27624;-0.758474;1.56497;-6.33695;0.000116791;0.000188179;0.00101026;0.00104827;7.87749e-05;0.000484749;-0.115605;-8.65014;0.000674127;0.000646332;-13.3072;-0.0751473;119.676;164.676;-0.00531646;0.000108863;0.00436666;-0.00398658;0.00100075;0.00369294;0.0207415;0;0.0213313;2.55919;1.01223
304000;305;24.229;0.0349182;0.00144325;-2.27987;24.1092;-0.771428;-0.107472;0.0132948;-0.617724;-0.385032;-1.26729;-0.13757;1.33161;-5.54509;-0.000601607;0.000760337;0.00488137;0.00498485;-0.000705091;0.00284497;0.123246;8.11388;0.00358148;0.00379329;7.06979;0.141447;114.454;159.454;-0.00775861;-0.000608263;0.00527128;-0.00372601;0.00486783;0.00248556;0.0160473;0;0.0621869;-0.494485;-1.27894;-0.761493;1.56846;-6.33997;0.000254027;0.000168622;0.00108279;0.00111578;0.000221032;0.000447374;-0.234605;-4.26249;0.000682218;0.000596499;-5.04805;-0.198096;119.321;164.321;-0.00535506;0.00024602;0.00434649;-0.00400579;0.00107336;0.00335418;0.021608;0;0.0226007;2.60163;1.01339
305000;306;24.2299;0.0358004;0.00147972;-2.28032;24.11;-0.773016;-0.107915;0.0140887;-0.619312;-0.383857;-1.27115;-0.136548;1.33485;-5.54407;-0.000734677;0.000269346;0.0049389;0.00495166;-0.000747435;0.00284955;0.148753;6.72255;0.00357638;0.00379939;6.62487;0.150946;120.156;165.156;-0.00770337;-0.000744395;0.00498051;-0.00441523;0.00492659;0.00161056;0.0137785;0;0.0633722;-0.493243;-1.28346;-0.761198;1.57162;-6.33967;0.000176116;8.76654e-05;0.00108034;0.00108876;0.000167695;0.000460535;-0.163018;-6.13427;0.000676905;0.000614046;-6.49252;-0.154023;125.199;170.199;-0.00584131;0.00016767;0.00429033;-0.00411121;0.00107115;0.00392437;0.0221113;0;0.0219724;2.66804;1.02142
306000;307;24.2315;0.0373427;0.00154346;-2.28027;24.1116;-0.772658;-0.10787;0.0156544;-0.618954;-0.382321;-1.27481;-0.137227;1.33796;-5.54475;-0.00102348;0.00019019;0.0050409;0.00504685;-0.00102944;0.00303815;0.203035;4.92526;0.00375505;0.00405086;4.90254;0.203976;121.791;166.791;-0.00701883;-0.00103407;0.00501339;-0.00460391;0.00502841;0.0016088;0.0164461;0;0.0615212;-0.491885;-1.28883;-0.761537;1.57574;-6.34001;0.000161335;4.59128e-05;0.00114652;0.00114865;0.0001592;0.000494725;-0.140718;-7.10642;0.000718603;0.000659634;-7.21514;-0.138597;128.1;173.1;-0.00723738;0.000151615;0.00450583;-0.00440962;0.00113638;0.00495525;0.023183;0;0.0284225;2.74695;1.02844
307000;308;24.2317;0.0376243;0.0015551;-2.28013;24.1117;-0.776496;-0.107731;0.0158272;-0.622792;-0.381416;-1.27775;-0.136007;1.34038;-5.54353;-0.000711549;0.00031419;0.00482825;0.00484601;-0.000729311;0.00278766;0.147372;6.78554;0.0034992;0.00371688;6.64464;0.150497;119.829;164.829;-0.00769187;-0.000721005;0.00501286;-0.00435858;0.00481579;0.0041117;0.0156389;0;0.060754;-0.491132;-1.29238;-0.760847;1.57808;-6.33932;0.000106721;5.11934e-05;0.00142023;0.00142223;0.000104729;0.000658748;-0.0751436;-13.3079;0.00091524;0.000878331;-13.58;-0.0736376;127.784;172.784;-0.00677471;9.72837e-05;0.00445328;-0.00434512;0.00141033;0.00458019;0.024091;0;0.0296962;2.80888;1.03509
308000;309;24.2335;0.0394095;0.00162889;-2.27899;24.1136;-0.778546;-0.106589;0.0176632;-0.624842;-0.378534;-1.27945;-0.14406;1.34202;-5.55158;-0.000872131;0.000474941;0.00511658;0.00515401;-0.000909563;0.00303179;0.170452;5.86676;0.00377589;0.00404238;5.66647;0.176477;118.541;163.541;-0.00777865;-0.000881422;0.00531346;-0.00433476;0.00510265;0.00223714;0.0143885;0;0.0633057;-0.488366;-1.29562;-0.767698;1.58319;-6.34617;-5.512e-05;0.000152803;0.00146276;0.00147799;-7.03498e-05;0.000774168;0.0376823;26.5376;0.00100959;0.00103222;21.0091;0.0475984;124.835;169.835;-0.00754529;-6.47153e-05;0.00469573;-0.00438324;0.00145176;0.00417107;0.0271319;0;0.021534;2.84652;1.04225
309000;310;24.2334;0.0392786;0.00162348;-2.27921;24.1136;-0.772786;-0.106814;0.0176957;-0.619082;-0.374758;-1.28717;-0.130274;1.34693;-5.53779;-0.000768928;0.000534396;0.00391286;0.00397308;-0.000829151;0.00240112;0.196513;5.08872;0.00296402;0.00320149;4.79174;0.208692;120.013;165.013;-0.00863467;-0.000779419;0.0057028;-0.00460992;0.0038968;0.00284643;0.0190645;0;0.0631557;-0.48415;-1.30567;-0.748603;1.581;-6.32708;-0.000114384;0.000431015;0.00150873;0.00161609;-0.000221738;0.000918913;0.0758144;13.1901;0.0011584;0.00122522;7.28826;0.137207;116.518;161.518;-0.00762808;-0.000122441;0.00490647;-0.00403719;0.00149681;0.00426469;0.0278211;0;0.0460985;2.93619;1.05004
310000;311;24.2351;0.0409931;0.00169434;-2.27977;24.1151;-0.777306;-0.10737;0.0192208;-0.623602;-0.375809;-1.28426;-0.149165;1.3464;-5.55668;-0.000773383;0.000558721;0.00492316;0.00497744;-0.000827666;0.00290255;0.157091;6.36574;0.00362581;0.00387007;6.01383;0.166283;117.883;162.883;-0.00823202;-0.000782572;0.00546682;-0.00432157;0.00490844;0.00430132;0.0174994;0;0.0590439;-0.486034;-1.30379;-0.772794;1.59164;-6.35127;-6.79245e-05;0.000475732;0.00183409;0.00194644;-0.000180278;0.00106336;0.0370345;27.0018;0.0013617;0.00141781;10.7969;0.0926195;115.648;160.648;-0.00675311;-7.45587e-05;0.00463274;-0.00367339;0.00182349;0.00493432;0.0276006;0;0.0184649;2.99221;1.05743
311000;312;24.2359;0.0418119;0.00172818;-2.27885;24.116;-0.777934;-0.106446;0.0201107;-0.62423;-0.373462;-1.28733;-0.146753;1.34842;-5.55427;-0.00099373;0.000291541;0.0040896;0.00410626;-0.0010104;0.00255833;0.24299;4.1154;0.00312916;0.00341111;4.06402;0.246062;123.342;168.342;-0.00855891;-0.00100562;0.00549323;-0.00488382;0.00407461;0.00309781;0.0182179;0;0.0612837;-0.483279;-1.30826;-0.769263;1.59275;-6.34774;-0.000236283;0.000593138;0.00186857;0.00202421;-0.000391919;0.00120806;0.126451;7.90818;0.00149731;0.00161075;5.16486;0.193616;114.996;159.996;-0.00664665;-0.000243396;0.00501301;-0.00381746;0.00185621;0.00546671;0.0283539;0;0.0172792;3.03571;1.06186
312000;313;24.2379;0.0438311;0.00181164;-2.27916;24.1181;-0.775969;-0.106755;0.0221741;-0.622265;-0.37212;-1.29072;-0.151972;1.35186;-5.55949;-0.000825566;0.00043369;0.00429434;0.00433082;-0.000862043;0.00259643;0.192245;5.2017;0.00321334;0.00346191;5.0239;0.199048;120.893;165.893;-0.00793751;-0.000836793;0.00565029;-0.00475633;0.00427854;0.00433555;0.0197443;0;0.0624589;-0.481998;-1.31346;-0.773488;1.59868;-6.35196;-0.000154694;0.000714258;0.00197744;0.00219459;-0.000371851;0.00128322;0.0782294;12.7829;0.00160147;0.00171096;5.90181;0.16944;112.495;157.495;-0.00584717;-0.000162232;0.00538623;-0.00394779;0.00196321;0.00457865;0.0276821;0;0.0181302;3.12992;1.07274
313000;314;24.2364;0.0423269;0.00174947;-2.27965;24.1164;-0.780683;-0.107247;0.0204638;-0.626979;-0.369519;-1.29225;-0.156302;1.3531;-5.56382;-0.000755625;0.000354178;0.00428711;0.00431186;-0.00078038;0.00254612;0.176255;5.67359;0.00316691;0.00339483;5.52534;0.180984;121.862;166.862;-0.00840238;-0.00076823;0.00576695;-0.00503142;0.00427061;0.00351247;0.0211645;0;0.0614741;-0.479686;-1.3152;-0.777442;1.60133;-6.35592;-0.00023699;0.000694648;0.00187273;0.00208091;-0.000445169;0.00126304;0.126548;7.90214;0.00155702;0.00168405;4.67443;0.21393;113.249;158.249;-0.00635346;-0.00024451;0.00533823;-0.00393917;0.00185875;0.00562599;0.0289735;0;0.0164368;3.19001;1.0803
314000;315;24.238;0.0438711;0.0018133;-2.27952;24.118;-0.779185;-0.107117;0.0220764;-0.625481;-0.36916;-1.29247;-0.162284;1.35391;-5.5698;-0.000960733;0.000268142;0.00421311;0.00422697;-0.000974593;0.00260078;0.228034;4.38531;0.00319282;0.00346771;4.33717;0.230565;123.301;168.301;-0.00814564;-0.000972881;0.00549718;-0.00493396;0.0041981;0.00335392;0.0214539;0;0.0641712;-0.479621;-1.31613;-0.784083;1.60531;-6.36256;-0.00019821;0.000673129;0.00178419;0.00199115;-0.000405167;0.00119816;0.111092;9.00153;0.00148108;0.00159754;4.9144;0.203484;113.08;158.08;-0.00577724;-0.00020619;0.00540664;-0.00405103;0.00176983;0.00465948;0.0279525;0;0.0167568;3.2297;1.08026
315000;316;24.239;0.0448596;0.00185415;-2.28053;24.119;-0.776271;-0.108125;0.0230685;-0.622567;-0.365587;-1.29768;-0.162089;1.35791;-5.56961;-0.00115942;0.000195119;0.00341982;0.00342812;-0.00116772;0.00229792;0.339029;2.9496;0.00275831;0.00306389;2.93574;0.34063;126.55;171.55;-0.00726117;-0.00117278;0.00558466;-0.00516983;0.0034043;0.00378001;0.0262998;0;0.0609955;-0.476049;-1.32246;-0.781523;1.60819;-6.36;-0.00029182;0.000564117;0.00173192;0.00187854;-0.000438444;0.00115849;0.168495;5.93489;0.00142123;0.00154466;4.28457;0.233396;116.121;161.121;-0.00550122;-0.000300747;0.00540034;-0.00426235;0.00171752;0.00526278;0.0286654;0;0.0178046;3.32641;1.08955
316000;317;24.241;0.0468511;0.00193647;-2.28155;24.121;-0.772712;-0.109149;0.0250873;-0.619008;-0.364023;-1.29967;-0.166176;1.35987;-5.5737;-0.00126394;0.000107566;0.00346798;0.00347042;-0.00126638;0.0023684;0.36446;2.74379;0.00283176;0.00315787;2.74042;0.364907;127.802;172.802;-0.00750808;-0.00127764;0.00547333;-0.00523289;0.00345305;0.00551531;0.026277;0;0.0616862;-0.474929;-1.32489;-0.785819;1.61195;-6.36429;-0.000302672;0.00047483;0.00184029;0.00194079;-0.000403171;0.00117198;0.16447;6.08014;0.00144709;0.00156264;4.81382;0.207735;118.422;163.422;-0.0057687;-0.000311859;0.00527193;-0.00431202;0.00182653;0.00529005;0.0270126;0;0.0182779;3.39724;1.09671
317000;318;24.2422;0.0480579;0.00198635;-2.28041;24.1223;-0.773969;-0.10801;0.0263676;-0.620265;-0.363215;-1.30102;-0.170391;1.36148;-5.57791;-0.0010899;0.00020303;0.00307492;0.00308479;-0.00109978;0.00209229;0.354449;2.82128;0.00250493;0.00278971;2.80493;0.356516;126.7;171.7;-0.00869288;-0.00110215;0.00537787;-0.00495033;0.00306052;0.006328;0.0231121;0;0.0633736;-0.473489;-1.32698;-0.789562;1.61508;-6.36804;-0.000333115;0.000344618;0.00177483;0.00182974;-0.000388024;0.00110888;0.187688;5.32799;0.00136764;0.00147851;4.71553;0.212065;121.769;166.769;-0.00520016;-0.000343855;0.00534648;-0.00464673;0.00176062;0.00532542;0.0258667;0;0.0173948;3.43157;1.10109
318000;319;24.2426;0.0485169;0.00200532;-2.28118;24.1226;-0.774285;-0.108777;0.0267462;-0.620581;-0.362116;-1.30426;-0.17502;1.36486;-5.58254;-0.00106706;0.000121119;0.00260995;0.00261393;-0.00107105;0.00184249;0.408844;2.44592;0.0021888;0.00245665;2.44054;0.409746;128.741;173.741;-0.00835497;-0.00107942;0.00523131;-0.00497033;0.00259631;0.00667242;0.0268337;0;0.0606345;-0.471768;-1.32986;-0.797716;1.62094;-6.37619;-0.000318925;0.000225153;0.0017112;0.00173587;-0.000343596;0.00103973;0.186376;5.36551;0.00128716;0.00138631;5.05205;0.197939;124.627;169.627;-0.0052618;-0.000329777;0.00512352;-0.00466329;0.00169812;0.00329933;0.0248912;0;0.0188877;3.5178;1.10888
319000;320;24.243;0.0488912;0.00202079;-2.28181;24.1228;-0.77973;-0.109408;0.0268873;-0.626027;-0.358038;-1.30756;-0.173514;1.36676;-5.58103;-0.00093784;0.000389339;0.00226837;0.00231497;-0.000984441;0.00164971;0.413442;2.41872;0.00195586;0.00219961;2.35156;0.42525;124.271;169.271;-0.00938289;-0.00094811;0.00534119;-0.00454668;0.00225421;0.00614689;0.0232009;0;0.0591681;-0.467828;-1.33455;-0.796308;1.62296;-6.37478;-0.000293151;-1.57254e-05;0.00164196;0.00164209;-0.000293279;0.000967682;0.178538;5.60106;0.00120444;0.00129024;5.59906;0.178602;131.388;176.388;-0.00587126;-0.000304674;0.00477772;-0.00479991;0.00163056;0.00291583;0.0231511;0;0.0200894;3.59357;1.11588
320000;321;24.2431;0.0489879;0.00202478;-2.28229;24.1229;-0.779232;-0.109892;0.0269547;-0.625528;-0.358224;-1.30992;-0.175348;1.3693;-5.58287;-0.00102952;0.000405069;0.0021371;0.0021881;-0.00108052;0.00163431;0.481738;2.07582;0.00192291;0.00217908;2.02505;0.493816;124.735;169.735;-0.00769943;-0.00104113;0.00565875;-0.00483202;0.00212121;0.00364769;0.0269829;0;0.0598832;-0.468025;-1.33677;-0.798905;1.62611;-6.37738;-0.000331732;-0.000161803;0.00176413;0.00177654;-0.00034415;0.00106035;0.188044;5.31792;0.00131419;0.0014138;5.16211;0.193719;135.02;0.0203049;-0.00660992;-0.000343697;0.00457985;-0.00489353;0.00175367;0.00490579;0.022297;0;0.020987;3.633;1.12336
321000;322;24.2438;0.0497264;0.00205531;-2.28228;24.1236;-0.778944;-0.10988;0.0277073;-0.62524;-0.356475;-1.31198;-0.179636;1.37136;-5.58716;-0.000914302;0.000410668;0.00260253;0.00264984;-0.00096162;0.00180573;0.351314;2.84646;0.00215968;0.00240764;2.7556;0.362897;123.697;168.697;-0.00882082;-0.000925415;0.00556943;-0.00473;0.00258714;0.00497561;0.0238214;0;0.0585838;-0.466359;-1.34042;-0.804193;1.63124;-6.38267;-0.000241707;-0.000266594;0.00179144;0.00182581;-0.000276082;0.00105095;0.134923;7.41161;0.0013189;0.00140126;6.61329;0.151211;137.512;2.51236;-0.00675057;-0.000253558;0.00435147;-0.00487528;0.00178202;0.00351622;0.022695;0;0.0216531;3.71288;1.13087
322000;323;24.2453;0.0512173;0.00211693;-2.28273;24.125;-0.782171;-0.11033;0.0290587;-0.628467;-0.354536;-1.3156;-0.179994;1.37437;-5.58751;-0.000758355;0.000831001;0.00206513;0.00229155;-0.000984776;0.00163816;0.367219;2.72317;0.00194109;0.00218422;2.32698;0.429742;115.994;160.994;-0.00822605;-0.000766853;0.00588017;-0.00420397;0.00204822;0.00226523;0.0245802;0;0.0609247;-0.464759;-1.3458;-0.805873;1.63603;-6.38435;-7.18619e-05;-0.000330048;0.00181229;0.00186843;-0.000128004;0.000998216;0.0396526;25.219;0.00129041;0.00133095;14.5967;0.0685088;139.005;4.00507;-0.00706519;-8.30152e-05;0.00408253;-0.00473432;0.00180402;0.00385394;0.0230791;0;0.0272489;3.79162;1.13872
323000;324;24.2463;0.052191;0.00215718;-2.28208;24.1259;-0.784727;-0.109681;0.0300157;-0.631023;-0.353667;-1.31734;-0.179666;1.37577;-5.58719;-0.000641009;0.000705608;0.00230096;0.00246144;-0.000801489;0.00163147;0.278583;3.5896;0.00196343;0.00217529;3.07109;0.325617;117.662;162.662;-0.00855882;-0.000651302;0.00601719;-0.0045904;0.00228315;0.00431275;0.0243891;0;0.0623473;-0.463938;-1.34827;-0.807763;1.63877;-6.38624;-0.000126804;-0.000215871;0.002095;0.00211578;-0.000147584;0.00113168;0.0605272;16.5215;0.0014622;0.00150891;14.3361;0.069754;133.835;178.835;-0.00651831;-0.000136494;0.00398468;-0.0044071;0.0020871;0.00153997;0.022545;0;0.0293421;3.83435;1.14534
324000;325;24.2477;0.0535808;0.00221462;-2.28191;24.1273;-0.784345;-0.109506;0.0314414;-0.630641;-0.351984;-1.32087;-0.180713;1.37886;-5.58823;-0.000663833;0.000512202;0.00223205;0.00231997;-0.000751758;0.00153587;0.29741;3.36236;0.0018489;0.00204782;3.08606;0.324037;120.846;165.846;-0.00834925;-0.000674376;0.00565827;-0.00461901;0.00221621;0.00363617;0.0245017;0;0.0600842;-0.462413;-1.35345;-0.809944;1.64368;-6.38842;-0.000176658;-0.000200073;0.00217926;0.00219613;-0.000193528;0.00119483;0.0810632;12.3361;0.00153267;0.00159311;11.3479;0.0881222;132.926;177.926;-0.00659367;-0.000185946;0.00392382;-0.00431427;0.0021716;0.00137889;0.021825;0;0.0241439;3.90781;1.15144
325000;326;24.2475;0.0533724;0.00220601;-2.28169;24.1269;-0.791639;-0.109288;0.0310143;-0.637935;-0.349934;-1.3244;-0.178256;1.3814;-5.58578;-0.000870136;0.000680002;0.00244419;0.00257828;-0.00100423;0.00179125;0.356002;2.80897;0.00213387;0.00238834;2.56743;0.389495;119.368;164.368;-0.00737405;-0.000879562;0.00576981;-0.00439299;0.00242781;0.00243193;0.0243934;0;0.0649489;-0.460668;-1.35798;-0.810095;1.64699;-6.38857;-0.000283713;-8.4414e-06;0.00219441;0.00219444;-0.000283742;0.00123909;0.129289;7.73463;0.00156613;0.00165212;7.73395;0.1293;128.08;173.08;-0.00602917;-0.000290946;0.0037954;-0.00380288;0.00218723;0.00292379;0.0216163;0;0.0215653;3.98042;1.15966
326000;327;24.2494;0.0552409;0.00228324;-2.28182;24.1289;-0.788672;-0.109415;0.0329774;-0.634968;-0.34824;-1.32774;-0.178202;1.38417;-5.58572;-0.000816796;0.000580681;0.00277002;0.00286168;-0.000908462;0.00188507;0.294871;3.39132;0.00227198;0.00251343;3.15003;0.317457;120.369;165.369;-0.00720249;-0.000826114;0.00553315;-0.00435409;0.00275492;0.000252586;0.0227642;0;0.06641;-0.45923;-1.36161;-0.810944;1.65;-6.38942;-0.000235179;-6.80475e-05;0.00214908;0.00215102;-0.00023712;0.00119407;0.109432;9.13806;0.00151924;0.0015921;9.07146;0.110236;129.363;174.363;-0.00635902;-0.000242334;0.00365576;-0.003783;0.00214242;0.00320448;0.020449;0;0.0203591;4.03348;1.16058
327000;328;24.2488;0.0546858;0.00226029;-2.28173;24.1282;-0.792;-0.109324;0.032319;-0.638296;-0.348017;-1.33105;-0.180453;1.38758;-5.58797;-0.000912427;0.000394028;0.0028989;0.00293921;-0.000952737;0.00194597;0.31475;3.17713;0.00234255;0.00259463;3.08501;0.324148;123.511;168.511;-0.00690164;-0.000923113;0.005445;-0.00463776;0.00288419;0.00187127;0.0256615;0;0.0631985;-0.459073;-1.36521;-0.813805;1.65433;-6.39228;-0.00017796;-2.49693e-05;0.00210983;0.0021101;-0.000178232;0.00114417;0.0843481;11.8556;0.00146975;0.00152555;11.839;0.0844664;128.491;173.491;-0.00555905;-0.000185377;0.00381005;-0.00385124;0.00210258;0.00178322;0.0207488;0;0.0200734;4.09224;1.16788
328000;329;24.2507;0.0565904;0.00233901;-2.2817;24.1302;-0.7914;-0.109298;0.0342553;-0.637696;-0.345675;-1.33497;-0.175081;1.39007;-5.5826;-0.000942477;0.000517964;0.00361225;0.00367041;-0.00100064;0.00233553;0.260911;3.83273;0.00283987;0.00311403;3.66808;0.272622;121.044;166.044;-0.0068947;-0.000952349;0.00553021;-0.00447155;0.00359715;0.00265079;0.0266991;0;0.0674982;-0.456667;-1.36952;-0.812651;1.65666;-6.39113;-0.000130185;-2.7593e-06;0.0021916;0.0021916;-0.000130189;0.00116089;0.0594021;16.8344;0.00150634;0.00154786;16.834;0.0594035;127.412;172.412;-0.0057931;-0.00013738;0.00379638;-0.00379309;0.00218441;0.00352749;0.0201912;0;0.0207947;4.18577;1.17625
329000;330;24.2505;0.0564198;0.00233196;-2.28201;24.1299;-0.791995;-0.109612;0.0340346;-0.638291;-0.344645;-1.33715;-0.176452;1.39208;-5.58397;-0.000939779;0.000628782;0.00354495;0.00363144;-0.00102627;0.00232886;0.265104;3.77211;0.00282587;0.00310514;3.53849;0.282607;119.35;164.35;-0.00757928;-0.000947833;0.0053391;-0.0040605;0.00353095;0.00217492;0.0222376;0;0.0580663;-0.456008;-1.37202;-0.811734;1.6581;-6.39021;-0.000145523;1.96918e-05;0.00202897;0.00202915;-0.000145701;0.00108742;0.0717224;13.9426;0.00140385;0.0014499;13.9268;0.071804;127.462;172.462;-0.00570725;-0.000152647;0.00382227;-0.00377463;0.00202168;0.0027611;0.0198298;0;0.0210224;4.22589;1.18304
330000;331;24.2505;0.0563961;0.00233098;-2.28217;24.1298;-0.794414;-0.109765;0.0339168;-0.64071;-0.343528;-1.33836;-0.182968;1.39381;-5.59049;-0.000999202;0.000273992;0.00407377;0.00408853;-0.00101396;0.00255124;0.245277;4.07703;0.0031191;0.00340166;4.03225;0.248001;123.1;168.1;-0.00638816;-0.00100973;0.00516707;-0.00459437;0.00406051;0.0015802;0.0226843;0;0.0640747;-0.455075;-1.37381;-0.820561;1.66366;-6.39904;-4.18212e-05;5.42923e-05;0.00201416;0.0020156;-4.32539e-05;0.00102943;0.0207636;48.1613;0.00135838;0.00137257;46.5992;0.0214596;126.364;171.364;-0.00595572;-4.92655e-05;0.0039755;-0.00385887;0.00200628;0.00314572;0.0198363;0;0.0242626;4.28933;1.19051
331000;332;24.2523;0.0581652;0.00240411;-2.28262;24.1315;-0.796641;-0.110224;0.035578;-0.642937;-0.340543;-1.3412;-0.184175;1.39596;-5.5917;-0.00122721;0.000334142;0.00404345;0.00406455;-0.00124831;0.00265643;0.303506;3.29483;0.00320782;0.00354191;3.25604;0.307121;122.869;167.869;-0.00643814;-0.00123637;0.0049835;-0.00429082;0.00403114;0.00184699;0.0210495;0;0.0660017;-0.452484;-1.37694;-0.823592;1.66704;-6.40207;-9.8842e-05;1.27039e-05;0.00205707;0.00205714;-9.89168e-05;0.00107803;0.0480499;20.8117;0.00140556;0.00143737;20.7967;0.0480846;127.505;172.505;-0.00568133;-0.000106266;0.00388687;-0.00385313;0.00204953;0.00388684;0.0210076;0;0.03039;4.37935;1.19821
332000;333;24.2508;0.0567312;0.00234484;-2.28185;24.1301;-0.796895;-0.109453;0.0342014;-0.643191;-0.340671;-1.34526;-0.182451;1.39966;-5.58997;-0.00122144;3.32335e-05;0.00516094;0.00516112;-0.00122162;0.00319137;0.236671;4.22528;0.00391205;0.00425516;4.22483;0.236696;123.095;168.095;-0.00645906;-0.00123194;0.00467478;-0.00457884;0.00515007;0.00256028;0.0212196;0;0.0603554;-0.452451;-1.38097;-0.821984;1.66956;-6.40046;-6.96697e-05;-1.50993e-05;0.00195131;0.00195142;-6.97825e-05;0.0010106;0.0357041;28.008;0.00132482;0.00134747;27.9643;0.0357599;129.01;174.01;-0.00551371;-7.84155e-05;0.0041604;-0.00418218;0.00194267;0.00397316;0.0192935;0;0.0229644;4.43014;1.20531
333000;334;24.252;0.0578562;0.00239133;-2.28229;24.1312;-0.796787;-0.109893;0.0352938;-0.643083;-0.339637;-1.34834;-0.183768;1.40255;-5.59129;-0.00099333;0.000331383;0.00502203;0.00504023;-0.00101153;0.00302588;0.197794;5.05575;0.00374317;0.00403451;4.98278;0.200691;120.171;165.171;-0.00624328;-0.00100275;0.00504191;-0.00435096;0.00500944;0.00208912;0.0190847;0;0.0673501;-0.4515;-1.3843;-0.825436;1.67376;-6.40391;-0.000133652;-0.000111164;0.00206995;0.00207554;-0.000139246;0.00110739;0.0645678;15.4876;0.00143237;0.00147652;14.9056;0.0670888;131.151;176.151;-0.00541835;-0.000142429;0.00397759;-0.00419093;0.00206206;0.00378085;0.0206424;0;0.0297333;4.48586;1.21192
334000;335;24.2539;0.0597704;0.00247045;-2.2832;24.1332;-0.792593;-0.110803;0.0372698;-0.638889;-0.337664;-1.3523;-0.182837;1.40576;-5.59036;-0.00105804;0.000214119;0.00536658;0.00537371;-0.00106517;0.00321944;0.197154;5.07218;0.00398527;0.00429259;5.04493;0.198219;120.019;165.019;-0.00581905;-0.0010668;0.00464568;-0.00418913;0.00535587;0.00151614;0.0198639;0;0.0613121;-0.449753;-1.38871;-0.824275;1.67637;-6.40275;-5.9934e-05;2.80566e-05;0.00200453;0.00200491;-6.03152e-05;0.00103261;0.0298992;33.4457;0.00135716;0.00137682;33.2406;0.0300837;127.65;172.65;-0.00551708;-6.8642e-05;0.00423801;-0.00417322;0.00199557;0.00411773;0.0212988;0;0.0232065;4.57995;1.21931
335000;336;24.2546;0.0604446;0.00249832;-2.28281;24.1338;-0.79643;-0.110407;0.0378585;-0.642726;-0.336772;-1.35352;-0.184353;1.40692;-5.59187;-0.00103269;0.00029357;0.00571826;0.005731;-0.00104543;0.00338822;0.180595;5.53726;0.00421261;0.00451762;5.48196;0.182417;118.942;163.942;-0.00621189;-0.00104186;0.00490957;-0.00429145;0.00570632;0.00106836;0.0187181;0;0.064195;-0.448628;-1.39075;-0.827694;1.67944;-6.40617;-0.000198724;-0.000162861;0.00226379;0.00227451;-0.000209449;0.00124198;0.0877839;11.3916;0.00159076;0.00165598;10.8595;0.0920849;131.797;176.797;-0.0059891;-0.000208206;0.00404193;-0.00435732;0.00225565;0.00423884;0.0216754;0;0.0246231;4.63391;1.22638
336000;337;24.2561;0.0619804;0.0025618;-2.28264;24.1353;-0.79692;-0.110235;0.039402;-0.643216;-0.336572;-1.35632;-0.18227;1.40929;-5.58979;-0.00103533;0.000507425;0.00577194;0.00580955;-0.00107295;0.00344125;0.179373;5.57496;0.0042758;0.00458834;5.41457;0.184687;116.784;161.784;-0.00697889;-0.00104309;0.00501523;-0.00396988;0.00575956;0.00153286;0.0186405;0;0.0684573;-0.448588;-1.39361;-0.827001;1.68146;-6.40548;-0.0001292;-0.000236535;0.00223499;0.00225843;-0.000152632;0.00120553;0.0578076;17.2988;0.00155899;0.00160737;14.7965;0.0675835;133.592;178.592;-0.00615925;-0.000139089;0.0039902;-0.00445329;0.00222708;0.0028867;0.0219916;0;0.0273468;4.68103;1.22694
337000;338;24.2568;0.0627147;0.00259215;-2.28223;24.136;-0.799993;-0.109826;0.040077;-0.646289;-0.333462;-1.35962;-0.184005;1.41195;-5.59153;-0.00111369;-8.08445e-05;0.00543898;0.00543998;-0.00111469;0.00327733;0.204761;4.88374;0.00404968;0.00436978;4.88027;0.204907;123.169;168.169;-0.00602177;-0.00112484;0.00458923;-0.00472048;0.00542851;0.00156115;0.0195;0;0.0687042;-0.445723;-1.39903;-0.829384;1.68637;-6.40786;-0.000230528;-0.000218654;0.00275412;0.00277006;-0.000246461;0.00150826;0.0837028;11.947;0.0019341;0.00201101;11.2393;0.0889733;131.247;176.247;-0.00715175;-0.000241551;0.00427593;-0.00469986;0.00274503;0.00507726;0.025165;0;0.0239527;4.77893;1.24022
338000;339;24.2593;0.065135;0.00269218;-2.28229;24.1384;-0.798707;-0.109886;0.0425462;-0.645004;-0.333518;-1.36191;-0.187506;1.41464;-5.59503;-0.000890762;0.000368714;0.0059277;0.00594758;-0.000910642;0.00342911;0.150271;6.65464;0.00430086;0.00457215;6.53119;0.153111;117.433;162.433;-0.00658173;-0.000899508;0.00496539;-0.00419681;0.00591551;0.00263569;0.0196474;0;0.0641937;-0.445676;-1.40333;-0.834114;1.69225;-6.41259;-0.000182359;-0.000241566;0.00286213;0.00288118;-0.000201407;0.00154129;0.0637144;15.695;0.00199132;0.00205505;14.3053;0.0699043;130.899;175.899;-0.00684579;-0.000192888;0.00412493;-0.0045948;0.00285367;0.00293899;0.0250335;0;0.025463;4.83552;1.24183
339000;340;24.2611;0.0669597;0.0027676;-2.28197;24.1404;-0.796249;-0.109571;0.0444912;-0.642545;-0.33223;-1.36241;-0.192823;1.41553;-5.60034;-0.00067181;0.00057464;0.00619348;0.00624124;-0.000719576;0.00348041;0.108471;9.21909;0.00442025;0.00464055;8.6735;0.115294;114.555;159.555;-0.00730454;-0.000679509;0.00514517;-0.00396471;0.00618049;-0.000503962;0.0165422;0;0.0655519;-0.444353;-1.40547;-0.839208;1.69619;-6.41768;-0.000205314;-0.000162633;0.00287866;0.00288722;-0.000213866;0.00155054;0.0713225;14.0208;0.00199992;0.00206739;13.5001;0.0740735;129.389;174.389;-0.00728711;-0.000215423;0.00418701;-0.0044989;0.00286994;0.00341083;0.0251317;0;0.0229444;4.87996;1.24862
340000;341;24.2589;0.0647659;0.00267693;-2.28164;24.1381;-0.798455;-0.109239;0.042245;-0.644751;-0.330801;-1.36686;-0.193035;1.4195;-5.60056;-0.000842121;0.000247885;0.00637665;0.00638515;-0.000850623;0.00361789;0.132063;7.57212;0.00456679;0.00482385;7.50644;0.133219;117.908;162.908;-0.00766105;-0.000852276;0.00504163;-0.00451148;0.00636405;0.000911269;0.0177128;0;0.0647833;-0.442895;-1.41179;-0.839843;1.70136;-6.41832;-0.000244861;6.08754e-05;0.00305363;0.00305476;-0.000245984;0.00165037;0.0801869;12.4709;0.00212325;0.00220049;12.4185;0.080525;124.435;169.435;-0.00650166;-0.000253013;0.0041729;-0.00403763;0.00304495;0.00486409;0.0259077;0;0.0200501;4.9751;1.25638
341000;342;24.261;0.0668627;0.00276359;-2.28185;24.1403;-0.797745;-0.109447;0.0443559;-0.644041;-0.329749;-1.36967;-0.190878;1.42168;-5.5984;-0.000645681;0.000770399;0.00607671;0.00616386;-0.000732841;0.00344835;0.106255;9.41131;0.00437404;0.0045978;8.41092;0.118893;113.133;158.133;-0.00710955;-0.00065259;0.00536648;-0.00379499;0.00606269;-0.00111893;0.0170135;0;0.0628428;-0.441795;-1.41457;-0.840239;1.70358;-6.41871;-0.000387601;0.000290745;0.00282194;0.00284807;-0.000413726;0.0016309;0.137352;7.28054;0.00205058;0.00217453;6.88395;0.145265;121.826;166.826;-0.00698095;-0.00039541;0.00455707;-0.00396193;0.00281163;0.00633201;0.0260839;0;0.02024;5.03089;1.26291
342000;343;24.2604;0.0662766;0.00273937;-2.28096;24.1396;-0.803397;-0.108554;0.0436639;-0.649693;-0.329422;-1.3703;-0.194926;1.42276;-5.60245;-0.000676591;0.000796351;0.00585941;0.00595503;-0.00077222;0.00336363;0.115471;8.66019;0.00425087;0.00448484;7.71158;0.129675;113.67;158.67;-0.00709081;-0.000683892;0.00552551;-0.0039021;0.00584454;-0.000897537;0.0183837;0;0.0679545;-0.44133;-1.41627;-0.844564;1.70701;-6.42304;-0.000241574;0.000301653;0.00288788;0.0029167;-0.000270386;0.00159354;0.0836509;11.9545;0.00204057;0.00212472;10.7872;0.0927027;120.899;165.899;-0.00612779;-0.00024944;0.00459394;-0.00397724;0.00287741;0.00541777;0.0260567;0;0.0195426;5.07396;1.27036
343000;344;24.2629;0.0687655;0.00284224;-2.282;24.142;-0.802734;-0.109601;0.0460885;-0.64903;-0.326933;-1.37278;-0.20063;1.42536;-5.60815;-0.000942403;0.0005695;0.00636901;0.0064131;-0.000986497;0.0036998;0.147967;6.75826;0.00463933;0.00493306;6.50088;0.153825;115.162;160.162;-0.0065536;-0.000950215;0.00516392;-0.00399155;0.00635592;-0.00139137;0.020414;0;0.0615801;-0.439403;-1.42117;-0.846733;1.71165;-6.42521;-0.000340494;0.000503009;0.00285594;0.00293323;-0.000417782;0.0016755;0.119223;8.38763;0.00210859;0.00223401;7.02095;0.142431;118.393;163.393;-0.00566968;-0.000348341;0.00501291;-0.00399252;0.00284354;0.0066478;0.0264941;0;0.0190582;5.16839;1.2776
344000;345;24.2637;0.0696287;0.00287792;-2.28254;24.1429;-0.79897;-0.11014;0.0470298;-0.645267;-0.325435;-1.37798;-0.195871;1.42937;-5.60339;-0.000972739;0.000290031;0.00623753;0.00624918;-0.000984387;0.00361678;0.155949;6.41233;0.00453004;0.00482238;6.34829;0.157523;118.025;163.025;-0.00713365;-0.000982414;0.00502018;-0.00440623;0.00622505;0.000938815;0.0191633;0;0.0637701;-0.437789;-1.42532;-0.845431;1.71404;-6.42391;-0.000486941;0.00060801;0.00288227;0.00298864;-0.000593305;0.00179097;0.168943;5.91915;0.00221682;0.00238796;5.03727;0.19852;117.472;162.472;-0.00534233;-0.000494097;0.00506179;-0.00383082;0.00286968;0.00644866;0.0281403;0;0.0199523;5.22484;1.28528
345000;346;24.2646;0.0704808;0.00291314;-2.28145;24.1438;-0.800594;-0.10905;0.0479354;-0.64689;-0.324566;-1.37865;-0.201087;1.43054;-5.60861;-0.00115562;0.000155693;0.0059538;0.00595721;-0.00115903;0.00355812;0.194099;5.15202;0.00440889;0.00474416;5.13981;0.19456;120.412;165.412;-0.00823621;-0.00116638;0.00498387;-0.00463837;0.00594147;0.00425212;0.0183885;0;0.0635525;-0.43653;-1.42688;-0.851045;1.7178;-6.42952;-0.000521114;0.000469564;0.00278756;0.00285291;-0.000586464;0.00171969;0.186943;5.34923;0.00212458;0.00229291;4.86459;0.205567;120.081;165.081;-0.00529995;-0.000529488;0.00507233;-0.00411803;0.00277484;0.00660542;0.027941;0;0.0219007;5.27608;1.29012
346000;347;24.2673;0.0732342;0.00302694;-2.28268;24.1466;-0.796011;-0.110282;0.0507376;-0.642307;-0.322664;-1.3817;-0.201638;1.43313;-5.60916;-0.00123452;0.000191493;0.00583192;0.00583711;-0.00123971;0.00353841;0.211684;4.72403;0.00436374;0.00471788;4.70845;0.212384;120.664;165.664;-0.00818186;-0.00124524;0.00504849;-0.00463138;0.00581927;0.00500801;0.0215486;0;0.0593447;-0.434701;-1.43132;-0.849815;1.72042;-6.42829;-0.00063424;0.000596537;0.00280522;0.00290574;-0.000734765;0.00182025;0.226093;4.42296;0.00222294;0.002427;3.95465;0.252867;118.773;163.773;-0.0056904;-0.000642186;0.00523865;-0.00402967;0.00279171;0.00643385;0.0293208;0;0.0200678;5.36133;1.29999
347000;348;24.2672;0.0731272;0.00302252;-2.28331;24.1463;-0.801849;-0.110909;0.0503777;-0.648145;-0.320736;-1.38463;-0.202135;1.43559;-5.60966;-0.00103963;0.000123977;0.00535351;0.00535591;-0.00104204;0.00319898;0.194197;5.14942;0.00396388;0.0042653;5.13985;0.194558;122.309;167.309;-0.00797327;-0.00105185;0.00522298;-0.0049426;0.00533995;0.00480292;0.0231461;0;0.0623554;-0.432718;-1.43483;-0.85143;1.72364;-6.42991;-0.000832958;0.000568077;0.00305524;0.00313654;-0.000914256;0.0020254;0.272632;3.66794;0.00245324;0.00270053;3.4307;0.291485;120.249;165.249;-0.00545303;-0.000841663;0.00536407;-0.00420933;0.00304106;0.00677075;0.0303689;0;0.0218155;5.4263;1.30692
348000;349;24.2693;0.0751896;0.00310776;-2.28236;24.1486;-0.797415;-0.109964;0.0526866;-0.643711;-0.3196;-1.38672;-0.204435;1.43768;-5.61196;-0.00164682;-0.000183283;0.00571787;0.00572243;-0.00165138;0.0036869;0.288013;3.47207;0.00446831;0.00491587;3.46525;0.28858;125.523;170.523;-0.00864909;-0.00166085;0.00496691;-0.00529576;0.00570562;0.00699571;0.0240931;0;0.0588623;-0.43111;-1.43709;-0.854976;1.72686;-6.43345;-0.00078685;0.000555645;0.0028918;0.0029739;-0.000868945;0.00192142;0.272097;3.67516;0.00232697;0.00256189;3.42242;0.292191;120.251;165.251;-0.00526511;-0.000795373;0.00529309;-0.00416444;0.00287799;0.00605149;0.030777;0;0.0201817;5.47691;1.30776
349000;350;24.273;0.0788908;0.00326074;-2.28359;24.1524;-0.790541;-0.111191;0.0565163;-0.636837;-0.318093;-1.3879;-0.214906;1.44001;-5.62243;-0.00127554;0.000169434;0.00492513;0.00492976;-0.00128017;0.00310496;0.258987;3.8612;0.00378607;0.00413995;3.85086;0.259682;123.718;168.718;-0.00799306;-0.00128822;0.00540519;-0.00503402;0.00491061;0.00669931;0.0277428;0;0.0684269;-0.429837;-1.44068;-0.864299;1.73417;-6.44277;-0.000864806;0.000466202;0.00302811;0.00308316;-0.000919858;0.00200151;0.285593;3.50149;0.00242103;0.00266868;3.35178;0.298349;121.813;166.813;-0.00581489;-0.00087395;0.005251;-0.00430004;0.00301447;0.00790991;0.0291252;0;0.0270206;5.55756;1.31655
350000;351;24.2723;0.0781673;0.00323084;-2.28332;24.1515;-0.796749;-0.110915;0.0556112;-0.643046;-0.316928;-1.39332;-0.209485;1.44418;-5.61701;-0.00150088;-0.000474589;0.00429845;0.00433703;-0.00153946;0.00293825;0.349167;2.86396;0.00351861;0.00391766;2.81724;0.354957;131.992;176.992;-0.00942236;-0.00151661;0.00470548;-0.00562473;0.00428754;0.00914383;0.0269175;0;0.0624563;-0.428665;-1.44603;-0.85881;1.7356;-6.43729;-0.000967147;0.000389718;0.0029131;0.00295185;-0.0010059;0.00197888;0.332;3.01205;0.00237529;0.0026385;2.93453;0.34077;123.913;168.913;-0.00612174;-0.000978446;0.00556688;-0.00476743;0.00289772;0.00652571;0.0295615;0;0.0195018;5.63053;1.32278
351000;352;24.2731;0.0789558;0.00326343;-2.28448;24.1523;-0.794194;-0.112084;0.0563773;-0.64049;-0.315875;-1.39413;-0.212386;1.44516;-5.61991;-0.00126502;-6.26351e-06;0.00431944;0.00431945;-0.00126503;0.00279224;0.292866;3.41453;0.00338113;0.00372298;3.41452;0.292867;127.065;172.065;-0.00802965;-0.00127949;0.00539426;-0.00537676;0.00430496;0.00458035;0.02786;0;0.0640252;-0.427235;-1.44942;-0.859213;1.73828;-6.43769;-0.00083745;0.000230143;0.00319905;0.00321213;-0.000850529;0.00203133;0.261781;3.81999;0.00247415;0.00270844;3.77662;0.264787;124.956;169.956;-0.00670401;-0.000848494;0.00518353;-0.00470332;0.00318568;0.00793287;0.0316304;0;0.0187606;5.67433;1.32933
352000;353;24.2753;0.0811631;0.00335466;-2.28387;24.1545;-0.794363;-0.111466;0.0586485;-0.640659;-0.315507;-1.39644;-0.216475;1.44791;-5.624;-0.00137823;-0.000249389;0.00438618;0.00439695;-0.001389;0.00289297;0.314221;3.18247;0.00348774;0.0038573;3.16555;0.315901;129.191;174.191;-0.00806225;-0.00139249;0.00487323;-0.0053426;0.00437439;0.00752123;0.0295853;0;0.0591377;-0.427168;-1.45284;-0.865809;1.74437;-6.44428;-0.000712851;0.000245949;0.00348441;0.00349878;-0.000727214;0.002113;0.204583;4.888;0.00260893;0.00281733;4.81121;0.207848;123.985;168.985;-0.00743791;-0.000724578;0.00536073;-0.00484744;0.00347013;0.00728823;0.0288874;0;0.0236961;5.74091;1.33646
353000;354;24.2755;0.0813388;0.00336193;-2.28209;24.1547;-0.799458;-0.109684;0.0588254;-0.645754;-0.314394;-1.4014;-0.213737;1.45205;-5.62126;-0.00166512;-0.000411125;0.00425778;0.00428618;-0.00169352;0.00298985;0.391076;2.55705;0.00355891;0.00398647;2.53093;0.395111;132.099;177.099;-0.00876986;-0.00168175;0.00498661;-0.00577701;0.00424548;0.00750126;0.0288688;0;0.0604957;-0.425651;-1.45909;-0.863731;1.74818;-6.44221;-0.000702445;2.85507e-05;0.00362774;0.00362793;-0.000702633;0.00216528;0.193632;5.16445;0.00268367;0.00288704;5.16333;0.193673;125.88;170.88;-0.00712839;-0.000713246;0.00472357;-0.00464621;0.00361662;0.00496369;0.0286242;0;0.0216447;5.81878;1.34429
354000;355;24.2753;0.0811645;0.00335472;-2.28221;24.1545;-0.801318;-0.109813;0.0585763;-0.647614;-0.312467;-1.40512;-0.209914;1.45467;-5.61743;-0.00164172;-0.000156784;0.00367409;0.00367871;-0.00164634;0.00266252;0.446837;2.23795;0.00314817;0.00355003;2.23448;0.447531;131.214;176.214;-0.00784826;-0.00165672;0.00518966;-0.00547491;0.00366068;0.0052311;0.0286993;0;0.0626127;-0.423797;-1.46424;-0.860108;1.75025;-6.43858;-0.000629309;0.000183066;0.00353228;0.00354032;-0.000637347;0.00208883;0.178159;5.61295;0.00259885;0.00278511;5.55478;0.180025;123.768;168.768;-0.00654977;-0.000639291;0.00485579;-0.00447029;0.00352055;0.00374294;0.0289641;0;0.0196924;5.86385;1.35122
355000;356;24.277;0.0829135;0.00342701;-2.28198;24.1562;-0.802085;-0.109578;0.0603309;-0.648381;-0.312312;-1.40753;-0.213942;1.45755;-5.62146;-0.00157534;-0.000145041;0.00413129;0.00413497;-0.00157903;0.002857;0.38132;2.62247;0.00340722;0.00380933;2.61868;0.381871;129.576;174.576;-0.00730151;-0.00159001;0.00515279;-0.00541276;0.00411808;0.00522212;0.0301986;0;0.0619008;-0.423193;-1.46759;-0.867428;1.75651;-6.4459;-0.000706796;0.000440449;0.00341973;0.00346622;-0.000753284;0.00210975;0.206682;4.83836;0.00259856;0.002813;4.60148;0.217322;120.14;165.14;-0.00726054;-0.000714091;0.00474223;-0.00384365;0.00340862;0.00651239;0.0268745;0;0.0185292;5.93833;1.35905
356000;357;24.2791;0.0849795;0.0035124;-2.28185;24.1585;-0.795905;-0.109449;0.0626238;-0.642201;-0.311226;-1.41197;-0.216088;1.46192;-5.62361;-0.00175707;2.71144e-05;0.00315952;0.00315967;-0.00175722;0.00245844;0.55612;1.79817;0.002877;0.00327792;1.79811;0.556141;130.609;175.609;-0.00770149;-0.00176933;0.0050254;-0.00494667;0.00314693;0.00645812;0.0306906;0;0.0617766;-0.422521;-1.47316;-0.867018;1.76081;-6.44549;-0.000633376;0.000563828;0.00348511;0.0035609;-0.00070917;0.00213504;0.181738;5.50243;0.00264224;0.00284671;5.02122;0.199155;117.914;162.914;-0.00619543;-0.000639822;0.00477858;-0.00363364;0.00347389;0.00505064;0.0279968;0;0.0178031;6.01086;1.36641
357000;358;24.2787;0.0846193;0.00349752;-2.28232;24.158;-0.800843;-0.109917;0.0620544;-0.647139;-0.31072;-1.41508;-0.211826;1.4642;-5.61935;-0.00130821;0.000194039;0.00331241;0.00332054;-0.00131635;0.00231845;0.394943;2.53201;0.00275921;0.00309126;2.52254;0.396425;127.18;172.18;-0.00819316;-0.00132125;0.00551894;-0.00510634;0.00329725;0.00663961;0.0304659;0;0.0629054;-0.42182;-1.47694;-0.865339;1.76298;-6.44381;-0.000581446;0.000414164;0.0033095;0.0033531;-0.000625042;0.00198907;0.17569;5.69185;0.00247025;0.00265209;5.3646;0.186407;119.399;164.399;-0.00533904;-0.000587581;0.00436987;-0.00352621;0.00330007;0.00257322;0.0261432;0;0.0191358;6.05564;1.37148
358000;359;24.2798;0.0857033;0.00354232;-2.282;24.159;-0.80247;-0.109595;0.0631203;-0.648766;-0.30942;-1.41812;-0.216438;1.46753;-5.62396;-0.00104656;0.00076515;0.00366288;0.00378407;-0.00116776;0.00247591;0.285721;3.49992;0.002989;0.00330122;3.24046;0.308598;118.455;163.455;-0.00832977;-0.00105479;0.00567951;-0.00412617;0.0036471;0.00441872;0.027659;0;0.0612934;-0.420489;-1.48097;-0.868483;1.76758;-6.44696;-0.00069346;0.000436424;0.0032237;0.00327173;-0.000741494;0.00200661;0.215113;4.64872;0.00246577;0.00267549;4.41235;0.226636;119.733;164.733;-0.00540424;-0.000699439;0.0043727;-0.00348449;0.00321427;0.00368582;0.0268667;0;0.0186213;6.12435;1.37667
359000;360;24.2803;0.0862242;0.00356385;-2.28272;24.1595;-0.802629;-0.110321;0.0635699;-0.648925;-0.307996;-1.42001;-0.220151;1.46961;-5.62767;-0.000814346;0.000982259;0.00318073;0.00340917;-0.00104279;0.00222598;0.256025;3.90587;0.00268865;0.00296797;3.26928;0.305878;115.105;160.105;-0.00832074;-0.000821682;0.00593711;-0.00395288;0.00316364;0.0062291;0.0266929;0;0.0648056;-0.418538;-1.48394;-0.874822;1.77273;-6.4533;-0.000634729;0.000330001;0.00311413;0.00314296;-0.000663556;0.00190326;0.203822;4.90623;0.00234795;0.00253767;4.73653;0.211125;121.429;166.429;-0.00518508;-0.000641559;0.00438473;-0.00370958;0.0031046;0.00169811;0.0258625;0;0.0202847;6.19407;1.38627
360000;361;24.2803;0.0861816;0.00356209;-2.28296;24.1593;-0.805343;-0.110562;0.0634141;-0.651639;-0.306589;-1.42394;-0.216366;1.47256;-5.62389;-0.00121306;0.00056775;0.00317381;0.0032461;-0.00128534;0.00226572;0.382208;2.61638;0.00269663;0.00302096;2.52547;0.395966;122.021;167.021;-0.00809524;-0.00122227;0.00548469;-0.00432771;0.00315898;0.00667438;0.0315539;0;0.0593626;-0.417771;-1.48769;-0.871788;1.7742;-6.45026;-0.000587646;0.000278926;0.0030326;0.00305397;-0.00060901;0.00183149;0.193776;5.1606;0.00226642;0.00244198;5.01464;0.199416;122.091;167.091;-0.0055488;-0.000594564;0.00430144;-0.00372907;0.00302342;0.00246726;0.0244291;0;0.0195124;6.2324;1.38865
361000;362;24.28;0.0858418;0.00354804;-2.28235;24.1588;-0.811843;-0.109949;0.0629128;-0.658139;-0.304579;-1.42733;-0.218252;1.47569;-5.62577;-0.000916928;0.000795661;0.00359311;0.00372937;-0.00105318;0.00239127;0.255191;3.91864;0.00290173;0.00318837;3.54105;0.282402;117.849;162.849;-0.00811467;-0.000925818;0.00590337;-0.00428911;0.00357607;0.00295174;0.0266564;0;0.0620564;-0.415179;-1.49139;-0.87482;1.77818;-6.45329;-0.000578833;0.000173628;0.00286117;0.00286991;-0.000587574;0.00172874;0.202307;4.94299;0.00213624;0.00230499;4.88433;0.204736;124.204;169.204;-0.0055495;-0.000586343;0.0042396;-0.0038784;0.00285222;0.00465652;0.0242384;0;0.0200753;6.30324;1.39596
362000;363;24.2826;0.0884611;0.00365631;-2.28328;24.1615;-0.808371;-0.110881;0.0655737;-0.654667;-0.303666;-1.42993;-0.225282;1.47908;-5.6328;-0.0011735;0.000659285;0.00275553;0.00286321;-0.00128117;0.00207219;0.42587;2.34813;0.00245018;0.00276292;2.23483;0.447461;121.178;166.178;-0.00756175;-0.00118278;0.00569446;-0.00435617;0.00273958;0.00551867;0.0312652;0;0.0654389;-0.414875;-1.49567;-0.883413;1.78593;-6.46189;-0.000463943;0.000173891;0.00316097;0.00316929;-0.000472266;0.00182078;0.146773;6.81326;0.0022866;0.0024277;6.71082;0.149013;123.001;168.001;-0.0054549;-0.000471439;0.00423729;-0.00387483;0.00315203;0.00447325;0.024226;0;0.0272899;6.36853;1.40353
363000;364;24.2828;0.0887308;0.00366745;-2.2833;24.1616;-0.81129;-0.1109;0.065745;-0.657586;-0.300677;-1.43397;-0.217948;1.48128;-5.62547;-0.00137226;0.000675986;0.00366894;0.00375801;-0.00146133;0.00260967;0.37402;2.67365;0.00310911;0.00347956;2.57164;0.388857;120.903;165.903;-0.00759402;-0.00138117;0.00564959;-0.00427265;0.00365327;0.0028753;0.0266623;0;0.0659889;-0.411745;-1.50022;-0.877265;1.786;-6.45574;-0.000540554;-5.86998e-05;0.00314679;0.00314773;-0.000541488;0.00184461;0.171779;5.82143;0.00230032;0.00245948;5.81311;0.172025;126.727;171.727;-0.00580714;-0.000548574;0.00390154;-0.00400438;0.00313921;0.0042119;0.0224697;0;0.0208001;6.41704;1.41062
364000;365;24.2838;0.0896964;0.00370736;-2.28426;24.1625;-0.812317;-0.11186;0.0665903;-0.658613;-0.299258;-1.43802;-0.215769;1.4846;-5.62329;-0.00097521;0.000845081;0.00361979;0.00377028;-0.0011257;0.00244799;0.269411;3.7118;0.00296096;0.00326399;3.34927;0.298573;117.221;162.221;-0.00682189;-0.000982882;0.00571785;-0.0040054;0.00360386;0.00424643;0.0303545;0;0.0681183;-0.410508;-1.50415;-0.878517;1.78963;-6.45699;-0.000514851;-9.14415e-05;0.0032863;0.0032885;-0.00051705;0.00190277;0.156666;6.38301;0.00238345;0.00253703;6.36012;0.15723;126.714;171.714;-0.00556194;-0.000523106;0.00389534;-0.00406312;0.00327874;0.0033411;0.0228854;0;0.0226956;6.4689;1.41782
365000;366;24.2853;0.0911881;0.00376902;-2.28451;24.1638;-0.816157;-0.112113;0.0679362;-0.662453;-0.296415;-1.44425;-0.213418;1.48972;-5.62157;-0.0010587;0.00165613;0.00524521;0.00565382;-0.00146731;0.00356056;0.201842;4.95438;0.00434176;0.00474742;3.8532;0.259525;107.335;152.335;-0.00913038;-0.00106011;0.0056946;-0.00235704;0.00523045;0.00624378;0.0257137;0;0.0662401;-0.408092;-1.51075;-0.880009;1.79536;-6.45848;-0.000389358;-0.000199047;0.00367967;0.00368939;-0.000399072;0.00204423;0.105813;9.45062;0.00260283;0.00272564;9.24492;0.108168;126.735;171.735;-0.00659869;-0.000398439;0.00388409;-0.00426563;0.00367218;0.00356968;0.0228335;0;0.0230307;6.53755;1.42524
366000;367;24.2843;0.0901373;0.00372559;-2.28304;24.1626;-0.825443;-0.110641;0.0667037;-0.671739;-0.295316;-1.44926;-0.208727;1.4937;-5.61625;-0.00140833;0.000352331;0.0050709;0.00509;-0.00142743;0.00325871;0.277727;3.60066;0.00395594;0.00434495;3.56585;0.280438;121.316;166.316;-0.00572004;-0.00141796;0.00513644;-0.00440095;0.00505783;0.00285108;0.0267235;0;0.0649004;-0.407191;-1.51661;-0.878702;1.79945;-6.45718;-0.000373223;-0.000311429;0.00381645;0.00383947;-0.000396246;0.00211786;0.0977932;10.2257;0.00270144;0.00282381;9.68963;0.103203;128.026;173.026;-0.00670148;-0.000383336;0.00390206;-0.00450733;0.00380891;0.00453204;0.0240146;0;0.0257728;6.57313;1.43303
367000;368;24.2882;0.0941304;0.00389063;-2.28285;24.1668;-0.820767;-0.110446;0.0708947;-0.667063;-0.294004;-1.44857;-0.217578;1.49404;-5.6251;-0.00115316;0.000931242;0.00533077;0.00546186;-0.00128426;0.00337306;0.216322;4.62273;0.00413633;0.00449742;4.25292;0.235132;114.461;159.461;-0.00767805;-0.00115905;0.00544568;-0.0035541;0.00531645;0.0049436;0.0235585;0;0.067825;-0.405823;-1.51882;-0.885416;1.80429;-6.46389;-0.000337951;-0.000183218;0.00397994;0.0039877;-0.000345712;0.00216671;0.0849136;11.7767;0.00278088;0.00288894;11.5348;0.0866945;124.402;169.402;-0.00682795;-0.000345628;0.00357177;-0.00392206;0.00397361;0.00372499;0.0239494;0;0.0240328;6.61177;1.43956
368000;369;24.2891;0.095031;0.00392785;-2.28229;24.1678;-0.820263;-0.109889;0.0718694;-0.666559;-0.292017;-1.45174;-0.223963;1.49766;-5.63148;-0.00149011;0.000332363;0.00488717;0.00490444;-0.00150738;0.00320591;0.304902;3.27974;0.00387118;0.00427455;3.25361;0.307351;121.676;166.676;-0.00722462;-0.00149882;0.00487715;-0.00418359;0.00487539;0.00312741;0.0257651;0;0.0630971;-0.404342;-1.52395;-0.892736;1.81188;-6.47121;-0.000454891;-4.40005e-05;0.00396933;0.00396977;-0.000455329;0.00221255;0.114601;8.7259;0.00281061;0.00295007;8.71847;0.114699;122.373;167.373;-0.00656927;-0.000461359;0.00352386;-0.00359614;0.00396315;0.00381494;0.0247341;0;0.0213542;6.67395;1.44904
369000;370;24.2895;0.0953975;0.003943;-2.28264;24.168;-0.823399;-0.110237;0.0720983;-0.669695;-0.290366;-1.45573;-0.22198;1.50091;-5.6295;-0.00133266;0.000355541;0.00560223;0.00562041;-0.00135084;0.00348563;0.23788;4.2038;0.00426907;0.0046475;4.16068;0.240345;119.298;164.298;-0.00573096;-0.00134112;0.00486738;-0.00412519;0.00559052;0.00273677;0.0256595;0;0.0658149;-0.402847;-1.52802;-0.89218;1.8147;-6.47065;-0.000513227;3.44876e-06;0.00373169;0.0037317;-0.00051323;0.00212246;0.137532;7.27103;0.00267533;0.00282995;7.271;0.137533;123.156;168.156;-0.00649794;-0.000520056;0.00371733;-0.00369472;0.00372481;0.0050349;0.0249587;0;0.0199169;6.70434;1.45474
370000;371;24.2885;0.0943766;0.00390081;-2.28183;24.1669;-0.827067;-0.109425;0.0710237;-0.673363;-0.288571;-1.45899;-0.221685;1.50369;-5.6292;-0.00160846;0.000614674;0.0063024;0.00634987;-0.00165594;0.0040029;0.255214;3.91828;0.0048798;0.0053372;3.83461;0.260783;116.997;161.997;-0.00621097;-0.00161617;0.00523629;-0.00397062;0.00628896;0.00239908;0.0240906;0;0.062955;-0.400901;-1.53192;-0.892904;1.8179;-6.47138;-0.000404903;0.000247946;0.00358563;0.00360097;-0.00042025;0.00201061;0.112924;8.85552;0.00255229;0.00268082;8.56865;0.116704;119.859;164.859;-0.00583516;-0.000410922;0.00398836;-0.0034776;0.00357773;0.00473407;0.025135;0;0.0205719;6.732;1.45603
371000;372;24.2903;0.096189;0.00397572;-2.28267;24.1688;-0.823406;-0.110274;0.07289;-0.669702;-0.287081;-1.4614;-0.229379;1.50689;-5.6369;-0.00144603;0.00022899;0.00617615;0.00618302;-0.0014529;0.00381796;0.234131;4.27111;0.00468207;0.00509062;4.25563;0.234983;120.013;165.013;-0.00661354;-0.00145625;0.00501733;-0.00452308;0.00616366;0.00208626;0.0228518;0;0.0673477;-0.399584;-1.53518;-0.900744;1.82422;-6.47922;-0.000545982;0.000108466;0.003528;0.00353088;-0.000548868;0.00203988;0.154757;6.46174;0.00255659;0.00271983;6.43303;0.155448;122.885;167.885;-0.00532472;-0.000553035;0.0039889;-0.00375622;0.00352008;0.00523719;0.0244259;0;0.0230059;6.78646;1.46758
372000;373;24.2905;0.0963395;0.00398194;-2.28171;24.1689;-0.826595;-0.109307;0.0730238;-0.672891;-0.286427;-1.46561;-0.228488;1.51072;-5.63601;-0.00107378;0.000787041;0.0070071;0.00708304;-0.00114972;0.00411638;0.153241;6.52566;0.00514824;0.00548851;6.16068;0.16232;112.513;157.513;-0.00832281;-0.00108006;0.00523878;-0.00362899;0.00699378;0.00498765;0.01841;0;0.0617944;-0.398789;-1.53847;-0.902619;1.82775;-6.48109;-0.000526126;0.000182408;0.00342115;0.00342957;-0.000534537;0.00198205;0.153786;6.50254;0.0024838;0.00264273;6.41596;0.155861;121.94;166.94;-0.00521144;-0.000532728;0.00401731;-0.00363742;0.00341313;0.00521244;0.0264756;0;0.0216019;6.81041;1.47019
373000;374;24.2907;0.0966211;0.00399358;-2.28266;24.1692;-0.824491;-0.110264;0.0732883;-0.670787;-0.284797;-1.46897;-0.235804;1.51479;-5.64332;-0.00154235;0.000757776;0.00684437;0.00691229;-0.00161027;0.00426128;0.225346;4.43762;0.00522827;0.00568171;4.29263;0.232958;113.948;158.948;-0.0076471;-0.00154826;0.00506735;-0.00351591;0.00683191;0.00430291;0.0206366;0;0.0637973;-0.397232;-1.54168;-0.907764;1.83265;-6.48624;-0.000616469;0.000152543;0.00343887;0.0034446;-0.000622199;0.0020334;0.179265;5.57833;0.00252944;0.0027112;5.53617;0.18063;122.885;167.885;-0.00482062;-0.000623526;0.00407984;-0.00375888;0.00343058;0.00513436;0.0257889;0;0.0246979;6.83807;1.4775
374000;375;24.2912;0.0970676;0.00401203;-2.28241;24.1695;-0.829322;-0.110006;0.0735961;-0.675618;-0.284231;-1.4717;-0.234004;1.51706;-5.64152;-0.00126243;0.00065452;0.00679511;0.00684793;-0.00131525;0.00408159;0.185785;5.38256;0.005061;0.00544212;5.20655;0.192066;114.236;159.236;-0.00765454;-0.00126919;0.00507534;-0.00373093;0.00678253;0.00477591;0.0197679;0;0.0651104;-0.396616;-1.54514;-0.908823;1.83595;-6.4873;-0.000651964;0.000118061;0.00351704;0.00352038;-0.000655305;0.00208784;0.185373;5.39453;0.0025931;0.00278379;5.37212;0.186146;123.722;168.722;-0.00472892;-0.000659925;0.00424397;-0.00399071;0.00350807;0.00562905;0.026334;0;0.0216697;6.88554;1.48496
375000;376;24.2922;0.0980755;0.00405369;-2.28304;24.1705;-0.826961;-0.110637;0.0746304;-0.673258;-0.282491;-1.47569;-0.234197;1.52062;-5.64172;-0.000966874;0.000863578;0.00715707;0.00724785;-0.00105766;0.00415275;0.135094;7.40228;0.00522029;0.00553701;6.85274;0.145927;111.179;156.179;-0.00712202;-0.000972499;0.00522445;-0.00346213;0.00714389;0.00320709;0.0204549;0;0.066883;-0.39529;-1.54937;-0.911524;1.84056;-6.49;-0.000858956;0.000119931;0.00369834;0.00370149;-0.000862109;0.0022818;0.232255;4.30562;0.00279963;0.0030424;4.29353;0.232909;123.843;168.843;-0.00455551;-0.000866772;0.00421232;-0.00395388;0.0036895;0.00510966;0.0273583;0;0.022343;6.91499;1.49264
376000;377;24.2925;0.0983783;0.00406621;-2.28305;24.1708;-0.826809;-0.110646;0.074939;-0.673105;-0.282335;-1.47668;-0.24092;1.52261;-5.64844;-0.00099992;0.00103934;0.00709569;0.007227;-0.00113122;0.00417911;0.140919;7.09626;0.00523597;0.00557215;6.38865;0.156528;110.515;155.515;-0.00799115;-0.00100514;0.00550833;-0.00339375;0.00708116;0.00438523;0.0202892;0;0.0667608;-0.395356;-1.55163;-0.9186;1.84599;-6.49708;-0.00081734;1.27481e-05;0.00371158;0.00371161;-0.000817376;0.00226449;0.220214;4.54105;0.00278711;0.00301933;4.54089;0.220221;125.362;170.362;-0.00414572;-0.000826268;0.00426865;-0.00422395;0.0037025;0.00411121;0.0264024;0;0.0213141;6.93522;1.4989
377000;378;24.2945;0.100367;0.00414839;-2.28406;24.1728;-0.824687;-0.111658;0.0769143;-0.670983;-0.28119;-1.47987;-0.239351;1.52525;-5.64687;-0.00074665;0.00104105;0.00727681;0.00740969;-0.000879526;0.00414461;0.102607;9.74594;0.00525755;0.00552614;8.42463;0.1187;109.669;154.669;-0.00840446;-0.000752046;0.00556278;-0.00344469;0.00726199;0.0052957;0.0208656;0;0.0690459;-0.394369;-1.55566;-0.917968;1.84886;-6.49644;-0.000829202;-7.47947e-05;0.00399174;0.0039929;-0.000830362;0.00241163;0.20773;4.81395;0.00297757;0.00321551;4.80862;0.20796;125.665;170.665;-0.00521132;-0.000838612;0.00420801;-0.00433703;0.00398292;0.0070137;0.0275036;0;0.0220112;6.97622;1.50644
378000;379;24.2975;0.103419;0.00427457;-2.28423;24.176;-0.821431;-0.111826;0.0800774;-0.667727;-0.280271;-1.48235;-0.24339;1.52812;-5.65091;-0.000978411;0.000704539;0.00701994;0.00708153;-0.00104;0.00406076;0.139376;7.17484;0.00510313;0.00541435;6.80919;0.14686;112.882;157.882;-0.00807253;-0.000985174;0.00518778;-0.0037431;0.00700683;0.00490027;0.0206141;0;0.0672295;-0.393823;-1.56;-0.922374;1.85458;-6.50085;-0.000957213;-0.000265051;0.00438388;0.004397;-0.000970333;0.00268367;0.218348;4.57984;0.00330264;0.00357822;4.53143;0.220681;127.425;172.425;-0.00547312;-0.00096868;0.00428813;-0.00479401;0.00437476;0.00370779;0.0276861;0;0.0272451;7.00699;1.51333
379000;380;24.2975;0.103366;0.00427238;-2.28448;24.1756;-0.830279;-0.11208;0.0796979;-0.676575;-0.27832;-1.48526;-0.247237;1.5312;-5.65476;-0.00120971;0.000660557;0.00683258;0.00688647;-0.00126361;0.00407504;0.177051;5.6481;0.005065;0.00543339;5.44985;0.183491;114.258;159.258;-0.00759922;-0.00121681;0.00517932;-0.00382213;0.00681948;0.00189711;0.0227181;0;0.0638678;-0.392462;-1.56464;-0.927375;1.86068;-6.50585;-0.00108601;-0.000183948;0.00487076;0.00487644;-0.00109168;0.00298406;0.222965;4.48501;0.00366939;0.00397875;4.4669;0.223869;125.761;170.761;-0.00678197;-0.00109795;0.00454715;-0.00488699;0.00486049;0.00528906;0.0293886;0;0.0261583;7.02943;1.52083
380000;381;24.2988;0.104706;0.00432776;-2.28447;24.177;-0.828328;-0.112073;0.0811122;-0.674624;-0.278365;-1.48861;-0.246;1.53427;-5.65352;-0.0011132;0.000846478;0.00712422;0.00721031;-0.00119929;0.0042048;0.156256;6.39976;0.00525247;0.0056064;6.01216;0.166329;112.195;157.195;-0.00810776;-0.0011194;0.00534973;-0.00361996;0.00711037;0.00262314;0.0206554;0;0.0662972;-0.39285;-1.5698;-0.925635;1.86424;-6.50411;-0.000960565;-0.000121696;0.00500283;0.00500531;-0.000963048;0.00298418;0.192004;5.20821;0.00369991;0.00397891;5.19737;0.192405;123.067;168.067;-0.0063024;-0.000969563;0.004023;-0.00424179;0.00499478;0.00461713;0.0302932;0;0.0268093;7.06286;1.52532
381000;382;24.301;0.106852;0.00441643;-2.28391;24.1793;-0.826708;-0.111507;0.0833771;-0.673004;-0.27586;-1.49269;-0.245141;1.53763;-5.65266;-0.0013947;0.0003632;0.00664816;0.00666453;-0.00141107;0.0040378;0.209788;4.76672;0.00498046;0.00538373;4.72303;0.211729;118.356;163.356;-0.00901796;-0.00140508;0.00533266;-0.00456657;0.0066341;0.00702591;0.0245545;0;0.0677559;-0.390467;-1.57574;-0.925922;1.86889;-6.5044;-0.00117842;0.000129271;0.00492795;0.00493069;-0.00118116;0.00305592;0.23913;4.18182;0.00374348;0.00407457;4.17445;0.239552;122.326;167.326;-0.0063352;-0.00118776;0.00460761;-0.00432186;0.0049174;0.00608189;0.0322133;0;0.020614;7.09546;1.5347
382000;383;24.3031;0.108959;0.00450354;-2.28525;24.1812;-0.828533;-0.112849;0.085306;-0.674829;-0.275899;-1.49274;-0.253492;1.53904;-5.66101;-0.00164782;0.000229745;0.00715207;0.00715806;-0.00165381;0.00440594;0.230398;4.34032;0.00540827;0.00587459;4.32821;0.231042;119.027;164.027;-0.00864439;-0.00165913;0.00526179;-0.00475834;0.00713835;0.00640719;0.0225557;0;0.0677637;-0.391048;-1.57754;-0.934686;1.87488;-6.51316;-0.00102226;9.01596e-05;0.0046624;0.00466383;-0.00102369;0.00284376;0.219257;4.56087;0.0035007;0.00379168;4.55589;0.219496;122.888;167.888;-0.00602683;-0.0010317;0.00454908;-0.00434353;0.0046521;0.00639081;0.0301487;0;0.0197034;7.11686;1.5364
383000;384;24.304;0.109916;0.00454309;-2.28593;24.1819;-0.83308;-0.113526;0.0860476;-0.679376;-0.275579;-1.49685;-0.258208;1.54375;-5.66573;-0.00171016;0.00031816;0.00687002;0.0068818;-0.00172194;0.00430187;0.248931;4.01718;0.00525671;0.00573583;3.99653;0.250217;118.983;163.983;-0.00864137;-0.00172067;0.00526951;-0.00459101;0.00685628;0.00847144;0.0291841;0;0.0655295;-0.391536;-1.58297;-0.941361;1.88289;-6.51984;-0.000932684;0.000179768;0.00432117;0.00432731;-0.000938828;0.00263307;0.215841;4.63305;0.00324343;0.00351076;4.60927;0.216954;122.402;167.402;-0.00581099;-0.000941456;0.0045729;-0.00419038;0.00431078;0.00837397;0.0300283;0;0.0198586;7.18189;1.55109
384000;385;24.3055;0.111357;0.00460263;-2.28588;24.1834;-0.833697;-0.113476;0.0874788;-0.679993;-0.273837;-1.49985;-0.256457;1.54607;-5.66461;-0.00157078;0.000955781;0.00760308;0.0077016;-0.0016693;0.00468545;0.206598;4.84031;0.00577187;0.00624727;4.61366;0.216748;111.304;156.304;-0.011432;-0.00157565;0.00520989;-0.00325961;0.00759007;0.0145876;0.0277668;0;0.0659433;-0.389624;-1.58672;-0.940767;1.88534;-6.51924;-0.00101352;0.000326929;0.00440498;0.00442464;-0.00103317;0.0027289;0.230084;4.34624;0.00334772;0.00363854;4.28258;0.233504;120.667;165.667;-0.00500451;-0.00102121;0.00461108;-0.00393412;0.00439445;0.00872438;0.0307513;0;0.0205406;7.18613;1.55753
385000;386;24.3094;0.115264;0.00476415;-2.28775;24.1875;-0.823646;-0.115348;0.0915736;-0.669942;-0.273242;-1.49983;-0.262812;1.54701;-5.67033;-0.00166904;0.000101658;0.00710625;0.00710742;-0.00167021;0.00438882;0.234869;4.2577;0.00538211;0.00585176;4.2554;0.234996;120.073;165.073;-0.00867299;-0.00168113;0.00516217;-0.00491476;0.00709302;0.00910791;0.0279819;0;0.0626782;-0.389685;-1.58912;-0.944304;1.88915;-6.52278;-0.00097865;0.000366036;0.00430461;0.00432985;-0.00100389;0.00266687;0.227349;4.39852;0.00327292;0.00355582;4.31307;0.231853;120.576;165.576;-0.00515906;-0.000986575;0.00475133;-0.0039962;0.00429343;0.00840349;0.0286792;0;0.0206037;7.1936;1.55738
386000;387;24.3091;0.11498;0.00475241;-2.28834;24.1869;-0.830385;-0.11594;0.0910019;-0.676681;-0.27236;-1.50276;-0.262598;1.54965;-5.67012;-0.00176567;-0.000434682;0.0065954;0.00661794;-0.00178821;0.00420307;0.267712;3.73536;0.00511334;0.0056041;3.70088;0.270206;125.048;170.048;-0.00957386;-0.00178039;0.00461059;-0.00543803;0.00658494;0.00928543;0.0263536;0;0.0656807;-0.389625;-1.59196;-0.944538;1.89164;-6.52301;-0.00108705;0.000424357;0.00426262;0.00429607;-0.0011205;0.00270829;0.25502;3.92126;0.00330155;0.00361105;3.83405;0.260821;120.745;165.745;-0.00546638;-0.00109531;0.00495724;-0.00408439;0.00425047;0.00828908;0.0289469;0;0.0204187;7.21306;1.56444
387000;388;24.3124;0.118297;0.00488949;-2.28888;24.1903;-0.827175;-0.116481;0.0943939;-0.673471;-0.272064;-1.50581;-0.262264;1.55251;-5.66978;-0.00150226;3.27355e-05;0.00675678;0.00675691;-0.00150239;0.00412965;0.222334;4.49774;0.00508001;0.0055062;4.49744;0.222349;121.55;166.55;-0.0103028;-0.00151617;0.00537876;-0.00526943;0.00674241;0.00901121;0.0253142;0;0.0637392;-0.389556;-1.59724;-0.945131;1.89637;-6.52361;-0.00112572;0.000337744;0.00442161;0.0044421;-0.00114621;0.00279416;0.254596;3.9278;0.00340833;0.00372554;3.87547;0.258033;121.687;166.687;-0.00481202;-0.00113489;0.00499503;-0.00429382;0.00440925;0.00724233;0.0302298;0;0.0208336;7.25209;1.5717
388000;389;24.3131;0.118936;0.00491591;-2.28867;24.1908;-0.830594;-0.116266;0.0949396;-0.67689;-0.270283;-1.5089;-0.257431;1.55438;-5.66495;-0.00186515;-7.52583e-05;0.00600607;0.00600679;-0.00186587;0.00393633;0.310544;3.22016;0.00475025;0.00524844;3.2193;0.310627;124.57;169.57;-0.00865042;-0.00187887;0.00512482;-0.00523464;0.00599302;0.0103921;0.0324763;0;0.0671831;-0.388122;-1.60165;-0.939594;1.89704;-6.51807;-0.00131192;0.000419069;0.00443624;0.00446664;-0.00134231;0.00290447;0.295727;3.38149;0.00351177;0.00387263;3.32757;0.300519;120.929;165.929;-0.00456579;-0.00131956;0.00479266;-0.0039295;0.0044249;0.00642536;0.0305736;0;0.022774;7.27721;1.57934
389000;390;24.3158;0.121652;0.00502818;-2.28914;24.1937;-0.824632;-0.11674;0.0978286;-0.670928;-0.269361;-1.50976;-0.265304;1.55638;-5.67282;-0.00204353;-0.000136388;0.00654629;0.00654846;-0.0020457;0.00429708;0.312166;3.20342;0.00518388;0.00572944;3.20109;0.312393;124.084;169.084;-0.00922277;-0.00205758;0.005069;-0.00529735;0.00653354;0.0100517;0.028928;0;0.0649825;-0.387614;-1.60415;-0.948224;1.90333;-6.5267;-0.00129456;0.000349871;0.00469938;0.00471974;-0.00131491;0.00301733;0.275475;3.6301;0.0036643;0.0040231;3.58939;0.278599;121.302;166.302;-0.00484443;-0.0013032;0.00489469;-0.00416784;0.00468752;0.00584948;0.030561;0;0.0187692;7.30579;1.58632
390000;391;24.3188;0.124711;0.00515462;-2.28971;24.1967;-0.826612;-0.11731;0.100782;-0.672908;-0.270483;-1.51089;-0.2694;1.55837;-5.67692;-0.00179192;0.00024865;0.00682913;0.0068363;-0.00179909;0.00431769;0.262394;3.81106;0.00526079;0.00575692;3.79986;0.263167;120.443;165.443;-0.00867834;-0.0018043;0.00551994;-0.00497751;0.00681403;0.00831032;0.0301073;0;0.0679928;-0.389042;-1.6079;-0.953331;1.90933;-6.53181;-0.00129891;8.4529e-05;0.00494382;0.00494496;-0.00130005;0.00312251;0.262733;3.80614;0.00380476;0.00416334;3.80367;0.262904;123.634;168.634;-0.00556585;-0.00130969;0.00484024;-0.00464164;0.00493217;0.00664221;0.0290122;0;0.0249716;7.32975;1.59363
391000;392;24.3212;0.127107;0.00525363;-2.28966;24.1992;-0.822927;-0.117257;0.10332;-0.669223;-0.268861;-1.51612;-0.261557;1.56183;-5.66908;-0.00154386;0.0004501;0.00611418;0.00614055;-0.00157022;0.00385538;0.252504;3.96033;0.00470526;0.00514051;3.91062;0.255714;119.518;164.518;-0.00950349;-0.00155455;0.00558079;-0.00464155;0.0060988;0.00968803;0.0321029;0;0.0659527;-0.387491;-1.61513;-0.945617;1.91128;-6.52409;-0.00141718;0.000136967;0.00545045;0.00545318;-0.00141991;0.00343654;0.260011;3.84599;0.00418974;0.00458206;3.84052;0.260381;122.087;167.087;-0.00650595;-0.00142735;0.00481588;-0.00451;0.00543892;0.00619668;0.0324794;0;0.0196904;7.35084;1.59948
392000;393;24.3239;0.129803;0.00536507;-2.29013;24.2017;-0.829139;-0.117734;0.105773;-0.675435;-0.268376;-1.51793;-0.263529;1.56384;-5.67105;-0.0017654;7.44152e-05;0.00501934;0.00502016;-0.00176622;0.00339319;0.351719;2.84318;0.00406547;0.00452425;2.84232;0.351825;125.521;170.521;-0.00862824;-0.0017782;0.00523942;-0.00505573;0.00500569;0.00896345;0.0346998;0;0.0683975;-0.387899;-1.62073;-0.949945;1.91824;-6.52842;-0.00143646;7.09764e-05;0.00603687;0.00603754;-0.00143713;0.00373734;0.237947;4.20261;0.00457986;0.00498311;4.20111;0.238032;121.909;166.909;-0.00769581;-0.00144828;0.00503847;-0.00485962;0.00602425;0.00639763;0.031414;0;0.0192691;7.3805;1.60675
393000;394;24.3261;0.131969;0.00545461;-2.29052;24.2037;-0.832295;-0.118117;0.107805;-0.678591;-0.268056;-1.51874;-0.272398;1.56609;-5.67992;-0.00146729;0.000533676;0.00552823;0.00556871;-0.00150777;0.00353824;0.265418;3.76764;0.00430402;0.00471765;3.69334;0.270757;119.349;164.349;-0.00869364;-0.00147667;0.00546123;-0.00435961;0.00551354;0.0072549;0.033377;0;0.06486;-0.38818;-1.62583;-0.957108;1.92615;-6.53558;-0.00117553;0.00033906;0.00593514;0.00595127;-0.00119166;0.00357147;0.198062;5.04892;0.00441863;0.00476195;4.99411;0.200236;118.079;163.079;-0.00654102;-0.00118379;0.00478573;-0.00407618;0.00592382;0.00522853;0.0326884;0;0.0197667;7.39851;1.61169
394000;395;24.3282;0.134063;0.00554115;-2.29155;24.2056;-0.834603;-0.119145;0.109733;-0.680899;-0.266598;-1.52213;-0.269452;1.56862;-5.67697;-0.00170227;0.000417695;0.00492487;0.0049511;-0.00172849;0.00333979;0.345648;2.89312;0.00400328;0.00445306;2.8644;0.349113;122.372;167.372;-0.00883981;-0.00171255;0.00541836;-0.00455001;0.00491035;0.00806555;0.0339587;0;0.0660971;-0.387082;-1.63154;-0.955579;1.92999;-6.53405;-0.00132101;0.000543107;0.00581142;0.00585254;-0.00136213;0.00360733;0.227312;4.39923;0.00442616;0.00480978;4.29662;0.232741;116.526;161.526;-0.00604843;-0.00132749;0.00475554;-0.00363947;0.00580032;0.00527976;0.0315463;0;0.020771;7.42257;1.61607
395000;396;24.3331;0.138977;0.00574427;-2.29184;24.2106;-0.832141;-0.119435;0.114729;-0.678437;-0.266772;-1.52111;-0.275426;1.56869;-5.68295;-0.00142314;0.000460002;0.00515035;0.00518238;-0.00145518;0.00331878;0.27632;3.61899;0.00402856;0.00442504;3.56134;0.280793;120.592;165.592;-0.00983759;-0.00143299;0.00541037;-0.004458;0.00513589;0.00961328;0.0323435;0;0.0650874;-0.387745;-1.63403;-0.963737;1.93628;-6.54221;-0.00109294;0.000518609;0.00568163;0.0057211;-0.00113241;0.00342676;0.192364;5.19848;0.00424222;0.00456901;5.05214;0.197936;116.141;161.141;-0.00589986;-0.0010994;0.00469465;-0.00362931;0.00567081;0.00646286;0.0324272;0;0.0228869;7.44278;1.6236
396000;397;24.3364;0.14232;0.00588244;-2.29166;24.2139;-0.834396;-0.119262;0.118028;-0.680692;-0.265925;-1.52309;-0.273972;1.57022;-5.68149;-0.00137032;0.000507993;0.00431313;0.00435817;-0.00141536;0.00288677;0.317708;3.14754;0.00347469;0.00384903;3.07919;0.324761;121.539;166.539;-0.009285;-0.00137989;0.00544687;-0.00440295;0.00429848;0.00859602;0.0328726;0;0.0676563;-0.387433;-1.63938;-0.962126;1.93994;-6.5406;-0.00126427;0.000784467;0.00542183;0.00551264;-0.00135507;0.00343386;0.233181;4.28852;0.00420029;0.00457848;4.06815;0.245812;115.655;160.655;-0.00567216;-0.00127042;0.00518973;-0.00359152;0.00540875;0.00629123;0.0326755;0;0.0194076;7.46123;1.63062
397000;398;24.3391;0.144973;0.00599207;-2.29187;24.2166;-0.834926;-0.11947;0.120656;-0.681222;-0.266638;-1.52617;-0.271481;1.5729;-5.679;-0.00150574;0.000512788;0.00434653;0.00439112;-0.00155033;0.00297073;0.346423;2.88664;0.0035586;0.00396097;2.83238;0.35306;121.834;166.834;-0.0100517;-0.00151508;0.00540248;-0.00434842;0.00433213;0.00885216;0.0335291;0;0.068181;-0.388409;-1.64455;-0.961016;1.94395;-6.53949;-0.00126901;0.000655062;0.00532795;0.00539237;-0.00133343;0.0033629;0.23818;4.19851;0.0041121;0.00448387;4.04399;0.24728;116.694;161.694;-0.00499941;-0.00127542;0.00497552;-0.00363706;0.00531585;0.00444733;0.0314675;0;0.0233026;7.47914;1.638
398000;399;24.3433;0.14923;0.00616804;-2.2932;24.2209;-0.830577;-0.120802;0.124958;-0.676873;-0.266231;-1.52748;-0.276857;1.57503;-5.68438;-0.00113609;0.000960704;0.00443046;0.0045916;-0.00129723;0.00294441;0.256427;3.89975;0.00357286;0.00392589;3.53955;0.282522;115.838;160.838;-0.00902542;-0.00114276;0.00572247;-0.0037747;0.00441462;0.00641312;0.0325828;0;0.0661457;-0.388662;-1.64967;-0.965292;1.95045;-6.54377;-0.00131171;0.00065651;0.00548033;0.00554321;-0.00137458;0.0034589;0.239348;4.17802;0.0042288;0.00461186;4.03265;0.247976;116.991;161.991;-0.0052015;-0.00131877;0.00515688;-0.00381348;0.00546732;0.00703875;0.0308436;0;0.0189355;7.50008;1.64548
399000;400;24.3473;0.153189;0.00633164;-2.29438;24.2246;-0.83377;-0.12198;0.128715;-0.680066;-0.264334;-1.52772;-0.276874;1.57495;-5.68439;-0.00146037;0.00088551;0.00407608;0.00421426;-0.00159856;0.00290641;0.358279;2.79112;0.00346744;0.00387521;2.63629;0.379321;118.712;163.712;-0.00919848;-0.00146836;0.00588992;-0.00409133;0.00405919;0.00782035;0.0363912;0;0.066392;-0.388018;-1.6534;-0.965708;1.95368;-6.54418;-0.00138671;0.000600817;0.00555916;0.00561075;-0.0014383;0.00352453;0.249447;4.00887;0.00430086;0.00469937;3.90095;0.256348;117.345;162.345;-0.00495412;-0.00139372;0.00502047;-0.00378832;0.00554681;0.00573062;0.0312677;0;0.0227802;7.5144;1.65345
400000;401;24.3518;0.157718;0.00651887;-2.29534;24.2291;-0.834084;-0.122941;0.133166;-0.68038;-0.264636;-1.52599;-0.285022;1.57477;-5.69254;-0.00123725;0.00109942;0.00477181;0.00496665;-0.00143208;0.00319936;0.259283;3.85679;0.00387763;0.00426582;3.46813;0.28834;114.797;159.797;-0.00919919;-0.00124351;0.00592936;-0.00370167;0.00475492;0.00611571;0.0329791;0;0.0669339;-0.388743;-1.65631;-0.97485;1.96082;-6.55332;-0.0013547;0.000565389;0.00598276;0.00602607;-0.00139801;0.00371204;0.226433;4.41631;0.00455546;0.00494938;4.31047;0.231993;116.66;161.66;-0.00490553;-0.00136182;0.00497655;-0.00381361;0.00597061;0.00470042;0.0306034;0;0.0194562;7.52976;1.66064
401000;402;24.3569;0.16283;0.00673017;-2.29603;24.2343;-0.829389;-0.123629;0.1384;-0.675685;-0.264883;-1.53004;-0.283401;1.57845;-5.69155;-0.00121512;0.00170607;0.0049905;0.00542861;-0.00165323;0.00354092;0.243487;4.107;0.00427799;0.00472122;3.28364;0.30454;108.28;153.28;-0.0109617;-0.0012166;0.00586154;-0.00242378;0.00497486;0.0112549;0.036198;0;0.0712732;-0.389112;-1.66304;-0.975247;1.96678;-6.55372;-0.00144194;0.000439171;0.00663016;0.00665398;-0.00146576;0.00405987;0.217482;4.59809;0.00499676;0.00541316;4.53961;0.220283;117.573;162.573;-0.0062934;-0.0014512;0.00524089;-0.00432405;0.00661661;0.00679311;0.0322268;0;0.0219782;7.54335;1.66836
402000;403;24.3631;0.168975;0.00698412;-2.29704;24.2403;-0.830806;-0.124634;0.144432;-0.677103;-0.264961;-1.5285;-0.287794;1.57777;-5.69531;-0.0013451;0.000989802;0.00423346;0.00440387;-0.00151551;0.00295969;0.31773;3.14733;0.00355058;0.00394625;2.90587;0.344131;116.652;161.652;-0.00886389;-0.00135152;0.00572292;-0.00371704;0.00421764;0.00428231;0.0327206;0;0.0680069;-0.39021;-1.66874;-0.979999;1.97418;-6.55847;-0.00141726;0.000182471;0.00737368;0.00737747;-0.00142105;0.00439926;0.192206;5.20275;0.00545406;0.00586568;5.19156;0.19262;117.841;162.841;-0.0071964;-0.00142787;0.0050132;-0.00460611;0.00736122;0.00653459;0.0325234;0;0.0217607;7.56021;1.67528
403000;404;24.3674;0.17333;0.00716414;-2.29607;24.2446;-0.835146;-0.123672;0.148751;-0.681442;-0.264807;-1.53224;-0.27717;1.57946;-5.68532;-0.00146017;0.00177481;0.00424677;0.00475369;-0.00196709;0.00336039;0.34383;2.90841;0.00398988;0.00448052;2.41661;0.413802;109.666;154.666;-0.0102113;-0.00146133;0.00591323;-0.00234013;0.00423093;0.00816146;0.0346233;0;0.0726938;-0.39042;-1.67801;-0.97201;1.97812;-6.55048;-0.00163766;0.000203597;0.00785372;0.00785808;-0.00164203;0.00475005;0.20852;4.79569;0.00586321;0.00633341;4.7856;0.20896;117.212;162.212;-0.00706682;-0.0016481;0.00502284;-0.00457026;0.00784122;0.0055469;0.0348844;0;0.0185735;7.57138;1.68122
404000;405;24.3709;0.176749;0.00730545;-2.29719;24.2479;-0.83851;-0.124789;0.151965;-0.684806;-0.262834;-1.52962;-0.28938;1.57878;-5.6969;-0.00162502;0.000835347;0.00324291;0.00338227;-0.00176438;0.00257332;0.501098;1.99562;0.00301996;0.0034311;1.91698;0.521654;120.851;165.851;-0.00972313;-0.00163326;0.00583722;-0.00414228;0.00322628;0.00675113;0.0354194;0;0.0698336;-0.389035;-1.68093;-0.985083;1.98677;-6.56356;-0.00151075;0.000479862;0.00772307;0.00774794;-0.00153562;0.00464178;0.195615;5.11207;0.00574598;0.00618904;5.04548;0.198197;114.259;159.259;-0.00653347;-0.00151815;0.0048739;-0.00387392;0.0077114;0.00446267;0.0336401;0;0.0193826;7.58373;1.68522
405000;406;24.3777;0.183546;0.0075864;-2.30025;24.2544;-0.83917;-0.127852;0.158484;-0.685466;-0.262075;-1.53024;-0.289916;1.57936;-5.69744;-0.00151834;0.00118622;0.00364715;0.00390653;-0.00177772;0.00284213;0.416308;2.40207;0.00335764;0.0037895;2.1975;0.455064;116.537;161.537;-0.009715;-0.00152472;0.00616;-0.00376199;0.00362895;0.00690665;0.0357061;0;0.0659883;-0.391781;-1.68795;-0.984399;1.99292;-6.56287;-0.00141014;0.000797177;0.00742203;0.0074934;-0.00148152;0.00448746;0.189994;5.26332;0.00555568;0.00598328;5.05792;0.19771;111.2;156.2;-0.00583456;-0.00141477;0.00477296;-0.00314376;0.00741104;0.00397813;0.0345633;0;0.0365899;7.59579;1.69007
406000;407;24.3842;0.19007;0.00785605;-2.29985;24.2611;-0.835085;-0.127449;0.16522;-0.681381;-0.262148;-1.53363;-0.276825;1.58031;-5.68498;-0.0010985;0.00201624;0.00410609;0.00479577;-0.00178819;0.00329198;0.26753;3.73789;0.00393123;0.00438931;2.68192;0.372868;106.391;151.391;-0.0117577;-0.00109903;0.00631822;-0.00226348;0.00408823;0.0102314;0.0355891;0;0.0678473;-0.391144;-1.69656;-0.970238;1.99315;-6.54871;-0.0018569;0.000861296;0.0072363;0.00731716;-0.00193776;0.00462746;0.256609;3.89698;0.00563618;0.00616995;3.77609;0.264824;113.057;158.057;-0.00520695;-0.00186185;0.00502099;-0.00326086;0.00722415;0.00454779;0.0335671;0;0.0206834;7.60755;1.69768
407000;408;24.392;0.197875;0.00817863;-2.30037;24.2686;-0.843405;-0.127969;0.172727;-0.689701;-0.261104;-1.52819;-0.287439;1.57676;-5.69496;-0.00137863;0.00105855;0.00320725;0.0034398;-0.00161118;0.00252549;0.429849;2.3264;0.00297921;0.00336732;2.13495;0.468394;117.525;162.525;-0.00981719;-0.00138651;0.00624697;-0.00410618;0.00318836;0.00776022;0.0361322;0;0.0708038;-0.39072;-1.69797;-0.986156;2.00207;-6.56463;-0.00157969;0.000993485;0.00668891;0.0068066;-0.00169738;0.00425199;0.236166;4.23431;0.00519676;0.00566932;4.01005;0.249373;111.404;156.404;-0.00532362;-0.00158325;0.00486377;-0.00284502;0.00667765;0.003359;0.0326907;0;0.021066;7.61436;1.70427
408000;409;24.397;0.202886;0.00838575;-2.30287;24.2734;-0.844684;-0.130472;0.177482;-0.69098;-0.260232;-1.53429;-0.280958;1.58136;-5.68911;-0.00118945;0.00209692;0.00370563;0.00448105;-0.00196488;0.00322297;0.320985;3.11541;0.0038149;0.00429729;2.28058;0.438486;106.578;151.578;-0.0114728;-0.00118977;0.00646032;-0.00224524;0.00368703;0.0106321;0.0368243;0;0.0740467;-0.391344;-1.70729;-0.983339;2.00872;-6.56181;-0.0017578;0.000889555;0.00651388;0.00660847;-0.00185238;0.00423042;0.269854;3.70571;0.00513569;0.00564056;3.56756;0.280304;112.883;157.883;-0.00492591;-0.00176163;0.00471758;-0.00290702;0.00650322;0.00530412;0.0349996;0;0.0214758;7.6282;1.71184
409000;410;24.4048;0.210717;0.00870941;-2.30313;24.2813;-0.842444;-0.130726;0.185406;-0.68874;-0.259755;-1.5306;-0.286858;1.57877;-5.69438;-0.00177026;0.000846631;0.00299124;0.0031373;-0.00191632;0.00252681;0.591814;1.68972;0.00294596;0.00336908;1.63715;0.610817;121.627;166.627;-0.00880412;-0.0017783;0.00581183;-0.00409501;0.00297476;0.00695203;0.0364377;0;0.0667471;-0.390973;-1.71192;-0.985871;2.01382;-6.56435;-0.00174754;0.000876309;0.00662962;0.00672031;-0.00183822;0.00427927;0.263595;3.79369;0.00520235;0.00570569;3.65587;0.273533;112.537;157.537;-0.00475325;-0.00175128;0.0046551;-0.00287105;0.00661924;0.00139264;0.0340035;0;0.0211113;7.63236;1.71936
410000;411;24.4136;0.219478;0.00907156;-2.30481;24.2902;-0.836384;-0.132408;0.194263;-0.68268;-0.259208;-1.5306;-0.285506;1.57843;-5.69303;-0.00162043;0.0012675;0.00317981;0.00349394;-0.00193456;0.00271425;0.509601;1.96232;0.00317696;0.003619;1.80606;0.553691;116.595;161.595;-0.00954273;-0.00162664;0.0063015;-0.00374243;0.00316082;0.00679163;0.03572;0;0.0705299;-0.391438;-1.71956;-0.983583;2.01929;-6.56206;-0.0018831;0.000907834;0.00657369;0.00667005;-0.00197946;0.00432475;0.286461;3.49088;0.00523284;0.00576634;3.36963;0.296769;113.31;158.31;-0.00591505;-0.00188708;0.00480873;-0.0029603;0.00656261;0.00469811;0.0323308;0;0.0231662;7.64334;1.72684
411000;412;24.4227;0.228634;0.00944998;-2.3059;24.2992;-0.83919;-0.1335;0.203264;-0.685486;-0.26064;-1.52834;-0.290597;1.57741;-5.69812;-0.00160766;0.00106863;0.00292785;0.00316703;-0.00184683;0.00250693;0.54909;1.82119;0.00292801;0.00334257;1.71485;0.583143;118.515;163.515;-0.00846965;-0.00161459;0.00603045;-0.00387077;0.00291029;0.0058252;0.0374218;0;0.0695177;-0.393401;-1.72532;-0.991376;2.02838;-6.56985;-0.00197385;0.000705589;0.00719818;0.00725215;-0.00202781;0.00463998;0.274215;3.64678;0.00563369;0.00618664;3.57634;0.279615;114.065;159.065;-0.00707213;-0.00197906;0.00475026;-0.00330226;0.00718723;0.00638179;0.0342029;0;0.0302736;7.64887;1.73356
412000;413;24.4293;0.235144;0.00971907;-2.3057;24.3056;-0.843579;-0.1333;0.209675;-0.689875;-0.259689;-1.52781;-0.287619;1.57619;-5.69514;-0.00140873;0.00139356;0.00318997;0.00357931;-0.00179806;0.00268869;0.441612;2.26443;0.00316089;0.00358491;1.99065;0.50235;113.959;158.959;-0.00946838;-0.0014132;0.00610679;-0.00329809;0.00317235;0.00817052;0.0378817;0;0.0667834;-0.39324;-1.73275;-0.992548;2.03524;-6.57102;-0.00199734;0.000740859;0.00752212;0.00757943;-0.00205465;0.00481704;0.265528;3.76608;0.00585918;0.00642272;3.68892;0.271082;112.774;157.774;-0.00637072;-0.00200194;0.00463825;-0.00311972;0.00751171;0.00306698;0.0353138;0;0.0276915;7.66161;1.74073
413000;414;24.4372;0.243054;0.010046;-2.30745;24.3133;-0.846184;-0.13505;0.217368;-0.69248;-0.259498;-1.52805;-0.286563;1.57619;-5.69471;-0.00158879;0.00230883;0.00399248;0.00482377;-0.00242008;0.00362193;0.397945;2.51291;0.0042583;0.00482924;1.99323;0.501699;106.804;151.804;-0.0114292;-0.00158756;0.00633506;-0.00169505;0.00397515;0.0120721;0.038066;0;0.0674612;-0.3943;-1.74084;-0.990474;2.04134;-6.56895;-0.00203983;0.00107778;0.00762529;0.00774401;-0.00215856;0.00495128;0.267509;3.7382;0.00601276;0.00660171;3.58759;0.278739;111.241;156.241;-0.00615474;-0.00204353;0.00511626;-0.00292199;0.00761287;0.00389365;0.0356892;0;0.0233456;7.66545;1.74767
414000;415;24.4441;0.250009;0.0103334;-2.30771;24.32;-0.851495;-0.135311;0.224148;-0.697791;-0.258643;-1.52692;-0.288461;1.5753;-5.69598;-0.00160793;0.00139684;0.00378523;0.00412554;-0.00194825;0.00303689;0.424792;2.35409;0.00358102;0.00404919;2.11757;0.47224;114.907;159.907;-0.0101714;-0.00161288;0.0062575;-0.00343773;0.00376669;0.00887374;0.0369185;0;0.0670762;-0.394015;-1.74815;-0.993545;2.049;-6.57202;-0.00208572;0.00112562;0.00697659;0.00711431;-0.00222344;0.00466888;0.29896;3.34493;0.00563226;0.00622517;3.19969;0.312531;111.518;156.518;-0.00576855;-0.00208858;0.00492677;-0.00264133;0.00696517;0.00303133;0.0348289;0;0.0203608;7.66983;1.75381
415000;416;24.4504;0.256306;0.0105937;-2.30819;24.3262;-0.855602;-0.135788;0.230288;-0.701898;-0.258236;-1.52543;-0.293003;1.57463;-5.70052;-0.00169503;0.00158569;0.00342228;0.0038738;-0.00214655;0.00301017;0.495293;2.01901;0.00352321;0.00401356;1.80466;0.55412;113.676;158.676;-0.00989855;-0.00169817;0.0061568;-0.00296214;0.00340464;0.0105581;0.0362525;0;0.0660767;-0.39445;-1.75233;-1.00162;2.05658;-6.5801;-0.0020839;0.0011945;0.00669921;0.00685876;-0.00224346;0.00455111;0.311067;3.21474;0.00547572;0.00606814;3.05723;0.327093;111.518;156.518;-0.00520256;-0.00208642;0.00496029;-0.00253845;0.00668769;0.00363698;0.0344705;0;0.0236972;7.67709;1.75734
416000;417;24.458;0.263852;0.0109056;-2.30899;24.3337;-0.854106;-0.136588;0.237849;-0.700402;-0.257786;-1.52413;-0.297416;1.57413;-5.70494;-0.00165254;0.00144267;0.00435192;0.00468056;-0.00198118;0.00333087;0.379727;2.63347;0.00395001;0.00444116;2.36251;0.423278;113.968;158.968;-0.0088484;-0.00165654;0.00608548;-0.00317242;0.00433452;0.00831219;0.03682;0;0.0711988;-0.394716;-1.75914;-1.00127;2.06226;-6.57974;-0.00216473;0.00111154;0.00661088;0.00674948;-0.00230333;0.00452641;0.32745;3.0539;0.0054327;0.00603521;2.93031;0.341261;112.626;157.626;-0.00502943;-0.00216766;0.00491781;-0.00266156;0.00659948;0.00187235;0.0341496;0;0.0278759;7.68568;1.76481
417000;418;24.4659;0.271817;0.0112348;-2.31046;24.3417;-0.851892;-0.138063;0.245793;-0.698188;-0.257857;-1.52433;-0.291138;1.57316;-5.69866;-0.00173298;0.00147635;0.00417083;0.00451944;-0.00208159;0.00330051;0.415501;2.40673;0.00389677;0.00440068;2.17115;0.460586;114.025;159.025;-0.00937093;-0.00173635;0.00596282;-0.00298377;0.00415421;0.010138;0.0374847;0;0.0705711;-0.395522;-1.76571;-1.00135;2.06806;-6.57983;-0.00233363;0.0010592;0.00661346;0.00673715;-0.00245732;0.00459723;0.352861;2.83398;0.00549678;0.00612964;2.74167;0.364741;114.1;159.1;-0.00526795;-0.00233726;0.00504432;-0.00289051;0.00660138;0.00306827;0.0331002;0;0.0232949;7.6875;1.77051
418000;419;24.4718;0.277688;0.0114775;-2.31134;24.3472;-0.861015;-0.13894;0.25129;-0.707311;-0.257777;-1.52266;-0.289365;1.5712;-5.69689;-0.00193804;0.0015366;0.00405563;0.0044266;-0.00230902;0.00336781;0.477865;2.09264;0.00395236;0.00449042;1.91709;0.521624;114.712;159.712;-0.00938664;-0.00194116;0.00603053;-0.00293052;0.00403869;0.00903654;0.037417;0;0.0663384;-0.396468;-1.77203;-0.99943;2.07272;-6.5779;-0.00229212;0.00100531;0.00699769;0.00710523;-0.00239967;0.00475245;0.327555;3.05293;0.00570742;0.0063366;2.96092;0.337733;114.216;159.216;-0.00592136;-0.0022967;0.00523352;-0.00318392;0.00698459;0.00377776;0.0329206;0;0.0222452;7.69151;1.77793
419000;420;24.4817;0.287554;0.0118853;-2.3124;24.3572;-0.855096;-0.139998;0.261314;-0.701392;-0.257415;-1.52108;-0.292179;1.57013;-5.6997;-0.00172225;0.00188573;0.00498019;0.00547431;-0.00221637;0.00384534;0.345821;2.89167;0.00457109;0.00512712;2.46994;0.404869;110.059;155.059;-0.00876084;-0.00172357;0.00628617;-0.0024854;0.0049623;0.00780014;0.0383931;0;0.0663671;-0.396371;-1.77966;-1.00205;2.08048;-6.58053;-0.00246908;0.000655968;0.00773433;0.00777633;-0.00251108;0.0051437;0.319237;3.13247;0.00619332;0.00685827;3.09681;0.322913;115.567;160.567;-0.0074072;-0.0024755;0.00499373;-0.00363788;0.00772217;0.00506656;0.0326862;0;0.0249507;7.70176;1.78552
420000;421;24.4889;0.29475;0.0121827;-2.31256;24.364;-0.868074;-0.140155;0.268073;-0.71437;-0.256633;-1.51999;-0.29116;1.56876;-5.69868;-0.00163403;0.00209219;0.00443935;0.00509031;-0.00228499;0.00368765;0.368079;2.71681;0.0043596;0.00491686;2.22771;0.448891;109.036;154.036;-0.00926018;-0.00163477;0.00663118;-0.00241939;0.00441964;0.00895716;0.0379065;0;0.0688604;-0.396277;-1.78814;-1.00668;2.08995;-6.58515;-0.00250532;0.00081806;0.00891077;0.00896909;-0.00256364;0.00576637;0.281156;3.55674;0.00699239;0.00768849;3.49858;0.28583;111.822;156.822;-0.00727224;-0.00251028;0.00493498;-0.00325229;0.00889903;0.00481576;0.035382;0;0.0283062;7.70496;1.79226
421000;422;24.4962;0.302042;0.0124841;-2.3126;24.3713;-0.867595;-0.140199;0.275415;-0.713891;-0.257075;-1.51935;-0.291129;1.56821;-5.69865;-0.00196128;0.00193838;0.00523583;0.00572469;-0.00245014;0.00408742;0.374589;2.6696;0.00484431;0.00544989;2.33648;0.427995;110.406;155.406;-0.00900942;-0.00196222;0.00627762;-0.00236982;0.0052181;0.00877328;0.037495;0;0.0653877;-0.397963;-1.79494;-1.00728;2.09638;-6.58576;-0.00260478;0.00107113;0.00935532;0.00945049;-0.00269995;0.00607522;0.278428;3.5916;0.00736712;0.0081003;3.50025;0.285694;109.511;154.511;-0.00687843;-0.00260823;0.00502384;-0.00283476;0.00934339;0.0038957;0.0365875;0;0.0250652;7.70894;1.79943
422000;423;24.5057;0.311602;0.0128793;-2.31434;24.3809;-0.863062;-0.141935;0.285021;-0.709358;-0.256316;-1.51836;-0.289954;1.56691;-5.69747;-0.00201405;0.00185851;0.00545901;0.00589569;-0.00245073;0.00417321;0.368941;2.71046;0.00495374;0.00556428;2.40568;0.415682;111.35;156.35;-0.00963208;-0.00201592;0.00643206;-0.00268109;0.00544015;0.00983519;0.0378449;0;0.071463;-0.398018;-1.80204;-1.00527;2.10151;-6.58374;-0.00278141;0.00113839;0.00918974;0.00929703;-0.0028887;0.00609287;0.302665;3.30398;0.00735257;0.00812382;3.21841;0.310713;110.651;155.651;-0.00720429;-0.00278519;0.00529875;-0.00297263;0.00917647;0.00298398;0.0378708;0;0.0219738;7.71323;1.80643
423000;424;24.5102;0.316072;0.013064;-2.31547;24.385;-0.872804;-0.143065;0.28906;-0.7191;-0.257064;-1.51788;-0.293066;1.56714;-5.70059;-0.00222424;0.00216131;0.00599818;0.00653168;-0.00275774;0.00464471;0.370819;2.69673;0.00550881;0.00619295;2.36849;0.42221;109.644;154.644;-0.00870327;-0.00222456;0.00666136;-0.002302;0.00597845;0.00962446;0.038707;0;0.0639262;-0.399757;-1.80887;-1.00906;2.10951;-6.58754;-0.00273788;0.0010684;0.00859073;0.00869061;-0.00283776;0.00576419;0.318702;3.13773;0.00693594;0.00768558;3.06249;0.326532;111.699;156.699;-0.0065685;-0.00274174;0.00515415;-0.00297147;0.00857812;0.00371703;0.0358364;0;0.0255505;7.72426;1.81439
424000;425;24.5175;0.323396;0.0133667;-2.31692;24.3922;-0.87249;-0.144515;0.296295;-0.718787;-0.255488;-1.5171;-0.289831;1.56553;-5.69735;-0.00185095;0.00214929;0.00609683;0.00664082;-0.00239494;0.00451788;0.303593;3.29389;0.00540538;0.00602385;2.77285;0.36064;108.133;153.133;-0.00914314;-0.0018514;0.00668389;-0.00234954;0.00607693;0.0108032;0.0383843;0;0.0652579;-0.398716;-1.81557;-1.00856;2.11482;-6.58704;-0.00272024;0.00119848;0.00840452;0.00853217;-0.00284789;0.00569003;0.323663;3.08963;0.00683803;0.0075867;2.99597;0.333782;111.404;156.404;-0.00620484;-0.00272361;0.00529844;-0.00285626;0.00839131;0.00306563;0.0341331;0;0.0238071;7.72737;1.82134
425000;426;24.5273;0.333217;0.0137726;-2.31679;24.4022;-0.868987;-0.14439;0.306303;-0.715283;-0.256387;-1.51368;-0.297886;1.56388;-5.70541;-0.00205055;0.00180781;0.00643593;0.00680499;-0.00241961;0.0046123;0.31861;3.13863;0.00552279;0.00614973;2.81243;0.355564;110.349;155.349;-0.00889856;-0.00205245;0.0063081;-0.00265456;0.00641779;0.0118148;0.0388811;0;0.0668532;-0.400342;-1.82053;-1.01656;2.12321;-6.59504;-0.00287147;0.0011047;0.00851996;0.0086261;-0.00297761;0.00580185;0.337028;2.96711;0.00695896;0.00773581;2.89699;0.345186;111.874;156.874;-0.00510854;-0.00287503;0.00514252;-0.00288752;0.00850745;0.00239603;0.0345378;0;0.0227089;7.72845;1.82697
426000;427;24.5348;0.34071;0.0140823;-2.3183;24.4096;-0.86877;-0.145902;0.313698;-0.715066;-0.256537;-1.5109;-0.299887;1.56159;-5.70741;-0.00211842;0.00181041;0.0073726;0.00770621;-0.00245203;0.00507912;0.287337;3.48024;0.00612078;0.00677216;3.14279;0.318188;109.544;154.544;-0.00893589;-0.00212055;0.00640682;-0.00274274;0.00735385;0.011548;0.0380174;0;0.068175;-0.401499;-1.82537;-1.02041;2.12942;-6.59888;-0.00316676;0.000937788;0.00905499;0.00912653;-0.0032383;0.00618242;0.349726;2.85938;0.00740374;0.00824322;2.81831;0.354823;112.98;157.98;-0.00662204;-0.00317151;0.00514344;-0.00321694;0.00904232;0.0036675;0.034791;0;0.0236892;7.73136;1.83162
427000;428;24.5416;0.34751;0.0143634;-2.31954;24.4162;-0.871561;-0.147143;0.320316;-0.717857;-0.256802;-1.51077;-0.298391;1.56122;-5.70591;-0.00227832;0.00226821;0.0074711;0.00797297;-0.00278019;0.00537658;0.304951;3.27922;0.00644512;0.00716877;2.86778;0.348701;106.582;151.582;-0.00939937;-0.00227757;0.00648767;-0.00191045;0.00745277;0.0128114;0.0396072;0;0.0649938;-0.40259;-1.83275;-1.02005;2.13578;-6.59853;-0.00330088;0.000711138;0.00969665;0.00973544;-0.00333967;0.00653756;0.340415;2.93759;0.00784419;0.00871675;2.91509;0.343043;114.275;159.275;-0.00749551;-0.00330795;0.00530227;-0.00382091;0.00968298;0.00554096;0.0347049;0;0.0246368;7.73839;1.83716
428000;429;24.5478;0.35365;0.0146172;-2.32077;24.4222;-0.872943;-0.148372;0.326321;-0.71924;-0.256301;-1.50945;-0.302721;1.5607;-5.71024;-0.00170308;0.0020837;0.00815734;0.00857959;-0.00212532;0.00535246;0.208778;4.78977;0.00654423;0.00713661;4.03684;0.247718;105.355;150.355;-0.00861849;-0.00170356;0.00651325;-0.00230255;0.00813846;0.0105214;0.0368244;0;0.068917;-0.402742;-1.84138;-1.02492;2.14554;-6.60339;-0.0033154;0.000764026;0.0108994;0.0109404;-0.00335635;0.00714836;0.304181;3.28752;0.00863267;0.00953115;3.25961;0.306785;111.752;156.752;-0.00761652;-0.00332196;0.00528649;-0.00369486;0.0108859;0.00477258;0.036148;0;0.024725;7.7494;1.84426
429000;430;24.5549;0.360747;0.0149105;-2.32072;24.4291;-0.879871;-0.148317;0.333212;-0.726167;-0.256695;-1.50875;-0.301189;1.55979;-5.70871;-0.0017763;0.002274;0.00882224;0.00928954;-0.0022436;0.00576657;0.201343;4.96664;0.00706073;0.00768876;4.14046;0.241519;103.375;148.375;-0.00786067;-0.00177557;0.00651627;-0.00192375;0.00880376;0.00542881;0.036486;0;0.0646928;-0.403787;-1.84924;-1.02396;2.15203;-6.60243;-0.00339515;0.000954577;0.0115271;0.0115879;-0.00345597;0.00752193;0.294538;3.39515;0.00909872;0.0100292;3.353;0.29824;109.567;154.567;-0.00770519;-0.00340021;0.00528687;-0.00331383;0.0115137;0.00460405;0.0361212;0;0.02484;7.75082;1.85055
430000;431;24.561;0.366874;0.0151638;-2.32211;24.4352;-0.879238;-0.149707;0.339261;-0.725534;-0.256359;-1.50943;-0.296658;1.55952;-5.70453;-0.00199154;0.00278954;0.00859504;0.0092851;-0.0026816;0.00598335;0.231708;4.31577;0.00725114;0.0079778;3.46252;0.288807;100.879;145.879;-0.00736933;-0.00198823;0.00670402;-0.0010839;0.00857662;0.00418714;0.0352085;0;0.0674997;-0.40419;-1.85645;-1.02224;2.15749;-6.60072;-0.00346484;0.00119452;0.0114225;0.0115177;-0.00356007;0.00753891;0.303334;3.29669;0.00910034;0.0100519;3.23525;0.309095;108.612;153.612;-0.00708804;-0.00346855;0.00542094;-0.00296972;0.0114087;0.00418527;0.0389465;0;0.0259194;7.75139;1.85814
431000;432;24.5668;0.372727;0.0154057;-2.32265;24.4409;-0.882916;-0.150253;0.34496;-0.729212;-0.25592;-1.50658;-0.301282;1.55757;-5.70915;-0.00218118;0.00317178;0.0091691;0.00999529;-0.00300737;0.00650133;0.237883;4.20374;0.00786016;0.00866844;3.3236;0.300879;99.1798;144.18;-0.00811647;-0.00217635;0.00703589;-0.000648919;0.00914955;0.0078376;0.0351855;0;0.0713933;-0.40466;-1.86105;-1.02872;2.16461;-6.60719;-0.00370879;0.00124932;0.0108595;0.0109658;-0.00381515;0.0073905;0.341525;2.92804;0.00886043;0.00985399;2.87429;0.347912;109.447;154.447;-0.00720269;-0.00371195;0.00536195;-0.00280406;0.010846;0.00477675;0.0371;0;0.0268046;7.75958;1.86569
432000;433;24.5713;0.3772;0.0155905;-2.32399;24.4452;-0.884712;-0.151586;0.349263;-0.731008;-0.255468;-1.5061;-0.299785;1.55675;-5.70765;-0.00219208;0.00274967;0.0100395;0.0106292;-0.00278177;0.0067055;0.218344;4.57992;0.00817277;0.00894067;3.82103;0.26171;100.651;145.651;-0.00744186;-0.00218906;0.0067922;-0.00124396;0.0100204;0.00333468;0.0360937;0;0.0697954;-0.404751;-1.86787;-1.02803;2.17016;-6.60651;-0.00376477;0.00129911;0.0107443;0.0108597;-0.00388017;0.00736993;0.350397;2.85391;0.00882234;0.00982657;2.79877;0.3573;109.763;154.763;-0.00691456;-0.00376788;0.00546539;-0.00280739;0.0107303;0.00333958;0.0395692;0;0.0298861;7.7655;1.8736
433000;434;24.5789;0.384748;0.0159026;-2.32479;24.4527;-0.883398;-0.152391;0.356822;-0.729694;-0.255264;-1.50443;-0.301952;1.55552;-5.70982;-0.0024143;0.0028492;0.0101964;0.0108103;-0.00302816;0.00691921;0.23678;4.22333;0.00840017;0.00922561;3.56991;0.280119;99.9527;144.953;-0.00902054;-0.00241067;0.00668169;-0.00093548;0.0101783;0.00983034;0.0346919;0;0.0710621;-0.404871;-1.87385;-1.03166;2.17705;-6.61014;-0.00380644;0.0011163;0.0107221;0.0108074;-0.00389171;0.00734954;0.355009;2.81683;0.00879403;0.00979938;2.77702;0.360098;110.164;155.164;-0.00546265;-0.00380993;0.00515516;-0.00286451;0.0107096;0.00114215;0.0352372;0;0.0255038;7.76882;1.88111
434000;435;24.5865;0.392429;0.01622;-2.32556;24.4603;-0.885122;-0.153154;0.364407;-0.731418;-0.254477;-1.50473;-0.299572;1.55522;-5.70514;-0.00225616;0.00307182;0.0102003;0.0109167;-0.00297249;0.00694458;0.221185;4.5211;0.00844483;0.00925944;3.67256;0.272289;98.0668;143.067;-0.00858088;-0.00225159;0.00674016;-0.000551331;0.0101825;0.00579093;0.0345248;0;0.0747075;-0.404936;-1.88091;-1.03086;2.18276;-6.60933;-0.00373439;0.00113734;0.0110362;0.0111233;-0.00382145;0.00747236;0.338376;2.95529;0.00896506;0.00996315;2.91075;0.343555;110.373;155.373;-0.00646092;-0.00373866;0.00547028;-0.00313232;0.011022;0.00441444;0.0354184;0;0.0272156;7.77431;1.88844
435000;436;24.5953;0.401227;0.0165837;-2.32744;24.469;-0.882899;-0.15504;0.373152;-0.729196;-0.254813;-1.50407;-0.300239;1.55477;-5.70581;-0.0022466;0.00324059;0.0102233;0.0110152;-0.00303846;0.00702682;0.219752;4.55058;0.00853843;0.00936909;3.62526;0.275843;97.0164;142.016;-0.00850473;-0.00224138;0.00681029;-0.000285081;0.0102056;0.00860728;0.0362646;0;0.0796835;-0.405984;-1.88923;-1.03282;2.19106;-6.61129;-0.00382874;0.000740045;0.0121315;0.0121657;-0.00386298;0.00801435;0.315603;3.16854;0.00965915;0.0106858;3.14931;0.317529;110.715;155.715;-0.00717758;-0.0038352;0.00521372;-0.0036631;0.0121183;0.00359176;0.0343154;0;0.0299265;7.78553;1.89582
436000;437;24.6036;0.409525;0.0169266;-2.32734;24.4774;-0.882878;-0.154938;0.381503;-0.729174;-0.254922;-1.50083;-0.301883;1.55197;-5.70975;-0.00257447;0.00383043;0.010826;0.0118436;-0.00359209;0.00771784;0.237805;4.20513;0.0093266;0.0102905;3.29713;0.303294;95.921;140.921;-0.00907808;-0.00256712;0.00753886;0.000171114;0.0108051;0.00810674;0.0346028;0;0.0749103;-0.407529;-1.8963;-1.03622;2.19904;-6.6147;-0.00401957;0.000815699;0.0132968;0.0133352;-0.00405791;0.00869653;0.302295;3.30802;0.0105073;0.0115954;3.28622;0.304301;109.934;154.934;-0.007702;-0.0040267;0.00556839;-0.00385579;0.0132818;0.00360722;0.037626;0;0.0289523;7.78619;1.90249
437000;438;24.6125;0.418405;0.0172937;-2.32809;24.4861;-0.886114;-0.155689;0.390241;-0.73241;-0.255131;-1.49988;-0.302713;1.55125;-5.71058;-0.00251866;0.00378088;0.0120937;0.013014;-0.00343899;0.00822651;0.208262;4.80164;0.010021;0.0109687;3.78427;0.264252;94.5308;139.531;-0.00760684;-0.00251153;0.00736084;0.000252557;0.012074;0.00393278;0.0346298;0;0.0767934;-0.408423;-1.90387;-1.03817;2.20666;-6.61664;-0.00404292;0.000958684;0.0138101;0.0138614;-0.00409425;0.00897784;0.292751;3.41587;0.0108659;0.0119705;3.38558;0.29537;108.644;153.644;-0.00786596;-0.00404916;0.00565377;-0.00365374;0.0137948;0.00364782;0.0377955;0;0.0263934;7.78878;1.90761
438000;439;24.6217;0.427606;0.017674;-2.32802;24.4954;-0.885264;-0.155621;0.399526;-0.73156;-0.254424;-1.49738;-0.304409;1.54904;-5.71228;-0.00258201;0.00296517;0.0127886;0.0133408;-0.00313419;0.00823747;0.2019;4.95296;0.010102;0.0109833;4.25653;0.234933;98.3457;143.346;-0.0080543;-0.00257809;0.00697888;-0.000987674;0.0127689;0.0105682;0.0373307;0;0.0808289;-0.408264;-1.90937;-1.04118;2.21279;-6.61966;-0.00405294;0.00110797;0.0139226;0.0139906;-0.00412097;0.00905578;0.291106;3.43518;0.010962;0.0120744;3.39497;0.294553;106.596;151.596;-0.00740145;-0.00405701;0.00534673;-0.00305567;0.0139091;0.00358345;0.0369728;0;0.0271581;7.78995;1.90984
439000;440;24.6295;0.435352;0.0179941;-2.32792;24.5032;-0.886099;-0.155523;0.407292;-0.732395;-0.254471;-1.497;-0.304349;1.54867;-5.70992;-0.00261604;0.0030032;0.0127882;0.013353;-0.00318083;0.00826691;0.204567;4.88838;0.0101301;0.0110225;4.19796;0.238211;97.6081;142.608;-0.00605953;-0.0026118;0.00682263;-0.000758179;0.0127697;0.00424959;0.0310893;0;0.0853516;-0.408787;-1.91601;-1.04061;2.21835;-6.61908;-0.00430695;0.00144507;0.0138547;0.013969;-0.00442121;0.0091951;0.310865;3.21683;0.0110843;0.0122601;3.15954;0.316501;106.086;151.086;-0.00702033;-0.00430963;0.00569202;-0.00272584;0.0138398;0.00236641;0.0386226;0;0.0273681;7.79902;1.91645
440000;441;24.6352;0.441108;0.018232;-2.32875;24.5089;-0.886133;-0.156347;0.412997;-0.732429;-0.25383;-1.49683;-0.305205;1.54858;-5.71047;-0.0025133;0.00279798;0.0127734;0.0132694;-0.00300933;0.00813938;0.196761;5.08231;0.0100015;0.0108525;4.40942;0.226787;97.2064;142.206;-0.00659517;-0.00250964;0.00637565;-0.00072572;0.0127572;0.00582644;0.0310888;0;0.0828494;-0.408614;-1.92275;-1.04249;2.22502;-6.62097;-0.00434067;0.00155948;0.0132036;0.0133411;-0.00447821;0.00890967;0.328749;3.04184;0.0107038;0.0118796;2.97913;0.335669;106.314;151.314;-0.00627397;-0.00434264;0.00571185;-0.00252103;0.0131887;0.00217861;0.0374265;0;0.0284947;7.80088;1.92277
441000;442;24.6448;0.450686;0.0186279;-2.32956;24.5187;-0.879408;-0.157156;0.42279;-0.725704;-0.253237;-1.49541;-0.301548;1.54639;-5.70652;-0.00251162;0.00361093;0.0133324;0.0141165;-0.00329577;0.00870614;0.188385;5.30827;0.0106805;0.0116082;4.28323;0.233469;94.5002;139.5;-0.00784314;-0.00250509;0.00724463;3.40058e-05;0.0133129;0.0058269;0.0354739;0;0.0802183;-0.40855;-1.92925;-1.04112;2.22999;-6.6196;-0.00432508;0.00133567;0.013007;0.0131093;-0.00442741;0.00876837;0.332519;3.00735;0.0105303;0.0116912;2.96095;0.337729;107.53;152.53;-0.00567991;-0.00432818;0.00556426;-0.0028206;0.0129926;0.00150303;0.0346031;0;0.0298919;7.81112;1.93083
442000;443;24.653;0.458901;0.0189675;-2.32954;24.5269;-0.880959;-0.15714;0.430994;-0.727255;-0.254115;-1.49266;-0.309381;1.54542;-5.71435;-0.00228789;0.00345891;0.0143292;0.0150204;-0.00297913;0.00899977;0.159667;6.26305;0.0111402;0.0119997;5.04189;0.198338;94.0679;139.068;-0.00866294;-0.00228191;0.00709428;-0.000116954;0.0143103;0.00836572;0.032317;0;0.0852004;-0.410024;-1.935;-1.05042;2.23958;-6.62889;-0.00458893;0.00110215;0.0136847;0.013751;-0.00465516;0.00920307;0.335332;2.98212;0.0110508;0.0122708;2.95392;0.338533;107.266;152.266;-0.00703041;-0.00459254;0.0051751;-0.0028974;0.0136721;0.00301552;0.0379124;0;0.0297684;7.81144;1.93734
443000;444;24.6628;0.46872;0.0193733;-2.33023;24.537;-0.871089;-0.157831;0.44115;-0.717386;-0.252421;-1.4904;-0.309698;1.54302;-5.71467;-0.00261761;0.00335489;0.0139406;0.0145945;-0.00327153;0.00893304;0.187768;5.32571;0.0109838;0.0119107;4.46108;0.224161;94.8973;139.897;-0.00916572;-0.00261198;0.00692542;-0.000157377;0.0139225;0.0119294;0.0368495;0;0.0855753;-0.409325;-1.94073;-1.05174;2.24502;-6.63021;-0.00439045;0.00116011;0.0146283;0.0146988;-0.00446095;0.00957988;0.300134;3.33185;0.0115763;0.0127732;3.29499;0.303491;105.99;150.99;-0.00675651;-0.00439418;0.00536345;-0.00296445;0.0146148;0.00286404;0.03627;0;0.0321834;7.81527;1.94488
444000;445;24.6695;0.475352;0.0196474;-2.33029;24.5438;-0.869022;-0.157885;0.447883;-0.715318;-0.253143;-1.48914;-0.308545;1.5417;-5.71607;-0.00249084;0.00268;0.0160397;0.0164196;-0.00287065;0.00964511;0.155292;6.43949;0.0120181;0.0128601;5.71979;0.174831;96.9513;141.951;-0.0112691;-0.002488;0.00666411;-0.00123149;0.0160214;0.0176253;0.0317757;0;0.0780713;-0.411149;-1.9497;-1.05016;2.25238;-6.62863;-0.00467045;0.000762933;0.0154908;0.0155196;-0.00469928;0.0101094;0.301499;3.31677;0.0122179;0.0134793;3.30255;0.302796;107.202;152.202;-0.00756966;-0.00467653;0.00517714;-0.00356365;0.0154779;0.000608208;0.0376375;0;0.0316053;7.82281;1.95203
445000;446;24.6786;0.48447;0.0200243;-2.32832;24.5533;-0.863918;-0.155922;0.457415;-0.710214;-0.253416;-1.48983;-0.306042;1.54191;-5.71101;-0.00264594;0.00311643;0.015689;0.0162042;-0.00316116;0.00968271;0.168649;5.92947;0.0119962;0.0129103;5.12604;0.195082;94.7856;139.786;-0.00984803;-0.00264115;0.0066933;-0.000395922;0.0156717;0.0135478;0.033451;0;0.0865833;-0.411298;-1.95767;-1.0489;2.25872;-6.62738;-0.00476252;0.000850912;0.0160035;0.0160383;-0.00479733;0.0104178;0.297593;3.36029;0.0125995;0.0138904;3.34317;0.299118;106.974;151.974;-0.0075425;-0.00476877;0.005423;-0.00362774;0.0159893;0.0020553;0.0388615;0;0.0302112;7.82532;1.95984
446000;447;24.6878;0.493682;0.0204051;-2.32934;24.5625;-0.863388;-0.156937;0.466597;-0.709685;-0.252848;-1.48717;-0.309495;1.53993;-5.71447;-0.00268437;0.0030856;0.0160456;0.0165409;-0.00317961;0.00986024;0.167296;5.97742;0.0122257;0.013147;5.20218;0.192227;93.8927;138.893;-0.0107191;-0.00267962;0.00640204;-0.000169727;0.0160302;0.0139223;0.0317702;0;0.0804022;-0.411659;-1.96296;-1.0538;2.26565;-6.63227;-0.00472839;0.0010665;0.0162045;0.0162587;-0.00478259;0.0105206;0.291795;3.42706;0.0127362;0.0140275;3.39955;0.294156;105.116;150.116;-0.00647246;-0.00473264;0.00531721;-0.00309667;0.0161911;-0.000164676;0.0372036;0;0.0297261;7.82895;1.96575
447000;448;24.6958;0.501723;0.0207374;-2.32959;24.5706;-0.863124;-0.157187;0.474664;-0.70942;-0.253202;-1.48383;-0.31267;1.53741;-5.72019;-0.00302438;0.00285554;0.0169758;0.0173755;-0.00342409;0.0103998;0.178159;5.61298;0.0128777;0.0138664;5.07448;0.197065;96.2765;141.277;-0.0108281;-0.00302072;0.00670965;-0.000922812;0.0169577;0.0197061;0.0335459;0;0.0813619;-0.412882;-1.9684;-1.05762;2.27236;-6.63609;-0.00483352;0.00127499;0.0163495;0.0164259;-0.00490999;0.010668;0.295638;3.38252;0.0129026;0.014224;3.34541;0.298917;104.136;149.136;-0.00632452;-0.00483654;0.00539941;-0.00276348;0.0163359;-0.000496667;0.038763;0;0.0299668;7.83561;1.97295
448000;449;24.7034;0.509326;0.0210517;-2.33103;24.578;-0.86586;-0.158626;0.482073;-0.712156;-0.252588;-1.48311;-0.310456;1.53616;-5.71798;-0.00272508;0.00288446;0.0177191;0.0181183;-0.00312425;0.0106213;0.153793;6.50225;0.0132437;0.0141617;5.79925;0.172436;94.8128;139.813;-0.00965161;-0.00272113;0.00650776;-0.000666089;0.0177024;0.0168223;0.0309361;0;0.0800566;-0.412911;-1.97471;-1.05558;2.27689;-6.63406;-0.00487602;0.00148546;0.0163387;0.0164422;-0.00497952;0.0107109;0.298434;3.35083;0.0129446;0.0142811;3.30196;0.30285;103.17;148.17;-0.00605892;-0.00487783;0.00546599;-0.00241201;0.0163251;0.00166343;0.0400239;0;0.0327373;7.8378;1.97587
449000;450;24.7127;0.518608;0.0214353;-2.33203;24.5873;-0.861747;-0.159625;0.491451;-0.708043;-0.252233;-1.4838;-0.312348;1.53715;-5.71761;-0.00260004;0.00350633;0.0173013;0.017901;-0.00319973;0.0105504;0.15028;6.65425;0.0131312;0.0140672;5.59453;0.178746;92.0162;137.016;-0.00872337;-0.00259393;0.00675121;0.0003249;0.0172849;0.0127821;0.0293253;0;0.0867414;-0.412862;-1.98232;-1.05943;2.28526;-6.63791;-0.00499472;0.0015673;0.0157895;0.0159071;-0.00511224;0.0105097;0.316331;3.16124;0.0126577;0.0140129;3.11156;0.321382;103.7;148.7;-0.0055895;-0.00499623;0.00555304;-0.00233691;0.0157756;0.00181448;0.0372564;0;0.0320082;7.84619;1.98368
450000;451;24.7185;0.524419;0.0216755;-2.33234;24.593;-0.867176;-0.159942;0.497072;-0.713472;-0.251697;-1.48459;-0.307489;1.53685;-5.71117;-0.00288822;0.00464871;0.0164672;0.0175258;-0.00394683;0.0107363;0.175392;5.70151;0.0131977;0.0143151;4.44048;0.225201;88.3527;133.353;-0.00926887;-0.00287913;0.0074896;0.00186188;0.0164503;0.0140254;0.0310935;0;0.0829033;-0.413023;-1.98967;-1.0565;2.29032;-6.63498;-0.00515588;0.00128043;0.0159486;0.016026;-0.00523328;0.0106296;0.323282;3.09328;0.0127904;0.0141728;3.06232;0.32655;104.702;149.702;-0.0053364;-0.00515865;0.00531686;-0.00267218;0.0159355;0.00120431;0.0379976;0;0.0327654;7.84699;1.98886
451000;452;24.7251;0.531003;0.0219476;-2.33539;24.5992;-0.869484;-0.162992;0.503319;-0.71578;-0.251108;-1.48267;-0.305597;1.53452;-5.71107;-0.00332472;0.00415567;0.0173673;0.0181708;-0.00412813;0.0111494;0.191435;5.2237;0.0136988;0.0148659;4.40169;0.227185;91.2143;136.214;-0.0104297;-0.00331655;0.00738512;0.00099187;0.017349;0.0197113;0.0235782;0;0.0804462;-0.413674;-1.99633;-1.05665;2.2963;-6.63513;-0.00506008;0.00129448;0.0169728;0.0170486;-0.00513587;0.0110923;0.298128;3.35426;0.0134097;0.0147897;3.31952;0.301248;103.927;148.927;-0.00603349;-0.00506316;0.00547219;-0.00279273;0.0169589;0.00184907;0.0386897;0;0.0332334;7.85061;1.99597
452000;453;24.7325;0.538417;0.022254;-2.33595;24.6066;-0.871258;-0.163548;0.510655;-0.717554;-0.251412;-1.48118;-0.308685;1.53375;-5.71415;-0.00333419;0.0040401;0.0181785;0.0189122;-0.0040679;0.0114901;0.183414;5.45216;0.0141602;0.0153201;4.64914;0.215094;91.2042;136.204;-0.0109455;-0.0033264;0.00724919;0.000898781;0.0181607;0.0199542;0.0276468;0;0.0821645;-0.414686;-2.003;-1.0628;2.3051;-6.64128;-0.00538856;0.000947905;0.0176127;0.0176516;-0.00542756;0.0115396;0.305948;3.26853;0.0139339;0.0153861;3.25223;0.307482;105.524;150.524;-0.00556382;-0.00539405;0.00543409;-0.0034369;0.0175986;0.000176707;0.0404118;0;0.035363;7.85617;2.00331
453000;454;24.7421;0.54797;0.0226489;-2.33606;24.6162;-0.870813;-0.163663;0.520261;-0.717109;-0.251563;-1.48024;-0.310376;1.53321;-5.71585;-0.00336608;0.00355567;0.0181638;0.0187358;-0.0039381;0.011337;0.185318;5.39612;0.0139892;0.0151159;4.75757;0.210191;92.2411;137.241;-0.010264;-0.00335984;0.0067183;0.00045988;0.0181478;0.0210778;0.0304016;0;0.0800894;-0.415267;-2.01095;-1.06508;2.31317;-6.64356;-0.00546969;0.000806909;0.0182283;0.0182558;-0.00549713;0.0118764;0.300065;3.33261;0.014358;0.0158353;3.32096;0.301117;104.996;149.996;-0.00697481;-0.00547538;0.00517599;-0.00346051;0.0182155;0.0012211;0.0391876;0;0.0327184;7.86299;2.01088
454000;455;24.7498;0.555635;0.0229657;-2.33735;24.6237;-0.873187;-0.164948;0.527759;-0.719484;-0.251366;-1.47852;-0.311229;1.53169;-5.7167;-0.00295881;0.00348545;0.0197094;0.0202332;-0.00348263;0.0118579;0.150122;6.66126;0.014787;0.0158106;5.80976;0.172124;92.0284;137.028;-0.0120661;-0.00295275;0.0067916;0.000252762;0.0196927;0.0160959;0.0280547;0;0.0796881;-0.415676;-2.01727;-1.06677;2.31952;-6.64525;-0.00552247;0.000964966;0.0185351;0.0185737;-0.00556111;0.0120674;0.297947;3.35631;0.0145938;0.0160899;3.33993;0.299407;103.427;148.427;-0.00661147;-0.00552651;0.0050215;-0.00299577;0.0185232;0.0014034;0.0387124;0;0.0311763;7.8655;2.01887
455000;456;24.7568;0.562725;0.0232588;-2.33804;24.6304;-0.881752;-0.165643;0.534515;-0.728048;-0.251059;-1.4777;-0.31075;1.53075;-5.71622;-0.00280375;0.00364264;0.019996;0.0205638;-0.00337158;0.0119677;0.140216;7.13187;0.0149602;0.0159569;6.09916;0.163957;90.7977;135.798;-0.0121397;-0.0027973;0.00671748;0.000636499;0.0199804;0.0167695;0.0254963;0;0.0843404;-0.415925;-2.02385;-1.06674;2.32528;-6.64521;-0.00551675;0.0011285;0.0187332;0.0187856;-0.00556916;0.0121774;0.294491;3.39569;0.0147352;0.0162365;3.37315;0.296459;102.691;147.691;-0.00580088;-0.00551999;0.00513033;-0.00277809;0.0187209;0.000189285;0.0375436;0;0.0307063;7.87421;2.02504
456000;457;24.7641;0.569985;0.0235588;-2.33829;24.6377;-0.880843;-0.165892;0.541821;-0.727139;-0.250974;-1.4762;-0.313859;1.52992;-5.71933;-0.00298279;0.00389319;0.0202493;0.0208844;-0.00361784;0.0122511;0.147303;6.78873;0.0152724;0.0163348;5.77261;0.173232;89.6081;134.608;-0.0103791;-0.00297584;0.00671308;0.00113749;0.0202347;0.0143359;0.0260369;0;0.080818;-0.416262;-2.02944;-1.07088;2.3321;-6.64936;-0.00565649;0.00142879;0.01871;0.0187935;-0.00573999;0.0122667;0.302324;3.30771;0.0148177;0.0163557;3.27414;0.305424;101.418;146.418;-0.00532044;-0.00565801;0.00519837;-0.00225064;0.0186977;0.00101936;0.0377518;0;0.0319725;7.87625;2.03209
457000;458;24.7723;0.578187;0.0238978;-2.34017;24.6457;-0.882522;-0.167772;0.549827;-0.728818;-0.250786;-1.47484;-0.314826;1.52878;-5.7203;-0.0025389;0.00340104;0.0206289;0.0211178;-0.00302785;0.0120728;0.123075;8.12512;0.0151888;0.0160971;6.97452;0.143379;90.831;135.831;-0.0108385;-0.00253321;0.00640633;0.000463945;0.0206144;0.0154258;0.027049;0;0.086063;-0.417179;-2.03572;-1.07551;2.33985;-6.65399;-0.00570583;0.00143966;0.0186869;0.0187716;-0.0057905;0.012281;0.305338;3.27506;0.0148264;0.0163747;3.24179;0.308472;100.726;145.726;-0.00457907;-0.00570684;0.0049859;-0.00202169;0.0186757;-0.00225855;0.0389464;0;0.0356405;7.87756;2.03907
458000;459;24.7804;0.586324;0.0242342;-2.34069;24.6538;-0.884606;-0.168291;0.557882;-0.730902;-0.250419;-1.4745;-0.314263;1.52827;-5.71973;-0.00290357;0.00341159;0.0219024;0.0223631;-0.00336422;0.0128636;0.132568;7.54327;0.0161474;0.0171515;6.64733;0.150436;91.0119;136.012;-0.0124798;-0.00289783;0.00645577;0.00044128;0.0218877;0.0202932;0.0231401;0;0.0821988;-0.417654;-2.04371;-1.07462;2.34648;-6.65309;-0.00567245;0.00138588;0.018658;0.0187367;-0.00575113;0.0122439;0.304022;3.28924;0.0147858;0.0163252;3.25791;0.306945;101.057;146.057;-0.00570569;-0.00567378;0.00499748;-0.00213948;0.0186467;0.000461406;0.0386243;0;0.0344152;7.8864;2.04617
459000;460;24.788;0.593912;0.0245478;-2.34292;24.6615;-0.875355;-0.170516;0.565627;-0.721651;-0.249781;-1.47657;-0.308909;1.52908;-5.71438;-0.00281253;0.00386341;0.0213939;0.0219956;-0.00341418;0.0127049;0.131464;7.60665;0.0159242;0.0169398;6.44241;0.155221;90.0101;135.01;-0.0109456;-0.00280545;0.00689759;0.000901106;0.0213779;0.0176545;0.0248198;0;0.0896375;-0.417528;-2.05238;-1.07039;2.35209;-6.64887;-0.00582126;0.00133341;0.0194234;0.0194936;-0.00589149;0.0126926;0.299703;3.33663;0.0153414;0.0169234;3.30878;0.302226;101.637;146.637;-0.00476781;-0.00582342;0.00522887;-0.00246561;0.0194109;0.00209806;0.0382857;0;0.0362545;7.88918;2.05191
460000;461;24.7961;0.601941;0.0248796;-2.34341;24.6695;-0.877157;-0.171008;0.573586;-0.723453;-0.250232;-1.47254;-0.313739;1.52625;-5.71921;-0.00270261;0.0036502;0.0222142;0.0227379;-0.00322634;0.0129821;0.121661;8.21953;0.0163406;0.0173095;7.04759;0.141892;89.824;134.824;-0.012809;-0.0026963;0.00650677;0.000863229;0.0222;0.0167527;0.0244838;0;0.0860596;-0.418842;-2.05719;-1.0777;2.35985;-6.65618;-0.00565546;0.00104628;0.0199582;0.0200009;-0.00569812;0.0128495;0.283365;3.52902;0.0155845;0.0171327;3.51008;0.284894;102.773;147.773;-0.00578826;-0.00565974;0.00529962;-0.00310027;0.019945;0.000688578;0.0420965;0;0.036659;7.89026;2.05481
461000;462;24.803;0.608858;0.0251655;-2.34378;24.6762;-0.881607;-0.17138;0.580345;-0.727903;-0.249495;-1.47096;-0.313737;1.5246;-5.71953;-0.00274608;0.00397666;0.0224079;0.0230216;-0.00335978;0.0131907;0.12255;8.15997;0.0165815;0.0175876;6.8521;0.145941;89.4295;134.429;-0.0123468;-0.00273874;0.00693712;0.00108901;0.0223921;0.0156108;0.0316748;0;0.0859757;-0.418577;-2.06385;-1.08143;2.36732;-6.6599;-0.00557735;0.000881819;0.020304;0.020334;-0.00560736;0.0129707;0.274693;3.64043;0.0157612;0.0172942;3.6263;0.275763;101.924;146.924;-0.00685282;-0.00558141;0.00483806;-0.00297408;0.0202929;0.000683728;0.0416489;0;0.0417936;7.89837;2.06193
462000;463;24.8105;0.61642;0.0254781;-2.34428;24.6838;-0.882697;-0.171876;0.58786;-0.728993;-0.249209;-1.47006;-0.31537;1.52403;-5.72117;-0.0026349;0.00417882;0.0229164;0.0235825;-0.00330097;0.0134417;0.114979;8.69725;0.0169296;0.0179223;7.1441;0.139976;88.931;133.931;-0.0146339;-0.00262697;0.00714952;0.00128229;0.0228999;0.0160106;0.0287349;0;0.0816514;-0.419079;-2.07108;-1.08294;2.3744;-6.66142;-0.00555691;0.000878932;0.0204935;0.0205231;-0.00558653;0.0130548;0.271155;3.68793;0.0158754;0.0174064;3.67368;0.272206;101.561;146.561;-0.00644241;-0.00556077;0.00476298;-0.00290598;0.0204828;0.0019995;0.0388234;0;0.032239;7.8997;2.06877
463000;464;24.8168;0.622671;0.0257365;-2.34095;24.6897;-0.900481;-0.168545;0.593817;-0.746777;-0.249161;-1.46878;-0.316211;1.52295;-5.72201;-0.00261396;0.00391753;0.0233553;0.0239334;-0.00319206;0.0135627;0.111921;8.93483;0.0171191;0.0180836;7.49779;0.133373;90.0994;135.099;-0.0149373;-0.00260655;0.00716125;0.000756087;0.0233377;0.0154741;0.0276884;0;0.0834138;-0.419684;-2.07712;-1.08554;2.38096;-6.66402;-0.00570416;0.00119339;0.0208211;0.0208747;-0.00575774;0.0133162;0.273961;3.65016;0.0161808;0.0177549;3.62549;0.275825;99.5768;144.577;-0.0058927;-0.00570588;0.00467916;-0.00220181;0.0208111;0.00345574;0.0377344;0;0.0309315;7.90666;2.07591
464000;465;24.8231;0.628963;0.0259965;-2.3413;24.6958;-0.905045;-0.168899;0.599941;-0.751341;-0.24935;-1.46803;-0.316126;1.52225;-5.72192;-0.00269356;0.00425325;0.0244684;0.0251188;-0.003344;0.0142314;0.110083;9.08402;0.0179646;0.0189752;7.51161;0.133127;88.1543;133.154;-0.0143159;-0.00268579;0.00697269;0.00160588;0.0244535;0.0182992;0.0297015;0;0.0836421;-0.420296;-2.0835;-1.08552;2.38662;-6.66399;-0.00563355;0.00135354;0.0209856;0.0210543;-0.00570219;0.0133782;0.268448;3.72512;0.0162734;0.0178377;3.69231;0.270833;98.6829;143.683;-0.00533508;-0.00563447;0.00471045;-0.00191587;0.0209757;0.00129949;0.0376111;0;0.0325905;7.91094;2.08266
465000;466;24.8322;0.638124;0.0263752;-2.34274;24.705;-0.902876;-0.170341;0.609092;-0.749172;-0.248746;-1.46798;-0.315693;1.52201;-5.72051;-0.00302328;0.00391282;0.0240774;0.0246311;-0.00357691;0.014104;0.125565;7.964;0.0177337;0.0188053;6.88613;0.145219;89.6517;134.652;-0.0106517;-0.00301613;0.00688548;0.0010188;0.0240618;0.0128903;0.0244879;0;0.0822568;-0.420631;-2.09058;-1.08632;2.39323;-6.6648;-0.00567341;0.00151922;0.0212601;0.0213455;-0.00575884;0.0135522;0.266857;3.74732;0.0164887;0.0180696;3.70657;0.269791;98.2395;143.239;-0.00567028;-0.00567381;0.00488611;-0.00175889;0.0212496;0.0033128;0.0402986;0;0.0358933;7.91838;2.09013
466000;467;24.8375;0.643373;0.0265921;-2.34309;24.7099;-0.911053;-0.170691;0.614034;-0.757349;-0.248529;-1.46588;-0.317808;1.52039;-5.72381;-0.00274657;0.00397214;0.0245881;0.0251536;-0.00331208;0.0142328;0.111703;8.9523;0.0179751;0.0189771;7.5945;0.131674;89.9724;134.972;-0.0118887;-0.00273899;0.00721386;0.000816872;0.0245704;0.0159095;0.0308977;0;0.0892983;-0.421397;-2.09669;-1.09065;2.40067;-6.66912;-0.00574937;0.00158487;0.021309;0.0214015;-0.00584189;0.0136217;0.26981;3.70631;0.016562;0.0181622;3.66345;0.272966;98.6773;143.677;-0.00490583;-0.00574986;0.0051312;-0.00186751;0.0212973;0.000755853;0.0397584;0;0.0380943;7.91915;2.09758
467000;468;24.8453;0.651196;0.0269155;-2.34436;24.7178;-0.908486;-0.171962;0.621872;-0.754783;-0.248205;-1.46491;-0.316432;1.51911;-5.7219;-0.00295519;0.00402056;0.0250681;0.0256335;-0.00352062;0.0145771;0.117887;8.48273;0.0183753;0.0194361;7.28096;0.137345;89.4929;134.493;-0.00880879;-0.00294765;0.0070578;0.00106632;0.0250516;0.009741;0.0280746;0;0.0849296;-0.421987;-2.10316;-1.08972;2.406;-6.66819;-0.00580242;0.00151011;0.0219322;0.0220142;-0.00588441;0.0139493;0.264562;3.77983;0.0169809;0.0185991;3.74111;0.267301;98.2946;143.295;-0.00481142;-0.00580302;0.00497779;-0.00186347;0.0219212;0.00131357;0.039169;0;0.0390554;7.91998;2.10506
468000;469;24.8463;0.652173;0.0269559;-2.34769;24.7178;-0.924956;-0.175285;0.621928;-0.771252;-0.248165;-1.4648;-0.316851;1.51909;-5.72285;-0.00226814;0.00412258;0.025562;0.0261599;-0.00286599;0.0145129;0.0887308;11.27;0.0184695;0.0193506;9.1277;0.109557;88.9315;133.931;-0.0139891;-0.00226028;0.00718298;0.00114519;0.0255452;0.0148339;0.0316004;0;0.0883279;-0.422497;-2.11149;-1.09368;2.41517;-6.67215;-0.00560529;0.00112543;0.0224437;0.0224888;-0.00565038;0.0140696;0.249749;4.00402;0.0171884;0.0187594;3.98005;0.251253;99.7282;144.728;-0.00458734;-0.00560809;0.00496927;-0.00261297;0.0224322;0.000341566;0.0401635;0;0.038229;7.9294;2.11239
469000;470;24.8519;0.657819;0.0271892;-2.34895;24.7232;-0.928559;-0.176553;0.627347;-0.774855;-0.247674;-1.46214;-0.318799;1.51685;-5.72716;-0.00287397;0.00354814;0.0266019;0.027023;-0.00329506;0.015159;0.108036;9.25617;0.0192081;0.020212;8.20108;0.121935;91.1001;136.1;-0.00727668;-0.00286768;0.00698163;0.000213189;0.0265843;0.00765518;0.0380955;0;0.084223;-0.4232;-2.11816;-1.09541;2.4219;-6.67388;-0.00555984;0.00092182;0.0224062;0.0224365;-0.0055902;0.0140134;0.248139;4.03;0.0171279;0.0186845;4.01355;0.249156;100.455;145.455;-0.00618008;-0.00556374;0.00488321;-0.00293122;0.0223949;0.00151604;0.0421838;0;0.0377378;7.92998;2.12004
470000;471;24.8588;0.664675;0.0274726;-2.34812;24.73;-0.933391;-0.175717;0.634137;-0.779687;-0.247704;-1.46175;-0.320234;1.51678;-5.72741;-0.00264201;0.00330476;0.0271539;0.027516;-0.00300415;0.0152601;0.0972976;10.2777;0.019423;0.0203468;9.15934;0.109178;90.9231;135.923;-0.00791193;-0.00263655;0.00652736;0.000175611;0.0271384;0.00706266;0.0317084;0;0.0802623;-0.423457;-2.12517;-1.09895;2.42969;-6.67743;-0.00584487;0.000889246;0.0227552;0.0227828;-0.0058725;0.0143277;0.256859;3.89319;0.017478;0.0191035;3.87958;0.25776;99.6415;144.641;-0.00669512;-0.00584802;0.0045344;-0.00265399;0.0227455;0.0015298;0.0431197;0;0.036365;7.93639;2.12448
471000;472;24.8658;0.671722;0.0277639;-2.34916;24.7368;-0.938379;-0.176762;0.640933;-0.784675;-0.247669;-1.4613;-0.322214;1.51676;-5.72918;-0.00260506;0.0041324;0.026966;0.0275326;-0.00317168;0.0153522;0.0966054;10.3514;0.0194985;0.0204695;8.68076;0.115197;88.2504;133.25;-0.0141575;-0.00259766;0.00681846;0.00152365;0.0269517;0.0170142;0.0309958;0;0.0833668;-0.424125;-2.13147;-1.10128;2.43637;-6.67976;-0.00566627;0.00103207;0.0230623;0.0230994;-0.0057033;0.0144013;0.245694;4.07011;0.0176112;0.0192018;4.05018;0.246903;98.3933;143.393;-0.00649877;-0.00566833;0.00443162;-0.00227203;0.0230533;0.00369144;0.0435574;0;0.038237;7.94106;2.12878
472000;473;24.8734;0.67926;0.0280754;-2.3491;24.7442;-0.943026;-0.1767;0.648339;-0.789322;-0.247449;-1.45943;-0.323755;1.51525;-5.73093;-0.00292955;0.00289248;0.0282241;0.0284904;-0.00319582;0.0158431;0.103796;9.63428;0.0201435;0.0211241;8.91487;0.112172;92.6155;137.616;-0.0103099;-0.00292557;0.00656202;-0.000665917;0.0282072;0.00900204;0.0279903;0;0.0859798;-0.424467;-2.13846;-1.10221;2.44296;-6.68068;-0.00560765;0.00131613;0.023272;0.0233318;-0.00566751;0.0144997;0.240962;4.15004;0.017748;0.0193329;4.11677;0.242909;98.3272;143.327;-0.00471421;-0.00560924;0.00494492;-0.00221026;0.0232609;0.000917897;0.0402846;0;0.0364814;7.94753;2.13593
473000;474;24.881;0.686894;0.028391;-2.35076;24.7517;-0.943218;-0.178362;0.655848;-0.789514;-0.246924;-1.45925;-0.320372;1.51427;-5.7271;-0.00271829;0.00390714;0.0286821;0.029161;-0.00319715;0.0161791;0.0947727;10.5516;0.0205893;0.0215721;9.12095;0.109638;89.0787;134.079;-0.00984643;-0.00271126;0.00677873;0.00112317;0.0286672;0.00882512;0.0286255;0;0.0844269;-0.424865;-2.14432;-1.10046;2.44737;-6.67894;-0.00562578;0.0013294;0.0236849;0.0237451;-0.00568595;0.0147155;0.237526;4.21007;0.0180268;0.0196207;4.1761;0.239458;97.0454;142.045;-0.00379859;-0.00562654;0.00456348;-0.00181209;0.0236756;0.0005158;0.0388996;0;0.0401708;7.94754;2.1421
474000;475;24.8889;0.694788;0.0287172;-2.35195;24.7595;-0.94476;-0.179547;0.663611;-0.791056;-0.246157;-1.45947;-0.315134;1.51326;-5.72231;-0.00280042;0.00362742;0.028418;0.0288339;-0.00321637;0.0160251;0.0985442;10.1477;0.0203795;0.0213669;8.96473;0.111548;90.7573;135.757;-0.00752993;-0.00279387;0.00705948;0.000299499;0.0284001;0.00339471;0.027864;0;0.0819738;-0.425171;-2.15219;-1.09885;2.4536;-6.67732;-0.00564637;0.00141411;0.0239967;0.024064;-0.00571367;0.0148888;0.235298;4.24993;0.0182479;0.0198518;4.21165;0.237437;96.7268;141.727;-0.00470747;-0.00564684;0.00463323;-0.00171184;0.0239872;0.00250353;0.0393311;0;0.0403858;7.95476;2.14934
475000;476;24.8972;0.70308;0.0290599;-2.3536;24.7677;-0.943917;-0.181197;0.671822;-0.790213;-0.245976;-1.45752;-0.319265;1.51221;-5.72709;-0.00259159;0.00380318;0.0299282;0.0303671;-0.00303045;0.0166988;0.0865935;11.5482;0.0213267;0.022265;10.0207;0.0997939;90.2834;135.283;-0.00893125;-0.00258445;0.0072445;0.000470487;0.0299097;0.00792866;0.0230072;0;0.0802575;-0.425821;-2.15863;-1.10461;2.46194;-6.68308;-0.00560472;0.00153325;0.0246794;0.0247568;-0.00568215;0.0152195;0.227101;4.40332;0.0186888;0.0202926;4.35695;0.229519;95.919;140.919;-0.00407276;-0.00560464;0.00463855;-0.00148029;0.02467;0.0003954;0.0399434;0;0.0424982;7.9586;2.1561
476000;477;24.9084;0.714308;0.029524;-2.36026;24.7792;-0.920764;-0.187855;0.683346;-0.76706;-0.246254;-1.45628;-0.323321;1.51193;-5.73049;-0.00250519;0.00359336;0.0299327;0.030326;-0.00289848;0.0166123;0.0836938;11.9483;0.0212495;0.0221497;10.4627;0.0955772;90.6778;135.678;-0.00729016;-0.00249874;0.00707653;0.000219847;0.0299147;0.000813421;0.030669;0;0.0833254;-0.427407;-2.16504;-1.11141;2.4709;-6.68989;-0.0055459;0.00141855;0.0251013;0.0251668;-0.00561142;0.0153891;0.220941;4.52609;0.0189277;0.0205188;4.48492;0.22297;96.7277;141.728;-0.00437796;-0.00554667;0.00482175;-0.00188291;0.0250909;3.68722e-06;0.0413723;0;0.0409496;7.96243;2.16375
477000;478;24.9108;0.716679;0.029622;-2.35539;24.7812;-0.945401;-0.182987;0.685265;-0.791697;-0.246363;-1.45457;-0.325834;1.51084;-5.73296;-0.00303718;0.00420675;0.0305302;0.0310494;-0.00355635;0.0173029;0.0994813;10.0521;0.0219811;0.0230705;8.73067;0.114539;89.2553;134.255;-0.00533854;-0.00302897;0.00736957;0.00114691;0.0305124;8.1532e-05;0.0357352;0;0.0821338;-0.428371;-2.17159;-1.11384;2.47789;-6.69232;-0.00550551;0.00109247;0.0249652;0.0250043;-0.00554462;0.0152745;0.220527;4.53458;0.0187924;0.0203659;4.50965;0.221747;97.7494;142.749;-0.0063947;-0.00550769;0.00464583;-0.00235528;0.0249552;0.00372972;0.042498;0;0.0462432;7.96472;2.17054
478000;479;24.92;0.725902;0.0300032;-2.35534;24.7904;-0.94749;-0.182942;0.694461;-0.793786;-0.246136;-1.45349;-0.326893;1.50999;-5.73402;-0.00265747;0.00370292;0.0306897;0.031096;-0.0030637;0.0170798;0.0865915;11.5485;0.0218237;0.0227731;10.1498;0.098524;90.7082;135.708;-0.00582243;-0.00265063;0.00728962;0.000232222;0.0306706;-0.00356819;0.0350396;0;0.0875;-0.428684;-2.17894;-1.11677;2.4857;-6.69524;-0.00557208;0.000807422;0.0249399;0.0249612;-0.00559344;0.0152773;0.223421;4.47586;0.018785;0.0203698;4.46259;0.224085;98.5469;143.547;-0.0068859;-0.00557549;0.00444657;-0.0027234;0.0249306;0.00205983;0.0455212;0;0.0410828;7.97322;2.17777
479000;480;24.927;0.73288;0.0302917;-2.35501;24.7974;-0.948613;-0.18261;0.701464;-0.794909;-0.245511;-1.45258;-0.325702;1.50875;-5.73282;-0.00288843;0.00412125;0.0309835;0.0314777;-0.00338266;0.0174302;0.0932248;10.7268;0.0221988;0.0232403;9.30562;0.107462;89.5292;134.529;-0.00368124;-0.00288037;0.00739559;0.000954451;0.0309652;-0.00424891;0.0321268;0;0.0828565;-0.428868;-2.18586;-1.11663;2.49174;-6.6951;-0.00544436;0.000967311;0.0251719;0.0252024;-0.00547489;0.0153387;0.216287;4.62349;0.0188929;0.0204516;4.60328;0.217236;97.8346;142.835;-0.00602455;-0.00544695;0.00450764;-0.0024673;0.0251625;0.00362007;0.0450721;0;0.0399758;7.97383;2.18538
480000;481;24.9342;0.74004;0.0305876;-2.35639;24.8044;-0.950063;-0.183988;0.708475;-0.796359;-0.245483;-1.45244;-0.326631;1.50882;-5.73375;-0.00314399;0.00460123;0.0314285;0.0320304;-0.00374589;0.0178881;0.100036;9.99635;0.0227054;0.0238508;8.55081;0.116948;87.7571;132.757;-0.00479808;-0.0031354;0.00728417;0.00200819;0.031413;2.34962e-05;0.0335083;0;0.0843045;-0.429339;-2.19244;-1.11762;2.49804;-6.6961;-0.00558952;0.00125036;0.0255908;0.0256408;-0.00563958;0.0156402;0.218419;4.57835;0.0192511;0.0208536;4.54658;0.219945;96.4172;141.417;-0.00565687;-0.00559049;0.00447005;-0.00187144;0.0255818;0.00502227;0.0422886;0;0.0406506;7.97651;2.1924
481000;482;24.9414;0.747325;0.0308887;-2.35759;24.8114;-0.953997;-0.18519;0.715534;-0.800293;-0.245425;-1.45169;-0.32603;1.50795;-5.7331;-0.00320081;0.00469634;0.0319642;0.0325806;-0.00381721;0.0181989;0.100137;9.98628;0.0230982;0.0242652;8.53519;0.117162;88.0495;133.049;-0.00182942;-0.00319155;0.00759644;0.00189502;0.0319469;-0.00049337;0.0302342;0;0.0851525;-0.429901;-2.1984;-1.11854;2.50378;-6.69701;-0.00553057;0.00140898;0.0261972;0.0262596;-0.00559301;0.0159263;0.211113;4.7368;0.0196381;0.0212351;4.69508;0.212989;95.3862;140.386;-0.00450341;-0.00553071;0.00442044;-0.00150937;0.0261886;0.00332758;0.0398009;0;0.043008;7.98065;2.19727
482000;483;24.9496;0.755508;0.0312269;-2.35859;24.8194;-0.95712;-0.186185;0.723544;-0.803416;-0.245416;-1.45067;-0.325174;1.50679;-5.7323;-0.00312865;0.00402855;0.0321306;0.032585;-0.00358308;0.018084;0.0973731;10.2698;0.0230109;0.024112;9.09413;0.109961;90.3404;135.34;-0.00450728;-0.00312066;0.0076378;0.000542552;0.0321102;0.00342244;0.0309004;0;0.0844701;-0.430762;-2.20537;-1.11905;2.51028;-6.69753;-0.0054831;0.00147264;0.026898;0.0269649;-0.00554993;0.0162574;0.203847;4.90563;0.0200838;0.0216765;4.8586;0.205821;94.7925;139.792;-0.00385845;-0.00548291;0.00437516;-0.00133837;0.0268898;0.000326341;0.0411583;0;0.0439296;7.98451;2.20244
483000;484;24.9582;0.764096;0.0315819;-2.36074;24.828;-0.954813;-0.188342;0.732062;-0.801109;-0.244883;-1.4504;-0.324361;1.50627;-5.73214;-0.00271621;0.00509932;0.0326752;0.0333953;-0.00343629;0.0184158;0.0831275;12.0297;0.0234929;0.0245544;9.71843;0.102897;87.0772;132.077;-0.00417984;-0.00270607;0.00789153;0.00240277;0.0326577;5.65584e-06;0.0293708;0;0.0824946;-0.431178;-2.21234;-1.12179;2.51769;-6.70026;-0.00543661;0.00161133;0.0274144;0.0274932;-0.00551546;0.0165043;0.198312;5.04255;0.0204172;0.0220058;4.98476;0.200611;94.9201;139.92;-0.00320811;-0.0054363;0.00473155;-0.00140914;0.0274047;0.00222482;0.039404;0;0.0469797;7.99254;2.20756
484000;485;24.9655;0.771356;0.031882;-2.36132;24.8351;-0.958618;-0.188924;0.739158;-0.804914;-0.244685;-1.44791;-0.330287;1.50512;-5.73741;-0.00302955;0.00470364;0.0334712;0.0340676;-0.00362594;0.0188468;0.0905122;11.0482;0.0240118;0.025129;9.39552;0.106434;88.148;133.148;-0.00584671;-0.00302012;0.00769044;0.00182229;0.0334533;0.00405158;0.0323351;0;0.0856924;-0.43181;-2.21835;-1.12954;2.52654;-6.70801;-0.00531712;0.00152283;0.0275112;0.0275817;-0.00538761;0.0164846;0.193271;5.17407;0.0204219;0.0219795;5.11946;0.195333;95.5024;140.502;-0.00430467;-0.00531742;0.0048598;-0.00170754;0.0275008;0.00300112;0.0394203;0;0.0449999;7.99506;2.21475
485000;486;24.9731;0.778988;0.0321974;-2.36249;24.8426;-0.95967;-0.19009;0.746678;-0.805966;-0.244051;-1.44569;-0.331643;1.50318;-5.73851;-0.00293747;0.00422372;0.0341393;0.0346144;-0.00341254;0.0190135;0.0860437;11.622;0.0242938;0.0253513;10.1433;0.0985874;89.2175;134.218;-0.00888936;-0.00292916;0.00743971;0.00112298;0.0341212;0.0141855;0.0248988;0;0.0883269;-0.431983;-2.22409;-1.13196;2.53269;-6.71043;-0.00534799;0.00149058;0.0275463;0.0276137;-0.0054154;0.0165145;0.194146;5.15077;0.0204546;0.0220194;5.0991;0.196113;95.502;140.502;-0.00552814;-0.00534835;0.00480178;-0.00171464;0.0275361;0.00359523;0.0414195;0;0.0481873;7.99608;2.2221
486000;487;24.9804;0.786278;0.0324987;-2.36246;24.85;-0.957783;-0.190061;0.754083;-0.804079;-0.244214;-1.44407;-0.330142;1.50132;-5.73701;-0.00289625;0.0043473;0.0340786;0.0345828;-0.0034005;0.0189917;0.0849873;11.7665;0.0242683;0.0253222;10.1699;0.0983292;88.989;133.989;-0.00827354;-0.00288757;0.00754372;0.00126513;0.0340602;0.0116985;0.0252267;0;0.0907826;-0.433071;-2.23133;-1.1316;2.53907;-6.71008;-0.00527476;0.00127517;0.0274759;0.0275255;-0.00532434;0.0164249;0.191978;5.20893;0.0203585;0.0218999;5.16975;0.193433;95.9615;140.962;-0.00562044;-0.0052759;0.00462836;-0.00197116;0.0274663;0.00437699;0.0450038;0;0.0483316;8.00385;2.22951
487000;488;24.9878;0.793636;0.0328029;-2.36351;24.8572;-0.960929;-0.191105;0.761258;-0.807225;-0.243933;-1.44399;-0.329339;1.50102;-5.73663;-0.00364268;0.00401343;0.034715;0.0351305;-0.00405812;0.0195943;0.104931;9.53007;0.0248836;0.0261257;8.65684;0.115516;89.7565;134.757;-0.00822707;-0.00363502;0.00723607;0.000910224;0.0346975;0.0101121;0.0254556;0;0.0845085;-0.433645;-2.23868;-1.13221;2.54591;-6.71069;-0.00505352;0.00105133;0.0272661;0.0273003;-0.00508768;0.016194;0.185341;5.39546;0.0201117;0.021592;5.36595;0.18636;96.5692;141.569;-0.00659913;-0.00505562;0.00451088;-0.00229939;0.0272567;0.00662649;0.0439024;0;0.0453778;8.00601;2.23723
488000;489;24.9955;0.801351;0.0331217;-2.36363;24.8648;-0.962524;-0.191231;0.76894;-0.80882;-0.24323;-1.4424;-0.332177;1.50001;-5.73904;-0.00304717;0.00407332;0.0355585;0.0359836;-0.00347227;0.0197279;0.0856945;11.6694;0.0252263;0.0263039;10.3631;0.0964958;88.8317;133.832;-0.0125612;-0.00303974;0.00691492;0.00133763;0.0355434;0.0155505;0.0264427;0;0.0839753;-0.433535;-2.24456;-1.1341;2.55189;-6.71257;-0.00521234;0.00127258;0.0278008;0.0278498;-0.00526133;0.0165555;0.187489;5.33364;0.0205461;0.0220741;5.2933;0.188918;95.1541;140.154;-0.00592368;-0.00521295;0.00432273;-0.0016796;0.0277925;0.00620528;0.0425495;0;0.0456715;8.00642;2.24434
489000;490;25.003;0.808878;0.0334328;-2.3647;24.8722;-0.964846;-0.192301;0.776314;-0.811142;-0.24283;-1.44297;-0.330745;1.50017;-5.73797;-0.00350718;0.00501886;0.0350046;0.0356479;-0.0041505;0.0198992;0.100192;9.98083;0.0252627;0.0265323;8.58883;0.11643;88.0406;133.041;-0.0116213;-0.00349666;0.00809662;0.00205559;0.0349851;0.00957129;0.0331085;0;0.0834278;-0.433854;-2.2526;-1.1331;2.55859;-6.71157;-0.0051707;0.00149037;0.0284833;0.0285492;-0.00523657;0.0168929;0.181534;5.5086;0.0209971;0.0225238;5.45188;0.183423;93.7724;138.772;-0.00516366;-0.00517019;0.00417224;-0.00110375;0.0284759;0.00658074;0.042087;0;0.0441042;8.01138;2.25208
490000;491;25.0107;0.816604;0.0337522;-2.36519;24.8799;-0.965656;-0.192785;0.784004;-0.811952;-0.242346;-1.44273;-0.330864;1.49989;-5.73834;-0.00329229;0.00414641;0.0353762;0.0358158;-0.00373191;0.0197738;0.0930653;10.7451;0.0252134;0.0263651;9.59716;0.104197;89.6747;134.675;-0.0135345;-0.00328408;0.00751277;0.000905734;0.0353572;0.0110973;0.0308379;0;0.076235;-0.434551;-2.25926;-1.13618;2.56593;-6.71465;-0.00517571;0.00163074;0.0292194;0.0292965;-0.00525286;0.0172747;0.177133;5.64548;0.021497;0.0230329;5.57726;0.1793;93.575;138.575;-0.00433848;-0.00517492;0.00438975;-0.00103609;0.0292113;0.00424072;0.0461966;0;0.0497971;8.01777;2.25882
491000;492;25.0177;0.823585;0.0340407;-2.36764;24.8867;-0.965623;-0.195243;0.790789;-0.811919;-0.24188;-1.44271;-0.328428;1.49926;-5.73591;-0.00329752;0.00420051;0.0358921;0.0363373;-0.00374269;0.02004;0.0918732;10.8846;0.0255639;0.02672;9.70886;0.102999;89.4805;134.481;-0.014802;-0.0032892;0.00750156;0.00102431;0.0358735;0.010498;0.0304975;0;0.0827028;-0.435081;-2.26703;-1.13611;2.57283;-6.71458;-0.00510001;0.00172109;0.0298584;0.029943;-0.00518454;0.0175638;0.170806;5.85458;0.0218957;0.0234183;5.77543;0.173147;93.4747;138.475;-0.00333973;-0.00509905;0.00456533;-0.00102661;0.0298498;0.00440423;0.0476447;0;0.0507448;8.02775;2.26595
492000;493;25.0339;0.839801;0.034711;-2.36638;24.9038;-0.948342;-0.193978;0.807875;-0.794638;-0.241107;-1.44151;-0.329498;1.49822;-5.73691;-0.00335057;0.00477193;0.0361753;0.0367432;-0.00391852;0.0203309;0.0926205;10.7967;0.0259007;0.0271078;9.37681;0.106646;88.3926;133.393;-0.0151263;-0.00334074;0.00788168;0.00178076;0.0361563;0.0188583;0.0314476;0;0.0814866;-0.434867;-2.27369;-1.13893;2.57991;-6.71741;-0.00494324;0.00165262;0.0305993;0.030676;-0.00501991;0.017848;0.161547;6.19014;0.022313;0.0237973;6.11086;0.163643;93.385;138.385;-0.00421057;-0.00494245;0.00448356;-0.00108071;0.0305909;0.00297297;0.0435619;0;0.050771;8.0286;2.27283
493000;494;25.0342;0.840053;0.0347214;-2.36925;24.9032;-0.963113;-0.196854;0.807287;-0.809409;-0.241097;-1.43974;-0.334259;1.49757;-5.74167;-0.00343794;0.00461988;0.0370402;0.0375608;-0.00395852;0.0207596;0.0928165;10.7739;0.0264589;0.0276795;9.48858;0.10539;88.5306;133.531;-0.0155152;-0.00342867;0.00766763;0.00169104;0.0370221;0.019248;0.0294053;0;0.0785905;-0.436062;-2.28033;-1.14527;2.58876;-6.72374;-0.00500551;0.00161251;0.0300312;0.0301053;-0.00507957;0.0175924;0.166677;5.99963;0.0219601;0.0234566;5.92674;0.168727;93.6766;138.677;-0.00534508;-0.0050049;0.00449725;-0.00117411;0.0300227;0.00472647;0.0433948;0;0.0507644;8.03078;2.27504
494000;495;25.0416;0.8475;0.0350292;-2.37029;24.9105;-0.964585;-0.197889;0.814619;-0.810881;-0.241539;-1.43772;-0.337056;1.49633;-5.74447;-0.00353912;0.00402716;0.0375798;0.0379705;-0.00392982;0.0209502;0.0941761;10.6184;0.0267201;0.0279335;9.66214;0.103497;89.8167;134.817;-0.014269;-0.00353131;0.00737021;0.000816561;0.0375614;0.0168004;0.0275144;0;0.0816875;-0.437381;-2.28707;-1.14834;2.59628;-6.72681;-0.00505387;0.00131566;0.0298252;0.0298748;-0.00510342;0.0174891;0.16945;5.90146;0.0218175;0.0233188;5.85387;0.170827;95.0187;140.019;-0.00589477;-0.0050547;0.00458048;-0.00183859;0.0298159;0.00780153;0.0453119;0;0.0467241;8.032;2.28141
495000;496;25.0491;0.854969;0.0353379;-2.37097;24.9179;-0.965051;-0.19857;0.822044;-0.811347;-0.241944;-1.43685;-0.33583;1.49528;-5.74324;-0.0034333;0.00411406;0.0382385;0.0386408;-0.00383557;0.0212382;0.0897863;11.1376;0.0271296;0.0283176;10.0743;0.0992623;89.9946;134.995;-0.0148188;-0.00342504;0.00767922;0.000691946;0.0382183;0.0172969;0.0298385;0;0.0789572;-0.438862;-2.29498;-1.14955;2.60404;-6.73152;-0.0047324;0.00152706;0.0291684;0.029237;-0.00480105;0.017019;0.162244;6.16355;0.0212731;0.0226921;6.08972;0.164211;93.6062;138.606;-0.00295852;-0.00473188;0.0042834;-0.0011385;0.0291606;0.00964011;0.0400595;0;0.0473095;8.04258;2.2881
496000;497;25.0573;0.863166;0.0356767;-2.37106;24.9259;-0.972051;-0.198656;0.830004;-0.818347;-0.241601;-1.43704;-0.33285;1.49474;-5.74026;-0.0035089;0.00431657;0.0381838;0.0386261;-0.00395111;0.0212886;0.0918948;10.882;0.0271637;0.0283848;9.77599;0.102291;89.5427;134.543;-0.0145883;-0.00350007;0.00774604;0.00102479;0.0381639;0.0142366;0.0299448;0;0.0806385;-0.439081;-2.3029;-1.14837;2.61053;-6.73033;-0.00456667;0.00151041;0.0296075;0.0296741;-0.0046333;0.0171537;0.15424;6.48339;0.0214943;0.0228716;6.40454;0.156139;92.4038;137.404;-0.0027725;-0.00456574;0.00375123;-0.000656047;0.0296018;0.00762377;0.0391312;0;0.0472074;8.04374;2.29592
497000;498;25.065;0.870858;0.0359946;-2.37207;24.9333;-0.978051;-0.199672;0.837405;-0.824347;-0.241676;-1.43448;-0.336307;1.49306;-5.74372;-0.00353625;0.00476338;0.0384655;0.0389989;-0.00406968;0.0215343;0.091933;10.8775;0.0274566;0.0287124;9.58279;0.104354;88.5877;133.588;-0.0132874;-0.00352633;0.00794745;0.00170805;0.038446;0.0154397;0.0282523;0;0.0837359;-0.439381;-2.30752;-1.15195;2.61624;-6.73042;-0.00501321;0.00142413;0.0313238;0.0313795;-0.00506894;0.0182242;0.160045;6.24825;0.022798;0.024299;6.19055;0.161536;92.3948;137.395;-0.0052076;-0.00501245;0.00363934;-0.000713041;0.0313184;0.00790831;0.0469676;0;0.0499395;8.04317;2.30312
498000;499;25.0712;0.877052;0.0362506;-2.37307;24.9395;-0.977607;-0.200673;0.843554;-0.823903;-0.241273;-1.43424;-0.333473;1.49214;-5.74088;-0.00309418;0.00504205;0.0393567;0.0399474;-0.00368483;0.0218161;0.0786189;12.7196;0.027941;0.0290881;10.841;0.0922421;88.2008;133.201;-0.0139643;-0.0030833;0.00828588;0.00193067;0.0393359;0.013106;0.0298983;0;0.0863927;-0.439726;-2.31487;-1.15119;2.62244;-6.72966;-0.00489432;0.00187041;0.0320472;0.0321417;-0.00498878;0.0185652;0.152722;6.54784;0.0232697;0.0247536;6.4428;0.155212;91.9797;136.98;-0.00457037;-0.00489266;0.00427643;-0.000449491;0.0320401;0.0059072;0.0476494;0;0.0568827;8.04504;2.31067
499000;500;25.0802;0.886108;0.0366249;-2.37355;24.9486;-0.976374;-0.20115;0.85266;-0.82267;-0.241654;-1.43109;-0.337067;1.48998;-5.74448;-0.0028731;0.00466826;0.0396494;0.0401559;-0.00337957;0.0217677;0.0724626;13.8002;0.0279653;0.0290237;11.882;0.0841611;88.4871;133.487;-0.0136913;-0.00286353;0.00781943;0.00164593;0.0396305;0.0108859;0.0256373;0;0.0897691;-0.440568;-2.319;-1.15657;2.6286;-6.73505;-0.00493602;0.00181588;0.0325884;0.0326761;-0.00502369;0.0188499;0.151465;6.60217;0.0236373;0.0251332;6.5044;0.153742;93.1827;138.183;-0.00400707;-0.00493495;0.00482368;-0.00108264;0.0325788;0.00516725;0.0513989;0;0.0551933;8.04714;2.31778
500000;501;25.0865;0.892355;0.0368831;-2.37524;24.9546;-0.979193;-0.202843;0.858669;-0.825489;-0.241535;-1.43073;-0.337905;1.4898;-5.74531;-0.00313246;0.00442588;0.0397749;0.0402267;-0.00358424;0.0219055;0.0787548;12.6976;0.0280889;0.0292073;11.2232;0.0891009;88.804;133.804;-0.0134833;-0.00312369;0.00753404;0.00144594;0.0397571;0.0159759;0.0275417;0;0.0872133;-0.441147;-2.32575;-1.15956;2.63596;-6.73804;-0.00482632;0.00191328;0.0326645;0.0327619;-0.00492371;0.0188428;0.147754;6.76799;0.0236539;0.0251237;6.6539;0.150288;92.3299;137.33;-0.00408639;-0.00482469;0.00457469;-0.000651523;0.0326561;0.00693543;0.0508295;0;0.055965;8.04993;2.32492
501000;502;25.0936;0.899464;0.037177;-2.37615;24.9616;-0.978815;-0.203745;0.865744;-0.825111;-0.241156;-1.4308;-0.334744;1.48909;-5.74215;-0.00314893;0.00475959;0.0403619;0.0408764;-0.00366349;0.02227;0.0780173;12.8177;0.0285506;0.0296933;11.1578;0.0896234;88.1798;133.18;-0.0141097;-0.00313941;0.00772237;0.00192068;0.0403441;0.0129306;0.0246672;0;0.0819899;-0.441743;-2.33288;-1.15868;2.64197;-6.73716;-0.00482971;0.00200601;0.0330861;0.033192;-0.00493555;0.0190638;0.145974;6.85054;0.0239433;0.0254184;6.72508;0.148697;92.147;137.147;-0.00452181;-0.00482785;0.00466813;-0.000558417;0.0330775;0.00388916;0.0468872;0;0.0562115;8.06104;2.33268
502000;503;25.1088;0.914734;0.0378081;-2.37427;24.9778;-0.963298;-0.201869;0.881877;-0.809594;-0.240473;-1.4289;-0.33515;1.48725;-5.74256;-0.00289786;0.00478055;0.0405362;0.0410561;-0.0034178;0.022237;0.0714882;13.9883;0.0285782;0.0296493;12.0124;0.0832471;88.2838;133.284;-0.0121475;-0.00288805;0.00787649;0.00181381;0.0405173;0.0166967;0.0273367;0;0.085665;-0.441875;-2.33973;-1.16091;2.64902;-6.73938;-0.00497886;0.00168358;0.0327386;0.0328136;-0.00505386;0.0189337;0.152079;6.57551;0.0237403;0.0252449;6.49277;0.154017;92.9328;137.933;-0.00462255;-0.00497793;0.00446206;-0.000993431;0.0327303;0.00511597;0.0453851;0;0.0550839;8.06353;2.34021
503000;504;25.1094;0.915295;0.0378313;-2.3778;24.9774;-0.979799;-0.205403;0.881463;-0.826095;-0.240365;-1.42653;-0.344117;1.48701;-5.75153;-0.00324452;0.00457875;0.0409923;0.0414613;-0.00371347;0.0225874;0.0791495;12.6343;0.0289581;0.0301165;11.1651;0.0895649;88.3373;133.337;-0.0154351;-0.00323565;0.00747022;0.00181011;0.0409756;0.0172271;0.0242368;0;0.0814028;-0.442675;-2.34712;-1.16804;2.6588;-6.75;-0.00451202;0.00173602;0.0317679;0.0318508;-0.0045949;0.0182228;0.142031;7.04072;0.0229195;0.0242971;6.93176;0.144264;92.0611;137.061;-0.00377797;-0.00451066;0.00411188;-0.000556305;0.0317611;0.0102316;0.0386252;0;0.0547958;8.06436;2.34513
504000;505;25.1245;0.930377;0.0384547;-2.37501;24.9934;-0.965205;-0.202606;0.897459;-0.811501;-0.239875;-1.42739;-0.336176;1.48594;-5.74359;-0.00295158;0.00502016;0.0413925;0.0419538;-0.0035128;0.0227333;0.071307;14.0239;0.0292106;0.030311;11.9431;0.0837304;87.8457;132.846;-0.0132848;-0.00294131;0.00799404;0.00217288;0.041374;0.0167665;0.0260374;0;0.088603;-0.44271;-2.35464;-1.16337;2.66341;-6.74534;-0.0044543;0.00159005;0.0316941;0.0317639;-0.00452411;0.018144;0.140541;7.11539;0.0228339;0.024192;7.02103;0.142429;92.5909;137.591;-0.00354109;-0.0044534;0.00412124;-0.000852452;0.0316871;0.00946023;0.0399559;0;0.0512789;8.0674;2.35002
505000;506;25.1338;0.939717;0.0388407;-2.37603;25.0026;-0.965217;-0.203626;0.906751;-0.811513;-0.239853;-1.42605;-0.338056;1.48507;-5.74547;-0.00304198;0.0046526;0.0422141;0.0426874;-0.00351535;0.0231014;0.0720609;13.8771;0.0296995;0.0308018;12.1432;0.0823509;88.4805;133.48;-0.0118993;-0.00303259;0.00773306;0.00170587;0.0421957;0.015736;0.0252528;0;0.0881881;-0.443699;-2.36168;-1.16415;2.67014;-6.74263;-0.00498217;0.00158278;0.0333778;0.033443;-0.00504736;0.0192452;0.149266;6.69946;0.0241542;0.0256602;6.62584;0.150924;91.8009;136.801;-0.00545969;-0.00498102;0.00372852;-0.000483325;0.0333723;0.00730438;0.0484216;0;0.0513086;8.07573;2.35646
506000;507;25.1419;0.947738;0.0391723;-2.37733;25.0104;-0.969282;-0.204926;0.914533;-0.815578;-0.239091;-1.42412;-0.343018;1.48423;-5.75043;-0.00339465;0.00483333;0.042086;0.042594;-0.00390263;0.0232483;0.0806598;12.3977;0.0297822;0.0309978;10.9142;0.0916238;88.3242;133.324;-0.0130085;-0.00338474;0.00790008;0.00190038;0.0420673;0.0149426;0.0285987;0;0.0849515;-0.443413;-2.36766;-1.17136;2.67853;-6.74984;-0.00474074;0.00177785;0.0340767;0.034158;-0.004822;0.01949;0.13912;7.18806;0.0245378;0.0259866;7.08378;0.141168;91.576;136.576;-0.00548692;-0.00473922;0.00401411;-0.000374482;0.0340705;0.00712603;0.0522775;0;0.0587177;8.07879;2.36294
507000;508;25.1503;0.956165;0.0395206;-2.37851;25.0188;-0.969625;-0.206107;0.922878;-0.815921;-0.239572;-1.42355;-0.342741;1.4837;-5.75015;-0.00328529;0.00502347;0.0433663;0.0439011;-0.00382009;0.0238606;0.0757566;13.2002;0.0306203;0.0318141;11.4922;0.0870157;87.9742;132.974;-0.0103295;-0.00327501;0.00800066;0.00217936;0.0433477;0.00935579;0.0240748;0;0.0841223;-0.444937;-2.37543;-1.17132;2.68563;-6.7498;-0.00471822;0.00204952;0.0350529;0.0351582;-0.00482356;0.0199909;0.134603;7.42926;0.025201;0.0266545;7.28886;0.137196;91.6996;136.7;-0.00485785;-0.0047162;0.00461623;-0.000418588;0.0350446;0.00560515;0.0521153;0;0.061077;8.07903;2.3702
508000;509;25.1605;0.966394;0.0399434;-2.37662;25.0295;-0.962746;-0.204217;0.933606;-0.809042;-0.237505;-1.42191;-0.340279;1.48123;-5.74769;-0.00360147;0.00498807;0.0438061;0.0443252;-0.00412061;0.0242229;0.0822138;12.1634;0.0310151;0.0322972;10.757;0.0929631;88.2087;133.209;-0.0149894;-0.00359112;0.00805017;0.00206501;0.043787;0.0238042;0.024951;0;0.0865236;-0.443057;-2.38002;-1.17175;2.68957;-6.75022;-0.00436726;0.00200151;0.0350691;0.0351705;-0.00446858;0.0198195;0.124533;8.03001;0.0250696;0.026426;7.87061;0.127055;91.5067;136.507;-0.00401368;-0.00436532;0.00446439;-0.000367546;0.0350614;0.00441925;0.0481249;0;0.0637963;8.08173;2.3789
509000;510;25.1642;0.970079;0.0400957;-2.37986;25.0326;-0.971618;-0.20746;0.93666;-0.817914;-0.238885;-1.42279;-0.337995;1.48177;-5.7454;-0.00298182;0.00480032;0.0436172;0.0441066;-0.00347118;0.0237889;0.0683635;14.6277;0.0306271;0.0317185;12.7065;0.0786999;87.9396;132.94;-0.0100615;-0.00297253;0.00760015;0.00212547;0.0436006;0.0181526;0.0269102;0;0.0875816;-0.445852;-2.38809;-1.17206;2.69731;-6.75053;-0.00457527;0.00207548;0.0351843;0.0352923;-0.00468332;0.0199878;0.130037;7.6901;0.0252346;0.0266504;7.53575;0.132701;91.4356;136.436;-0.00400168;-0.00457315;0.00453741;-0.000291904;0.0351764;0.00612075;0.0465067;0;0.0596501;8.08851;2.38576
510000;511;25.1757;0.981595;0.0405716;-2.37936;25.0446;-0.960733;-0.206957;0.948703;-0.807029;-0.238872;-1.41853;-0.345145;1.47933;-5.75255;-0.0033859;0.0049882;0.0450491;0.0455575;-0.00389429;0.0247259;0.0751603;13.3049;0.0317495;0.0329678;11.6985;0.0854808;88.343;133.343;-0.012008;-0.00337533;0.0081744;0.00194963;0.045029;0.0116719;0.0236586;0;0.081566;-0.446581;-2.39382;-1.17737;2.70481;-6.75585;-0.00453784;0.00205735;0.0353434;0.0354492;-0.00464369;0.0200464;0.128393;7.78859;0.025323;0.0267286;7.63385;0.130996;91.8558;136.856;-0.00425207;-0.00453586;0.00475581;-0.000537188;0.0353345;0.00739253;0.0434898;0;0.0594855;8.08996;2.39248
511000;512;25.1848;0.990636;0.0409453;-2.38071;25.0534;-0.963704;-0.208306;0.95755;-0.81;-0.236767;-1.4168;-0.344077;1.47708;-5.75179;-0.00341583;0.00483711;0.0454017;0.0458764;-0.0038905;0.0248835;0.0752356;13.2916;0.0319601;0.0331779;11.7919;0.0848039;88.9808;133.981;-0.012088;-0.00340515;0.00838106;0.0014586;0.0453793;0.0183999;0.0207801;0;0.0777216;-0.446478;-2.40121;-1.18136;2.71307;-6.76332;-0.00424407;0.00195468;0.0347308;0.0348286;-0.00434186;0.0195852;0.122199;8.18337;0.0247934;0.0261136;8.02158;0.124664;90.8425;135.842;-0.00376301;-0.00424216;0.00400706;-2.04023e-05;0.0347249;0.00864309;0.0397696;0;0.0630083;8.10025;2.39973
512000;513;25.1905;0.996371;0.0411824;-2.37851;25.0589;-0.977535;-0.206106;0.962988;-0.823831;-0.237392;-1.41978;-0.339219;1.47892;-5.74663;-0.00307598;0.0053906;0.0449792;0.0455765;-0.00367324;0.0246249;0.0683866;14.6228;0.0316798;0.0328332;12.4077;0.0805951;87.4245;132.425;-0.0114489;-0.0030649;0.00827117;0.00264246;0.0449604;0.0147394;0.0247268;0;0.0851615;-0.447234;-2.41208;-1.17537;2.72022;-6.75733;-0.00424911;0.00186382;0.0342323;0.0343223;-0.00433917;0.0193307;0.124126;8.05634;0.0244566;0.0257743;7.90988;0.126424;91.398;136.398;-0.00336934;-0.00424742;0.00413409;-0.00032199;0.0342257;0.0104043;0.043487;0;0.0601901;8.0985;2.40656
513000;514;25.2;1.00588;0.0415752;-2.38099;25.0684;-0.971647;-0.20859;0.972536;-0.817943;-0.237203;-1.41902;-0.339265;1.47817;-5.74698;-0.00317204;0.00491591;0.0461816;0.0466665;-0.00365693;0.0251617;0.0686863;14.5589;0.0323988;0.0335489;12.7611;0.0783631;88.8368;133.837;-0.0103817;-0.00316111;0.00845604;0.00154272;0.0461589;0.0143147;0.0232403;0;0.0777203;-0.447689;-2.41974;-1.17863;2.7285;-6.76069;-0.00486628;0.00145491;0.0349386;0.0349917;-0.00491938;0.0199556;0.139281;7.17975;0.0251287;0.0266074;7.11303;0.140587;92.0393;137.039;-0.00424939;-0.00486547;0.00371427;-0.000717554;0.034933;0.00576514;0.0514841;0;0.0686691;8.10046;2.41357
514000;515;25.2087;1.01454;0.0419335;-2.38228;25.0771;-0.96842;-0.209874;0.981252;-0.814716;-0.2362;-1.41534;-0.340944;1.47486;-5.74866;-0.00281105;0.00518869;0.0470824;0.0476163;-0.00334493;0.0254806;0.0597048;16.7491;0.0329159;0.0339742;14.2354;0.0702476;88.6157;133.616;-0.00801325;-0.002799;0.00885277;0.00169914;0.0470578;0.00502061;0.0245029;0;0.077888;-0.447006;-2.42365;-1.18017;2.73253;-6.75864;-0.00459967;0.00198431;0.0367604;0.0368554;-0.00469465;0.020775;0.125126;7.99197;0.0262753;0.0277;7.85051;0.12738;91.0971;136.097;-0.0063804;-0.0045977;0.00423133;-0.000173085;0.0367537;0.0080844;0.0582116;0;0.0593448;8.10118;2.4187
515000;516;25.2154;1.0213;0.0422127;-2.38159;25.0838;-0.973027;-0.209191;0.98793;-0.819323;-0.235638;-1.4141;-0.343657;1.47421;-5.75137;-0.0035256;0.00412575;0.0475891;0.04792;-0.00385647;0.0258882;0.0740841;13.4982;0.0333067;0.0345176;12.4259;0.0804772;90.3532;135.353;-0.0109438;-0.0035171;0.00814548;0.000302098;0.0475656;0.0146714;0.0232483;0;0.0684663;-0.447175;-2.42951;-1.1846;2.73966;-6.76307;-0.00435035;0.00195355;0.0374463;0.0375375;-0.00444146;0.0209895;0.116176;8.60766;0.0266292;0.0279859;8.4516;0.118321;91.3923;136.392;-0.00333705;-0.00434851;0.00440495;-0.00039909;0.0374388;0.00376946;0.0474614;0;0.061146;8.1077;2.42255
516000;517;25.2223;1.02821;0.0424983;-2.38151;25.0904;-0.982422;-0.209111;0.994517;-0.828718;-0.235486;-1.41207;-0.350222;1.47379;-5.75778;-0.00298772;0.00474169;0.0478614;0.0482998;-0.0034261;0.025863;0.0624243;16.0194;0.0334005;0.0344839;14.0976;0.070934;88.9386;133.939;-0.00812629;-0.00297745;0.00823168;0.001421;0.0478398;0.00787281;0.021457;0;0.0797732;-0.44805;-2.43521;-1.19277;2.7484;-6.77124;-0.00433752;0.00217422;0.037524;0.0376366;-0.00445014;0.0210434;0.115593;8.65102;0.0266984;0.0280578;8.45739;0.11824;90.6007;135.601;-0.00458433;-0.00433515;0.00432856;0.0001068;0.0375172;0.00499419;0.0499902;0;0.0640692;8.11134;2.42926
517000;518;25.2309;1.03677;0.0428522;-2.38411;25.0991;-0.974703;-0.211705;1.00318;-0.820999;-0.23563;-1.41298;-0.344525;1.47334;-5.75209;-0.00343606;0.00493267;0.0476483;0.0481202;-0.00390799;0.0260141;0.0721129;13.8671;0.033459;0.0346855;12.3133;0.0812131;88.5236;133.524;-0.00635946;-0.00342556;0.00817896;0.00184462;0.0476279;0.00414135;0.0257634;0;0.0767036;-0.448947;-2.44375;-1.19255;2.75602;-6.77461;-0.00411958;0.0020981;0.0362308;0.0363396;-0.00422838;0.020284;0.113704;8.79479;0.0257519;0.0270453;8.59422;0.116357;90.7662;135.766;-0.00362776;-0.00411737;0.00427971;1.43153e-06;0.0362241;0.00715276;0.0491171;0;0.066419;8.11655;2.4356
518000;519;25.2395;1.0454;0.043209;-2.38474;25.1079;-0.968886;-0.212343;1.01202;-0.815182;-0.234962;-1.41065;-0.344245;1.47093;-5.75196;-0.00314986;0.0048379;0.0489711;0.0494163;-0.00359512;0.0265057;0.0643209;15.547;0.0342056;0.0353409;13.7454;0.0727516;89.4585;134.459;-0.0086313;-0.00313867;0.00883227;0.00104194;0.048945;0.00833537;0.0212169;0;0.0740886;-0.449071;-2.45106;-1.18979;2.76134;-6.77185;-0.00418942;0.00173264;0.0368591;0.0369321;-0.00426243;0.0205973;0.113661;8.79812;0.0261582;0.027463;8.66456;0.115413;91.6454;136.645;-0.00474717;-0.00418809;0.00414839;-0.000587484;0.0368522;0.00817035;0.046517;0;0.0618381;8.10929;2.44258
519000;520;25.245;1.05089;0.0434356;-2.38529;25.1131;-0.977217;-0.212887;1.01716;-0.823513;-0.234928;-1.40954;-0.345347;1.47013;-5.75306;-0.00325403;0.00470222;0.0488072;0.0492285;-0.00367533;0.0264519;0.0666711;14.999;0.0341102;0.0352692;13.3943;0.0746586;89.1109;134.111;-0.0105392;-0.00324382;0.0082568;0.00132404;0.0487852;0.00946533;0.0212857;0;0.0767042;-0.450074;-2.4572;-1.19107;2.7675;-6.77313;-0.00439697;0.00160146;0.0372338;0.0372953;-0.00445848;0.0208769;0.118091;8.46806;0.0264751;0.0278359;8.36502;0.119545;92.0567;137.057;-0.00455559;-0.00439604;0.00415095;-0.000845714;0.0372267;0.00626108;0.0463921;0;0.0601423;8.11558;2.44985
520000;521;25.253;1.05886;0.0437653;-2.38678;25.1209;-0.978395;-0.214381;1.02499;-0.824691;-0.235797;-1.41068;-0.339132;1.46991;-5.74672;-0.00331087;0.00401647;0.0493556;0.0496602;-0.00361541;0.0266378;0.0670819;14.9072;0.0343754;0.0355171;13.7357;0.072803;90.1863;135.186;-0.00971027;-0.00330284;0.00786324;0.000362703;0.0493339;0.0148509;0.0241338;0;0.0847847;-0.451565;-2.46619;-1.19074;2.77558;-6.77462;-0.00458187;0.00129154;0.036207;0.0362478;-0.00462272;0.0204353;0.126547;7.90223;0.0258443;0.027247;7.84123;0.127531;92.6639;137.664;-0.00179264;-0.00458174;0.00387293;-0.00118824;0.0362005;0.00610875;0.0487273;0;0.0602829;8.12279;2.45762
521000;522;25.2602;1.06612;0.0440653;-2.38468;25.1277;-0.995856;-0.212281;1.0318;-0.842152;-0.2348;-1.40641;-0.35154;1.46857;-5.75919;-0.00330081;0.00480086;0.0501881;0.0506156;-0.00372829;0.0271719;0.0657687;15.2048;0.0350526;0.0362292;13.5761;0.0736589;88.9558;133.956;-0.00708656;-0.00329034;0.00830047;0.00147944;0.0501663;0.00420967;0.0164655;0;0.0916278;-0.451486;-2.47181;-1.20209;2.78545;-6.78597;-0.00444424;0.00151397;0.0367944;0.0368499;-0.00449975;0.0206748;0.120786;8.27912;0.0261957;0.0275664;8.18933;0.12211;91.4733;136.473;-0.00131329;-0.00444322;0.00361673;-0.000505158;0.0367892;0.00776596;0.0521143;0;0.0646208;8.13347;2.46468
522000;523;25.2682;1.0741;0.0443952;-2.38609;25.1356;-0.994935;-0.21369;1.03972;-0.841231;-0.235171;-1.40605;-0.348313;1.46752;-5.75575;-0.00327681;0.00489415;0.0498839;0.0503307;-0.00372363;0.0270272;0.0656888;15.2233;0.0348613;0.0360362;13.5166;0.0739833;88.5055;133.505;-0.00981881;-0.00326653;0.00809138;0.00185877;0.0498641;0.00822456;0.0207627;0;0.0856419;-0.452813;-2.48002;-1.19778;2.79109;-6.78166;-0.00456237;0.0013489;0.0373418;0.0373852;-0.00460575;0.0209955;0.122179;8.18473;0.026592;0.027994;8.11707;0.123197;92.0291;137.029;-0.00115516;-0.00456184;0.00366058;-0.000869414;0.0373362;0.00877644;0.0579069;0;0.0659883;8.13416;2.47223
523000;524;25.2757;1.08162;0.0447057;-2.38575;25.1431;-0.998647;-0.213352;1.04716;-0.844943;-0.234954;-1.40527;-0.34613;1.46622;-5.75372;-0.0032077;0.00397819;0.0512739;0.0515629;-0.00349665;0.0275298;0.0625601;15.9846;0.0355981;0.0367063;14.7463;0.0678134;90.286;135.286;-0.0128897;-0.00319979;0.00792704;0.000233923;0.0512516;0.0147503;0.0225395;0;0.0832797;-0.452675;-2.48526;-1.19854;2.79606;-6.77701;-0.00424449;0.00219496;0.0399556;0.0400643;-0.00435322;0.0222088;0.10623;9.41351;0.0282725;0.0296117;9.20336;0.108656;90.5646;135.565;-0.00414896;-0.00424207;0.00440981;7.42391e-05;0.0399485;0.00481551;0.0539539;0;0.0681073;8.13448;2.47976
524000;525;25.2862;1.09209;0.0451387;-2.38902;25.1538;-0.985889;-0.216616;1.05789;-0.832185;-0.234374;-1.40232;-0.350711;1.46439;-5.7583;-0.00330696;0.00386497;0.0521315;0.0523997;-0.00357512;0.0279874;0.063435;15.7642;0.0361837;0.0373165;14.6568;0.0682279;90.4016;135.402;-0.0139378;-0.00329948;0.00781522;0.000122822;0.0521096;0.0178452;0.015369;0;0.0873187;-0.453258;-2.49053;-1.20327;2.80286;-6.78174;-0.00429786;0.00223757;0.0403191;0.040431;-0.0044098;0.0224204;0.106596;9.38119;0.0285377;0.0298939;9.16845;0.10907;90.2981;135.298;-0.00457043;-0.00429538;0.00431427;0.000249926;0.0403125;0.00601714;0.0579028;0;0.0737036;8.13527;2.48769
525000;526;25.295;1.10091;0.0455031;-2.39106;25.1625;-0.985658;-0.218662;1.06656;-0.831954;-0.23373;-1.39971;-0.354429;1.46268;-5.76202;-0.00343641;0.00350032;0.0526322;0.0528499;-0.00365409;0.028252;0.065291;15.316;0.0365123;0.0376693;14.4632;0.0691409;90.8303;135.83;-0.0109628;-0.0034303;0.00749953;-0.000285922;0.0526113;0.0164411;0.0221986;0;0.0873309;-0.453823;-2.49617;-1.20743;2.80975;-6.78591;-0.0040361;0.00260581;0.0400653;0.0402188;-0.00418953;0.0222042;0.100738;9.92675;0.0283125;0.0296055;9.59982;0.104169;89.5808;134.581;-0.00490875;-0.00403297;0.0045426;0.000751132;0.0400587;0.00497273;0.0526094;0;0.0721405;8.13758;2.49346
526000;527;25.3016;1.10744;0.0457733;-2.39116;25.1691;-0.984119;-0.218758;1.07319;-0.830416;-0.233156;-1.39953;-0.353368;1.46216;-5.76096;-0.00356697;0.00372045;0.0525138;0.0527595;-0.00381272;0.0282861;0.0679246;14.7222;0.0365103;0.0377148;13.8378;0.072266;90.6714;135.671;-0.0129298;-0.00356003;0.00775567;-9.98173e-05;0.0524918;0.019037;0.0211799;0;0.0862897;-0.453935;-2.50311;-1.20848;2.81639;-6.78696;-0.00406555;0.00219759;0.0408776;0.0409848;-0.00417275;0.0225788;0.0994567;10.0546;0.028815;0.0301051;9.82201;0.101812;90.2744;135.274;-0.00505115;-0.00406316;0.00425684;0.000227244;0.0408713;0.00712894;0.0551352;0;0.0736277;8.14132;2.49759
527000;528;25.3079;1.11379;0.0460356;-2.39239;25.1752;-0.988907;-0.219992;1.07926;-0.835203;-0.232891;-1.40079;-0.350608;1.46266;-5.75683;-0.00360528;0.00464309;0.0522898;0.0526729;-0.00398835;0.0283306;0.0689481;14.5037;0.0365174;0.0377742;13.2067;0.0757192;89.1456;134.146;-0.0109434;-0.00359538;0.008118;0.0013527;0.0522687;0.0131101;0.0207149;0;0.0952737;-0.454069;-2.51159;-1.20539;2.82262;-6.78387;-0.00417326;0.00202618;0.0412209;0.0413111;-0.00426352;0.0227873;0.101241;9.87738;0.0290663;0.0303831;9.68944;0.103205;90.8001;135.8;-0.00402745;-0.00417121;0.00429272;-0.00014155;0.041214;0.00282336;0.0464826;0;0.0733762;8.14381;2.50359
528000;529;25.3174;1.12333;0.04643;-2.39363;25.1847;-0.988384;-0.221233;1.08876;-0.83468;-0.233259;-1.3979;-0.357341;1.46158;-5.76357;-0.00340991;0.00447833;0.0521742;0.0525327;-0.00376841;0.0281505;0.0653563;15.3007;0.0363431;0.037534;13.9403;0.0717347;89.1007;134.101;-0.0101952;-0.00340075;0.0077905;0.00134109;0.0521548;0.0151203;0.0245262;0;0.0903288;-0.455721;-2.51826;-1.21252;2.83188;-6.79099;-0.00395733;0.0019604;0.0406513;0.0407373;-0.00404332;0.0223903;0.0973482;10.2724;0.0286014;0.0298537;10.0752;0.0992535;90.6554;135.655;-0.00353235;-0.0039554;0.00407992;-6.82697e-05;0.0406451;0.00310297;0.044812;0;0.065425;8.1492;2.50847
529000;530;25.324;1.12987;0.0467002;-2.39344;25.191;-0.993827;-0.221034;1.09513;-0.840123;-0.231975;-1.39693;-0.354297;1.45971;-5.76052;-0.00348219;0.00436032;0.0523453;0.0526838;-0.00382069;0.0282523;0.0665234;15.0323;0.0364629;0.0376697;13.7891;0.0725212;89.2263;134.226;-0.0117401;-0.00347341;0.0076686;0.00122751;0.0523264;0.0222808;0.0252296;0;0.0921169;-0.455549;-2.52572;-1.21324;2.8388;-6.79521;-0.00367409;0.00247219;0.041073;0.0412092;-0.00381026;0.0225097;0.0894527;11.1791;0.0288269;0.030013;10.8153;0.0924614;89.1094;134.109;0.000155747;-0.00367153;0.00401264;0.000997941;0.0410682;0.00380082;0.0449269;0;0.0729412;8.15058;2.51637
530000;531;25.3312;1.13713;0.0470004;-2.39397;25.198;-1.00112;-0.22157;1.10209;-0.847416;-0.231796;-1.3956;-0.354385;1.45843;-5.76061;-0.00327021;0.00434197;0.0531167;0.0534491;-0.0036026;0.0285258;0.0615666;16.2426;0.0368923;0.0380344;14.8363;0.0674025;89.2792;134.279;-0.010188;-0.00326142;0.00771123;0.00115306;0.0530974;0.0137877;0.0264446;0;0.0927529;-0.455912;-2.53256;-1.21128;2.8441;-6.78975;-0.00420293;0.00227781;0.041706;0.0418188;-0.00431567;0.0230672;0.100775;9.92308;0.0294234;0.0307563;9.68999;0.103199;89.7167;134.717;-0.00218262;-0.00420051;0.00402139;0.000611057;0.0417007;0.000236149;0.0524752;0;0.0718419;8.15282;2.5232
531000;532;25.3417;1.14763;0.0474341;-2.39601;25.2086;-0.995216;-0.223607;1.11268;-0.841512;-0.231638;-1.39462;-0.355343;1.4577;-5.76157;-0.00349254;0.00433909;0.0532959;0.0536255;-0.00382217;0.0287238;0.0655312;15.2599;0.0370901;0.0382985;14.0301;0.0712752;89.3555;134.356;-0.0116316;-0.00348372;0.00774609;0.00111574;0.0532763;0.0171119;0.0260978;0;0.0923225;-0.45669;-2.53911;-1.2137;2.85109;-6.79217;-0.00406999;0.00242611;0.042171;0.0422979;-0.00419693;0.0232474;0.0965115;10.3615;0.0296966;0.0309966;10.0783;0.099223;89.6144;134.614;-0.0024103;-0.00406727;0.00423979;0.000692903;0.0421652;-0.000147029;0.0549142;0;0.0743032;8.15801;2.53068
532000;533;25.3481;1.15401;0.0476978;-2.3931;25.2146;-1.01228;-0.220697;1.11869;-0.858572;-0.230813;-1.39162;-0.35893;1.45558;-5.7662;-0.00352945;0.0039079;0.0535521;0.0538184;-0.00379575;0.0288071;0.0659069;15.1729;0.0372088;0.0384094;14.1786;0.0705289;89.7708;134.771;-0.0134941;-0.00352203;0.0073021;0.000697557;0.053534;0.0154918;0.0319987;0;0.0960613;-0.456644;-2.54439;-1.22076;2.85879;-6.79923;-0.00394381;0.0023983;0.0423808;0.0425047;-0.00406764;0.0232862;0.0930565;10.7462;0.0297851;0.0310482;10.4495;0.0956987;90.0787;135.079;-0.00321424;-0.00394099;0.00452848;0.000362786;0.0423738;0.00521267;0.054655;0;0.0740435;8.16187;2.53779
533000;534;25.3568;1.16268;0.0480563;-2.39699;25.2233;-1.00293;-0.224589;1.12742;-0.849223;-0.231207;-1.3923;-0.355389;1.45542;-5.76161;-0.00403622;0.00401477;0.054819;0.0550916;-0.00430882;0.0297002;0.0736281;13.5818;0.038245;0.0396003;12.7858;0.0782119;89.9125;134.913;-0.013692;-0.00402834;0.00758632;0.000642459;0.0547994;0.0230303;0.0263744;0;0.0910665;-0.457763;-2.55193;-1.22196;2.8662;-6.80043;-0.00368835;0.00259718;0.0417998;0.0419476;-0.00383616;0.0228919;0.0882385;11.3329;0.0293275;0.0305225;10.9348;0.0914512;89.2132;134.213;-0.00384627;-0.00368542;0.0043135;0.000955797;0.0417941;0.00634828;0.0469391;0;0.0787691;8.16326;2.54577
534000;535;25.3636;1.16947;0.0483371;-2.3975;25.23;-1.00511;-0.225094;1.13411;-0.851407;-0.230612;-1.38972;-0.359281;1.45382;-5.76656;-0.00354887;0.00365483;0.0545821;0.054811;-0.00377776;0.0292944;0.0650189;15.3801;0.0378628;0.0390592;14.5089;0.0689233;90.0892;135.089;-0.0173142;-0.00354224;0.00712443;0.000376445;0.0545644;0.0244106;0.0294451;0;0.100069;-0.458322;-2.55904;-1.2239;2.87344;-6.80237;-0.00362036;0.00236232;0.0424392;0.04256;-0.0037412;0.0231506;0.0853069;11.7224;0.0296991;0.0308675;11.376;0.087904;89.8002;134.8;-0.00220253;-0.00361769;0.00429543;0.000514609;0.042433;0.00262886;0.043496;0;0.0773226;8.16765;2.55266
535000;536;;;;;;;;;;-0.230462;-1.38769;-0.359102;1.45181;-5.76636;-0.00350679;0.00412838;0.0549729;0.0552629;-0.0037968;0.0295298;0.0637913;15.6761;0.0381705;0.0393731;14.5551;0.0687043;89.4146;134.415;-0.01349;-0.00349879;0.00739766;0.00104028;0.054955;0.0244066;0.0358159;0;0.105013;-0.459518;-2.56742;-1.22699;2.88241;-6.81484;-0.00344445;0.00225302;0.0421618;0.0422728;-0.00355548;0.0229141;0.081696;12.2405;0.0294387;0.0305522;11.8895;0.084108;88.9298;133.93;-0.00337933;-0.00344248;0.00348781;0.00107225;0.0421583;0.00116668;0.0419187;0;0.0769454;8.17061;2.56022
536000;537;;;;;;;;;;-0.230785;-1.38727;-0.356479;1.45081;-5.76341;-0.00356798;0.00434532;0.0550697;0.0553899;-0.00388824;0.0296391;0.0647903;15.4344;0.0382886;0.0395188;14.2455;0.0701976;89.0159;134.016;-0.0138508;-0.00355954;0.00742318;0.00143849;0.0550525;0.0221219;0.0322719;0;0.106864;-0.460438;-2.57643;-1.22599;2.89016;-6.8137;-0.00359457;0.00137764;0.041541;0.0415831;-0.00363658;0.0226098;0.0865306;11.5566;0.0290103;0.0301464;11.4347;0.0874535;91.911;136.911;-2.53458e-05;-0.00359417;0.00391487;-0.00104966;0.0415346;0.00114155;0.043898;0;0.0692325;8.17379;2.56692
537000;538;;;;;;;;;;-0.229744;-1.38534;-0.35771;1.44911;-5.76432;-0.00349292;0.00436419;0.0554106;0.0557322;-0.00381451;0.0297733;0.0630371;15.8637;0.0384893;0.0396978;14.6106;0.0684436;88.855;133.855;-0.010697;-0.00348462;0.00731132;0.0015815;0.0553943;0.020336;0.0282884;0;0.101723;-0.460173;-2.58137;-1.22928;2.89592;-6.81124;-0.00333066;0.00234096;0.0434097;0.0435266;-0.00344762;0.0234871;0.0767263;13.0333;0.0302326;0.0313162;12.6251;0.079207;89.2362;134.236;0.00111459;-0.0033283;0.00387378;0.000876799;0.0434051;0.000731349;0.0444386;0;0.0766295;8.17449;2.5738
538000;539;;;;;;;;;;-0.22944;-1.38361;-0.360676;1.44814;-5.76761;-0.00397822;0.00460094;0.055141;0.055497;-0.00433414;0.0299156;0.0721462;13.8607;0.038524;0.0398874;12.8046;0.0780969;88.9644;133.964;-0.0139828;-0.00396883;0.0078086;0.00157297;0.0551222;0.0163493;0.0334829;0;0.11091;-0.460277;-2.58805;-1.22873;2.90166;-6.80721;-0.00415223;0.00211201;0.0444648;0.0445564;-0.00424381;0.0244001;0.0933824;10.7087;0.0312152;0.0325335;10.4992;0.0952458;90.2086;135.209;-0.00190917;-0.00415002;0.00409583;0.000220534;0.0444589;-0.00272102;0.0497316;0;0.0759379;8.17782;2.57692
539000;540;;;;;;;;;;-0.229468;-1.38159;-0.359663;1.44596;-5.76692;-0.00395579;0.00447114;0.055894;0.0562262;-0.00428797;0.0302571;0.0707731;14.1297;0.0389921;0.0403427;13.1125;0.0762629;89.2335;134.233;-0.0124564;-0.00394662;0.00782149;0.00131064;0.0558745;0.0148418;0.0263876;0;0.102563;-0.461078;-2.59416;-1.23067;2.90806;-6.80995;-0.00413339;0.00249455;0.0449209;0.0450474;-0.00425992;0.0246537;0.0920149;10.8678;0.0315476;0.0328716;10.5747;0.0945653;89.0963;134.096;-0.00353075;-0.00413085;0.00398469;0.00107436;0.0449163;0.000177859;0.0540509;0;0.0807298;8.17914;2.5833
540000;541;;;;;;;;;;-0.229118;-1.37985;-0.361577;1.44473;-5.76851;-0.0034696;0.00473297;0.0568182;0.0571875;-0.0038389;0.0305132;0.0610649;16.376;0.0394669;0.0406843;14.8968;0.0671283;88.8396;133.84;-0.0118279;-0.00345973;0.00799647;0.00165561;0.0567985;0.0135539;0.0341084;0;0.104069;-0.461222;-2.59997;-1.23471;2.91497;-6.81318;-0.00379499;0.002641;0.0450726;0.0452149;-0.00393731;0.0245761;0.0841973;11.8769;0.0315377;0.0327682;11.4837;0.0870798;88.9016;133.902;-0.000730967;-0.00379223;0.00413885;0.00121319;0.0450677;-0.00263944;0.0558929;0;0.0844586;8.18275;2.59014
541000;542;;;;;;;;;;-0.228125;-1.37861;-0.363492;1.44386;-5.77075;-0.00345306;0.00383594;0.0568743;0.0571173;-0.00369599;0.0304066;0.0607138;16.4707;0.0393681;0.0405422;15.4538;0.0647088;89.6691;134.669;-0.0128063;-0.00344597;0.00709559;0.00076232;0.0568575;0.0239867;0.0293359;0;0.0995309;-0.461677;-2.60699;-1.23733;2.92242;-6.8158;-0.00371921;0.0028569;0.045254;0.0454201;-0.00388531;0.0246527;0.0821852;12.1676;0.0316548;0.0328703;11.6902;0.0855416;88.7138;133.714;-0.00210029;-0.00371607;0.00440625;0.00138014;0.0452486;0.00140632;0.0549458;0;0.087845;8.18491;2.5974
542000;543;;;;;;;;;;-0.228347;-1.37727;-0.363639;1.44265;-5.76849;-0.00399921;0.00361784;0.0571366;0.05735;-0.00421256;0.0307813;0.0699939;14.287;0.0397121;0.0410417;13.614;0.0734536;90.5398;135.54;-0.0178986;-0.00399264;0.00748092;-2.18735e-05;0.0571164;0.0167058;0.0320702;0;0.102715;-0.462763;-2.61389;-1.24304;2.93116;-6.8303;-0.00298915;0.00223976;0.0456071;0.0457101;-0.00309216;0.0244011;0.0655412;15.2576;0.0315547;0.0325349;14.7826;0.0676471;89.704;134.704;0.00373853;-0.00298676;0.00406175;0.000502441;0.0456016;0.00174792;0.047894;0;0.0888502;8.18891;2.60514
543000;544;;;;;;;;;;-0.227465;-1.37645;-0.36041;1.44092;-5.76692;-0.00349358;0.00436748;0.0581763;0.0584841;-0.00380135;0.0311427;0.0600516;16.6523;0.0403163;0.0415236;15.3851;0.064998;89.3386;134.339;-0.0111493;-0.00348467;0.00778677;0.00114741;0.0581567;0.0151938;0.0346748;0;0.0985355;-0.46226;-2.62144;-1.23816;2.93575;-6.81664;-0.00349183;0.00234879;0.0464454;0.0465556;-0.00360206;0.0250788;0.0751815;13.3012;0.0323048;0.0334385;12.9247;0.0773712;90.1355;135.135;-0.00225817;-0.00348909;0.00457045;0.000233134;0.0464381;-0.00269719;0.0485647;0;0.0896254;8.18884;2.61236
544000;545;;;;;;;;;;-0.227705;-1.37453;-0.362838;1.43973;-5.77025;-0.00327993;0.0043607;0.0583179;0.0586251;-0.00358711;0.0311061;0.0562422;17.7802;0.0403323;0.0414748;16.3433;0.0611872;89.3468;134.347;-0.0160482;-0.00327101;0.00780959;0.00111251;0.0582981;0.0223646;0.0352768;0;0.101886;-0.463442;-2.62943;-1.24388;2.94549;-6.82571;-0.00392513;0.00200613;0.0453822;0.0454637;-0.00400661;0.0247352;0.0864903;11.562;0.0317291;0.0329802;11.3472;0.0881277;90.7289;135.729;-0.00240793;-0.00392313;0.00432597;-0.00020431;0.0453752;-0.00211938;0.0556294;0;0.0757725;8.19261;2.6197
545000;546;;;;;;;;;;-0.22692;-1.37361;-0.365166;1.43932;-5.77291;-0.00352278;0.0042955;0.0583671;0.0586638;-0.00381949;0.0312417;0.0603555;16.5685;0.0404426;0.0416555;15.3591;0.0651081;89.6372;134.637;-0.0149381;-0.00351389;0.00795093;0.000853786;0.058346;0.0172962;0.033032;0;0.0987728;-0.464385;-2.63763;-1.2442;2.9531;-6.82617;-0.00351598;0.00234293;0.0462992;0.0464091;-0.00362593;0.0250175;0.0759405;13.1682;0.0322162;0.0333567;12.7992;0.0781297;88.9285;133.928;0.000155806;-0.00351388;0.00360634;0.00113966;0.0462956;-0.000316791;0.0439402;0;0.0771093;8.19619;2.62629
546000;547;;;;;;;;;;-0.228605;-1.37532;-0.351593;1.43784;-5.75689;-0.00321003;0.00449064;0.057798;0.0581268;-0.0035388;0.0308328;0.0555388;18.0054;0.039983;0.0411104;16.4255;0.0608808;89.1863;134.186;-0.0161988;-0.00320073;0.00790697;0.00127129;0.057778;0.0174884;0.0319129;0;0.096484;-0.466095;-2.64427;-1.23994;2.95751;-6.82191;-0.00347085;0.00249428;0.0469966;0.0471196;-0.00359383;0.0253567;0.0738532;13.5404;0.0326769;0.0338089;13.1113;0.0762704;88.8681;133.868;-5.43585e-05;-0.00346847;0.00384061;0.00121284;0.0469925;-0.00135435;0.0487116;0;0.0806374;8.19953;2.634
547000;548;;;;;;;;;;-0.227125;-1.37085;-0.360402;1.43551;-5.76714;-0.00338458;0.00470604;0.0587535;0.0591079;-0.00373897;0.0314234;0.0576064;17.3592;0.0407088;0.0418979;15.8086;0.0632567;88.9401;133.94;-0.0160734;-0.00337469;0.00804274;0.00156513;0.0587334;0.0193454;0.0340602;0;0.0961966;-0.4653;-2.64952;-1.24631;2.96475;-6.82479;-0.0039238;0.00273459;0.0471581;0.0473041;-0.00406978;0.0256869;0.0832053;12.0185;0.0329764;0.0342492;11.6233;0.0860344;88.7896;133.79;-0.00181121;-0.00392096;0.0041947;0.0013457;0.0471532;-0.00244064;0.0544567;0;0.083061;8.1991;2.64058
548000;549;;;;;;;;;;-0.225961;-1.36782;-0.365793;1.43381;-5.77205;-0.00319673;0.00431891;0.0589751;0.0592737;-0.00349532;0.0313845;0.0542048;18.4485;0.0407309;0.041846;16.958;0.0589692;89.0762;134.076;-0.00855994;-0.00318831;0.00745596;0.001366;0.0589576;0.0161353;0.0341582;0;0.0946447;-0.465586;-2.65576;-1.25003;2.97193;-6.82851;-0.00372604;0.00289271;0.0471829;0.0473468;-0.00388988;0.0256183;0.0789701;12.663;0.0329378;0.0341578;12.1718;0.0821573;88.1502;133.15;-0.00318836;-0.00372354;0.00399911;0.00184009;0.0471793;-0.000583443;0.0544384;0;0.0894553;8.20391;2.64736
549000;550;25.4888;1.2947;0.0535132;-2.40724;25.354;-1.02831;-0.234837;1.25814;-0.875608;-0.226418;-1.36893;-0.367605;1.43539;-5.7718;-0.00296583;0.00400516;0.0596361;0.0598913;-0.00322103;0.0315562;0.0497321;20.1077;0.0410433;0.0420749;18.5938;0.0537813;89.6887;134.689;-0.0130079;-0.00295803;0.00751658;0.000701144;0.059617;0.0084591;0.0375119;0;0.0969156;-0.465997;-2.66279;-1.25342;2.97971;-6.8319;-0.00345382;0.00283387;0.0474966;0.0476538;-0.00361095;0.0256324;0.0727171;13.7519;0.0330387;0.0341765;13.197;0.0757748;89.3561;134.356;-0.00321112;-0.00345019;0.00487642;0.000890665;0.0474891;0.00486551;0.0566971;0;0.0904267;8.2032;2.65156
550000;551;25.4937;1.29956;0.0537141;-2.40758;25.3586;-1.03582;-0.235183;1.2627;-0.88197;-0.224488;-1.36582;-0.36833;1.43232;-5.77403;-0.00303173;0.00442516;0.0601495;0.060458;-0.00334016;0.0318991;0.0504033;19.84;0.0414636;0.0425321;18.1003;0.0552477;89.235;134.235;-0.0121264;-0.00302265;0.00784536;0.00120875;0.0601297;0.0141988;0.0367263;0;0.0908328;-0.465972;-2.66949;-1.25789;2.98757;-6.8442;-0.00277344;0.00260151;0.0478223;0.0479557;-0.00290685;0.0254313;0.0579946;17.243;0.0329822;0.0339084;16.4975;0.0606152;89.3884;134.388;-0.00141478;-0.00277034;0.00452058;0.000775103;0.0478158;-0.00769781;0.055441;0;0.0923047;8.20719;2.65667
551000;552;25.506;1.31185;0.054222;-2.41016;25.3712;-1.02364;-0.237758;1.27529;-0.870787;-0.224852;-1.3673;-0.365235;1.43299;-5.76895;-0.00303956;0.00422217;0.0593915;0.0596758;-0.0033238;0.0314998;0.0511783;19.5395;0.0409368;0.0419997;17.9541;0.0556977;89.5476;134.548;-0.0127151;-0.003031;0.00778121;0.00087283;0.0593714;0.00495477;0.0424425;0;0.0996563;-0.466135;-2.67784;-1.25415;2.99349;-6.83582;-0.00328946;0.00276117;0.0491512;0.0492961;-0.00343444;0.0263653;0.0669253;14.942;0.0340667;0.0351537;14.3535;0.0696696;89.5369;134.537;-0.00343093;-0.0032859;0.00490222;0.000727114;0.0491433;-0.00946156;0.0552281;0;0.0899075;8.21055;2.66317
552000;553;25.5084;1.3143;0.0543233;-2.40923;25.3732;-1.03807;-0.236824;1.27726;-0.885368;-0.22578;-1.36414;-0.369913;1.43133;-5.7748;-0.00299077;0.00433104;0.0600224;0.0603187;-0.00328706;0.0318029;0.0498276;20.0692;0.0413517;0.0424039;18.3503;0.0544949;89.4308;134.431;-0.0110855;-0.00298186;0.00787656;0.000996237;0.060002;-0.000524333;0.041296;0;0.0946015;-0.467683;-2.68255;-1.26154;3.00105;-6.84002;-0.00395556;0.00270852;0.0498919;0.0500278;-0.00409145;0.0270596;0.0792826;12.6131;0.034796;0.0360795;12.2274;0.0817836;89.1281;134.128;-0.00350122;-0.00395249;0.00439513;0.0011084;0.0498862;0.00221414;0.0506421;0;0.0811684;8.2132;2.66986
553000;554;25.5236;1.32953;0.0549524;-2.41242;25.3885;-1.02887;-0.240017;1.29263;-0.876163;-0.224371;-1.36102;-0.375764;1.42966;-5.78112;-0.00313701;0.00432351;0.0601196;0.0604137;-0.00343115;0.0319224;0.0521795;19.1646;0.0414669;0.0425632;17.6074;0.0567942;89.4017;134.402;-0.0111919;-0.00312818;0.00781218;0.00104297;0.0600996;0.00709932;0.0395079;0;0.0980752;-0.468411;-2.69191;-1.26458;3.0108;-6.84895;-0.00328662;0.00272835;0.0491392;0.0492808;-0.00342823;0.0263545;0.066884;14.9513;0.0340542;0.0351394;14.375;0.0695652;88.1147;133.115;-7.94144e-05;-0.00328463;0.00364041;0.00186186;0.0491364;4.26131e-05;0.0511234;0;0.0836138;8.21535;2.67714
554000;555;25.5314;1.33725;0.0552718;-2.41213;25.396;-1.03617;-0.239731;1.30014;-0.882462;-0.224424;-1.35747;-0.375496;1.42621;-5.78342;-0.00327026;0.00413762;0.0608024;0.0610685;-0.00353635;0.0323024;0.0537851;18.5925;0.0419408;0.0430699;17.2688;0.0579079;89.4361;134.436;-0.00861545;-0.00326218;0.00747008;0.00100639;0.0607841;0.0139723;0.0397215;0;0.0904169;-0.46937;-2.69754;-1.2676;3.01726;-6.85197;-0.00313334;0.00258996;0.0495178;0.0496449;-0.00326043;0.0264527;0.063277;15.8035;0.0342352;0.0352702;15.2265;0.0656751;88.5764;133.576;-0.000933443;-0.00313106;0.00376835;0.00147068;0.0495142;0.00102092;0.0560692;0;0.0827395;8.21689;2.68427
555000;556;25.5434;1.34928;0.0557689;-2.4138;25.408;-1.0347;-0.241404;1.31213;-0.880999;-0.223856;-1.35564;-0.374682;1.42417;-5.78309;-0.00339967;0.00419414;0.0611484;0.0614198;-0.00367106;0.0325454;0.0555971;17.9866;0.0422234;0.0433939;16.7308;0.0597699;89.6899;134.69;-0.00861144;-0.00339115;0.0078398;0.000770197;0.0611277;0.00474968;0.0468991;0;0.0915789;-0.469382;-2.70296;-1.26705;3.02187;-6.84553;-0.00389277;0.00278416;0.0500776;0.0502208;-0.00403602;0.0271284;0.0777349;12.8642;0.0349037;0.0361712;12.4432;0.0803654;88.2928;133.293;-0.00202348;-0.00389049;0.00383281;0.0017894;0.0500743;-0.000491373;0.0553784;0;0.0893886;8.21827;2.69206
556000;557;25.5502;1.35612;0.0560516;-2.41516;25.4147;-1.03694;-0.242759;1.31878;-0.884237;-0.224184;-1.35652;-0.373283;1.42469;-5.77929;-0.00317983;0.00398922;0.0610401;0.061287;-0.00342668;0.0323568;0.052094;19.1961;0.0420468;0.0431424;17.8852;0.0559121;89.7676;134.768;-0.00866919;-0.00317205;0.00755088;0.000643084;0.0610207;-0.00309668;0.0490941;0;0.0973328;-0.470183;-2.7104;-1.26979;3.0298;-6.85057;-0.00363811;0.0028011;0.0499496;0.0500956;-0.00378413;0.0269399;0.0728357;13.7295;0.0347272;0.0359198;13.2383;0.0755383;88.3058;133.306;-0.0033539;-0.00363573;0.00389658;0.00176153;0.0499461;0.0040261;0.0629139;0;0.0956372;8.22529;2.69912
557000;558;25.5591;1.36501;0.0564189;-2.41672;25.4234;-1.03906;-0.244315;1.32749;-0.885356;-0.223257;-1.35294;-0.375955;1.42184;-5.78437;-0.00351238;0.00427527;0.0614985;0.0617784;-0.00379232;0.0327854;0.0571133;17.5091;0.0425061;0.0437138;16.2904;0.0613859;89.3537;134.354;-0.00661002;-0.00350385;0.00761923;0.00113606;0.0614797;0.00160855;0.0465388;0;0.0947279;-0.470569;-2.71672;-1.27088;3.03597;-6.84935;-0.0034646;0.00294888;0.050329;0.0504902;-0.00362576;0.027058;0.0688389;14.5267;0.0349315;0.0360773;13.9254;0.0718113;88.3175;133.317;-0.0042371;-0.0034618;0.00419209;0.00176933;0.0503248;0.00193915;0.058226;0;0.102313;8.22367;2.707
558000;559;25.567;1.37288;0.0567445;-2.41711;25.4315;-1.03402;-0.244709;1.33557;-0.881173;-0.223253;-1.35395;-0.374436;1.4224;-5.77997;-0.00369022;0.00473932;0.0610333;0.0613784;-0.00403541;0.0327069;0.0604624;16.5392;0.0423283;0.0436092;15.21;0.0657463;88.8139;133.814;-0.00663265;-0.00368049;0.00791542;0.00175691;0.0610143;-0.00544413;0.0452014;0;0.0978686;-0.471479;-2.72771;-1.27553;3.0479;-6.86906;-0.00253044;0.00237713;0.0482115;0.0483226;-0.00264156;0.0254821;0.0524862;19.0526;0.0331307;0.0339761;18.2932;0.054665;89.7841;134.784;-0.00275577;-0.00252769;0.00443863;0.000415414;0.0482048;-0.0010247;0.0574455;0;0.102378;8.22718;2.71418
559000;560;25.5751;1.381;0.0570801;-2.41891;25.4394;-1.03613;-0.246513;1.34347;-0.88328;-0.22303;-1.3509;-0.376223;1.41994;-5.78223;-0.00339628;0.00429852;0.0618667;0.0621486;-0.00367818;0.0329134;0.0548968;18.216;0.0427113;0.0438845;16.8965;0.0591837;89.5063;134.506;-0.00884658;-0.00338748;0.00784542;0.000969562;0.0618464;-0.00471367;0.0469294;0;0.103868;-0.471516;-2.73404;-1.27585;3.0537;-6.86443;-0.00306022;0.00244714;0.0500248;0.0501374;-0.00317279;0.0266551;0.0611739;16.3468;0.0345312;0.0355401;15.8023;0.0632818;90.3082;135.308;0.000307964;-0.00305721;0.00498853;3.42201e-05;0.0500158;-0.00703094;0.0616265;0;0.105109;8.23095;2.72126
560000;561;25.5818;1.38767;0.0573555;-2.41901;25.4458;-1.04208;-0.246607;1.34993;-0.888374;-0.223432;-1.34975;-0.373028;1.41806;-5.78095;-0.00362381;0.0046377;0.0629569;0.0632784;-0.0039453;0.0336118;0.0575602;17.3731;0.0435603;0.0448158;16.0389;0.0623483;88.869;133.869;-0.00160951;-0.00361447;0.00776833;0.00170312;0.0629386;0.00294841;0.0409702;0;0.084414;-0.473279;-2.74034;-1.27461;3.0591;-6.85956;-0.00354595;0.0027475;0.0519467;0.0520824;-0.00368165;0.027882;0.0682613;14.6496;0.0360116;0.037176;14.1465;0.0706889;88.183;133.183;-0.0060031;-0.00354397;0.00364586;0.00189652;0.051944;0.00151145;0.0530833;0;0.0893002;8.22892;2.72481
561000;562;25.5931;1.39901;0.0578246;-2.42081;25.4571;-1.04174;-0.248408;1.36118;-0.888034;-0.22204;-1.34579;-0.377581;1.41528;-5.7855;-0.00342729;0.00449062;0.0633821;0.0636826;-0.00372778;0.0337052;0.0540735;18.4934;0.0437506;0.0449402;17.0833;0.0585368;89.2318;134.232;-0.00633919;-0.003418;0.00790922;0.00128676;0.0633622;0.00638794;0.0429539;0;0.0923244;-0.472749;-2.74388;-1.27854;3.06382;-6.85408;-0.00446027;0.00305359;0.0527489;0.0529114;-0.0046228;0.0287671;0.0845568;11.8264;0.0369118;0.0383561;11.4457;0.0873687;88.6429;133.643;-0.000682494;-0.00445693;0.00455446;0.00163427;0.0527434;-0.00193814;0.0612801;0;0.0848138;8.23295;2.72959
562000;563;25.6003;1.40613;0.0581189;-2.41999;25.4641;-1.04633;-0.24759;1.36823;-0.892631;-0.222117;-1.34396;-0.37553;1.41301;-5.7842;-0.00354916;0.00432399;0.0629246;0.0632047;-0.00382925;0.033517;0.0564034;17.7294;0.0434691;0.0446893;16.5058;0.0605849;89.5223;134.522;-0.00303848;-0.00354026;0.00789599;0.000975337;0.0629041;-0.00572741;0.0412937;0;0.0929285;-0.473548;-2.75273;-1.27899;3.07207;-6.86096;-0.00342968;0.00288886;0.0524159;0.052565;-0.00357873;0.0280718;0.0654321;15.283;0.0362951;0.0374291;14.6882;0.068082;88.3987;133.399;-0.000895016;-0.00342701;0.00410637;0.00173595;0.0524119;0.00270184;0.0498101;0;0.0845142;8.23611;2.73678
563000;564;25.6086;1.4145;0.0584646;-2.42181;25.4723;-1.04751;-0.249412;1.37642;-0.893807;-0.221367;-1.34237;-0.379447;1.41242;-5.78737;-0.0034199;0.00490573;0.0636595;0.0640163;-0.00377677;0.0338965;0.0537217;18.6144;0.0439906;0.0451954;16.95;0.058997;88.6884;133.688;-0.00207034;-0.00340965;0.00810295;0.0019101;0.0636399;-0.00216455;0.0433692;0;0.0952033;-0.473617;-2.75776;-1.28202;3.07785;-6.8605;-0.00390819;0.00302152;0.0533478;0.0535068;-0.00406721;0.028787;0.0732588;13.6502;0.0371013;0.0383827;13.1557;0.0760129;87.9706;132.971;-0.00499393;-0.00390599;0.00391539;0.00217623;0.0533448;0.0110888;0.055507;0;0.0936854;8.23608;2.74362
564000;565;;;;;;;;;;-0.220327;-1.34054;-0.378113;1.41016;-5.78528;-0.00364127;0.00482163;0.0640939;0.0644354;-0.00398277;0.0342091;0.0568115;17.6021;0.0443442;0.0456121;16.1785;0.0618103;88.6331;133.633;-0.00403572;-0.0036316;0.00784468;0.00199097;0.0640759;0.0106741;0.0375694;0;0.0944543;-0.473438;-2.76456;-1.28022;3.08316;-6.85348;-0.00422774;0.00335444;0.0528451;0.0530416;-0.00442422;0.0287329;0.0800025;12.4996;0.0369243;0.0383106;11.9889;0.0834104;87.8498;132.85;-0.000740882;-0.00422484;0.00442888;0.00233825;0.0528412;-0.00417109;0.057478;0;0.102978;8.24018;2.75117
565000;566;;;;;;;;;;-0.220525;-1.34098;-0.377778;1.41053;-5.78056;-0.00316298;0.00480645;0.0644678;0.0648076;-0.00350286;0.0341552;0.0490629;20.382;0.0444188;0.0455403;18.5014;0.0540501;88.5194;133.519;-0.00741365;-0.00315352;0.00773515;0.0020638;0.0644505;0.0226448;0.048834;0;0.101473;-0.473903;-2.77216;-1.28716;3.09294;-6.86795;-0.00326755;0.00314838;0.0525362;0.0527133;-0.00344462;0.028079;0.0621961;16.0782;0.0363449;0.0374386;15.3031;0.0653463;87.9104;132.91;-0.00385944;-0.00326496;0.00417108;0.0021799;0.0525327;0.00246476;0.0603357;0;0.104768;8.2404;2.75819
566000;567;25.6198;1.42565;0.0589255;-2.42226;25.4837;-1.04271;-0.24986;1.38777;-0.889862;-0.220654;-1.3411;-0.378523;1.41086;-5.78097;-0.00340272;0.00544183;0.06439;0.0648241;-0.00383676;0.0343304;0.0528454;18.9231;0.0445501;0.0457739;16.8955;0.0591873;87.5994;132.599;-0.00488992;-0.00339283;0.00789351;0.00314627;0.0643747;0.0176772;0.0409999;0;0.103179;-0.474657;-2.77954;-1.2889;3.10039;-6.87299;-0.00321269;0.00333621;0.0527638;0.0529619;-0.00341082;0.0281864;0.0608881;16.4236;0.036498;0.0375818;15.5276;0.0644014;88.0262;133.026;-0.00333246;-0.00320933;0.00463473;0.00210673;0.0527589;0.00297508;0.0651928;0;0.10664;8.24349;2.76557
567000;568;;;;;;;;;;-0.220376;-1.33667;-0.384679;1.40827;-5.78746;-0.00293064;0.00490794;0.0655141;0.0658643;-0.00328078;0.0345725;0.0447329;22.3549;0.045043;0.0460967;20.0758;0.0498112;88.3401;133.34;-0.00759192;-0.00292113;0.00773242;0.00226487;0.0654974;0.0269402;0.0306605;0;0.10343;-0.475776;-2.78478;-1.29384;3.10731;-6.87232;-0.00339911;0.00329752;0.0548722;0.0550582;-0.00358512;0.0293217;0.061946;16.1431;0.037957;0.0390956;15.3574;0.0651152;88.3251;133.325;-0.00707103;-0.00339548;0.00477137;0.00190508;0.0548666;0.00547237;0.057511;0;0.105764;8.24337;2.7732
568000;569;;;;;;;;;;-0.21994;-1.33629;-0.382483;1.40725;-5.78462;-0.00350933;0.00467644;0.0650512;0.0653687;-0.00382683;0.0345978;0.0539471;18.5367;0.0449091;0.0461304;17.0817;0.0585422;88.2255;133.225;-0.00706702;-0.00350128;0.00709435;0.00241416;0.0650379;0.0288182;0.0469253;0;0.104912;-0.476228;-2.79133;-1.29359;3.11315;-6.87206;-0.00352303;0.00332502;0.0554753;0.0556621;-0.00370983;0.029686;0.0635062;15.7465;0.0384045;0.0395813;15.004;0.0666491;88.3591;133.359;-0.00600457;-0.0035193;0.00483357;0.00190079;0.0554695;0.00521788;0.0544649;0;0.097674;8.25102;2.7809
569000;570;;;;;;;;;;-0.219543;-1.33539;-0.38236;1.4063;-5.7845;-0.00319711;0.00506328;0.0647238;0.0650992;-0.00357249;0.0343358;0.0493962;20.2445;0.044638;0.0457811;18.2224;0.0548776;87.7527;132.753;-0.00897301;-0.00318855;0.00734548;0.00292664;0.0647105;0.0223245;0.0472331;0;0.117152;-0.476257;-2.79973;-1.29675;3.12199;-6.87815;-0.00384112;0.0028948;0.0554248;0.0555658;-0.00398218;0.029774;0.0693033;14.4293;0.0384401;0.0396987;13.9536;0.071666;88.3272;133.327;0.00582806;-0.00383871;0.00395665;0.00189257;0.0554213;0.00367588;0.0508727;0;0.0965059;8.25112;2.78765
570000;571;;;;;;;;;;-0.219321;-1.33238;-0.381569;1.40319;-5.78723;-0.00316125;0.00526342;0.0656868;0.0660869;-0.00356132;0.0348241;0.0481261;20.7787;0.0452917;0.0464322;18.5569;0.0538884;87.7629;132.763;-0.0100633;-0.00315176;0.00772128;0.00296433;0.0656719;0.0234951;0.0437659;0;0.10455;-0.477353;-2.80874;-1.29791;3.13073;-6.88239;-0.00398573;0.00246632;0.0536464;0.0537518;-0.00409108;0.0289214;0.0742963;13.4596;0.0372731;0.0385619;13.1388;0.0761107;88.9928;133.993;-0.00526558;-0.00398343;0.00378138;0.00122318;0.0536425;0.00892551;0.0612298;0;0.0782309;8.24836;2.79358
571000;572;;;;;;;;;;-0.219109;-1.33016;-0.383846;1.40167;-5.78951;-0.00307474;0.00483081;0.0654344;0.0657734;-0.0034137;0.0345935;0.0469896;21.2813;0.04503;0.0461247;19.2675;0.0519009;88.1075;133.107;-0.0103455;-0.00306623;0.00729518;0.00252488;0.0654204;0.0272747;0.0461749;0;0.108561;-0.47815;-2.81262;-1.30039;3.13536;-6.87662;-0.0040124;0.00309021;0.0551276;0.0552886;-0.00417343;0.029731;0.0727838;13.7393;0.038326;0.0396414;13.2478;0.0754844;87.803;132.803;-0.00477478;-0.00401047;0.00383028;0.00239162;0.0551252;-0.00153988;0.0537033;0;0.0920256;8.25258;2.79609
572000;573;;;;;;;;;;-0.218729;-1.33087;-0.384546;1.40248;-5.78859;-0.00302976;0.00541948;0.0652202;0.0656478;-0.00345742;0.0345526;0.0464543;21.5265;0.044962;0.0460702;18.9875;0.0526662;87.196;132.196;-0.0117693;-0.00302142;0.00739667;0.00356895;0.0652083;0.0312736;0.046405;0;0.10509;-0.479399;-2.82149;-1.30635;3.14598;-6.89246;-0.00318702;0.00279571;0.0537033;0.0538403;-0.00332408;0.0285822;0.0593451;16.8506;0.0370513;0.0381096;16.1971;0.0617396;87.2104;132.21;-0.00141797;-0.00318698;0.00281157;0.00278071;0.0537032;0.0159626;0.0649596;0;0.0933879;8.25763;2.80384
573000;574;;;;;;;;;;-0.217691;-1.32796;-0.384029;1.39941;-5.7897;-0.00267521;0.00546711;0.066084;0.066516;-0.00310719;0.0348116;0.0404819;24.7024;0.0454152;0.0464154;21.4071;0.0467134;87.2894;132.289;-0.00721915;-0.00266626;0.00760224;0.00346967;0.0660709;0.0223948;0.0498101;0;0.101373;-0.479287;-2.82991;-1.30745;3.15397;-6.89643;-0.00208384;0.00248585;0.0527945;0.0529069;-0.00219622;0.0275516;0.0394708;25.3352;0.0360257;0.0367354;24.09;0.041511;89.1359;134.136;0.00019425;-0.00208121;0.00409448;0.000961065;0.0527895;0.00590575;0.0533526;0;0.102373;8.25912;2.8103
574000;575;;;;;;;;;;-0.218819;-1.32587;-0.385102;1.3979;-5.78808;-0.00283766;0.00485754;0.0666449;0.0669828;-0.00317561;0.0350792;0.0425789;23.4858;0.0457505;0.0467723;21.0929;0.0474094;87.8806;132.881;-0.00464969;-0.00282973;0.00707059;0.00278863;0.0666325;0.0285634;0.0440944;0;0.105571;-0.480616;-2.8368;-1.30956;3.16123;-6.89946;-0.00240427;0.00273997;0.0553784;0.0555081;-0.00253391;0.029021;0.0434154;23.0333;0.0378783;0.0386946;21.9061;0.0456494;89.1546;134.155;-0.00143129;-0.00240103;0.0045609;0.00101873;0.0553721;-0.00347992;0.0612683;0;0.103513;8.26042;2.81744
575000;576;;;;;;;;;;-0.217867;-1.32411;-0.388819;1.39711;-5.79282;-0.00252636;0.00515328;0.0669739;0.067354;-0.00290639;0.0351302;0.0377216;26.51;0.0459021;0.0468402;23.1745;0.0431509;87.7849;132.785;-0.0116419;-0.00251727;0.00756075;0.0029026;0.0669596;0.0352561;0.0408633;0;0.107248;-0.480742;-2.84248;-1.31414;3.16824;-6.90052;-0.00254226;0.00273374;0.0562882;0.0564149;-0.00266902;0.029542;0.045165;22.141;0.0385305;0.0393893;21.137;0.0473104;89.0571;134.057;-0.00478174;-0.00253915;0.0044321;0.00112996;0.0562824;-0.00337377;0.0615037;0;0.0968601;8.26224;2.82493
576000;577;;;;;;;;;;-0.217336;-1.32123;-0.389622;1.39452;-5.79529;-0.00245921;0.00486561;0.0666934;0.0670341;-0.00279988;0.034917;0.0368734;27.1198;0.0456513;0.046556;23.9418;0.041768;87.9293;132.929;-0.00866077;-0.002451;0.00718247;0.00269892;0.0666803;0.0283051;0.0450578;0;0.100815;-0.480631;-2.84844;-1.312;3.17269;-6.89021;-0.00393757;0.00245744;0.0566488;0.0567483;-0.00403708;0.0303927;0.0695084;14.3867;0.0392472;0.0405236;14.0568;0.0711401;89.7493;134.749;-0.00198929;-0.00393469;0.00447156;0.00055879;0.0566422;-0.0067147;0.0659559;0;0.101257;8.26411;2.83245
577000;578;;;;;;;;;;-0.217343;-1.32123;-0.387654;1.39397;-5.79262;-0.00260973;0.00583456;0.0674134;0.0678962;-0.00309256;0.0354944;0.0387124;25.8315;0.0463294;0.0473258;21.9547;0.0455483;86.8155;131.816;-0.0117687;-0.00260105;0.00770305;0.00408863;0.0674015;0.0200933;0.0396926;0;0.105885;-0.481073;-2.85729;-1.31619;3.18244;-6.90388;-0.00340361;0.0027732;0.056589;0.0567169;-0.00353153;0.0301242;0.0601461;16.6262;0.0390418;0.0401657;16.0602;0.0622658;88.8041;133.804;-0.00152006;-0.00340078;0.00419182;0.00143512;0.0565844;-0.00651695;0.0681787;0;0.080599;8.26622;2.83993
578000;579;;;;;;;;;;-0.216807;-1.31749;-0.390142;1.39105;-5.7951;-0.002985;0.00552221;0.0664158;0.0668524;-0.00342165;0.035137;0.0449441;22.2499;0.0457515;0.0468494;19.5381;0.0511821;87.5163;132.516;-0.0146248;-0.00297506;0.00793176;0.00326944;0.0664006;0.0136824;0.0474441;0;0.0978266;-0.48178;-2.86145;-1.31729;3.18673;-6.89745;-0.00400023;0.00307568;0.058717;0.0588675;-0.00415071;0.0315091;0.0681273;14.6784;0.0406992;0.0420121;14.1825;0.0705093;87.6674;132.667;-0.00359032;-0.00399896;0.00354919;0.00263022;0.0587155;0.0106159;0.0586096;0;0.0945793;8.25071;2.84623
579000;580;;;;;;;;;;-0.21707;-1.31549;-0.394939;1.39055;-5.79543;-0.00289991;0.00523685;0.0668896;0.0672803;-0.00329069;0.0352855;0.0433538;23.066;0.0459897;0.0470474;20.4457;0.0489101;87.4978;132.498;-0.0121541;-0.00289152;0.00734305;0.00326839;0.0668771;0.0221911;0.0390947;0;0.0960303;-0.482723;-2.86761;-1.32172;3.19424;-6.90175;-0.00389506;0.00226554;0.0575509;0.0576343;-0.00397848;0.0308064;0.0676803;14.7754;0.0398153;0.0410752;14.4865;0.0690297;88.9561;133.956;0.00616495;-0.00389329;0.0033206;0.00127178;0.0575481;0.00307466;0.0642509;0;0.108893;8.26469;2.84756
580000;581;;;;;;;;;;-0.2174;-1.31614;-0.394923;1.39121;-5.79521;-0.00245582;0.00647943;0.0674427;0.0680383;-0.00305138;0.0355448;0.0364135;27.4624;0.0464094;0.0473931;22.2976;0.0448479;85.7505;130.75;-0.012731;-0.0024491;0.00769311;0.00534522;0.0674347;0.014238;0.0337957;0;0.110952;-0.483666;-2.87614;-1.32679;3.20414;-6.91231;-0.00381424;0.00224119;0.0569258;0.0570084;-0.00389683;0.0304526;0.0670038;14.9245;0.0393689;0.0406035;14.6294;0.0683553;88.8735;133.873;0.00150252;-0.00381261;0.00320542;0.00133236;0.0569233;0.00938581;0.051351;0;0.097196;8.27171;2.85703
581000;582;;;;;;;;;;-0.217976;-1.31071;-0.399224;1.38739;-5.80183;-0.00283657;0.00646911;0.065991;0.0665938;-0.00343932;0.0350166;0.0429842;23.2644;0.0455856;0.0466887;19.3625;0.0516463;85.4059;130.406;-0.00941102;-0.00283169;0.0073259;0.00566764;0.0659855;0.00856255;0.043555;0;0.0990526;-0.485502;-2.88423;-1.33086;3.21336;-6.92414;-0.00331877;0.00225677;0.0565764;0.0566613;-0.00340368;0.0300325;0.05866;17.0474;0.0389583;0.0400433;16.6471;0.0600707;88.4798;133.48;-0.00332538;-0.00331761;0.00288006;0.00166881;0.0565749;-0.00184847;0.0590918;0;0.119975;8.28309;2.86643
582000;583;;;;;;;;;;-0.21642;-1.31162;-0.394326;1.3866;-5.79624;-0.00298309;0.00611396;0.0673112;0.067839;-0.0035109;0.0356749;0.044318;22.5642;0.0464405;0.0475666;19.3224;0.0517535;86.0624;131.062;-0.0131554;-0.00297688;0.00730843;0.00499815;0.0673036;0.0187261;0.0352518;0;0.102539;-0.484759;-2.89099;-1.32939;3.21871;-6.91578;-0.00249419;0.00291266;0.0579857;0.0581256;-0.00263413;0.0303799;0.0430139;23.2483;0.0396576;0.0405065;22.0663;0.045318;88.3524;133.352;-0.00492266;-0.00249164;0.00404373;0.00184624;0.0579819;0.00262309;0.0501837;0;0.100296;8.27702;2.8706
583000;584;;;;;;;;;;-0.214932;-1.30775;-0.394741;1.38283;-5.79831;-0.00301197;0.0064454;0.0665858;0.0671777;-0.00360384;0.0353908;0.0452344;22.1071;0.0460334;0.0471877;18.6406;0.0536463;85.4377;130.438;-0.0146415;-0.00300736;0.00725547;0.00568818;0.0665806;0.0173634;0.0375008;0;0.0996858;-0.484973;-2.89715;-1.32849;3.22391;-6.90886;-0.00323753;0.00323613;0.0565859;0.0567605;-0.00341208;0.0300863;0.0572145;17.4781;0.0390274;0.0401151;16.6351;0.0601137;88.1576;133.158;-0.000821807;-0.00323445;0.00446179;0.00207987;0.0565815;-0.00130762;0.0590307;0;0.107722;8.27915;2.87434
584000;585;;;;;;;;;;-0.215384;-1.30666;-0.394041;1.38168;-5.79702;-0.00308431;0.00523239;0.0682186;0.0686005;-0.00346623;0.0360334;0.0452121;22.118;0.0469318;0.0480445;19.7911;0.0505277;87.5936;132.594;-0.00767561;-0.00307579;0.00738267;0.00322563;0.0682059;0.0192355;0.0419915;0;0.0992578;-0.485515;-2.90625;-1.33112;3.23325;-6.91863;-0.0040227;0.00235581;0.059312;0.0593995;-0.00411021;0.0317548;0.0678227;14.7443;0.0410384;0.0423398;14.4517;0.069196;88.8903;133.89;-0.000864912;-0.00402087;0.0033964;0.00137744;0.0593092;-0.000330704;0.0506546;0;0.093373;8.28021;2.88195
585000;586;;;;;;;;;;-0.214707;-1.30212;-0.397342;1.37822;-5.80166;-0.00284746;0.00528408;0.0673422;0.0677377;-0.00324303;0.0354904;0.0422834;23.6499;0.0462774;0.0473205;20.8872;0.0478763;86.8349;131.835;-0.0101396;-0.0028416;0.00662571;0.00403067;0.0673347;0.0150948;0.0448313;0;0.0970687;-0.485952;-2.91191;-1.33419;3.23966;-6.92292;-0.00260129;0.00354819;0.0600296;0.06023;-0.00280167;0.0315158;0.0433336;23.0768;0.041119;0.0420211;21.4979;0.0465162;87.1952;132.195;-0.00712931;-0.00259987;0.00400228;0.00312093;0.060028;0.00462302;0.0574528;0;0.0894452;8.27746;2.88918
586000;587;;;;;;;;;;-0.213821;-1.30031;-0.396398;1.3761;-5.80079;-0.00232305;0.00506223;0.0680023;0.0683648;-0.00268557;0.0355252;0.0341613;29.2729;0.0464976;0.0473669;25.4563;0.039283;87.0125;132.013;-0.0110677;-0.00231742;0.00642031;0.00379358;0.067995;0.0164781;0.0438472;0;0.0948397;-0.485824;-2.91854;-1.33475;3.24584;-6.91506;-0.003459;0.00266671;0.0590444;0.059158;-0.00357257;0.0313653;0.058583;17.0698;0.0406818;0.0418204;16.559;0.0603903;89.0012;134.001;0.000281577;-0.00345624;0.00414734;0.00127347;0.0590397;0.00665769;0.0704528;0;0.0992022;8.27902;2.89679
587000;588;;;;;;;;;;-0.214599;-1.29871;-0.39897;1.37545;-5.80236;-0.00294269;0.00500519;0.0684446;0.0687938;-0.00329191;0.0360428;0.0429937;23.2592;0.0469983;0.0480571;20.8979;0.0478518;87.2908;132.291;-0.0105605;-0.00293642;0.00657213;0.00354294;0.0684361;0.0225549;0.0453043;0;0.10245;-0.48796;-2.92676;-1.34103;3.25613;-6.9306;-0.00277428;0.00195848;0.0597991;0.0598603;-0.00283551;0.0313479;0.0463933;21.5548;0.0408849;0.0417972;21.1109;0.0473688;89.3879;134.388;0.00443028;-0.00277266;0.0032026;0.000787804;0.0597961;-0.00307794;0.0599758;0;0.100426;8.28027;2.90335
588000;589;;;;;;;;;;-0.214256;-1.29918;-0.396527;1.37514;-5.79918;-0.00253401;0.00517578;0.0693172;0.0696881;-0.00290493;0.0362965;0.0365568;27.3547;0.0474567;0.0483953;23.9896;0.0416848;87.2448;132.245;-0.0112704;-0.00252712;0.00685203;0.00361216;0.0693077;0.0232254;0.0487898;0;0.101219;-0.488218;-2.93384;-1.34139;3.26268;-6.92896;-0.00247575;0.00207625;0.0591274;0.0591973;-0.00254565;0.0308715;0.0418715;23.8826;0.0403402;0.0411619;23.2543;0.0430028;89.206;134.206;0.002997;-0.00247405;0.00326463;0.000956989;0.0591244;-0.000884928;0.0558659;0;0.119905;8.28025;2.91071
589000;590;;;;;;;;;;-0.213267;-1.29298;-0.401473;1.37057;-5.80587;-0.00256081;0.00525958;0.0685629;0.0689498;-0.00294765;0.0359487;0.0373498;26.7739;0.0469799;0.0479316;23.3914;0.0427507;86.9131;131.913;-0.0102951;-0.00255485;0.00663844;0.0039725;0.0685552;0.0172806;0.0538115;0;0.0966696;-0.488542;-2.94136;-1.34805;3.27223;-6.942;-0.00255837;0.00251645;0.0589039;0.0590068;-0.00266123;0.030834;0.0434329;23.024;0.0402543;0.041112;22.1728;0.0451004;88.4532;133.453;0.00343015;-0.00255671;0.00334335;0.00173756;0.0589016;-0.00553433;0.0589933;0;0.116817;8.28391;2.91766
590000;591;;;;;;;;;;-0.213081;-1.29067;-0.400878;1.36819;-5.80527;-0.0025107;0.00496041;0.0693745;0.0697151;-0.00285138;0.0362833;0.0361906;27.6315;0.0474558;0.0483777;24.4496;0.0409005;87.3464;132.346;-0.0124406;-0.00250442;0.00655298;0.00347488;0.0693659;0.0136845;0.0506719;0;0.088892;-0.489691;-2.9461;-1.34794;3.27662;-6.93654;-0.00223799;0.00293109;0.0592208;0.0593603;-0.00237747;0.0308689;0.0377906;26.4616;0.0403894;0.0411585;24.9679;0.0400514;88.2519;133.252;-0.00518827;-0.00223562;0.00395983;0.00196204;0.0592175;0.00920437;0.0422377;0;0.106154;8.28438;2.92537
591000;592;;;;;;;;;;-0.212967;-1.28889;-0.404345;1.36751;-5.80874;-0.00254674;0.00588446;0.0697209;0.0701969;-0.00302275;0.0366098;0.0365277;27.3765;0.0478374;0.0488131;23.2228;0.0430611;86.3008;131.301;-0.00706643;-0.00254094;0.00704569;0.00480167;0.0697139;0.0174156;0.0518877;0;0.096551;-0.489534;-2.95192;-1.34949;3.28247;-6.93075;-0.00372677;0.00204318;0.0609238;0.0609883;-0.00379128;0.0323898;0.0611711;16.3476;0.0419797;0.0431864;16.0865;0.0621641;88.9158;133.916;-0.011199;-0.00372556;0.00281027;0.00132284;0.0609221;0.00819948;0.0442694;0;0.110594;8.28672;2.93154
592000;593;;;;;;;;;;-0.213082;-1.28785;-0.400484;1.36541;-5.80488;-0.00312182;0.00604155;0.0698286;0.0703256;-0.00361878;0.0369722;0.0447068;22.3679;0.0481354;0.0492962;19.4335;0.0514575;86.0763;131.076;-0.00602232;-0.00311675;0.00701163;0.00513761;0.0698227;0.0117345;0.0629004;0;0.0875045;-0.48999;-2.9576;-1.3476;3.28687;-6.92957;-0.00442274;0.00249656;0.0623878;0.062481;-0.00451591;0.0334984;0.0708912;14.1061;0.043238;0.0446646;13.8358;0.0722765;88.0755;133.076;-0.00496273;-0.00442223;0.00272503;0.00228246;0.0623873;0.00425901;0.0359431;0;0.0952777;8.28864;2.93585
593000;594;;;;;;;;;;-0.212891;-1.28545;-0.401903;1.36353;-5.80534;-0.0025088;0.00495467;0.0697079;0.0700462;-0.00284715;0.0364467;0.0359902;27.7853;0.0476749;0.0485956;24.6022;0.0406467;87.3939;132.394;-0.00411931;-0.0025024;0.00658737;0.00343219;0.0696991;0.0153742;0.0592108;0;0.0882545;-0.490528;-2.9664;-1.35153;3.29648;-6.93747;-0.00431477;0.00139772;0.0629908;0.0630198;-0.00434379;0.0336818;0.0684985;14.5989;0.0435334;0.044909;14.508;0.0689274;90.0687;135.069;-0.00393034;-0.0043138;0.00276793;0.000114264;0.0629881;-0.0066948;0.0482494;0;0.0944369;8.29219;2.94253
594000;595;;;;;;;;;;-0.212871;-1.28143;-0.406214;1.36103;-5.80977;-0.00261907;0.00588794;0.0703921;0.0708639;-0.00309085;0.0369774;0.0372068;26.8768;0.0483059;0.0493032;22.927;0.0436167;86.3865;131.386;-0.00588688;-0.00261298;0.00711355;0.00474593;0.0703847;0.00877068;0.048842;0;0.0865931;-0.491384;-2.97324;-1.35481;3.30411;-6.93757;-0.00360609;0.00247927;0.0620912;0.0621846;-0.00369952;0.0329421;0.0580774;17.2184;0.042743;0.0439227;16.8088;0.0594926;88.9564;133.956;0.00154866;-0.00360392;0.00368824;0.00134508;0.0620876;0.00955114;0.0734652;0;0.100075;8.29489;2.94779
595000;596;;;;;;;;;;-0.212221;-1.28065;-0.404826;1.35977;-5.80838;-0.00277068;0.00551416;0.0703704;0.0707838;-0.00318406;0.0369839;0.0393728;25.3983;0.0482856;0.0493119;22.2307;0.0449829;86.7265;131.726;-0.00853624;-0.00276479;0.00679491;0.00432091;0.0703631;0.0242394;0.0466157;0;0.0885948;-0.492278;-2.98082;-1.35865;3.31264;-6.94676;-0.0025689;0.0023058;0.0624194;0.0625011;-0.0026506;0.0325758;0.0411554;24.2981;0.0425784;0.0434345;23.58;0.0424089;89.3793;134.379;0.000193469;-0.00256658;0.00387054;0.000836765;0.0624148;-0.0081284;0.0708101;0;0.120491;8.29679;2.9553
596000;597;;;;;;;;;;-0.212078;-1.27775;-0.406538;1.35754;-5.80998;-0.00311511;0.00564398;0.0705462;0.0709761;-0.00354505;0.0372606;0.0441571;22.6464;0.0485423;0.0496808;20.0212;0.0499471;86.5486;131.549;-0.0067933;-0.00310967;0.00678433;0.00458209;0.0705396;0.0240576;0.0532664;0;0.0887833;-0.492097;-2.98662;-1.35791;3.31753;-6.94142;-0.00361487;0.00246343;0.0631391;0.0632299;-0.00370566;0.0334678;0.0572526;17.4665;0.0434412;0.0446237;17.0631;0.0586062;89.2077;134.208;-0.00156981;-0.00361243;0.00392052;0.00109783;0.0631347;0.00311346;0.0616282;0;0.115437;8.29809;2.96168
597000;598;;;;;;;;;;-0.21217;-1.27574;-0.409441;1.35653;-5.81201;-0.00277433;0.00675376;0.0710269;0.0716399;-0.0033873;0.0375136;0.0390603;25.6014;0.0489281;0.0500181;21.1496;0.0472823;85.3847;130.385;-0.00940878;-0.00276997;0.00748189;0.00607581;0.0710221;0.0125961;0.0491693;0;0.0914718;-0.494146;-2.99447;-1.36077;3.32607;-6.94389;-0.00276882;0.00297775;0.0624958;0.0626314;-0.0029044;0.0327679;0.0443041;22.5713;0.0427553;0.0436905;21.5643;0.0463729;88.2788;133.279;-0.00532027;-0.0027665;0.00395908;0.00205669;0.0624926;0.00634215;0.0481424;0;0.113468;8.29681;2.96901
598000;599;;;;;;;;;;-0.210905;-1.27407;-0.41037;1.35504;-5.81111;-0.00268576;0.00648818;0.0715711;0.0721337;-0.0032484;0.0376911;0.0375257;26.6484;0.0492077;0.0502547;22.2059;0.045033;85.3602;130.36;-0.0099507;-0.00268336;0.00689575;0.00610886;0.0715685;0.0187411;0.0480137;0;0.0887889;-0.493418;-2.99964;-1.36337;3.33168;-6.9402;-0.00351488;0.00335259;0.0615518;0.061724;-0.00368716;0.0327056;0.0571044;17.5118;0.0424319;0.0436075;16.7402;0.0597363;88.2337;133.234;-0.0114104;-0.00351159;0.00461728;0.00216541;0.061547;0.021506;0.0597922;0;0.101601;8.29486;2.97588
599000;600;;;;;;;;;;-0.210716;-1.27334;-0.408847;1.35387;-5.80775;-0.00309052;0.00687955;0.0709424;0.0715763;-0.00372438;0.0376503;0.0435638;22.9548;0.0490062;0.0502004;19.2183;0.0520338;84.6386;129.639;-0.0177212;-0.00309132;0.00675631;0.00699428;0.0709432;0.0261792;0.0381055;0;0.0902317;-0.494545;-3.0077;-1.36901;3.34141;-6.95038;-0.0043965;0.00169035;0.0621559;0.0621988;-0.0044394;0.0333191;0.0707334;14.1376;0.0430221;0.0444254;14.0106;0.0713745;89.4263;134.426;-0.0114587;-0.00439539;0.00263321;0.000806573;0.0621539;0.0104792;0.0525169;0;0.114506;8.29864;2.98385
600000;601;;;;;;;;;;-0.211255;-1.27076;-0.409088;1.35159;-5.80983;-0.00318592;0.00610623;0.0717064;0.072201;-0.00368051;0.0379408;0.04443;22.5073;0.0494066;0.0505877;19.6171;0.0509759;85.8244;130.824;-0.0137716;-0.00318274;0.00668968;0.00556355;0.0717029;0.0209195;0.0494045;0;0.09169;-0.496242;-3.01505;-1.3702;3.34876;-6.9574;-0.00396293;0.00254204;0.0636512;0.0637466;-0.00405837;0.0339025;0.0622601;16.0617;0.0439131;0.0452033;15.7075;0.063664;87.2926;132.293;-0.00934211;-0.00396457;0.00192439;0.00312043;0.0636525;0.0065938;0.0431253;0;0.101723;8.29865;2.99081
601000;602;;;;;;;;;;-0.211422;-1.26829;-0.411591;1.35006;-5.81233;-0.00281094;0.00618788;0.0720744;0.0725822;-0.00331881;0.0379505;0.0390005;25.6407;0.0495315;0.0506007;21.87;0.0457248;85.8149;130.815;-0.012731;-0.00280733;0.00684497;0.00557669;0.0720704;0.0186222;0.0437501;0;0.0898294;-0.49616;-3.02311;-1.37099;3.35633;-6.95763;-0.00367485;0.0020799;0.064847;0.0649101;-0.00373792;0.034324;0.0566695;17.6462;0.0445717;0.0457653;17.3653;0.0575862;90.1648;135.165;0.00397314;-0.00367268;0.00424543;5.37106e-05;0.0648406;0.00608313;0.0656068;0;0.100356;8.29867;2.99815
602000;603;;;;;;;;;;-0.211036;-1.26591;-0.41389;1.34847;-5.81463;-0.00279898;0.00625706;0.0721562;0.072675;-0.00331771;0.0379963;0.0387905;25.7795;0.0495929;0.0506618;21.9052;0.0456513;85.5567;130.557;-0.0145128;-0.0027968;0.00664109;0.00589987;0.0721539;0.0230493;0.0410009;0;0.0953569;-0.496797;-3.03095;-1.37475;3.36503;-6.96232;-0.00392764;0.00211082;0.0646138;0.0646788;-0.00399258;0.0343357;0.0607863;16.4511;0.0445098;0.0457809;16.1997;0.0617294;89.591;134.591;0.000101975;-0.00392563;0.00363793;0.000682031;0.0646097;0.00194385;0.0688268;0;0.106665;8.30613;3.00578
603000;604;;;;;;;;;;-0.210027;-1.26388;-0.40969;1.34512;-5.81043;-0.00234353;0.00683711;0.0727862;0.0734033;-0.00296067;0.038182;0.0321975;31.0583;0.0499517;0.0509093;24.7928;0.0403342;85.0821;130.082;-0.0140256;-0.00234156;0.00715342;0.00654296;0.0727841;0.0189598;0.0381581;0;0.0922452;-0.496982;-3.0384;-1.37697;3.37267;-6.97152;-0.00248885;0.00328419;0.0653814;0.0655399;-0.0026474;0.0340937;0.0380667;26.2697;0.0446019;0.0454582;24.7563;0.0403937;87.6957;132.696;0.0044912;-0.00248732;0.00382175;0.00278087;0.0653796;0.00665425;0.0636176;0;0.112465;8.30578;3.01303
604000;605;;;;;;;;;;-0.209582;-1.26137;-0.412875;1.34367;-5.81281;-0.00248661;0.00721263;0.0720492;0.0727407;-0.00317815;0.0379594;0.0345127;28.9748;0.0495871;0.0506126;22.8878;0.0436914;84.5998;129.6;-0.0159271;-0.00248595;0.00731209;0.00712009;0.0720485;0.00370233;0.0452446;0;0.0881279;-0.498123;-3.04658;-1.38005;3.38147;-6.98258;-0.00230454;0.00262763;0.0644929;0.0645961;-0.00240775;0.0335019;0.0357333;27.9851;0.0438887;0.0446692;26.8284;0.0372739;87.8916;132.892;0.00756823;-0.00230415;0.00279038;0.00247509;0.0644925;0.00190384;0.0647598;0;0.113944;8.30589;3.01651
605000;606;;;;;;;;;;-0.209927;-1.25999;-0.412481;1.3423;-5.81333;-0.00229143;0.00749913;0.072651;0.073394;-0.00303447;0.0382142;0.0315402;31.7055;0.0499715;0.0509523;24.1868;0.0413449;84.2644;129.264;-0.015276;-0.00229214;0.0073977;0.00759348;0.0726517;0.00900632;0.0488467;0;0.0947066;-0.498835;-3.05012;-1.38058;3.38498;-6.96471;-0.00278513;0.00269886;0.064415;0.0645232;-0.00289335;0.0337083;0.0432373;23.1282;0.0440116;0.0449443;22.3005;0.044842;88.8383;133.838;-0.00470082;-0.00278258;0.0039985;0.00148128;0.0644109;0.00312583;0.0563232;0;0.11892;8.30617;3.02125
606000;607;;;;;;;;;;-0.209775;-1.25628;-0.41376;1.3392;-5.81539;-0.00227729;0.00708274;0.0727714;0.073434;-0.00293988;0.0381869;0.0312938;31.9552;0.0499648;0.0509159;24.9786;0.0400343;84.8547;129.855;-0.0101082;-0.00227559;0.00734557;0.00683831;0.0727697;0.00702876;0.0507913;0;0.0972261;-0.499468;-3.05696;-1.38226;3.39191;-6.9708;-0.00365257;0.00313165;0.0641944;0.0643387;-0.00379681;0.0340677;0.0568985;17.5752;0.0442124;0.0454237;16.9455;0.0590128;88.2764;133.276;-0.00251784;-0.00365001;0.00415926;0.00216956;0.0641909;0.009193;0.0590656;0;0.10561;8.30641;3.02822
607000;608;;;;;;;;;;-0.209439;-1.25574;-0.412568;1.33826;-5.81251;-0.00212726;0.0073183;0.0727757;0.0734841;-0.00283558;0.0381598;0.0292303;34.2111;0.0499614;0.0508798;25.915;0.0385877;84.5163;129.516;-0.0152931;-0.00212685;0.00737735;0.00726338;0.0727753;0.00333058;0.0438972;0;0.100758;-0.500174;-3.06303;-1.38556;3.39883;-6.97172;-0.00441931;0.00257753;0.0642154;0.0643121;-0.00451597;0.034414;0.0688201;14.5306;0.0444566;0.0458854;14.241;0.0702196;87.896;132.896;-0.00975086;-0.0044192;0.00262601;0.00253217;0.0642153;0.0102159;0.0488798;0;0.0952696;8.30975;3.03532
608000;609;;;;;;;;;;-0.208951;-1.25239;-0.413159;1.33523;-5.8155;-0.00201254;0.00602105;0.0736347;0.0741109;-0.00248878;0.0382998;0.0273314;36.588;0.0502574;0.0510665;29.7781;0.0335818;86.2229;131.223;-0.0113305;-0.00200736;0.00702159;0.00509101;0.0736286;0.016231;0.0480846;0;0.09258;-0.500069;-3.06912;-1.38435;3.40382;-6.96632;-0.0044189;0.0027976;0.0678761;0.0679842;-0.004527;0.0362556;0.0651025;15.3604;0.0469047;0.0483408;15.0175;0.066589;87.9499;132.95;-0.00483835;-0.00441841;0.00298994;0.00261827;0.0678755;0.00883084;0.0333259;0;0.100098;8.31001;3.04304
609000;610;;;;;;;;;;-0.209165;-1.25495;-0.411627;1.33719;-5.81085;-0.00237675;0.00605291;0.0752771;0.0757461;-0.00284573;0.0392959;0.0315734;31.6722;0.0514722;0.0523945;26.6175;0.0375693;86.2789;131.279;-0.0166021;-0.0023717;0.00702352;0.00515239;0.0752712;0.0158775;0.0477343;0;0.0994054;-0.500636;-3.07688;-1.38408;3.4108;-6.96304;-0.00459317;0.00245322;0.0684803;0.0685625;-0.00467544;0.036619;0.0670729;14.9092;0.0473439;0.0488253;14.6644;0.0681923;88.6839;133.684;-0.00422003;-0.00459174;0.00317358;0.00178212;0.0684784;0.0102564;0.0528704;0;0.0981385;8.31204;3.04997
610000;611;;;;;;;;;;-0.208555;-1.24767;-0.415889;1.33159;-5.81743;-0.00260367;0.00578768;0.0743774;0.0748101;-0.00303637;0.0389233;0.0350061;28.5664;0.0509157;0.0518977;24.638;0.0405877;86.5695;131.569;-0.014291;-0.0025981;0.00692544;0.00473143;0.0743707;0.011836;0.0522476;0;0.0887074;-0.500918;-3.08413;-1.38856;3.41919;-6.97114;-0.00369677;0.00313516;0.068064;0.0682007;-0.00383348;0.0360171;0.0543132;18.4117;0.0467973;0.0480228;17.7908;0.0562088;88.5299;133.53;0.00762461;-0.00369382;0.00436775;0.00198538;0.0680597;0.00891045;0.0658915;0;0.0990565;8.31114;3.05746
611000;612;;;;;;;;;;-0.208382;-1.24819;-0.414594;1.33165;-5.81623;-0.00243814;0.00670912;0.0741242;0.0747077;-0.00302161;0.0388647;0.0328926;30.402;0.0508423;0.0518195;24.7245;0.0404457;85.3349;130.335;-0.0147605;-0.00243565;0.0071193;0.00632818;0.0741216;0.0135735;0.0439548;0;0.102934;-0.502564;-3.09558;-1.3951;3.43242;-6.98645;-0.00302389;0.00264554;0.0674015;0.0675007;-0.00312313;0.0353119;0.0448638;22.2897;0.0460768;0.0470826;21.6132;0.0462681;88.3431;133.343;0.00539697;-0.00302258;0.00323497;0.00209501;0.0673998;0.0048267;0.059771;0;0.113831;8.31301;3.06501
612000;613;;;;;;;;;;-0.207186;-1.24581;-0.415281;1.32944;-5.81634;-0.00224414;0.00661163;0.0756292;0.0761865;-0.00280149;0.039494;0.0296729;33.7008;0.0517501;0.0526587;27.195;0.0367714;85.207;130.207;-0.0100355;-0.00224392;0.00664692;0.00657889;0.075629;0.0163386;0.0366919;0;0.0939689;-0.502585;-3.10347;-1.39897;3.44111;-6.99454;-0.00264741;0.00225706;0.067025;0.067098;-0.00272045;0.0349092;0.0394988;25.3172;0.0456659;0.0465457;24.6643;0.0405444;88.3514;133.351;0.00756543;-0.00264692;0.00250277;0.0020274;0.0670244;-0.00339838;0.0568389;0;0.110277;8.31582;3.07266
613000;614;;;;;;;;;;-0.207579;-1.2431;-0.419155;1.32819;-5.82106;-0.00297614;0.00666233;0.0752553;0.0758186;-0.00353946;0.039679;0.0395472;25.2862;0.0517659;0.0529054;21.421;0.0466832;85.5199;130.52;-0.00903277;-0.00297327;0.00714111;0.00621838;0.0752522;0.0162769;0.0406866;0;0.0969376;-0.503314;-3.10848;-1.40036;3.4463;-6.99154;-0.00186561;0.00313455;0.0682958;0.0684355;-0.00200537;0.0352205;0.0273166;36.6078;0.0463066;0.0469606;34.1261;0.0293031;87.734;132.734;-0.00182208;-0.00186462;0.00349007;0.00280238;0.0682947;0.0142032;0.0508983;0;0.099967;8.31433;3.07973
614000;615;;;;;;;;;;-0.208177;-1.23995;-0.415062;1.32404;-5.81849;-0.00298455;0.00481333;0.0743007;0.0745993;-0.00328317;0.0389412;0.0401685;24.8951;0.0508626;0.0519217;22.7218;0.0440107;87.8718;132.872;0.00122484;-0.00297758;0.00671626;0.00304729;0.0742905;0.00471572;0.0468841;0;0.0812819;-0.505335;-3.1181;-1.39775;3.45422;-6.9882;-0.00281938;0.00255025;0.0665961;0.0666897;-0.00291295;0.0348013;0.0423356;23.6208;0.0454619;0.0464017;22.8942;0.0436792;89.0594;134.059;-0.00397395;-0.00281692;0.00392893;0.00126128;0.0665919;0.014061;0.0571703;0;0.0977954;8.31962;3.0864
615000;616;;;;;;;;;;-0.206611;-1.23841;-0.421815;1.32449;-5.82422;-0.00281622;0.00692554;0.0752253;0.0758351;-0.00342604;0.0396306;0.0374371;26.7115;0.0517366;0.0528407;22.1349;0.0451775;85.2185;130.218;-0.00649331;-0.00281407;0.00726609;0.0066097;0.075223;0.00486561;0.0423994;0;0.0917773;-0.503983;-3.12292;-1.40687;3.46206;-6.99252;-0.00372038;0.00286159;0.0667452;0.0668612;-0.0038364;0.0353488;0.05574;17.9404;0.0459064;0.0471317;17.4281;0.0573785;88.9217;133.922;-0.0048557;-0.0037174;0.00432154;0.00149807;0.0667403;0.0176893;0.0590762;0;0.101873;8.31758;3.09133
616000;617;;;;;;;;;;-0.20615;-1.23621;-0.421936;1.3224;-5.82384;-0.00239021;0.00698542;0.0754464;0.0760683;-0.00301215;0.0395402;0.0316809;31.5647;0.0517455;0.0527203;25.2538;0.0395979;85.0821;130.082;-0.006449;-0.00238872;0.00721846;0.00676925;0.0754448;0.0112265;0.0401561;0;0.0911983;-0.504292;-3.12829;-1.40703;3.46702;-6.98978;-0.00408715;0.0034036;0.068781;0.0689396;-0.00424579;0.0365927;0.0594227;16.8286;0.0474384;0.0487903;16.2372;0.061587;87.7186;132.719;-0.00407635;-0.00408576;0.0038707;0.00296835;0.0687794;0.00754925;0.0668004;0;0.104442;8.32031;3.09605
617000;618;;;;;;;;;;-0.206252;-1.23297;-0.421726;1.31932;-5.82178;-0.00291049;0.00677366;0.076009;0.0765861;-0.00348765;0.0400369;0.0382914;26.1156;0.0522588;0.0533825;21.9592;0.0455389;85.1611;130.161;-0.0146422;-0.00291022;0.0068167;0.00673377;0.0760087;0.0185358;0.0434743;0;0.096102;-0.504915;-3.13672;-1.40742;3.47488;-6.99501;-0.00369658;0.00266355;0.0685632;0.0686612;-0.00379462;0.0362279;0.0539149;18.5477;0.04709;0.0483039;18.0943;0.0552659;89.4318;134.432;0.00620815;-0.00369345;0.00452842;0.000924777;0.0685569;0.0162757;0.0684429;0;0.101574;8.32011;3.10151
618000;619;;;;;;;;;;-0.205378;-1.23188;-0.417753;1.3169;-5.81781;-0.00253264;0.00536418;0.0769314;0.0772919;-0.00289311;0.0400925;0.0329207;30.376;0.0525189;0.0534567;26.7158;0.037431;86.7886;131.789;-0.00840057;-0.00252857;0.00624955;0.00454413;0.0769267;0.0205128;0.0377768;0;0.0912047;-0.505728;-3.14601;-1.40948;3.48422;-7.00343;-0.00237086;0.00292449;0.0689662;0.0690859;-0.00249055;0.0357882;0.0343772;29.0891;0.0469095;0.0477176;27.7392;0.0360501;88.4736;133.474;0.00569671;-0.00236853;0.00394009;0.00197666;0.0689629;0.0116637;0.0619757;0;0.101406;8.32082;3.10819
619000;620;;;;;;;;;;-0.204746;-1.22859;-0.421169;1.31481;-5.82122;-0.00281287;0.00612446;0.0761899;0.0766619;-0.00328483;0.0399733;0.0369191;27.0862;0.0522373;0.0532978;23.3382;0.0428482;86.1636;131.164;-0.00535359;-0.00280866;0.00691048;0.00539614;0.0761851;0.0152274;0.0485647;0;0.0889484;-0.506477;-3.15412;-1.41489;3.49384;-7.01026;-0.0036252;0.00226049;0.0677842;0.0678556;-0.00369669;0.0357762;0.0534816;18.698;0.0465183;0.0477016;18.3558;0.0544787;88.5546;133.555;0.00771249;-0.00362436;0.00269802;0.00185222;0.0677831;-0.00124075;0.0650999;0;0.114636;8.321;3.11589
620000;621;;;;;;;;;;-0.204229;-1.22574;-0.422803;1.3126;-5.82286;-0.0029106;0.00651521;0.077088;0.0776151;-0.00343774;0.0405264;0.0377569;26.4852;0.0529265;0.0540352;22.5774;0.0442922;86.1056;131.106;-0.0067903;-0.00290488;0.00753513;0.00557104;0.0770813;0.0165538;0.0409866;0;0.0893428;-0.505879;-3.15853;-1.41425;3.49747;-7.00158;-0.00191353;0.00271983;0.0713419;0.0714428;-0.00201437;0.0367286;0.026822;37.2829;0.048314;0.0489714;35.4665;0.0281956;88.7811;133.781;0.00410107;-0.00191115;0.00389441;0.00162556;0.0713383;0.011338;0.0603656;0;0.126348;8.32132;3.1235
621000;622;;;;;;;;;;-0.204461;-1.2223;-0.422345;1.30927;-5.82388;-0.00317621;0.00522605;0.0772491;0.0775872;-0.00351438;0.0405508;0.0411165;24.3212;0.0529352;0.0540677;22.0771;0.0452958;87.4046;132.405;-0.00167326;-0.00316975;0.00676854;0.00379871;0.0772405;0.017519;0.0458299;0;0.0814023;-0.506941;-3.16445;-1.41176;3.50197;-6.99353;-0.00326262;0.00378375;0.0711425;0.0713344;-0.00345454;0.0373945;0.0458603;21.8053;0.0487486;0.0498593;20.6495;0.0484274;87.709;132.709;0.00726925;-0.00326013;0.00456145;0.00306008;0.0711395;0.00196452;0.0605482;0;0.109409;8.3197;3.13133
622000;623;;;;;;;;;;-0.20368;-1.22046;-0.423549;1.30783;-5.82461;-0.00246574;0.00742329;0.0774701;0.0781536;-0.00314926;0.0406514;0.0318283;31.4186;0.0531832;0.0542019;24.8165;0.0402958;84.4048;129.405;-0.00684279;-0.00246908;0.00695172;0.00785987;0.0774732;0.0225481;0.0443567;0;0.0900348;-0.507194;-3.17047;-1.41437;3.5085;-7.00011;-0.00410574;0.00336773;0.0710347;0.0711853;-0.00425637;0.0377208;0.057799;17.3013;0.0489374;0.0502945;16.7244;0.0597929;87.752;132.752;0.00290447;-0.00410457;0.00375952;0.00300343;0.0710334;0.00576797;0.0590792;0;0.113654;8.31854;3.13792
623000;624;;;;;;;;;;-0.203485;-1.21635;-0.425484;1.30459;-5.82752;-0.00323754;0.00551918;0.0776288;0.0780038;-0.00361249;0.0408081;0.0417054;23.9777;0.0532475;0.0544108;21.5928;0.0463117;87.5547;132.555;-0.00907348;-0.00322895;0.00753732;0.00365246;0.0776166;0.00787792;0.045273;0;0.0884684;-0.508248;-3.17705;-1.41923;3.51656;-7.00497;-0.0038123;0.00326912;0.0710772;0.0712197;-0.00395474;0.0375872;0.0536361;18.6442;0.0488514;0.0501163;18.0087;0.0555288;88.1583;133.158;-0.00192395;-0.00381009;0.00409042;0.00250524;0.0710744;0.0212069;0.0646049;0;0.108177;8.32147;3.14541
624000;625;;;;;;;;;;-0.203366;-1.21634;-0.423406;1.30388;-5.82447;-0.0023412;0.00703797;0.0782112;0.0788215;-0.00295149;0.0408865;0.0299343;33.4065;0.0535586;0.0545153;26.7056;0.0374453;85.111;130.111;-0.0140687;-0.00234058;0.00713353;0.00694955;0.0782106;0.0239779;0.0426443;0;0.0891136;-0.509296;-3.18392;-1.41926;3.52292;-7.00103;-0.00448929;0.00320095;0.0717397;0.0718739;-0.00462347;0.0382487;0.0625775;15.9802;0.0495291;0.0509982;15.5454;0.0643275;87.2623;132.262;-0.00211322;-0.00449064;0.00277644;0.00359526;0.0717409;-0.0004508;0.054161;0;0.101273;8.32451;3.15268
625000;626;;;;;;;;;;-0.202711;-1.21073;-0.424664;1.29896;-5.8283;-0.00227369;0.00624674;0.0785877;0.0790675;-0.00275342;0.0409104;0.0289318;34.564;0.053653;0.0545472;28.7161;0.0348236;86.3111;131.311;-0.0105604;-0.00226828;0.00725631;0.00531285;0.0785814;0.00762839;0.0575424;0;0.0870119;-0.509571;-3.1941;-1.42124;3.53297;-7.01029;-0.00339374;0.00294671;0.0707969;0.0709137;-0.00351059;0.0372122;0.0479362;20.861;0.0484884;0.0496162;20.2;0.0495051;88.9229;133.923;0.00849652;-0.00339058;0.00445139;0.00154627;0.0707917;0.014286;0.0680829;0;0.103868;8.32445;3.16018
626000;627;;;;;;;;;;-0.203028;-1.21191;-0.422478;1.2994;-5.82494;-0.00206286;0.00684887;0.0785782;0.0791557;-0.0026404;0.0408981;0.0262523;38.0919;0.0536723;0.0545307;29.9787;0.033357;85.468;130.468;-0.0105154;-0.0020603;0.00726397;0.00646481;0.0785755;0.0115023;0.0488033;0;0.0900272;-0.511355;-3.20257;-1.42489;3.54235;-7.01518;-0.00262903;0.00281345;0.0707268;0.0708345;-0.00273678;0.0367857;0.0371716;26.9022;0.0481612;0.0490475;25.8825;0.0386362;88.6468;133.647;0.00743278;-0.00262672;0.00388271;0.00181744;0.0707234;0.00464408;0.0692178;0;0.111628;8.32641;3.16616
627000;628;;;;;;;;;;-0.202183;-1.20884;-0.424475;1.29706;-5.82522;-0.001991;0.00723711;0.0790645;0.0797056;-0.0026321;0.0411689;0.0251819;39.7111;0.0540358;0.0548918;30.2822;0.0330227;85.037;130.037;-0.0102279;-0.00199004;0.00738137;0.00710368;0.0790635;0.00366981;0.0409829;0;0.0916709;-0.511686;-3.2087;-1.42774;3.54909;-7.01803;-0.00213905;0.00261774;0.0719909;0.0720832;-0.00223137;0.0371573;0.0297128;33.6556;0.0488163;0.0495431;32.3044;0.0309555;88.8116;133.812;0.00474266;-0.00213691;0.0037048;0.00160585;0.0719877;0.00752436;0.0668146;0;0.125351;8.32464;3.16843
628000;629;;;;;;;;;;-0.202436;-1.20584;-0.427375;1.29525;-5.82892;-0.00210511;0.00728175;0.0794872;0.080132;-0.00274988;0.0414409;0.0264837;37.7591;0.0543611;0.0552546;29.1402;0.0343169;85.002;130.002;-0.0124015;-0.00210451;0.00737228;0.00719807;0.0794866;0.013133;0.0432083;0;0.0976858;-0.511991;-3.2163;-1.43082;3.55725;-7.02343;-0.00188395;0.00350984;0.072462;0.0726273;-0.00204928;0.0373383;0.0259991;38.4629;0.0491155;0.0497844;35.4405;0.0282163;88.2034;133.203;0.00391484;-0.00188067;0.00469961;0.00240254;0.0724574;0.0173836;0.0546815;0;0.112051;8.32696;3.17563
629000;630;;;;;;;;;;-0.202219;-1.204;-0.427907;1.29368;-5.82865;-0.00189355;0.00750937;0.0793879;0.0800759;-0.00258149;0.0413287;0.0238518;41.9255;0.0542649;0.0551049;31.0192;0.0322381;84.5801;129.58;-0.0165419;-0.00189546;0.00723852;0.00775982;0.0793898;0.0131067;0.0391707;0;0.0885451;-0.512965;-3.22294;-1.43434;3.5648;-7.02481;-0.00336785;0.00329513;0.0710764;0.071222;-0.00351342;0.0373677;0.0473835;21.1044;0.0486947;0.0498236;20.2714;0.0493305;88.0462;133.046;-0.00495396;-0.00336584;0.00402395;0.00261696;0.0710739;0.0176644;0.0702722;0;0.10576;8.32726;3.18282
630000;631;;;;;;;;;;-0.201475;-1.20148;-0.428287;1.29134;-5.82983;-0.00241389;0.00749049;0.0796841;0.0803619;-0.00309171;0.0417268;0.0302932;33.0107;0.0546344;0.0556358;25.9927;0.0384724;84.5674;129.567;-0.0177561;-0.0024166;0.0071091;0.00784287;0.0796867;0.015621;0.0479314;0;0.0955485;-0.513922;-3.23059;-1.43709;3.57296;-7.03283;-0.00191689;0.00329957;0.0715072;0.0716552;-0.00206487;0.03686;0.026807;37.3037;0.0484731;0.0491467;34.702;0.0288168;87.5828;132.583;0.00346482;-0.00191631;0.00349566;0.00311691;0.0715066;0.016396;0.0567568;0;0.106275;8.32817;3.19036
631000;632;;;;;;;;;;-0.202073;-1.20015;-0.424984;1.28911;-5.82443;-0.00261364;0.00739285;0.0791864;0.0798491;-0.00327641;0.0415628;0.0330062;30.2974;0.0543578;0.055417;24.3709;0.0410325;84.8054;129.805;-0.0201006;-0.00261435;0.00728949;0.00748837;0.0791871;0.00311772;0.0451104;0;0.0914821;-0.514266;-3.23817;-1.43484;3.57897;-7.0275;-0.00311541;0.00296551;0.0716917;0.0718091;-0.00323279;0.0375209;0.0434557;23.0119;0.0489859;0.0500279;22.2127;0.0450192;88.4775;133.477;0.00196674;-0.00311317;0.00392016;0.0020775;0.0716886;0.0274754;0.0568837;0;0.11035;8.32845;3.19733
632000;633;;;;;;;;;;-0.20163;-1.19809;-0.42712;1.28783;-5.82657;-0.00264846;0.00729116;0.079047;0.0796926;-0.00329408;0.0414934;0.0335049;29.8464;0.0542598;0.0553245;24.1927;0.0413348;85.0398;130.04;-0.0215146;-0.0026475;0.00743504;0.00715817;0.079046;0.00691761;0.0461017;0;0.0989402;-0.514157;-3.24402;-1.43919;3.58598;-7.02797;-0.00371709;0.00319003;0.0730907;0.0732229;-0.00384936;0.0385361;0.0508559;19.6634;0.0501477;0.0513815;19.0221;0.0525704;88.5544;133.554;0.00151806;-0.00371414;0.00439704;0.00206941;0.0730864;0.0125942;0.060202;0;0.108197;8.33173;3.20455
633000;634;;;;;;;;;;-0.201398;-1.19468;-0.426919;1.28456;-5.82637;-0.00292641;0.00740397;0.0794852;0.0801451;-0.00358631;0.0418657;0.0368171;27.1613;0.0546647;0.0558209;22.3475;0.0447477;84.7905;129.79;-0.0127726;-0.00292758;0.00723615;0.00755897;0.0794863;0.00171491;0.0466366;0;0.0881982;-0.514755;-3.25044;-1.43857;3.59163;-7.02419;-0.00350064;0.00294475;0.0731452;0.0732581;-0.00361361;0.0384359;0.0478587;20.8948;0.0500868;0.0512478;20.2729;0.049327;89.7256;134.726;0.00616935;-0.00349647;0.00545656;0.00061232;0.0731353;0.0117526;0.078246;0;0.11116;8.32889;3.21161
634000;635;;;;;;;;;;-0.201441;-1.19318;-0.426841;1.28315;-5.82629;-0.00263724;0.00712306;0.0799506;0.0805605;-0.00324709;0.0419038;0.0329858;30.316;0.0548214;0.0558717;24.8101;0.0403062;85.3074;130.307;-0.0178415;-0.00263534;0.00741579;0.0068527;0.0799487;0.00750197;0.0421944;0;0.095627;-0.51657;-3.26018;-1.44789;3.60445;-7.0418;-0.00254319;0.00225753;0.0722658;0.0723339;-0.00261125;0.0374726;0.0351921;28.4155;0.0491162;0.0499634;27.7009;0.0361;88.5624;133.562;0.00625493;-0.00254245;0.00263506;0.00190634;0.072265;0.000729646;0.0769435;0;0.116531;8.33118;3.21937
635000;636;;;;;;;;;;-0.200026;-1.19033;-0.428259;1.28074;-5.8277;-0.00248115;0.0079113;0.0806002;0.0813468;-0.00322778;0.0422873;0.0307834;32.4851;0.0553385;0.0563831;25.2021;0.0396792;84.47;129.47;-0.0166125;-0.00248266;0.00770707;0.00809982;0.0806017;0.0064447;0.0356949;0;0.093387;-0.516657;-3.2691;-1.44916;3.61304;-7.04907;-0.00224572;0.00297605;0.0729505;0.0730681;-0.00236332;0.0377157;0.0307842;32.4842;0.0495187;0.0502876;30.9176;0.0323441;87.8578;132.858;0.0136757;-0.00224529;0.00313579;0.0028275;0.0729501;-0.000908922;0.0702205;0;0.118686;8.33212;3.2259
636000;637;;;;;;;;;;-0.19972;-1.18763;-0.428161;1.27815;-5.82761;-0.002696;0.00778896;0.0803484;0.0810727;-0.00342023;0.0422465;0.0335538;29.8029;0.0552238;0.0563286;23.7039;0.0421872;84.8835;129.884;-0.0158991;-0.00269397;0.00807551;0.00752444;0.0803463;0.00612803;0.0376074;0;0.0956022;-0.51634;-3.27215;-1.44909;3.61572;-7.04004;-0.00283433;0.00279735;0.0762749;0.0763737;-0.00293312;0.0396534;0.0371593;26.9111;0.0519211;0.0528712;26.0384;0.0384048;87.5968;132.597;0.000644653;-0.00283581;0.00227237;0.00328375;0.0762761;-0.00398207;0.0620975;0;0.108476;8.33461;3.23324
637000;638;;;;;;;;;;-0.200092;-1.1852;-0.425074;1.27492;-5.82535;-0.00231599;0.00755832;0.0808095;0.0814912;-0.00299765;0.0422444;0.0286599;34.892;0.0553537;0.0563259;27.185;0.036785;85.0319;130.032;-0.0100494;-0.0023141;0.00783268;0.00730505;0.0808075;0.0121624;0.0414424;0;0.0959343;-0.519136;-3.28437;-1.44879;3.62706;-7.04665;-0.00256291;0.00366115;0.0730703;0.0732471;-0.00273972;0.0379934;0.0350746;28.5107;0.0497698;0.0506579;26.7352;0.0374038;87.1462;132.146;0.00905822;-0.00256332;0.0035437;0.00377032;0.0730707;0.0047995;0.0741828;0;0.109366;8.33134;3.23712
638000;639;;;;;;;;;;-0.198537;-1.18205;-0.434694;1.275;-5.83447;-0.00216689;0.00760617;0.0814729;0.0821589;-0.00285296;0.0425059;0.0265964;37.599;0.0557479;0.0566746;28.7978;0.0347249;84.9618;129.962;-0.00582677;-0.00216568;0.00777965;0.00744611;0.0814716;0.00797453;0.0399854;0;0.099053;-0.517986;-3.28677;-1.45993;3.63354;-7.05558;-0.00196818;0.00345405;0.0740122;0.0741689;-0.00212488;0.0381469;0.0265926;37.6044;0.0501693;0.0508625;34.9051;0.0286491;87.1606;132.161;-0.00313056;-0.00196928;0.00312735;0.00375763;0.0740132;0.0205344;0.0658924;0;0.113672;8.33197;3.24245
639000;640;;;;;;;;;;-0.199367;-1.18052;-0.42961;1.27198;-5.83;-0.00230645;0.00774112;0.0815989;0.0823072;-0.00301467;0.0426609;0.0282657;35.3786;0.0559034;0.0568812;27.3022;0.036627;85.011;130.011;-0.00591366;-0.00230395;0.00809779;0.00741211;0.0815963;0.00870585;0.0489952;0;0.0998883;-0.518974;-3.2958;-1.45456;3.63969;-7.04594;-0.00248334;0.00298591;0.0745118;0.0746274;-0.00259896;0.0386132;0.0333282;30.0046;0.0506402;0.0514842;28.7143;0.0348259;88.2543;133.254;-0.00048216;-0.00248175;0.00362327;0.00239422;0.0745098;0.0136066;0.0635415;0;0.112008;8.33544;3.24909
640000;641;;;;;;;;;;-0.199753;-1.17822;-0.428676;1.2696;-5.82896;-0.00242082;0.00665016;0.0817691;0.0822911;-0.00294288;0.042617;0.0296056;33.7774;0.0558676;0.0568227;27.9628;0.0357618;85.8935;130.893;-0.00499999;-0.00241744;0.00722274;0.00612214;0.0817654;0.00706776;0.0448013;0;0.0977083;-0.520304;-3.30404;-1.45846;3.6489;-7.05428;-0.00196722;0.00292962;0.0746523;0.0747642;-0.00207907;0.0384216;0.0263518;37.9481;0.05055;0.0512288;35.9603;0.0278084;89.0729;134.073;0.010724;-0.00196381;0.00464769;0.00133403;0.0746462;0.0181645;0.0563245;0;0.106925;8.33112;3.25595
641000;642;;;;;;;;;;-0.199202;-1.17383;-0.4363;1.26804;-5.8365;-0.00240171;0.00696632;0.0820835;0.0826541;-0.00297227;0.0428132;0.0292594;34.1771;0.0561197;0.0570842;27.8084;0.0359604;85.4966;130.497;-0.00642868;-0.00240001;0.00723549;0.00671816;0.0820818;0.0104489;0.036194;0;0.0972685;-0.522115;-3.31026;-1.4692;3.65909;-7.0658;-0.00298452;0.00311814;0.0728044;0.0729325;-0.0031126;0.0380226;0.0409937;24.394;0.0496917;0.0506967;23.4314;0.0426778;87.3506;132.351;0.00658079;-0.00298572;0.00272929;0.00347952;0.0728055;0.00534996;0.0769815;0;0.111171;8.33099;3.2631
642000;643;;;;;;;;;;-0.198503;-1.1711;-0.431685;1.26382;-5.83197;-0.00288209;0.00646843;0.0820005;0.0824906;-0.00337218;0.0429314;0.0351472;28.4518;0.0561516;0.0572419;24.4621;0.0408796;86.2957;131.296;-0.0058967;-0.00287685;0.00740775;0.00560278;0.0819945;0.00242763;0.0457775;0;0.0953206;-0.521686;-3.31863;-1.46818;3.6662;-7.06567;-0.00235028;0.0019536;0.0752579;0.0753071;-0.00239942;0.0388532;0.0312296;32.0209;0.0510233;0.0518043;31.3855;0.0318618;88.7781;133.778;0.00533994;-0.00234977;0.00225345;0.00167539;0.0752573;0.00328392;0.063408;0;0.114646;8.3346;3.27016
643000;644;;;;;;;;;;-0.197291;-1.17016;-0.433581;1.2634;-5.83438;-0.00244741;0.00704347;0.0832584;0.0838334;-0.0030224;0.0434279;0.0293954;34.0189;0.0569231;0.0579038;27.7373;0.0360525;85.5553;130.555;-0.00462236;-0.00244525;0.00738302;0.00673078;0.0832561;0.000962933;0.0538262;0;0.0850415;-0.521147;-3.32585;-1.46357;3.67082;-7.05323;-0.00367856;0.00413193;0.0747264;0.0749435;-0.00389571;0.0394196;0.049227;20.314;0.0513102;0.0525595;19.2375;0.0519819;86.3093;131.309;0.00675537;-0.00368241;0.00322243;0.00497507;0.0747295;0.00995803;0.0586381;0;0.115108;8.33583;3.2779
644000;645;;;;;;;;;;-0.197058;-1.1671;-0.434447;1.26083;-5.83393;-0.00213498;0.00669022;0.0831677;0.0836892;-0.0026565;0.0431728;0.0256708;38.9548;0.056699;0.0575638;31.5035;0.0317425;86.1072;131.107;-0.0161701;-0.00212996;0.00755518;0.00589337;0.083162;0.00980016;0.0594512;0;0.100387;-0.521751;-3.33101;-1.46835;3.67748;-7.05868;-0.00339919;0.00396008;0.0747051;0.0749053;-0.00359946;0.0392524;0.0455015;21.9773;0.0511789;0.0523365;20.8101;0.0480535;87.2587;132.259;-0.00444826;-0.00339845;0.00416583;0.00376928;0.0747043;0.0204975;0.0770609;0;0.110059;8.33212;3.28531
645000;646;;;;;;;;;;-0.197037;-1.16268;-0.432725;1.25615;-5.83385;-0.00264764;0.00794045;0.0834134;0.0841399;-0.00337414;0.043757;0.0317412;31.5048;0.0572511;0.0583427;24.9367;0.0401015;84.8233;129.823;-0.00968684;-0.00264708;0.00801817;0.00786891;0.0834129;0.0102658;0.0528165;0;0.0925917;-0.524652;-3.34353;-1.47154;3.69051;-7.07887;-0.00101855;0.00259136;0.0732055;0.0732959;-0.00110891;0.0372024;0.0139136;71.8721;0.0492377;0.0496032;66.097;0.0151293;86.8392;131.839;-0.00680585;-0.00102343;0.00101693;0.00405689;0.0732081;0.022291;0.0643778;0;0.104078;8.33179;3.29274
646000;647;;;;;;;;;;-0.197398;-1.16033;-0.434787;1.25474;-5.83532;-0.00281332;0.00832545;0.0831569;0.0839558;-0.00361214;0.0437839;0.0338314;29.5583;0.0572126;0.0583786;23.2427;0.0430244;84.3037;129.304;-0.00924542;-0.00281588;0.00799801;0.00862691;0.0831594;0.00496536;0.0427338;0;0.0954898;-0.524425;-3.34818;-1.46983;3.69401;-7.06771;-0.00178959;0.00289504;0.0756142;0.0757224;-0.00189772;0.03881;0.0236674;42.2522;0.0511259;0.0517467;39.9017;0.0250616;87.973;132.973;-0.0029794;-0.00178919;0.00305017;0.00275107;0.0756138;0.0155786;0.0632505;0;0.107671;8.33345;3.30031
647000;648;;;;;;;;;;-0.196318;-1.15429;-0.438535;1.2503;-5.84046;-0.0030596;0.00540431;0.0840288;0.0843629;-0.00339368;0.0438783;0.0364113;27.464;0.0574066;0.0585044;24.8588;0.0402272;87.8924;132.892;-0.00806852;-0.00305071;0.00759656;0.00338815;0.0840156;0.0102588;0.0556001;0;0.0909921;-0.524797;-3.35504;-1.47458;3.70218;-7.07469;-0.00188789;0.00263735;0.0755254;0.0756151;-0.00197763;0.0387964;0.0249967;40.0053;0.0510821;0.0517285;38.2352;0.0261539;88.3288;133.329;0.00312656;-0.00188701;0.00302132;0.00228102;0.0755244;0.0292633;0.0579821;0;0.125785;8.33161;3.30616
648000;649;;;;;;;;;;-0.195883;-1.15269;-0.43995;1.24924;-5.84107;-0.00281917;0.00817651;0.0847255;0.0854826;-0.00357629;0.0445295;0.0332741;30.0534;0.0582171;0.0593726;23.9026;0.0418365;84.8295;129.83;-0.0112804;-0.00281778;0.00836237;0.00800566;0.0847241;0.00981939;0.0458754;0;0.0968542;-0.524869;-3.36026;-1.48275;3.71017;-7.08216;-0.00259307;0.00323566;0.076503;0.0766352;-0.00272522;0.0396802;0.033895;29.5029;0.0520223;0.0529069;28.1208;0.0355609;88.1508;133.151;0.0115438;-0.00259123;0.00391545;0.00260582;0.0765008;0.0140307;0.0608591;0;0.107399;8.33154;3.31277
649000;650;;;;;;;;;;-0.195362;-1.14883;-0.440398;1.24576;-5.84273;-0.00300052;0.00559875;0.0846337;0.0849899;-0.00335677;0.0441734;0.0354531;28.2063;0.0578114;0.0588978;25.319;0.0394961;87.6729;132.673;-0.00695474;-0.00299179;0.00763035;0.00373128;0.0846213;0.00910361;0.0473423;0;0.0876144;-0.526109;-3.36809;-1.48386;3.71788;-7.07905;-0.00252129;0.0016693;0.077204;0.0772389;-0.00255623;0.0398976;0.0326575;30.6208;0.0523655;0.0531968;30.216;0.0330951;89.2771;134.277;0.0108677;-0.00252045;0.00233787;0.00105021;0.0772027;0.0113128;0.0758523;0;0.118882;8.33575;3.31588
650000;651;;;;;;;;;;-0.195176;-1.14679;-0.441627;1.24429;-5.84264;-0.0021777;0.0057886;0.0849744;0.0853572;-0.00256049;0.0439589;0.0256277;39.0203;0.0577772;0.0586118;33.3362;0.0299974;87.4731;132.473;-0.01341;-0.00216883;0.00776;0.00397553;0.0849621;0.0161141;0.051065;0;0.0884841;-0.527619;-3.37741;-1.48473;3.72689;-7.08439;-0.00276429;0.00190082;0.0775694;0.0776144;-0.00280924;0.0402118;0.0356364;28.0612;0.0527043;0.0536158;27.6282;0.0361949;88.4209;133.421;0.00249102;-0.00276489;0.00158515;0.00219296;0.0775699;-0.00138287;0.0730062;0;0.120378;8.33612;3.32235
651000;652;;;;;;;;;;-0.19506;-1.14531;-0.442542;1.24324;-5.84232;-0.00259055;0.00776798;0.0857486;0.0864264;-0.00326841;0.0448474;0.030211;33.1005;0.0587374;0.0597966;26.4429;0.0378173;85.3402;130.34;-0.00965808;-0.00258697;0.00828395;0.00729398;0.0857447;0.0105144;0.0347817;0;0.0949475;-0.52724;-3.38363;-1.4869;3.73334;-7.0832;-0.00342114;0.0029777;0.076241;0.0763521;-0.00353228;0.0399422;0.0448727;22.2853;0.0521187;0.0532563;21.6155;0.0462631;87.1789;132.179;0.0129519;-0.0034241;0.00204266;0.00384353;0.0762431;0.00486543;0.077612;0;0.119278;8.3378;3.32877
652000;653;;;;;;;;;;-0.195271;-1.14414;-0.437623;1.24044;-5.83733;-0.0027698;0.00814968;0.0847723;0.0855245;-0.00352202;0.0445233;0.0326733;30.606;0.0582259;0.0593644;24.2828;0.0411814;84.447;129.447;-0.0161779;-0.00277313;0.00771576;0.00854858;0.0847755;0.00579816;0.0333487;0;0.0875048;-0.527019;-3.389;-1.47941;3.7352;-7.06989;-0.00346505;0.00429498;0.0792358;0.0794582;-0.00368751;0.0415729;0.0437309;22.8671;0.0542431;0.0554305;21.5479;0.0464081;86.8966;131.897;-0.00412746;-0.00346586;0.00409735;0.00447746;0.0792366;0.00950285;0.0818888;0;0.111231;8.33857;3.33647
653000;654;;;;;;;;;;-0.19451;-1.14065;-0.438884;1.23755;-5.83782;-0.00258746;0.00805968;0.0848654;0.085602;-0.00332404;0.044463;0.030489;32.7987;0.0582076;0.059284;25.7524;0.0388314;84.686;129.686;-0.0145511;-0.00258854;0.00791603;0.00819174;0.0848664;0.00518456;0.0236299;0;0.0877336;-0.529187;-3.39869;-1.49005;3.74851;-7.09216;-0.00125442;0.00309638;0.0762456;0.0763692;-0.00137793;0.0388735;0.0164523;60.7818;0.0513782;0.0518314;55.4232;0.018043;87.4594;132.459;0.00634442;-0.00125551;0.00273532;0.00343144;0.0762466;0.0110473;0.0626624;0;0.103091;8.3354;3.34292
654000;655;;;;;;;;;;-0.195896;-1.13866;-0.439087;1.23601;-5.83837;-0.00317071;0.00887512;0.0843062;0.0851976;-0.00406207;0.0446298;0.0376095;26.589;0.0581997;0.0595064;20.9739;0.0476782;83.621;128.621;-0.0174957;-0.00317922;0.00788631;0.00978415;0.0843139;0.00474809;0.0386774;0;0.0891762;-0.531002;-3.40619;-1.48955;3.75538;-7.0891;-0.00207994;0.00315083;0.0766688;0.0767946;-0.00220581;0.0395002;0.027129;36.861;0.0519473;0.052667;34.8147;0.0287235;87.2015;132.202;-0.00340598;-0.00208226;0.00243468;0.0038146;0.0766706;0.0128049;0.0679843;0;0.105059;8.33682;3.35068
655000;656;;;;;;;;;;-0.19327;-1.13624;-0.439123;1.23338;-5.83755;-0.002004;0.00791189;0.0848887;0.0856032;-0.00271853;0.0441609;0.0236074;42.3595;0.0579962;0.0588812;31.4887;0.0317574;84.7053;129.705;-0.0234499;-0.00200556;0.00770115;0.00810576;0.0848902;0.0172579;0.0365608;0;0.0922973;-0.529654;-3.41267;-1.49147;3.76183;-7.08699;-0.00283197;0.00291835;0.0773751;0.0774812;-0.00293801;0.0402096;0.0366005;27.3221;0.0526608;0.0536128;26.372;0.037919;88.0207;133.021;0.00116636;-0.00283159;0.00306095;0.00278636;0.0773747;0.0233344;0.0756746;0;0.125073;8.33892;3.35811
656000;657;;;;;;;;;;-0.193164;-1.13347;-0.439861;1.23107;-5.83792;-0.00207975;0.00726043;0.0844611;0.085066;-0.00268464;0.0438753;0.0246237;40.6113;0.0576264;0.0585004;31.6862;0.0315595;85.3597;130.36;-0.0226422;-0.00207848;0.00745103;0.00708504;0.0844598;0.00762734;0.0337927;0;0.0960135;-0.531081;-3.42137;-1.49644;3.77189;-7.09603;-0.00235778;0.00316085;0.0778304;0.0779548;-0.00248219;0.0402185;0.0302939;33.01;0.0528167;0.0536247;31.4057;0.0318413;87.5373;132.537;0.0120845;-0.00235869;0.00286426;0.00343538;0.0778313;0.0148203;0.0637072;0;0.115349;8.33744;3.36581
657000;658;;;;;;;;;;-0.193967;-1.12904;-0.439952;1.22716;-5.83951;-0.00187496;0.00723198;0.0848168;0.085416;-0.00247412;0.043945;0.022106;45.2366;0.0577863;0.0585934;34.5237;0.0289656;85.4206;130.421;-0.0142645;-0.00187334;0.00747812;0.00700551;0.0848151;0.0164214;0.044269;0;0.0882682;-0.531788;-3.42748;-1.49975;3.77885;-7.09631;-0.00269072;0.00197763;0.0805889;0.0806359;-0.00273766;0.0416868;0.0333882;29.9507;0.0546926;0.0555823;29.4543;0.0339509;88.9254;133.925;0.0109623;-0.00269003;0.00239632;0.00159121;0.0805881;0.0227147;0.0628417;0;0.118652;8.33897;3.37198
658000;659;;;;;;;;;;-0.192263;-1.12497;-0.444876;1.22492;-5.8446;-0.00146154;0.00755444;0.0859419;0.08659;-0.00210968;0.0443498;0.0170062;58.8022;0.0584426;0.0591331;41.0442;0.024364;85.0591;130.059;-0.0158298;-0.00146196;0.0074949;0.00760919;0.0859423;0.00427207;0.0395761;0;0.0901995;-0.533397;-3.43802;-1.50786;3.79185;-7.1172;-0.00216595;0.00257432;0.0762687;0.0763531;-0.00225035;0.0393017;0.028399;35.2126;0.0516685;0.0524023;33.9294;0.029473;86.7069;131.707;0.0103171;-0.00217234;0.000602544;0.00440239;0.0762716;0.0130145;0.0709867;0;0.120171;8.33578;3.37926
659000;660;;;;;;;;;;-0.19194;-1.12054;-0.447235;1.22167;-5.8478;-0.00148057;0.00728601;0.0864573;0.0870569;-0.00208015;0.0445685;0.0171248;58.3948;0.0587436;0.0594247;41.8512;0.0238942;85.7237;130.724;-0.0174693;-0.00147614;0.00797597;0.0066519;0.0864525;0.0163924;0.0320215;0;0.095377;-0.532992;-3.4414;-1.50984;3.79564;-7.10599;-0.00381911;0.00325097;0.0761151;0.0762471;-0.00395111;0.0400991;0.0501755;19.93;0.0521983;0.0534655;19.2976;0.0518199;87.1927;132.193;0.00468617;-0.00382128;0.00259625;0.00385706;0.0761169;0.00639833;0.0791068;0;0.114335;8.33539;3.38497
660000;661;;;;;;;;;;-0.192252;-1.11951;-0.445577;1.22016;-5.84514;-0.002267;0.00616637;0.0867719;0.087197;-0.00269202;0.0449445;0.0261259;38.2761;0.0590491;0.059926;32.3909;0.0308729;86.8176;131.818;-0.0197296;-0.00226071;0.00738561;0.00504701;0.0867643;0.0146424;0.0409443;0;0.0966782;-0.533607;-3.44725;-1.50752;3.80012;-7.10201;-0.00212177;0.00344972;0.07784;0.0779885;-0.00227032;0.0401294;0.0272581;36.6864;0.0527654;0.0535059;34.3513;0.029111;87.2291;132.229;0.00278058;-0.00212324;0.00301502;0.00385217;0.0778413;0.00335852;0.0715721;0;0.110163;8.33341;3.3886
661000;662;;;;;;;;;;-0.192065;-1.11558;-0.444865;1.21627;-5.84554;-0.00191181;0.00588609;0.0871616;0.0875489;-0.00229909;0.044924;0.0219341;45.5911;0.0591472;0.0598986;38.0798;0.0262606;87.2346;132.235;-0.0179629;-0.00190416;0.00750267;0.00440195;0.0871516;0.0159771;0.0530629;0;0.100783;-0.534492;-3.45655;-1.51139;3.81021;-7.11093;-0.00183967;0.00310745;0.0783415;0.0784617;-0.00195992;0.0402108;0.0234827;42.5845;0.0529732;0.0536144;40.0331;0.0249793;87.0584;132.058;0.000293442;-0.00184315;0.00206261;0.00407459;0.078344;0.00793543;0.0674679;0;0.108662;8.33571;3.39451
662000;663;;;;;;;;;;-0.191301;-1.11463;-0.439199;1.21322;-5.83871;-0.00207545;0.00662152;0.0874694;0.0879564;-0.00256244;0.0452594;0.0237277;42.1448;0.0595102;0.0603459;34.3253;0.0291331;86.7691;131.769;-0.0152347;-0.00206688;0.00820308;0.00517017;0.0874587;0.00849432;0.0394053;0;0.0912931;-0.535613;-3.46772;-1.50211;3.81684;-7.10333;-0.00233826;0.00337294;0.0784573;0.0785978;-0.00247882;0.0405383;0.0298029;33.5538;0.0532441;0.0540511;31.7078;0.031538;87.1698;132.17;0.00380227;-0.00234042;0.00273699;0.00396124;0.0784591;0.0310365;0.065387;0;0.125759;8.3353;3.4014
663000;664;;;;;;;;;;-0.190418;-1.10984;-0.443541;1.21026;-5.84322;-0.00206556;0.00667034;0.0883787;0.088868;-0.00255486;0.0457114;0.0233717;42.7868;0.0601151;0.0609486;34.7839;0.0287489;86.6622;131.662;-0.0165121;-0.00205778;0.00807684;0.00538071;0.0883692;0.0147533;0.0442196;0;0.0909752;-0.535366;-3.47112;-1.51103;3.82341;-7.10599;-0.00328816;0.00370967;0.0801004;0.0802651;-0.00345287;0.041859;0.0410505;24.3603;0.0546974;0.055812;23.2459;0.0430183;87.7673;132.767;-0.00181576;-0.00328671;0.00415784;0.00329611;0.0800988;0.0229994;0.0648128;0;0.121366;8.33474;3.40899
664000;665;;;;;;;;;;-0.190344;-1.10605;-0.447314;1.20817;-5.84837;-0.00178491;0.00668832;0.0887111;0.0892028;-0.00227655;0.0457397;0.0201204;49.7007;0.0602417;0.0609862;39.1833;0.0255211;86.3981;131.398;-0.0154229;-0.00177921;0.00768323;0.0057761;0.0887046;0.0149047;0.0371375;0;0.0931601;-0.536598;-3.47805;-1.51307;3.83068;-7.10198;-0.00310556;0.00179152;0.0816476;0.0816855;-0.00314341;0.0424144;0.0380361;26.2908;0.0555344;0.0565526;25.9863;0.0384818;89.3698;134.37;0.00455295;-0.00310445;0.00265188;0.000998572;0.0816459;0.0268098;0.058459;0;0.129717;8.33583;3.41641
665000;666;;;;;;;;;;-0.189359;-1.10408;-0.447541;1.20629;-5.84648;-0.00231226;0.00620429;0.0889843;0.089404;-0.00273196;0.046068;0.0259851;38.4836;0.0605339;0.061424;32.7252;0.0305575;87.0206;132.021;-0.0147985;-0.00230481;0.00767188;0.00485973;0.088975;0.0135524;0.0540489;0;0.0975745;-0.536038;-3.48463;-1.51621;3.83782;-7.1124;-0.00457494;0.00240043;0.0817292;0.0817959;-0.00464166;0.0432188;0.0559769;17.8645;0.0561418;0.057625;17.6221;0.0567468;88.1266;133.127;0.0146171;-0.00457593;0.00199047;0.00277768;0.08173;0.00415678;0.0607435;0;0.118502;8.33513;3.4243
666000;667;;;;;;;;;;-0.188463;-1.10099;-0.453567;1.20558;-5.85339;-0.00167745;0.00702375;0.0905433;0.0910752;-0.00220933;0.0466423;0.0185265;53.9766;0.0614665;0.0621897;41.223;0.0242583;86.5663;131.566;-0.0181723;-0.00166865;0.00854107;0.00563473;0.0905325;0.0102974;0.0430732;0;0.0949769;-0.536378;-3.49438;-1.52315;3.84947;-7.12034;-0.00399743;0.00294311;0.0789544;0.0790587;-0.00410172;0.0415802;0.0506296;19.7513;0.0541249;0.0554403;19.2745;0.0518819;87.5029;132.503;0.0165272;-0.00399942;0.00228291;0.00355255;0.078956;0.0100644;0.0775001;0;0.118113;8.33588;3.43058
667000;668;;;;;;;;;;-0.188869;-1.09651;-0.448141;1.19952;-5.84805;-0.00201704;0.00806158;0.0899614;0.0906626;-0.00271826;0.0466904;0.0224212;44.6007;0.0613679;0.0622539;33.3531;0.0299822;85.7413;130.741;-0.0203245;-0.00200882;0.00925388;0.00696988;0.0899519;0.0130708;0.0477849;0;0.0907059;-0.538083;-3.50227;-1.52114;3.85607;-7.11934;-0.00200112;0.00204991;0.0793749;0.0794265;-0.00205272;0.0407396;0.025211;39.6653;0.0536483;0.0543195;38.6932;0.0258443;88.9274;133.927;0.00942568;-0.00200022;0.00258855;0.00155188;0.0793737;0.0188354;0.0788002;0;0.112094;8.33336;3.43754
668000;669;;;;;;;;;;-0.188832;-1.0951;-0.447364;1.19793;-5.84542;-0.00227438;0.00753579;0.0899326;0.0905444;-0.0028862;0.0467153;0.0252899;39.5416;0.0613476;0.062287;31.3715;0.0318761;85.8144;130.814;-0.0195511;-0.00226937;0.00829618;0.00683972;0.089927;0.0116876;0.0335191;0;0.0872013;-0.538417;-3.50772;-1.52041;3.86078;-7.11589;-0.00250316;0.00324962;0.0805511;0.080678;-0.00263011;0.0416541;0.0310754;32.1798;0.0546832;0.0555388;30.6748;0.0326001;87.7214;132.721;-0.00134404;-0.00250334;0.00318873;0.00330583;0.0805513;0.0197937;0.0802286;0;0.112849;8.33181;3.44454
669000;670;;;;;;;;;;-0.189252;-1.09053;-0.450647;1.19505;-5.84877;-0.00213845;0.00743843;0.0895659;0.0901653;-0.00273788;0.0464516;0.0238757;41.8836;0.0610433;0.0619355;32.9325;0.0303652;85.9262;130.926;-0.0143512;-0.00213272;0.00832545;0.00662607;0.0895595;0.0174377;0.0475004;0;0.0937137;-0.540054;-3.51529;-1.5262;3.87017;-7.12575;-0.0019699;0.00318761;0.0794438;0.0795684;-0.00209451;0.0408314;0.0247961;40.3289;0.0537574;0.0544419;37.989;0.0263234;87.3296;132.33;-0.00421549;-0.00197193;0.00255757;0.00377013;0.0794454;0.0143429;0.0757896;0;0.115848;8.33172;3.45212
670000;671;;;;;;;;;;-0.188024;-1.08438;-0.451714;1.18966;-5.85136;-0.00214079;0.00686215;0.0890018;0.0895155;-0.00265455;0.046085;0.0240533;41.5743;0.0605813;0.0614467;33.7216;0.0296546;86.5122;131.512;-0.0122007;-0.00213325;0.00817316;0.00566085;0.0889927;0.0130493;0.0486892;0;0.0889226;-0.540764;-3.52412;-1.52708;3.87863;-7.13133;-0.00201745;0.00341517;0.0806283;0.0807691;-0.00215834;0.0414637;0.0250216;39.9654;0.0545798;0.055285;37.4219;0.0267223;87.5611;132.561;0.00822677;-0.00201782;0.00330158;0.00352008;0.0806286;0.0219452;0.0642767;0;0.123058;8.33318;3.45788
671000;672;;;;;;;;;;-0.188625;-1.0834;-0.450478;1.18839;-5.8512;-0.0022826;0.0068087;0.0904538;0.090951;-0.00277983;0.0468654;0.025235;39.6276;0.0615815;0.0624872;32.7182;0.030564;86.3676;131.368;-0.0156226;-0.00227724;0.00772233;0.00597277;0.0904477;0.0149927;0.0453659;0;0.0867966;-0.541312;-3.53044;-1.52757;3.88465;-7.11775;-0.00289471;0.00196161;0.0837543;0.0837987;-0.0029391;0.0433689;0.034562;28.9335;0.0568708;0.0578252;28.5117;0.0350733;89.1387;134.139;-0.000293769;-0.0028937;0.00262678;0.00134962;0.0837529;0.023931;0.0762066;0;0.127121;8.32948;3.46232
672000;673;;;;;;;;;;-0.188124;-1.08117;-0.452035;1.18687;-5.85124;-0.002069;0.00837962;0.0895507;0.0903108;-0.0028291;0.0465699;0.0231043;43.2821;0.061172;0.0620933;31.922;0.0313263;84.6609;129.661;-0.0174636;-0.00207103;0.00811999;0.00861741;0.0895526;0.0170055;0.0505556;0;0.0906627;-0.54266;-3.53649;-1.53454;3.89308;-7.12895;-0.00285049;0.00196949;0.0819811;0.0820268;-0.00289619;0.0424615;0.03477;28.7604;0.0556751;0.0566154;28.3224;0.0353078;89.0141;134.014;7.79118e-05;-0.00284967;0.00248263;0.00149659;0.0819801;0.0278006;0.0643162;0;0.132646;8.33127;3.46699
673000;674;;;;;;;;;;-0.187751;-1.07935;-0.449773;1.18429;-5.84697;-0.00203376;0.00868316;0.0888561;0.0896782;-0.00285587;0.046267;0.0228882;43.6906;0.0607598;0.0616894;31.4014;0.0318457;84.208;129.208;-0.0203287;-0.00203897;0.00805047;0.00926303;0.0888609;0.0166559;0.0450746;0;0.093007;-0.543921;-3.54661;-1.5371;3.90345;-7.14172;-0.0039373;0.00233654;0.0809877;0.081052;-0.00400154;0.0425268;0.048616;20.5693;0.0554167;0.0567023;20.2552;0.04937;86.9804;131.98;0.0124364;-0.00394373;0.000234314;0.00427359;0.0809902;0.0220716;0.0614799;0;0.125395;8.33131;3.47404
674000;675;;;;;;;;;;-0.187105;-1.07475;-0.45243;1.18101;-5.85049;-0.002323;0.00797801;0.0902896;0.0909718;-0.00300523;0.0469885;0.0257283;38.8677;0.061674;0.0626514;30.2712;0.0330347;85.1208;130.121;-0.0222708;-0.00232289;0.00799219;0.00796502;0.0902895;0.0240466;0.0370212;0;0.0881988;-0.542851;-3.55208;-1.54149;3.91001;-7.14115;-0.00259473;0.0016552;0.0815107;0.0815433;-0.0026273;0.0420853;0.0318331;31.4139;0.0552588;0.0561137;31.0369;0.0322197;89.2477;134.248;0.00362047;-0.00259401;0.00221335;0.00114046;0.0815097;0.00622164;0.071265;0;0.116831;8.33211;3.48201
675000;676;;;;;;;;;;-0.186957;-1.0706;-0.455123;1.17825;-5.85325;-0.00246511;0.00745492;0.0899331;0.0905307;-0.00306273;0.0467967;0.0274105;36.4824;0.0614002;0.0623956;29.5588;0.0338308;85.412;130.412;-0.019536;-0.00246517;0.00744699;0.00746218;0.0899332;0.0218176;0.0352897;0;0.0850499;-0.543425;-3.55927;-1.53739;3.91501;-7.13077;-0.00170072;0.00256486;0.0820806;0.0821591;-0.00177916;0.0419691;0.0207201;48.2624;0.0553753;0.0559588;46.1785;0.0216551;88.3713;133.371;-0.00195832;-0.00170029;0.00275179;0.00239241;0.0820802;0.0173545;0.0724316;0;0.113397;8.33181;3.48887
676000;677;;;;;;;;;;-0.186828;-1.06649;-0.454999;1.17445;-5.85491;-0.00274944;0.00814129;0.0906346;0.091339;-0.00345389;0.0473965;0.0303355;32.9647;0.062076;0.0631953;26.4452;0.037814;85.0075;130.008;-0.0197013;-0.00275003;0.0080625;0.00821333;0.0906352;0.0215994;0.0522458;0;0.0867883;-0.543737;-3.56514;-1.53897;3.92101;-7.12945;-0.00315397;0.00379612;0.0832543;0.0834207;-0.00332042;0.0433706;0.0378836;26.3966;0.056753;0.0578274;25.1235;0.0398033;87.6097;132.61;0.00737883;-0.00315335;0.00397838;0.00362839;0.0832536;-0.000199174;0.0681553;0;0.122815;8.33334;3.49609
677000;678;;;;;;;;;;-0.186736;-1.06658;-0.449231;1.1723;-5.84698;-0.00228716;0.00700022;0.0908036;0.0913271;-0.00281061;0.0470688;0.0251879;39.7016;0.0618429;0.0627585;32.4937;0.0307752;86.2926;131.293;-0.0214651;-0.00228139;0.00795929;0.006123;0.090797;0.0256197;0.0248707;0;0.0934031;-0.546956;-3.57782;-1.53912;3.93304;-7.14203;-0.00204054;0.00414505;0.0808111;0.081018;-0.0022474;0.0416327;0.0252508;39.6028;0.0547765;0.0555102;36.0496;0.0277395;86.7461;131.746;0.00813546;-0.00204295;0.00355519;0.00468969;0.0808132;0.0203116;0.0754263;0;0.126962;8.33076;3.50313
678000;679;;;;;;;;;;-0.185258;-1.05569;-0.459366;1.16611;-5.86056;-0.00245402;0.00696795;0.0915849;0.0920984;-0.00296751;0.0475329;0.026795;37.3204;0.0624116;0.0633773;31.0355;0.0322211;86.4129;131.413;-0.0227866;-0.00244769;0.00803386;0.00599387;0.0915776;0.0219797;0.0483141;0;0.0916989;-0.54551;-3.58118;-1.55449;3.94194;-7.15063;-0.00224581;0.00252256;0.0834521;0.0835262;-0.00231999;0.0429231;0.0269113;37.1591;0.0564734;0.0572308;36.0028;0.0277756;88.3534;133.353;0.0103765;-0.00224567;0.00258086;0.00246887;0.0834519;0.0192132;0.0495044;0;0.12927;8.32844;3.51152
679000;680;;;;;;;;;;-0.185918;-1.05598;-0.451438;1.16338;-5.85066;-0.00202936;0.00722749;0.0902955;0.0908579;-0.00259173;0.0467248;0.0224747;44.4945;0.0614541;0.0622997;35.0568;0.0285251;85.9258;130.926;-0.0168485;-0.00202536;0.00785743;0.00665089;0.0902912;0.017617;0.0431881;0;0.104742;-0.546684;-3.5885;-1.5477;3.94609;-7.14205;-0.00220148;0.00234335;0.0840282;0.0840918;-0.00226512;0.0431785;0.0261994;38.1689;0.0568313;0.0575713;37.1247;0.0269363;89.3234;134.323;0.00468393;-0.00219933;0.00370445;0.00109052;0.0840244;0.0255267;0.054054;0;0.118452;8.32797;3.5187
680000;681;;;;;;;;;;-0.184719;-1.04776;-0.459164;1.15877;-5.86203;-0.00148223;0.00656913;0.0924632;0.0929203;-0.00193936;0.0474298;0.0160305;62.381;0.0626033;0.0632398;47.913;0.0208712;86.6032;131.603;-0.0240925;-0.00147657;0.00758202;0.00564335;0.0924566;0.0229311;0.0546744;0;0.105408;-0.547002;-3.59642;-1.55175;3.95492;-7.14856;-0.00551001;0.00144322;0.0861862;0.0862089;-0.00553272;0.0458708;0.0639315;15.6417;0.0594028;0.0611611;15.5816;0.0641781;88.8528;133.853;0.00384647;-0.00551057;0.00106748;0.00178724;0.0861866;0.00180332;0.0820963;0;0.132946;8.3281;3.5263
681000;682;;;;;;;;;;-0.184549;-1.04717;-0.462105;1.15938;-5.86243;-0.00201537;0.00785881;0.0924584;0.0931077;-0.00266465;0.0478862;0.0217976;45.8765;0.0629788;0.0638482;34.9418;0.028619;85.1637;130.164;-0.0267001;-0.0020168;0.00766322;0.00803749;0.0924598;0.0241795;0.0468632;0;0.0987084;-0.549021;-3.60449;-1.5565;3.9644;-7.157;-0.00443723;0.0021381;0.0850743;0.0851254;-0.00448827;0.0448068;0.0521571;19.1729;0.058304;0.0597424;18.9662;0.0527254;88.077;133.077;0.0077938;-0.0044392;0.00128981;0.00291641;0.0850757;0.0106293;0.0790095;0;0.118715;8.32483;3.53337
682000;683;;;;;;;;;;-0.184362;-1.04615;-0.455259;1.15572;-5.85557;-0.00195699;0.0060657;0.0926667;0.0930539;-0.00234424;0.0476991;0.0211186;47.3517;0.0628319;0.0635988;39.6948;0.0251922;87.3736;132.374;-0.0165946;-0.00194845;0.00784231;0.00444292;0.0926553;0.0128413;0.0534106;0;0.100023;-0.550169;-3.61468;-1.56064;3.97545;-7.16484;-0.00212113;0.00321765;0.0791627;0.0792899;-0.0022483;0.0407691;0.0267945;37.321;0.0536251;0.0543588;35.2666;0.0283555;86.6315;131.632;0.0120429;-0.00212702;0.00161318;0.00470126;0.0791663;0.00265298;0.0813605;0;0.11765;8.32459;3.53912
683000;684;;;;;;;;;;-0.184518;-1.04103;-0.46103;1.1534;-5.86025;-0.00224883;0.00834204;0.0930366;0.0937615;-0.00297364;0.0483676;0.0241714;41.3711;0.0635221;0.0644901;31.5308;0.031715;85.3585;130.359;-0.0187284;-0.00224467;0.00890379;0.00782925;0.0930322;0.0181754;0.0505411;0;0.105726;-0.549139;-3.62007;-1.55714;3.97884;-7.15262;-0.00181655;0.00364919;0.0829374;0.0830942;-0.00197338;0.0425338;0.0219026;45.6566;0.0560655;0.0567117;42.1076;0.0237487;87.2324;132.232;0.00683027;-0.00181823;0.00317881;0.00408276;0.0829389;-0.00675952;0.0708506;0;0.123657;8.32112;3.54375
684000;685;;;;;;;;;;-0.184145;-1.03565;-0.458944;1.14765;-5.86106;-0.00262505;0.00697514;0.0944071;0.0949059;-0.00312389;0.0490149;0.0278056;35.964;0.0643372;0.0653532;30.3807;0.0329156;86.4691;131.469;-0.0235249;-0.00261919;0.00795664;0.00608065;0.0944004;0.0222251;0.0599576;0;0.101158;-0.550725;-3.62708;-1.55826;3.98588;-7.15557;-0.00339883;0.00426526;0.0828286;0.0830391;-0.0036093;0.0433242;0.0410345;24.3697;0.0566009;0.0577656;23.007;0.0434651;87.0724;132.072;0.0118691;-0.00339945;0.00411112;0.00440714;0.0828292;0.0167246;0.072375;0;0.121725;8.32115;3.5488
685000;686;;;;;;;;;;-0.184169;-1.0348;-0.461829;1.14805;-5.86222;-0.00254091;0.00796874;0.0927584;0.0934202;-0.00320264;0.0483114;0.0273927;36.5061;0.0633746;0.0644152;29.1697;0.0342821;85.6089;130.609;-0.0232989;-0.0025366;0.00858116;0.00740972;0.0927538;0.0149606;0.056663;0;0.104305;-0.55228;-3.6382;-1.56324;3.99815;-7.16362;-0.00154443;0.00245111;0.0836648;0.0837352;-0.00161488;0.0426751;0.0184597;54.172;0.0563695;0.0569001;51.8523;0.0192855;87.6658;132.666;0.000754029;-0.00154733;0.00138248;0.00343571;0.0836667;0.0185388;0.0609583;0;0.127302;8.32177;3.55589
686000;687;;;;;;;;;;-0.181492;-1.027;-0.4651;1.14192;-5.86654;-0.00270698;0.00617114;0.0937154;0.0941087;-0.00310034;0.0486045;0.0288852;34.6199;0.0637977;0.0648061;30.3543;0.0329442;87.5031;132.503;-0.011478;-0.00269737;0.00817056;0.00434797;0.0937023;0.00875252;0.0530059;0;0.0839035;-0.551175;-3.64294;-1.56511;4.00305;-7.1582;-0.00258554;0.00228372;0.084845;0.0849046;-0.00264515;0.0437749;0.0304737;32.8151;0.057505;0.0583665;32.0982;0.0311544;88.9664;133.966;0.00492018;-0.00258425;0.00300283;0.00162256;0.0848432;0.0208961;0.0526036;0;0.135963;8.32114;3.56268
687000;688;;;;;;;;;;-0.182195;-1.02318;-0.465813;1.13889;-5.86675;-0.00205818;0.00626333;0.0944204;0.0948253;-0.00246309;0.0486442;0.0217981;45.8757;0.0640537;0.0648589;38.4985;0.0259751;87.602;132.602;-0.010614;-0.00204723;0.00856005;0.00416906;0.0944048;0.0144183;0.0511942;0;0.0826935;-0.553878;-3.65309;-1.57104;4.01497;-7.17716;-0.00133423;0.00331616;0.0831669;0.0832968;-0.00146417;0.0423805;0.0160429;62.3331;0.0560256;0.0565073;56.89;0.0175778;86.4347;131.435;0.00698145;-0.00134228;0.00127033;0.00520239;0.0831712;0.0191522;0.0570841;0;0.126026;8.31938;3.57044
688000;689;;;;;;;;;;-0.18239;-1.02119;-0.466738;1.13751;-5.86571;-0.00245014;0.00585565;0.0934496;0.0938059;-0.00280636;0.0483061;0.0262188;38.1406;0.0634934;0.0644082;33.4262;0.0299167;87.7196;132.72;-0.0119625;-0.00244078;0.00794244;0.00395187;0.0934365;0.0237389;0.0450675;0;0.0833753;-0.554008;-3.65627;-1.56968;4.01736;-7.16787;-0.00490999;0.00319205;0.085152;0.085265;-0.00502299;0.045144;0.0576615;17.3426;0.0585895;0.060192;16.975;0.0589103;87.262;132.262;0.0115515;-0.00491366;0.00211181;0.00418264;0.0851546;0.00346886;0.073866;0;0.124379;8.31732;3.57673
689000;690;;;;;;;;;;-0.182935;-1.01825;-0.467305;1.1352;-5.86549;-0.0027399;0.00642748;0.0934898;0.0939172;-0.00316731;0.0485423;0.0293069;34.1216;0.0636935;0.064723;29.652;0.0337245;87.0936;132.094;-0.00762734;-0.00273176;0.00798336;0.00500851;0.0934795;0.0191674;0.042658;0;0.0788624;-0.55525;-3.66294;-1.57383;4.02521;-7.16871;-0.00372402;0.00131638;0.0871805;0.0871996;-0.00374308;0.0454713;0.0427162;23.4103;0.0594201;0.0606284;23.2962;0.0429254;87.7855;132.786;-0.00368434;-0.00372871;-0.000878717;0.00332793;0.087181;0.0230601;0.0664081;0;0.11833;8.31683;3.58482
690000;691;;;;;;;;;;-0.181169;-1.01287;-0.469491;1.131;-5.86855;-0.00290314;0.00675735;0.0943157;0.0947831;-0.00337057;0.0490768;0.0307811;32.4875;0.0643417;0.0654358;28.1208;0.0355609;86.9295;131.929;-0.0150421;-0.00289458;0.00830577;0.00534648;0.094305;0.0338791;0.0444972;0;0.0789667;-0.554441;-3.67211;-1.57638;4.03445;-7.17313;-0.00245681;0.00346701;0.0831744;0.0833145;-0.00259695;0.0429557;0.0295381;33.8546;0.0564286;0.0572743;32.0817;0.0311705;86.977;131.977;0.0111993;-0.00246077;0.00238591;0.00446264;0.0831773;0.00792;0.0853456;0;0.118455;8.31541;3.59199
691000;692;;;;;;;;;;-0.180289;-1.01037;-0.463294;1.12605;-5.86142;-0.00237524;0.00880067;0.0939296;0.0947272;-0.00317287;0.04895;0.0252875;39.5452;0.0642352;0.0652667;29.8553;0.0334948;85.0394;130.039;-0.0215223;-0.00237224;0.00918198;0.00845292;0.0939264;0.0262447;0.0367043;0;0.0838718;-0.554798;-3.67886;-1.57419;4.03979;-7.17181;-0.00230244;0.00358129;0.0839291;0.0840776;-0.00245092;0.0432643;0.0274332;36.4522;0.0568863;0.0576857;34.3045;0.0291507;87.3489;132.349;0.011087;-0.00230393;0.00315357;0.00397499;0.0839305;0.0127474;0.0731991;0;0.133609;8.31353;3.59957
692000;693;;;;;;;;;;-0.180186;-1.00754;-0.463501;1.12358;-5.86162;-0.00236279;0.00851515;0.0948238;0.0955642;-0.00310322;0.0493337;0.0249177;40.1321;0.0647687;0.0657783;30.7952;0.0324726;85.404;130.404;-0.0225936;-0.00235784;0.00917521;0.00791368;0.0948185;0.0326779;0.0391394;0;0.0894123;-0.555239;-3.68768;-1.5781;4.04941;-7.17691;-0.00289235;0.00236353;0.085157;0.0852204;-0.00295575;0.0440881;0.033965;29.4421;0.057824;0.0587841;28.832;0.0346836;88.9158;133.916;-0.00125889;-0.00289103;0.00306831;0.00171594;0.0851552;0.0268521;0.0624403;0;0.123992;8.31346;3.60506
693000;694;;;;;;;;;;-0.180322;-1.00298;-0.465184;1.12022;-5.86442;-0.00225012;0.00835374;0.0936898;0.0944118;-0.00297207;0.0486919;0.0240167;41.6377;0.0639549;0.0649226;31.7664;0.0314798;85.066;130.066;-0.0227331;-0.00225005;0.00836316;0.00834514;0.0936897;0.0318039;0.051539;0;0.0913736;-0.556818;-3.69454;-1.57926;4.05632;-7.17083;-0.00246033;0.00241278;0.0861569;0.0862226;-0.00252597;0.0443743;0.0285563;35.0185;0.0583419;0.0591657;34.1344;0.0292959;88.6358;133.636;0.00910242;-0.00245968;0.00272096;0.00212974;0.0861562;0.0193043;0.0638883;0;0.124067;8.31016;3.61128
694000;695;;;;;;;;;;-0.179084;-1.00026;-0.461255;1.11595;-5.86127;-0.00237324;0.00837003;0.0928218;0.0935522;-0.00310357;0.0483279;0.0255677;39.1119;0.063428;0.0644372;30.1434;0.0331748;84.6637;129.664;-0.0229798;-0.00237801;0.00776703;0.00892049;0.0928263;0.0307087;0.0496176;0;0.0971299;-0.557698;-3.7044;-1.58177;4.0664;-7.18684;-0.00150873;0.00157651;0.0879326;0.0879604;-0.0015365;0.0447485;0.0171577;58.2827;0.0591591;0.0596646;57.2471;0.0174681;88.889;133.889;-0.0016794;-0.00150898;0.00140993;0.00172938;0.0879329;0.029995;0.0782442;0;0.119927;8.31016;3.61534
695000;696;;;;;;;;;;-0.179242;-0.996096;-0.466281;1.11434;-5.86521;-0.00267146;0.00818237;0.0938426;0.0945314;-0.00336024;0.0489458;0.0284674;35.1279;0.0641704;0.0652611;28.1324;0.0355462;85.162;130.162;-0.0203684;-0.0026718;0.0081366;0.0082241;0.093843;0.0197793;0.0465851;0;0.0981806;-0.559148;-3.71225;-1.58788;4.07613;-7.18855;-0.00387231;0.00340661;0.0825585;0.0826926;-0.00400637;0.0433495;0.0469038;21.3202;0.0565112;0.0577993;20.6403;0.0484489;87.0712;132.071;0.00504164;-0.00387589;0.00240261;0.00433045;0.0825612;0.033036;0.0682597;0;0.123375;8.30567;3.62075
696000;697;;;;;;;;;;-0.179467;-0.990205;-0.468794;1.11017;-5.86926;-0.00286625;0.00682762;0.094996;0.09547;-0.0033403;0.0494052;0.0301723;33.143;0.0647888;0.0658735;28.5813;0.0349879;86.4871;131.487;-0.0191164;-0.00286148;0.00763559;0.00609185;0.0949906;0.0177667;0.0272034;0;0.0857556;-0.562708;-3.72514;-1.59332;4.09047;-7.20968;-0.00190065;0.000950332;0.0803939;0.0804048;-0.00191162;0.0411582;0.0236417;42.2981;0.0542517;0.0548776;42.0611;0.023775;87.1186;132.119;0.00773001;-0.00190818;-0.00234234;0.00399219;0.0803917;0.00487198;0.0636051;0;0.113815;8.30605;3.62838
697000;698;;;;;;;;;;-0.178143;-0.985255;-0.471628;1.10675;-5.87285;-0.00255642;0.00715045;0.0952328;0.0957529;-0.0030765;0.0494147;0.0268439;37.2524;0.0648851;0.0658863;31.124;0.0321296;86.1051;131.105;-0.0206018;-0.00255344;0.00762017;0.00672266;0.0952297;0.0237596;0.0442798;0;0.0984711;-0.559674;-3.72694;-1.59022;4.09049;-7.19224;-0.00215769;0.00434945;0.0845252;0.0847429;-0.00237538;0.0435591;0.0255272;39.1739;0.0573034;0.0580788;35.6755;0.0280305;86.3681;131.368;0.011371;-0.00216309;0.00315393;0.0054494;0.0845293;0.0164452;0.0772577;0;0.128346;8.30597;3.63559
698000;699;;;;;;;;;;-0.178499;-0.981096;-0.471839;1.1032;-5.87223;-0.00288549;0.00816555;0.0948662;0.0955436;-0.00356289;0.0495532;0.0304164;32.877;0.0649159;0.066071;26.8163;0.0372907;85.2687;130.269;-0.0202041;-0.00288534;0.00818502;0.00814782;0.094866;0.0206777;0.0572814;0;0.0864402;-0.561044;-3.73032;-1.59549;4.09581;-7.18755;-0.00179552;0.00352396;0.0831839;0.0833297;-0.0019414;0.0426356;0.021585;46.3285;0.0562115;0.0568474;42.9224;0.0232978;87.8419;132.842;0.00813851;-0.0017945;0.00385081;0.00322275;0.0831827;0.00933261;0.0824797;0;0.125601;8.30227;3.64335
699000;700;;;;;;;;;;-0.17759;-0.975369;-0.4732;1.09855;-5.87565;-0.0031218;0.00710728;0.0958376;0.0963454;-0.00362964;0.0499875;0.0325738;30.6995;0.0654737;0.06665;26.5441;0.0376732;86.3887;131.389;-0.0201946;-0.00311662;0.00795098;0.00633977;0.0958318;0.0165214;0.0616603;0;0.0916189;-0.56091;-3.74138;-1.59789;4.1068;-7.19533;-0.00325215;0.00306743;0.0850246;0.085131;-0.00335861;0.0442448;0.0382496;26.1441;0.057906;0.0589931;25.3471;0.0394523;87.7517;132.752;0.00734027;-0.00325336;0.00266394;0.0034381;0.0850256;0.0125474;0.0689369;0;0.134433;8.30178;3.65059
700000;701;;;;;;;;;;-0.178425;-0.972791;-0.467293;1.09386;-5.86891;-0.00275406;0.00640471;0.0955144;0.0959301;-0.00316974;0.0495499;0.028834;34.6813;0.0650357;0.0660666;30.2644;0.0330422;87.1729;132.173;-0.018041;-0.0027459;0.00797717;0.0049733;0.0955041;0.017994;0.0619982;0;0.0940645;-0.562967;-3.74947;-1.59063;4.11164;-7.18108;-0.00240728;0.00299261;0.0873562;0.0874559;-0.00250694;0.0449814;0.027557;36.2884;0.0591573;0.0599752;34.8856;0.0286652;87.819;132.819;0.0138602;-0.00240857;0.00255137;0.00339743;0.0873574;0.0253993;0.057524;0;0.124229;8.29851;3.65828
701000;702;;;;;;;;;;-0.176738;-0.966214;-0.474308;1.09077;-5.87539;-0.00308519;0.00579416;0.0958494;0.0961876;-0.00342337;0.0498055;0.0321878;31.0676;0.0652961;0.0664073;28.0974;0.0355905;87.835;132.835;-0.0114291;-0.00307596;0.00788068;0.00389598;0.0958364;0.0173425;0.0587653;0;0.101891;-0.562391;-3.75496;-1.59735;4.11916;-7.19266;-0.00172136;0.00280112;0.0874223;0.0875102;-0.00180929;0.0446598;0.0196902;50.7868;0.0589525;0.0595464;48.3671;0.0206752;87.9292;132.929;-0.00045038;-0.00172259;0.00235746;0.00320842;0.0874234;0.0313038;0.0714265;0;0.118115;8.29477;3.66489
702000;703;;;;;;;;;;-0.176825;-0.96148;-0.477482;1.08798;-5.87892;-0.00301885;0.00571624;0.0953179;0.0956491;-0.00335002;0.0494996;0.0316714;31.5742;0.0649116;0.0659994;28.5518;0.035024;87.8173;132.817;-0.011145;-0.00301007;0.00771646;0.00389559;0.0953057;0.0142094;0.0607939;0;0.0792693;-0.566246;-3.76849;-1.60605;4.1354;-7.22203;-0.00259356;0.00244852;0.0846156;0.0846843;-0.00266225;0.0436733;0.0306511;32.6252;0.0573642;0.058231;31.8092;0.0314374;85.787;130.787;0.0222714;-0.00260971;-0.00160979;0.0061805;0.0846172;0.0154229;0.0789115;0;0.11511;8.29463;3.67237
703000;704;;;;;;;;;;-0.176251;-0.95768;-0.482118;1.08658;-5.8834;-0.00267932;0.00708229;0.0946561;0.0951687;-0.00319194;0.0491803;0.0283058;35.3285;0.0645361;0.0655738;29.8154;0.0335398;86.273;131.273;-0.0147867;-0.00267484;0.00780793;0.00642118;0.0946511;0.029597;0.0577052;0;0.0818972;-0.566111;-3.7748;-1.60875;4.14218;-7.2142;-0.0038507;0.00284482;0.0826935;0.0827869;-0.00394412;0.0433655;0.046566;21.4749;0.0565519;0.0578207;20.99;0.0476418;87.1693;132.169;0.0100718;-0.00385528;0.0014289;0.00414756;0.0826963;0.00698031;0.0726547;0;0.120156;8.2898;3.67845
704000;705;;;;;;;;;;-0.175726;-0.955483;-0.478277;1.08286;-5.87836;-0.00223991;0.00633748;0.0963001;0.096706;-0.00264582;0.0496759;0.0232596;42.9929;0.0653705;0.0662346;36.5505;0.0273594;87.0178;132.018;-0.0185546;-0.00223343;0.00756614;0.00521924;0.0962923;0.036772;0.0519193;0;0.0792972;-0.564745;-3.78008;-1.60149;4.144;-7.19963;-0.00444217;0.00238691;0.0885779;0.0886391;-0.00450338;0.0465712;0.0501499;19.9402;0.0606496;0.062095;19.6828;0.0508058;88.401;133.401;0.0160631;-0.00444264;0.00217898;0.00257706;0.0885783;0.017051;0.0871454;0;0.120703;8.28804;3.68293
705000;706;;;;;;;;;;-0.175221;-0.951787;-0.474474;1.07783;-5.87463;-0.00261572;0.00764202;0.0967332;0.0973176;-0.00320011;0.0502588;0.0270405;36.9815;0.065971;0.0670118;30.4107;0.0328832;86.1062;131.106;-0.0158933;-0.00261001;0.0085053;0.00685692;0.0967268;0.0361191;0.0476795;0;0.0817841;-0.566391;-3.78725;-1.60638;4.15265;-7.20313;-0.00180611;0.0038918;0.0849994;0.0851735;-0.00198025;0.0435769;0.0212485;47.0621;0.0574538;0.0581025;43.0116;0.0232496;87.291;132.291;0.0110266;-0.00180697;0.00366008;0.00410497;0.0850002;0.000934365;0.0758523;0;0.131796;8.28787;3.68863
706000;707;;;;;;;;;;-0.17507;-0.945601;-0.484177;1.07668;-5.88433;-0.00270031;0.00740378;0.0964598;0.0970095;-0.00325006;0.0501298;0.0279941;35.7218;0.0657832;0.0668397;29.8485;0.0335025;86.2933;131.293;-0.0192174;-0.00269416;0.00837255;0.00652261;0.0964528;0.0391675;0.0447331;0;0.078062;-0.565763;-3.79351;-1.61374;4.16112;-7.20279;-0.00386205;0.00271791;0.0874428;0.0875237;-0.00394288;0.0457333;0.0441665;22.6416;0.0597068;0.0609777;22.1979;0.0450493;89.1109;134.111;-0.00384783;-0.00385952;0.00401029;0.00153404;0.0874388;0.0187049;0.0687482;0;0.133359;8.28431;3.69453
707000;708;;;;;;;;;;-0.176803;-0.942545;-0.485144;1.07472;-5.88327;-0.00286746;0.00850184;0.0966613;0.0973824;-0.00358847;0.0504854;0.029665;33.7098;0.0661502;0.0673139;27.1376;0.0368493;85.4882;130.488;-0.0220266;-0.00286294;0.00910449;0.00795389;0.0966565;0.0230424;0.0377916;0;0.091958;-0.567864;-3.79868;-1.61679;4.1673;-7.20137;-0.00399513;0.003061;0.0888395;0.0889404;-0.00409595;0.0465182;0.0449702;22.2369;0.060705;0.0620242;21.7142;0.0460528;88.0649;133.065;0.00712211;-0.00399536;0.00298262;0.0031327;0.0888398;0.028391;0.069243;0;0.135067;8.27704;3.70128
708000;709;;;;;;;;;;-0.175337;-0.939978;-0.484716;1.07203;-5.88284;-0.0030444;0.00845329;0.0975752;0.0982804;-0.00374964;0.051015;0.0312006;32.0507;0.0668052;0.06802;26.2106;0.0381525;85.643;130.643;-0.0244757;-0.00303889;0.00919947;0.0077755;0.0975692;0.0293904;0.0434556;0;0.0950988;-0.570473;-3.81221;-1.62138;4.18178;-7.22437;-0.000797768;0.00273443;0.0847311;0.0848184;-0.000885102;0.0428517;0.0094153;106.21;0.0568429;0.0571357;95.829;0.0104353;86.3891;131.389;0.00525134;-0.000808327;-0.000100465;0.00534579;0.0847345;0.0305258;0.0581737;0;0.110909;8.27702;3.70895
709000;710;;;;;;;;;;-0.173704;-0.937707;-0.480937;1.06807;-5.87859;-0.00262779;0.00810199;0.095748;0.0964108;-0.00329059;0.0498507;0.0274449;36.4367;0.0653983;0.0664676;29.299;0.0341309;85.3776;130.378;-0.0180788;-0.00262708;0.0081987;0.00801396;0.0957473;0.0279304;0.0505319;0;0.0991617;-0.568627;-3.82002;-1.62239;4.18904;-7.22481;-0.00376203;0.0034613;0.0845753;0.0847107;-0.00389744;0.0443041;0.0444814;22.4813;0.0578168;0.0590721;21.7349;0.0460089;86.9487;131.949;0.00440287;-0.00376664;0.00222046;0.00460108;0.0845786;0.0204085;0.0831314;0;0.121432;8.27706;3.71672
710000;711;;;;;;;;;;-0.173687;-0.930167;-0.485617;1.06358;-5.8849;-0.00291465;0.00874066;0.0963014;0.0970655;-0.00367879;0.0503721;0.0302659;33.0404;0.0659708;0.0671629;26.3851;0.0379001;85.0121;130.012;-0.0212894;-0.00291453;0.00875569;0.00872699;0.0963012;0.0219749;0.0422656;0;0.0889824;-0.571132;-3.82854;-1.62813;4.19938;-7.23618;-0.00338449;0.00249366;0.0852064;0.0852765;-0.00345463;0.0443656;0.0397211;25.1755;0.0580368;0.0591541;24.6847;0.0405109;87.7306;132.731;0.0135681;-0.00338727;0.00147327;0.00343074;0.0852082;0.0165133;0.0733442;0;0.107275;8.27312;3.7232
711000;712;;;;;;;;;;-0.172466;-0.926929;-0.476032;1.0562;-5.87749;-0.00237791;0.00822824;0.0956345;0.0963205;-0.00306387;0.0496922;0.0248645;40.218;0.0652589;0.0662562;31.4375;0.0318092;85.1576;130.158;-0.0218286;-0.00237894;0.00809129;0.00835293;0.0956355;0.0232751;0.0514729;0;0.102945;-0.571391;-3.83889;-1.62469;4.20751;-7.23451;-0.00195825;0.00417287;0.0841437;0.0843455;-0.00216001;0.0432527;0.0232727;42.9689;0.056964;0.0576703;39.0487;0.0256091;86.1274;131.127;0.0107155;-0.00196612;0.00245436;0.00575488;0.0841489;0.0013363;0.0774954;0;0.132321;8.26705;3.73088
712000;713;;;;;;;;;;-0.17209;-0.920964;-0.483924;1.0545;-5.88538;-0.00276634;0.00842568;0.0966211;0.0973303;-0.00347558;0.0504029;0.0286308;34.9274;0.0660759;0.0672039;28.0041;0.0357091;84.8606;129.861;-0.0209095;-0.00277101;0.00783677;0.00896122;0.0966254;0.0244058;0.0601757;0;0.0966754;-0.570634;-3.83967;-1.62569;4.20851;-7.21617;-0.00348988;0.0042787;0.0875365;0.0877372;-0.00369056;0.0457139;0.0398677;25.083;0.0597597;0.0609518;23.7734;0.0420638;86.987;131.987;0.00310966;-0.00349205;0.00375585;0.0047578;0.0875385;0.0100532;0.0781785;0;0.126575;8.26604;3.73829
713000;714;;;;;;;;;;-0.171058;-0.915901;-0.490234;1.05284;-5.88977;-0.00242701;0.00793008;0.0966163;0.0972472;-0.00305793;0.0501525;0.0251201;39.8088;0.0658744;0.0668701;31.8017;0.0314449;85.242;130.242;-0.0210418;-0.00242979;0.00755314;0.00827296;0.0966189;0.0267733;0.0512898;0;0.0992066;-0.570367;-3.84864;-1.63047;4.2185;-7.21931;-0.003816;0.00226615;0.0894058;0.0894609;-0.00387105;0.046666;0.0426817;23.4292;0.0609719;0.0622213;23.1102;0.0432709;89.2869;134.287;0.00931872;-0.00381421;0.00337082;0.00125601;0.0894029;0.0319915;0.0523781;0;0.134094;8.26319;3.74604
714000;715;;;;;;;;;;-0.172039;-0.907521;-0.492022;1.04656;-5.894;-0.00364246;0.0061022;0.0971522;0.0975203;-0.00401055;0.0507654;0.0374923;26.6721;0.0663908;0.0676872;24.3159;0.0411253;87.2424;132.242;-0.0138846;-0.00363618;0.00734575;0.00497288;0.0971446;0.0102821;0.0646239;0;0.0857818;-0.571761;-3.85588;-1.63337;4.22642;-7.22458;-0.00371679;0.00333854;0.0876497;0.0877715;-0.00383862;0.0458051;0.0424051;23.5821;0.059835;0.0610734;22.8654;0.0437342;87.4512;132.451;0.00677014;-0.00371926;0.00260722;0.00400842;0.0876517;0.00885006;0.101133;0;0.134206;8.25882;3.75203
715000;716;;;;;;;;;;-0.172092;-0.90425;-0.492239;1.04383;-5.89315;-0.00323345;0.00562967;0.0974923;0.097806;-0.00354712;0.0506766;0.0331662;30.1512;0.0664179;0.0675687;27.5733;0.0362669;87.7264;132.726;-0.0123114;-0.0032261;0.00728316;0.00412792;0.0974826;0.0128283;0.0775811;0;0.0875235;-0.575659;-3.87092;-1.64115;4.24367;-7.25164;-0.000797924;0.00170387;0.0863389;0.0863722;-0.000831229;0.0436017;0.00924177;108.204;0.0578605;0.0581356;103.909;0.0096238;86.8336;131.834;0.00708566;-0.000807821;-0.00162152;0.00476252;0.086339;0.0251219;0.0711363;0;0.108541;8.25333;3.75887
716000;717;;;;;;;;;;-0.172446;-0.90099;-0.486334;1.03829;-5.88664;-0.0032626;0.00593952;0.0976318;0.0979803;-0.00361105;0.0507957;0.0334174;29.9245;0.0665565;0.0677275;27.1334;0.0368549;87.4959;132.496;-0.0110301;-0.00325524;0.00748286;0.00453803;0.0976224;0.0156922;0.055953;0;0.0837008;-0.575067;-3.87561;-1.62799;4.24281;-7.22949;-0.0055111;0.00313691;0.08909;0.0891939;-0.005615;0.0474045;0.0618599;16.1656;0.0614199;0.0632059;15.8849;0.0629528;87.135;132.135;0.00851946;-0.00551652;0.00159859;0.0045416;0.0890934;0.00517845;0.0959142;0;0.120003;8.24854;3.7617
717000;718;;;;;;;;;;-0.170769;-0.895468;-0.494282;1.03699;-5.8945;-0.00317809;0.00658956;0.0972713;0.0977018;-0.00360853;0.0506552;0.0326724;30.6069;0.0663701;0.0675402;27.0753;0.0369341;86.9313;131.931;-0.0116672;-0.00317145;0.0077946;0.00549482;0.0972634;0.0154658;0.0557295;0;0.0862752;-0.577179;-3.88704;-1.64381;4.25961;-7.25783;-0.00333159;0.00249873;0.0858923;0.0859622;-0.00340152;0.0446819;0.038788;25.7812;0.058475;0.0595758;25.2717;0.0395699;87.0894;132.089;0.0179574;-0.00333808;0.000450991;0.00437821;0.0858951;0.0184857;0.0700005;0;0.101383;8.24722;3.76782
718000;719;;;;;;;;;;-0.170699;-0.891416;-0.4958;1.0342;-5.89602;-0.00326574;0.00655031;0.0976321;0.0980555;-0.00368921;0.0508724;0.0334495;29.8958;0.0666341;0.0678298;26.579;0.0376237;86.9977;131.998;-0.010049;-0.00325888;0.00781009;0.00540633;0.0976238;0.0250013;0.0499919;0;0.0808008;-0.577651;-3.89351;-1.64604;4.26644;-7.25569;-0.00192092;0.00357031;0.0855245;0.0856701;-0.00206645;0.0438683;0.0224604;44.5228;0.0578145;0.058491;41.4577;0.024121;86.6596;131.66;0.0138861;-0.00192724;0.00197568;0.00503647;0.0855286;0.0149763;0.0765111;0;0.122955;8.23916;3.77514
719000;720;;;;;;;;;;-0.170709;-0.886534;-0.496025;1.03011;-5.89508;-0.0034164;0.00659281;0.0976699;0.0980981;-0.00384457;0.0509713;0.034979;28.5885;0.0667172;0.0679618;25.516;0.0391911;87.1537;132.154;-0.0122657;-0.00340799;0.00816339;0.00516686;0.0976594;0.0216892;0.0486202;0;0.0807382;-0.57798;-3.89674;-1.64244;4.26805;-7.23423;-0.00238336;0.00392124;0.0870597;0.0872313;-0.00255494;0.0448931;0.0273762;36.5281;0.0590243;0.0598575;34.1421;0.0292893;86.7037;131.704;0.00858036;-0.00238863;0.00265044;0.00508748;0.0870635;0.00826566;0.0780805;0;0.115672;8.23633;3.78117
720000;721;;;;;;;;;;-0.171534;-0.88615;-0.488664;1.02639;-5.88626;-0.00276523;0.00898321;0.0983416;0.0991336;-0.00355717;0.0513454;0.0281186;35.5637;0.0673061;0.0684605;27.8687;0.0358826;84.8374;129.837;-0.0199819;-0.00276712;0.00875503;0.00919038;0.0983435;0.0302052;0.037797;0;0.0892201;-0.578642;-3.90486;-1.63902;4.27424;-7.22694;-0.00354327;0.003298;0.0875978;0.087717;-0.00366246;0.0456897;0.0404493;24.7223;0.0597362;0.0609196;23.9503;0.0417531;87.8537;132.854;0.00465379;-0.00354365;0.00317579;0.00340996;0.0875982;0.0338579;0.0691272;0;0.137173;8.23091;3.78819
721000;722;;;;;;;;;;-0.169667;-0.879909;-0.493968;1.02325;-5.89162;-0.00312023;0.00792619;0.098045;0.0986622;-0.00373747;0.0511999;0.0318245;31.4224;0.0670554;0.0682665;26.3981;0.0378815;85.7146;130.715;-0.0182026;-0.00311807;0.00823075;0.00764969;0.0980428;0.0268455;0.0357857;0;0.084036;-0.579655;-3.91367;-1.64881;4.28618;-7.24601;-0.00142981;0.00219003;0.0871321;0.0871862;-0.00148394;0.0443351;0.0164097;60.9395;0.058625;0.0591134;58.7534;0.0170203;87.9545;132.955;0.0100938;-0.00143232;0.00116574;0.00313087;0.0871337;0.0232232;0.0774867;0;0.128234;8.2286;3.7948
722000;723;;;;;;;;;;-0.169933;-0.872971;-0.501076;1.0208;-5.89983;-0.00250836;0.00841806;0.0967305;0.0974395;-0.00321737;0.0503284;0.0259315;38.5632;0.0660582;0.0671046;30.2855;0.0330191;84.6576;129.658;-0.0229577;-0.00251605;0.00746558;0.00928434;0.0967374;0.039824;0.0426065;0;0.0872388;-0.58199;-3.92518;-1.65751;4.30036;-7.26704;-0.000378073;0.00213069;0.0893603;0.0894108;-0.000428634;0.0449197;0.00423088;236.357;0.0597506;0.059893;208.595;0.00479398;86.8812;131.881;0.00294764;-0.000387644;-0.000849894;0.00486573;0.089362;0.023583;0.0753456;0;0.113849;8.22147;3.80216
723000;724;;;;;;;;;;-0.168869;-0.866813;-0.499983;1.01482;-5.89986;-0.00201845;0.00889801;0.0970593;0.0978521;-0.00281122;0.0503317;0.0207961;48.086;0.0661917;0.0671089;34.8077;0.0287293;84.3863;129.386;-0.0188764;-0.00202654;0.00794738;0.00976277;0.0970666;0.030383;0.0465959;0;0.0833669;-0.581828;-3.93355;-1.65759;4.30801;-7.26662;-0.00437788;0.00265584;0.0873543;0.0874311;-0.0044547;0.0459429;0.0501163;19.9536;0.0598276;0.0612572;19.6267;0.050951;87.0903;132.09;0.0113026;-0.00438434;0.000681881;0.00446326;0.0873573;0.0209336;0.0820814;0;0.104844;8.2179;3.80903
724000;725;;;;;;;;;;-0.168608;-0.862425;-0.500085;1.01108;-5.89901;-0.00275402;0.00890402;0.0976167;0.0984005;-0.00353779;0.0509691;0.0282126;35.4452;0.0668108;0.0679588;27.8141;0.0359529;84.8401;129.84;-0.0232412;-0.00275595;0.00866871;0.00911782;0.0976186;0.0253262;0.0409157;0;0.0892427;-0.582774;-3.94107;-1.65841;4.31532;-7.26366;-0.0029118;0.00347349;0.0855683;0.0857044;-0.00304795;0.0443762;0.034029;29.3867;0.0581789;0.0591683;28.1187;0.0355635;86.7464;131.746;0.00826006;-0.00291792;0.00189271;0.00492542;0.0855722;0.0169747;0.0809221;0;0.112244;8.21207;3.81653
725000;726;;;;;;;;;;-0.168085;-0.857789;-0.498469;1.00624;-5.89849;-0.00253264;0.00824841;0.0977521;0.098426;-0.00320655;0.0508163;0.0259088;38.5969;0.0667119;0.067755;30.6953;0.0325782;85.0594;130.059;-0.0213779;-0.00253644;0.00775613;0.00869572;0.0977557;0.0192122;0.0510567;0;0.0930737;-0.582558;-3.94664;-1.6538;4.31861;-7.24813;-0.00314355;0.00247265;0.0888981;0.0889645;-0.00320993;0.0460872;0.0353613;28.2795;0.0604081;0.0614496;27.7154;0.036081;88.0795;133.079;0.0152361;-0.00314513;0.00184878;0.00304379;0.0888993;0.0211156;0.0667098;0;0.122967;8.20717;3.82381
726000;727;;;;;;;;;;-0.168905;-0.854057;-0.500576;1.00425;-5.8995;-0.00335093;0.00783511;0.0979428;0.0985452;-0.0039534;0.0512493;0.0342131;29.2285;0.0670535;0.0683324;24.9267;0.0401176;85.5681;130.568;-0.0255871;-0.00335138;0.00777187;0.00789251;0.0979432;0.0191725;0.0422997;0;0.09281;-0.583388;-3.95423;-1.65739;4.32703;-7.24649;-0.00286172;0.00300187;0.0896015;0.0896989;-0.00295908;0.046329;0.0319383;31.3104;0.0608096;0.061772;30.3131;0.032989;88.2977;133.298;0.0147676;-0.00286104;0.0032579;0.00276757;0.0896008;0.0237357;0.0717365;0;0.131294;8.20007;3.82956
727000;728;;;;;;;;;;-0.168257;-0.851545;-0.495179;0.99932;-5.89444;-0.00254196;0.00777185;0.0990863;0.0996772;-0.00313286;0.051405;0.025654;38.9803;0.06752;0.06854;31.8167;0.0314301;85.6765;130.677;-0.0218775;-0.00254164;0.00781707;0.00773082;0.0990859;0.0216306;0.0443299;0;0.0967131;-0.584809;-3.96492;-1.6534;4.33547;-7.23791;-0.00430799;0.00355041;0.0870601;0.0871978;-0.00444575;0.0458218;0.049483;20.209;0.059669;0.0610957;19.6138;0.0509846;87.45;132.45;0.00642218;-0.00430979;0.00303527;0.00402225;0.0870616;0.0167291;0.0830143;0;0.129336;8.19356;3.83355
728000;729;;;;;;;;;;-0.16829;-0.846626;-0.495221;0.995159;-5.89389;-0.00317971;0.00625939;0.0989825;0.0993646;-0.00356179;0.0514632;0.032124;31.1294;0.0674617;0.0686176;27.8974;0.0358457;87.1215;132.121;-0.0174319;-0.00317381;0.00738884;0.00523493;0.0989755;0.012008;0.0608516;0;0.0938168;-0.587326;-3.97228;-1.6619;4.34578;-7.25366;-0.00196669;0.00341338;0.0873167;0.0874471;-0.002097;0.044772;0.0225237;44.3978;0.0590095;0.059696;41.7011;0.0239802;86.0691;131.069;0.00611204;-0.00197895;0.000583778;0.00601061;0.0873219;0.0299344;0.0592365;0;0.123968;8.18512;3.83847
729000;730;;;;;;;;;;-0.165471;-0.834364;-0.509981;0.991778;-5.90993;-0.00334;0.00572885;0.0972842;0.0976093;-0.00366511;0.0506372;0.0343324;29.127;0.0663283;0.0675163;26.632;0.0375488;87.4656;132.466;-0.00698221;-0.00333397;0.00701303;0.00456243;0.0972767;0.0224652;0.0595401;0;0.0789282;-0.585474;-3.98213;-1.67479;4.35948;-7.27887;-0.00226203;0.00270399;0.0884466;0.0885272;-0.00234257;0.0454349;0.0255751;39.1005;0.0598143;0.0605798;37.7907;0.0264615;87.7035;132.703;0.00729382;-0.00226483;0.0017369;0.00359048;0.0884486;0.0405676;0.077394;0;0.11479;8.1848;3.8457
730000;731;;;;;;;;;;-0.166017;-0.829594;-0.509862;0.987799;-5.91008;-0.00312397;0.00596909;0.0968356;0.0971907;-0.00347915;0.0503349;0.0322605;30.9976;0.0659841;0.0671133;27.9352;0.0357971;87.3103;132.31;-0.00866751;-0.00311766;0.00725308;0.00480211;0.0968278;0.0167273;0.0575428;0;0.0792721;-0.590198;-3.99742;-1.67651;4.37475;-7.29543;-0.00208268;0.00104392;0.083628;0.0836408;-0.0020954;0.0428681;0.0249041;40.154;0.0564719;0.0571574;39.9164;0.0250523;86.9515;131.952;0.013869;-0.0020918;-0.00259026;0.00439064;0.0836255;0.0234326;0.069773;0;0.105845;8.17476;3.85308
731000;732;;;;;;;;;;-0.165729;-0.826921;-0.508836;0.984976;-5.90649;-0.00272329;0.00818518;0.0979294;0.0985907;-0.00338457;0.0509876;0.0278087;35.9599;0.0668839;0.0679835;29.1294;0.0343295;85.5939;130.594;-0.0175523;-0.00272046;0.00857347;0.00783248;0.0979264;0.0266995;0.0352823;0;0.0829858;-0.591132;-4.00753;-1.68157;4.38604;-7.30511;-0.00141584;0.00182257;0.0817656;0.0818055;-0.00145576;0.0416306;0.0173159;57.7504;0.0550287;0.0555075;56.1944;0.0177954;86.1218;131.122;0.0121927;-0.00142937;-0.00216939;0.00550755;0.0817649;0.0150173;0.0747672;0;0.108892;8.16633;3.8608
732000;733;;;;;;;;;;-0.166176;-0.823021;-0.509654;0.982205;-5.90629;-0.00290349;0.0091528;0.096725;0.0975589;-0.00373737;0.0506481;0.030018;33.3133;0.0663201;0.0675308;26.1036;0.0383089;84.4899;129.49;-0.0186765;-0.00290818;0.00860599;0.00964994;0.0967294;0.0317945;0.0311371;0;0.0879499;-0.590507;-4.00738;-1.67784;4.3844;-7.27771;-0.00090613;0.00324349;0.0844751;0.0845982;-0.00102917;0.0428137;0.0107266;93.2263;0.056745;0.0570849;82.2006;0.0121654;87.0108;132.011;0.0160212;-0.000910704;0.00195114;0.00443409;0.0844782;0.00984706;0.0736849;0;0.111357;8.16176;3.86787
733000;734;;;;;;;;;;-0.167331;-0.817201;-0.510276;0.977854;-5.90777;-0.00265045;0.00836401;0.0972111;0.0979068;-0.00334614;0.0506265;0.0272648;36.6773;0.0664147;0.067502;29.2597;0.0341767;85.3483;130.348;-0.0191242;-0.00264904;0.00855051;0.00819449;0.0972097;0.0340807;0.0377073;0;0.0864251;-0.590524;-4.01365;-1.67594;4.38941;-7.26201;-0.00382132;0.00247992;0.0901014;0.0901668;-0.00388675;0.0470268;0.0424113;23.5786;0.0614478;0.0627024;23.1985;0.0431062;88.6041;133.604;0.0131988;-0.0038209;0.00266958;0.0023066;0.090101;0.0306884;0.0614178;0;0.135815;8.1529;3.87571
734000;735;;;;;;;;;;-0.165436;-0.812427;-0.514181;0.975596;-5.91177;-0.00269727;0.00759624;0.0976204;0.0981924;-0.00326921;0.0507308;0.0276301;36.1924;0.0665781;0.0676411;30.0355;0.0332939;85.6137;130.614;-0.0215004;-0.00269829;0.00744996;0.00772915;0.0976214;0.0346451;0.0284094;0;0.0851757;-0.591085;-4.02523;-1.68136;4.40214;-7.27747;-0.00355007;0.00248116;0.0886774;0.0887441;-0.00361677;0.0461804;0.0400336;24.979;0.0604044;0.0615739;24.5368;0.0407551;88.0528;133.053;0.00416441;-0.00355176;0.00182237;0.00308415;0.0886787;0.00899664;0.0963475;0;0.134661;8.14538;3.88291
735000;736;;;;;;;;;;-0.164466;-0.805432;-0.511752;0.968328;-5.91104;-0.00301396;0.00690806;0.0971294;0.0976037;-0.00348824;0.050546;0.0310303;32.2265;0.0662625;0.0673946;27.9808;0.0357388;85.9933;130.993;-0.021871;-0.00301486;0.00676548;0.00703762;0.0971303;0.0201787;0.0342858;0;0.0838963;-0.593423;-4.03523;-1.68595;4.41335;-7.29107;-0.00175833;0.00264493;0.0870248;0.0871035;-0.00183706;0.0444703;0.0202049;49.4928;0.0586909;0.0592937;47.4147;0.0210905;86.8487;131.849;0.00452709;-0.00176635;0.000302944;0.00479561;0.0870279;0.0277512;0.0856977;0;0.112294;8.13774;3.89062
736000;737;;;;;;;;;;-0.164415;-0.801345;-0.510486;0.964252;-5.90908;-0.00287666;0.0069608;0.0966491;0.0971336;-0.00336114;0.0502474;0.029764;33.5977;0.0659047;0.0669965;28.899;0.0346032;86.2549;131.255;-0.0164164;-0.00287404;0.00738501;0.00657508;0.0966464;0.0211464;0.0374529;0;0.0878372;-0.595941;-4.04808;-1.68806;4.42625;-7.30093;-0.00340848;0.00248807;0.0848809;0.084951;-0.00347854;0.0442148;0.040156;24.9029;0.0578284;0.058953;24.4214;0.0409476;86.1959;131.196;0.00339327;-0.00342111;-0.00089924;0.00559969;0.0848834;0.0150897;0.0844605;0;0.104427;8.12883;3.89659
737000;738;;;;;;;;;;-0.164148;-0.795714;-0.508055;0.958241;-5.90698;-0.0031443;0.00748708;0.097975;0.0985263;-0.00369565;0.051111;0.0320929;31.1596;0.0669501;0.068148;26.6601;0.0375093;85.9912;130.991;-0.0212666;-0.00314184;0.00785581;0.00715231;0.0979724;0.01952;0.0316323;0;0.0900174;-0.594352;-4.05279;-1.68529;4.42929;-7.28168;-0.00360725;0.0033676;0.0856249;0.0857519;-0.00373416;0.044743;0.0421285;23.7369;0.0584524;0.0596573;22.9641;0.0435462;87.3761;132.376;0.00676465;-0.00360972;0.00264393;0.0040318;0.0856269;0.0101989;0.0826062;0;0.116846;8.1181;3.90204
738000;739;;;;;;;;;;-0.16406;-0.788817;-0.512232;0.95474;-5.91116;-0.00283586;0.00744648;0.0979958;0.0985428;-0.00338282;0.0509628;0.0289385;34.556;0.0668513;0.0679504;29.1304;0.0343284;86.0321;131.032;-0.0247036;-0.00283305;0.00787141;0.00706058;0.0979928;0.0264562;0.0372122;0;0.0893793;-0.597533;-4.06373;-1.69423;4.44312;-7.29692;-0.00113519;0.00200656;0.0832745;0.0833221;-0.00118286;0.0422525;0.0136319;73.3572;0.0559465;0.0563367;70.441;0.0141963;87.4993;132.499;0.0110651;-0.00113981;0.000235548;0.00363957;0.0832763;0.0098;0.0607818;0;0.113703;8.10868;3.90767
739000;740;;;;;;;;;;-0.163348;-0.78341;-0.514348;0.951298;-5.91328;-0.00283685;0.00771686;0.0982397;0.0988255;-0.00342262;0.0511241;0.0288769;34.6298;0.0670537;0.0681654;28.8742;0.0346329;85.6691;130.669;-0.0240507;-0.00283673;0.00773493;0.00770046;0.0982396;0.0259024;0.0402297;0;0.0936167;-0.59643;-4.06922;-1.69621;4.44875;-7.29195;-0.0019792;0.00307461;0.0889185;0.0890224;-0.00208308;0.0455527;0.0222586;44.9265;0.0600547;0.060737;42.736;0.0233995;87.8276;132.828;0.0088514;-0.00198037;0.0026825;0.00343399;0.0889196;0.0203434;0.0581137;0;0.131363;8.09957;3.91214
740000;741;;;;;;;;;;-0.163413;-0.777561;-0.515126;0.946921;-5.91357;-0.00257891;0.00840708;0.0986737;0.099367;-0.00327221;0.0513196;0.0261357;38.2618;0.0673619;0.0684262;30.3669;0.0329305;85.1338;130.134;-0.021;-0.00258109;0.00812707;0.00866129;0.0986758;0.0296;0.0376252;0;0.0895936;-0.59822;-4.08148;-1.69621;4.46021;-7.29754;-0.00307615;0.00237808;0.0881934;0.0882553;-0.00313807;0.0456967;0.0348796;28.67;0.0599103;0.0609289;28.1241;0.0355567;87.421;132.421;-0.000602267;-0.0030813;0.000619112;0.0039895;0.0881958;0.00811605;0.0938831;0;0.129513;8.08978;3.91902
741000;742;;;;;;;;;;-0.163635;-0.770888;-0.519286;0.94377;-5.91809;-0.00287234;0.00709248;0.0973526;0.0978521;-0.00337175;0.0506119;0.0295045;33.8931;0.0663872;0.0674825;29.0211;0.0344577;85.9778;130.978;-0.013266;-0.00287227;0.00710271;0.00708318;0.0973526;0.0274729;0.0467164;0;0.0848344;-0.599537;-4.08869;-1.70152;4.469;-7.30746;-0.00239302;0.00219109;0.0912442;0.0912954;-0.00244426;0.0468698;0.0262265;38.1293;0.0616945;0.0624931;37.3509;0.0267731;87.9441;132.944;0.00933782;-0.00239607;0.000978954;0.00329921;0.091246;0.015839;0.0852884;0;0.117567;8.07894;3.92591
742000;743;;;;;;;;;;-0.162697;-0.765724;-0.519695;0.939621;-5.91734;-0.00298371;0.00689199;0.0975638;0.098034;-0.00345392;0.050744;0.0305821;32.6989;0.0665372;0.0676586;28.3834;0.0352318;86.2157;131.216;-0.0158634;-0.00298238;0.00710697;0.00669671;0.0975625;0.0268099;0.0419867;0;0.0829388;-0.600756;-4.09705;-1.70203;4.47701;-7.30378;-0.0039064;0.00392335;0.0874087;0.087577;-0.00407466;0.0458258;0.0446912;22.3758;0.0597892;0.0611011;21.4931;0.0465266;86.1221;131.122;0.00612837;-0.00391668;0.00166743;0.0059898;0.0874145;0.00499675;0.0973571;0;0.115002;8.06415;3.93353
743000;744;;;;;;;;;;-0.162452;-0.758666;-0.521185;0.934665;-5.92021;-0.00294337;0.00842292;0.0981116;0.0988088;-0.00364061;0.0512247;0.0300003;33.333;0.067119;0.0682996;27.1407;0.036845;84.978;129.978;-0.0139439;-0.00294755;0.00789404;0.00890313;0.0981155;0.0235449;0.0270299;0;0.0805895;-0.601112;-4.10597;-1.70029;4.48456;-7.30171;-0.00305246;0.00377841;0.08777;0.087927;-0.00320938;0.0455682;0.0347779;28.7539;0.0597165;0.0607576;27.3969;0.0365005;86.2034;131.203;0.00421754;-0.00306259;0.00149505;0.0058711;0.0877756;-0.0052663;0.0933506;0;0.109536;8.05323;3.94104
744000;745;;;;;;;;;;-0.161535;-0.753881;-0.525038;0.932788;-5.92182;-0.00245492;0.00770762;0.096274;0.0968721;-0.00305302;0.0499625;0.0254993;39.2168;0.0656227;0.0666167;31.7299;0.031516;85.4966;130.497;-0.0182649;-0.00245576;0.00758866;0.00781587;0.0962748;0.0340276;0.0310591;0;0.0784326;-0.602946;-4.11432;-1.7102;4.49622;-7.31119;-0.00257458;0.00330145;0.0851294;0.0852535;-0.00269868;0.0439761;0.0302431;33.0654;0.0577563;0.0586348;31.5908;0.0316548;86.8522;131.852;0.00665233;-0.00258034;0.00174497;0.00473212;0.085133;0.0127118;0.0862336;0;0.120864;8.04585;3.9489
745000;746;;;;;;;;;;-0.160655;-0.750655;-0.51889;0.926575;-5.91654;-0.00241229;0.00732723;0.0969822;0.0975195;-0.00294954;0.0502345;0.0248735;40.2034;0.0660181;0.0669794;33.0626;0.0302457;85.9444;130.944;-0.0197472;-0.00241065;0.00757705;0.00710005;0.0969805;0.0365222;0.0352705;0;0.0870079;-0.602582;-4.12599;-1.7083;4.50613;-7.30247;-0.00230257;0.00142022;0.088643;0.0886652;-0.00232474;0.045495;0.0259757;38.4975;0.0599001;0.06066;38.1398;0.0262193;89.5249;134.525;0.00200995;-0.00230187;0.00210828;0.000789645;0.0886419;0.0330724;0.0665378;0;0.12756;8.0319;3.95579
746000;747;;;;;;;;;;-0.160485;-0.742639;-0.522933;0.922349;-5.92222;-0.00259233;0.0071466;0.0964928;0.0970056;-0.00310513;0.0500554;0.0268655;37.2224;0.0657299;0.0667405;31.2404;0.0320098;86.0625;131.063;-0.0172342;-0.00259042;0.00744622;0.00687405;0.0964909;0.0287431;0.0417008;0;0.0939562;-0.604258;-4.13085;-1.70875;4.51097;-7.29629;-0.00282222;0.00311188;0.0885882;0.088694;-0.00292803;0.045811;0.0318577;31.3896;0.0601291;0.0610814;30.2913;0.0330128;87.3106;132.311;0.00905992;-0.00282629;0.00190265;0.00421956;0.088591;0.0247717;0.0739223;0;0.127054;8.01743;3.9631
747000;748;;;;;;;;;;-0.15924;-0.736284;-0.525902;0.918719;-5.92519;-0.00272217;0.00735397;0.0963033;0.0968464;-0.00326533;0.0500559;0.0282667;35.3774;0.0656798;0.0667412;29.659;0.0337165;85.7311;130.731;-0.0184195;-0.00272271;0.00727383;0.00742687;0.0963038;0.0281567;0.0384542;0;0.1013;-0.606414;-4.14526;-1.71836;4.5281;-7.32789;-0.000156811;0.00206584;0.0899278;0.0899752;-0.00020416;0.0450897;0.00174374;573.479;0.0600516;0.0601196;440.709;0.00226907;86.8617;131.862;0.00525517;-0.000166828;-0.00105573;0.00492938;0.0899293;0.0235254;0.0798637;0;0.109646;8.0024;3.97047
748000;749;;;;;;;;;;-0.160681;-0.730751;-0.52618;0.914703;-5.92474;-0.00270007;0.00661302;0.0963796;0.0968191;-0.0031395;0.0499793;0.0280149;35.6953;0.0656176;0.066639;30.839;0.0324265;86.5561;131.556;-0.0180699;-0.00269637;0.00725438;0.00602962;0.0963756;0.0211112;0.0405554;0;0.101737;-0.607627;-4.15205;-1.71823;4.53443;-7.31918;-0.00374929;0.00349484;0.087635;0.0877684;-0.00388275;0.0458256;0.042783;23.3738;0.0598485;0.0611008;22.6047;0.0442385;86.334;131.334;0.0032998;-0.0037592;0.00113739;0.0056542;0.08764;0.00769001;0.0887409;0;0.11704;7.98747;3.97728
749000;750;;;;;;;;;;-0.159535;-0.726989;-0.519047;0.9074;-5.91761;-0.00203686;0.00720593;0.0977801;0.0982976;-0.00255438;0.050426;0.020831;48.0054;0.0663996;0.0672347;38.482;0.0259862;86.2367;131.237;-0.0204897;-0.00203287;0.00783815;0.00663119;0.0977758;0.023399;0.0342478;0;0.0991968;-0.608151;-4.16466;-1.71646;4.54539;-7.31949;-0.00330428;0.00246805;0.0870189;0.0870863;-0.00337167;0.045229;0.037972;26.3352;0.0592134;0.0603053;25.8288;0.0387164;86.8168;131.817;0.00310782;-0.00331292;-0.000106555;0.0048287;0.0870217;0.0128013;0.0915446;0;0.11196;7.97331;3.98121
750000;751;;;;;;;;;;-0.158364;-0.719027;-0.528305;0.906193;-5.92687;-0.00245964;0.00686697;0.0972953;0.0977657;-0.00293013;0.0503479;0.0252802;39.5567;0.0661755;0.0671306;33.3656;0.029971;86.3112;131.311;-0.0198585;-0.00245709;0.00728593;0.0064861;0.0972926;0.0311893;0.0379219;0;0.0844275;-0.609794;-4.17386;-1.7321;4.55994;-7.33585;-0.0019071;0.00322988;0.0844298;0.0845505;-0.00202776;0.0432891;0.022588;44.2714;0.0570549;0.0577188;41.6965;0.0239828;87.2756;132.276;0.00835319;-0.00191017;0.00231609;0.00407092;0.0844322;0.0120857;0.0838159;0;0.127529;7.95588;3.9868
751000;752;;;;;;;;;;-0.15853;-0.713305;-0.524884;0.899689;-5.92301;-0.00252208;0.00754463;0.0975689;0.0981344;-0.00308758;0.050611;0.0258492;38.6859;0.066476;0.0674813;31.7836;0.0314628;85.7479;130.748;-0.0213742;-0.00252165;0.00760726;0.0074877;0.0975685;0.0269055;0.0314274;0;0.0875559;-0.609251;-4.18191;-1.72295;4.56378;-7.31225;-0.00398351;0.00297978;0.0885046;0.0886005;-0.00407941;0.04634;0.0450091;22.2177;0.0604727;0.0617866;21.7189;0.0460428;87.7638;132.764;0.00709384;-0.0039854;0.00234899;0.00355697;0.0885061;0.0177795;0.0849086;0;0.133792;7.93585;3.99326
752000;753;;;;;;;;;;-0.159298;-0.706752;-0.52734;0.896081;-5.92499;-0.00236716;0.00641706;0.0967597;0.0971734;-0.00278085;0.0499771;0.0244643;40.8759;0.0657288;0.0666362;34.9438;0.0286174;86.6627;131.663;-0.016024;-0.00236361;0.00705182;0.00583967;0.0967558;0.0291361;0.0357776;0;0.0796768;-0.611805;-4.18991;-1.73081;4.57442;-7.32266;-0.00205594;0.00241353;0.0884423;0.0885066;-0.00212027;0.0453134;0.0232462;43.0178;0.0597237;0.0604179;41.7431;0.023956;88.5689;133.569;0.0101485;-0.00205561;0.00257019;0.00226991;0.0884419;0.0183739;0.0805509;0;0.125695;7.92258;4.00076
753000;754;;;;;;;;;;-0.158104;-0.701375;-0.525953;0.890814;-5.92273;-0.00239385;0.00704926;0.0958376;0.0963409;-0.00289714;0.049619;0.0249782;40.0349;0.0652144;0.0661587;33.2538;0.0300718;85.7583;130.758;-0.0149401;-0.0023957;0.00676703;0.00730619;0.0958394;0.0261243;0.0411317;0;0.08514;-0.614188;-4.2041;-1.73193;4.58817;-7.33416;-0.00316002;0.00397806;0.0868651;0.0870405;-0.00333546;0.045188;0.0363785;27.4888;0.0591702;0.0602507;26.0955;0.0383208;86.191;131.191;0.00471366;-0.00316924;0.00193825;0.00584889;0.0868706;0.0178329;0.0846413;0;0.12934;7.88961;4.00838
754000;755;;;;;;;;;;-0.157857;-0.693174;-0.529242;0.886288;-5.92715;-0.00182761;0.00785182;0.0971143;0.0977336;-0.00244684;0.0500902;0.0188191;53.1374;0.0659864;0.0667869;39.9428;0.0250358;85.1314;130.131;-0.0245006;-0.00183248;0.00719619;0.00844832;0.0971188;0.0419062;0.0278538;0;0.0819124;-0.614447;-4.21403;-1.73399;4.59808;-7.33908;-0.00421087;0.00271199;0.0898431;0.0899212;-0.004289;0.0471051;0.0468692;21.336;0.0614271;0.0628068;20.9655;0.0476973;87.0127;132.013;0.0101592;-0.00421829;0.000532401;0.00470347;0.0898464;0.0245127;0.0912019;0;0.101581;7.87402;4.01532
755000;756;;;;;;;;;;-0.157782;-0.688401;-0.527366;0.881423;-5.92415;-0.00182181;0.00762785;0.0960516;0.0966426;-0.00241273;0.0495276;0.018967;52.7231;0.0652475;0.0660369;40.0553;0.0249655;85.489;130.489;-0.0200405;-0.00182284;0.00748136;0.00776126;0.0960527;0.0376979;0.0393022;0;0.086087;-0.616679;-4.22637;-1.73825;4.61129;-7.33731;-0.00191004;0.00369916;0.0855467;0.0857029;-0.00206622;0.0438846;0.0223274;44.788;0.0578363;0.0585127;41.4781;0.0241091;86.4792;131.479;0.00911398;-0.00191729;0.00195019;0.00530722;0.0855513;0.0148507;0.0977055;0;0.1205;7.84212;4.02292
756000;757;;;;;;;;;;-0.157163;-0.680719;-0.524829;0.873799;-5.92406;-0.00171461;0.00784111;0.0960916;0.0967162;-0.00233924;0.0495277;0.0178435;56.0427;0.0652712;0.066037;41.3451;0.0241867;84.9799;129.98;-0.0211664;-0.00172092;0.00700059;0.00860663;0.0960973;0.0403891;0.0329984;0;0.0966002;-0.616808;-4.23676;-1.73571;4.61988;-7.32744;-0.00409938;0.00335736;0.0877984;0.0879209;-0.00422188;0.0460714;0.0466909;21.4175;0.0600707;0.0614285;20.8251;0.048019;87.6994;132.699;0.0185652;-0.00410047;0.00302187;0.00366451;0.0877994;0.0153913;0.0873021;0;0.118286;7.81676;4.02963
757000;758;;;;;;;;;;-0.157034;-0.671416;-0.529235;0.869223;-5.92816;-0.00276428;0.00705374;0.0967365;0.0972341;-0.00326184;0.0502479;0.0285753;34.9952;0.0659369;0.0669973;29.8096;0.0335462;86.0205;131.021;-0.018662;-0.00276364;0.00715338;0.00696314;0.0967358;0.0260591;0.0383764;0;0.0950286;-0.619196;-4.24427;-1.74147;4.62925;-7.32655;-0.00224688;0.00279759;0.0898872;0.0899721;-0.00233175;0.0461519;0.0249966;40.0054;0.0607736;0.0615359;38.5857;0.0259163;88.0234;133.023;0.0113701;-0.00224797;0.00239918;0.00316232;0.0898882;0.0305903;0.0800944;0;0.123585;7.78763;4.03721
758000;759;;;;;;;;;;-0.157272;-0.663287;-0.530109;0.863539;-5.9297;-0.0020186;0.00663087;0.0975901;0.0980296;-0.00245807;0.0502438;0.0206844;48.3455;0.0661876;0.0669918;39.8807;0.0250748;86.3511;131.351;-0.0215584;-0.00201704;0.00689256;0.00639292;0.0975885;0.0230867;0.011527;0;0.0907563;-0.622205;-4.26073;-1.7461;4.64648;-7.34763;-0.00485618;0.00287029;0.0890292;0.0891169;-0.00494385;0.0470303;0.0545459;18.3332;0.0611259;0.0627071;18.0258;0.055476;87.4573;132.457;0.0135988;-0.0048602;0.00160095;0.0040302;0.0890318;0.0231397;0.0895987;0;0.106277;7.74548;4.04317
759000;760;;;;;;;;;;-0.156722;-0.655304;-0.53385;0.85964;-5.9316;-0.00251995;0.00601554;0.0970952;0.0974572;-0.0028819;0.0501695;0.0259534;38.5306;0.0659531;0.0668927;33.817;0.029571;86.8066;131.807;-0.0212041;-0.00251755;0.00646813;0.00560404;0.0970926;0.0275649;0.0271802;0;0.0801215;-0.623477;-4.27399;-1.7498;4.6602;-7.35002;-0.00454417;0.00206904;0.0887587;0.0888046;-0.00459003;0.0466973;0.0511969;19.5324;0.0607908;0.0622631;19.3473;0.0516869;88.1831;133.183;0.0198316;-0.00454616;0.00119327;0.00286976;0.08876;0.00582539;0.0702209;0;0.106056;7.71071;4.05031
760000;761;;;;;;;;;;-0.157162;-0.645353;-0.534369;0.852485;-5.93202;-0.00233143;0.00682023;0.0970346;0.0975006;-0.00279737;0.050149;0.0240268;41.6202;0.0659526;0.0668653;34.8544;0.0286908;86.5268;131.527;-0.0190871;-0.00232678;0.00760904;0.00610286;0.0970295;0.0363588;0.0353673;0;0.0771527;-0.625735;-4.28864;-1.75581;4.6762;-7.34939;-0.00326105;0.00224915;0.0878893;0.0879447;-0.00331651;0.0456306;0.037104;26.9513;0.059766;0.0608408;26.5173;0.0377113;88.4095;133.41;0.00711041;-0.00326167;0.00196336;0.00251099;0.0878898;0.0219553;0.0789913;0;0.116006;7.65587;4.05641
761000;762;;;;;;;;;;-0.156375;-0.636674;-0.528635;0.842177;-5.92542;-0.00212085;0.00701427;0.0967771;0.0972721;-0.00261586;0.049944;0.0219148;45.6312;0.0657374;0.066592;37.1855;0.0268922;86.1193;131.119;-0.016226;-0.00211908;0.00729705;0.00675699;0.0967753;0.0269578;0.0190128;0;0.0741045;-0.629719;-4.30915;-1.76372;4.69852;-7.37445;-0.00135732;0.00111716;0.0896667;0.0896804;-0.00137103;0.0455257;0.0151374;66.0614;0.0602492;0.060701;65.4109;0.015288;88.3685;133.368;0.00783312;-0.00135995;-0.000442796;0.00254681;0.0896672;0.0147956;0.0932347;0;0.111924;7.58866;4.06114
762000;763;;;;;;;;;;;;;;;;;;;;;;;;;;;;;;;;;;;;;;-1.31662;-5.64846;-1.87123;6.09427;-7.46467;-0.00229821;0.00375532;0.0833769;0.0835412;-0.0024625;0.0430018;0.0275641;36.2791;0.0565328;0.0573358;33.9254;0.0294764;84.3851;129.385;0.0247595;-0.00232455;-0.00103236;0.00816431;0.0833829;-0.00838515;0.0488552;0;0.10747;-0.00632883;4.09016
