Time;Image index (Image index);Distance L(t) (Extensometer 1);Change in distance (Extensometer 1);Strain - RC (Extensometer 1);Distance x L(t) (Extensometer 1);Distance y L(t) (Extensometer 1);Distance z L(t) (Extensometer 1);Change in distance x (Extensometer 1);Change in distance y (Extensometer 1);Change in distance z (Extensometer 1);X-displacement (Strain Gauge 1);Y-displacement (Strain Gauge 1);Z-displacement (Strain Gauge 1);Displacement (Strain Gauge 1);Height (Strain Gauge 1);Exx - RC (Strain Gauge 1);Exy - RC (Strain Gauge 1);Eyy - RC (Strain Gauge 1);Max. principal strain - RC (Strain Gauge 1);Min. principal strain - RC (Strain Gauge 1);Max. shear strain - RC (Strain Gauge 1);Poisson ratio -Exx/Eyy (Strain Gauge 1);Poisson ratio -Eyy/Exx (Strain Gauge 1);Von Mises - RC (Strain Gauge 1);Tresca - RC (Strain Gauge 1);Poisson ratio -strain max/min (Strain Gauge 1);Poisson ratio -strain min/max (Strain Gauge 1);Max. strain angle (Strain Gauge 1);Max. shear angle (Strain Gauge 1);Vorticity-z (Strain Gauge 1);du/dx (Strain Gauge 1);du/dy (Strain Gauge 1);dv/dx (Strain Gauge 1);dv/dy (Strain Gauge 1);dw/dx (Strain Gauge 1);dw/dy (Strain Gauge 1);Ezz plane stress state (Strain Gauge 1);Stereo reconstruction error (Strain Gauge 1);X-displacement (Strain Gauge 2);Y-displacement (Strain Gauge 2);Z-displacement (Strain Gauge 2);Displacement (Strain Gauge 2);Height (Strain Gauge 2);Exx - RC (Strain Gauge 2);Exy - RC (Strain Gauge 2);Eyy - RC (Strain Gauge 2);Max. principal strain - RC (Strain Gauge 2);Min. principal strain - RC (Strain Gauge 2);Max. shear strain - RC (Strain Gauge 2);Poisson ratio -Exx/Eyy (Strain Gauge 2);Poisson ratio -Eyy/Exx (Strain Gauge 2);Von Mises - RC (Strain Gauge 2);Tresca - RC (Strain Gauge 2);Poisson ratio -strain max/min (Strain Gauge 2);Poisson ratio -strain min/max (Strain Gauge 2);Max. strain angle (Strain Gauge 2);Max. shear angle (Strain Gauge 2);Vorticity-z (Strain Gauge 2);du/dx (Strain Gauge 2);du/dy (Strain Gauge 2);dv/dx (Strain Gauge 2);dv/dy (Strain Gauge 2);dw/dx (Strain Gauge 2);dw/dy (Strain Gauge 2);Ezz plane stress state (Strain Gauge 2);Stereo reconstruction error (Strain Gauge 2);Load ADC 1 channel 1;Position ADC 1 channel 2
ms;;mm;mm;S;mm;mm;mm;mm;mm;mm;mm;mm;mm;mm;mm;S;S;S;S;S;S;;;S;S;;;°;°;S;S;S;S;S;S;S;S;pixel;mm;mm;mm;mm;mm;S;S;S;S;S;S;;;S;S;;;°;°;S;S;S;S;S;S;S;S;pixel;kN;mm
0.02515;1;25.7459;0;0;-2.66921;25.5918;-0.886487;0;0;0;0;0;0;0;-4.98605;-2.22045e-16;7.63278e-17;0;2.37066e-17;-2.45751e-16;1.34729e-16;;;1.72281e-16;1.79639e-16;;;0;45;0;-2.22045e-16;8.32667e-17;6.93889e-17;0;0;0;0;0;0;0;0;0;-5.86888;0;6.245e-17;0;6.245e-17;-6.245e-17;6.245e-17;;;7.21111e-17;8.32667e-17;;;0;45;0;0;5.55112e-17;6.93889e-17;0;0;0;0;0;-0.0261098;-1.00664
1000.03;2;25.7456;-0.000263234;-1.02243e-05;-2.67149;25.5914;-0.883978;-0.00227429;-0.000415346;0.00250888;0.000274752;-0.00119865;-0.00379753;0.00399168;-4.98984;0.000135603;-0.000126123;0.000603584;0.00063541;0.000103777;0.000265817;-0.224664;-4.4511;0.000393602;0.000354422;-6.12285;-0.163323;122.236;167.236;0.00112769;0.000135533;0.000144036;-0.000396156;0.000603581;-0.00426625;0.000223687;0;0.0116413;3.99483e-05;-0.000750715;-0.00243252;0.00254604;-5.87131;-4.80984e-05;0.000149886;7.96947e-07;0.000128216;-0.000175517;0.000151867;;;0.000176068;0.000202489;0.730503;1.36892;121.735;166.735;-0.0016829;-4.8096e-05;0.00016694;0.000132833;7.94246e-07;0.00291136;0.000994468;0;0.0210456;-0.0259905;-1.00649
2000.03;3;25.7442;-0.00168721;-6.55332e-05;-2.67317;25.5896;-0.888545;-0.00395882;-0.00218199;-0.00205803;0.000407586;-0.0122683;-0.00822022;0.0147733;-4.99427;0.000145194;-0.000161701;0.00052535;0.000584825;8.57191e-05;0.000249553;-0.276376;-3.61826;0.000364684;0.000332737;-6.82258;-0.146572;134.782;179.782;0.000108831;0.000145056;0.00022668;-0.000549934;0.000525337;-0.00225326;-0.00176476;0;0.0170433;-0.000451439;-0.0119177;-0.00738306;0.0140266;-5.87626;4.84741e-05;0.000101751;8.35965e-05;0.00016929;-3.72196e-05;0.000103255;-0.579859;-1.72456;0.000127097;0.000137673;4.54841;0.219857;16.2929;61.2929;-0.00137856;4.84458e-05;-5.54335e-05;0.000258929;8.36001e-05;0.00232014;0.00117894;0;0.0207642;-0.0258572;-0.992187
3000.03;4;25.7423;-0.00355149;-0.000137944;-2.67493;25.5873;-0.894104;-0.00571256;-0.00443444;-0.00761666;-0.000159131;-0.0223105;-0.00950806;0.0242526;-4.99555;0.00012409;0.000155196;0.00019433;0.00031833;8.98778e-08;0.00015912;-0.638551;-1.56605;0.00021219;0.00021216;;;78.428;123.428;2.75456e-05;0.0001241;0.000375252;-6.48443e-05;0.000194272;-0.00201862;-0.00106583;0;0.0134169;-0.000940996;-0.0218405;-0.00941374;0.0238015;-5.8783;-0.000271851;0.000210302;3.5661e-05;0.000142419;-0.00037861;0.000260515;7.6232;0.131178;0.000310948;0.000347353;0.376165;2.65841;116.428;161.428;-0.00160599;-0.000271846;0.000604047;-0.000183322;3.55007e-05;0.00198262;0.00103058;0;0.0212983;-0.0255792;-0.984551
4000.03;5;25.7405;-0.00537312;-0.000208698;-2.67651;25.5849;-0.906038;-0.00729529;-0.00685248;-0.0195513;-0.000743421;-0.0319082;-0.00926536;0.0332345;-4.99531;0.000266186;0.000113111;-2.80423e-05;0.000304643;-6.64992e-05;0.000185571;9.49233;0.105348;0.00022851;0.000247428;4.58116;0.218285;45.2837;90.2837;0.000418128;0.000266192;0.000271206;-4.5031e-05;-2.80726e-05;-0.00169939;-0.00224589;0;0.0130897;-0.0017132;-0.031097;-0.0116973;0.0332683;-5.88058;-0.000188809;0.000141147;-2.24567e-05;5.81981e-05;-0.000269464;0.000163831;-8.40769;-0.118939;0.000201858;0.000218442;0.215977;4.63012;115.472;160.472;-0.00178083;-0.000188809;0.000424572;-0.000142231;-2.25369e-05;0.00222052;0.00193741;0;0.0214593;-0.0257494;-0.977128
5000.03;6;25.7438;-0.00210182;-8.16371e-05;-2.67633;25.5886;-0.895601;-0.00711545;-0.00317502;-0.00911356;-0.000975958;-0.0403806;-0.0128217;0.0423785;-4.99887;0.000345632;0.000215944;-0.000187826;0.000422089;-0.000264283;0.000343186;1.84017;0.543428;0.000399753;0.000457581;1.59711;0.626131;49.0604;94.0604;0.000578992;0.000345652;0.000347913;8.39045e-05;-0.000187864;-0.00210492;-0.000948256;0;0.0132576;-0.00195229;-0.0399612;-0.0161409;0.0431421;-5.88502;-0.000275099;0.000122221;-8.15748e-06;3.93481e-05;-0.000322605;0.000180976;;;0.000229314;0.000241302;0.12197;8.19874;123.117;168.117;-0.00168499;-0.000275135;0.000540041;-0.000295487;-8.29584e-06;0.00360767;-0.000837636;0;0.0216652;-0.025556;-0.969599
6000.03;7;25.7428;-0.00311118;-0.000120842;-2.67553;25.5876;-0.897408;-0.00631515;-0.00417016;-0.0109215;-0.00080716;-0.0432148;-0.0138722;0.0453939;-4.99992;0.000394661;0.000294755;0.000235981;0.000620568;1.00744e-05;0.000305247;-1.67242;-0.597935;0.000410395;0.000406995;-61.5988;-0.0162341;51.8286;96.8286;0.000424847;0.000394697;0.000467599;0.000121885;0.000235915;-0.00170402;-0.000821504;0;0.0138919;-0.00194194;-0.0420158;-0.0176919;0.04563;-5.88657;-0.000494736;0.000108623;-9.86415e-05;-7.0809e-05;-0.000522569;0.00022588;-5.0155;-0.199382;0.000327339;0.000301173;-0.135502;-7.37998;142.114;7.11357;-0.00168303;-0.000494753;0.000427025;-0.000209653;-9.87267e-05;0.00290887;-0.00070267;0;0.0195543;-0.0254186;-0.963325
7000.03;8;25.7448;-0.0010568;-4.10473e-05;-2.67273;25.59;-0.895484;-0.00351257;-0.00174305;-0.00899752;-0.00103985;-0.0507997;-0.0183469;0.0540213;-5.00439;0.000297365;3.40746e-05;2.99312e-05;0.000301638;2.56579e-05;0.00013799;-9.93497;-0.100655;0.000193109;0.000183987;-11.7562;-0.0850617;12.0715;57.0715;0.000163346;0.000297366;6.248e-05;5.66165e-06;2.99298e-05;-0.00166264;0.00156278;0;0.0125454;-0.00212652;-0.0502716;-0.0219127;0.054881;-5.89079;-0.000257258;9.50818e-05;-7.38346e-06;2.4682e-05;-0.000289324;0.000157003;;;0.000201614;0.000209337;0.0853093;11.7221;124.723;169.723;-0.00149138;-0.000257313;0.000535316;-0.000345042;-7.52222e-06;0.00196307;0.000820892;0;0.0196866;-0.0254727;-0.957429
8000.03;9;25.7453;-0.000538853;-2.09297e-05;-2.6726;25.5907;-0.890718;-0.00338232;-0.00104201;-0.00423076;-0.002042;-0.0607466;-0.0252581;0.0658202;-5.0113;0.000332115;0.000147959;0.000453892;0.000553001;0.000233006;0.000159997;-0.731704;-1.36667;0.000320589;0.00021333;-2.37334;-0.421348;69.7043;114.704;0.000403174;0.000332124;0.000348653;-5.27116e-05;0.000453842;-0.00152808;-0.000148515;0;0.0127448;-0.00358079;-0.0597586;-0.0311846;0.067501;-5.90007;-0.000117351;4.7517e-05;8.22738e-05;9.30073e-05;-0.000128084;0.000110546;1.42635;0.701093;0.000128182;0.000147394;0.726141;1.37714;126.447;171.447;-0.0020201;-0.000117352;0.000166951;-7.18928e-05;8.2261e-05;0.00346707;0.00327604;0;0.019673;-0.0255633;-0.94822
9000.03;10;25.7416;-0.00423483;-0.000164486;-2.67334;25.5865;-0.903222;-0.00412794;-0.00527656;-0.016735;-0.00247316;-0.069431;-0.0275404;0.0747346;-5.01359;0.000133598;2.32862e-05;-0.000188814;0.000135271;-0.000190487;0.000162879;0.707564;1.4133;0.000188975;0.000217172;0.710133;1.40819;51.3474;96.3474;-4.96126e-05;0.000133544;0.000375171;-0.000328712;-0.000188884;-0.00087258;-0.000584073;0;0.0147532;-0.00417748;-0.0674976;-0.0366243;0.0769072;-5.90551;-0.000268391;3.09285e-05;1.49492e-05;1.8286e-05;-0.000271728;0.000145007;17.9535;0.0556994;0.000187545;0.000193343;0.0672951;14.8599;164.956;29.9557;-0.00174297;-0.000268391;7.15497e-05;-9.68125e-06;1.49472e-05;0.00146739;0.000781466;0;0.019929;-0.0254025;-0.944593
10000;11;25.7394;-0.00648884;-0.000252034;-2.67666;25.5836;-0.90991;-0.00744111;-0.00812764;-0.0234228;-0.000888351;-0.0821845;-0.0187556;0.0843021;-5.0048;0.000285976;-6.08358e-05;-0.000411768;0.000291241;-0.000417033;0.000354137;0.694507;1.43987;0.000411066;0.000472182;0.698364;1.43192;45.329;90.329;-9.2749e-05;0.000285899;0.000276444;-0.000398351;-0.000411805;-0.000267569;-0.0019073;0;0.0163846;-0.0021579;-0.0781534;-0.0330475;0.0848808;-5.90193;-0.000508133;0.000173522;-0.00013966;-7.08099e-05;-0.000576983;0.000253087;-3.63836;-0.274849;0.000363359;0.000337449;-0.122724;-8.14834;126.566;171.566;-0.00178582;-0.000508232;0.000825014;-0.00047773;-0.000139985;0.00240917;0.000530286;0;0.0221178;-0.0253893;-0.940063
11000;12;25.7424;-0.00347363;-0.00013492;-2.67899;25.5864;-0.90966;-0.00977167;-0.00532912;-0.0231735;0.0030417;-0.098832;-0.0245314;0.101876;-5.01058;0.000349046;0.000175152;-0.000305903;0.000392944;-0.000349801;0.000371373;1.14103;0.876397;0.000429065;0.000495164;1.12334;0.890206;56.274;101.274;0.000448832;0.00034906;0.000395642;-4.54836e-05;-0.000305966;-0.000351404;-0.000494829;0;0.016134;-0.00121778;-0.097276;-0.0374832;0.104255;-5.90636;-0.000515014;0.000136364;-3.33794e-05;2.5491e-06;-0.000550942;0.000276746;-15.4291;-0.0648127;0.000368147;0.000368994;;;136.759;1.75919;-0.00158432;-0.000515045;0.000557804;-0.000284872;-3.35257e-05;0.000617317;0.000285727;0;0.0248741;-0.0249713;-0.932658
12000;13;25.7473;0.00141282;5.48755e-05;-2.67444;25.5922;-0.900142;-0.00522175;0.000399537;-0.0136555;0.00731274;-0.119151;-0.020377;0.121102;-5.00642;0.000432514;0.000200267;-0.000137569;0.000495834;-0.000200889;0.000348361;3.14398;0.318068;0.000414093;0.000464482;2.4682;0.405154;45.2489;90.2489;0.000832781;0.000432534;0.000414095;-1.3682e-05;-0.000137635;0.00108651;0.00257608;0;0.0197146;0.00542389;-0.119943;-0.0334276;0.124632;-5.90231;-0.000528807;-9.4451e-05;-4.14786e-05;-2.38131e-05;-0.000546473;0.00026133;-12.7489;-0.078438;0.000356643;0.00034844;-0.0435759;-22.9485;13.0393;58.0393;-0.00040486;-0.000528805;-0.00011885;-7.00641e-05;-4.14812e-05;0.00152216;0.000761803;0;0.0258007;-0.0215563;-0.925467
13000;14;25.7471;0.00127008;4.93314e-05;-2.67321;25.5923;-0.897593;-0.00399943;0.000473191;-0.0111059;0.0148186;-0.114882;-0.033237;0.120508;-5.01928;0.000356325;0.000266525;-0.000124326;0.000474875;-0.000242876;0.000358876;2.86606;0.348912;0.000421548;0.000478501;1.95521;0.511453;24.981;69.981;0.00131849;0.000356326;0.000270581;0.000262467;-0.000124327;0.00172276;0.00232021;0;0.0269236;0.0151835;-0.116104;-0.0447324;0.125346;-5.91361;-0.000514978;-9.84445e-05;-0.000117908;-9.48413e-05;-0.000538045;0.000221602;-4.36762;-0.228958;0.000331635;0.000295469;-0.17627;-5.67311;25.7778;70.7778;0.000163487;-0.000514975;-0.0002472;5.0252e-05;-0.000117934;-0.000382086;-0.000371472;0;0.0282708;-0.0180791;-0.917785
14000;15;25.7463;0.000429642;1.66878e-05;-2.67294;25.5915;-0.894919;-0.00372331;-0.000249838;-0.00843169;0.0156102;-0.113997;-0.0382375;0.121248;-5.02428;0.000158728;0.000161376;-0.000783685;0.000185596;-0.000810552;0.000498074;0.202541;4.93727;0.000611692;0.000664099;0.228975;4.3673;98.9602;143.96;0.00119302;0.000158729;0.000166742;0.000156005;-0.000783686;0.00263346;0.00235332;0;0.0218503;0.0162035;-0.11401;-0.0468559;0.124324;-5.91574;-0.00047388;-8.68763e-05;-0.000267525;-0.000235821;-0.000505584;0.000134881;-1.77134;-0.564543;0.000292118;0.000179842;-0.466433;-2.14393;28.2725;73.2725;-6.23195e-05;-0.000473876;-0.000196282;2.25065e-05;-0.000267541;0.000526582;0.00122534;0;0.0278599;-0.01849;-0.910188
15000;16;25.7436;-0.00224199;-8.70815e-05;-2.67345;25.5886;-0.900446;-0.00423484;-0.00318498;-0.0139591;0.0146218;-0.123399;-0.0434428;0.131637;-5.02949;0.000333992;3.54453e-05;-0.000480333;0.000335532;-0.000481873;0.000408702;0.695334;1.43816;0.000474443;0.000544937;0.696307;1.43615;55.3729;100.373;0.0011845;0.000333968;0.000294292;-0.000223612;-0.000480376;0.000986079;0.000487065;0;0.0164432;0.0151579;-0.122443;-0.0531053;0.134321;-5.92199;-0.000493975;-8.03834e-05;-0.000135453;-0.000118255;-0.000511173;0.000196459;-3.64684;-0.27421;0.000309001;0.000261945;-0.231341;-4.32262;17.3507;62.3507;0.000222925;-0.000493972;-0.000138984;-2.18039e-05;-0.000135459;-0.000413349;0.00151213;0;0.0271777;-0.0185212;-0.904042
16000;17;25.7423;-0.00358252;-0.000139149;-2.67422;25.587;-0.905856;-0.00500041;-0.00480458;-0.0193689;0.0137584;-0.129798;-0.0418137;0.137059;-5.02786;0.00012753;0.000155388;-0.000509362;0.000163419;-0.000545251;0.000354335;0.250372;3.99405;0.00042849;0.000472447;0.299714;3.33652;76.388;121.388;0.000616369;0.000127537;0.000410736;-0.000100123;-0.000509434;0.00176307;0.000668508;0;0.0186313;0.0141831;-0.128915;-0.0514388;0.139521;-5.92032;-0.000510534;4.7404e-05;-0.000114152;-0.000108562;-0.000516125;0.000203782;-4.47241;-0.223593;0.000314211;0.000271709;-0.21034;-4.75421;174.012;39.0121;-0.000152233;-0.000510535;3.93581e-05;5.54468e-05;-0.000114152;0.000834747;0.00106252;0;0.0284122;-0.0186229;-0.897128
17000;18;25.7414;-0.00449184;-0.000174468;-2.6759;25.5858;-0.908885;-0.00668897;-0.00600337;-0.0223977;0.0134342;-0.137091;-0.0482222;0.145944;-5.03427;0.000160246;4.69163e-05;-0.000414522;0.000164051;-0.000418327;0.000291189;0.386581;2.58678;0.000346754;0.000388252;0.39216;2.54998;64.1345;109.135;0.000288485;0.000160231;0.000276164;-0.000182463;-0.000414559;0.00227361;-0.000696592;0;0.0205969;0.0137344;-0.135866;-0.0583231;0.148492;-5.9272;-0.000491447;6.28785e-06;-0.000274451;-0.000274269;-0.000491629;0.00010868;-1.79066;-0.558455;0.000284475;0.000144907;-0.557878;-1.79251;178.743;43.7428;-0.000248697;-0.000491447;9.2558e-07;1.1649e-05;-0.000274451;-4.83253e-05;0.00134026;0;0.0245636;-0.0186064;-0.890241
18000;19;25.743;-0.00282524;-0.000109736;-2.67679;25.5873;-0.911096;-0.00757116;-0.00449757;-0.0246093;0.0133288;-0.144979;-0.05404;0.155296;-5.04009;0.000155707;0.000205773;-0.000564759;0.000210336;-0.000619387;0.000414861;0.275705;3.62706;0.000498068;0.000553149;0.339587;2.94476;95.8285;140.828;0.000566755;0.000155718;0.0002725;0.000138997;-0.000564775;0.000547117;0.000158669;0;0.0192566;0.0135413;-0.144415;-0.0650467;0.158966;-5.93393;-0.000566645;6.23649e-06;-0.000194408;-0.000194303;-0.00056675;0.000186223;-2.91473;-0.343085;0.000332558;0.000248298;-0.342838;-2.91683;172.768;37.7683;-0.000108575;-0.000566648;9.08885e-05;-7.8384e-05;-0.000194412;0.000413162;0.000831976;0;0.0260958;-0.0185229;-0.882395
19000;20;25.7456;-0.000229272;-8.9052e-06;-2.67694;25.59;-0.906184;-0.00772514;-0.00172748;-0.0196971;0.0124383;-0.151331;-0.0537483;0.161074;-5.03979;0.000268278;0.000194582;-0.000443792;0.000317981;-0.000493494;0.000405737;0.604514;1.65422;0.000472144;0.000540983;0.644346;1.55196;104.664;149.664;0.000766282;0.000268278;0.000193554;0.00019561;-0.000443791;0.000271638;0.00105201;0;0.0192645;0.0124791;-0.151509;-0.0657537;0.165633;-5.93464;-0.000562519;6.09436e-05;-0.000209745;-0.000199514;-0.000572751;0.000186619;-2.68192;-0.372867;0.00033571;0.000248825;-0.348343;-2.87074;158.611;23.6107;7.22997e-05;-0.000562523;0.000230546;-0.000108599;-0.00020977;-0.000948195;-0.00214255;0;0.0252337;-0.0185298;-0.881805
20000;21;25.7479;0.0020463;7.94809e-05;-2.67435;25.5927;-0.903327;-0.00513232;0.000934018;-0.0168397;0.0106684;-0.163631;-0.0544395;0.172779;-5.04049;0.000101804;0.000149431;-0.000373452;0.000144883;-0.000416531;0.000280707;0.272602;3.66835;0.000336543;0.000374276;0.347833;2.87495;99.5457;144.546;0.000681438;0.000101808;0.000180956;0.00011789;-0.000373457;0.00165965;0.00204542;0;0.0202368;0.0110592;-0.16467;-0.068763;0.178793;-5.93764;-0.00054058;7.19314e-05;-0.000251315;-0.000234415;-0.00055748;0.000161532;-2.15101;-0.464899;0.000323215;0.000215376;-0.420491;-2.37817;175.615;40.6152;-0.000176392;-0.000540597;-5.41951e-05;0.000198021;-0.000251314;0.000308707;0.00166915;0;0.0276044;-0.0185845;-0.875828
21000;22;25.7444;-0.00145211;-5.64017e-05;-2.67313;25.5892;-0.907655;-0.00391184;-0.00261127;-0.0211684;0.0105704;-0.177486;-0.0547105;0.186027;-5.04076;0.00015458;5.22359e-05;-0.000487653;0.000158801;-0.000491874;0.000325337;0.316987;3.1547;0.00039173;0.000433783;0.322848;3.09743;78.2619;123.262;0.000688072;0.00015458;0.000159159;-5.47558e-05;-0.000487665;0.00250075;0.00193241;0;0.0205004;0.0109556;-0.176535;-0.0718765;0.190921;-5.94076;-0.000479259;-8.0407e-05;-0.000140521;-0.000122404;-0.000497376;0.000187486;-3.41057;-0.293206;0.000299247;0.000249981;-0.2461;-4.0634;29.3597;74.3597;0.000225;-0.000479263;-0.000284107;0.000123224;-0.000140559;-0.000363453;0.00118839;0;0.0277813;-0.0184949;-0.86548
22000;23;25.742;-0.00382858;-0.000148707;-2.67469;25.5863;-0.917044;-0.00547809;-0.0055006;-0.0305566;0.00931838;-0.185075;-0.0581994;0.194234;-5.04425;0.000142837;0.000119757;-0.000397929;0.000168171;-0.000423264;0.000295717;0.35895;2.78591;0.000351893;0.00039429;0.397319;2.51687;70.5109;115.511;0.000684439;0.000142835;0.000368498;-0.000129119;-0.00039799;0.001031;0.00125058;0;0.0234426;0.00964049;-0.184315;-0.0754643;0.199399;-5.94435;-0.000377323;-1.68233e-05;-0.000118007;-0.00011692;-0.00037841;0.000130745;-3.19746;-0.312749;0.000223727;0.000174326;-0.308978;-3.23647;3.80407;48.8041;-9.10021e-05;-0.000377323;-1.77536e-05;-1.58932e-05;-0.000118007;-0.00063488;0.00104259;0;0.0273659;-0.0185479;-0.860584
23000;24;25.7424;-0.00343297;-0.000133341;-2.67712;25.5863;-0.919382;-0.00791005;-0.00544085;-0.0328953;0.00845979;-0.195276;-0.0560015;0.203323;-5.04205;0.000146606;4.25462e-06;-0.000613869;0.00014663;-0.000613892;0.000380261;0.238823;4.18719;0.000465894;0.000507015;0.238853;4.18668;75.3514;120.351;0.000466636;0.000146598;0.000138719;-0.000130312;-0.000613878;0.00239269;0.000944741;0;0.0188358;0.00872145;-0.193834;-0.0758307;0.208321;-5.94471;-0.000486102;6.66065e-05;-0.00025802;-0.000239994;-0.000504129;0.000132067;-1.88397;-0.530794;0.00029117;0.00017609;-0.476057;-2.10059;155.132;20.1317;0.000219496;-0.000486102;0.000197953;-6.47101e-05;-0.000258037;-0.00100827;0.000771669;0;0.0258915;-0.018581;-0.852868
24000;25;25.7433;-0.0025961;-0.000100836;-2.67739;25.587;-0.923053;-0.00817727;-0.00475899;-0.0365662;0.00862482;-0.205029;-0.0608106;0.214031;-5.04686;0.000277304;0.000270126;-0.000505957;0.000361428;-0.000590081;0.000475755;0.548078;1.82456;0.000554616;0.00063434;0.612506;1.63264;112.702;157.702;0.00110313;0.000277298;0.000248312;0.000291958;-0.000505951;-0.000237417;0.000587177;0;0.019722;0.00863061;-0.204805;-0.0801866;0.220112;-5.94907;-0.000556138;-1.12062e-05;-0.000200853;-0.0002005;-0.000556491;0.000177996;-2.76889;-0.361156;0.000325444;0.000237328;-0.360292;-2.77553;15.3855;60.3855;0.00023434;-0.000556155;-0.000205355;0.000182874;-0.000200874;-0.000949009;0.000260412;0;0.0259893;-0.0184816;-0.846362
25000;26;25.7456;-0.000230598;-8.95672e-06;-2.67587;25.5899;-0.91297;-0.006658;-0.00185842;-0.0264834;0.00761381;-0.213257;-0.0622125;0.222276;-5.04826;0.000228248;0.000509907;-0.000174324;0.00057516;-0.000521236;0.000548198;1.30933;0.763749;0.00063326;0.000730931;1.10345;0.906246;0.554104;45.5541;0.000783484;0.000228213;0.0004453;0.00057454;-0.000174293;0.000180982;0.00153056;0;0.0214218;0.0076017;-0.213283;-0.0831854;0.229057;-5.95207;-0.000512496;-2.62296e-05;-0.000140915;-0.000139073;-0.000514338;0.000187633;-3.63691;-0.274958;0.000307213;0.000250177;-0.270392;-3.69834;8.33791;53.3379;-0.000553517;-0.000512496;-7.58653e-05;2.33876e-05;-0.000140918;0.000531269;0.000416927;0;0.0268519;-0.0184379;-0.838829
26000;27;25.7475;0.00159933;6.21197e-05;-2.67405;25.5919;-0.914708;-0.00483903;0.000110731;-0.0282206;0.00711548;-0.222304;-0.0650114;0.231725;-5.05106;0.000131835;0.000293427;-8.1869e-05;0.00033726;-0.000287294;0.000312277;1.61032;0.620995;0.000360971;0.000416369;1.17392;0.851847;7.11799;52.118;0.000973655;0.000131824;0.00025673;0.000330132;-8.18589e-05;0.000134609;0.00228544;0;0.020896;0.00726119;-0.22361;-0.0883694;0.240548;-5.95725;-0.000490389;-5.07219e-05;-0.000258628;-0.000248013;-0.000501003;0.000126495;-1.89612;-0.527394;0.000289259;0.00016866;-0.495034;-2.02006;23.2021;68.2021;0.000248378;-0.000490393;-0.000207834;0.000106354;-0.000258648;-0.00049836;0.00170374;0;0.0265403;-0.0184829;-0.831635
27000;28;25.7452;-0.000695548;-2.70159e-05;-2.6749;25.5894;-0.917601;-0.00568835;-0.00239044;-0.0311136;0.00580121;-0.238046;-0.0657665;0.247032;-5.05181;0.000205721;0.000364848;-0.000660456;0.000338919;-0.000793653;0.000566286;0.311483;3.21045;0.000671229;0.000755048;0.427036;2.34172;100.247;145.247;0.00109335;0.000205747;0.000445839;0.000283787;-0.000660489;-3.95401e-05;0.00258556;0;0.0188429;0.00571748;-0.237219;-0.0909298;0.254113;-5.95981;-0.000398463;-6.57478e-05;-0.000190796;-0.00017173;-0.000417529;0.000122899;-2.08843;-0.478829;0.000242321;0.000163866;-0.411302;-2.43131;30.0525;75.0525;0.000304883;-0.000398465;-0.000220808;8.92807e-05;-0.000190818;-0.000343496;0.00178975;0;0.0295897;-0.0185644;-0.823815
28000;29;25.743;-0.00285302;-0.000110815;-2.67611;25.5869;-0.924145;-0.00689583;-0.00492284;-0.0376582;0.00544999;-0.244373;-0.067198;0.253502;-5.05324;0.000103651;8.82067e-05;-0.000681598;0.000113437;-0.000691384;0.000402411;0.15207;6.57592;0.000503017;0.000536547;0.164072;6.09488;77.5468;122.547;0.000719745;0.000103646;0.00031032;-0.000134081;-0.000681642;9.17298e-05;0.00264948;0;0.0330774;0.00538198;-0.243721;-0.0925852;0.26077;-5.96147;-0.000502678;6.1692e-05;-9.20572e-05;-8.29889e-05;-0.000511747;0.000214379;-5.4605;-0.183134;0.000317142;0.000285839;-0.162168;-6.16645;176.726;41.7259;4.48758e-05;-0.000502683;8.31879e-06;0.000115043;-9.20554e-05;0.000115514;0.00208489;0;0.0396562;-0.0184805;-0.816631
29000;30;25.7425;-0.00340586;-0.000132288;-2.67765;25.5861;-0.925068;-0.00843442;-0.00567338;-0.038581;0.00477282;-0.252509;-0.0690931;0.261835;-5.05514;0.000172457;0.000174335;-0.000599823;0.000209988;-0.000637354;0.000423671;0.287513;3.4781;0.000509532;0.000564894;0.329468;3.03519;82.9855;127.985;0.000213736;0.000172472;0.000343146;5.39494e-06;-0.000599866;0.00146629;-0.000180824;0;0.0178693;0.00456572;-0.250874;-0.0947635;0.268214;-5.96364;-0.000573816;6.94923e-05;-0.000224328;-0.000211017;-0.000587127;0.000188055;-2.55794;-0.39094;0.000343416;0.00025074;-0.359406;-2.78237;170.303;35.3028;-0.000261138;-0.000573818;5.35205e-05;8.54586e-05;-0.000224327;0.000516467;0.00257251;0;0.0265042;-0.0184724;-0.815158
30000;31;25.7464;0.000556721;2.16237e-05;-2.67805;25.5902;-0.920002;-0.00883659;-0.00154603;-0.0335148;0.00428198;-0.263302;-0.0701711;0.272526;-5.05622;0.000178152;0.000398293;-0.000244589;0.000417686;-0.000484123;0.000450905;0.728373;1.37292;0.000521131;0.000601206;0.862768;1.15906;155.271;20.2705;0.00124554;0.000178115;0.000314012;0.00048261;-0.000244559;-0.000673004;0.001391;0;0.021019;0.00373697;-0.262523;-0.0980792;0.280271;-5.96696;-0.00052463;6.18737e-05;-0.000287644;-0.000272463;-0.000539812;0.000133675;-1.82389;-0.54828;0.000311665;0.000178233;-0.504736;-1.98123;170.555;35.5547;-7.12347e-05;-0.000524636;-1.22621e-07;0.000123855;-0.000287642;-0.000700515;0.00225846;0;0.0271764;-0.0185275;-0.803695
31000;32;25.7486;0.00270321;0.000104996;-2.6762;25.5927;-0.915882;-0.0069883;0.000954652;-0.0293953;0.0039299;-0.271942;-0.0722338;0.281399;-5.05828;0.000150769;0.000317596;-6.56083e-05;0.000378098;-0.000292937;0.000335517;2.29802;0.435157;0.000388461;0.000447356;1.29071;0.774764;179.627;44.6268;0.00131329;0.000150719;0.000187032;0.000448187;-6.55754e-05;-0.000434852;0.00238353;0;0.0310465;0.00360811;-0.27324;-0.101665;0.291563;-5.97055;-0.000612288;-9.34048e-05;-0.000186168;-0.000166593;-0.000631863;0.000232635;-3.28889;-0.304054;0.000378147;0.00031018;-0.263654;-3.79284;7.4629;52.4629;-0.000159801;-0.000612296;-3.19929e-05;-0.000154791;-0.000186165;-9.81387e-05;0.00137937;0;0.0356566;-0.0185898;-0.798357
32000;33;25.7488;0.0029057;0.000112861;-2.67453;25.593;-0.91876;-0.00531255;0.00123041;-0.0322729;0.00297308;-0.280495;-0.0713076;0.289433;-5.05735;0.000178761;0.000423507;-0.000366334;0.000409841;-0.000597414;0.000503628;0.487975;2.04929;0.00058489;0.000671503;0.686026;1.45767;137.916;2.91569;0.00117703;0.000178727;0.000348683;0.000498373;-0.000366305;-0.00173565;0.00357228;0;0.0349358;0.00260586;-0.281585;-0.102936;0.299822;-5.97182;-0.000512088;-0.00014971;-0.000113268;-6.33242e-05;-0.000562033;0.000249354;-4.52101;-0.221189;0.000355466;0.000332472;-0.11267;-8.87549;40.8261;85.8261;0.000347664;-0.00051209;-0.000459635;0.00016009;-0.000113363;0.00138145;0.0023866;0;0.0331917;-0.0186569;-0.794131
33000;34;25.7436;-0.00227568;-8.83902e-05;-2.67562;25.5871;-0.933949;-0.00640839;-0.00464698;-0.0474624;0.00172673;-0.294625;-0.076065;0.304291;-5.06211;0.000298164;0.000290286;-0.00030323;0.00041542;-0.000420486;0.000417953;0.983291;1.01699;0.000482613;0.00055727;0.987951;1.0122;67.8601;112.86;0.000822825;0.000298185;0.000374046;0.000206475;-0.000303258;0.0007865;0.00314661;0;0.0280064;0.00143554;-0.293848;-0.107699;0.312966;-5.97658;-0.000483384;-5.7207e-05;-7.65478e-05;-6.86567e-05;-0.000491275;0.000211309;-6.3148;-0.158358;0.000307199;0.000281746;-0.139752;-7.15553;26.9207;71.9207;0.000289052;-0.000483396;-0.00027696;0.000162456;-7.65845e-05;-0.000412166;0.00342197;0;0.0270231;-0.0185097;-0.787607
34000;35;25.7429;-0.00298641;-0.000115996;-2.67758;25.5862;-0.933744;-0.00836512;-0.00555924;-0.0472566;0.00145999;-0.305164;-0.0784609;0.315093;-5.06451;6.05989e-05;0.000117528;-0.000295917;9.58564e-05;-0.000331174;0.000213515;0.204784;4.8832;0.000258723;0.000284687;0.289444;3.4549;77.4479;122.448;0.000605098;6.06031e-05;0.000309456;-7.44679e-05;-0.000295958;0.0001817;0.00193502;0;0.0172897;0.000832791;-0.303539;-0.111427;0.323346;-5.98031;-0.000463682;1.46839e-05;-0.000343511;-0.000341742;-0.000465451;6.18541e-05;-1.34983;-0.740832;0.000278383;8.24722e-05;-0.734218;-1.36199;167.757;32.7568;-0.000321829;-0.000463684;9.1308e-05;-6.1931e-05;-0.000343515;0.000620349;0.00228361;0;0.0273959;-0.0184511;-0.780082
35000;36;25.7431;-0.00271823;-0.000105579;-2.67826;25.5864;-0.933464;-0.00904645;-0.00535053;-0.0469769;0.000409595;-0.310814;-0.0794844;0.320816;-5.06553;0.000144487;0.000218886;-0.000211824;0.000248556;-0.000315893;0.000282224;0.682108;1.46604;0.000326656;0.000376299;0.786835;1.27091;77.6299;122.63;0.000553219;0.000144507;0.00034993;8.77947e-05;-0.000211862;0.000239546;0.000145324;0;0.0180889;-0.000117301;-0.309209;-0.112838;0.329155;-5.98172;-0.000540152;3.06629e-05;-0.00028447;-0.000280844;-0.000543778;0.000131467;-1.89881;-0.526647;0.000314007;0.00017529;-0.516467;-1.93623;165.736;30.7357;-0.000366513;-0.000540155;0.000141424;-8.00703e-05;-0.000284479;0.000515988;0.000924659;0;0.0298724;-0.0185348;-0.77345
36000;37;25.7465;0.000604544;2.34812e-05;-2.67764;25.5901;-0.927107;-0.00842439;-0.0017112;-0.0406198;-0.000887332;-0.321181;-0.0796949;0.330922;-5.06574;0.000230101;0.000445113;-0.000311867;0.000480229;-0.000561995;0.000521112;0.737818;1.35535;0.000602346;0.000694817;0.854508;1.17026;118.249;163.249;0.00120063;0.000230102;0.000446661;0.000443564;-0.000311868;-0.00160166;0.00278748;0;0.0218319;-0.00143105;-0.320293;-0.116273;0.340748;-5.98515;-0.000522911;-2.33081e-05;-0.00031805;-0.000315431;-0.000525529;0.000105049;-1.64412;-0.608229;0.000305439;0.000140066;-0.600216;-1.66607;177.45;42.4503;8.13753e-05;-0.000522923;0.000112609;-0.000159198;-0.000318056;0.000162157;0.00144133;0;0.0307912;-0.0184988;-0.765539
37000;38;25.7493;0.0034485;0.000133944;-2.67587;25.593;-0.931041;-0.00665713;0.00119214;-0.0445544;-0.00107856;-0.332164;-0.0769021;0.340952;-5.06295;0.000229916;0.000536239;0.000292474;0.000798346;-0.000275956;0.000537151;-0.786105;-1.27209;0.000644228;0.000716201;2.89302;0.34566;34.5643;79.5643;0.00110356;0.000229846;0.000418763;0.000653708;0.00029253;-0.00134201;0.00317358;0;0.0245558;-0.0019861;-0.334235;-0.114272;0.353235;-5.98315;-0.000441219;-5.47768e-05;-0.000256594;-0.000241566;-0.000456248;0.000107341;-1.71952;-0.581558;0.000263567;0.000143121;-0.529462;-1.88871;26.5756;71.5756;-0.000138707;-0.000441221;-0.000199021;8.9441e-05;-0.000256613;0.000107195;0.00197243;0;0.0347711;-0.0184732;-0.758749
38000;39;25.75;0.00416965;0.000161954;-2.67538;25.5939;-0.925867;-0.00616049;0.00215733;-0.0393798;-0.00228805;-0.339574;-0.0850194;0.350063;-5.07107;0.000142256;0.000323777;0.00020365;0.000498182;-0.000152276;0.000325229;-0.69853;-1.43158;0.000392844;0.000433638;3.27158;0.305663;30.7346;75.7346;0.000849873;0.000142211;0.000207324;0.000440223;0.000203681;0.000241862;0.00358892;0;0.0236449;-0.00314305;-0.341613;-0.121995;0.362757;-5.99088;-0.000439062;-0.000140425;-3.27376e-05;1.10701e-05;-0.000482869;0.00024697;-13.4115;-0.0745627;0.000325666;0.000329293;0.0229256;43.6194;33.4665;78.4665;6.58552e-05;-0.000439052;-0.000289432;8.52149e-06;-3.27697e-05;-0.000258017;0.00378395;0;0.0283316;-0.0184518;-0.751595
39000;40;25.7451;-0.000803427;-3.12061e-05;-2.67686;25.5882;-0.941741;-0.00764935;-0.0035811;-0.0552541;-0.00264436;-0.352124;-0.0832902;0.361851;-5.06934;8.24453e-05;0.000333746;4.04454e-05;0.000395851;-0.00027296;0.000334406;-2.03843;-0.490573;0.000388305;0.000445874;1.45021;0.689553;73.7259;118.726;0.00167513;8.24762e-05;0.00044485;0.000222636;4.04022e-05;-0.000386181;0.00372024;0;0.0203432;-0.00340783;-0.351374;-0.123622;0.372502;-5.9925;-0.000394527;3.07121e-05;-8.87661e-05;-8.57118e-05;-0.000397582;0.000155935;-4.44457;-0.224994;0.000241606;0.000207913;-0.215583;-4.63859;2.1908;47.1908;-0.000526415;-0.000394532;-3.73896e-05;9.8793e-05;-8.87663e-05;0.00172759;0.00230438;0;0.0284148;-0.0184302;-0.744089
40000;41;25.7433;-0.00260259;-0.000101088;-2.67751;25.5863;-0.942355;-0.00829692;-0.00548166;-0.0558682;-0.00341466;-0.363148;-0.0887464;0.373851;-5.07479;7.31078e-05;0.000123781;-0.000336358;0.000107618;-0.000370869;0.000239243;0.217351;4.60085;0.000289856;0.000318991;0.290178;3.44615;79.9419;124.942;0.000238647;7.31147e-05;0.000287847;-4.03516e-05;-0.000336392;0.000703197;0.00255327;0;0.0184866;-0.00414947;-0.361593;-0.129599;0.384138;-5.99848;-0.000539055;3.22767e-05;-0.000250691;-0.000247122;-0.000542623;0.00014775;-2.15028;-0.465057;0.000313698;0.000197001;-0.455422;-2.19577;169.598;34.5976;-0.00017648;-0.000539054;8.90698e-05;-2.44999e-05;-0.000250694;0.000724543;0.0011935;0;0.0256426;-0.0185284;-0.735831
41000;42;25.7446;-0.0012174;-4.72854e-05;-2.67831;25.5877;-0.940377;-0.00909597;-0.0040988;-0.0538895;-0.00406911;-0.369367;-0.0898841;0.380168;-5.07593;0.000197495;0.000252547;-0.000250496;0.000311071;-0.000364072;0.000337571;0.788415;1.26837;0.000390194;0.000450095;0.854421;1.17038;75.2071;120.207;0.000393957;0.000197519;0.00037731;0.000127728;-0.000250536;0.000355438;0.00202557;0;0.0173593;-0.00503707;-0.36766;-0.133314;0.391116;-6.0022;-0.000520035;-5.66687e-06;-0.000182974;-0.000182878;-0.00052013;0.000168626;-2.84213;-0.351849;0.000304674;0.000224834;-0.351601;-2.84413;179.116;44.1164;-2.64179e-05;-0.000520035;1.70171e-05;-2.83432e-05;-0.000182974;0.000489736;0.000799931;0;0.025745;-0.0185485;-0.734759
42000;43;25.7485;0.002602;0.000101065;-2.67764;25.5919;-0.931262;-0.00842182;0.000147879;-0.0447747;-0.00509673;-0.378948;-0.089286;0.389358;-5.07533;0.000164287;0.000476924;-0.000355835;0.000447446;-0.000638995;0.000543221;0.461693;2.16594;0.000630498;0.000724294;0.700234;1.42809;132.149;177.149;0.00109406;0.000164266;0.000436482;0.000517388;-0.000355817;-0.000633337;0.00300401;0;0.0185966;-0.00599081;-0.378677;-0.133194;0.401463;-6.00208;-0.00049352;0.000106809;-0.000218335;-0.000181744;-0.000530111;0.000174183;-2.26038;-0.442403;0.000311058;0.000232244;-0.342841;-2.9168;162.258;27.2579;0.000126656;-0.000493521;9.22864e-05;0.000121328;-0.000218333;-0.000777075;0.000297031;0;0.0306421;-0.0185399;-0.72879
43000;44;25.75;0.00413335;0.000160544;-2.67634;25.5935;-0.934024;-0.00712127;0.00172397;-0.047537;-0.0061416;-0.390341;-0.0939387;0.401533;-5.07998;0.000338539;0.000491395;7.92348e-05;0.000717098;-0.000299325;0.000508211;-4.2726;-0.23405;0.000603129;0.000677615;2.39572;0.417411;18.8228;63.8228;0.0013922;0.000338447;0.000330658;0.000652174;7.93009e-05;-0.00237071;0.00373469;0;0.0208611;-0.00712209;-0.392549;-0.13992;0.416801;-6.0088;-0.00046063;-1.2583e-05;-4.37442e-05;-4.33647e-05;-0.00046101;0.000208823;-10.5301;-0.0949659;0.000293953;0.00027843;-0.0940647;-10.631;17.3754;62.3754;0.000324336;-0.00046064;-0.000165879;0.000140649;-4.37579e-05;0.000824934;0.00247286;0;0.0280454;-0.0185627;-0.719471
44000;45;25.7475;0.00163066;6.33366e-05;-2.67522;25.5908;-0.941692;-0.00600441;-0.00095828;-0.0552052;-0.00608538;-0.400728;-0.0929794;0.411418;-5.07903;0.000139564;0.00043773;0.000153964;0.000584554;-0.000291025;0.00043779;-0.906472;-1.10318;0.000514898;0.00058372;2.0086;0.497859;27.9182;72.9182;0.00181914;0.000139514;0.00033454;0.000540919;0.000154004;-0.000700366;0.00547309;0;0.024551;-0.00724451;-0.401327;-0.139853;0.425058;-6.00873;-0.000448555;9.47802e-06;-9.21922e-05;-9.19403e-05;-0.000448806;0.000178433;-4.86543;-0.205532;0.000273753;0.000237911;-0.204855;-4.8815;1.46207;46.4621;-0.000196937;-0.000448555;-1.87889e-05;3.77349e-05;-9.21924e-05;0.000903964;0.00185842;0;0.0269175;-0.0185296;-0.714473
45000;46;25.7427;-0.00313434;-0.000121741;-2.67489;25.5855;-0.956166;-0.00567781;-0.0062551;-0.0696787;-0.00744678;-0.410662;-0.0902307;0.420523;-5.07628;0.00012226;0.000369676;-0.000309188;0.000334552;-0.00052148;0.000428016;0.395423;2.52893;0.000498142;0.000570688;0.641543;1.55874;101.899;146.899;0.00140533;0.000122283;0.000437401;0.000301923;-0.000309216;0.000274411;0.00525268;0;0.025091;-0.00818077;-0.408965;-0.140303;0.432439;-6.00918;-0.000516668;-1.07138e-05;-0.000175563;-0.000175227;-0.000517005;0.000170889;-2.94292;-0.339799;0.000303612;0.000227852;-0.338928;-2.95048;9.42349;54.4235;-2.80308e-05;-0.000516672;-0.000105074;8.36144e-05;-0.000175569;0.00123546;0.00331069;0;0.027533;-0.0184575;-0.706578
46000;47;25.7412;-0.00461731;-0.000179342;-2.6788;25.5834;-0.961061;-0.00958555;-0.00833949;-0.0745742;-0.00736177;-0.4238;-0.0921926;0.433774;-5.07824;4.7532e-05;0.000328826;-0.000159005;0.000288924;-0.000400397;0.00034466;0.298934;3.34522;0.00039971;0.000459547;0.721594;1.38582;95.6038;140.604;0.000958221;4.75603e-05;0.000430847;0.000226784;-0.000159044;-0.000658538;0.00297505;0;0.0196095;-0.00900383;-0.420984;-0.143271;0.444787;-6.01215;-0.000586796;3.82813e-05;-0.00034367;-0.000337785;-0.000592681;0.000127448;-1.70744;-0.585672;0.000343298;0.000169931;-0.569927;-1.75461;171.489;36.4893;-0.000331155;-0.000586796;3.4561e-05;4.20008e-05;-0.00034367;0.0008825;0.00171765;0;0.0283056;-0.0185816;-0.699357
47000;48;25.7437;-0.0021277;-8.26425e-05;-2.67902;25.5861;-0.955529;-0.00980855;-0.00565066;-0.0690415;-0.00781127;-0.430277;-0.0961416;0.440956;-5.08219;7.48104e-05;0.00041979;-0.000229391;0.000369205;-0.000523786;0.000446496;0.326127;3.06629;0.000518137;0.000595327;0.704879;1.41868;110.057;155.057;0.000850764;7.48281e-05;0.000464348;0.000375218;-0.00022941;-0.00189925;0.00138521;0;0.0186389;-0.00931519;-0.428515;-0.148367;0.453568;-6.01725;-0.000516413;8.73294e-05;-0.000334033;-0.000298961;-0.000551485;0.000126262;-1.54599;-0.646834;0.000318776;0.000168349;-0.542103;-1.84467;154.493;19.493;6.34523e-05;-0.000516409;0.000141427;3.32414e-05;-0.000334039;0.000624765;0.000849186;0;0.0253851;-0.0184847;-0.691763
48000;49;25.7473;0.00146044;5.67252e-05;-2.67765;25.5903;-0.944563;-0.00843266;-0.0014893;-0.058076;-0.00843813;-0.437586;-0.0969921;0.448286;-5.08304;0.000127195;0.000484723;-0.000449256;0.000402911;-0.000724972;0.000563942;0.283124;3.53202;0.000659974;0.000751923;0.555761;1.79933;134.664;179.664;0.00132297;0.000127145;0.000391552;0.000577948;-0.000449215;-0.00221755;0.00373676;0;0.0175953;-0.00985942;-0.437202;-0.149889;0.462287;-6.01877;-0.000579136;-1.6463e-05;-0.000266814;-0.000265948;-0.000580001;0.000157026;-2.17056;-0.46071;0.000335247;0.000209368;-0.458531;-2.18088;0.614179;45.6142;0.000395536;-0.000579137;1.89692e-05;-5.1884e-05;-0.000266814;-0.000403094;0.00201973;0;0.0297713;-0.0184819;-0.684402
49000;50;25.7478;0.00197697;7.67878e-05;-2.6767;25.5908;-0.948141;-0.00748935;-0.00100322;-0.0616535;-0.0087863;-0.448907;-0.098004;0.459564;-5.08405;0.000111317;0.000507038;-0.000104007;0.000521998;-0.000514687;0.000518343;1.07029;0.934329;0.000598535;0.000691124;1.0142;0.985995;174.433;39.4334;0.00175714;0.000111161;0.000259979;0.000754151;-0.000103912;-0.00328956;0.00508966;0;0.0253442;-0.0106379;-0.450206;-0.154836;0.476207;-6.02372;-0.000463893;7.98096e-06;-0.000105443;-0.000105266;-0.000464071;0.000179403;-4.39945;-0.227301;0.000280944;0.000239203;-0.226831;-4.40856;16.7304;61.7304;6.10937e-05;-0.000463916;-0.000198885;0.000214773;-0.000105463;0.000858047;0.00225427;0;0.0267287;-0.0185242;-0.67672
50000;51;25.7466;0.000743621;2.88831e-05;-2.67543;25.5893;-0.956953;-0.00621835;-0.00243927;-0.0704664;-0.00997287;-0.459581;-0.104448;0.471406;-5.09049;0.000183805;0.000538509;-2.68835e-05;0.000627177;-0.000470255;0.000548716;6.83711;0.146261;0.000635758;0.000731621;1.3337;0.749797;9.17858;54.1786;0.00171028;0.000183721;0.000399396;0.000677651;-2.68182e-05;-0.000946685;0.00654267;0;0.0283867;-0.0114072;-0.460103;-0.161706;0.487826;-6.03059;-0.000386696;-7.58049e-05;-0.000100098;-8.12834e-05;-0.000405512;0.000162114;-3.86316;-0.258855;0.000247732;0.000216152;-0.200446;-4.98886;29.0708;74.0708;-0.000314556;-0.000386696;-0.000217804;6.61531e-05;-0.000100119;0.000984574;0.00337573;0;0.0300392;-0.018541;-0.66937
51000;52;25.7425;-0.00334067;-0.000129755;-2.67792;25.5846;-0.965971;-0.00870386;-0.00714756;-0.0794838;-0.0104097;-0.471103;-0.103469;0.482444;-5.08951;3.50731e-05;0.000350104;0.000129107;0.000435337;-0.000271157;0.000353247;-0.27166;-3.68107;0.000411549;0.000470996;1.60548;0.622867;82.8161;127.816;0.000693907;3.51236e-05;0.000553193;0.000147035;0.000129015;-0.00118678;0.00384762;0;0.0182376;-0.0122574;-0.468292;-0.162607;0.495872;-6.03149;-0.000462627;-2.10362e-05;-0.000195639;-0.000193992;-0.000464274;0.000135141;-2.3647;-0.422887;0.000269252;0.000180188;-0.417838;-2.39327;14.8089;59.8089;-0.000410419;-0.000462632;-0.000145134;0.000103028;-0.000195649;0.00141626;0.00274192;0;0.0278676;-0.0185678;-0.663601
52000;53;25.7446;-0.00128594;-4.99475e-05;-2.67856;25.587;-0.957355;-0.00934464;-0.00482341;-0.0708678;-0.0125736;-0.480489;-0.110977;0.493299;-5.09702;-9.28686e-05;7.94969e-05;-2.32954e-05;2.86928e-05;-0.000144857;8.67748e-05;-3.98657;-0.250842;0.00010742;0.0001157;0.198077;5.04854;110.432;155.432;0.00061164;-9.28713e-05;0.000266721;-0.000107714;-2.33278e-05;-0.000157507;0.00135234;0;0.0203494;-0.0139112;-0.477896;-0.169137;0.507134;-6.03802;-0.000431098;4.27577e-05;-0.000320144;-0.000305579;-0.000445663;7.00423e-05;-1.34658;-0.742624;0.000263151;9.33897e-05;-0.685672;-1.45842;149.57;14.5697;-0.000306584;-0.000431104;0.000203988;-0.000118455;-0.000320164;0.000154592;0.00154776;0;0.0277308;-0.0185693;-0.655751
53000;54;25.7472;0.00133292;5.17723e-05;-2.67865;25.5898;-0.950667;-0.00943825;-0.00194887;-0.0641798;-0.0118484;-0.491301;-0.107292;0.503019;-5.09334;1.7259e-05;0.000410871;-0.000154512;0.000351125;-0.000488378;0.000419752;0.1117;8.95255;0.000486842;0.000559669;0.718961;1.3909;130.369;175.369;0.00113376;1.72578e-05;0.000407823;0.00041392;-0.000154511;-0.00129531;0.00462009;0;0.0185671;-0.0138429;-0.490411;-0.167523;0.518419;-6.0364;-0.000489821;8.26838e-05;-0.000321546;-0.000287719;-0.000523649;0.000117965;-1.52333;-0.656456;0.000302821;0.000157287;-0.54945;-1.82;153.006;18.0065;-0.000274597;-0.000489818;0.00015045;1.49287e-05;-0.000321554;0.000909372;0.0016436;0;0.0314855;-0.0184911;-0.650439
54000;55;25.748;0.00209012;8.11827e-05;-2.67777;25.5907;-0.95116;-0.0085596;-0.00111337;-0.0646726;-0.0130487;-0.497298;-0.10764;0.508981;-5.09369;0.000143701;0.000562164;-4.36215e-05;0.000619953;-0.000519874;0.000569913;3.29428;0.303557;0.000658924;0.000759885;1.19251;0.838569;10.7162;55.7162;0.00117566;0.000143651;0.000478524;0.000645821;-4.3578e-05;-0.00223406;0.00301923;0;0.0178643;-0.0148774;-0.497163;-0.171288;0.526053;-6.04017;-0.000442036;-4.11556e-05;-0.000325811;-0.000312714;-0.000455133;7.12095e-05;-1.35672;-0.737071;0.000268833;9.4946e-05;-0.687083;-1.45543;7.49254;52.4925;0.000141765;-0.000442052;0.000100976;-0.00018327;-0.000325816;-0.000126697;0.00269254;0;0.0352777;-0.0185874;-0.647785
55000;56;25.7489;0.00300873;0.000116863;-2.6767;25.5915;-0.955538;-0.00748371;-0.000239677;-0.0690512;-0.0132003;-0.508794;-0.108879;0.520481;-5.09492;3.89412e-05;0.000379507;0.000313876;0.000580046;-0.000227229;0.000403637;-0.124065;-8.06026;0.000480689;0.000538183;2.5527;0.391743;36.0248;81.0248;0.00150979;3.88797e-05;0.000242314;0.000516663;0.000313919;-0.00230205;0.00498569;0;0.0204397;-0.0152855;-0.510325;-0.173233;0.539142;-6.04211;-0.000241917;-8.72584e-05;-0.000130691;-8.28298e-05;-0.000289778;0.000103474;-1.85107;-0.540228;0.000172343;0.000137965;-0.285839;-3.49847;26.9897;71.9897;-0.000549441;-0.000241918;-7.58338e-05;-9.86818e-05;-0.00013069;0.00102176;0.00308886;0;0.0299718;-0.0186263;-0.640942
56000;57;25.7448;-0.00104403;-4.05514e-05;-2.67723;25.5869;-0.968832;-0.00801176;-0.00487251;-0.082345;-0.0140291;-0.520977;-0.111934;0.533051;-5.09798;2.34924e-05;0.000387492;-7.30801e-05;0.000365695;-0.000415283;0.000390489;0.321461;3.1108;0.000451201;0.000520652;0.880593;1.1356;111.562;156.562;0.000640491;2.35002e-05;0.000408128;0.000366854;-7.30883e-05;0.000240004;0.00618888;0;0.0306233;-0.016364;-0.519506;-0.180278;0.550141;-6.04916;-0.000375378;-1.5776e-05;-0.000261664;-0.000259516;-0.000377526;5.9005e-05;-1.43458;-0.697068;0.00022301;7.86733e-05;-0.687412;-1.45473;13.9996;58.9996;-0.000555821;-0.000375379;-8.63223e-05;5.47623e-05;-0.000261667;0.00181813;0.00315769;0;0.0280138;-0.0184821;-0.633218
57000;58;25.7425;-0.00340473;-0.000132244;-2.6779;25.5843;-0.972154;-0.00868801;-0.00744456;-0.0856669;-0.0155269;-0.529013;-0.110953;0.540747;-5.097;0.000102605;0.000279043;-0.000173427;0.000275898;-0.00034672;0.000311309;0.59163;1.69025;0.000360243;0.000415078;0.795736;1.2567;84.1238;129.124;0.00128434;0.000102633;0.000415273;0.000142775;-0.000173474;-0.0006712;0.00458969;0;0.0179923;-0.0174709;-0.525841;-0.17916;0.555799;-6.04804;-0.000373972;2.79827e-05;-0.000137423;-0.000134158;-0.000377237;0.00012154;-2.72132;-0.367468;0.000220803;0.000162053;-0.355632;-2.81189;152.544;17.5441;-0.000303818;-0.000373991;0.000254955;-0.000198935;-0.000137455;0.00211246;0.00387407;0;0.0304996;-0.0185494;-0.626203
58000;59;25.7425;-0.00336235;-0.000130598;-2.67852;25.5844;-0.969165;-0.00930469;-0.00735309;-0.0826783;-0.0153572;-0.541368;-0.113844;0.553422;-5.09989;0.000239728;0.000408968;-0.000627439;0.000402173;-0.000789883;0.000596028;0.382074;2.61729;0.000700263;0.000794704;0.509155;1.96404;102.279;147.279;0.00081317;0.000239753;0.000474801;0.000343078;-0.000627468;-0.00168998;0.00283351;0;0.0197617;-0.0177446;-0.537696;-0.184313;0.568686;-6.05319;-0.000423292;-1.81523e-05;-0.000407188;-0.000395382;-0.000435098;1.98581e-05;-1.03955;-0.961954;0.000277775;2.64775e-05;-0.908719;-1.10045;21.2442;66.2442;-0.000291216;-0.000423312;0.000163095;-0.000199396;-0.000407201;0.000550666;0.00191669;0;0.0258668;-0.0184834;-0.618288
59000;60;25.7473;0.00138562;5.38193e-05;-2.67855;25.5894;-0.962727;-0.0093313;-0.00233555;-0.0762403;-0.0171807;-0.551259;-0.112102;0.562804;-5.09815;0.000132361;0.000543983;-0.00059903;0.000422143;-0.000888812;0.000655478;0.22096;4.52572;0.0007727;0.00087397;0.474952;2.10547;107.903;152.903;0.00100459;0.000132405;0.000630167;0.000457736;-0.000599081;-0.00349641;0.00352597;0;0.0215506;-0.0198122;-0.550532;-0.184999;0.581122;-6.05388;-0.000427008;4.55532e-05;-0.000294488;-0.00028034;-0.000441156;8.04079e-05;-1.45;-0.689656;0.000257799;0.000107211;-0.635467;-1.57365;156.025;21.025;-0.000130019;-0.000427007;0.000131746;-4.06277e-05;-0.000294496;0.00118037;0.00270776;0;0.0318923;-0.0185059;-0.61149
60000;61;25.7477;0.00178948;6.95056e-05;-2.67704;25.5898;-0.966973;-0.00782047;-0.0019312;-0.0804865;-0.0176975;-0.556864;-0.112963;0.568482;-5.09901;0.00017541;0.00048192;-0.000146323;0.000522603;-0.000493516;0.000508059;1.19879;0.834178;0.000586737;0.000677413;1.05894;0.944342;173.279;38.2789;0.00118764;0.000175316;0.00031612;0.000647772;-0.000146257;-0.00315055;0.00445891;0;0.0207333;-0.0202215;-0.557143;-0.186976;0.588029;-6.05586;-0.000468231;2.09174e-05;-0.000200499;-0.000198874;-0.000469855;0.000135491;-2.33533;-0.428205;0.000272334;0.000180654;-0.423267;-2.36257;163.716;28.7165;-0.00114615;-0.000468239;0.000167562;-0.000125688;-0.000200513;0.00261267;0.00266352;0;0.0287855;-0.0185461;-0.604554
61000;62;25.7491;0.00319819;0.000124221;-2.67691;25.5913;-0.96512;-0.00769254;-0.000430471;-0.0786333;-0.0179393;-0.566643;-0.116683;0.57881;-5.10273;0.000203264;0.000473551;-0.000138881;0.000535696;-0.000471313;0.000503504;1.46359;0.683254;0.000581793;0.000671339;1.1366;0.879814;176.164;41.1638;0.000661526;0.000203182;0.000324504;0.00062265;-0.000138822;-0.00158512;0.00566038;0;0.0227569;-0.0203265;-0.567073;-0.192516;0.599206;-6.0614;-0.000386649;3.20766e-06;-5.05669e-05;-5.05363e-05;-0.000386679;0.000168072;-7.64628;-0.130783;0.000242701;0.000224095;-0.130693;-7.65152;10.858;55.858;-0.000772911;-0.000386653;-8.87228e-05;9.51072e-05;-5.05708e-05;0.00251463;0.00446972;0;0.0279839;-0.0185556;-0.598635
62000;63;25.7441;-0.00172766;-6.71043e-05;-2.67759;25.5858;-0.978504;-0.0083795;-0.00596691;-0.0920173;-0.0196629;-0.583369;-0.117335;0.595377;-5.10338;0.000249518;0.000327814;6.46223e-05;0.000497671;-0.000183531;0.000340601;-3.86117;-0.258989;0.000406993;0.000454134;2.71165;0.368779;42.6802;87.6802;0.000547298;0.000249527;0.00035866;0.000296963;6.46117e-05;0.000114029;0.00520346;0;0.0212951;-0.022211;-0.580015;-0.19422;0.612073;-6.0631;-0.000342292;7.79586e-05;-0.000197307;-0.000163344;-0.000376255;0.000106455;-1.73482;-0.576429;0.000217858;0.00014194;-0.434132;-2.30345;160.813;25.8133;-0.000582102;-0.000342296;3.66463e-05;0.000119265;-0.000197305;0.00167274;0.00238484;0;0.0319306;-0.0184721;-0.589202
63000;64;25.7421;-0.00376368;-0.000146186;-2.67799;25.5835;-0.983656;-0.0087772;-0.00825471;-0.0971689;-0.0202149;-0.590986;-0.11738;0.602869;-5.10343;8.58996e-05;0.000162801;8.82388e-05;0.000249874;-7.57356e-05;0.000162805;-0.97349;-1.02723;0.000196748;0.000217073;3.29929;0.303095;79.0842;124.084;0.000901781;8.59116e-05;0.000375771;-5.01694e-05;8.81815e-05;-0.00159458;0.00309806;0;0.0192993;-0.0229089;-0.586007;-0.197485;0.618813;-6.06637;-0.000385771;-1.0472e-05;-0.000312561;-0.000311093;-0.000387239;3.80733e-05;-1.23423;-0.810225;0.000236892;5.07644e-05;-0.80336;-1.24477;170.377;35.3775;-0.000442837;-0.000385804;0.000235829;-0.000256755;-0.000312589;0.00224714;0.00170626;0;0.0274667;-0.0185666;-0.58778
64000;65;25.7459;7.8134e-05;3.03482e-06;-2.67874;25.5878;-0.971352;-0.00952444;-0.00399725;-0.0848646;-0.0208978;-0.598208;-0.124286;0.61134;-5.11033;0.000163833;0.000499349;-0.000772053;0.000380229;-0.000988449;0.000684339;0.212204;4.71244;0.000815801;0.000912452;0.384672;2.59961;106.015;151.015;0.000895201;0.00016387;0.000579801;0.000418822;-0.000772097;-0.00240182;0.00411493;0;0.0204479;-0.0235334;-0.594942;-0.20287;0.62902;-6.07175;-0.000429659;9.04452e-05;-0.00024948;-0.000211912;-0.000467227;0.000127658;-1.72222;-0.580647;0.000270141;0.00017021;-0.453552;-2.20482;143.944;8.94366;-0.000554624;-0.000429658;0.000263412;-8.24906e-05;-0.000249511;0.000814119;0.00254748;0;0.0276831;-0.0184505;-0.581962
65000;66;25.747;0.0011076;4.30205e-05;-2.67852;25.5887;-0.975838;-0.00930765;-0.00310943;-0.0893509;-0.0208474;-0.610293;-0.125639;0.62344;-5.11168;8.18732e-05;0.00062265;-2.97512e-05;0.000651208;-0.000599086;0.000625147;2.75193;0.363381;0.000722066;0.000833529;1.087;0.919961;5.15745;50.1574;0.000888234;8.18099e-05;0.000528261;0.00071705;-2.96969e-05;-0.00241741;0.00339797;0;0.0200275;-0.0238102;-0.609549;-0.207679;0.644397;-6.07656;-0.000426504;1.48623e-05;-0.000168162;-0.00016731;-0.000427356;0.000130023;-2.53627;-0.39428;0.000248663;0.000173364;-0.391499;-2.55428;153.865;18.8652;-0.000174615;-0.000426546;0.000319516;-0.000289713;-0.000168213;0.00148419;0.00420097;0;0.0337939;-0.0185615;-0.569839
66000;67;25.7479;0.0020013;7.77327e-05;-2.6799;25.5893;-0.98007;-0.0106897;-0.00251663;-0.0935829;-0.0201635;-0.620643;-0.117545;0.631998;-5.10359;0.000172021;0.000403835;-9.36844e-05;0.000464294;-0.000385958;0.000425126;1.83617;0.544612;0.000491587;0.000566835;1.20297;0.831279;38.1031;83.1031;0.000713434;0.000172022;0.000406859;0.000400809;-9.36856e-05;-0.00238884;0.00495761;0;0.0229435;-0.0237531;-0.619367;-0.205053;0.65286;-6.07393;-0.000306984;-8.26006e-05;-3.72351e-05;-1.39515e-05;-0.000330268;0.000158158;-8.24449;-0.121293;0.000215679;0.000210878;-0.0422429;-23.6726;0.803637;45.8036;-0.000837142;-0.000306997;1.62688e-05;-0.000181443;-3.72318e-05;0.00271407;0.0040444;0;0.0261358;-0.0186347;-0.56705
67000;68;25.7478;0.00189738;7.36963e-05;-2.67902;25.5893;-0.9787;-0.00980835;-0.0024765;-0.0922133;-0.0213958;-0.62902;-0.122451;0.641185;-5.1085;0.00025466;0.000319626;0.000510351;0.000726751;3.82601e-05;0.000344246;-0.49899;-2.00405;0.000472264;0.000458994;-18.995;-0.0526454;46.17;91.17;0.000639857;0.000254608;0.000184397;0.00045482;0.000510385;-0.00233345;0.0070253;0;0.0275968;-0.0249834;-0.627064;-0.209819;0.661708;-6.0787;-0.000280682;-1.5298e-05;-6.38284e-05;-6.27546e-05;-0.000281756;0.000109501;-4.39744;-0.227405;0.000170806;0.000146001;-0.222727;-4.4898;10.4165;55.4165;-0.000707426;-0.000280682;-5.44376e-05;2.38331e-05;-6.38298e-05;0.00195019;0.00334617;0;0.0278588;-0.0185452;-0.559536
68000;69;25.7424;-0.0034582;-0.000134321;-2.67918;25.5833;-0.993074;-0.00996787;-0.00843585;-0.106587;-0.0232575;-0.643121;-0.125431;0.655651;-5.11148;0.000191868;0.000120692;7.58226e-05;0.00026776;-6.92224e-08;0.000133915;-2.53049;-0.395181;0.00017853;0.000178553;;;62.2924;107.292;0.000525796;0.000191869;0.000355041;-0.000113685;7.57668e-05;2.88374e-05;0.00450169;0;0.0254762;-0.0267389;-0.638567;-0.213703;0.673908;-6.08258;-0.000461234;0.000205592;-9.34048e-05;-1.47054e-06;-0.000553168;0.000275849;-4.93801;-0.202511;0.000368289;0.000367798;;;135.112;0.112404;-0.000409591;-0.000461213;0.000451669;-4.03949e-05;-9.34856e-05;0.00171784;0.00282547;0;0.0288207;-0.0185532;-0.552678
69000;70;25.7435;-0.00239155;-9.28908e-05;-2.67985;25.5845;-0.988712;-0.0106316;-0.00726315;-0.102225;-0.023707;-0.651243;-0.128344;0.664193;-5.11439;0.000183404;0.000449912;0.000101029;0.00059401;-0.000309577;0.000451794;-1.81535;-0.550858;0.000530232;0.000602392;1.91878;0.521165;68.0223;113.022;0.00038782;0.000183468;0.000627308;0.000272503;0.000100934;-0.00138258;0.00392001;0;0.0212429;-0.0271492;-0.646249;-0.218151;0.682616;-6.08703;-0.000325153;0.000115001;-0.000223586;-0.000148654;-0.000400085;0.000125715;-1.45427;-0.687632;0.000233516;0.00016762;-0.371557;-2.69138;128.6;173.6;-0.000175691;-0.000325151;0.00031889;-8.88668e-05;-0.00022363;0.00150958;0.00254776;0;0.0266369;-0.0185978;-0.545202
70000;71;25.7468;0.000978419;3.80029e-05;-2.67999;25.5882;-0.981326;-0.0107766;-0.00360311;-0.0948393;-0.024684;-0.659658;-0.128887;0.672584;-5.11493;0.000188079;0.000396698;-0.000255474;0.000420785;-0.00048818;0.000454483;0.736197;1.35833;0.000525272;0.000605977;0.861947;1.16016;85.6208;130.621;0.000640087;0.000188111;0.000487036;0.000306321;-0.000255514;-0.0020294;0.00358261;0;0.0207936;-0.0283342;-0.655873;-0.220675;0.692582;-6.08956;-0.000456504;7.60022e-05;-8.19522e-05;-6.71178e-05;-0.000471338;0.00020211;-5.57036;-0.179521;0.000294414;0.00026948;-0.142398;-7.02255;151.167;16.167;-0.000271271;-0.000456508;0.00026856;-0.000116484;-8.19854e-05;0.000844847;0.00422953;0;0.031979;-0.0184381;-0.538116
71000;72;25.7476;0.00170785;6.63349e-05;-2.68016;25.5885;-0.990388;-0.0109465;-0.00323606;-0.103901;-0.0244741;-0.673108;-0.126369;0.685305;-5.11242;0.000339797;0.000349291;-0.000730895;0.000443669;-0.000834767;0.000639218;0.464905;2.15098;0.000749529;0.00085229;0.531488;1.88151;115.354;160.354;0.000484642;0.000339773;0.000287364;0.000411284;-0.000730875;-0.00211812;0.00511693;0;0.0202717;-0.0285533;-0.671255;-0.223034;0.707914;-6.09192;-0.000274539;6.43e-05;-0.000113891;-9.1325e-05;-0.000297106;0.00010289;-2.41054;-0.414846;0.000175726;0.000137187;-0.307382;-3.25328;158.158;23.1583;-0.000944027;-0.000274538;8.13097e-05;4.72931e-05;-0.000113893;0.00285137;0.00341284;0;0.02748;-0.0186159;-0.530495
72000;73;25.7467;0.000825462;3.20619e-05;-2.6803;25.5876;-0.99207;-0.0110849;-0.00420359;-0.105583;-0.0247141;-0.684668;-0.121525;0.695808;-5.10757;0.000512962;0.000162066;0.000332563;0.000608238;0.000237287;0.000185476;-1.54245;-0.64832;0.000353982;0.000247301;-2.5633;-0.390122;28.2578;73.2578;0.000227268;0.000512956;0.00012963;0.000194507;0.000332568;-0.00194092;0.00505023;0;0.0246226;-0.0291981;-0.681876;-0.2217;0.717606;-6.09058;-0.000420926;0.000193474;-3.42754e-05;4.59081e-05;-0.00050111;0.000273509;-12.2807;-0.0814286;0.00035038;0.000364678;0.0916128;10.9155;153.89;18.8897;-0.000535829;-0.000420921;0.00022222;0.00016474;-3.42814e-05;0.00170524;0.00460403;0;0.0274202;-0.0185785;-0.523523
73000;74;25.7476;0.00175676;6.82347e-05;-2.67918;25.5887;-0.991354;-0.00996436;-0.00312141;-0.104867;-0.0258187;-0.690831;-0.125685;0.702646;-5.11173;0.000339545;0.000309801;0.00031695;0.000638254;1.8241e-05;0.000310007;-1.07129;-0.933454;0.000419555;0.000413342;-34.99;-0.0285796;29.7417;74.7417;0.00119563;0.000339475;0.000132044;0.000487561;0.000316989;-0.00148053;0.00677401;0;0.0349704;-0.0301085;-0.687077;-0.226202;0.723981;-6.09508;-0.00026208;0.000125786;-0.00013557;-5.80295e-05;-0.00033962;0.000140795;-1.93317;-0.517286;0.000209763;0.000187727;-0.170866;-5.85254;133.788;178.788;-0.000775662;-0.000262072;0.00023653;1.50561e-05;-0.00013559;0.00224079;0.00308407;0;0.0303075;-0.0186567;-0.522811
74000;75;25.7427;-0.00313813;-0.000121889;-2.6801;25.5831;-1.00497;-0.0108871;-0.00867445;-0.118479;-0.02627;-0.705465;-0.128618;0.717575;-5.11466;0.000274972;0.000234795;0.000169775;0.000462988;-1.8241e-05;0.000240614;-1.61963;-0.617424;0.000314915;0.000320819;25.3818;0.0393984;55.2818;100.282;0.00046878;0.000274996;0.000380292;8.92831e-05;0.00016973;0.000553503;0.00595085;0;0.0225018;-0.0307628;-0.699106;-0.230785;0.736857;-6.09967;-0.000335829;0.000129882;-0.000396407;-0.000232751;-0.000499485;0.000133367;-0.847181;-1.18039;0.0002886;0.000177823;-0.465982;-2.14601;123.709;168.709;-0.000519667;-0.000335823;0.00019083;6.89305e-05;-0.000396417;0.00243868;0.00267267;0;0.0283402;-0.0185808;-0.509536
75000;76;25.7438;-0.0020318;-7.89174e-05;-2.68096;25.5843;-0.999886;-0.011741;-0.00745163;-0.113399;-0.0271185;-0.717083;-0.126133;0.728596;-5.11218;0.000302452;-0.000114762;-0.000264214;0.000324812;-0.000286574;0.000305693;1.14472;0.873575;0.000353214;0.00040759;1.13343;0.882278;31.2575;76.2575;0.000220668;0.000302409;8.63437e-05;-0.000315982;-0.000264212;0.000477954;0.00331169;0;0.0289449;-0.0322189;-0.711292;-0.231898;0.748833;-6.10078;-0.000328731;8.19101e-05;-7.45728e-05;-5.04621e-05;-0.000352842;0.00015119;-4.40818;-0.226851;0.000220342;0.000201586;-0.143016;-6.99221;133.611;178.611;-0.000710555;-0.000328763;0.000430685;-0.000266776;-7.46622e-05;0.000591649;0.0042205;0;0.0291868;-0.0185108;-0.501739
76000;77;25.7454;-0.000421519;-1.63723e-05;-2.68039;25.5862;-0.993842;-0.0111791;-0.00553695;-0.107355;-0.0286252;-0.720633;-0.138161;0.734316;-5.12421;0.000283061;8.67518e-05;-0.000231802;0.000297286;-0.000246026;0.000271656;1.22113;0.818911;0.000314146;0.000362208;1.20835;0.827575;49.4418;94.4418;6.19447e-05;0.000283063;0.000236099;-6.26726e-05;-0.000231826;-0.000308755;0.00316901;0;0.0218634;-0.0332069;-0.716759;-0.241907;0.757208;-6.11079;-0.000391594;0.000104661;-0.000211411;-0.000163406;-0.000439598;0.000138096;-1.85229;-0.539873;0.000256572;0.000184128;-0.371718;-2.69021;142.961;7.96117;-1.68091e-05;-0.000391589;0.000243936;-3.45875e-05;-0.000211435;0.000116087;0.0029045;0;0.034159;-0.0185757;-0.501134
77000;78;25.7467;0.000810005;3.14616e-05;-2.68154;25.587;-1.00196;-0.012328;-0.00473495;-0.115478;-0.0285216;-0.733642;-0.131539;0.745887;-5.11758;0.000375903;0.000185995;-0.00030454;0.000423425;-0.000352062;0.000387743;1.23433;0.810156;0.000448359;0.000516991;1.2027;0.831462;43.062;88.062;0.00015388;0.000375912;0.000241901;0.00013005;-0.000304552;-0.000839674;0.0049616;0;0.0194743;-0.0335765;-0.730838;-0.240815;0.770223;-6.1097;-0.000306006;3.80669e-05;2.47958e-05;2.91198e-05;-0.00031033;0.000169725;12.341;0.0810305;0.000217245;0.0002263;0.093835;10.657;17.5151;62.5151;-0.000928925;-0.000306024;-0.000118032;0.000194114;2.47896e-05;0.00207797;0.00486358;0;0.0261064;-0.0185496;-0.493922
78000;79;25.7486;0.00271388;0.00010541;-2.68096;25.5892;-0.99822;-0.0117485;-0.00261213;-0.111733;-0.0291257;-0.744135;-0.134729;0.756794;-5.12077;0.000438028;0.00024907;0.000300851;0.00062778;0.000111098;0.000258341;-1.45596;-0.686831;0.000386842;0.000344455;-5.65067;-0.17697;41.1484;86.1484;0.00082596;0.000438039;0.000298991;0.000199141;0.000300837;-0.00164105;0.00586171;0;0.0258495;-0.0344128;-0.740543;-0.245446;0.780917;-6.11433;-0.000253898;7.76921e-05;-6.93851e-05;-4.10292e-05;-0.000282253;0.000120612;-3.65925;-0.27328;0.000176093;0.000160816;-0.145363;-6.87933;147.475;12.4748;-0.00114392;-0.000253895;0.000152883;2.51499e-06;-6.93938e-05;0.00184454;0.00427325;0;0.0314807;-0.0185434;-0.486407
79000;80;25.7458;-2.59904e-05;-1.0095e-06;-2.68124;25.5861;-1.00526;-0.012025;-0.00567351;-0.118769;-0.0299171;-0.754732;-0.130465;0.76651;-5.11651;0.00044815;0.000468351;0.000510632;0.000948783;9.99914e-06;0.000469392;-0.877639;-1.13942;0.000629215;0.000625856;;;48.8006;93.8006;0.00104519;0.000448165;0.000500082;0.000436622;0.000510616;-0.00170151;0.00628391;0;0.0256003;-0.0351297;-0.748617;-0.243738;0.78808;-6.11262;-0.000373255;8.7888e-05;-0.000170414;-0.000137632;-0.000406038;0.000134203;-2.19029;-0.456561;0.000238444;0.000178937;-0.338963;-2.95018;136.449;1.44871;-0.001118;-0.000373271;0.000371179;-0.000195346;-0.000170479;0.00296434;0.00388973;0;0.0347396;-0.0185615;-0.479457
80000;81;25.7426;-0.00328289;-0.000127512;-2.68051;25.5826;-1.01228;-0.0112913;-0.00915098;-0.125797;-0.0302588;-0.767706;-0.12752;0.778813;-5.11357;0.000376172;0.000131526;0.000236393;0.000455224;0.00015734;0.000148942;-1.5913;-0.628417;0.000266966;0.000198589;-2.89325;-0.345632;46.1617;91.1617;0.00138252;0.000376179;0.000310614;-4.75866e-05;0.000236353;-0.00114597;0.00551937;0;0.0218119;-0.0356567;-0.759778;-0.242361;0.798294;-6.11124;-0.000307975;0.000142086;-0.000364521;-0.000191377;-0.00048112;0.000144872;-0.844877;-1.1836;0.000279703;0.000193162;-0.397773;-2.51399;109.629;154.629;-0.000608976;-0.000307974;0.000419011;-0.000134855;-0.000364599;0.00231611;0.00377737;0;0.0261164;-0.0184869;-0.471386
81000;82;25.7447;-0.00113016;-4.38969e-05;-2.68214;25.5849;-1.00494;-0.0129226;-0.0068662;-0.118452;-0.0311563;-0.778504;-0.135631;0.790844;-5.12168;0.00025949;-2.14018e-05;-0.000701869;0.000259966;-0.000702346;0.000481156;0.369713;2.7048;0.000574827;0.000641541;0.37014;2.70168;70.6865;115.686;0.000495891;0.000259474;0.000139638;-0.000182596;-0.000701879;-0.00053142;0.00400244;0;0.025093;-0.0367992;-0.772543;-0.251888;0.813403;-6.12077;-0.000338869;2.6699e-06;-0.00025611;-0.000256024;-0.000338955;4.14658e-05;-1.32314;-0.755777;0.000204024;5.52877e-05;-0.755332;-1.32392;151.759;16.7587;-0.001032;-0.000338945;0.000394267;-0.000388895;-0.000256187;0.000540537;0.00484821;0;0.0301379;-0.0185033;-0.464517
82000;83;25.7445;-0.0013217;-5.13364e-05;-2.6822;25.5845;-1.00988;-0.0129829;-0.00725989;-0.123395;-0.0307194;-0.784836;-0.135853;0.797099;-5.1219;0.000350929;0.00015454;-0.000385561;0.000382042;-0.000416675;0.000399358;0.910177;1.09869;0.000461284;0.000532478;0.916884;1.09065;61.4988;106.499;0.000689811;0.000350939;0.000250414;5.85953e-05;-0.000385581;-0.00179695;0.0045939;0;0.0228721;-0.0363867;-0.779671;-0.254716;0.821031;-6.1236;-0.000303834;-5.13677e-05;-0.000261032;-0.000226785;-0.00033808;5.56475e-05;-1.16397;-0.859126;0.000198951;7.41967e-05;-0.670803;-1.49075;27.668;72.668;-0.00133254;-0.000303839;8.88659e-06;-0.000111619;-0.00026103;0.00164444;0.00530992;0;0.026269;-0.018515;-0.457092
83000;84;25.7462;0.000311853;1.21128e-05;-2.68315;25.5859;-1.0149;-0.0139343;-0.00591461;-0.128417;-0.0324463;-0.79598;-0.134465;0.807909;-5.12051;0.00038621;0.00031185;0.000273062;0.000646576;1.26953e-05;0.000316941;-1.41437;-0.70703;0.000426882;0.000422587;-50.9305;-0.0196346;29.2819;74.2819;0.00077626;0.000386162;0.000184261;0.000439454;0.000273093;-0.000662924;0.00489571;0;0.0194162;-0.0384039;-0.79173;-0.256181;0.833031;-6.12506;-0.000339617;3.00001e-05;-0.000132675;-0.000128414;-0.000343878;0.000107732;-2.55977;-0.390661;0.000200647;0.000143643;-0.373428;-2.67789;148.757;13.7573;-0.0012209;-0.00033964;0.000277192;-0.00021714;-0.000132713;0.00287151;0.00562581;0;0.0277949;-0.0185618;-0.449908
84000;85;25.7468;0.000970097;3.76797e-05;-2.68219;25.5868;-1.01117;-0.0129723;-0.00500356;-0.124684;-0.0330094;-0.806859;-0.142911;0.820082;-5.12896;0.000374025;0.000270707;0.000502894;0.00071673;0.000160189;0.00027827;-0.743746;-1.34454;0.000434383;0.000371027;-4.47427;-0.2235;48.3805;93.3805;0.00109403;0.00037401;0.000219737;0.000321671;0.000502906;-0.00115363;0.00597893;0;0.0407937;-0.038874;-0.801236;-0.265074;0.84484;-6.13396;-0.000310589;0.000139935;-0.00031501;-0.000172847;-0.000452752;0.000139952;-0.985966;-1.01423;0.000263821;0.000186603;-0.38177;-2.61938;123.043;168.043;-0.00109665;-0.000310579;0.000272724;7.14487e-06;-0.000315037;0.00300067;0.00383869;0;0.0292675;-0.018564;-0.442587
85000;86;25.745;-0.000822833;-3.19598e-05;-2.68186;25.5846;-1.02116;-0.0126461;-0.00717033;-0.134675;-0.033656;-0.814951;-0.141927;0.827901;-5.12797;0.000382205;0.000165923;0.000344096;0.000530163;0.000196137;0.000167013;-1.11075;-0.900292;0.000309522;0.000222684;-2.70303;-0.369956;46.7027;91.7027;0.000650455;0.000382213;0.000229694;0.000102149;0.000344083;-0.000494653;0.00494803;0;0.0414066;-0.039466;-0.808246;-0.265966;0.851797;-6.13485;-0.000169903;0.000106366;-0.000312948;-0.000113249;-0.000369602;0.000128176;-0.542909;-1.84193;0.000218656;0.000170902;-0.306408;-3.26362;99.4614;144.461;-0.00116958;-0.0001699;0.000289278;-7.65724e-05;-0.000312985;0.0025595;0.0032226;0;0.0252911;-0.0185808;-0.438706
86000;87;25.744;-0.00181812;-7.06178e-05;-2.68177;25.5838;-1.01748;-0.0125592;-0.00801591;-0.13099;-0.0333591;-0.82499;-0.141087;0.837632;-5.12713;0.000277503;0.00022886;0.000572115;0.000696978;0.00015264;0.000272169;-0.485047;-2.06165;0.000423053;0.000362892;-4.56616;-0.219003;71.6106;116.611;0.000555738;0.000277527;0.000387395;7.0372e-05;0.000572066;0.00072727;0.00451493;0;0.0216237;-0.0397384;-0.81692;-0.265237;0.859818;-6.13412;-0.000351114;0.000146206;-0.000353805;-0.000206248;-0.000498671;0.000146212;-0.992396;-1.00766;0.000289337;0.000194949;-0.413595;-2.41783;113.387;158.387;-0.000684265;-0.00035112;0.000471279;-0.000178869;-0.000353905;0.00100039;0.00279866;0;0.0258628;-0.0185554;-0.434958
87000;88;25.745;-0.000866609;-3.36601e-05;-2.68309;25.5847;-1.01542;-0.0138702;-0.0071142;-0.128934;-0.0346191;-0.838096;-0.14047;0.850492;-5.12652;0.000335328;0.000114829;-9.3199e-05;0.000364158;-0.000122029;0.000243094;3.59798;0.277934;0.000292073;0.000324125;2.98419;0.3351;38.7924;83.7924;-7.81124e-05;0.000335334;0.00025606;-2.64618e-05;-9.32252e-05;0.000711618;0.00310095;0;0.024094;-0.0407818;-0.831415;-0.268521;0.874653;-6.1374;-0.000284979;0.000109557;-0.000182284;-0.000112639;-0.000354624;0.000120993;-1.56338;-0.639638;0.000209233;0.000161324;-0.317628;-3.14834;117.09;162.09;-0.000907516;-0.000285022;0.00052963;-0.000310473;-0.000182418;0.00131834;0.00482873;0;0.032088;-0.0184441;-0.423986
88000;89;25.746;0.000117239;4.5537e-06;-2.68346;25.5853;-1.02378;-0.014242;-0.00649623;-0.137291;-0.0354344;-0.845934;-0.140194;0.858205;-5.12624;0.000273083;0.000268906;-0.000184452;0.000397366;-0.000308736;0.000353051;1.48051;0.675444;0.000408737;0.000470735;1.28708;0.776954;42.8192;87.8192;0.00038571;0.000273091;0.00030113;0.000236667;-0.000184462;-0.00148145;0.00466102;0;0.0222325;-0.0415766;-0.840536;-0.270316;0.883912;-6.1392;-0.000287104;6.33312e-05;-0.000130186;-0.000107815;-0.000309475;0.00010083;-2.20534;-0.453445;0.000181393;0.00013444;-0.348381;-2.87042;134.633;179.633;-0.00149585;-0.000287122;0.000328626;-0.000201922;-0.000130238;0.00312728;0.00543309;0;0.0260844;-0.0184735;-0.421248
89000;90;25.7466;0.000695591;2.70176e-05;-2.68327;25.5858;-1.02666;-0.0140508;-0.00600976;-0.140175;-0.0355899;-0.85358;-0.140025;0.865721;-5.12607;0.000553494;0.000386467;0.000242159;0.000814466;-1.88135e-05;0.00041664;-2.28567;-0.437509;0.000549356;0.00055552;43.2915;0.0230992;22.2538;67.2538;0.000496889;0.000553412;0.000213001;0.000559986;0.000242211;-0.00163271;0.0049587;0;0.0207586;-0.0419238;-0.848154;-0.272069;0.891709;-6.14095;-0.000240055;6.76755e-05;-5.30941e-05;-3.11685e-05;-0.000261981;0.000115406;-4.52132;-0.221175;0.000165247;0.000153875;-0.118972;-8.40531;132.669;177.669;-0.00153384;-0.000240068;0.000309247;-0.00017385;-5.31397e-05;0.00340952;0.00571524;0;0.0272546;-0.0185658;-0.413655
90000;91;25.7472;0.0013277;5.15693e-05;-2.68271;25.5866;-1.02368;-0.0134959;-0.00519598;-0.137192;-0.0366264;-0.862898;-0.146995;0.876095;-5.13304;0.000564597;0.000370393;0.000541572;0.000923656;0.000182513;0.000370572;-1.04252;-0.959219;0.000564849;0.000494095;-5.06078;-0.197598;38.8466;83.8466;0.000503028;0.000564553;0.000267563;0.000473225;0.000541605;-0.000688748;0.00689198;0;0.027516;-0.0431519;-0.85668;-0.279447;0.902138;-6.14833;-0.000198809;0.000176675;-0.000234016;-3.88625e-05;-0.000393963;0.00017755;-0.849552;-1.17709;0.000250694;0.000236734;-0.098645;-10.1374;106.48;151.48;-0.00117279;-0.000198798;0.000447179;-9.38379e-05;-0.000234101;0.00301646;0.00499495;0;0.032054;-0.0184255;-0.407159
91000;92;25.7466;0.000745104;2.89407e-05;-2.68349;25.586;-1.02156;-0.0142776;-0.00577935;-0.135069;-0.0367988;-0.870106;-0.152049;0.884057;-5.13809;0.000352064;0.000231266;0.000375088;0.000595129;0.000132023;0.000231553;-0.938619;-1.06539;0.000360886;0.000308737;-4.50776;-0.22184;50.4296;95.4296;0.000579648;0.000352075;0.000282445;0.000180089;0.000375074;-0.000467322;0.00694422;0;0.0368505;-0.0434958;-0.863139;-0.2835;0.909545;-6.15238;-0.000246566;0.000164049;-0.000230772;-7.44302e-05;-0.000402907;0.000164239;-1.06844;-0.935944;0.000247553;0.000218985;-0.184733;-5.41323;105.621;150.621;-0.00131455;-0.00024659;0.000603609;-0.000275505;-0.000230941;0.00337334;0.00200069;0;0.0268527;-0.018401;-0.399533
92000;93;25.7451;-0.000773471;-3.00425e-05;-2.6821;25.5844;-1.02585;-0.0128823;-0.00733291;-0.139362;-0.036698;-0.877273;-0.150985;0.890927;-5.13703;0.000311674;0.000223996;0.000213474;0.000491888;3.326e-05;0.000229314;-1.46001;-0.684927;0.00031742;0.000305752;-14.7892;-0.067617;39.2668;84.2668;0.000713079;0.000311675;0.000228109;0.000219882;0.000213473;0.000565875;0.00707827;0;0.0310503;-0.0434759;-0.869599;-0.283597;0.915707;-6.15248;-0.000253516;0.000158281;-0.000309533;-0.000120784;-0.000442265;0.00016074;-0.819028;-1.22096;0.00026396;0.00021432;-0.273104;-3.66161;100.85;145.85;-0.000946108;-0.000253548;0.000613178;-0.000296641;-0.000309708;0.00263802;0.00508446;0;0.0247837;-0.0183619;-0.39213
93000;94;25.7447;-0.00114697;-4.45498e-05;-2.68148;25.584;-1.02921;-0.0122666;-0.00777933;-0.142726;-0.0378157;-0.885251;-0.159408;0.900283;-5.14545;0.000379474;0.000306645;-2.4732e-07;0.000550277;-0.00017105;0.000360664;;;0.000435221;0.000480885;3.21705;0.310844;30.4766;75.4766;0.00112458;0.000379477;0.000315644;0.000297643;-2.5012e-07;-0.000681478;0.00629586;0;0.0245908;-0.0447139;-0.878459;-0.292357;0.926909;-6.16124;-0.000433765;0.000171973;-0.000130712;-5.30335e-05;-0.000511444;0.000229205;-3.31847;-0.301344;0.000324732;0.000305607;-0.103694;-9.64378;130.563;175.563;-0.000424748;-0.000433764;0.0005113;-0.00016725;-0.000130828;0.0014324;0.00525098;0;0.0380959;-0.0184858;-0.384301
94000;95;25.7442;-0.00164497;-6.38927e-05;-2.68345;25.5833;-1.03008;-0.0142373;-0.00852212;-0.143596;-0.0390502;-0.893151;-0.163938;0.908911;-5.14998;0.000337398;0.000189813;0.000123512;0.000448321;1.25887e-05;0.000217866;-2.73169;-0.366073;0.000294774;0.000290488;-35.613;-0.0280796;30.3709;75.3709;0.00046955;0.000337398;0.000190373;0.000189253;0.000123512;-0.000346507;0.00424922;0;0.0210736;-0.0457236;-0.887177;-0.298304;0.937101;-6.16719;-0.000375296;0.000100133;4.66195e-05;6.91781e-05;-0.000397854;0.000233516;8.05019;0.124221;0.000291049;0.000311355;0.173878;5.75116;131.907;176.907;-0.000855169;-0.00037536;0.000571576;-0.000371111;4.64611e-05;0.00114799;0.00506756;0;0.0359736;-0.0184717;-0.378129
95000;96;25.7455;-0.000364165;-1.41446e-05;-2.6832;25.5846;-1.02847;-0.0139886;-0.00714215;-0.14198;-0.0391818;-0.898475;-0.163016;0.913984;-5.14906;0.000343667;0.000197686;-0.000139442;0.000414247;-0.000210023;0.000312135;2.46458;0.405748;0.000366795;0.00041618;1.97239;0.506998;19.6815;64.6815;0.000836318;0.000343667;0.000197804;0.000197567;-0.000139442;-0.00277847;0.00499818;0;0.0235113;-0.0460353;-0.893391;-0.298257;0.942986;-6.16714;-0.000166941;9.91682e-05;-9.20256e-05;-2.34768e-05;-0.00023549;0.000106007;-1.81408;-0.551245;0.000149782;0.000141342;-0.0996933;-10.0308;113.245;158.245;-0.00128416;-0.000166951;0.00036696;-0.000168603;-9.2088e-05;0.00217454;0.00665074;0;0.0257995;-0.0184244;-0.376351
96000;97;25.7484;0.00257864;0.000100158;-2.68461;25.5875;-1.02818;-0.0153916;-0.00431646;-0.141693;-0.0399155;-0.905616;-0.168973;0.92211;-5.15502;0.000325789;0.000415307;0.000145274;0.000660533;-0.00018947;0.000425002;-2.24259;-0.445914;0.000515258;0.000566669;3.48621;0.286845;37.0186;82.0186;0.000635728;0.000325783;0.000400068;0.000430549;0.00014528;-0.0019706;0.00608608;0;0.0230139;-0.0472508;-0.900724;-0.305422;0.95227;-6.1743;-0.000239823;3.4054e-05;-0.000103082;-9.50707e-05;-0.000247834;7.63818e-05;-2.32652;-0.429826;0.000144374;0.000101842;-0.383606;-2.60684;147.149;12.1494;-0.00136933;-0.000239828;0.000173985;-0.000105858;-0.000103097;0.00345998;0.00414271;0;0.0283842;-0.0184149;-0.365331
97000;98;25.7477;0.0017895;6.95064e-05;-2.68461;25.5866;-1.02959;-0.0153983;-0.00516808;-0.143106;-0.0397309;-0.915956;-0.164061;0.931381;-5.15011;0.000485622;0.000380625;0.000506579;0.00087687;0.000115331;0.000380769;-0.958631;-1.04315;0.00055018;0.000507693;-7.60307;-0.131526;41.157;86.157;0.000680276;0.000485588;0.000299673;0.000461575;0.000506606;-0.00188697;0.00643516;0;0.0317683;-0.0467758;-0.910207;-0.300124;0.959551;-6.16901;-0.000333108;8.63991e-05;-0.000308004;-0.00023325;-0.000407862;8.73061e-05;-1.0815;-0.924638;0.000236289;0.000116408;-0.571885;-1.7486;122.772;167.772;-0.00129964;-0.000333111;0.000292297;-0.000119494;-0.000308043;0.00439912;0.00495999;0;0.03124;-0.018405;-0.356054
98000;99;25.7487;0.00282443;0.000109704;-2.6833;25.588;-1.02401;-0.0140815;-0.00376457;-0.137525;-0.0393278;-0.920317;-0.169602;0.936641;-5.15565;0.000455984;0.000365929;0.000185766;0.00071095;-6.92006e-05;0.000390075;-2.45461;-0.407396;0.000498637;0.0005201;10.2738;0.0973354;26.0373;71.0373;0.000704594;0.000455941;0.00026375;0.000468137;0.000185798;-0.000754846;0.00727457;0;0.0418238;-0.0465596;-0.913886;-0.305233;0.964636;-6.17411;-0.000280326;0.000114725;-0.000318088;-0.000182938;-0.000415475;0.000116268;-0.881284;-1.13471;0.000240444;0.000155025;-0.440311;-2.27112;107.054;152.054;-0.00105056;-0.000280339;0.000430376;-0.000200937;-0.000318174;0.00415029;0.00428041;0;0.0252165;-0.0183911;-0.355904
99000;100;25.7468;0.000900148;3.49628e-05;-2.68409;25.5858;-1.02793;-0.0148793;-0.00594187;-0.141447;-0.0411433;-0.92745;-0.178259;0.945321;-5.1643;0.000359343;0.000110687;5.10921e-05;0.000394971;1.54643e-05;0.000189753;-7.03325;-0.142182;0.000258314;0.000253005;-25.5409;-0.0391529;30.706;75.706;0.000644152;0.000359349;0.00020958;1.17636e-05;5.10763e-05;0.000297217;0.00620166;0;0.0380364;-0.0483676;-0.920649;-0.313867;0.973882;-6.18275;-0.000284199;0.000225696;-0.000206438;-1.62983e-05;-0.000474339;0.00022902;-1.37668;-0.726386;0.000310936;0.000305361;-0.03436;-29.1036;116.764;161.764;-0.000223817;-0.000284174;0.000481841;-3.04297e-05;-0.000206529;0.000722928;0.00283173;0;0.0257969;-0.0183842;-0.348868
100000;101;25.7461;0.000260445;1.0116e-05;-2.68206;25.5854;-1.02916;-0.0128448;-0.00642161;-0.142675;-0.0415733;-0.936254;-0.177989;0.953928;-5.16404;0.000329701;0.00020751;0.000225267;0.000491463;6.35048e-05;0.000213979;-1.4636;-0.683247;0.000308659;0.000285306;-7.73899;-0.129216;53.1557;98.1557;0.000741086;0.000329722;0.000370587;4.44161e-05;0.00022522;0.000428722;0.00623517;0;0.0254386;-0.0486641;-0.929101;-0.315147;0.982301;-6.18403;-0.000329387;0.000117261;-0.000174906;-0.000111732;-0.00039256;0.000140414;-1.88322;-0.531005;0.000233549;0.000187219;-0.284624;-3.5134;149.192;14.1923;-0.000176319;-0.000329384;0.000139266;9.52585e-05;-0.000174909;-0.00081564;0.00510236;0;0.0323671;-0.0184165;-0.340981
101000;102;25.746;8.46839e-05;3.28922e-06;-2.68309;25.5851;-1.02825;-0.0138776;-0.00667023;-0.141766;-0.0416044;-0.941465;-0.179817;0.959386;-5.16586;0.000242807;0.000156739;0.000254375;0.000405436;9.17453e-05;0.000156846;-0.954521;-1.04765;0.000245492;0.000209127;-4.41915;-0.226288;60.4714;105.471;-3.96673e-05;0.000242819;0.000293609;1.98706e-05;0.000254344;0.000284624;0.00611542;0;0.0230699;-0.0487747;-0.934723;-0.317133;0.988261;-6.18601;-0.00031381;0.000154987;-0.000191571;-8.60875e-05;-0.000419294;0.000166603;-1.63809;-0.610468;0.00025571;0.000222138;-0.205315;-4.87056;121.528;166.528;-0.000466145;-0.000313807;0.000440163;-0.000130154;-0.000191656;0.000731048;0.00460259;0;0.0318274;-0.0183832;-0.333836
102000;103;25.7445;-0.00137909;-5.35656e-05;-2.6838;25.5833;-1.03462;-0.0145803;-0.00847348;-0.14813;-0.043162;-0.949311;-0.178991;0.967002;-5.16504;0.000239834;0.000213819;-0.000430129;0.000302258;-0.000492553;0.000397406;0.557585;1.79345;0.000463248;0.000529874;0.613655;1.62958;77.6861;122.686;4.32595e-05;0.000239854;0.000361254;6.62848e-05;-0.000430172;-0.00055;0.00521629;0;0.0293711;-0.0502311;-0.942907;-0.317827;0.996299;-6.18671;-0.000323231;9.43561e-05;2.83136e-05;5.20381e-05;-0.000346955;0.000199497;11.4161;0.0875955;0.000250458;0.000265996;0.149985;6.66734;133.78;178.78;-0.00143558;-0.000323249;0.000399473;-0.000210654;2.82383e-05;0.00227542;0.00600996;0;0.0261463;-0.0185183;-0.325916
103000;104;25.746;0.000160618;6.23858e-06;-2.68428;25.5847;-1.03734;-0.0150658;-0.00708534;-0.150855;-0.0435498;-0.956224;-0.183359;0.974619;-5.1694;0.00033016;0.00010609;-0.000113892;0.000354205;-0.000137936;0.00024607;2.8989;0.344959;0.00029314;0.000328094;2.56789;0.389425;31.2615;76.2615;-4.83187e-06;0.000330166;0.000187519;2.46256e-05;-0.000113904;-0.00121689;0.00570214;0;0.0246294;-0.0508631;-0.950964;-0.323756;1.00585;-6.19264;-0.000278718;4.55389e-05;-8.42207e-06;-9.56004e-07;-0.000286184;0.000142614;;;0.000190471;0.000190152;;;143.673;8.67268;-0.00137089;-0.000278729;0.000243358;-0.000152227;-8.45064e-06;0.00326872;0.00519144;0;0.0274141;-0.0183924;-0.319366
104000;105;25.7463;0.000394118;1.5308e-05;-2.68628;25.5846;-1.03912;-0.0170664;-0.0071324;-0.15263;-0.0436981;-0.96201;-0.186414;0.980878;-5.17246;0.000372969;0.000297114;0.000608185;0.000810122;0.000171033;0.000319544;-0.613249;-1.63066;0.000493059;0.000426059;-4.73665;-0.21112;50.5673;95.5673;0.000731033;0.000372938;0.000206483;0.000387724;0.000608208;-0.0012314;0.00774301;0;0.0251542;-0.0510554;-0.956642;-0.327048;1.01229;-6.19593;-0.000218868;1.66929e-05;-3.71776e-05;-3.56567e-05;-0.000220389;9.23662e-05;-5.8871;-0.169863;0.000136601;0.000123155;-0.16179;-6.18086;159.854;24.8537;-0.00104588;-0.00021887;9.02476e-05;-5.68485e-05;-3.71816e-05;0.00324962;0.00634989;0;0.0263364;-0.0185079;-0.312423
105000;106;25.7466;0.000706297;2.74334e-05;-2.6855;25.5851;-1.03693;-0.0162898;-0.00664818;-0.150448;-0.044256;-0.969336;-0.18611;0.988032;-5.17216;0.000282435;0.000476191;0.000649431;0.000976256;-4.43897e-05;0.000510323;-0.434895;-2.2994;0.000666127;0.00068043;21.9928;0.0454694;48.5868;93.5868;0.00104767;0.000282373;0.000360805;0.000591535;0.00064948;-0.00147808;0.00752753;0;0.0301383;-0.0516258;-0.963146;-0.326994;1.01845;-6.19588;-0.000224656;2.04263e-05;-1.04819e-05;-8.55117e-06;-0.000226587;0.000109018;-21.4328;-0.0466574;0.00014829;0.000145357;;;141.179;6.17872;-0.000926047;-0.000224688;0.000295219;-0.000254308;-1.05252e-05;0.00415326;0.0051518;0;0.0324557;-0.018467;-0.3059
106000;107;25.7467;0.000854491;3.31894e-05;-2.6841;25.5856;-1.03193;-0.0148844;-0.00614942;-0.145448;-0.0441134;-0.979542;-0.188203;0.998433;-5.17425;0.000355619;0.000433534;7.8193e-06;0.000648831;-0.000285392;0.000467111;;;0.000552811;0.000622815;2.27347;0.439856;27.2198;72.2198;0.000747392;0.000355599;0.000389223;0.000477861;7.83752e-06;-0.000840919;0.00537771;0;0.03888;-0.0514866;-0.972159;-0.329478;1.02776;-6.19836;-0.000301863;7.21497e-05;-0.00029184;-0.000224528;-0.000369175;7.23235e-05;-1.03434;-0.966796;0.0002148;9.64313e-05;-0.608189;-1.64423;118.895;163.895;-0.000721002;-0.000301871;0.000289201;-0.000144899;-0.000291879;0.00237153;0.00486683;0;0.0257679;-0.0184205;-0.297617
107000;108;25.7464;0.000513874;1.99595e-05;-2.68375;25.5853;-1.03323;-0.0145357;-0.00650768;-0.146738;-0.0439943;-0.984828;-0.194504;1.00482;-5.18055;0.000475521;0.000412242;0.000386625;0.000845705;1.64418e-05;0.000414631;-1.22993;-0.813055;0.000558403;0.000552842;-51.4362;-0.0194416;47.025;92.025;0.000997105;0.00047555;0.000489866;0.000334611;0.00038659;-0.000760897;0.00663804;0;0.0371086;-0.051588;-0.977628;-0.336374;1.03516;-6.20526;-0.000154285;9.6892e-05;-0.000208225;-8.06795e-05;-0.000281831;0.000100576;-0.740952;-1.34962;0.000167597;0.000134101;-0.286269;-3.49322;101.091;146.091;-0.000882256;-0.00015429;0.000331018;-0.000137246;-0.000208275;0.000756105;0.00474216;0;0.0265379;-0.0183856;-0.292424
108000;109;25.7459;3.72269e-05;1.44594e-06;-2.68222;25.5848;-1.03782;-0.0130043;-0.00701253;-0.151329;-0.0450596;-0.990351;-0.196169;1.0106;-5.18221;0.000275464;0.000246365;0.000254331;0.000511489;1.83061e-05;0.000246591;-1.08309;-0.923285;0.000335057;0.000328789;-27.9409;-0.0357899;56.6691;101.669;0.000734149;0.000275487;0.000374424;0.000118303;0.000254292;0.00119837;0.00788593;0;0.0241549;-0.0525219;-0.983522;-0.337614;1.04118;-6.2065;-0.000226209;5.31181e-05;-0.000200382;-0.00015863;-0.000267961;5.46653e-05;-1.12889;-0.885828;0.000155578;7.2887e-05;-0.591991;-1.68922;111.06;156.06;-0.000965591;-0.000226265;0.000446453;-0.000340207;-0.00020048;0.000578765;0.00543024;0;0.0288116;-0.0185176;-0.291021
109000;110;25.7448;-0.00105489;-4.0973e-05;-2.68337;25.5836;-1.03654;-0.0141575;-0.00818075;-0.150054;-0.0452719;-0.998875;-0.200034;1.01971;-5.18608;0.000185683;7.53728e-06;7.55505e-05;0.000186197;7.5037e-05;5.55797e-05;-2.45774;-0.406879;0.000108173;7.41063e-05;-2.48139;-0.402999;26.9794;71.9794;0.000367421;0.000185675;0.000143596;-0.000128536;7.55402e-05;0.000777372;0.00416552;0;0.0239775;-0.0527665;-0.992105;-0.342056;1.05074;-6.21094;-0.00031202;5.93209e-05;-5.18062e-05;-3.89209e-05;-0.000324905;0.000142992;-6.02283;-0.166035;0.000204866;0.000190656;-0.119792;-8.34783;135.915;0.914792;-0.000997355;-0.000312066;0.000426597;-0.00030786;-5.18955e-05;0.000447698;0.00565316;0;0.0333238;-0.0184655;-0.281498
110000;111;25.7446;-0.00126301;-4.90568e-05;-2.68396;25.583;-1.04398;-0.0147468;-0.00875467;-0.157497;-0.0462186;-1.00563;-0.203175;1.02699;-5.18922;0.000342396;0.000423998;9.34195e-05;0.000659803;-0.000223987;0.000441895;-3.66514;-0.272841;0.000530533;0.000589194;2.94571;0.339476;52.5558;97.5558;0.000731492;0.000342444;0.000557415;0.000290548;9.33541e-05;-0.00167772;0.00585081;0;0.0255027;-0.0539211;-0.999719;-0.347042;1.05961;-6.21592;-0.000155811;5.80322e-05;-0.000121577;-7.81904e-05;-0.000199198;6.05039e-05;-1.28158;-0.780284;0.000115889;8.06719e-05;-0.392526;-2.5476;117.807;162.807;-0.0013856;-0.000155816;0.000228171;-0.000112101;-0.000121602;0.00162655;0.00562697;0;0.0264893;-0.0184697;-0.275408
111000;112;25.7461;0.000219798;8.53721e-06;-2.68493;25.5846;-1.03947;-0.0157175;-0.00718037;-0.152978;-0.0460402;-1.01059;-0.202318;1.03167;-5.18836;0.000385732;0.000318359;0.000128903;0.0006006;-8.59643e-05;0.000343282;-2.99241;-0.334179;0.000431916;0.000457709;6.98662;0.143131;40.6981;85.6981;0.000535405;0.000385749;0.000379496;0.000257206;0.000128882;-0.000786046;0.0062717;0;0.023665;-0.0538535;-1.00513;-0.346597;1.06457;-6.21548;-0.000148525;-9.75166e-05;0.000108229;0.000141066;-0.000181362;0.000161214;1.37232;0.728692;0.000186638;0.000214952;0.777815;1.28565;4.72106;49.7211;-0.0014941;-0.000148526;-8.69023e-05;-0.000108128;0.00010823;0.00238853;0.00786965;0;0.0239875;-0.0184662;-0.267902
112000;113;25.7469;0.00106197;4.1248e-05;-2.6857;25.5853;-1.04145;-0.0164875;-0.00649428;-0.15496;-0.0476569;-1.01996;-0.203537;1.04116;-5.18958;0.000314205;0.000299676;0.000600095;0.000789173;0.000125128;0.000332022;-0.523592;-1.90988;0.000489763;0.000442696;-6.30693;-0.158556;57.778;102.778;0.000812184;0.000314205;0.000300114;0.000299238;0.000600095;-0.000767846;0.0065894;0;0.031836;-0.0553086;-1.01417;-0.34952;1.07413;-6.2184;-0.000194134;-1.39722e-05;-8.53559e-05;-8.35899e-05;-0.0001959;5.61551e-05;-2.27441;-0.439675;0.000113507;7.48735e-05;-0.426696;-2.34359;16.2424;61.2424;-0.00110599;-0.000194135;-5.95824e-05;3.1633e-05;-8.53576e-05;0.0018736;0.00603035;0;0.0244973;-0.0183215;-0.261352
113000;114;25.7467;0.000867405;3.36911e-05;-2.68438;25.5852;-1.04156;-0.0151648;-0.00655606;-0.155078;-0.0480276;-1.02737;-0.207458;1.0492;-5.1935;0.000341149;0.000437778;0.0005154;0.000874638;-1.80886e-05;0.000446363;-0.661912;-1.51077;0.000589214;0.000595151;48.3529;0.0206813;51.422;96.422;0.00072688;0.000341154;0.000449658;0.000425899;0.000515394;-0.00179705;0.00684383;0;0.0383418;-0.0558372;-1.02071;-0.353078;1.08149;-6.22196;-0.000108354;-2.04308e-05;-0.000153379;-0.000100466;-0.000161268;3.0401e-05;-0.706449;-1.41553;9.40419e-05;4.05347e-05;-0.622975;-1.6052;48.8884;93.8884;-0.00107727;-0.000108363;8.93504e-05;-0.000130217;-0.000153383;0.00210036;0.00468487;0;0.0272047;-0.0183683;-0.253546
114000;115;25.7472;0.0013823;5.36901e-05;-2.68474;25.5859;-1.03724;-0.0155277;-0.00590018;-0.15075;-0.0488165;-1.03231;-0.209732;1.05453;-5.19578;0.000485118;0.000336714;0.00025446;0.000725706;1.38714e-05;0.000355917;-1.90646;-0.524533;0.000479247;0.000474557;-52.3166;-0.0191144;43.445;88.445;0.000537832;0.000485147;0.00044136;0.000232044;0.000254419;-0.000563505;0.00582738;0;0.045049;-0.0565856;-1.02561;-0.35549;1.08695;-6.22437;-0.000212249;7.16349e-05;-0.000284333;-0.0001681;-0.000328482;8.01909e-05;-0.746481;-1.33962;0.000189666;0.000106921;-0.511748;-1.95409;94.6402;139.64;-0.000946772;-0.000212283;0.000413341;-0.000270095;-0.000284416;0.00281172;0.00360096;0;0.0255196;-0.0183812;-0.246496
115000;116;25.7463;0.000481808;1.8714e-05;-2.68431;25.585;-1.03819;-0.0150917;-0.00679906;-0.151698;-0.0492936;-1.04177;-0.210459;1.06396;-5.19651;0.00030349;0.000395768;-1.46972e-06;0.000575136;-0.000273116;0.000424126;;;0.000499979;0.000565501;2.10583;0.474872;39.4059;84.4059;0.000256136;0.0003035;0.000422076;0.000369453;-1.48048e-06;0.00124265;0.00655092;0;0.0349012;-0.0571073;-1.03476;-0.358517;1.09659;-6.2274;-0.000226955;-4.65714e-06;-0.000227407;-0.000222519;-0.000231844;4.66261e-06;-0.998013;-1.00199;0.00015155;6.21681e-06;-0.959778;-1.04191;22.8509;67.8509;-0.000846455;-0.000226986;0.000239519;-0.000248833;-0.000227436;0.00035505;0.00592527;0;0.0309902;-0.0183551;-0.238755
116000;117;25.7435;-0.00234912;-9.12428e-05;-2.6836;25.5818;-1.04782;-0.0143855;-0.00996639;-0.161328;-0.0496417;-1.05072;-0.21292;1.07323;-5.19897;0.000234848;0.000286336;8.66646e-06;0.000429617;-0.000186103;0.00030786;;;0.000364635;0.00041048;2.30849;0.433183;61.4087;106.409;0.000851884;0.000234882;0.000456233;0.0001164;8.60338e-06;0.00093694;0.00637031;0;0.0245952;-0.0575952;-1.0439;-0.361595;1.10626;-6.23048;-0.000222162;8.29378e-05;6.88919e-05;9.08665e-05;-0.000244137;0.000167502;3.22479;0.310098;0.000200048;0.000223335;0.372195;2.68676;125.113;170.113;-0.000715764;-0.000222222;0.000521251;-0.000355247;6.87595e-05;-0.000619191;0.00516443;0;0.0387902;-0.0183637;-0.231344
117000;118;25.7435;-0.00236595;-9.18961e-05;-2.68413;25.5817;-1.04911;-0.0149103;-0.0100915;-0.162624;-0.0499373;-1.05608;-0.212389;1.07839;-5.19844;0.000193122;0.000226339;-7.76403e-05;0.000321479;-0.000205997;0.000263738;2.4874;0.402027;0.000306961;0.00035165;1.5606;0.640779;65.2074;110.207;0.000405495;0.000193146;0.000396957;5.56755e-05;-7.76935e-05;0.000693296;0.00580625;0;0.0258334;-0.057907;-1.04897;-0.362534;1.11137;-6.23142;-0.000236629;4.80527e-06;-4.44442e-05;-4.43241e-05;-0.000236749;9.62123e-05;-5.32418;-0.187823;0.000145329;0.000128283;-0.18722;-5.34131;139.934;4.93399;-0.00118064;-0.000236818;0.000625974;-0.000616244;-4.46401e-05;0.00174536;0.00640521;0;0.0316574;-0.0183087;-0.228176
118000;119;25.7449;-0.00098882;-3.84069e-05;-2.68519;25.5828;-1.05322;-0.0159796;-0.00898679;-0.166736;-0.0515671;-1.06431;-0.217598;1.08755;-5.20364;0.000340072;0.000315441;-0.000120523;0.000500338;-0.000280789;0.000390563;2.82164;0.354404;0.000456883;0.000520751;1.7819;0.561199;13.2179;58.2179;0.000503561;0.000340052;0.000258468;0.00037244;-0.000120506;0.000915492;0.00622298;0;0.0300091;-0.0596213;-1.05846;-0.372045;1.12352;-6.24093;-0.000211727;-8.45506e-05;-8.78879e-05;-4.50084e-05;-0.000254606;0.000104799;-2.40905;-0.415101;0.000156902;0.000139732;-0.176776;-5.65686;2.90484;47.9048;-0.00135991;-0.000211755;8.16438e-05;-0.000250724;-8.78877e-05;0.00301916;0.00673585;0;0.02878;-0.0181707;-0.217112
119000;120;25.7486;0.00270096;0.000104909;-2.68698;25.5864;-1.05058;-0.0177678;-0.00535274;-0.164094;-0.052129;-1.0746;-0.216557;1.09745;-5.2026;0.000218835;0.000356915;0.000272334;0.0006035;-0.000112331;0.000357916;-0.803555;-1.24447;0.000444534;0.000477221;5.3725;0.186133;47.5972;92.5972;0.000149411;0.000218837;0.00036081;0.00035302;0.000272332;-0.000658387;0.00671853;0;0.0245445;-0.0607092;-1.0689;-0.372312;1.13351;-6.24119;-0.000215789;-5.41503e-05;-0.00011937;-9.50782e-05;-0.000240081;7.25013e-05;-1.80774;-0.553177;0.000139606;9.66684e-05;-0.396026;-2.52509;174.197;39.1968;-0.00108032;-0.000215847;0.000235157;-0.00034343;-0.000119396;0.00343293;0.00585767;0;0.0431522;-0.0182091;-0.208783
120000;121;25.7486;0.00276569;0.000107423;-2.68617;25.5868;-1.04621;-0.0169584;-0.00502336;-0.159719;-0.0524784;-1.08112;-0.217375;1.10401;-5.20342;0.000361194;0.000433696;0.000416222;0.000823275;-4.58599e-05;0.000434567;-0.867791;-1.15235;0.000564758;0.000579423;17.952;0.0557042;45.3764;90.3764;0.000723018;0.000361185;0.000414152;0.000453238;0.00041623;-0.00110481;0.00754447;0;0.0259509;-0.061152;-1.07454;-0.374416;1.13954;-6.2433;-0.000228116;0.000124274;-5.09115e-05;1.31112e-05;-0.000292139;0.000152625;-4.48064;-0.223182;0.000199273;0.0002035;0.04488;22.2816;124.781;169.781;-0.00105202;-0.000228112;0.00033049;-8.19056e-05;-5.09584e-05;0.00311031;0.00662984;0;0.0410035;-0.0181729;-0.208561
121000;122;25.7485;0.00267515;0.000103906;-2.68581;25.5866;-1.04868;-0.0165908;-0.00517723;-0.162195;-0.0530024;-1.08895;-0.219418;1.1121;-5.20546;0.0002763;0.000413988;0.00061401;0.000892255;-1.94462e-06;0.0004471;-0.449992;-2.22226;0.000595486;0.000596133;;;52.7933;97.7933;0.000759661;0.000276277;0.000362428;0.00046553;0.00061403;-0.000386126;0.00761531;0;0.028752;-0.0614108;-1.08192;-0.379316;1.14813;-6.2482;-0.000295208;5.34054e-05;-0.000196768;-0.000173361;-0.000318615;7.26273e-05;-1.50028;-0.666542;0.000184191;9.68364e-05;-0.544107;-1.83787;124.381;169.381;-0.000741844;-0.000295307;0.000555222;-0.000448362;-0.000196921;0.00174178;0.00622344;0;0.0321355;-0.0182537;-0.201341
122000;123;25.7472;0.00134564;5.22662e-05;-2.68428;25.5854;-1.04974;-0.0150625;-0.00639819;-0.163253;-0.0544427;-1.10034;-0.217985;1.12305;-5.20403;0.000314796;0.000257133;0.00036127;0.000596214;7.98523e-05;0.000258181;-0.871359;-1.14763;0.000373713;0.000344241;-7.46647;-0.133932;54.5131;99.5131;0.000539768;0.000314814;0.000340584;0.000173686;0.000361245;0.00158602;0.00714664;0;0.0280412;-0.0628824;-1.09291;-0.382256;1.15953;-6.25114;-0.000181591;7.78044e-07;-0.000304636;-0.000181586;-0.000304641;6.15273e-05;-0.596093;-1.67759;0.000176963;8.20364e-05;-0.596067;-1.67766;64.9276;109.928;-0.000486976;-0.000181636;0.000299458;-0.000297938;-0.000304681;0.000750396;0.00646184;0;0.0276734;-0.0182876;-0.193726
123000;124;25.745;-0.000881785;-3.42496e-05;-2.68414;25.5827;-1.06064;-0.0149214;-0.00907461;-0.174156;-0.0539721;-1.109;-0.217537;1.13142;-5.20358;0.000157618;0.000229169;0.000292042;0.000463652;-1.39923e-05;0.000238822;-0.539708;-1.85285;0.00031387;0.00031843;33.1362;0.0301785;74.1422;119.142;0.000584776;0.000157644;0.000431249;2.71171e-05;0.000291976;0.00183099;0.00695281;0;0.0260242;-0.0627204;-1.10141;-0.381657;1.16734;-6.25054;-0.000194678;0.000125876;-0.000189537;-6.62052e-05;-0.00031801;0.000125902;-1.02713;-0.97359;0.000193746;0.00016787;-0.208186;-4.8034;102.6;147.6;-0.000801072;-0.000194717;0.000556458;-0.000304703;-0.000189684;0.000525137;0.00741933;0;0.027499;-0.0181672;-0.187705
124000;125;25.7436;-0.00226909;-8.81341e-05;-2.68449;25.581;-1.06605;-0.015279;-0.0107331;-0.179565;-0.0550675;-1.11599;-0.215016;1.13784;-5.20106;0.000183808;0.00037163;-3.23949e-05;0.00046274;-0.000311326;0.000387033;5.67398;0.176243;0.000449748;0.000516044;1.48635;0.672789;47.0789;92.0789;0.000896424;0.000183818;0.000399749;0.000343504;-3.24058e-05;-0.000715161;0.00782497;0;0.0299417;-0.0636913;-1.10832;-0.383484;1.17452;-6.25237;-0.000174501;5.97878e-05;-8.46053e-05;-5.47542e-05;-0.000204352;7.4799e-05;-2.06253;-0.484841;0.000122145;9.9732e-05;-0.26794;-3.73218;124.637;169.637;-0.00122726;-0.00017451;0.000264359;-0.000144765;-8.46385e-05;0.00116425;0.00795621;0;0.0262989;-0.0179784;-0.179609
125000;126;25.7464;0.000524555;2.03743e-05;-2.6857;25.5835;-1.0715;-0.016488;-0.00827628;-0.185016;-0.0556748;-1.12523;-0.221211;1.14812;-5.20726;0.000143258;0.000256632;0.000185242;0.000421739;-9.32391e-05;0.000257489;-0.773353;-1.29307;0.000316845;0.000343319;4.5232;0.221082;54.8232;99.8232;0.000333137;0.000143268;0.000300559;0.000212707;0.00018523;-0.000421187;0.00788474;0;0.0330764;-0.0644839;-1.11879;-0.392918;1.18753;-6.2618;-0.000119003;-8.25074e-06;-0.000108892;-0.000104271;-0.000123624;9.67637e-06;-1.09285;-0.915037;7.67823e-05;1.29018e-05;-0.843455;-1.1856;11.9112;56.9112;-0.00149477;-0.000119007;7.05829e-05;-8.70835e-05;-0.000108894;0.00352323;0.00666499;0;0.0368298;-0.0178574;-0.173086
126000;127;25.747;0.00114661;4.45357e-05;-2.68669;25.584;-1.07257;-0.0174771;-0.00779866;-0.186079;-0.0569291;-1.13184;-0.218726;1.15419;-5.20477;0.00019246;0.000402897;0.000382403;0.00070137;-0.000126508;0.000413939;-0.50329;-1.98693;0.000514955;0.000551919;5.54409;0.180372;56.1564;101.156;0.000600459;0.000192477;0.000448691;0.000357111;0.000382383;-0.00201946;0.00738538;0;0.0266035;-0.0657582;-1.12537;-0.391873;1.19346;-6.26075;-0.000133466;-7.74342e-06;-2.99429e-05;-2.93669e-05;-0.000134042;5.23376e-05;-4.45735;-0.224349;8.13587e-05;6.97834e-05;-0.219087;-4.56439;153.622;18.6215;-0.000913243;-0.000133478;0.000141253;-0.000156724;-2.99529e-05;0.00319345;0.00673568;0;0.0353031;-0.0178742;-0.165803
127000;128;25.7483;0.00246661;9.58061e-05;-2.68641;25.5854;-1.0715;-0.0171979;-0.00639637;-0.185016;-0.0571945;-1.13683;-0.219566;1.15925;-5.20561;0.000173072;0.000272967;0.00068675;0.000804713;5.5108e-05;0.000374803;-0.252016;-3.96801;0.000519082;0.000499737;-14.6025;-0.0684815;64.1195;109.12;0.000988726;0.000173061;0.000235197;0.000310717;0.000686759;-0.00184241;0.00846397;0;0.0278848;-0.0660281;-1.12974;-0.395007;1.19863;-6.26389;-0.000281644;0.00019244;-0.00026392;-8.01378e-05;-0.000465426;0.000192644;-1.06716;-0.937067;0.000287321;0.000256859;-0.172181;-5.80783;114.791;159.791;-0.00109566;-0.000281628;0.000447199;-6.23142e-05;-0.000264001;0.00309804;0.00561549;0;0.0397721;-0.0178102;-0.159245
128000;129;25.7503;0.00440077;0.000170931;-2.68529;25.5879;-1.05962;-0.0160787;-0.00383755;-0.173132;-0.0581785;-1.14494;-0.222628;1.16783;-5.20867;0.000159958;0.000315242;0.000267457;0.000533498;-0.000106083;0.000319791;-0.598072;-1.67204;0.000395794;0.000426388;5.02905;0.198845;35.5142;80.5142;0.000795883;0.000159915;0.000198459;0.000432011;0.000267487;-0.00144712;0.00858005;0;0.0309275;-0.067328;-1.13816;-0.400061;1.2083;-6.26894;-0.00027163;0.000107456;-0.000361927;-0.000200223;-0.000433334;0.000116555;-0.750512;-1.33242;0.000250425;0.000155407;-0.462054;-2.16425;97.4582;142.458;-0.000532;-0.00027167;0.000516966;-0.000302091;-0.000362055;0.00118406;0.00616814;0;0.028299;-0.017501;-0.15035
129000;130;25.7504;0.00457799;0.000177815;-2.68551;25.5882;-1.05761;-0.0162931;-0.00359862;-0.171124;-0.0578809;-1.15179;-0.221797;1.17438;-5.20784;0.000245477;0.000450456;0.000232157;0.000689322;-0.000211688;0.000450505;-1.05738;-0.945737;0.000544017;0.000600673;3.25632;0.307096;48.0572;93.0572;0.000314298;0.00024549;0.000479623;0.000421289;0.000232143;-0.000804744;0.00799528;0;0.0337164;-0.067511;-1.14437;-0.401643;1.21468;-6.27052;-0.000320169;0.000141168;-0.000471268;-0.000235606;-0.000555831;0.000160113;-0.679377;-1.47194;0.000322147;0.000213483;-0.423881;-2.35916;96.5942;141.594;-0.000594385;-0.000320206;0.000590596;-0.000308328;-0.000471433;0.000627448;0.00666044;0;0.0272568;-0.0173847;-0.144712
130000;131;25.7489;0.00299376;0.000116281;-2.68513;25.5862;-1.06784;-0.0159163;-0.00557809;-0.18135;-0.0585566;-1.15862;-0.218054;1.18042;-5.2041;0.000216283;0.000396962;0.000345478;0.000683064;-0.000121303;0.000402184;-0.626038;-1.59735;0.000500732;0.000536245;5.63104;0.177587;48.392;93.392;0.000904408;0.000216278;0.000384897;0.000409026;0.000345483;-0.00143061;0.00882573;0;0.0284093;-0.0678549;-1.15069;-0.400771;1.22037;-6.26965;-0.000261092;0.000113473;-0.000345082;-0.000182092;-0.000424082;0.000120995;-0.75661;-1.32169;0.000245656;0.000161327;-0.429379;-2.32894;96.563;141.563;-0.000541379;-0.000261145;0.000572205;-0.000345297;-0.000345239;0.000159585;0.00704563;0;0.0265253;-0.0172052;-0.143752
131000;132;25.7477;0.00185424;7.2021e-05;-2.68488;25.5845;-1.08201;-0.015668;-0.00729432;-0.195525;-0.0604152;-1.167;-0.219642;1.18903;-5.20569;8.6199e-05;0.000331671;0.000718837;0.000860845;-5.58088e-05;0.000458327;-0.119915;-8.33927;0.000593375;0.000611102;15.4249;0.0648303;70.5993;115.599;0.000362443;8.62153e-05;0.0003851;0.000278276;0.000718818;0.00102422;0.00852192;0;0.0285749;-0.069723;-1.15982;-0.403725;1.23005;-6.27261;-0.000349768;0.00019748;-6.53555e-05;3.57923e-05;-0.000450916;0.000243354;-5.35178;-0.186854;0.000313224;0.000324472;0.0793769;12.5981;119.914;164.914;-0.000952514;-0.000349784;0.000661872;-0.000266779;-6.5555e-05;0.000432952;0.0074989;0;0.0263831;-0.0169927;-0.131282
132000;133;25.7477;0.00184659;7.17236e-05;-2.68721;25.5842;-1.08391;-0.0179919;-0.00762651;-0.197426;-0.0612172;-1.17326;-0.222094;1.19567;-5.20814;-0.000101285;0.000244387;-0.000273712;7.16493e-05;-0.000446646;0.000259148;-0.370043;-2.70239;0.000324296;0.00034553;0.160416;6.23378;121.149;166.149;0.000784502;-0.000101279;0.000271632;0.000217136;-0.000273719;-0.000575094;0.00764697;0;0.0314282;-0.0707922;-1.16632;-0.408926;1.23795;-6.27781;-0.000263417;-9.56799e-06;-0.000178876;-0.000177807;-0.000264487;4.33401e-05;-1.47263;-0.679058;0.000155693;5.77868e-05;-0.67227;-1.4875;157.841;22.8412;-0.000837578;-0.000263479;0.000331751;-0.000350858;-0.000178931;0.00185072;0.00779453;0;0.0278703;-0.0166222;-0.128487
133000;134;25.746;0.000169569;6.58628e-06;-2.68645;25.5821;-1.09332;-0.0172397;-0.00963571;-0.206837;-0.0617186;-1.17902;-0.21848;1.20068;-5.20453;9.87341e-05;0.000329244;-0.000236653;0.00030053;-0.000438449;0.00036949;0.41721;2.39688;0.00042912;0.000492653;0.685439;1.45892;135.771;0.770847;0.000935821;9.87211e-05;0.00029176;0.00036674;-0.000236642;-0.00186617;0.00749971;0;0.0423751;-0.0713746;-1.17103;-0.410001;1.24278;-6.27888;-0.00033863;-1.9911e-05;-7.59493e-05;-7.44487e-05;-0.00034013;0.000132841;-4.45863;-0.224284;0.000206461;0.000177121;-0.218883;-4.56866;161.327;26.3272;-0.00079345;-0.000338657;0.000194449;-0.000234214;-7.5968e-05;0.001633;0.00801488;0;0.0457037;-0.0163652;-0.121303
134000;135;25.7469;0.00103271;4.01117e-05;-2.68775;25.5828;-1.0958;-0.0185321;-0.00900893;-0.209318;-0.062387;-1.1878;-0.218671;1.20937;-5.20472;-2.95219e-05;0.000277376;3.37809e-05;0.000281305;-0.000277046;0.000279176;0.873924;1.14426;0.000322367;0.000372234;1.01537;0.98486;4.388;49.388;0.000243918;-2.95383e-05;0.000223524;0.000331224;3.37944e-05;-0.0023573;0.00833665;0;0.0454827;-0.0724457;-1.17967;-0.413182;1.25203;-6.28206;-0.000338074;8.21194e-05;-0.000330206;-0.000251926;-0.000416354;8.22136e-05;-1.02383;-0.976726;0.000242145;0.000109618;-0.605078;-1.65268;115.7;160.7;-0.00106182;-0.000338093;0.000375987;-0.000211745;-0.000330273;0.00293871;0.00681968;0;0.0557377;-0.0156675;-0.114504
135000;136;25.7478;0.0019098;7.41788e-05;-2.68811;25.5837;-1.09322;-0.0188946;-0.00805381;-0.206735;-0.0626441;-1.19004;-0.21861;1.21157;-5.20466;0.000130999;0.000456678;-0.000180186;0.000457863;-0.00050705;0.000482456;0.727022;1.37547;0.000557334;0.000643275;0.902994;1.10743;161.779;26.779;0.000353688;0.000130961;0.000379303;0.000534077;-0.000180154;-0.00218526;0.00846667;0;0.0387601;-0.0728633;-1.1819;-0.412705;1.254;-6.28159;-0.0002923;4.32467e-05;-0.000276218;-0.000240271;-0.000328247;4.39879e-05;-1.05822;-0.944982;0.000196195;5.86505e-05;-0.731983;-1.36615;120.107;165.107;-0.00103839;-0.000292319;0.000284392;-0.000197894;-0.000276258;0.00255262;0.00625106;0;0.0519509;-0.0164149;-0.106895
136000;137;25.7507;0.00479591;0.000186279;-2.68763;25.5871;-1.08387;-0.018413;-0.00470079;-0.197385;-0.0632741;-1.19438;-0.223448;1.21675;-5.20949;0.000257707;0.000324476;0.00108796;0.00119973;0.000145942;0.000526893;-0.236871;-4.22171;0.000755882;0.000702524;-8.22059;-0.121646;68.7857;113.786;0.0009302;0.000257688;0.000272454;0.000376455;0.00108798;-0.00297592;0.00875295;0;0.030606;-0.0735663;-1.18703;-0.416911;1.26027;-6.28579;-0.000290736;6.31774e-05;-0.000153159;-0.000128549;-0.000315346;9.33984e-05;-1.89827;-0.526796;0.000183097;0.000124531;-0.407644;-2.45312;128.603;173.603;-0.000785771;-0.000290786;0.000450991;-0.000324582;-0.000153258;0.00226287;0.00658809;0;0.0288195;-0.0161532;-0.0993701
137000;138;25.753;0.00710013;0.000275778;-2.6867;25.5898;-1.07599;-0.0174852;-0.00195176;-0.189502;-0.0635758;-1.20445;-0.223458;1.22665;-5.2095;5.08148e-05;0.000432004;0.000552608;0.000801288;-0.000197865;0.000499577;-0.0919546;-10.8749;0.000610923;0.000666102;4.04966;0.246934;47.4699;92.4699;0.000666461;5.07434e-05;0.0002899;0.000574037;0.000552659;-0.00203294;0.0084107;0;0.0426138;-0.0740159;-1.19737;-0.420263;1.27114;-6.28914;-0.000295909;9.30465e-05;-0.000296952;-0.000203382;-0.000389478;9.3048e-05;-0.996486;-1.00353;0.000224939;0.000124064;-0.522192;-1.915;103.343;148.343;-0.000664764;-0.000296024;0.000674143;-0.000488051;-0.000297175;0.00104999;0.00697844;0;0.0320358;-0.0157333;-0.0918701
138000;139;25.7501;0.00426799;0.000165774;-2.68693;25.5864;-1.08854;-0.0177151;-0.00535718;-0.202058;-0.0650169;-1.21471;-0.227337;1.23751;-5.21338;0.000168319;0.000442263;-1.78559e-05;0.000527186;-0.000376722;0.000451954;9.42657;0.106083;0.000524276;0.000602605;1.3994;0.714591;21.4417;66.4417;0.000615579;0.000168295;0.000389133;0.000495403;-1.78338e-05;-0.00169335;0.0098036;0;0.0453047;-0.0756579;-1.20733;-0.428267;1.28327;-6.29715;-0.000399147;8.33621e-05;-0.000225834;-0.000192247;-0.000432734;0.000120244;-1.76744;-0.565791;0.000250356;0.000160325;-0.44426;-2.25094;127.044;172.044;-0.000822282;-0.000399271;0.000671157;-0.000504331;-0.000226056;1.99368e-05;0.00703511;0;0.0357433;-0.0153745;-0.0849007
139000;140;25.75;0.00409912;0.000159215;-2.68795;25.586;-1.09206;-0.0187345;-0.00578399;-0.205573;-0.0658381;-1.21996;-0.229521;1.24311;-5.21557;0.000131735;0.000447206;0.000331728;0.000689981;-0.000226518;0.00045825;-0.397118;-2.51815;0.000551232;0.000611;3.04603;0.328297;41.4106;86.4106;0.000744797;0.000131694;0.000363827;0.000530569;0.000331762;2.64734e-05;0.010017;0;0.0312559;-0.0764282;-1.21251;-0.431625;1.28931;-6.30051;-0.000300917;2.59587e-05;-0.000205069;-0.00019849;-0.000307496;5.45031e-05;-1.4674;-0.681479;0.000180021;7.26708e-05;-0.645504;-1.54918;136.213;1.21283;-0.000983981;-0.000300996;0.000448973;-0.000397015;-0.000205169;0.000538323;0.00733253;0;0.0268244;-0.015074;-0.0802596
140000;141;25.7488;0.00290088;0.000112674;-2.68714;25.5846;-1.09909;-0.0179232;-0.00720583;-0.212605;-0.0652417;-1.22207;-0.224942;1.24431;-5.21099;-6.64734e-06;0.000252392;0.000521262;0.000622512;-0.000107897;0.000365204;;;0.000455255;0.000486939;5.76952;0.173325;71.3966;116.397;0.000246999;-6.64036e-06;0.000281771;0.000223029;0.000521255;0.000196247;0.0111194;0;0.0330652;-0.0759179;-1.21407;-0.428208;1.28961;-6.29709;-0.000322588;-2.57443e-05;-0.000179267;-0.000174783;-0.000327072;7.61444e-05;-1.79948;-0.555716;0.000188984;0.000101526;-0.534387;-1.8713;166.203;31.2034;-0.00131338;-0.000322632;0.000246612;-0.000298061;-0.000179297;0.00143997;0.00804266;0;0.0266158;-0.0151954;-0.0731724
141000;142;25.7472;0.00133898;5.20077e-05;-2.68713;25.5826;-1.10878;-0.0179149;-0.00919484;-0.222291;-0.0658227;-1.23001;-0.226719;1.25246;-5.21276;-8.76697e-05;0.000281457;0.000182765;0.0003598;-0.000264705;0.000312253;0.479686;2.08469;0.000361949;0.000416337;1.35925;0.735701;30.4153;75.4153;0.000603751;-8.7691e-05;0.000213964;0.000348932;0.000182781;-0.00141921;0.00960761;0;0.0311666;-0.076794;-1.22199;-0.433791;1.29897;-6.30267;-0.000209103;-0.000120694;-0.000176223;-7.08544e-05;-0.000314472;0.000121809;-1.18658;-0.842757;0.000190474;0.000162411;-0.225313;-4.43828;16.3884;61.3884;-0.00131117;-0.000209156;0.000104549;-0.00034593;-0.000176221;0.00327834;0.00781263;0;0.0260075;-0.0150835;-0.063103
142000;143;25.7478;0.00197047;7.65353e-05;-2.68844;25.5831;-1.10866;-0.0192274;-0.00869186;-0.222169;-0.0660163;-1.23498;-0.222738;1.25664;-5.20878;-2.52532e-05;0.000430253;0.000495871;0.000738311;-0.000267692;0.000503002;0.050927;19.636;0.000601628;0.000670669;2.75806;0.362574;59.1861;104.186;0.000783616;-2.52583e-05;0.000418627;0.000441873;0.000495876;-0.00109396;0.0088417;0;0.0396435;-0.0770068;-1.2264;-0.432632;1.30275;-6.30151;-0.000304515;-7.94132e-05;-3.46661e-05;-1.30305e-05;-0.000326151;0.00015656;-8.78422;-0.11384;0.000213223;0.000208747;-0.0399524;-25.0298;169.735;34.7347;-0.00143761;-0.000304554;0.000130059;-0.000288829;-3.46714e-05;0.00278724;0.00827261;0;0.0450668;-0.0149631;-0.0631184
143000;144;25.7493;0.00347153;0.000134838;-2.69005;25.5843;-1.11169;-0.0208344;-0.00748163;-0.225201;-0.0659309;-1.24257;-0.225907;1.26466;-5.21195;2.17984e-05;0.00060406;6.14154e-05;0.000645991;-0.000562778;0.000604384;-0.354934;-2.81743;0.000698434;0.000805846;1.14786;0.871184;5.76668;50.7667;0.000561775;2.16206e-05;0.000359306;0.000848804;6.15333e-05;-0.00304686;0.00805206;0;0.0406333;-0.0773398;-1.23465;-0.438383;1.31245;-6.30726;-0.000278076;-4.29884e-05;-0.000216117;-0.000194109;-0.000300085;5.29879e-05;-1.28669;-0.777188;0.000175727;7.06506e-05;-0.646847;-1.54596;3.82909;48.8291;-0.00121098;-0.000278121;0.000217884;-0.000303845;-0.00021614;0.00227889;0.00730897;0;0.0401434;-0.0148905;-0.0564263
144000;145;25.7518;0.00595857;0.000231438;-2.68948;25.5871;-1.10709;-0.0202666;-0.00471939;-0.2206;-0.0675008;-1.25335;-0.225955;1.27534;-5.212;5.2038e-05;0.000537822;0.00039121;0.00078555;-0.000342301;0.000563925;-0.133018;-7.51778;0.000667717;0.000751901;2.29491;0.435748;31.5277;76.5277;0.00106428;5.18974e-05;0.000320336;0.000755234;0.000391303;-0.00409229;0.0109866;0;0.033843;-0.0792435;-1.24518;-0.441929;1.32365;-6.31081;-0.000292503;0.000123518;-0.00034604;-0.000192887;-0.000445657;0.000126385;-0.845286;-1.18303;0.000258073;0.000168513;-0.432814;-2.31046;126.082;171.082;-0.00076957;-0.0002925;0.000154853;9.21812e-05;-0.000346045;0.000992909;0.00810867;0;0.02622;-0.0148085;-0.0464026
145000;146;25.7533;0.00743395;0.000288744;-2.68913;25.589;-1.09704;-0.0199192;-0.00276517;-0.210551;-0.068309;-1.25998;-0.225699;1.28185;-5.21174;-9.97205e-05;0.000411301;0.000327839;0.0005776;-0.000349482;0.000463541;0.304175;3.28758;0.000540626;0.000618055;1.65273;0.605059;32.348;77.348;0.000999248;-9.97935e-05;0.000261146;0.000561393;0.000327889;-0.00235284;0.0103624;0;0.0392775;-0.0799895;-1.2519;-0.443975;1.33071;-6.31286;-0.000256139;-2.07215e-05;-0.000290338;-0.000246373;-0.000300104;2.68657e-05;-0.882211;-1.13352;0.000184782;3.58209e-05;-0.820958;-1.21809;32.0906;77.0906;-0.000496376;-0.000256329;0.000574103;-0.000615566;-0.000290503;0.000294426;0.00738554;0;0.0345487;-0.0147807;-0.0413018
146000;147;25.7546;0.00877202;0.000340716;-2.68907;25.5905;-1.0928;-0.0198539;-0.00123021;-0.20631;-0.0691841;-1.26556;-0.231129;1.28836;-5.21717;-1.29911e-05;0.000555875;0.000239911;0.000683536;-0.000456616;0.000570076;0.0541498;18.4673;0.000662599;0.000760101;1.49696;0.668021;22.9788;67.9788;0.000380457;-1.31028e-05;0.000382041;0.000729665;0.000239992;-0.00135784;0.0108273;0;0.0462154;-0.0811407;-1.25763;-0.450787;1.33844;-6.31967;-0.00029067;9.72586e-06;-0.000173596;-0.000172794;-0.000291473;5.93396e-05;-1.67441;-0.597227;0.000169246;7.91194e-05;-0.592829;-1.68683;141.295;6.29529;-0.00075374;-0.000290829;0.000583077;-0.000563558;-0.000173766;-0.000535268;0.00829275;0;0.0385174;-0.0147385;-0.0335771
147000;148;25.751;0.00512651;0.00019912;-2.69006;25.5863;-1.1029;-0.0208425;-0.00543668;-0.216417;-0.0697878;-1.27213;-0.230203;1.29467;-5.21625;-3.10084e-05;0.000427167;9.63195e-05;0.000464541;-0.00039923;0.000431885;0.321933;3.10624;0.000499173;0.000575847;1.16359;0.859407;10.6196;55.6196;0.000652591;-3.10804e-05;0.000282935;0.000571381;9.63707e-05;-0.00189794;0.0112075;0;0.0424434;-0.0818789;-1.26372;-0.45205;1.34464;-6.32093;-0.000321977;-2.08387e-05;-0.000186705;-0.000183568;-0.000325114;7.07732e-05;-1.72452;-0.579872;0.000188227;9.43642e-05;-0.564626;-1.77108;156.025;21.0246;-0.000956178;-0.000322138;0.00052604;-0.000567644;-0.000186843;0.000102214;0.00693162;0;0.0327276;-0.0147178;-0.0261749
148000;149;25.7509;0.00499044;0.000193835;-2.68948;25.586;-1.10868;-0.020266;-0.00576283;-0.222197;-0.0697424;-1.27719;-0.224412;1.29863;-5.21046;-0.000242247;0.000469276;-0.000222099;0.000237211;-0.000701558;0.000469385;-1.09072;-0.916829;0.000563667;0.000625846;0.338121;2.95752;156.21;21.21;0.000105558;-0.000242363;0.000266158;0.000672391;-0.000222025;-0.000622661;0.00997089;0;0.0401946;-0.0817979;-1.26817;-0.448462;1.34761;-6.31734;-0.000244326;-7.13616e-05;-0.000125402;-9.19758e-05;-0.000277752;9.28882e-05;-1.94834;-0.513256;0.00016338;0.000123851;-0.331143;-3.01984;168.909;33.9091;-0.00102865;-0.000244537;0.000510055;-0.000652709;-0.000125529;0.000331985;0.00755959;0;0.026161;-0.0147306;-0.0188179
149000;150;25.7494;0.00354421;0.000137661;-2.69015;25.5839;-1.12135;-0.0209396;-0.0078411;-0.23486;-0.0699951;-1.28288;-0.223668;1.30411;-5.20971;-0.000271332;0.000320284;-1.26775e-05;0.000203404;-0.000487414;0.000345409;-21.4027;-0.0467231;0.000409925;0.000460545;0.417313;2.39628;163.568;28.5678;0.000555292;-0.000271369;0.000220311;0.00042023;-1.26505e-05;-0.0010915;0.0107001;0;0.0384447;-0.0822412;-1.27363;-0.451124;1.35367;-6.32001;-0.000299365;-3.11115e-05;-0.000162222;-0.000155495;-0.000306092;7.52989e-05;-1.8454;-0.541889;0.00017673;0.000100399;-0.507999;-1.96851;159.55;24.5498;-0.00173461;-0.000299506;0.000470425;-0.000532579;-0.000162332;0.00252107;0.00745295;0;0.0253394;-0.0146381;-0.0124448
150000;151;25.7484;0.00258277;0.000100318;-2.68935;25.5825;-1.13319;-0.0201388;-0.00924631;-0.246701;-0.0715692;-1.29214;-0.228441;1.31412;-5.21449;-0.000248379;0.000231979;-0.000105107;6.60451e-05;-0.000419531;0.000242788;-2.36311;-0.423171;0.000304103;0.000323718;0.157426;6.3522;142.056;7.05609;0.00108325;-0.000248377;0.000241392;0.000222568;-0.000105109;-0.00197327;0.0102688;0;0.038081;-0.083897;-1.28266;-0.459663;1.36512;-6.32854;-0.000281205;-8.80753e-05;-0.000160155;-0.000113813;-0.000327547;0.000106867;-1.75583;-0.569531;0.00019202;0.000142489;-0.347471;-2.87794;6.52731;51.5273;-0.00116521;-0.000281243;0.000113726;-0.000289852;-0.000160157;0.00263567;0.00835423;0;0.0417516;-0.0144919;-0.00376468
151000;152;25.7483;0.00242941;9.43612e-05;-2.69043;25.5822;-1.13393;-0.021211;-0.00954644;-0.247447;-0.072168;-1.29791;-0.228136;1.31978;-5.21418;-0.000312949;0.000306386;-0.000121726;0.00010362;-0.000538295;0.000320958;-2.57092;-0.388966;0.000397926;0.000427943;0.192497;5.1949;168.845;33.8449;0.000863863;-0.000313064;4.41289e-05;0.000568592;-0.00012168;-0.00156999;0.011098;0;0.0501342;-0.0849846;-1.28843;-0.462039;1.37141;-6.33092;-0.000290201;-2.47312e-05;-0.000395808;-0.000284696;-0.000401312;5.83081e-05;-0.733186;-1.36391;0.000238376;7.77442e-05;-0.709413;-1.40962;60.9123;105.912;-0.00101596;-0.000290231;0.000198584;-0.00024807;-0.000395827;0.00200732;0.00586896;0;0.050862;-0.0144429;0.00333716
152000;153;25.7485;0.00261409;0.000101534;-2.69021;25.5823;-1.13766;-0.0209933;-0.00950325;-0.251176;-0.0713128;-1.29901;-0.230676;1.32126;-5.21672;-0.000136536;0.000558901;-0.000182822;0.000399701;-0.000719059;0.00055938;-0.746822;-1.33901;0.00065463;0.00074584;0.555867;1.79899;154.671;19.671;0.00039171;-0.000136625;0.000416602;0.000701207;-0.000182753;-0.00120634;0.0109824;0;0.0433985;-0.0842445;-1.28968;-0.465074;1.37356;-6.33396;-0.000203066;-4.40382e-05;-0.000362367;-0.000191702;-0.00037373;9.10141e-05;-0.560387;-1.78448;0.000215797;0.000121352;-0.512942;-1.94954;52.3844;97.3844;-0.00105835;-0.000203122;0.000251586;-0.000339709;-0.000362397;0.0025059;0.00705791;0;0.0376018;-0.0145166;0.00331488
153000;154;25.7514;0.00553107;0.000214833;-2.69056;25.5856;-1.12711;-0.0213438;-0.00613709;-0.240623;-0.0714752;-1.30369;-0.23198;1.32609;-5.21803;-0.000284954;0.000337127;-0.000302816;4.336e-05;-0.00063113;0.000337245;-0.941012;-1.06269;0.000435926;0.00044966;0.0687022;14.5556;152.34;17.3402;0.000257469;-0.000285049;0.000122133;0.000552124;-0.000302767;-0.00133434;0.0106165;0;0.0518627;-0.0848135;-1.29483;-0.467736;1.37933;-6.33662;-0.000314149;-8.90646e-05;-0.000497062;-0.000277947;-0.000533264;0.000127659;-0.632012;-1.58225;0.000307973;0.000170212;-0.521217;-1.91859;46.7676;91.7676;-0.000902257;-0.00031425;0.000278781;-0.000456977;-0.000497097;0.00100545;0.00656916;0;0.0409173;-0.0142972;0.01677
154000;155;25.7527;0.0068152;0.000264711;-2.69101;25.587;-1.12437;-0.0217958;-0.00477171;-0.237885;-0.0719551;-1.30702;-0.231674;1.32934;-5.21772;-0.000330892;0.000255246;-0.000217765;-1.28906e-05;-0.000535767;0.000261438;-1.51949;-0.658116;0.000352959;0.000348584;-0.02406;-41.5627;164.681;29.6806;0.000794811;-0.000331009;-3.74513e-05;0.00054791;-0.000217733;-0.00259851;0.0114245;0;0.0377135;-0.0856787;-1.29828;-0.470063;1.38341;-6.33894;-0.000414099;1.45631e-05;-0.000290412;-0.00028872;-0.000415791;6.35354e-05;-1.4259;-0.701309;0.00024603;8.47139e-05;-0.694388;-1.44012;144.226;9.22632;-0.00134652;-0.000414253;0.00058441;-0.000555214;-0.000290582;0.00134392;0.00788235;0;0.0308293;-0.0136539;0.022092
155000;156;25.7539;0.00807248;0.000313545;-2.69181;25.5883;-1.12095;-0.0225986;-0.00344042;-0.234459;-0.0735992;-1.31099;-0.233533;1.33366;-5.21958;-0.000424627;0.000326137;0.000155885;0.000302223;-0.000570965;0.000436594;2.72398;0.36711;0.000512032;0.000582125;0.529319;1.88922;9.28252;54.2825;0.000583227;-0.000424779;1.1228e-05;0.000640864;0.000155938;-0.00246209;0.010854;0;0.0389267;-0.0874664;-1.30197;-0.473849;1.38828;-6.34273;-0.000450468;-3.52677e-05;-0.000375203;-0.00036126;-0.000464411;5.15757e-05;-1.2006;-0.832916;0.000281593;6.87675e-05;-0.777888;-1.28553;176.146;41.1462;-0.000677807;-0.000450615;0.000471463;-0.00054196;-0.000375313;-0.00023345;0.00830625;0;0.0308403;-0.0134554;0.0259414
156000;157;25.755;0.00910332;0.000353584;-2.69476;25.5892;-1.11724;-0.0255493;-0.00255149;-0.230755;-0.0749408;-1.31369;-0.234606;1.33657;-5.22065;-0.000222641;0.000393416;0.000468109;0.000646242;-0.000400774;0.000523508;0.475618;2.10253;0.000610007;0.00069801;1.61249;0.620161;36.6379;81.6379;0.000245293;-0.000222738;0.00019685;0.000589847;0.000468167;-0.00249367;0.011372;0;0.0418022;-0.0920615;-1.30507;-0.474624;1.39174;-6.34351;-0.00053758;6.52407e-05;-0.000237058;-0.000223506;-0.000551132;0.000163813;-2.26772;-0.440972;0.000320083;0.000218417;-0.40554;-2.46585;140.241;5.24108;-0.00022351;-0.000537707;0.000640126;-0.000509472;-0.000237261;-0.00115003;0.0100678;0;0.0341225;-0.0133128;0.0323639
157000;158;25.7542;0.00832751;0.00032345;-2.69897;25.588;-1.11682;-0.0297552;-0.00375734;-0.230337;-0.0794219;-1.31642;-0.232562;1.33916;-5.21861;-0.000489293;0.000279709;0.000413261;0.000492915;-0.000568947;0.000530931;1.18398;0.844609;0.00061359;0.000707908;0.866364;1.15425;132.086;177.086;8.48834e-07;-0.000489274;0.000357808;0.00020168;0.000413236;-0.00304744;0.0111328;0;0.0412999;-0.101731;-1.30623;-0.475962;1.39396;-6.34484;-0.000572493;8.17343e-05;-0.000194492;-0.000177576;-0.000589409;0.000205917;-2.94353;-0.339728;0.00034914;0.000274556;-0.301277;-3.3192;134.395;179.395;-0.00175204;-0.000572858;0.00102129;-0.000857463;-0.00019501;0.000297787;0.00915056;0;0.0348813;-0.0130437;0.0393389
158000;159;25.7551;0.00927784;0.000360362;-2.70018;25.5889;-1.11674;-0.0309664;-0.00292507;-0.230255;-0.079675;-1.31647;-0.231593;1.33906;-5.21764;-0.00011058;0.000576289;0.000321352;0.000720813;-0.00051004;0.000615427;0.344108;2.90606;0.000714098;0.000820569;1.41325;0.707591;71.8666;116.867;8.06928e-05;-0.000110543;0.000645248;0.000507359;0.00032131;-0.00396158;0.0106425;0;0.0405973;-0.102639;-1.30617;-0.475631;1.39386;-6.34451;-0.000533994;6.53645e-05;-1.32569e-05;-5.1775e-06;-0.000542073;0.000268448;-40.2804;-0.0248259;0.000359669;0.00035793;;;135.406;0.406443;-0.00199484;-0.000534453;0.00109133;-0.00096007;-1.38503e-05;-0.000371544;0.00830405;0;0.0280531;-0.0130858;0.0459598
159000;160;25.7546;0.00877387;0.000340787;-2.70344;25.5881;-1.11553;-0.0342217;-0.00372296;-0.229038;-0.0805979;-1.31669;-0.235414;1.34;-5.22146;-0.000289648;0.000251271;0.000782994;0.000838938;-0.000345592;0.000592265;0.369924;2.70326;0.000703383;0.000789687;2.42754;0.41194;106.939;151.939;-0.000705535;-0.000289629;0.000661952;-0.000158969;0.000782807;-0.00306504;0.00970192;0;0.0397708;-0.106458;-1.30616;-0.480219;1.39571;-6.3491;-0.000563376;0.000249035;-1.77481e-05;7.88239e-05;-0.000659948;0.000369386;-31.743;-0.031503;0.000468456;0.000492515;0.119439;8.37244;119.618;164.618;-0.00267326;-0.000564016;0.00165642;-0.00115758;-1.90889e-05;0.000464785;0.00966653;0;0.0280495;-0.0123421;0.0537887
160000;161;25.7532;0.00734896;0.000285442;-2.70452;25.5861;-1.12469;-0.0353009;-0.00567235;-0.238202;-0.0839854;-1.32215;-0.228344;1.34435;-5.21439;-0.00030163;0.000124403;0.000597214;0.000614114;-0.00031853;0.000466322;0.505062;1.97995;0.000547402;0.000621763;1.92796;0.518683;118.173;163.173;-0.000510435;-0.000301675;0.000574956;-0.000325745;0.000597056;-0.00375044;0.0104845;0;0.0416075;-0.112286;-1.30964;-0.479658;1.39923;-6.34854;-0.000478955;0.000275357;0.000127594;0.00023395;-0.000585311;0.00040963;3.75374;0.266401;0.000487285;0.000546174;0.399702;2.50186;117.338;162.338;-0.00339988;-0.000479595;0.00171575;-0.00116416;0.00012616;0.000444035;0.0103403;0;0.0259056;-0.0115455;0.0601781
161000;162;25.7522;0.00628782;0.000244226;-2.7077;25.5846;-1.12806;-0.038482;-0.00722524;-0.241572;-0.0858378;-1.32518;-0.228129;1.34741;-5.21417;-0.000392366;0.000294508;0.000319423;0.000425477;-0.000498419;0.000461948;1.22836;0.814095;0.000533965;0.000615931;0.853652;1.17144;116.91;161.91;-0.00082255;-0.000392371;0.00090054;-0.000311092;0.000319061;-0.00353826;0.0100408;0;0.0420608;-0.115756;-1.31127;-0.48227;1.40193;-6.35115;-0.000362085;0.000369537;0.000126522;0.00032521;-0.000560773;0.000442992;2.86184;0.349425;0.000517514;0.000590655;0.579931;1.72434;108.469;153.469;-0.0039059;-0.000363207;0.00228256;-0.00154255;0.000123985;0.00141388;0.0117815;0;0.0260548;-0.0114949;0.0668411
162000;163;25.7521;0.00620051;0.000240835;-2.70808;25.5843;-1.13061;-0.0388697;-0.00746689;-0.244126;-0.0855032;-1.32561;-0.230495;1.34821;-5.21654;-0.000287301;0.000144043;0.000798974;0.00081775;-0.000306077;0.000561913;0.359588;2.78096;0.000670884;0.000749218;2.67171;0.374292;117.975;162.975;-0.000989702;-0.000287466;0.000880204;-0.000591319;0.000798597;-0.00480069;0.00864726;0;0.0409642;-0.116395;-1.31157;-0.486456;1.40371;-6.35534;-0.000540031;0.000480826;0.000157164;0.000402464;-0.000785331;0.000593897;3.43611;0.291027;0.000697548;0.000791863;0.512476;1.95131;110.621;155.621;-0.00426151;-0.000541132;0.00252257;-0.0015595;0.000154098;0.00112196;0.0128612;0;0.0233187;-0.0115159;0.0711161
163000;164;25.7475;0.00167642;6.51141e-05;-2.71082;25.5788;-1.14648;-0.0416014;-0.0130163;-0.259993;-0.0871601;-1.32754;-0.230643;1.35025;-5.21669;-0.000103894;0.000410754;0.000190209;0.000479441;-0.000393126;0.000436283;0.546209;1.8308;0.000504597;0.000581711;1.21956;0.819967;97.9443;142.944;-0.00119455;-0.000103838;0.00106231;-0.000240614;0.000189729;-0.00393223;0.00907811;0;0.0462773;-0.120505;-1.31208;-0.492188;1.40653;-6.36107;-0.000225466;0.000507867;8.21658e-05;0.000458999;-0.000602299;0.000530649;2.74403;0.364427;0.000614599;0.000707532;0.762079;1.3122;99.295;144.295;-0.00410041;-0.000226894;0.00278132;-0.00176489;7.84271e-05;0.000573869;0.0119337;0;0.0261546;-0.011167;0.0826019
164000;165;25.7484;0.00253692;9.85371e-05;-2.71214;25.5795;-1.14546;-0.0429246;-0.0122448;-0.258977;-0.0887725;-1.3293;-0.229991;1.35196;-5.21604;-0.000107687;0.000240851;0.000244411;0.000366694;-0.00022997;0.000298332;0.440597;2.26965;0.000347486;0.000397777;1.59453;0.627144;105.863;150.863;-0.00134224;-0.000107866;0.00112673;-0.000644716;0.000243805;-0.00311826;0.00993378;0;0.0448327;-0.123291;-1.31313;-0.49255;1.40787;-6.36143;-0.000189354;0.000338044;0.000109943;0.000329982;-0.000409393;0.000369687;1.72229;0.580622;0.000427698;0.000492916;0.806028;1.24065;102.467;147.467;-0.004632;-0.000190748;0.00238029;-0.00170359;0.000107168;0.00126023;0.00902213;0;0.0222411;-0.0111352;0.0837708
165000;166;25.7488;0.00296303;0.000115088;-2.71351;25.5798;-1.145;-0.044298;-0.0119409;-0.258515;-0.0894945;-1.32881;-0.230453;1.35161;-5.2165;-0.000120799;0.000221432;0.000442291;0.000518936;-0.000197443;0.00035819;0.273121;3.66138;0.000427259;0.000477586;2.62828;0.380477;111.167;156.167;-0.00166397;-0.000121051;0.0011872;-0.000743788;0.000441611;-0.00355624;0.00998372;0;0.0433473;-0.124837;-1.31299;-0.4921;1.40772;-6.36098;-0.000338891;0.000345368;6.14213e-05;0.000260441;-0.000537911;0.000399176;5.51747;0.181242;0.000470117;0.000532235;0.484172;2.06538;106.778;151.778;-0.00433933;-0.000340646;0.00259679;-0.00190515;5.81095e-05;0.00176342;0.0102089;0;0.0218844;-0.0111796;0.0895441
166000;167;25.7471;0.0012484;4.84894e-05;-2.71276;25.5781;-1.1477;-0.0435475;-0.013708;-0.26121;-0.08906;-1.32845;-0.230263;1.3512;-5.21631;-0.000196118;0.000230659;0.000216874;0.000319965;-0.000299209;0.000309587;0.904293;1.10584;0.000357547;0.000412782;1.06937;0.935129;110.561;155.561;-0.000811802;-0.00019629;0.00109248;-0.000630808;0.000216304;-0.00450827;0.0105488;0;0.0433339;-0.124675;-1.31175;-0.491775;1.40644;-6.36066;-0.000477353;0.000445633;5.03391e-05;0.000304376;-0.00073139;0.000517883;9.48275;0.105455;0.000614707;0.000690511;0.416162;2.40291;107.929;152.929;-0.00453924;-0.000478979;0.00274959;-0.00185711;4.66584e-05;0.00120935;0.00875053;0;0.0241071;-0.0112083;0.0985429
167000;168;25.7479;0.00200201;7.77605e-05;-2.7151;25.5787;-1.14554;-0.04589;-0.0131014;-0.259056;-0.0899598;-1.32778;-0.229437;1.35046;-5.21548;-0.000183956;0.000332756;0.000261069;0.000438854;-0.000361742;0.000400298;0.704629;1.41919;0.000462939;0.000533731;1.21317;0.824288;105.714;150.714;-0.0020203;-0.000184094;0.00128699;-0.000621048;0.000260296;-0.00326917;0.0100169;0;0.0380173;-0.12668;-1.31143;-0.490547;1.40589;-6.35943;-0.0002946;0.000218687;-8.56846e-06;0.000109715;-0.000412884;0.0002613;;;0.000318196;0.0003484;0.265729;3.76323;108.927;153.927;-0.00424623;-0.000295881;0.0020532;-0.00161531;-1.06524e-05;0.00123414;0.00902353;0;0.0214282;-0.0111244;0.103703
168000;169;25.7489;0.00298425;0.000115912;-2.71483;25.5799;-1.14188;-0.0456155;-0.0119197;-0.255392;-0.0906697;-1.32829;-0.228119;1.35078;-5.21416;-0.000267669;0.000190097;0.000316834;0.00037322;-0.000324055;0.000348637;0.844823;1.18368;0.000402905;0.00046485;1.15172;0.868267;117.869;162.869;-0.00205969;-0.000268149;0.00137909;-0.000998202;0.000315902;-0.00167925;0.00979362;0;0.0409157;-0.127887;-1.31209;-0.488103;1.40577;-6.35698;-0.000365685;0.000247285;-3.9328e-07;0.000124385;-0.000490463;0.000307424;;;0.00037537;0.000409899;0.253607;3.94311;110.787;155.787;-0.00401816;-0.000367222;0.00226566;-0.00177036;-2.92932e-06;0.000957725;0.0090088;0;0.0251911;-0.011171;0.111532
169000;170;25.7476;0.00170572;6.62524e-05;-2.71553;25.5785;-1.14276;-0.0463112;-0.0133198;-0.256272;-0.0910659;-1.32842;-0.230105;1.35127;-5.21615;-3.93768e-05;0.00028155;7.88546e-05;0.000307428;-0.00026795;0.000287689;0.499359;2.00257;0.000332456;0.000383586;1.14733;0.871587;95.36;140.36;-0.0016196;-3.96097e-05;0.00130157;-0.000738352;7.80473e-05;-0.00327917;0.00926193;0;0.0468468;-0.128652;-1.31203;-0.489941;1.40642;-6.35882;-0.000333539;0.00022441;1.27656e-05;0.000123059;-0.000443833;0.000283446;26.1279;0.0382733;0.000344318;0.000377928;0.277265;3.60665;111.296;156.296;-0.00438957;-0.000334812;0.00206072;-0.00161126;1.06676e-05;0.0013488;0.00884835;0;0.0264492;-0.0112145;0.118612
170000;171;25.7471;0.00119444;4.63933e-05;-2.71536;25.5777;-1.14785;-0.046143;-0.0140444;-0.261359;-0.0914809;-1.32861;-0.228438;1.35121;-5.21448;-0.000219824;0.000186772;0.000346662;0.000402698;-0.00027586;0.000339279;0.634117;1.577;0.000394041;0.000452372;1.45979;0.68503;116.698;161.698;-0.00177077;-0.000220266;0.00133244;-0.000958246;0.000345792;-0.00205955;0.00967738;0;0.0396085;-0.129457;-1.31227;-0.487498;1.40586;-6.35638;-0.000361793;0.000196757;0.000101748;0.000174002;-0.000434047;0.000304025;3.55577;0.281233;0.0003616;0.000405366;0.400883;2.49449;116.704;161.704;-0.00380849;-0.00036333;0.00215857;-0.00176415;9.94379e-05;0.000644534;0.00799234;0;0.0230061;-0.0110736;0.126248
171000;172;25.7478;0.00188613;7.32597e-05;-2.71567;25.5786;-1.14282;-0.0464502;-0.0131559;-0.256337;-0.091615;-1.32811;-0.229358;1.35088;-5.2154;-0.000142084;0.000151603;0.000417491;0.000455924;-0.000180517;0.000318221;0.340328;2.93834;0.000378744;0.000424294;2.52566;0.395936;117.202;162.202;-0.00149603;-0.000142525;0.00125542;-0.000951597;0.000416715;-0.00247757;0.0104015;0;0.0379844;-0.129854;-1.31167;-0.489428;1.40602;-6.35831;-0.000187274;0.000187023;-4.95098e-05;8.09131e-05;-0.000317697;0.000199305;-3.78256;-0.264371;0.000243296;0.00026574;0.254687;3.92639;101.948;146.948;-0.00407802;-0.000188584;0.00200384;-0.00162954;-5.15001e-05;0.000846111;0.00749167;0;0.0232359;-0.0111162;0.132475
172000;173;25.7485;0.00265484;0.000103117;-2.71655;25.5793;-1.14201;-0.0473305;-0.012439;-0.255519;-0.091695;-1.32881;-0.230549;1.35177;-5.21659;-0.000142544;0.000229966;9.75132e-05;0.00023689;-0.000281921;0.000259405;1.46179;0.684094;0.000299911;0.000345874;0.840273;1.19009;104.412;149.412;-0.00146922;-0.000142813;0.00122896;-0.000768787;9.67846e-05;-0.00261794;0.0102825;0;0.0439188;-0.129919;-1.31219;-0.49192;1.40737;-6.3608;-0.000277447;0.000150989;-3.1973e-05;3.98719e-05;-0.000349292;0.000194582;-8.67756;-0.11524;0.000247226;0.000259443;0.114151;8.76036;111.874;156.874;-0.00414233;-0.000278937;0.00203513;-0.00173269;-3.40325e-05;0.000583902;0.00877244;0;0.0267069;-0.0110058;0.141496
173000;174;25.7465;0.000631455;2.45265e-05;-2.71684;25.577;-1.14743;-0.0476213;-0.0147492;-0.260938;-0.091627;-1.32912;-0.230405;1.35205;-5.21645;-0.000151621;0.000100078;0.000181463;0.000209219;-0.000179377;0.000194298;0.835549;1.19682;0.000224577;0.000259064;1.16636;0.857366;119.117;164.117;-0.00167358;-0.000152189;0.00127085;-0.00107031;0.00018066;-0.00206708;0.0103553;0;0.045219;-0.130254;-1.31295;-0.49144;1.40795;-6.36032;-0.000307333;0.000159132;9.46622e-06;7.55959e-05;-0.000373463;0.000224529;;;0.000277626;0.000299373;0.202419;4.94026;114.771;159.771;-0.00430333;-0.000308669;0.00196097;-0.00164214;7.55618e-06;0.00108958;0.00823877;0;0.028448;-0.0110421;0.148201
174000;175;25.7488;0.00296829;0.000115292;-2.71741;25.5796;-1.14065;-0.0481905;-0.0121544;-0.254163;-0.0915103;-1.32904;-0.231322;1.35213;-5.21737;1.87387e-05;0.000190326;0.000494961;0.000561679;-4.79793e-05;0.000304829;-0.0378589;-26.4139;0.000391427;0.000406439;11.7067;0.0854212;108.857;153.857;-0.00132815;1.83786e-05;0.00125086;-0.000869708;0.000494197;-0.00373923;0.0104412;0;0.0404116;-0.130018;-1.31285;-0.491687;1.40792;-6.36057;-0.00033272;0.000174747;-0.000225721;-9.64672e-05;-0.000461974;0.000182754;-1.47403;-0.678411;0.000281394;0.000243672;-0.208815;-4.78893;102.547;147.547;-0.00432214;-0.00033429;0.00212959;-0.00177988;-0.000227974;0.00277727;0.00921488;0;0.0227853;-0.0110679;0.148778
175000;176;25.7475;0.0015868;6.16331e-05;-2.71781;25.5779;-1.14662;-0.0485993;-0.0138551;-0.260128;-0.0918825;-1.32926;-0.230689;1.35225;-5.21673;-1.5557e-05;0.00043983;0.000445393;0.000711476;-0.000281639;0.000496558;0.0349286;28.6298;0.000591006;0.000662077;2.52619;0.395852;98.3399;143.34;-0.00170241;-1.56858e-05;0.00155174;-0.000671571;0.000444287;-0.00234145;0.00970146;0;0.0438067;-0.130726;-1.3126;-0.492976;1.4082;-6.36186;-0.000371579;0.000158366;-0.000109515;-3.50005e-05;-0.000446093;0.000205546;-3.39296;-0.294728;0.000286442;0.000274062;-0.07846;-12.7453;113.572;158.572;-0.00476374;-0.000372921;0.00196311;-0.0016459;-0.000111429;0.00269138;0.00736879;0;0.025254;-0.0111193;0.156833
176000;177;25.7469;0.00103186;4.00786e-05;-2.71597;25.5774;-1.1491;-0.0467574;-0.0143295;-0.26261;-0.0921994;-1.3296;-0.231007;1.35267;-5.21705;-7.88025e-05;0.000114521;0.0004073;0.000432928;-0.000104431;0.00026868;0.193475;5.16862;0.000329001;0.00035824;4.14559;0.24122;118.406;163.406;-0.00190049;-7.93632e-05;0.00129472;-0.0010651;0.000406469;-0.00288443;0.0096511;0;0.0408067;-0.131079;-1.31284;-0.493721;1.40872;-6.3626;-0.000343063;8.69619e-05;-0.000137507;-0.000105654;-0.000374917;0.000134632;-2.49487;-0.400823;0.000223223;0.000179509;-0.281806;-3.54854;118.442;163.442;-0.00407701;-0.000344719;0.00199607;-0.00182175;-0.000139496;0.000619133;0.00752574;0;0.022582;-0.0108926;0.169071
177000;178;25.747;0.00112304;4.36203e-05;-2.71724;25.5774;-1.15021;-0.0480298;-0.014423;-0.263725;-0.0927927;-1.3321;-0.229233;1.35486;-5.21528;3.70689e-05;0.000320093;0.000472532;0.000641927;-0.000132325;0.000387126;-0.0784474;-12.7474;0.000478202;0.000516168;4.85112;0.206138;101.401;146.401;-0.00165529;3.66736e-05;0.00158577;-0.000945034;0.000471327;-0.00235953;0.0104047;0;0.0365789;-0.13187;-1.31524;-0.492159;1.41048;-6.36104;-0.000210625;-4.73611e-05;-0.00019069;-0.000152259;-0.000249056;4.83985e-05;-1.10454;-0.905356;0.000144976;6.45313e-05;-0.611345;-1.63574;177.449;42.449;-0.00406079;-0.000212107;0.00162766;-0.00172235;-0.000192014;0.000547682;0.00899006;0;0.0213415;-0.0108446;0.17012
178000;179;25.745;-0.00084589;-3.28554e-05;-2.71767;25.5751;-1.15568;-0.0484518;-0.0166964;-0.269195;-0.0925722;-1.33129;-0.232139;1.35455;-5.21818;-3.78173e-05;0.000452275;0.00046814;0.000733381;-0.000303058;0.000518219;0.080782;12.379;0.00061534;0.000690959;2.41994;0.413234;99.2419;144.242;-0.00167317;-3.79502e-05;0.00159096;-0.000685833;0.000466978;-0.00286536;0.0118751;0;0.0421649;-0.13209;-1.31403;-0.497121;1.41111;-6.366;-0.000341396;2.91997e-05;-8.35724e-05;-8.03068e-05;-0.000344661;0.000132177;-4.08503;-0.244796;0.000208233;0.000176236;-0.233002;-4.29181;131.964;176.964;-0.00416589;-0.000342958;0.00182636;-0.0017675;-8.524e-05;0.00164138;0.00743335;0;0.0235142;-0.0106499;0.176882
179000;180;25.746;9.84717e-05;3.82476e-06;-2.71833;25.5761;-1.15246;-0.0491191;-0.0156712;-0.265972;-0.0915303;-1.33166;-0.22933;1.35436;-5.21538;-1.56212e-05;0.000453867;0.000581257;0.000826013;-0.000260378;0.000543195;0.0268749;37.2094;0.000654954;0.000724261;3.17237;0.315222;100.126;145.126;-0.00167221;-1.58125e-05;0.00167562;-0.000767156;0.000579957;-0.00280382;0.0105817;0;0.0463934;-0.131629;-1.31386;-0.492036;1.40913;-6.36092;-0.000263852;0.000116732;-5.61792e-05;-3.78357e-06;-0.000316248;0.000156232;-4.69662;-0.212919;0.000209582;0.000208309;;;113.005;158.005;-0.00491444;-0.000265757;0.00218881;-0.00195491;-5.8568e-05;0.00350414;0.00655513;0;0.0219338;-0.0107056;0.184852
180000;181;25.7468;0.000906202;3.5198e-05;-2.71882;25.5771;-1.14638;-0.0496009;-0.0146363;-0.259895;-0.0916691;-1.33093;-0.23102;1.35394;-5.21707;-9.8505e-05;0.000379109;0.000148425;0.000423666;-0.000373747;0.000398707;0.663671;1.50677;0.000460687;0.000531609;1.13357;0.882172;98.4494;143.449;-0.00210059;-9.88537e-05;0.00167564;-0.000917101;0.000147093;-0.00192243;0.0100594;0;0.0452616;-0.131431;-1.31384;-0.492784;1.40936;-6.36167;-0.000108075;4.11719e-05;-7.37246e-05;-4.62891e-05;-0.000135511;4.46107e-05;-1.46593;-0.682162;7.95351e-05;5.9481e-05;-0.34159;-2.92748;102.948;147.948;-0.00379477;-0.000109255;0.00161888;-0.00153648;-7.50343e-05;0.00132579;0.00759234;0;0.0240133;-0.0106062;0.192148
181000;182;25.747;0.00117436;4.56134e-05;-2.7177;25.5774;-1.1493;-0.0484891;-0.014379;-0.262811;-0.0918272;-1.3298;-0.232121;1.35303;-5.21817;2.26226e-06;0.000486277;0.000161399;0.000574574;-0.000410913;0.000492744;;;0.000571581;0.000656992;1.39829;0.715161;92.6773;137.677;-0.00151354;2.12642e-06;0.00168558;-0.000712834;0.000160096;-0.00281653;0.0109659;0;0.0359374;-0.132038;-1.31282;-0.493289;1.40864;-6.36217;-0.00033586;5.44676e-06;7.65474e-06;7.74108e-06;-0.000335946;0.000171844;;;0.000226589;0.000229125;;;136.516;1.51649;-0.00414521;-0.000337678;0.00191817;-0.00190662;5.81508e-06;0.00120746;0.00862415;0;0.0230607;-0.0105472;0.200137
182000;183;25.7476;0.00172337;6.69378e-05;-2.71917;25.5782;-1.14059;-0.0499589;-0.0135926;-0.2541;-0.091788;-1.33027;-0.230201;1.35316;-5.21625;-6.40434e-05;0.00031589;7.87274e-05;0.000331197;-0.000316513;0.000323855;0.813483;1.22928;0.000373988;0.000431807;1.04639;0.955664;96.1665;141.167;-0.00150679;-6.43353e-05;0.00145871;-0.00082677;7.77135e-05;-0.0026996;0.0102115;0;0.0420399;-0.131897;-1.31391;-0.48802;1.40781;-6.3569;-0.000186216;0.000114754;-0.000175761;-6.61158e-05;-0.000295861;0.000114873;-1.05948;-0.943856;0.000179312;0.000153164;-0.223469;-4.47489;94.2647;139.265;-0.00383724;-0.000187515;0.00184507;-0.00161555;-0.000177457;-0.000462601;0.00742058;0;0.0235543;-0.0107517;0.206911
183000;184;25.7475;0.00163052;6.33311e-05;-2.7187;25.5781;-1.14193;-0.049488;-0.0136959;-0.255441;-0.0920989;-1.32913;-0.230355;1.35208;-5.2164;-0.000109639;0.000223821;0.000239083;0.000348443;-0.000218999;0.000283721;0.458582;2.18064;0.000330442;0.000378295;1.59107;0.628508;107.393;152.393;-0.00185156;-0.000110086;0.00141916;-0.0009711;0.000238101;-0.00195731;0.0108151;0;0.044756;-0.132369;-1.31252;-0.489196;1.40697;-6.35808;-0.000196325;-1.52251e-05;-5.49636e-05;-5.33424e-05;-0.000197946;7.2302e-05;-3.57191;-0.279962;0.000118264;9.64027e-05;-0.269479;-3.71086;142.942;7.942;-0.0043939;-0.00019816;0.00188533;-0.00191551;-5.67408e-05;0.0012799;0.00876008;0;0.0247612;-0.010356;0.214158
184000;185;25.7474;0.0015493;6.01766e-05;-2.71865;25.5781;-1.13937;-0.0494372;-0.0136581;-0.252881;-0.0907513;-1.33106;-0.227261;1.35337;-5.21331;-7.3707e-05;0.000449116;0.000293382;0.000595011;-0.000375336;0.000485174;0.251232;3.98038;0.000564995;0.000646898;1.58527;0.630806;98.4378;143.438;-0.00151896;-7.38729e-05;0.00162905;-0.000730383;0.000292156;-0.00366065;0.0102282;0;0.0471351;-0.130982;-1.31437;-0.484532;1.40695;-6.35341;-0.000126569;0.00015728;-0.000145912;2.13364e-05;-0.000293817;0.000157577;-0.867434;-1.15283;0.000203363;0.000210102;0.072618;13.7707;90.4476;135.448;-0.00432498;-0.000127817;0.00190229;-0.00158776;-0.000147709;0.000967183;0.00706456;0;0.0264081;-0.0102734;0.216214
185000;186;25.7461;0.000229833;8.927e-06;-2.71908;25.5766;-1.14299;-0.0498641;-0.0151931;-0.256499;-0.0927107;-1.33064;-0.226229;1.35291;-5.21227;-8.68066e-05;0.00039192;0.000184475;0.000463563;-0.000365894;0.000414729;0.470559;2.12513;0.000479993;0.000552971;1.26693;0.789309;98.3007;143.301;-0.00167236;-8.70083e-05;0.0015305;-0.00074635;0.000183381;-0.00189064;0.00973166;0;0.045105;-0.133206;-1.31374;-0.483246;1.40613;-6.35213;-0.000286626;0.000175222;-0.000226903;-7.90165e-05;-0.000434513;0.000177748;-1.26321;-0.791634;0.000267259;0.000236998;-0.181851;-5.49902;98.4518;143.452;-0.00418867;-0.000288289;0.00218225;-0.00183168;-0.000229269;0.000413058;0.00747733;0;0.0258453;-0.0106386;0.229175
186000;187;25.748;0.0021436;8.326e-05;-2.71876;25.5787;-1.1391;-0.0495419;-0.0130591;-0.252615;-0.0912228;-1.32889;-0.229675;1.35167;-5.21572;-0.000243675;5.71263e-05;0.000316997;0.000322759;-0.000249437;0.000286098;0.768698;1.3009;0.00033126;0.000381464;1.29395;0.772827;128.379;173.379;-0.0017247;-0.000244378;0.00130164;-0.00118669;0.000316152;-0.00219117;0.0102231;0;0.0336166;-0.131668;-1.31166;-0.487123;1.40537;-6.356;-0.000135152;0.000240117;-0.000146013;9.95956e-05;-0.00038076;0.000240178;-0.925613;-1.08036;0.000292742;0.000320237;0.26157;3.82307;91.2731;136.273;-0.0038395;-0.000136782;0.00230162;-0.00182141;-0.000148633;0.000747073;0.00832023;0;0.0222067;-0.0105267;0.235352
187000;188;25.7498;0.00396788;0.000154117;-2.71973;25.5806;-1.13665;-0.0505139;-0.011217;-0.250163;-0.0915217;-1.32758;-0.227515;1.35004;-5.21356;3.01636e-05;0.00037119;0.000979345;0.00110726;-9.77559e-05;0.00060251;-0.0307998;-32.4677;0.000772825;0.000803347;11.3268;0.0882859;104.768;149.768;-0.00123953;2.98686e-05;0.00159672;-0.000853177;0.00097814;-0.00352088;0.00963452;0;0.0366137;-0.13237;-1.31175;-0.484152;1.4045;-6.35303;-0.000196288;0.000168065;-2.78033e-05;7.59512e-05;-0.000300042;0.000187997;-7.05987;-0.141646;0.000229572;0.000250662;0.253135;3.95046;104.925;149.925;-0.00392673;-0.000197865;0.00212068;-0.00178422;-3.00378e-05;-0.000216163;0.00759705;0;0.022962;-0.0104658;0.236519
188000;189;25.7474;0.00151442;5.88218e-05;-2.71844;25.5782;-1.13632;-0.0492288;-0.0135353;-0.249829;-0.0917923;-1.32891;-0.227553;1.35138;-5.2136;-1.01552e-05;0.000342825;0.000684013;0.000824778;-0.00015092;0.000487849;0.0148464;67.3562;0.000606451;0.000650465;5.465;0.182982;105.169;150.169;-0.00153985;-1.05162e-05;0.00160277;-0.000916246;0.000682789;-0.00303112;0.0100648;0;0.0412922;-0.132468;-1.31276;-0.481964;1.40469;-6.35085;-0.000279482;0.000186902;-4.8572e-05;5.56598e-05;-0.000383714;0.000219687;-5.75397;-0.173793;0.000276238;0.000292916;0.145056;6.89391;108.324;153.324;-0.00407252;-0.00028089;0.00206264;-0.0016884;-5.06819e-05;6.62316e-06;0.00739239;0;0.0273505;-0.010785;0.245595
189000;190;25.7471;0.00119505;4.64171e-05;-2.71822;25.5777;-1.14139;-0.0490054;-0.0140588;-0.254901;-0.0926842;-1.32944;-0.22828;1.35207;-5.21433;-9.60835e-05;0.000281743;0.000128432;0.000319458;-0.00028711;0.000303284;0.74813;1.33667;0.000350368;0.000404378;1.11267;0.898741;100.446;145.446;-0.00213059;-9.64291e-05;0.00144153;-0.000877788;0.000127432;-0.00237224;0.0102917;0;0.0387221;-0.133607;-1.31299;-0.48294;1.40536;-6.35182;-0.000203117;6.66228e-05;-9.63643e-05;-6.4373e-05;-0.000235108;8.53677e-05;-2.10781;-0.474427;0.000140294;0.000113824;-0.273801;-3.65228;112.023;157.023;-0.00368091;-0.000204271;0.00165371;-0.00152029;-9.77295e-05;0.000197408;0.00904483;0;0.0230543;-0.010506;0.251663
190000;191;25.7485;0.00264389;0.000102692;-2.71908;25.5794;-1.1348;-0.0498635;-0.0123984;-0.248311;-0.0919875;-1.32841;-0.229932;1.3513;-5.21598;-0.000154546;0.000363361;0.000523684;0.00068159;-0.000312453;0.000497022;0.295114;3.38852;0.000586953;0.000662696;2.18142;0.458418;106.873;151.873;-0.00206495;-0.000154777;0.00149783;-0.00077034;0.000522629;-0.00327681;0.00960774;0;0.0405739;-0.132968;-1.31188;-0.486026;1.40532;-6.35491;-2.09438e-05;0.000140476;-0.000107264;8.28526e-05;-0.00021106;0.000146956;-0.195255;-5.1215;0.000174989;0.000195942;0.392555;2.54742;82.4367;127.437;-0.00388045;-2.23632e-05;0.00197147;-0.00169068;-0.000109197;-0.000762894;0.00766394;0;0.024959;-0.0103209;0.259161
191000;192;25.7479;0.00201769;7.83694e-05;-2.7204;25.5784;-1.13898;-0.0511888;-0.0133555;-0.252492;-0.0911727;-1.32754;-0.23256;1.35083;-5.21861;7.24101e-05;0.000436165;0.000572114;0.000824921;-0.000180397;0.000502659;-0.126566;-7.90102;0.000618906;0.000670212;4.57282;0.218683;97.3001;142.3;-0.00198649;7.22224e-05;0.0016251;-0.00075218;0.000570889;-0.00326122;0.00872498;0;0.0388114;-0.132526;-1.31113;-0.487932;1.40524;-6.35681;-3.83509e-05;9.75563e-05;4.79506e-05;0.000111473;-0.000101874;0.000106673;0.799802;1.25031;0.000123217;0.000142231;1.09423;0.913884;101.814;146.814;-0.00401279;-3.92546e-05;0.00154309;-0.00134786;4.67648e-05;0.000609443;0.00684452;0;0.0237239;-0.0102763;0.266319
192000;193;25.7471;0.00124949;4.85317e-05;-2.71829;25.5778;-1.1417;-0.0490737;-0.0140252;-0.255212;-0.0914841;-1.32628;-0.236254;1.35026;-5.2223;1.0574e-05;0.000430481;0.000584394;0.000814815;-0.000219847;0.000517331;-0.0180939;-55.2672;0.000629424;0.000689775;3.70628;0.269812;99.3173;144.317;-0.00154362;1.04366e-05;0.00153991;-0.000678314;0.000583302;-0.00303617;0.0103933;0;0.0408381;-0.1323;-1.31011;-0.49142;1.40548;-6.3603;-0.000138978;8.67804e-05;-7.97227e-05;-1.76517e-05;-0.000201049;9.16985e-05;-1.74327;-0.573636;0.000128553;0.000122265;-0.0877979;-11.3898;101.019;146.019;-0.00386845;-0.000140673;0.00201697;-0.00184329;-8.17531e-05;0.000827359;0.00902066;0;0.0239029;-0.0105039;0.273399
193000;194;25.7474;0.001565;6.07863e-05;-2.71865;25.5782;-1.13821;-0.0494381;-0.013591;-0.251728;-0.0906035;-1.32699;-0.233013;1.35033;-5.21906;-0.000124473;0.000419934;0.000548844;0.000750408;-0.000326037;0.000538222;0.226791;4.40934;0.000637381;0.00071763;2.3016;0.43448;104.455;149.455;-0.00150144;-0.000124714;0.00165227;-0.00081157;0.000547568;-0.00304794;0.00964973;0;0.0433236;-0.131717;-1.31077;-0.486859;1.40446;-6.35574;-0.000117769;0.000142072;-2.24638e-05;7.97345e-05;-0.000219967;0.000149851;-5.2426;-0.190745;0.000179236;0.000199801;0.362484;2.75874;100.368;145.368;-0.00380324;-0.000119114;0.0019304;-0.00164609;-2.4317e-05;-3.30959e-05;0.00978233;0;0.0258846;-0.0107066;0.28001
194000;195;25.7475;0.00167921;6.52224e-05;-2.71934;25.5783;-1.13626;-0.0501298;-0.0134626;-0.249771;-0.0916162;-1.32667;-0.234372;1.35033;-5.22042;5.40764e-05;0.000301908;0.000570071;0.000709202;-8.50549e-05;0.000397129;-0.094859;-10.542;0.000503553;0.000529505;8.33817;0.11993;103.37;148.37;-0.00202777;5.36474e-05;0.00157876;-0.000974285;0.000568871;-0.00145919;0.00943659;0;0.0454593;-0.132998;-1.31104;-0.486479;1.4047;-6.35536;-0.000179417;1.61925e-05;-0.000143009;-0.00013685;-0.000185577;2.43636e-05;-1.25459;-0.797076;0.000111096;3.24848e-05;-0.737428;-1.35606;117.136;162.136;-0.00409306;-0.000180581;0.0015579;-0.00152546;-0.000144223;-6.77595e-05;0.00828087;0;0.0288529;-0.0104711;0.283989
195000;196;25.749;0.00314648;0.000122213;-2.71917;25.58;-1.13294;-0.0499583;-0.0118202;-0.246452;-0.0903261;-1.32709;-0.230399;1.34997;-5.21644;-0.000141075;0.000235106;0.000476361;0.000555692;-0.000220406;0.000388049;0.296152;3.37665;0.000461808;0.000517398;2.52122;0.396633;112.258;157.258;-0.00194494;-0.000141484;0.00140474;-0.000933802;0.000475402;-0.00350849;0.0105071;0;0.0424235;-0.131405;-1.31086;-0.484253;1.40361;-6.35313;-0.000232836;0.000150819;-0.00011681;-1.3231e-05;-0.000336415;0.000161592;-1.99328;-0.501687;0.000219999;0.000215456;-0.0393295;-25.4262;103.294;148.294;-0.00383846;-0.000234156;0.00193397;-0.00163212;-0.000118669;-1.41163e-05;0.00818376;0;0.0270532;-0.0103044;0.294991
196000;197;25.7499;0.0040317;0.000156596;-2.72065;25.5809;-1.12835;-0.0514319;-0.0108829;-0.241862;-0.0918607;-1.32619;-0.232585;1.34956;-5.21863;5.80866e-05;0.000306645;0.000846389;0.000951624;-4.71482e-05;0.000499386;-0.0686288;-14.5712;0.000650702;0.000665848;20.1837;0.049545;106.47;151.47;-0.00149518;5.76375e-05;0.00161047;-0.000996154;0.00084514;-0.0024231;0.00946547;0;0.0325359;-0.133136;-1.31017;-0.486724;1.40399;-6.35561;-0.000307883;7.71394e-05;-0.000145474;-0.000114675;-0.000338682;0.000112003;-2.11642;-0.472496;0.000198905;0.000149338;-0.338593;-2.9534;116.643;161.643;-0.00347445;-0.000309509;0.00195893;-0.00180434;-0.00014739;-0.00034549;0.00872925;0;0.0232408;-0.0103079;0.299352
197000;198;25.7495;0.00368362;0.000143076;-2.71883;25.5805;-1.13291;-0.0496107;-0.0112412;-0.246421;-0.0913203;-1.32542;-0.235969;1.34936;-5.22201;-3.69163e-05;0.000372616;0.000608185;0.000778465;-0.000207196;0.00049283;0.0606991;16.4747;0.000600086;0.000657107;3.75714;0.26616;103.773;148.773;-0.00172313;-3.71959e-05;0.00158144;-0.00083543;0.000607005;-0.00236351;0.0109757;0;0.0347472;-0.132542;-1.30962;-0.490089;1.40459;-6.35897;-0.000133532;6.32818e-05;3.65173e-05;5.74822e-05;-0.000154497;0.000105989;3.65667;0.273473;0.000126586;0.000141319;0.372062;2.68773;117.385;162.385;-0.00376841;-0.000135169;0.00193758;-0.0018107;3.46423e-05;-0.000580179;0.00735119;0;0.0232008;-0.0103699;0.302475
198000;199;25.7492;0.00330043;0.000128193;-2.71941;25.5801;-1.13237;-0.0501952;-0.011665;-0.245878;-0.091543;-1.32582;-0.233129;1.34927;-5.21917;3.53822e-06;0.000313355;0.000564831;0.000704843;-0.000136474;0.000420659;;;0.000521375;0.000560878;5.16467;0.193623;103.989;148.989;-0.000945544;3.23428e-06;0.00146764;-0.000840281;0.000563804;-0.00361719;0.00903788;0;0.0345591;-0.133226;-1.31063;-0.484318;1.40359;-6.3532;-0.000132761;-8.72579e-06;-7.55549e-05;-7.42535e-05;-0.000134062;2.99042e-05;-1.75714;-0.569106;7.75503e-05;3.98723e-05;-0.553875;-1.80546;145.24;10.2404;-0.00410964;-0.000134174;0.00166382;-0.00168118;-7.69391e-05;0.000253989;0.00723565;0;0.0236065;-0.0102889;0.317133
199000;200;25.7471;0.00128167;4.97815e-05;-2.72012;25.5778;-1.13796;-0.050908;-0.0140212;-0.251474;-0.0924655;-1.32811;-0.226992;1.35054;-5.21304;-3.20933e-05;0.000331115;0.000456333;0.000623553;-0.000199313;0.000411433;0.0703287;14.2189;0.000495682;0.000548577;3.12851;0.319641;103.69;148.69;-0.00162247;-3.25476e-05;0.00167189;-0.00100901;0.000454991;-0.00214925;0.01107;0;0.0363042;-0.133608;-1.31155;-0.480772;1.40327;-6.34965;-0.000141541;0.000118883;-0.000124095;-1.36152e-05;-0.000252021;0.000119203;-1.14058;-0.876745;0.000163664;0.000158937;-0.0540241;-18.5102;94.2782;139.278;-0.00430006;-0.000142819;0.00184123;-0.00160343;-0.000125784;0.000705302;0.00684365;0;0.0252667;-0.0104262;0.31755
200000;201;25.7482;0.00230948;8.9703e-05;-2.71922;25.5788;-1.13905;-0.0500096;-0.0129394;-0.252559;-0.0918709;-1.32698;-0.231108;1.35009;-5.21715;9.27713e-05;0.00028147;0.000752625;0.000856377;-1.09807e-05;0.000433679;-0.123264;-8.11269;0.000574613;0.000578238;77.989;0.0128223;105.65;150.65;-0.00226391;9.23066e-05;0.00156816;-0.00100437;0.000751435;-0.000954431;0.0102356;0;0.0346833;-0.132821;-1.31151;-0.484796;1.40454;-6.35368;-0.000146622;7.96336e-05;-7.29502e-05;-2.20457e-05;-0.000197527;8.77406e-05;-2.00989;-0.497539;0.000124986;0.000116987;-0.111609;-8.95989;104.161;149.161;-0.00417697;-0.000148049;0.00185022;-0.00169082;-7.46588e-05;0.00147945;0.0070867;0;0.0246341;-0.0104647;0.324257
201000;202;25.7477;0.00182883;7.10338e-05;-2.71986;25.5784;-1.13728;-0.0506483;-0.0134126;-0.250794;-0.091636;-1.32778;-0.229691;1.35061;-5.21574;-9.96396e-05;0.00025067;0.000514533;0.000603852;-0.000188959;0.000396405;0.193651;5.16394;0.000478166;0.00052854;3.19568;0.312922;110.8;155.8;-0.00212899;-0.000100148;0.00154083;-0.0010387;0.000513378;-0.00189961;0.0109969;0;0.040793;-0.132726;-1.31119;-0.483168;1.40367;-6.35205;-0.000236655;0.000159937;-0.000173599;-4.21124e-05;-0.000368142;0.000163015;-1.36323;-0.733553;0.000232665;0.000217353;-0.114392;-8.74189;98.3896;143.39;-0.0041689;-0.000238447;0.00221973;-0.00189973;-0.000176051;0.000922428;0.00667554;0;0.0289311;-0.0107137;0.331707
202000;203;25.7478;0.00193846;7.52923e-05;-2.71995;25.5787;-1.1329;-0.0507385;-0.0131172;-0.246409;-0.0912398;-1.3273;-0.230008;1.35017;-5.21605;-6.54479e-05;0.000479928;0.000564289;0.000823418;-0.000324577;0.000573997;0.115983;8.62195;0.000683335;0.00076533;2.5369;0.394182;100.435;145.435;-0.00150902;-6.55489e-05;0.0016181;-0.000657527;0.000563095;-0.00319134;0.010376;0;0.0437454;-0.132439;-1.31133;-0.483519;1.40389;-6.3524;-0.000153922;0.000103214;-0.000171995;-5.93492e-05;-0.000266567;0.000103609;-0.894921;-1.11742;0.000161603;0.000138145;-0.222643;-4.4915;89.9186;134.919;-0.00411117;-0.000155535;0.00200573;-0.00179934;-0.000174001;0.000239896;0.00828072;0;0.0253739;-0.0103573;0.338738
203000;204;25.7483;0.00245138;9.52146e-05;-2.72019;25.579;-1.13628;-0.0509738;-0.0127762;-0.249797;-0.0916791;-1.32654;-0.23137;1.34968;-5.21742;7.35009e-05;0.000407577;0.000258354;0.000583853;-0.000251998;0.000417925;-0.284497;-3.51498;0.000495095;0.000557234;2.3169;0.431612;92.2581;137.258;-0.00226456;7.33103e-05;0.00155528;-0.000739913;0.000257228;-0.00213327;0.0103087;0;0.0360565;-0.132933;-1.31056;-0.484389;1.40352;-6.35327;-0.000214174;0.000119109;-5.27109e-05;1.0448e-05;-0.000277333;0.00014389;-4.06318;-0.246113;0.000188468;0.000191854;0.0376733;26.544;109.39;154.39;-0.00347639;-0.000215298;0.0017429;-0.00150443;-5.42227e-05;-0.000374649;0.0084462;0;0.0232622;-0.0101591;0.346489
204000;205;25.7482;0.00236016;9.16714e-05;-2.72131;25.579;-1.13198;-0.052097;-0.0127967;-0.245492;-0.0909145;-1.32527;-0.23544;1.34909;-5.22149;2.65409e-05;0.00032216;0.00055158;0.000704637;-0.000126516;0.000415577;-0.0481179;-20.7823;0.000517115;0.000554102;5.56955;0.179548;103.162;148.162;-0.00135258;2.6143e-05;0.00159347;-0.00094848;0.000550363;-0.00245315;0.0100016;0;0.0410615;-0.132388;-1.30979;-0.486703;1.40355;-6.35558;-0.00023626;5.64383e-05;-4.5538e-05;-3.00884e-05;-0.00025171;0.000110811;-5.1882;-0.192745;0.000158731;0.000147748;-0.119536;-8.36569;121.784;166.784;-0.00348089;-0.000237958;0.00195682;-0.00184358;-4.74511e-05;-0.000644363;0.00842584;0;0.0262556;-0.0104666;0.353724
205000;206;25.7479;0.0019917;7.73599e-05;-2.72059;25.5784;-1.13945;-0.0513744;-0.0134224;-0.252964;-0.0907457;-1.3255;-0.236642;1.34952;-5.22269;-5.68646e-05;0.000182636;0.000401715;0.000465563;-0.000120713;0.000293138;0.141555;7.06441;0.000357472;0.00039085;3.85679;0.259283;111.588;156.588;-0.00159834;-5.7354e-05;0.00137191;-0.00100609;0.000400791;-0.00319204;0.0117076;0;0.0446495;-0.13214;-1.30954;-0.489763;1.40436;-6.35864;-0.000112931;6.88599e-05;-4.94297e-05;-5.35308e-06;-0.000157008;7.58273e-05;-2.28468;-0.437698;0.000102934;0.000101103;;;103.675;148.675;-0.00382382;-0.000114353;0.0018254;-0.00168757;-5.10935e-05;-3.76418e-05;0.00727745;0;0.0289207;-0.0103412;0.361246
206000;207;25.7498;0.00398087;0.000154622;-2.7194;25.5808;-1.13137;-0.0501887;-0.0109353;-0.244882;-0.0906698;-1.32517;-0.236748;1.3492;-5.22279;5.67202e-05;0.00019391;-0.000183329;0.000164746;-0.000291354;0.00022805;0.30939;3.23216;0.00026669;0.000304067;0.565448;1.76851;75.7147;120.715;-0.00185923;5.63046e-05;0.00131969;-0.000932136;-0.000184181;-0.00163015;0.0104607;0;0.0451629;-0.132135;-1.30968;-0.489133;1.40427;-6.35801;-8.59706e-05;8.98618e-05;-5.71582e-05;1.94448e-05;-0.000162574;9.10092e-05;-1.50408;-0.664858;0.000115411;0.000121346;0.119606;8.36076;95.674;140.674;-0.00417711;-8.74092e-05;0.00187836;-0.00169859;-5.89184e-05;0.000417705;0.00664048;0;0.0300672;-0.0104402;0.362401
207000;208;25.7479;0.0020672;8.02923e-05;-2.71935;25.5787;-1.1369;-0.0501336;-0.0131009;-0.25041;-0.0910102;-1.3265;-0.232947;1.34987;-5.21899;2.05464e-05;0.000238137;0.000324175;0.000454773;-0.000110051;0.000282412;-0.0633805;-15.7777;0.000345754;0.000376549;4.13236;0.241992;102.246;147.246;-0.00197008;2.0085e-05;0.00146628;-0.000989636;0.000323129;-0.00305457;0.00992442;0;0.0455388;-0.132134;-1.31026;-0.485583;1.40358;-6.35446;-0.000187092;7.03826e-05;-1.6308e-05;8.95943e-06;-0.000212359;0.000110659;-11.4724;-0.0871659;0.000144652;0.000147546;;;116.802;161.802;-0.00410288;-0.000188666;0.00191664;-0.00177556;-1.81423e-05;0.000797901;0.00727599;0;0.0323618;-0.010621;0.372473
208000;209;25.748;0.00214564;8.33393e-05;-2.72016;25.5787;-1.13532;-0.0509439;-0.0130379;-0.248832;-0.09127;-1.32549;-0.233986;1.34908;-5.22003;-6.97797e-05;0.000341406;0.000669275;0.000802847;-0.000203351;0.000503099;0.104262;9.59126;0.000614338;0.000670799;3.94808;0.253288;106.104;151.104;-0.00204649;-7.00218e-05;0.00145864;-0.000775003;0.00066827;-0.00194184;0.00897002;0;0.037897;-0.132739;-1.30945;-0.487549;1.40356;-6.35643;-0.00018352;0.000192096;5.93788e-06;0.000125392;-0.000302975;0.000214183;;;0.000254303;0.000285578;0.41387;2.41622;104.494;149.494;-0.00370645;-0.000184829;0.0020138;-0.00162926;3.92865e-06;-0.000176038;0.00894215;0;0.0249615;-0.0106179;0.382471
209000;210;25.7481;0.00220254;8.55494e-05;-2.72026;25.5787;-1.13733;-0.051046;-0.0130809;-0.250844;-0.0910429;-1.3249;-0.233834;1.34845;-5.21988;5.49386e-05;0.000412555;0.000373498;0.000656453;-0.000228016;0.000442234;-0.147092;-6.79846;0.000530242;0.000589646;2.87897;0.347346;95.3595;140.359;-0.00163696;5.47354e-05;0.00158487;-0.000759392;0.000372327;-0.00398854;0.00911494;0;0.0365344;-0.132488;-1.30899;-0.486871;1.40287;-6.35575;-0.000193366;3.466e-05;-6.38883e-05;-5.51939e-05;-0.00020206;7.34333e-05;-3.02663;-0.330401;0.000120595;9.7911e-05;-0.273156;-3.66092;123.068;168.068;-0.00371132;-0.000194738;0.00172639;-0.00165685;-6.5378e-05;3.16522e-05;0.00652618;0;0.0238239;-0.0105077;0.38284
210000;211;25.7484;0.00248533;9.6533e-05;-2.71957;25.5791;-1.13577;-0.0503522;-0.012653;-0.24928;-0.0908382;-1.32545;-0.234816;1.34915;-5.22086;3.19227e-05;0.000334141;0.00040485;0.000601034;-0.000164261;0.000382647;-0.0788505;-12.6822;0.000465212;0.000510196;3.65902;0.273297;99.1283;144.128;-0.00152962;3.16564e-05;0.00147131;-0.000802609;0.000403824;-0.00370634;0.0103596;0;0.0402102;-0.131767;-1.30978;-0.489826;1.40457;-6.35871;-7.54237e-05;9.92143e-05;-0.000146151;-5.45908e-06;-0.000216116;0.000105328;-0.516066;-1.93774;0.000142292;0.000140438;;;81.8811;126.881;-0.00446648;-7.69457e-05;0.00194579;-0.00174749;-0.00014804;0.000905874;0.00533391;0;0.0231435;-0.0105539;0.390049
211000;212;25.7496;0.00372513;0.000144688;-2.7187;25.5807;-1.13027;-0.0494858;-0.0110694;-0.243783;-0.0908723;-1.32472;-0.2343;1.34835;-5.22035;-1.90023e-05;0.000524179;0.000886013;0.00112598;-0.000258974;0.000692479;0.021447;46.6266;0.000850231;0.000923305;4.34787;0.229998;100.956;145.956;-0.00212794;-1.91424e-05;0.00179451;-0.000744999;0.000884541;-0.00220379;0.00917584;0;0.0359323;-0.132433;-1.30919;-0.487295;1.40321;-6.35618;-0.000203051;0.000137652;-3.98689e-05;3.85562e-05;-0.000281476;0.000160016;-5.09296;-0.196349;0.000201735;0.000213355;0.136979;7.30042;107.178;152.178;-0.00358289;-0.000204511;0.00198965;-0.00171404;-4.18389e-05;-0.00090815;0.00704121;0;0.0237104;-0.0104061;0.398766
212000;213;25.7475;0.00165571;6.43099e-05;-2.71945;25.5782;-1.13743;-0.0502317;-0.0135493;-0.250945;-0.0908241;-1.32688;-0.230023;1.34973;-5.21607;-8.69267e-07;0.000355257;0.000444097;0.000640787;-0.00019756;0.000419173;;;0.000506066;0.000558898;3.24351;0.308308;101.087;146.087;-0.0014722;-1.23062e-06;0.00163244;-0.00092136;0.000442828;-0.00200824;0.00994288;0;0.0337242;-0.132228;-1.31043;-0.48312;1.40289;-6.352;-0.000291603;0.000172862;2.48541e-05;0.00010097;-0.000367719;0.000234345;11.7326;0.0852324;0.000284832;0.00031246;0.274585;3.64186;113.163;158.163;-0.00379174;-0.000293168;0.00212335;-0.00177701;2.26147e-05;-0.000486985;0.00812627;0;0.0221883;-0.0104662;0.405128
213000;214;25.749;0.00317594;0.000123357;-2.72015;25.5798;-1.13368;-0.0509372;-0.0119275;-0.247195;-0.0912747;-1.32455;-0.236307;1.34856;-5.22235;-9.83759e-05;0.00033916;0.00060095;0.000738415;-0.000235841;0.000487128;0.163701;6.10871;0.000586904;0.000649504;3.13099;0.319388;106.849;151.849;-0.00115639;-9.86616e-05;0.00150758;-0.000828441;0.000599872;-0.00439225;0.00915406;0;0.034562;-0.132538;-1.30945;-0.488379;1.40383;-6.35726;-0.000201514;7.32945e-05;-6.91506e-05;-3.65796e-05;-0.000234085;9.87527e-05;-2.91413;-0.343155;0.000145405;0.00013167;-0.156266;-6.39933;113.069;158.069;-0.00359503;-0.000203149;0.00195649;-0.00180965;-7.1062e-05;-5.49893e-05;0.00814818;0;0.0256151;-0.0102315;0.412206
214000;215;25.7497;0.00384109;0.000149193;-2.72012;25.5806;-1.1325;-0.0509035;-0.0112019;-0.246009;-0.0910639;-1.32465;-0.237306;1.34881;-5.22335;-0.000123059;0.000103895;0.000514293;0.000530802;-0.000139567;0.000335184;0.239278;4.17925;0.000408418;0.000446913;3.80319;0.262937;121.632;166.632;-0.00163206;-0.000123753;0.00139139;-0.00118278;0.000513331;-0.00370237;0.00948388;0;0.0419721;-0.132573;-1.30917;-0.490239;1.40422;-6.35912;-0.000259074;7.87202e-05;-5.97326e-05;-3.2395e-05;-0.000286411;0.000127008;-4.33723;-0.230562;0.000181111;0.000169344;-0.113106;-8.84123;118.468;163.468;-0.00380609;-0.000260422;0.00180127;-0.00164348;-6.13519e-05;0.000157955;0.00720794;0;0.0287884;-0.0105739;0.419151
215000;216;25.7472;0.00128591;4.99464e-05;-2.72037;25.5778;-1.13629;-0.0511576;-0.013969;-0.249799;-0.0908008;-1.3277;-0.231756;1.35083;-5.2178;-3.88684e-05;0.000149006;0.000583704;0.00061753;-7.26937e-05;0.000345112;0.0665893;15.0174;0.000437933;0.000460149;8.49495;0.117717;116.434;161.434;-0.00171657;-3.95632e-05;0.00148696;-0.00118811;0.000582611;-0.00187912;0.0111084;0;0.0331048;-0.132106;-1.31129;-0.484456;1.40415;-6.35334;-0.000208489;0.000151099;-0.00014917;-2.48468e-05;-0.000332813;0.000153983;-1.39766;-0.71548;0.000214074;0.000205311;-0.0746569;-13.3946;98.2718;143.272;-0.00370689;-0.000209938;0.00201112;-0.00170881;-0.000151181;0.000648507;0.00793853;0;0.0215763;-0.0104514;0.42635
216000;217;25.7474;0.00156591;6.08218e-05;-2.72037;25.5781;-1.13611;-0.0511538;-0.013679;-0.249624;-0.0919851;-1.3263;-0.233669;1.34986;-5.21971;0.00012123;0.000404829;0.000310121;0.000631376;-0.000200025;0.0004157;-0.390911;-2.55813;0.000501082;0.000554267;3.15648;0.316808;91.8945;136.895;-0.00151303;0.000120896;0.00172138;-0.000911478;0.000308722;-0.00309933;0.0103957;0;0.0396321;-0.133308;-1.31046;-0.485094;1.40371;-6.35398;-0.0002;5.00619e-05;-1.40831e-05;-1.46004e-06;-0.000212623;0.000105581;-14.2014;-0.0704158;0.000141264;0.000140775;;;122.711;167.711;-0.0036155;-0.000201236;0.0016732;-0.00157277;-1.54817e-05;-0.000299511;0.0074257;0;0.0288065;-0.0106651;0.433727
217000;218;25.7484;0.00248545;9.65379e-05;-2.71948;25.5791;-1.13595;-0.0502628;-0.0126516;-0.249465;-0.0913198;-1.32585;-0.23338;1.34933;-5.21943;-6.76969e-05;0.000146146;0.00030124;0.000352117;-0.000118574;0.000235345;0.224727;4.44984;0.000282684;0.000313794;2.96961;0.336745;113.118;158.118;-0.00217565;-6.82947e-05;0.00139588;-0.00110313;0.000300277;-0.00186139;0.00822143;0;0.0400452;-0.132664;-1.3099;-0.486702;1.40368;-6.35558;-0.000283464;0.000187324;-0.000129185;-3.73903e-06;-0.00040891;0.000202586;-2.19425;-0.455736;0.000271369;0.000270114;;;104.298;149.298;-0.00426305;-0.000284877;0.00206602;-0.00169109;-0.000131302;0.000803514;0.00589677;0;0.0282935;-0.01028;0.441289
218000;219;25.7481;0.0022301;8.66195e-05;-2.72045;25.579;-1.13056;-0.0512381;-0.0127733;-0.244071;-0.0907661;-1.32681;-0.232694;1.35011;-5.21874;-0.000106726;0.000463379;0.000314315;0.000612753;-0.000405164;0.000508958;0.339552;2.94506;0.000591754;0.000678611;1.51236;0.66122;99.8116;144.812;-0.00183438;-0.000106922;0.00170648;-0.000779202;0.000312966;-0.00211639;0.0098749;0;0.0446212;-0.132304;-1.31045;-0.485381;1.40371;-6.35426;-0.000239361;0.000180635;-4.10803e-05;6.58324e-05;-0.000346273;0.000206053;-5.82666;-0.171625;0.000255634;0.000274737;0.190117;5.25992;106.373;151.373;-0.00428362;-0.000240969;0.00216409;-0.00180243;-4.34057e-05;0.00141251;0.00667639;0;0.028093;-0.0105347;0.446903
219000;220;25.7477;0.00178498;6.93306e-05;-2.71972;25.5784;-1.13507;-0.0505082;-0.0133438;-0.248587;-0.0909694;-1.32697;-0.234383;1.35058;-5.22043;-0.000121406;0.000235323;0.000386395;0.000478677;-0.000213688;0.000346182;0.314201;3.18267;0.000409379;0.000461576;2.24008;0.446413;110.722;155.722;-0.0020402;-0.000121976;0.00156501;-0.00109369;0.000385198;-0.00228821;0.00869064;0;0.0412153;-0.132276;-1.31065;-0.487931;1.40477;-6.35681;-0.00024803;0.000163066;-0.000114477;-5.04405e-06;-0.000357463;0.000176209;-2.16664;-0.461544;0.000236645;0.000234946;;;103.911;148.911;-0.00403268;-0.000249434;0.00200948;-0.0016831;-0.000116483;-0.000135627;0.00684573;0;0.0289969;-0.0104965;0.44879
220000;221;25.7486;0.00273625;0.000106279;-2.71893;25.5795;-1.13447;-0.0497184;-0.0122754;-0.247981;-0.0907965;-1.32922;-0.231618;1.3523;-5.21766;-0.000113969;-4.67689e-05;0.000234246;0.000240418;-0.000120141;0.000180279;0.486535;2.05535;0.000211994;0.000240373;2.00113;0.499717;141.147;6.1467;-0.00198869;-0.000114838;0.00122587;-0.00131897;0.000233496;-0.00275996;0.0088688;0;0.0484651;-0.131891;-1.31271;-0.487531;1.40651;-6.35641;-0.0001569;0.000127153;-0.000146399;-2.43879e-05;-0.000278911;0.000127262;-1.07173;-0.933069;0.000178368;0.000169682;-0.0874397;-11.4365;93.5487;138.549;-0.00376589;-0.000158311;0.0019388;-0.00168447;-0.00014827;0.000781031;0.0085753;0;0.0291531;-0.00985115;0.463407
221000;222;25.7463;0.000424103;1.64727e-05;-2.71988;25.5766;-1.14492;-0.0506667;-0.0151695;-0.258437;-0.0907091;-1.33021;-0.231255;1.3532;-5.2173;-0.000174779;0.000218214;0.000373516;0.00044976;-0.000251023;0.000350391;0.467929;2.13708;0.000409985;0.000467189;1.79171;0.558127;113.426;158.426;-0.00186508;-0.000175274;0.00145559;-0.00101849;0.00037248;-0.00319685;0.00894356;0;0.0488179;-0.131801;-1.3134;-0.488998;1.40766;-6.35788;-0.000143217;0.000162799;-0.000163263;9.86774e-06;-0.000316348;0.000163108;-0.877217;-1.13997;0.000214263;0.000217477;;;90.6214;135.621;-0.00401237;-0.000144574;0.00198073;-0.00165517;-0.000165212;0.000586256;0.00726886;0;0.0282439;-0.0099334;0.464972
222000;223;25.747;0.00117547;4.56567e-05;-2.72006;25.5772;-1.14718;-0.0508403;-0.0145327;-0.260692;-0.0906648;-1.3304;-0.232486;1.3536;-5.21853;-5.61743e-05;0.000341487;0.000161127;0.000410831;-0.000305878;0.000358355;0.348633;2.86834;0.000415269;0.000477807;1.34312;0.744535;97.5897;142.59;-0.0015191;-5.65143e-05;0.00157581;-0.000892565;0.000159944;-0.00217527;0.0102454;0;0.046694;-0.13183;-1.31376;-0.491709;1.40894;-6.36059;-0.000266811;0.000111087;-0.000157212;-8.81439e-05;-0.000335879;0.000123868;-1.69714;-0.589227;0.000201084;0.000165157;-0.262427;-3.81058;106.405;151.405;-0.00423655;-0.000268283;0.0019417;-0.00171933;-0.000159091;0.00051916;0.00702773;0;0.0246598;-0.00994309;0.470579
223000;224;25.7455;-0.000382464;-1.48554e-05;-2.71983;25.5752;-1.15856;-0.0506124;-0.0165897;-0.272071;-0.0908283;-1.33236;-0.236137;1.35617;-5.22218;2.68902e-06;0.000215144;3.16452e-05;0.000232798;-0.000198464;0.000215631;;;0.000249252;0.000287508;1.173;0.852515;91.5191;136.519;-0.00196824;2.15739e-06;0.00148368;-0.00105335;3.05677e-05;-0.002637;0.011768;0;0.0375594;-0.13185;-1.31543;-0.500049;1.41343;-6.36893;-0.000253846;-7.76483e-05;-7.74245e-05;-4.81176e-05;-0.000283153;0.000117518;-3.27862;-0.305006;0.000174949;0.00015669;-0.169935;-5.8846;158.066;23.0661;-0.00440463;-0.000255917;0.00188165;-0.0020366;-7.9192e-05;0.00170374;0.00727992;0;0.0219349;-0.00908696;0.478331
224000;225;25.7459;8.5055e-05;3.30364e-06;-2.71956;25.5757;-1.15805;-0.0503415;-0.0160768;-0.271838;-0.0903233;-1.33439;-0.236052;1.35811;-5.21859;6.09298e-05;0.000310342;0.000170937;0.000431112;-0.000199245;0.000315179;-0.356447;-2.80547;0.000372053;0.000420238;2.16372;0.462166;92.72;137.72;-0.0019888;6.03277e-05;0.00176127;-0.00114043;0.000169434;-0.00320079;0.0113823;0;0.0371934;-0.131569;-1.31669;-0.501791;1.4152;-6.37067;-0.000274023;-9.70937e-05;-0.00025227;-0.000165446;-0.000360848;9.7701e-05;-1.08623;-0.920617;0.000208575;0.000130268;-0.458492;-2.18106;1.228;46.228;-0.0044051;-0.0002756;0.00158394;-0.00177809;-0.00025352;0.00247646;0.00577183;0;0.0236147;-0.00843974;0.48556
225000;226;25.7446;-0.00123519;-4.79763e-05;-2.7191;25.574;-1.16734;-0.0498869;-0.0177798;-0.281128;-0.0904541;-1.33649;-0.23559;1.36011;-5.21813;0.000122912;0.000279873;2.92182e-05;0.000359832;-0.000207702;0.000283767;-4.20668;-0.237717;0.000331567;0.000378356;1.73244;0.577219;83.7858;128.786;-0.00199176;0.000122194;0.00179037;-0.00123076;2.76547e-05;-0.00286288;0.0105469;0;0.0411574;-0.131688;-1.31915;-0.501875;1.41752;-6.37076;-6.96873e-05;-2.1719e-05;-0.000192487;-6.59591e-05;-0.000196215;6.5128e-05;-0.362036;-2.76215;0.000115294;8.68373e-05;-0.336157;-2.9748;37.2426;82.2426;-0.00511059;-7.14684e-05;0.0018438;-0.00188746;-0.000194187;0.00307907;0.00541053;0;0.0222883;-0.00818348;0.492961
226000;227;25.7449;-0.000949609;-3.68839e-05;-2.7199;25.5738;-1.17534;-0.0506821;-0.0179436;-0.289134;-0.0899816;-1.33664;-0.239508;1.36091;-5.22205;2.00401e-05;0.000342024;0.000517339;0.000691545;-0.000154166;0.000422856;-0.0387369;-25.8152;0.000520092;0.000563808;4.48571;0.22293;102.73;147.73;-0.00272976;1.94878e-05;0.00179006;-0.00110529;0.000515796;-0.000867729;0.0110582;0;0.0430051;-0.130932;-1.31872;-0.512544;1.42087;-6.38143;-0.000102157;-8.62402e-05;-0.000145877;-3.50493e-05;-0.000212984;8.89676e-05;-0.700295;-1.42797;0.000131868;0.000118623;-0.164563;-6.07672;9.1667;54.1667;-0.00562417;-0.000103759;0.00161926;-0.00179182;-0.000147184;0.0056852;0.00573435;0;0.0246865;-0.00767956;0.501563
227000;228;25.7449;-0.000991234;-3.85007e-05;-2.72005;25.5737;-1.17724;-0.0508302;-0.0180883;-0.291028;-0.090312;-1.33786;-0.241878;1.36255;-5.22442;-1.45949e-05;0.000189756;0.000194487;0.000306594;-0.000126701;0.000216647;0.075043;13.3257;0.000257249;0.000288863;2.41981;0.413255;102.751;147.751;-0.00199967;-1.55119e-05;0.00174732;-0.00136748;0.000192979;-0.00292342;0.0110392;0;0.0357939;-0.131658;-1.31964;-0.518605;1.42398;-6.38749;-0.000306594;-0.000108042;-0.000224921;-0.000150256;-0.000381259;0.000115502;-1.36312;-0.733611;0.00022176;0.000154002;-0.394104;-2.5374;174.129;39.1293;-0.00426657;-0.000308179;0.0015675;-0.00178345;-0.000226144;0.00443061;0.00617868;0;0.0369077;-0.00741472;0.508543
228000;229;25.7437;-0.00219359;-8.52017e-05;-2.71928;25.572;-1.18902;-0.0500619;-0.0197622;-0.302811;-0.0894518;-1.33951;-0.242164;1.36416;-5.2247;9.979e-05;0.00038569;0.000439612;0.000691159;-0.000151757;0.000421458;-0.226995;-4.40537;0.00051881;0.000561944;4.55438;0.219569;96.4597;141.46;-0.00268256;9.9338e-05;0.00179787;-0.00102601;0.000438071;-0.000583316;0.0105941;0;0.0386942;-0.130756;-1.32123;-0.521205;1.42633;-6.39009;-0.000210452;-0.000113958;-0.000153019;-6.42144e-05;-0.000299256;0.000117521;-1.37534;-0.727095;0.000181917;0.000156694;-0.21458;-4.66026;175.968;40.9677;-0.00459146;-0.000212078;0.00157877;-0.00180658;-0.000154258;0.00559132;0.0069401;0;0.0305299;-0.00725698;0.511847
229000;230;25.7447;-0.00119884;-4.65645e-05;-2.71936;25.573;-1.18985;-0.0501499;-0.0188087;-0.30364;-0.0898012;-1.34153;-0.246848;1.367;-5.22939;0.000105667;0.000399354;0.000330291;0.000632826;-0.000196867;0.000414847;-0.319922;-3.12576;0.000500581;0.000553129;3.21448;0.311093;93.269;138.269;-0.00136041;0.000105289;0.00175586;-0.000956847;0.00032883;-0.0102957;0.0105091;0;0.0392291;-0.13135;-1.32319;-0.532628;1.43241;-6.40151;-0.000270812;-0.000125267;-0.000174354;-8.83524e-05;-0.000356814;0.000134231;-1.55323;-0.643819;0.000214577;0.000178974;-0.247615;-4.03853;172.758;37.758;-0.00426218;-0.000272887;0.00179011;-0.00204046;-0.000175949;0.00321962;0.00477986;0;0.0323988;-0.00683897;0.52291
230000;231;25.7455;-0.000404845;-1.57247e-05;-2.72001;25.5734;-1.19638;-0.0507918;-0.0183821;-0.310167;-0.0889312;-1.34523;-0.250897;1.37131;-5.23344;-0.000257432;0.000221794;0.000204364;0.000293632;-0.000346701;0.000320166;1.25968;0.793855;0.000370119;0.000426888;0.846933;1.18073;113.695;158.695;-0.00104112;-0.000257881;0.00141648;-0.000972342;0.000203386;-0.0108917;0.0106315;0;0.0408198;-0.131004;-1.32684;-0.540461;1.43866;-6.40934;-0.000324227;-7.76382e-08;-0.000274082;-0.000274082;-0.000324228;2.50729e-05;-1.18296;-0.845338;0.000201527;3.34305e-05;-0.845338;-1.18296;139.447;4.44656;-0.00396857;-0.000326107;0.00193854;-0.00193859;-0.000275961;0.00335685;0.00648243;0;0.0342768;-0.00595615;0.529026
231000;232;25.7467;0.000831186;3.22843e-05;-2.71984;25.5748;-1.19425;-0.05063;-0.017021;-0.308036;-0.0891526;-1.34803;-0.251523;1.37419;-5.23406;-0.000342569;-8.88788e-05;-0.000188615;-0.000148013;-0.000383171;0.000117579;-1.81623;-0.550591;0.000223123;0.000156772;-0.386284;-2.58877;164.857;29.8568;-0.001515;-0.000343692;0.00132348;-0.00150102;-0.000189487;-0.00965597;0.0111319;0;0.0380303;-0.13115;-1.32908;-0.544982;1.44244;-6.41386;-0.000245989;-9.63291e-05;-0.000379906;-0.000195633;-0.000430262;0.000117315;-0.647501;-1.5444;0.000248752;0.000156419;-0.454683;-2.19933;22.5615;67.5615;-0.0043028;-0.000247617;0.00161365;-0.00180654;-0.000381204;0.00445737;0.00597423;0;0.0309012;-0.00549536;0.529324
232000;233;25.7457;-0.000165672;-6.43489e-06;-2.71835;25.5734;-1.20455;-0.0491306;-0.0183485;-0.318343;-0.0893142;-1.35125;-0.250435;1.37717;-5.23298;-0.000348267;0.000101637;-0.000160441;-0.000115971;-0.000392736;0.000138382;-2.17069;-0.460682;0.000232995;0.00018451;-0.295291;-3.38649;116.677;161.677;0.00123184;-0.000349043;0.0014535;-0.00124997;-0.000161492;-0.0147697;0.0128086;0;0.0409879;-0.131525;-1.33217;-0.548239;1.44656;-6.41712;-0.000217671;-4.03987e-05;-0.000373287;-0.000207809;-0.00038315;8.76705e-05;-0.58312;-1.71491;0.000221476;0.000116894;-0.542369;-1.84376;35.8312;80.8312;-0.00374273;-0.000219427;0.00179289;-0.00187398;-0.000374894;0.00320625;0.00619565;0;0.0291086;-0.00451366;0.536824
233000;234;25.7497;0.00384149;0.000149208;-2.72012;25.5777;-1.19473;-0.0509055;-0.0140421;-0.308515;-0.0881929;-1.35257;-0.258183;1.37981;-5.24072;-0.000161397;0.000185839;0.000106626;0.000201733;-0.000256504;0.000229118;1.51367;0.660644;0.000265192;0.000305491;0.786471;1.2715;108.502;153.502;-0.00137071;-0.000161957;0.00144669;-0.00107468;0.000105597;-0.00472177;0.012269;0;0.0424449;-0.131301;-1.33441;-0.560716;1.45338;-6.4296;-0.000343405;-5.70558e-05;-0.000365615;-0.000296383;-0.000412636;5.81264e-05;-0.939254;-1.06467;0.000245686;7.75019e-05;-0.718268;-1.39224;10.5015;55.5015;-0.0040746;-0.000345521;0.00194357;-0.00205773;-0.000367502;0.00156498;0.00820713;0;0.0281683;-0.0036844;0.548138
234000;235;25.7499;0.00401856;0.000156086;-2.72119;25.5778;-1.19392;-0.0519748;-0.0139399;-0.307707;-0.0883032;-1.35511;-0.259265;1.38251;-5.24181;-0.000237218;0.000166926;-0.00037779;-0.000126384;-0.000488624;0.00018112;-0.627911;-1.59258;0.000292857;0.000241494;-0.258652;-3.86619;85.1266;130.127;-0.00082951;-0.000237868;0.00148544;-0.00115177;-0.00037888;-0.0105453;0.0121571;0;0.0410099;-0.131681;-1.33685;-0.564631;1.45716;-6.43351;-0.000303565;3.68941e-06;-0.000252711;-0.000252444;-0.000303831;2.56934e-05;-1.20123;-0.832477;0.000187784;3.42578e-05;-0.830871;-1.20356;134.238;179.238;-0.00387001;-0.000306278;0.00233647;-0.00232897;-0.000255441;0.00115162;0.00738751;0;0.0290849;-0.00373027;0.552101
235000;236;25.7507;0.00478536;0.000185869;-2.72227;25.5784;-1.19549;-0.0530584;-0.0133471;-0.309005;-0.0876822;-1.35952;-0.261245;1.38717;-5.24729;-0.00017308;0.000197457;0.000683125;0.000726468;-0.000216423;0.000471446;0.253365;3.94687;0.00057031;0.000628594;3.3567;0.297912;116.115;161.115;5.59413e-05;-0.000173474;0.00130473;-0.00090887;0.000682294;-0.00744744;0.0117986;0;0.0370351;-0.131761;-1.34131;-0.571494;1.46392;-6.44038;-0.000426192;4.49164e-05;-0.000176843;-0.000168998;-0.000434037;0.000132519;-2.41001;-0.414936;0.000252628;0.000176692;-0.389364;-2.56829;129.221;174.221;-0.00349596;-0.000428229;0.0021085;-0.00201815;-0.000179065;0.000858992;0.00814216;0;0.0380404;-0.00239837;0.558566
236000;237;25.7514;0.00549345;0.000213372;-2.72474;25.5788;-1.1961;-0.0555221;-0.0129345;-0.309886;-0.0874159;-1.36946;-0.268585;1.39829;-5.25113;7.05422e-05;0.000528385;0.000389164;0.000781732;-0.000322026;0.000551879;-0.181266;-5.51676;0.00065542;0.000735839;2.42754;0.411939;93.0237;138.024;0.000858822;7.04448e-05;0.00174564;-0.000688482;0.000387781;-0.0144798;0.0134875;0;0.0414535;-0.132107;-1.35026;-0.583177;1.47673;-6.45206;-0.000380205;3.03537e-06;-0.000227986;-0.000227926;-0.000380265;7.61696e-05;-1.66766;-0.599641;0.000220987;0.000101559;-0.599387;-1.66837;137.904;2.9036;-0.00412521;-0.000382451;0.00212578;-0.00211938;-0.000230246;0.00223747;0.00759482;0;0.0278464;-0.000435514;0.565987
237000;238;25.7516;0.00576781;0.000224028;-2.72351;25.5788;-1.20546;-0.0542952;-0.012967;-0.319248;-0.0891104;-1.37781;-0.268635;1.40658;-5.24917;5.20663e-05;-0.000259326;-0.000368823;0.000175593;-0.00049235;0.000333972;0.141169;7.08372;0.000399831;0.000445296;0.356643;2.80392;21.9196;66.9196;-0.00323701;4.98262e-05;0.00161312;-0.00213256;-0.000370091;-0.014992;0.010741;0;0.0408091;-0.133632;-1.35745;-0.58909;1.48578;-6.45797;-0.000293416;-0.000282157;-0.000415411;-6.5739e-05;-0.000643089;0.000288675;-0.706327;-1.41577;0.000408579;0.0003849;-0.102224;-9.78245;10.83;55.83;-0.00464746;-0.000296245;0.00183028;-0.00239485;-0.000417047;0.0027563;0.00678938;0;0.0296312;-0.000187484;0.573111
238000;239;25.7517;0.00587179;0.000228067;-2.72414;25.5787;-1.20771;-0.0549274;-0.0130359;-0.321499;-0.0880181;-1.37809;-0.276321;1.40827;-5.25686;0.000230979;0.00021192;0.000363539;0.000519302;7.52159e-05;0.000222043;-0.635364;-1.5739;0.000324052;0.000296057;-6.90415;-0.14484;94.3533;139.353;-0.000281543;0.000229466;0.00217679;-0.00175269;0.000361193;-0.0226469;0.00770078;0;0.0448831;-0.133485;-1.35866;-0.597334;1.49016;-6.46622;-0.000410841;-0.000281739;-0.000355136;-9.98762e-05;-0.000666101;0.000283112;-1.15686;-0.864411;0.000414803;0.000377483;-0.149942;-6.66926;2.61624;47.6162;-0.00474132;-0.000413365;0.00170021;-0.00226357;-0.000356542;0.00367952;0.00802989;0;0.0268764;0.00012068;0.579161
239000;240;25.7504;0.00450508;0.000174983;-2.72426;25.5764;-1.22769;-0.0550415;-0.0153752;-0.341479;-0.0888447;-1.38868;-0.274418;1.41832;-5.25696;2.93931e-05;0.000322471;0.000231104;0.000468123;-0.000207626;0.000337875;-0.127185;-7.86254;0.00039969;0.0004505;2.25465;0.443528;96.3388;141.339;-0.000984291;2.86247e-05;0.00192617;-0.00128091;0.000229302;-0.00595499;0.014705;0;0.0381534;-0.134639;-1.36893;-0.605124;1.50275;-6.47401;-0.000298306;-0.000202127;-0.000375724;-0.000131215;-0.000542815;0.0002058;-0.793949;-1.25953;0.000327034;0.0002744;-0.24173;-4.13685;11.1206;56.1206;-0.00417901;-0.000300027;0.00146181;-0.00186619;-0.000376773;0.00325889;0.00767907;0;0.0428239;0.00157925;0.588039
240000;241;25.7511;0.00526187;0.000204377;-2.7248;25.5771;-1.22743;-0.0555832;-0.0146584;-0.341216;-0.0868574;-1.39033;-0.280239;1.42094;-5.26278;0.000105227;0.000480343;0.000402767;0.00075685;-0.000248856;0.000502853;-0.261261;-3.82758;0.000604832;0.000670471;3.04131;0.328805;93.9697;138.97;-0.00225637;0.000104756;0.00204477;-0.00108362;0.000400792;-0.00161834;0.0148578;0;0.0405889;-0.133356;-1.37093;-0.613529;1.50787;-6.48241;-0.000440917;-0.000207864;-0.00040357;-0.000213542;-0.000630945;0.000208701;-1.09254;-0.915297;0.00037056;0.000278268;-0.338449;-2.95466;3.98029;48.9803;-0.00403344;-0.000442927;0.00159972;-0.00201538;-0.000404829;0.00378377;0.007441;0;0.0434131;0.00335476;0.594115
241000;242;25.7523;0.00642385;0.00024951;-2.72456;25.578;-1.23431;-0.0553458;-0.0137944;-0.348098;-0.0868752;-1.39766;-0.28124;1.42832;-5.26378;0.000158496;0.000411112;3.948e-05;0.000514384;-0.000316409;0.000415396;-4.01458;-0.249092;0.000484177;0.000553862;1.6257;0.615121;84.164;129.164;-0.00278482;0.000157785;0.00208323;-0.0012612;3.73947e-05;0.00256214;0.0153942;0;0.0415281;-0.134205;-1.37872;-0.619797;1.51758;-6.48868;-0.000368395;-9.03089e-05;-0.000420664;-0.000300515;-0.000488544;9.40145e-05;-0.875745;-1.14188;0.000284542;0.000125353;-0.615124;-1.62569;13.5663;58.5663;-0.00433685;-0.000370618;0.00192944;-0.00211017;-0.000422522;0.00182888;0.0088228;0;0.0298916;0.00385082;0.597155
242000;243;25.7514;0.00558233;0.000216824;-2.72472;25.577;-1.23624;-0.0555063;-0.0147426;-0.349756;-0.0862653;-1.40146;-0.283691;1.43249;-5.26974;-0.000225217;0.000267461;1.59844e-05;0.000188778;-0.00039801;0.000293394;14.0897;0.0709737;0.000345886;0.000391192;0.474304;2.10835;104.746;149.746;-0.00187075;-0.00022556;0.00140546;-0.000870265;1.50326e-05;0.000895918;0.0151933;0;0.0473135;-0.13408;-1.38282;-0.629595;1.52531;-6.49848;-0.000435474;-5.20812e-05;-0.000336238;-0.000313923;-0.000457789;7.19333e-05;-1.29514;-0.77212;0.000270315;9.5911e-05;-0.685736;-1.45829;163.585;28.5851;-0.00330558;-0.000437609;0.00196265;-0.00206661;-0.000338163;0.000640679;0.00957304;0;0.0308436;0.00651719;0.610504
243000;244;25.7528;0.00688536;0.000267436;-2.7263;25.5781;-1.2374;-0.0570889;-0.0136551;-0.35091;-0.0856855;-1.40749;-0.288618;1.43933;-5.27466;-0.00029715;0.000249894;0.000577389;0.000643758;-0.000363519;0.000503638;0.514644;1.94309;0.000589006;0.000671518;1.77091;0.564683;116.512;161.512;-0.00224704;-0.000297488;0.00136003;-0.000859276;0.000576496;-0.00153929;0.0142154;0;0.0425005;-0.134074;-1.38924;-0.637207;1.53428;-6.50609;-0.000451376;6.36421e-07;-0.00016033;-0.000160328;-0.000451377;0.000145525;-2.8153;-0.355202;0.000264221;0.000194033;-0.355198;-2.81533;138.744;3.74364;-0.00359439;-0.000453866;0.00223287;-0.00223095;-0.000162823;0.000596704;0.00996246;0;0.0320805;0.00738027;0.611313
244000;245;25.753;0.00712063;0.000276574;-2.72732;25.5782;-1.2392;-0.0581008;-0.0136133;-0.35271;-0.0851836;-1.41019;-0.289375;1.44209;-5.27542;-5.60417e-05;0.000492944;0.000492291;0.000782182;-0.000345933;0.000564057;0.113839;8.78436;0.000667353;0.000752076;2.26108;0.442267;99.4753;144.475;-0.00147955;-5.6188e-05;0.00171841;-0.000731855;0.000490936;-0.000814524;0.0144051;0;0.0411211;-0.133848;-1.39105;-0.642332;1.53803;-6.51121;-0.00035114;6.39469e-05;-0.000230006;-0.000202496;-0.00037865;8.80768e-05;-1.52665;-0.655028;0.00021879;0.000117436;-0.534785;-1.86991;115.558;160.558;-0.00391257;-0.000353293;0.00220403;-0.00207587;-0.000232434;0.0004113;0.0106444;0;0.0304853;0.00790448;0.61743
245000;246;25.7538;0.00797558;0.000309781;-2.72922;25.5783;-1.24943;-0.0600053;-0.0134632;-0.363224;-0.0842679;-1.42053;-0.293772;1.45304;-5.27631;-0.000144453;0.000278098;0.000700487;0.000783803;-0.000227769;0.000505786;0.206218;4.84923;0.000612736;0.000674381;3.44122;0.290595;113.227;158.227;-0.00233599;-0.000145227;0.00183253;-0.00127502;0.000698848;-0.00453073;0.0158173;0;0.0428577;-0.133694;-1.40037;-0.65482;1.55168;-6.5237;-0.000319028;-0.000259424;-0.00054283;-0.0001484;-0.000713458;0.000282529;-0.587713;-1.70151;0.000434699;0.000376706;-0.208;-4.80768;17.4698;62.4698;-0.00501057;-0.000321747;0.00182688;-0.00234619;-0.000544466;0.00210269;0.0094852;0;0.0247533;0.0108213;0.624769
246000;247;25.7558;0.00990876;0.000384868;-2.72827;25.5801;-1.25378;-0.059058;-0.0116281;-0.367565;-0.0847487;-1.4266;-0.296188;1.45948;-5.27873;-4.02382e-05;0.000459981;0.000663008;0.000890368;-0.000267598;0.000578983;0.0606904;16.4771;0.00070004;0.000771978;3.32725;0.300548;102.904;147.904;-0.00308628;-4.06988e-05;0.00198536;-0.00106433;0.000661144;-0.00287095;0.0152406;0;0.0444649;-0.134253;-1.40686;-0.662338;1.56076;-6.53122;-0.000386528;-0.000289549;-0.000465475;-0.000133775;-0.000718229;0.000292227;-0.830394;-1.20425;0.000441043;0.000389636;-0.186256;-5.36895;10.1001;55.1001;-0.00467385;-0.000388933;0.0016328;-0.00221204;-0.000466767;0.00352146;0.0100074;0;0.0295634;0.0114016;0.631627
247000;248;25.7572;0.0113573;0.000441132;-2.72966;25.5813;-1.25618;-0.060447;-0.0104357;-0.36997;-0.084383;-1.42939;-0.302659;1.46352;-5.28003;0.000100575;0.000746174;0.000932873;0.0013711;-0.00033765;0.000854374;-0.107812;-9.27542;0.00104496;0.00113917;4.0607;0.246263;95.9101;140.91;-0.00121409;0.000100435;0.00240824;-0.000914508;0.000930254;-0.00770782;0.0184821;0;0.0393004;-0.134619;-1.41076;-0.670159;1.56764;-6.53904;-0.000293069;-9.36343e-05;-0.00050513;-0.000257643;-0.000540556;0.000141456;-0.580184;-1.72359;0.000312204;0.000188608;-0.476626;-2.09808;30.6716;75.6716;-0.004004;-0.000294766;0.00165671;-0.00184435;-0.000506499;0.00241855;0.0107585;0;0.0425441;0.0140637;0.639122
248000;249;25.7573;0.0114568;0.000444996;-2.72945;25.5812;-1.26116;-0.060231;-0.0105574;-0.374947;-0.0843334;-1.43955;-0.302807;1.47347;-5.28535;4.20334e-05;0.000420544;0.000152157;0.000521229;-0.000327038;0.000424133;-0.27625;-3.61991;0.000494006;0.000565511;1.59379;0.627436;92.0676;137.068;-0.00355105;4.13078e-05;0.0021173;-0.00127603;0.000150005;-0.00119256;0.0167971;0;0.0407592;-0.134876;-1.42073;-0.68097;1.58126;-6.54985;-0.000312704;-0.000202221;-0.000843292;-0.00024442;-0.000911576;0.000333578;-0.370813;-2.69678;0.000544836;0.000444771;-0.268129;-3.72955;35.0947;80.0947;-0.00355639;-0.000314742;0.00162347;-0.00202888;-0.000844591;0.00117637;0.00925707;0;0.0321767;0.0177486;0.646227
249000;250;25.7581;0.0122159;0.00047448;-2.72888;25.5817;-1.26827;-0.0596617;-0.0100839;-0.382057;-0.0835082;-1.44654;-0.303873;1.48047;-5.28641;-0.000326424;0.000279125;0.000505122;0.000590126;-0.000411428;0.000500777;0.646228;1.54744;0.000581308;0.000667703;1.43434;0.697187;116.491;161.491;-0.00270298;-0.000327326;0.00193148;-0.00137185;0.000503297;-0.00462252;0.0163281;0;0.0423509;-0.134618;-1.42757;-0.689246;1.59095;-6.55813;-0.000266916;-0.000109221;-0.000379903;-0.000200443;-0.000446376;0.000122967;-0.70259;-1.42331;0.000258161;0.000163955;-0.449045;-2.22695;18.809;63.809;-0.00344104;-0.000268688;0.00166661;-0.00188526;-0.000381286;-0.000696819;0.0110982;0;0.0308303;0.0200099;0.653723
250000;251;25.7544;0.00850883;0.000330493;-2.72922;25.5774;-1.27862;-0.0600064;-0.0143689;-0.392414;-0.0835054;-1.45222;-0.303472;1.48594;-5.28084;0.000181796;0.00073765;0.000788556;0.00128278;-0.000312425;0.000797601;-0.230543;-4.33758;0.000976137;0.00106347;4.10588;0.243553;93.2589;138.259;-0.00144856;0.00018159;0.00245438;-0.000978043;0.000785818;-0.00664848;0.0195147;0;0.0405443;-0.134755;-1.43263;-0.692229;1.5968;-6.56111;-0.000410642;3.61628e-05;-0.000387976;-0.000361412;-0.000437206;3.78969e-05;-1.05842;-0.944805;0.000269779;5.05292e-05;-0.82664;-1.20972;104.307;149.307;-0.00343256;-0.000412577;0.00203947;-0.0019671;-0.000390056;-0.000869758;0.0112214;0;0.0335324;0.0219451;0.655292
251000;252;25.7541;0.00823447;0.000319837;-2.729;25.5767;-1.2869;-0.0597878;-0.0150367;-0.400687;-0.0832779;-1.45733;-0.309125;1.49208;-5.28649;1.8174e-05;0.00062728;0.000797074;0.00114597;-0.00033072;0.000738344;-0.0228009;-43.8578;0.000894828;0.000984459;3.46507;0.288594;98.8646;143.865;-0.0011136;1.78705e-05;0.00225607;-0.00100024;0.000794728;-0.00585397;0.0216974;0;0.0463147;-0.134518;-1.43711;-0.70572;1.60668;-6.5746;-0.00038871;-2.92959e-05;-0.000282959;-0.000275386;-0.000396283;6.04488e-05;-1.37373;-0.727944;0.000234518;8.05984e-05;-0.694921;-1.43901;154.99;19.9902;-0.00373295;-0.000390241;0.00169167;-0.00175008;-0.00028439;-0.00121456;0.0117106;0;0.0292034;0.0280053;0.668426
252000;253;25.7547;0.00878497;0.000341219;-2.73016;25.5768;-1.29389;-0.0609453;-0.0149491;-0.407402;-0.0824306;-1.46274;-0.312165;1.49795;-5.29328;-0.000106798;0.000667362;0.00070325;0.00107888;-0.000482425;0.000780651;0.151863;6.58487;0.000923083;0.00104087;2.23636;0.447155;100.003;145.003;-0.000736511;-0.000106926;0.00217371;-0.000837769;0.000701112;-0.000939408;0.0205771;0;0.0452396;-0.133932;-1.4427;-0.715313;1.61586;-6.58419;-0.000284149;-2.07939e-05;-0.000480022;-0.000281966;-0.000482205;0.00010012;-0.59195;-1.68933;0.000279731;0.000133493;-0.584743;-1.71015;44.4754;89.4754;-0.00426757;-0.000286124;0.00194534;-0.00198731;-0.000481915;7.91843e-05;0.0115661;0;0.0265272;0.0325545;0.674996
253000;254;25.7558;0.00992133;0.000385356;-2.73162;25.5775;-1.29979;-0.0624041;-0.0142693;-0.413578;-0.0817031;-1.4688;-0.312479;1.50389;-5.28985;0.000138089;0.000781991;0.00112316;0.0015548;-0.000293552;0.000924176;-0.122947;-8.13359;0.00114697;0.00123223;5.2965;0.188804;95.673;140.673;-0.000173174;0.00013801;0.00244249;-0.000876875;0.00112048;-0.00884838;0.0212671;0;0.0427848;-0.13353;-1.44832;-0.71895;1.62245;-6.58783;-0.00025163;-0.000198979;-0.000736446;-0.000180423;-0.000807653;0.000313615;-0.341682;-2.9267;0.000489506;0.000418153;-0.223392;-4.47644;32.4621;77.4621;-0.00486863;-0.000253877;0.00172979;-0.00212868;-0.000737923;0.000514893;0.0100024;0;0.0279854;0.0365553;0.675989
254000;255;25.7574;0.0115537;0.000448761;-2.73046;25.5789;-1.30702;-0.0612461;-0.0128704;-0.42081;-0.0809984;-1.47819;-0.313139;1.51316;-5.29051;0.000127207;0.00108841;0.00123019;0.00189885;-0.000541462;0.00122016;-0.103404;-9.67076;0.00147979;0.00162688;3.5069;0.285152;91.5721;136.572;-0.000159014;0.000127694;0.00263719;-0.000458658;0.0012273;-0.0100287;0.0207398;0;0.0444746;-0.132846;-1.45734;-0.728169;1.63454;-6.59705;-0.000356472;-0.000256228;-0.000683745;-0.000216086;-0.000824131;0.000304022;-0.521352;-1.91809;0.000493424;0.000405363;-0.262199;-3.8139;24.7479;69.7479;-0.00460452;-0.000358359;0.00144629;-0.0019593;-0.000684759;0.00127301;0.0111141;0;0.0302414;0.0435777;0.68348
255000;256;25.7587;0.0128589;0.000499456;-2.72948;25.5803;-1.30742;-0.0602658;-0.0114721;-0.421214;-0.0801558;-1.48594;-0.31697;1.52148;-5.29434;0.000124687;0.00119536;0.00123565;0.00199829;-0.000637952;0.00131812;-0.100908;-9.91;0.00158814;0.00175749;3.13235;0.319249;89.9174;134.917;-0.000469841;0.000125368;0.00265212;-0.000259785;0.00123285;-0.00904162;0.0181875;0;0.0433641;-0.132266;-1.46596;-0.738124;1.64662;-6.60701;-0.000367637;-0.000231886;-0.000818484;-0.000269662;-0.000916459;0.000323399;-0.449168;-2.22634;0.000543847;0.000431198;-0.294243;-3.39855;31.8133;76.8133;-0.00398259;-0.000369431;0.00144345;-0.00190798;-0.0008195;0.000165329;0.011374;0;0.0300523;0.0512527;0.690955
256000;257;25.7597;0.013796;0.000535852;-2.72934;25.5812;-1.30867;-0.0601264;-0.0105771;-0.422455;-0.0794753;-1.48886;-0.317345;1.52438;-5.29471;0.000247086;0.00121019;0.000954974;0.00186192;-0.00065986;0.00126089;-0.258736;-3.86494;0.00151008;0.00168119;2.82169;0.354397;88.3807;133.381;-0.000296639;0.0002477;0.00290926;-0.000487671;0.000951478;-0.0107008;0.0188761;0;0.0498007;-0.131814;-1.46854;-0.745753;1.65231;-6.61463;-0.000268488;-0.000181586;-0.000681177;-0.000199967;-0.000749699;0.000274866;-0.394154;-2.53708;0.000448266;0.000366488;-0.26673;-3.74912;32.5756;77.5756;-0.0043994;-0.000270056;0.00141609;-0.00177992;-0.000682164;-0.000357952;0.0121923;0;0.0303212;0.0583301;0.698459
257000;258;25.7585;0.0126095;0.00048977;-2.72979;25.5794;-1.31938;-0.0605755;-0.0123702;-0.433171;-0.0782448;-1.4943;-0.315977;1.52934;-5.29701;0.000262689;0.00119879;0.000652401;0.00167207;-0.000756982;0.00121453;-0.40265;-2.48355;0.0014352;0.00161937;2.20887;0.452721;87.3535;132.353;-0.00198226;0.000263243;0.00297198;-0.000573704;0.000648705;-0.00628377;0.0213944;0;0.0485076;-0.130849;-1.47412;-0.751728;1.6599;-6.62061;-0.000270648;-4.95987e-05;-0.000505723;-0.000260611;-0.000515759;0.000127574;-0.53517;-1.86856;0.000297779;0.000170099;-0.505297;-1.97904;39.9846;84.9846;-0.00359519;-0.000272169;0.00164524;-0.00174483;-0.000507076;-0.0013063;0.0111877;0;0.0376233;0.0694452;0.705655
258000;259;25.7575;0.0116433;0.00045224;-2.73014;25.5778;-1.33053;-0.0609253;-0.0139583;-0.444324;-0.0780635;-1.50208;-0.317583;1.53727;-5.29862;0.000108367;0.00111543;0.000898007;0.00168644;-0.000680062;0.00118325;-0.120675;-8.28673;0.00140688;0.00157767;2.47983;0.403254;92.6767;137.677;-0.00244944;0.000108593;0.00312281;-0.000890356;0.000893756;-0.00656496;0.0215722;0;0.0430306;-0.130416;-1.48062;-0.762106;1.67034;-6.63099;-0.000157747;-4.45116e-05;-0.000301308;-0.000145066;-0.000313989;8.44613e-05;-0.523541;-1.91007;0.000181456;0.000112615;-0.46201;-2.16445;32.8862;77.8862;-0.00377206;-0.000159293;0.00166974;-0.00175901;-0.000302701;-0.0015029;0.013166;0;0.0338876;0.0833672;0.713185
259000;260;25.7533;0.00739838;0.000287362;-2.72955;25.5726;-1.34886;-0.0603323;-0.01913;-0.462653;-0.0770464;-1.51025;-0.315106;1.54469;-5.29614;5.3772e-05;0.00124608;0.000374292;0.00147037;-0.00104231;0.00125634;-0.143663;-6.96073;0.0014577;0.00167512;1.41069;0.708874;90.4186;135.419;-0.00165558;5.43365e-05;0.00314361;-0.000650844;0.000370129;-0.00889162;0.0233467;0;0.0413577;-0.129093;-1.48715;-0.766953;1.67824;-6.63583;-0.000349948;-0.00012566;-0.000419967;-0.000254511;-0.000515404;0.000130446;-0.833273;-1.20009;0.000297576;0.000173928;-0.49381;-2.02507;13.5813;58.5813;-0.0045649;-0.000351926;0.00174136;-0.00199281;-0.000421476;0.000291607;0.0121999;0;0.0298547;0.0959139;0.720809
260000;261;25.7516;0.00576967;0.000224101;-2.72922;25.5703;-1.36365;-0.0600037;-0.0215194;-0.477439;-0.0757646;-1.51577;-0.317237;1.55046;-5.29827;2.66277e-05;0.00117786;0.00041786;0.00141624;-0.000971753;0.001194;-0.0637241;-15.6927;0.00138665;0.001592;1.45741;0.68615;91.4727;136.473;-0.00192428;2.70056e-05;0.00315124;-0.000794747;0.00041359;-0.00894339;0.0242542;0;0.0435538;-0.127212;-1.49175;-0.77882;1.68762;-6.6477;-0.000298366;-0.000149983;-0.000574126;-0.000232517;-0.000639976;0.00020373;-0.519688;-1.92423;0.000374064;0.00027164;-0.363321;-2.75239;26.9753;71.9753;-0.00532298;-0.000301023;0.00200889;-0.00230945;-0.000576134;0.00197842;0.0111088;0;0.0256624;0.115165;0.727828
261000;262;25.7535;0.00769115;0.000298734;-2.72857;25.5717;-1.37434;-0.0593554;-0.0200875;-0.488132;-0.0749521;-1.52253;-0.317904;1.55717;-5.29894;5.61997e-05;0.0013011;0.000691011;0.00171286;-0.000965653;0.00133926;-0.0813297;-12.2956;0.00156637;0.00178568;1.77379;0.563765;91.2916;136.292;-0.00183338;5.68613e-05;0.00321133;-0.000607918;0.000686704;-0.00933868;0.0244085;0;0.0439351;-0.125608;-1.49847;-0.787903;1.69764;-6.65678;-0.000285797;-0.000450562;-0.000612377;3.01522e-05;-0.000928326;0.000479239;-0.466702;-2.1427;0.000629176;0.000638985;0.0324801;30.788;16.6813;61.6813;-0.00566381;-0.000288392;0.00142001;-0.00232174;-0.000613284;0.00368623;0.0113864;0;0.0296584;0.152669;0.735492
262000;263;25.7548;0.00889644;0.000345548;-2.72727;25.5729;-1.37687;-0.0580544;-0.0188707;-0.490657;-0.0735012;-1.52616;-0.316865;1.56044;-5.29423;6.726e-05;0.0012805;0.000611649;0.00164857;-0.000969657;0.00130911;-0.109965;-9.09381;0.00152848;0.00174548;1.70015;0.588182;90.9647;135.965;0.000806528;6.78742e-05;0.00320331;-0.000641264;0.000607341;-0.0124384;0.0257603;0;0.0386199;-0.123574;-1.5014;-0.793616;1.70274;-6.6625;-0.000214988;-0.000336277;-0.000607647;-2.19244e-05;-0.000800711;0.000389393;-0.353805;-2.82642;0.000526651;0.000519191;-0.0273812;-36.5214;21.6433;66.6433;-0.00508855;-0.000217157;0.00143621;-0.00210945;-0.000608623;0.00418207;0.0121021;0;0.0346159;0.165368;0.73883
263000;264;25.754;0.00818145;0.000317777;-2.7275;25.5718;-1.38323;-0.0582811;-0.019958;-0.497015;-0.0723641;-1.53171;-0.314908;1.56542;-5.29228;-5.96883e-05;0.00134638;0.000668509;0.00169916;-0.00109034;0.00139475;0.0892858;11.2;0.00162325;0.00185966;1.55838;0.641693;93.2877;138.288;0.000594262;-5.90202e-05;0.00338463;-0.000690382;0.000663691;-0.011859;0.0232599;0;0.0405506;-0.121855;-1.5062;-0.799438;1.70956;-6.66832;-0.000279798;-0.000328096;-0.000732741;-0.000107601;-0.000904938;0.000398668;-0.381851;-2.61882;0.000570815;0.000531558;-0.118904;-8.41013;24.151;69.151;-0.00488014;-0.000282619;0.00174055;-0.00239768;-0.000734203;0.00387282;0.00913552;0;0.0335502;0.200602;0.743508
264000;265;25.7562;0.0103714;0.000402836;-2.72575;25.574;-1.38702;-0.0565341;-0.0177719;-0.500812;-0.0708304;-1.536;-0.31415;1.56939;-5.29518;4.04399e-06;0.00129009;0.000314147;0.00145847;-0.00114028;0.00129938;;;0.00150414;0.0017325;1.27905;0.781833;91.0758;136.076;-0.00142755;4.6533e-06;0.00324841;-0.000667622;0.000309705;-0.0106074;0.0228067;0;0.0454167;-0.119374;-1.51028;-0.805617;1.71587;-6.6745;-0.000233195;-0.000356721;-0.000779319;-5.70212e-05;-0.000955493;0.000449236;-0.299229;-3.34192;0.000618865;0.000598981;-0.0596773;-16.7568;26.1558;71.1558;-0.00436905;-0.000235675;0.00154057;-0.00225505;-0.000780443;0.00202894;0.0112592;0;0.0291351;0.247682;0.754798
265000;266;25.7575;0.0116876;0.000453962;-2.72575;25.5753;-1.38686;-0.0565398;-0.0164382;-0.500651;-0.0702022;-1.53922;-0.317794;1.57325;-5.29296;4.65291e-05;0.000820225;0.000661957;0.00123029;-0.000521804;0.000876047;-0.0702902;-14.2267;0.00103877;0.00116806;2.35776;0.424131;96.1465;141.147;-0.00139901;4.55247e-05;0.00327954;-0.00163758;0.000656919;-0.0109375;0.0127316;0;0.042269;-0.117913;-1.5137;-0.813639;1.72256;-6.68252;-0.00027364;-0.000176396;-0.000620423;-0.000199685;-0.000694378;0.000247347;-0.441053;-2.2673;0.000412784;0.000329796;-0.287574;-3.47737;29.2816;74.2816;-0.00443589;-0.000275536;0.00160178;-0.00195519;-0.000621691;0.00147058;0.0110713;0;0.0346624;0.276996;0.757221
266000;267;25.7587;0.0128841;0.000500435;-2.72513;25.5767;-1.38505;-0.0559196;-0.0150691;-0.498843;-0.0687009;-1.54206;-0.316186;1.57564;-5.29672;-0.000122683;0.000508119;-0.000190134;0.000352829;-0.000665646;0.000509237;-0.645246;-1.5498;0.00059719;0.000678983;0.530055;1.8866;89.8682;134.868;-0.0029994;-0.000124503;0.00299046;-0.0019744;-0.000194477;-0.0181624;0.0154431;0;0.046651;-0.116047;-1.51636;-0.817122;1.72641;-6.686;-0.00011622;-0.000222274;-0.000492309;-1.31178e-05;-0.000595411;0.000291147;-0.236071;-4.23601;0.000392641;0.000388196;-0.0220314;-45.3897;24.2309;69.2309;-0.00436255;-0.000118865;0.00186514;-0.00231048;-0.000494024;0.000275429;0.0129452;0;0.0286086;0.312802;0.763717
267000;268;25.7585;0.0126037;0.000489543;-2.72461;25.5767;-1.38034;-0.0553993;-0.0150317;-0.493853;-0.0670694;-1.54844;-0.312512;1.58108;-5.29669;-0.000166614;0.000292366;2.05468e-05;0.000233944;-0.000380011;0.000306978;8.109;0.12332;0.000357795;0.000409303;0.615625;1.62437;99.7044;144.704;-0.00191735;-0.000168832;0.00271146;-0.00212628;1.69136e-05;-0.0115886;0.0137471;0;0.0432239;-0.11398;-1.52232;-0.818955;1.73238;-6.68784;-0.000178076;6.47546e-05;-0.000441152;-0.000163001;-0.000456227;0.000146613;-0.403661;-2.47733;0.000266956;0.000195484;-0.35728;-2.79892;62.8645;107.865;-0.00394751;-0.000179643;0.00190039;-0.00177136;-0.000442957;0.00133241;0.013205;0;0.0272025;0.372871;0.771344
268000;269;25.7582;0.0123414;0.000479354;-2.72419;25.5764;-1.38194;-0.0549736;-0.0153466;-0.495731;-0.0654027;-1.5515;-0.315279;1.58456;-5.29582;-8.79738e-05;7.51319e-05;-0.000320328;-6.57966e-05;-0.000342505;0.000138354;-0.274637;-3.64117;0.000209871;0.000184472;-0.192104;-5.20551;63.7393;108.739;-0.00661451;-9.0923e-05;0.00257938;-0.0024297;-0.000323653;-0.0136973;0.00990571;0;0.0474102;-0.111706;-1.5248;-0.824104;1.73685;-6.69299;-0.000251723;0.000132302;-0.00042971;-0.000181269;-0.000500164;0.000159448;-0.585798;-1.70707;0.000292391;0.000212597;-0.362419;-2.75924;78.0478;123.048;-0.00445351;-0.000253307;0.00204894;-0.00178467;-0.000431801;0.000765916;0.0154113;0;0.0310811;0.412781;0.778653
269000;270;25.7572;0.0112886;0.000438463;-2.7248;25.5747;-1.39282;-0.0555844;-0.0170523;-0.50633;-0.063138;-1.55387;-0.316402;1.58701;-5.30058;-0.000225092;1.01447e-05;0.00034524;0.000345421;-0.000225273;0.000285347;0.651987;1.53377;0.000331915;0.000380462;1.53335;0.652169;133.243;178.243;-0.00254453;-0.00022806;0.0024578;-0.00243612;0.000342221;-0.0111502;0.0114661;0;0.0438515;-0.109863;-1.52732;-0.830986;1.74221;-6.69987;-0.000146765;0.000143763;-0.000386525;-7.94574e-05;-0.000453832;0.000187187;-0.379703;-2.63364;0.000279854;0.000249583;-0.175081;-5.71164;74.6301;119.63;-0.00421719;-0.000147902;0.00180222;-0.0015151;-0.000388139;0.00108008;0.0146727;0;0.0286174;0.447544;0.786329
270000;271;25.7557;0.00989243;0.000384234;-2.72532;25.5724;-1.40891;-0.0561044;-0.0194049;-0.522699;-0.0622639;-1.56469;-0.314774;1.59726;-5.29514;8.26172e-05;0.000400511;0.000749176;0.000936938;-0.000105145;0.000521042;-0.110277;-9.06804;0.000662461;0.000694722;8.91089;0.112222;105.067;150.067;-0.00338428;8.05584e-05;0.00287106;-0.00206839;0.000745137;-0.00635353;0.0172527;0;0.0400025;-0.108902;-1.53827;-0.834799;1.75358;-6.70368;-0.000187132;0.000181657;-0.000602624;-0.000118912;-0.000670845;0.000275967;-0.310529;-3.22031;0.000413334;0.000367955;-0.177257;-5.64153;71.8046;116.805;-0.00473977;-0.000188397;0.00196311;-0.00160054;-0.000604536;0.001759;0.013394;0;0.0236417;0.563982;0.800577
271000;272;25.7536;0.0077039;0.000299229;-2.72514;25.57;-1.41288;-0.0559235;-0.0217992;-0.52639;-0.0597077;-1.5661;-0.310893;1.59778;-5.29491;-0.000157982;0.000141004;0.000880602;0.000899405;-0.000176785;0.000538095;0.179402;5.57407;0.000666394;0.00071746;5.08757;0.196558;122.908;167.908;0.000384419;-0.000160301;0.00244261;-0.00215822;0.000877631;-0.00758551;0.0179909;0;0.0404889;-0.106372;-1.53913;-0.8337;1.75365;-6.70258;-5.67569e-06;0.000248876;-0.000736435;7.10325e-05;-0.000813143;0.000442088;;;0.000567257;0.00058945;0.0873555;11.4475;68.0967;113.097;-0.00495606;-6.76925e-06;0.00199616;-0.00149968;-0.000738397;0.00149449;0.0155962;0;0.0234636;0.563425;0.800673
272000;273;25.7537;0.00787754;0.000305973;-2.72666;25.5697;-1.41709;-0.0574402;-0.0220286;-0.530876;-0.0589676;-1.56855;-0.308856;1.59975;-5.28922;-0.000178071;0.000156531;0.000650511;0.000679096;-0.000206656;0.000442876;0.273741;3.65309;0.000535088;0.000590501;3.28612;0.304311;121.907;166.907;-0.00170496;-0.000180783;0.00264879;-0.00233367;0.000647018;-0.010703;0.0194534;0;0.0418835;-0.105685;-1.5409;-0.832879;1.75477;-6.70176;-0.000143636;0.000244537;-0.000749657;-5.72707e-05;-0.000836022;0.000389376;-0.191603;-5.21913;0.000539273;0.000519168;-0.0685038;-14.5977;71.3956;116.396;-0.00514144;-0.000144816;0.00204323;-0.00155525;-0.000751716;0.00101063;0.015751;0;0.0263737;0.573988;0.803421
273000;274;25.7544;0.00850672;0.000330411;-2.72678;25.5701;-1.42113;-0.0575662;-0.0216325;-0.534915;-0.0579841;-1.56959;-0.314452;1.60183;-5.29699;-1.32353e-05;0.000608935;0.00117754;0.0014338;-0.000269486;0.00085164;0.0112398;88.9698;0.0010572;0.00113552;5.32049;0.187953;104.302;149.302;0.00230276;-1.41195e-05;0.00268293;-0.0014626;0.00117414;-0.0166879;0.0174985;0;0.0454422;-0.105033;-1.54367;-0.838229;1.75971;-6.70711;-8.54845e-05;0.000148723;-0.000640986;-4.81735e-05;-0.000678297;0.000315062;-0.133364;-7.49827;0.000437026;0.000420082;-0.0710212;-14.0803;65.4265;110.427;-0.00504805;-8.65379e-05;0.00175558;-0.00145903;-0.000642517;0.00167007;0.0162305;0;0.0266348;0.606195;0.808082
274000;275;25.754;0.00810489;0.000314804;-2.72641;25.5691;-1.43403;-0.0571902;-0.0227177;-0.547823;-0.0567797;-1.57178;-0.319214;1.60487;-5.30175;7.43461e-05;0.000813501;0.000823858;0.00134477;-0.000446569;0.000895671;-0.0902414;-11.0814;0.0010767;0.00119423;3.01135;0.332077;95.5412;140.541;0.00035875;7.41333e-05;0.00267119;-0.0010428;0.000820624;-0.0113896;0.0178224;0;0.0512335;-0.10414;-1.54749;-0.844607;1.76605;-6.71349;-7.90356e-06;0.000126279;-0.000712621;1.40413e-05;-0.000734566;0.000374304;;;0.000494457;0.000499071;0.0191151;52.3147;61.5799;106.58;-0.00496684;-8.84255e-06;0.0016277;-0.0013762;-0.000713939;0.0020465;0.0159243;0;0.049715;0.670425;0.816026
275000;276;25.7557;0.00987398;0.000383517;-2.72564;25.5707;-1.43762;-0.0564273;-0.0210559;-0.551408;-0.0551649;-1.57741;-0.316866;1.60986;-5.29723;-0.000170643;-0.000313663;0.000648884;0.000755155;-0.000276913;0.000516034;0.262979;3.80259;0.00061682;0.000688045;2.72705;0.366697;150.711;15.7107;-0.00140188;-0.000173998;0.0019835;-0.00260894;0.000646968;-0.0137416;0.020691;0;0.0436325;-0.102595;-1.55318;-0.844513;1.7709;-6.71339;-9.42211e-05;0.000293656;-0.000647427;3.25902e-05;-0.000774238;0.000403414;-0.145532;-6.87136;0.000527358;0.000537886;0.0420933;23.7568;75.6979;120.698;-0.00474887;-9.48026e-05;0.00170415;-0.00111762;-0.000648837;0.00136951;0.0186941;0;0.0339345;0.726201;0.823056
276000;277;25.7588;0.0129446;0.000502785;-2.72712;25.5741;-1.42911;-0.0579022;-0.017643;-0.542894;-0.0534949;-1.58062;-0.321982;1.61397;-5.30235;-9.26872e-05;0.000128748;0.00114536;0.00115861;-0.000105934;0.000632271;0.080924;12.3573;0.000810029;0.000843028;10.937;0.0914323;122.43;167.43;0.00103078;-9.4868e-05;0.00235258;-0.00209234;0.00114261;-0.0186471;0.0194091;0;0.046166;-0.101572;-1.55829;-0.849252;1.77758;-6.71813;-2.43965e-06;0.000327742;-0.000604317;0.00014157;-0.000748327;0.000444948;;;0.000552158;0.000593265;0.189182;5.28592;74.8884;119.888;-0.0048914;-2.94263e-06;0.00170982;-0.00105516;-0.000605726;0.00135214;0.0189225;0;0.0311986;0.790594;0.831114
277000;278;25.761;0.0151107;0.000586919;-2.72709;25.5764;-1.42732;-0.0578737;-0.0153586;-0.54111;-0.0524471;-1.58269;-0.32765;1.6171;-5.31019;-1.28159e-05;0.000460486;0.00126986;0.00141805;-0.000161011;0.000789533;0.0100924;99.0844;0.00100336;0.00105271;8.8072;0.113543;107.926;152.926;0.00178604;-1.37275e-05;0.00235001;-0.00142662;0.00126721;-0.0189133;0.0170716;0;0.0463345;-0.101119;-1.56223;-0.855814;1.78415;-6.7247;1.97112e-05;0.000282656;-0.000764209;0.000110997;-0.000855496;0.000483247;0.0257929;38.7704;0.000610701;0.000644329;0.129746;7.70735;69.5146;114.515;-0.00394214;1.89124e-05;0.00185921;-0.00129513;-0.000765899;-0.00186362;0.019751;0;0.0282518;0.848081;0.838535
278000;279;25.7626;0.0167004;0.000648664;-2.72731;25.5782;-1.42349;-0.0580944;-0.0135673;-0.537275;-0.0509779;-1.58587;-0.327408;1.62011;-5.30995;0.000233997;0.00074283;0.00159631;0.00192301;-9.27015e-05;0.00100785;-0.146587;-6.8219;0.00131399;0.0013438;20.7441;0.0482066;97.369;142.369;0.00108468;0.000233776;0.00248555;-0.000997518;0.0015935;-0.0157228;0.0178742;0;0.0487868;-0.100138;-1.56642;-0.854553;1.78717;-6.72343;2.96704e-05;0.000429858;-0.000726495;0.00022406;-0.000920884;0.000572472;0.0408404;24.4855;0.000700655;0.000763296;0.24331;4.10999;75.1551;120.155;-0.00368332;2.89764e-05;0.00211255;-0.00125411;-0.000728635;-0.00289237;0.0206476;0;0.0258316;0.884001;0.845725
279000;280;25.7628;0.016901;0.000656455;-2.72726;25.5784;-1.42364;-0.0580495;-0.0133691;-0.537429;-0.0497077;-1.58882;-0.330263;1.62354;-5.3128;-0.000113973;0.000425436;0.00121851;0.00134276;-0.000238221;0.000790489;0.0935347;10.6912;0.000984236;0.00105399;5.63661;0.177412;110.161;155.161;0.0016362;-0.000114825;0.00222609;-0.00137282;0.00121613;-0.0176793;0.019387;0;0.0472449;-0.099381;-1.57048;-0.858363;1.79251;-6.72724;-4.69682e-05;0.000495144;-0.000364177;0.000314354;-0.000725499;0.000519926;-0.128971;-7.75369;0.000615803;0.000693235;0.433293;2.30791;84.9918;129.992;-0.00404805;-4.73537e-05;0.00199784;-0.00100803;-0.00036605;-0.0039525;0.022385;0;0.0249176;0.941714;0.852586
280000;281;25.7649;0.0190002;0.00073799;-2.72724;25.581;-1.41562;-0.0580251;-0.0108072;-0.529411;-0.0481057;-1.5908;-0.334655;1.62633;-5.31202;0.000393328;0.00108765;0.00203925;0.0025802;-0.00014762;0.00136391;-0.192878;-5.18461;0.00177139;0.00181855;17.4787;0.0572126;91.0374;136.037;0.000826778;0.000393709;0.00282795;-0.000649787;0.00203585;-0.0188372;0.0180564;0;0.0468643;-0.0985455;-1.57425;-0.861177;1.79711;-6.73006;7.70046e-05;0.000495515;-0.000225554;0.000443818;-0.000592367;0.000518093;0.341403;2.92909;0.000600288;0.00069079;0.749228;1.33471;82.8662;127.866;-0.00339527;7.65774e-05;0.00203935;-0.00104879;-0.000227511;-0.00524184;0.0229942;0;0.0255508;1.00615;0.859922
281000;282;25.7659;0.0200815;0.000779989;-2.7296;25.5818;-1.41616;-0.0603829;-0.00999949;-0.529952;-0.0467784;-1.59496;-0.333894;1.6302;-5.31643;-0.000100477;0.000577304;0.00122875;0.00144447;-0.000316199;0.000880336;0.0817713;12.2292;0.00108387;0.00117378;4.56825;0.218902;105.095;150.095;0.00215189;-0.000100894;0.00223762;-0.00108081;0.00122642;-0.0220624;0.0185079;0;0.0483763;-0.0971867;-1.5784;-0.86086;1.80052;-6.72974;-0.000103862;0.000572207;4.65466e-05;0.00054847;-0.000605785;0.000577127;2.23136;0.448157;0.000666683;0.000769503;0.905386;1.1045;94.2802;139.28;-0.00373519;-0.000104104;0.00204441;-0.000899775;4.46206e-05;-0.00571265;0.022697;0;0.0372927;1.04182;0.867064
282000;283;25.7669;0.0210436;0.000817358;-2.72929;25.5831;-1.40999;-0.060071;-0.00864679;-0.523505;-0.0452554;-1.59714;-0.336671;1.63287;-5.31778;0.000158133;0.000928703;0.00133127;0.00184313;-0.000353731;0.00109843;-0.118784;-8.41867;0.00136206;0.00146458;5.21055;0.191918;93.044;138.044;-0.000311741;0.000158391;0.00244727;-0.000588083;0.00132871;-0.00963925;0.0170734;0;0.0447985;-0.0963669;-1.58161;-0.862162;1.80391;-6.73104;-0.000187049;0.00061562;4.0217e-05;0.000552603;-0.000699435;0.000626019;4.65098;0.215008;0.00072452;0.000834692;0.790071;1.26571;96.5781;141.578;-0.00396321;-0.00018728;0.00214858;-0.000916996;3.80984e-05;-0.0041594;0.0234272;0;0.0334155;1.09323;0.87484
283000;284;25.768;0.0221089;0.000858735;-2.73001;25.584;-1.41259;-0.0607953;-0.00779454;-0.526105;-0.0438101;-1.60101;-0.340257;1.63735;-5.32137;3.87098e-05;0.00097358;0.00215615;0.00253574;-0.000340884;0.00143831;-0.0179532;-55.7002;0.00181482;0.00191775;7.43871;0.134432;96.9103;141.91;-0.00138624;3.89514e-05;0.00263234;-0.000681677;0.00215316;-0.00778205;0.0166762;0;0.0505744;-0.0953428;-1.58686;-0.865984;1.81028;-6.73487;-0.00013882;0.000658561;4.16329e-05;0.000616119;-0.000713306;0.000664713;3.33438;0.299906;0.000768228;0.000886284;0.863752;1.15774;94.8721;139.872;-0.0040502;-0.00013888;0.002062;-0.000744631;3.97239e-05;-0.00369435;0.0233604;0;0.0271494;1.16643;0.881781
284000;285;25.7681;0.022209;0.000862624;-2.73174;25.5839;-1.41165;-0.0625236;-0.00783553;-0.525435;-0.0425107;-1.60342;-0.343185;1.64029;-5.32055;0.000323502;0.00111465;0.00204886;0.00259567;-0.000223312;0.00140949;-0.157894;-6.33337;0.00180948;0.00187932;11.6235;0.0860325;92.5906;137.591;-0.000257011;0.000323844;0.00297905;-0.000746534;0.00204505;-0.015974;0.0177923;0;0.0435966;-0.0947195;-1.58914;-0.869998;1.81418;-6.73888;-0.000132469;0.000507196;-7.20557e-05;0.000405832;-0.000610357;0.000508095;-1.83842;-0.543944;0.000590645;0.00067746;0.66491;1.50396;93.6649;138.665;-0.00471048;-0.000132809;0.00198298;-0.000968501;-7.38933e-05;-0.00357553;0.0237151;0;0.0217206;1.2046;0.887456
285000;286;25.7686;0.0226856;0.000881134;-2.73092;25.5844;-1.41448;-0.0617004;-0.00741459;-0.527993;-0.0415911;-1.60737;-0.338891;1.64324;-5.32494;0.000245715;0.00147749;0.00196313;0.00281332;-0.000604479;0.0017089;-0.125165;-7.98945;0.00210616;0.00227853;4.65413;0.214863;86.8447;131.845;0.00206658;0.000246806;0.00297581;-1.82707e-05;0.0019598;-0.0146221;0.0184329;0;0.0459815;-0.0942009;-1.59463;-0.864512;1.81634;-6.73339;-0.000184645;0.000398086;-0.000270649;0.000172755;-0.000628049;0.000400402;-0.682231;-1.46578;0.000486616;0.000533869;0.275066;3.6355;91.3351;136.335;-0.0050653;-0.000185127;0.00185537;-0.00105932;-0.000272292;-0.00304743;0.0232557;0;0.0237804;1.26393;0.892091
286000;287;25.7695;0.0236588;0.000918936;-2.73312;25.5848;-1.42037;-0.0639012;-0.00699575;-0.533885;-0.040655;-1.61056;-0.344206;1.64743;-5.32706;0.000306916;0.00132668;0.00160361;0.00243189;-0.000521362;0.00147663;-0.19139;-5.22492;0.00182011;0.00196884;4.6645;0.214385;90.0652;135.065;-0.00107301;0.000307589;0.00329986;-0.000643951;0.00159906;-0.00865693;0.0204002;0;0.0456271;-0.0935106;-1.59849;-0.872569;1.82354;-6.74145;-4.28863e-05;0.000362141;-0.000139484;0.000274163;-0.000456533;0.000365348;-0.307464;-3.25242;0.000426225;0.00048713;0.600532;1.66519;88.1974;133.197;-0.00510415;-4.32556e-05;0.00165676;-0.000932605;-0.000140791;-0.00232121;0.0242352;0;0.026314;1.33492;0.903533
287000;288;25.7696;0.0237478;0.000922394;-2.73188;25.5846;-1.42818;-0.0626671;-0.00720874;-0.541689;-0.0406012;-1.61088;-0.352055;1.6494;-5.33491;0.00034272;0.00138752;0.00201268;0.00279708;-0.000441681;0.00161938;-0.170281;-5.87266;0.00202804;0.00215917;6.3328;0.157908;90.3601;135.36;-0.0010162;0.000343484;0.00340895;-0.000630551;0.00200784;-0.00817403;0.0192161;0;0.0456435;-0.0938403;-1.59969;-0.883719;1.82997;-6.7526;-0.000136599;0.000277134;-0.000216865;0.000103293;-0.000456757;0.000280025;-0.629878;-1.58761;0.000344142;0.000373366;0.226143;4.42197;89.5728;134.573;-0.00466646;-0.000137143;0.00163318;-0.00107902;-0.000218161;-0.00142255;0.0239992;0;0.0354313;1.37587;0.905721
288000;289;25.771;0.025085;0.000974331;-2.7318;25.586;-1.42717;-0.0625836;-0.00579712;-0.540687;-0.0388571;-1.61591;-0.346566;1.65311;-5.32942;0.000369851;0.00128021;0.00150202;0.00233572;-0.000463848;0.00139978;-0.246236;-4.06115;0.00173258;0.00186638;5.03552;0.198589;89.8983;134.898;-0.0011625;0.000370332;0.0033848;-0.000822;0.00149712;-0.00887284;0.0210621;0;0.0451016;-0.0919717;-1.60549;-0.877844;1.83212;-6.74673;-5.20593e-05;0.000348572;-0.000115797;0.000266097;-0.000433954;0.000350025;-0.449573;-2.22433;0.000408029;0.000466701;0.613193;1.63081;89.2724;134.272;-0.00530292;-5.24157e-05;0.00161047;-0.000913409;-0.000117033;0.00106707;0.0254503;0;0.0335035;1.42698;0.911568
289000;290;25.7728;0.0269327;0.0010461;-2.73136;25.5879;-1.4277;-0.0621475;-0.00391892;-0.541215;-0.0372222;-1.61998;-0.344694;1.65666;-5.32755;9.51278e-05;0.00130713;0.00181371;0.0025187;-0.000609862;0.00156428;-0.0524493;-19.066;0.00191507;0.00208571;4.12995;0.242134;95.0263;140.026;-0.000723558;9.55603e-05;0.00353649;-0.000918411;0.00180832;-0.0107695;0.0215145;0;0.0463019;-0.0905844;-1.61071;-0.877871;1.83664;-6.74675;-5.01777e-05;0.000216972;3.04547e-05;0.000210825;-0.000230548;0.000220686;1.64762;0.606936;0.000254911;0.000294248;0.914451;1.09355;95.4774;140.477;-0.00492876;-5.06563e-05;0.00143616;-0.00100211;2.94469e-05;0.000681134;0.0256048;0;0.0370231;1.50449;0.918901
290000;291;25.7733;0.0274412;0.00106585;-2.7298;25.5882;-1.43336;-0.0605816;-0.00355592;-0.546872;-0.03741;-1.62148;-0.351691;1.6596;-5.33455;0.000174713;0.0011717;0.00202724;0.00259457;-0.000392622;0.0014936;-0.0861828;-11.6032;0.00187435;0.00199146;6.60832;0.151324;95.9111;140.911;-0.00133678;0.000174857;0.0033888;-0.00104132;0.00202219;-0.00978997;0.0203339;0;0.0455347;-0.0911036;-1.61332;-0.886011;1.84285;-6.75489;-2.27608e-05;0.000313072;-0.000224849;0.000205169;-0.000452779;0.000328974;-0.101227;-9.87881;0.00038873;0.000438632;0.453133;2.20686;83.2328;128.233;-0.00463339;-2.3552e-05;0.00192211;-0.00129629;-0.000226648;-0.000822381;0.0271214;0;0.0243286;1.54744;0.926016
291000;292;25.7747;0.0288162;0.00111926;-2.73006;25.5898;-1.42887;-0.0608407;-0.00194752;-0.542383;-0.0368167;-1.62346;-0.353641;1.66194;-5.3365;6.94022e-05;0.00120549;0.00211226;0.00267087;-0.000489208;0.00158004;-0.0328568;-30.4351;0.00196407;0.00210672;5.45959;0.183164;97.0208;142.021;-0.00139766;6.96155e-05;0.00342877;-0.00101327;0.00210712;-0.00968909;0.0199225;0;0.0461187;-0.0906097;-1.61615;-0.890049;1.84726;-6.75893;2.30334e-05;0.000306962;-3.48436e-05;0.000302418;-0.000314228;0.000308323;0.661051;1.51274;0.000356042;0.000411097;0.962415;1.03905;87.4003;132.4;-0.00535225;2.23924e-05;0.00178698;-0.00117315;-3.63932e-05;7.25224e-05;0.0256481;0;0.0229423;1.6061;0.933995
292000;293;25.7773;0.0314419;0.00122124;-2.72862;25.5927;-1.42653;-0.0594064;0.000971306;-0.540315;-0.0360441;-1.62847;-0.349862;1.66602;-5.3309;-0.000292143;0.00073235;0.00110625;0.00141958;-0.000605473;0.00101253;0.264083;3.78669;0.00120025;0.00135004;2.34459;0.426514;106.34;151.34;0.0006562;-0.000292819;0.00284171;-0.00137407;0.00110249;-0.0151024;0.0200736;0;0.0472529;-0.0896102;-1.6219;-0.888764;1.85162;-6.75765;-8.34483e-05;0.00034727;0.000264679;0.000479067;-0.000297836;0.000388452;0.315281;3.17177;0.000452595;0.000517935;1.60849;0.6217;101.414;146.414;-0.00371559;-8.39225e-05;0.00172892;-0.0010339;0.000263245;-0.00323272;0.0276303;0;0.0238756;1.6825;0.941193
293000;294;25.7771;0.0312889;0.0012153;-2.73039;25.5923;-1.42792;-0.0611786;0.000550631;-0.541705;-0.0360609;-1.62879;-0.356526;1.66775;-5.33756;-0.000153215;0.000711913;0.00101148;0.00134889;-0.000490623;0.000919755;0.151477;6.60168;0.0010999;0.00122634;2.74934;0.363724;104.094;149.094;0.000279968;-0.00015407;0.00291464;-0.00148826;0.00100749;-0.0118054;0.0204811;0;0.0497598;-0.0901108;-1.62273;-0.89775;1.8567;-6.76663;-8.24497e-05;0.000446929;0.00033765;0.000621428;-0.000366229;0.000493828;0.244187;4.09522;0.000576534;0.000658438;1.69683;0.589333;100.138;145.138;-0.00431728;-8.29069e-05;0.00194996;-0.00105547;0.000335849;-0.00210299;0.0274417;0;0.0225389;1.73309;0.948589
294000;295;25.776;0.0301019;0.0011692;-2.72975;25.5907;-1.43645;-0.0605302;-0.00105319;-0.550237;-0.0353424;-1.63143;-0.35658;1.67032;-5.33761;-0.000401752;0.000772432;0.00133633;0.00163;-0.000695416;0.00116271;0.300637;3.32627;0.00137825;0.00155028;2.34392;0.426636;108.242;153.242;0.00125039;-0.000402518;0.00300791;-0.00145917;0.00133211;-0.0158945;0.0205191;0;0.0485976;-0.089371;-1.62568;-0.899804;1.86023;-6.76869;-7.63069e-05;0.000521702;0.000420156;0.000749671;-0.000405822;0.000577747;0.181616;5.50613;0.000676899;0.000770329;1.84729;0.541334;99.6555;144.656;-0.00394507;-7.67648e-05;0.00213408;-0.00108987;0.000418016;-0.00309772;0.0288817;0;0.0224019;1.77614;0.953753
295000;296;25.7776;0.0317593;0.00123357;-2.73143;25.5924;-1.43382;-0.0622121;0.000583921;-0.547611;-0.0350832;-1.63615;-0.354165;1.67441;-5.3352;-0.000444464;0.000572464;0.00150968;0.00166503;-0.000599816;0.00113242;0.294409;3.39663;0.00135496;0.0015099;2.77591;0.360243;113.218;158.218;0.00170181;-0.000445761;0.00285818;-0.0017088;0.00150577;-0.0165475;0.0205755;0;0.0440268;-0.0888526;-1.63062;-0.898736;1.86401;-6.76762;-0.000222774;0.000505134;0.000497484;0.000757721;-0.000483011;0.000620366;0.447801;2.23313;0.000722166;0.000827154;1.56875;0.637452;105.183;150.183;-0.00452017;-0.000223188;0.00205226;-0.00104087;0.000495506;-0.00313867;0.0284251;0;0.0233372;1.86243;0.963778
296000;297;25.7785;0.0326615;0.00126861;-2.73125;25.5932;-1.43563;-0.0620398;0.00140962;-0.549421;-0.0341365;-1.63803;-0.359114;1.67728;-5.34015;1.44833e-05;0.00136585;0.00230104;0.00293894;-0.000623424;0.00178118;-0.00629427;-158.875;0.00219679;0.00237491;4.7142;0.212125;96.8898;141.89;-0.00206506;1.49183e-05;0.0037349;-0.000997813;0.00229501;-0.00897577;0.0237862;0;0.057293;-0.0884589;-1.63314;-0.905035;1.86924;-6.77392;-0.000243478;0.000470964;0.000576529;0.000790954;-0.000457903;0.000624428;0.422317;2.36789;0.000729524;0.000832571;1.72734;0.578925;107.548;152.548;-0.00408093;-0.000244017;0.00208313;-0.00113988;0.000574472;-0.00300607;0.0276279;0;0.0219665;1.91754;0.969871
297000;298;25.7785;0.0326239;0.00126715;-2.73184;25.5927;-1.4431;-0.0626261;0.000889121;-0.55689;-0.0337296;-1.63898;-0.3619;1.6788;-5.33927;-0.000208953;0.00119749;0.00233012;0.00280578;-0.000684613;0.0017452;0.0896749;11.1514;0.00213562;0.00232693;4.09834;0.244001;99.9843;144.984;0.00139825;-0.000208654;0.00331521;-0.000914868;0.00232535;-0.0127313;0.0245358;0;0.0415482;-0.0878229;-1.63472;-0.910186;1.87309;-6.77907;-0.000355175;0.000511607;0.0006862;0.000895483;-0.000564458;0.000729971;0.517597;1.93201;0.000850089;0.000973294;1.58645;0.630339;110.207;155.207;-0.00432588;-0.000355977;0.00239069;-0.00136552;0.000683475;-0.00235594;0.0284198;0;0.0250967;1.95812;0.970291
298000;299;25.779;0.0331525;0.00128768;-2.73201;25.593;-1.44699;-0.062799;0.00118322;-0.560783;-0.0328431;-1.64245;-0.36384;1.68259;-5.34121;-0.000204817;0.00122844;0.00196358;0.00251784;-0.000759078;0.00163846;0.104308;9.58701;0.00198068;0.00218461;3.31697;0.30148;99.7381;144.738;0.00132594;-0.000204521;0.00342016;-0.000958542;0.00195849;-0.015245;0.0245857;0;0.0410071;-0.0868806;-1.63793;-0.91589;1.87862;-6.78477;-0.000312814;0.000374459;0.00061173;0.000744365;-0.000445449;0.000594907;0.51136;1.95557;0.000694128;0.00079321;1.67104;0.598428;112.915;157.915;-0.00440238;-0.000313583;0.00204546;-0.001295;0.00060971;-0.00204966;0.0274325;0;0.0236802;2.04216;0.978636
299000;300;25.7797;0.0338115;0.00131328;-2.73261;25.5933;-1.45143;-0.0633931;0.00153232;-0.565221;-0.0322888;-1.64515;-0.365763;1.68563;-5.3468;-0.000342777;0.000898139;0.00164422;0.00199001;-0.000688566;0.00133929;0.208473;4.79677;0.00160617;0.00178572;2.89008;0.346011;106.296;151.296;0.00216781;-0.000343486;0.00329219;-0.00149117;0.00163922;-0.018322;0.0222621;0;0.047311;-0.0861633;-1.64095;-0.919746;1.8831;-6.78863;-0.000379393;0.000418556;0.000521289;0.000685762;-0.000543866;0.000614814;0.727797;1.37401;0.0007115;0.000819752;1.2609;0.793082;112.436;157.436;-0.00520586;-0.000380361;0.0022918;-0.001453;0.000518752;-0.000600425;0.0257268;0;0.0219083;2.09992;0.984192
300000;301;25.7806;0.034706;0.00134802;-2.73196;25.5942;-1.45317;-0.0627488;0.00241319;-0.566681;-0.0314485;-1.64709;-0.364752;1.68729;-5.34761;-0.000354381;0.000848687;0.00130119;0.00165895;-0.000712132;0.00118554;0.272351;3.67174;0.00140485;0.00158072;2.32955;0.429268;106.649;151.649;0.00395823;-0.000355308;0.00330568;-0.00160425;0.0012961;-0.0210824;0.0214869;0;0.0468479;-0.0851376;-1.64375;-0.920468;1.88585;-6.78935;-0.000429118;0.000320633;0.000481172;0.00058277;-0.000530716;0.000556743;0.891817;1.12131;0.000643105;0.000742324;1.09808;0.910677;116.997;161.997;-0.0053524;-0.000430298;0.00221189;-0.00156891;0.000478779;-0.00043269;0.0262871;0;0.0224909;2.1406;0.991665
301000;302;25.7813;0.0354389;0.00137649;-2.73265;25.5946;-1.45738;-0.0634311;0.00283916;-0.570892;-0.0312396;-1.65037;-0.365882;1.69073;-5.34874;-5.56235e-05;0.00101194;0.00149954;0.00199814;-0.000554228;0.00127619;0.0370938;26.9587;0.00155022;0.00170158;3.60527;0.277371;100.537;145.537;0.00370621;-5.61496e-05;0.00346857;-0.00144089;0.00149404;-0.0195406;0.0221963;0;0.0494024;-0.0851008;-1.64798;-0.924076;1.8913;-6.79296;-0.00021019;0.000210821;0.00033981;0.000411322;-0.000281702;0.000346512;0.618553;1.61668;0.000402444;0.000462016;1.46013;0.684871;115.212;160.212;-0.00578357;-0.000211449;0.00202272;-0.00160008;0.000337787;0.000655935;0.0250338;0;0.0227117;2.21853;0.998345
302000;303;25.7851;0.0392228;0.00152346;-2.7319;25.5988;-1.45242;-0.0626872;0.00701195;-0.565932;-0.0303979;-1.65248;-0.369301;1.69352;-5.35216;-0.000231671;0.000895482;0.00142401;0.00181568;-0.000623343;0.00121951;0.16269;6.14667;0.00146318;0.00162601;2.91281;0.343311;104.78;149.78;0.00307509;-0.00023265;0.00345641;-0.00166122;0.00141844;-0.019386;0.0207887;0;0.0470721;-0.0842793;-1.65098;-0.930283;1.89691;-6.79916;-0.00026218;0.000138297;0.000454841;0.00048059;-0.00028793;0.00038426;0.576422;1.73484;0.000448328;0.000512346;1.66912;0.599116;122.577;167.577;-0.00537533;-0.000263078;0.00162464;-0.00134699;0.000453531;0.000156493;0.0266672;0;0.0335336;2.28299;1.00586
303000;304;25.7845;0.0386171;0.00149993;-2.73267;25.5981;-1.45263;-0.0634531;0.0063081;-0.566143;-0.0298541;-1.65443;-0.371648;1.69592;-5.3545;-0.000272575;0.00110781;0.00134792;0.00191017;-0.000834825;0.0013725;0.202218;4.94515;0.00162486;0.00183;2.28811;0.437041;101.998;146.998;0.00354613;-0.000272936;0.00361538;-0.0013957;0.00134201;-0.0204609;0.0215382;0;0.0452027;-0.0837838;-1.65334;-0.934534;1.90102;-6.80342;-0.000289436;0.000218116;0.000554313;0.000607363;-0.000342486;0.000474924;0.522152;1.91515;0.000555457;0.000633232;1.7734;0.56389;119.06;164.06;-0.00527349;-0.000290489;0.00190471;-0.00146705;0.000552524;0.00159243;0.0265142;0;0.0406853;2.32644;1.01296
304000;305;25.7882;0.0422956;0.00164281;-2.73163;25.6024;-1.44419;-0.0624168;0.0106013;-0.557706;-0.029908;-1.65766;-0.372099;1.69917;-5.35279;-0.000580293;0.000566982;0.00093973;0.00112792;-0.000768483;0.000948202;0.61751;1.61941;0.00110143;0.00126427;1.46772;0.681327;114.756;159.756;0.00262891;-0.000582604;0.00336088;-0.00222268;0.000934249;-0.0177527;0.0216977;0;0.0387339;-0.0839041;-1.6576;-0.936826;1.90587;-6.80571;-0.000322515;0.000215906;0.000413659;0.000472308;-0.000381163;0.000426736;0.779662;1.28261;0.000493688;0.000568981;1.23912;0.807023;118.934;163.934;-0.00479227;-0.000323369;0.00175763;-0.00132468;0.000412139;0.00147911;0.0255566;0;0.0329138;2.40781;1.02089
305000;306;25.7887;0.0428403;0.00166397;-2.73062;25.6028;-1.44799;-0.0614089;0.0110431;-0.561502;-0.0292484;-1.65983;-0.373312;1.70155;-5.35617;-0.000378834;0.000944211;0.00141483;0.00182024;-0.000784247;0.00130224;0.267759;3.7347;0.00154285;0.00173633;2.32101;0.430847;106.219;151.219;0.00242946;-0.000379861;0.00360944;-0.00171625;0.00140877;-0.0204567;0.0196878;0;0.0431912;-0.0835992;-1.6616;-0.938238;1.91002;-6.80712;-0.000317831;0.0001894;0.000383741;0.000431607;-0.000365697;0.000398652;0.828243;1.20738;0.000460848;0.000531536;1.18023;0.847291;120.227;165.227;-0.00465845;-0.000318904;0.00185674;-0.00147677;0.000382036;0.000422905;0.0259926;0;0.0353036;2.47254;1.02775
306000;307;25.7915;0.0456714;0.00177393;-2.73008;25.606;-1.44403;-0.0608617;0.0141767;-0.557541;-0.0282853;-1.66252;-0.369956;1.70342;-5.35065;-0.000369469;0.000897237;0.00105504;0.00148836;-0.00080279;0.00114557;0.350196;2.85554;0.00134239;0.00152743;1.85398;0.53938;105.694;150.694;0.00169422;-0.000370879;0.00370184;-0.00190338;0.00104859;-0.0192229;0.0240773;0;0.0383014;-0.0825665;-1.66437;-0.9368;1.91169;-6.80568;-0.000360792;0.000150953;0.000309132;0.000341575;-0.000393235;0.000367405;1.16711;0.856815;0.000424592;0.000489873;0.868628;1.15124;123.354;168.354;-0.00402167;-0.000361646;0.00161822;-0.00131533;0.000307835;-5.2602e-05;0.024136;0;0.0360118;2.51618;1.03127
307000;308;25.7925;0.0465905;0.00180963;-2.73051;25.6068;-1.44432;-0.0612987;0.0150397;-0.557829;-0.0279924;-1.66544;-0.370331;1.70635;-5.35319;-8.53817e-05;0.001295;0.000833467;0.00174812;-0.00100004;0.00137408;0.102442;9.76165;0.00160612;0.0018321;1.74806;0.572063;95.6836;140.684;0.00158661;-8.54351e-05;0.00392796;-0.00133555;0.000826596;-0.0198111;0.02369;0;0.0431703;-0.0829663;-1.66853;-0.938493;1.91615;-6.80737;-0.000366145;0.000175913;0.000435946;0.000472831;-0.000403029;0.00043793;0.839885;1.19064;0.000506213;0.000583907;1.17319;0.852375;122.462;167.462;-0.00442378;-0.000366982;0.0016588;-0.00130578;0.000434586;0.000272867;0.0241936;0;0.0266681;2.58609;1.03991
308000;309;25.7929;0.0470219;0.00182639;-2.73225;25.6069;-1.4475;-0.0630314;0.0151096;-0.561012;-0.0275298;-1.66836;-0.375656;1.71035;-5.35635;-0.000568403;0.000606061;0.000668177;0.000915677;-0.000815903;0.00086579;0.850678;1.17553;0.00100028;0.00115439;1.12229;0.891038;112.261;157.261;0.0018847;-0.000570983;0.00356589;-0.00235011;0.000662007;-0.0191246;0.0249236;0;0.040719;-0.0825685;-1.67203;-0.94566;1.9227;-6.81454;-0.000423682;0.000335901;0.00066275;0.000758215;-0.000519146;0.00063868;0.639278;1.56426;0.000741778;0.000851574;1.4605;0.684696;117.106;162.106;-0.00441844;-0.000424563;0.00204287;-0.00136922;0.000660721;-0.000452662;0.025103;0;0.0242963;2.6708;1.04997
309000;310;25.7935;0.0476815;0.00185201;-2.73209;25.6075;-1.44791;-0.0628756;0.0157676;-0.56142;-0.0266708;-1.66897;-0.374131;1.7106;-5.36018;-9.56411e-05;0.00198505;0.0012446;0.00266958;-0.00152063;0.00209511;0.0768451;13.0132;0.00244935;0.00279348;1.75558;0.569613;92.7424;137.742;-0.00038502;-9.37874e-05;0.00445641;-0.000483021;0.00123665;-0.0116002;0.0237183;0;0.050485;-0.082159;-1.67412;-0.945127;1.92424;-6.81401;-0.000340125;0.000422911;0.000780647;0.000922319;-0.000481798;0.000702059;0.435696;2.29518;0.000823859;0.000936078;1.91433;0.522376;112.28;157.28;-0.00379418;-0.000340615;0.00192365;-0.00107615;0.000778887;-0.000858593;0.0242541;0;0.025365;2.70841;1.05065
310000;311;25.793;0.0471829;0.00183264;-2.73197;25.6068;-1.45238;-0.062753;0.015025;-0.565895;-0.026781;-1.67293;-0.374094;1.71445;-5.35478;-0.000499667;0.000793248;0.000579306;0.000999136;-0.000919497;0.000959317;0.862527;1.15938;0.00110804;0.00127909;1.08661;0.920292;106.696;151.696;0.00177319;-0.000501985;0.00388406;-0.00229424;0.000572082;-0.0194127;0.0247628;0;0.040361;-0.0819073;-1.6776;-0.947531;1.92844;-6.81641;-0.000346486;0.000482395;0.000892999;0.00105861;-0.000512101;0.000785357;0.388003;2.5773;0.000924969;0.00104714;2.0672;0.483747;110.684;155.684;-0.00393333;-0.000346834;0.00193049;-0.000963905;0.000891254;-0.000711548;0.0259394;0;0.0249933;2.77285;1.05747
311000;312;25.793;0.0471749;0.00183233;-2.73267;25.6063;-1.45961;-0.0634588;0.0145306;-0.573124;-0.0259184;-1.67375;-0.377877;1.71607;-5.36392;1.01865e-05;0.00203198;0.00197665;0.00325078;-0.00126394;0.00225736;-0.00515342;-194.046;0.00268939;0.00300981;2.57193;0.388813;92.003;137.003;0.000552148;1.21462e-05;0.00452644;-0.000457599;0.00196848;-0.0138877;0.0234212;0;0.0538128;-0.0817628;-1.68073;-0.951626;1.93317;-6.82051;-0.000334966;0.000439486;0.000994051;0.00112624;-0.00046715;0.000796693;0.33697;2.96762;0.000945811;0.00106226;2.41087;0.414789;112.477;157.477;-0.00417348;-0.000335561;0.00205766;-0.00117654;0.000992033;-0.000769203;0.0252446;0;0.0245961;2.85194;1.06514
312000;313;25.7933;0.0474028;0.00184118;-2.73413;25.606;-1.46621;-0.0649109;0.014228;-0.579725;-0.0258524;-1.67701;-0.378839;1.71946;-5.35953;-0.000551649;0.00073882;0.000709744;0.00105046;-0.000892361;0.000971408;0.777251;1.28659;0.00112292;0.00129521;1.17716;0.849499;109.493;154.493;0.00148326;-0.000554444;0.00395824;-0.00247655;0.000702188;-0.0196086;0.0246907;0;0.0404093;-0.0815154;-1.68285;-0.955004;1.93667;-6.82389;-0.000447968;0.000499959;0.00107982;0.00122889;-0.000597032;0.000912959;0.414853;2.41049;0.00107503;0.00121728;2.05833;0.485831;112.429;157.429;-0.00450687;-0.000448342;0.00200114;-0.000998929;0.00107795;-0.00166022;0.0257116;0;0.0275684;2.90448;1.07247
313000;314;25.7918;0.0459624;0.00178523;-2.73377;25.6043;-1.47086;-0.0645525;0.0125486;-0.584376;-0.0254696;-1.67963;-0.37963;1.72219;-5.35659;-0.000452683;0.000945074;0.000931662;0.00141093;-0.000931948;0.00117144;0.485887;2.05809;0.00136205;0.00156192;1.51395;0.660522;105.891;150.891;0.000516263;-0.000454664;0.00409776;-0.00220326;0.00092372;-0.0139321;0.0235852;0;0.03836;-0.0812212;-1.68556;-0.957312;1.94014;-6.82619;-0.000527336;0.000459329;0.00101275;0.00113934;-0.000653925;0.000896633;0.520696;1.9205;0.00104791;0.00119551;1.74231;0.573951;115.175;160.175;-0.00503577;-0.000527846;0.00203065;-0.00110958;0.0010108;-0.000247329;0.0260854;0;0.0236288;2.97282;1.07992
314000;315;25.7938;0.0479216;0.00186133;-2.7336;25.6062;-1.47292;-0.0643848;0.0144219;-0.586432;-0.0256922;-1.68291;-0.380868;1.72566;-5.36156;-0.000608951;0.00107612;0.00103102;0.00156397;-0.00114189;0.00135293;0.590628;1.69311;0.00156855;0.00180391;1.36962;0.730127;106.655;151.655;0.00338159;-0.000610393;0.0041673;-0.00201;0.00102293;-0.0231799;0.0256959;0;0.0431277;-0.0813374;-1.68934;-0.961333;1.94542;-6.83021;-0.000410795;0.00032731;0.000979085;0.00105231;-0.000484017;0.000768162;0.41957;2.38339;0.000906999;0.00102422;2.17411;0.459958;117.455;162.455;-0.00488056;-0.000411603;0.00196981;-0.00131291;0.0009772;0.000144114;0.0251788;0;0.0226587;3.0504;1.08684
315000;316;25.7916;0.0457648;0.00177756;-2.735;25.6032;-1.48522;-0.0657885;0.0113888;-0.598734;-0.0239439;-1.68888;-0.369236;1.72893;-5.34993;-0.000337783;0.000954773;0.00177931;0.00214628;-0.000704759;0.00142552;0.18984;5.2676;0.00171475;0.0019007;3.04542;0.328362;107.626;152.626;-0.0011999;-0.000339895;0.00418226;-0.0022659;0.00177103;-0.0172696;0.0207324;0;0.0408957;-0.080132;-1.69457;-0.954537;1.94657;-6.82342;-0.000478931;0.00023096;0.000724751;0.000767546;-0.000521726;0.000644636;0.660822;1.51327;0.000748858;0.000859515;1.47117;0.679733;122.355;167.355;-0.00471737;-0.000479918;0.00188677;-0.00142286;0.000722999;-0.000763891;0.0227439;0;0.0248505;3.10526;1.09409
316000;317;25.7929;0.0470158;0.00182615;-2.73567;25.6043;-1.48548;-0.066453;0.0125629;-0.598993;-0.0232391;-1.68681;-0.380651;1.72938;-5.3667;0.000206524;0.00265026;0.00301145;0.00460745;-0.00138948;0.00299846;-0.0685797;-14.5816;0.00362468;0.00399795;3.31596;0.301572;87.6796;132.68;0.00153348;0.000210028;0.00518578;0.000121809;0.00300154;-0.0168873;0.0241947;0;0.0537593;-0.0803643;-1.69609;-0.962688;1.95191;-6.83157;-0.000596333;0.000173357;0.000841766;0.000862369;-0.000616935;0.000739652;0.708431;1.41157;0.000857986;0.000986203;1.39783;0.715396;125.752;170.752;-0.00443571;-0.000597108;0.00160566;-0.00125689;0.000840493;-2.61343e-05;0.022975;0;0.0269569;3.167;1.10067
317000;318;25.796;0.0500919;0.00194563;-2.73515;25.6075;-1.48569;-0.0659384;0.0157043;-0.599205;-0.0245611;-1.69271;-0.376548;1.73426;-5.35741;-0.000520834;0.0007187;0.00104298;0.0013231;-0.000800957;0.00106203;0.49937;2.00252;0.00123862;0.00141604;1.6519;0.605362;111.524;156.524;0.00178262;-0.000524442;0.00422302;-0.00278015;0.00103433;-0.0215443;0.0230658;0;0.0433984;-0.0810069;-1.70068;-0.96263;1.9559;-6.83151;-0.000382218;9.63439e-05;0.0007074;0.000715854;-0.000390671;0.000553262;0.540313;1.85078;0.000647983;0.000737683;1.83237;0.545741;126.683;171.683;-0.00536611;-0.000383079;0.00151007;-0.00131584;0.000706266;0.00145982;0.0217499;0;0.0311433;3.24499;1.10886
318000;319;25.796;0.0501396;0.00194748;-2.73621;25.6069;-1.49441;-0.0669948;0.0151321;-0.607926;-0.0230154;-1.69077;-0.385489;1.73431;-5.37153;9.72695e-05;0.00248274;0.00286647;0.0043246;-0.00136086;0.00284273;-0.0339336;-29.4694;0.00342795;0.00379031;3.17784;0.31468;89.707;134.707;0.00213508;0.000100344;0.00509052;-0.00011785;0.00285662;-0.0176669;0.0259291;0;0.0540066;-0.0804101;-1.70209;-0.971612;1.96154;-6.84049;-0.000379089;9.71378e-05;0.00108877;0.00109517;-0.00038549;0.000740332;0.34818;2.87208;0.000886989;0.000987109;2.841;0.351989;123.734;168.734;-0.00505131;-0.000379842;0.00142688;-0.00123066;0.00108776;0.000832701;0.0244131;0;0.0416951;3.30596;1.11504
319000;320;25.7966;0.0507607;0.0019716;-2.73624;25.6078;-1.49016;-0.0670291;0.0160017;-0.603677;-0.0228702;-1.69566;-0.378408;1.73752;-5.36414;0.000147068;0.00246997;0.003048;0.0044619;-0.00126683;0.00286436;-0.0482508;-20.7251;0.00347473;0.00381915;3.5221;0.283922;88.7908;133.791;0.00179148;0.000150118;0.00495722;-1.01081e-05;0.00303879;-0.0190993;0.0217924;0;0.0550667;-0.0805632;-1.70678;-0.965687;1.96268;-6.83457;-0.000522703;0.00017259;0.00093324;0.000953419;-0.000542882;0.000748151;0.560095;1.78541;0.000874661;0.000997534;1.75622;0.569405;123.654;168.654;-0.00485476;-0.000523269;0.00142447;-0.00107747;0.000932241;0.00289196;0.0229372;0;0.0472796;3.35371;1.11591
320000;321;25.7978;0.0519547;0.00201798;-2.73474;25.6092;-1.48954;-0.0655243;0.0174015;-0.603053;-0.0221491;-1.69841;-0.381409;1.74085;-5.36688;-0.000185588;0.00207026;0.00299234;0.00401312;-0.00120637;0.00260974;0.0620213;16.1235;0.00315537;0.00347966;3.32661;0.300607;95.0748;140.075;-0.0016236;-0.000183656;0.00479785;-0.000648713;0.002983;-0.0153451;0.0197879;0;0.0480534;-0.0800983;-1.7097;-0.973028;1.96882;-6.84191;-0.000455562;0.000142157;0.000966089;0.000980165;-0.000469637;0.000724901;0.471552;2.12066;0.000854167;0.000966535;2.08707;0.479141;123.542;168.542;-0.00427442;-0.000456161;0.00138985;-0.00110376;0.000965135;0.000803509;0.0242111;0;0.0315607;3.43697;1.12499
321000;322;25.8013;0.0554403;0.00215337;-2.73595;25.613;-1.4824;-0.0667342;0.0211977;-0.595915;-0.0210472;-1.69987;-0.384102;1.74286;-5.36958;-1.73542e-05;0.00200576;0.00277181;0.00382016;-0.00106571;0.00244294;0.00626098;159.719;0.00296652;0.00325725;3.58462;0.27897;93.6414;138.641;-0.00155823;-1.55497e-05;0.00466234;-0.000643443;0.00276297;-0.0151905;0.0181279;0;0.0487769;-0.0793351;-1.7129;-0.974381;1.97224;-6.84326;-0.000470329;-8.93325e-06;0.000821336;0.000821398;-0.000470391;0.000645894;0.572639;1.7463;0.000754937;0.000861193;1.7462;0.572671;131.28;176.28;-0.00387098;-0.000471082;0.00121036;-0.00122665;0.000820605;-3.28786e-05;0.0229185;0;0.0258975;3.50234;1.13102
322000;323;25.8026;0.0567675;0.00220492;-2.7351;25.6146;-1.47907;-0.0658836;0.0228183;-0.59258;-0.0208391;-1.70153;-0.382693;1.74416;-5.36817;1.46904e-05;0.00213059;0.00295978;0.00407718;-0.00110271;0.00258994;-0.00496333;-201.478;0.00315068;0.00345325;3.69743;0.270458;92.8393;137.839;-0.00118794;1.6802e-05;0.0048313;-0.000562209;0.00295041;-0.015875;0.021438;0;0.0513625;-0.0793515;-1.71555;-0.974845;1.97477;-6.84373;-0.000526562;2.74406e-05;0.0007842;0.000784774;-0.000527136;0.000655955;0.671464;1.48928;0.000762285;0.000874607;1.48875;0.671705;129.792;174.792;-0.00332951;-0.000526958;0.000945572;-0.000889489;0.000783753;0.000166465;0.0236149;0;0.0311668;3.54834;1.13849
323000;324;25.8056;0.0597465;0.00232063;-2.73568;25.6178;-1.47474;-0.0664671;0.0260062;-0.588257;-0.0219842;-1.70477;-0.382153;1.74722;-5.36763;-0.000402688;0.00148466;0.00213845;0.00282199;-0.00108624;0.00195412;0.188309;5.31043;0.00232942;0.00260549;2.59796;0.384918;101.597;146.597;-0.00200648;-0.000402434;0.00427873;-0.00130233;0.00213041;-0.012687;0.0202854;0;0.0467353;-0.0804346;-1.72048;-0.974641;1.979;-6.84352;-0.000432891;0.000133005;0.000944796;0.000957519;-0.000445614;0.000701567;0.458184;2.18253;0.000827875;0.000935422;2.14877;0.465383;123.519;168.519;-0.00366813;-0.000433455;0.00133833;-0.00107066;0.000943911;-0.00020541;0.0236174;0;0.0263529;3.63169;1.14591
324000;325;25.8065;0.0606233;0.00235468;-2.73505;25.6187;-1.47594;-0.0658398;0.0268876;-0.589451;-0.0211243;-1.70713;-0.38465;1.75006;-5.37039;3.85182e-05;0.00216632;0.00278576;0.00397725;-0.00115297;0.00256511;-0.0138268;-72.3232;0.00310795;0.00342015;3.44957;0.289891;91.8398;136.84;0.00114251;4.07767e-05;0.00475913;-0.00041939;0.00277681;-0.016653;0.0225914;0;0.0528146;-0.0798823;-1.72406;-0.977716;1.98361;-6.8466;-0.000557716;0.000232859;0.00137713;0.00140476;-0.000585346;0.000995055;0.404983;2.46924;0.00118101;0.00132674;2.39989;0.416686;119.568;164.568;-0.00318559;-0.000558274;0.00155049;-0.00108223;0.00137596;-0.00147117;0.0236842;0;0.0265965;3.70316;1.15296
325000;326;25.8069;0.0610607;0.00237167;-2.73505;25.619;-1.47853;-0.0658348;0.0271791;-0.592047;-0.0217615;-1.70817;-0.385691;1.75131;-5.37117;-0.000307419;0.00144407;0.00210709;0.00278207;-0.000982401;0.00188224;0.145897;6.85414;0.00225469;0.00250965;2.83191;0.353119;101.036;146.036;-0.00190812;-0.000307309;0.004261;-0.00136607;0.00209907;-0.0133634;0.0191711;0;0.0446595;-0.0802002;-1.72511;-0.980666;1.98599;-6.84955;-0.000626858;0.000238271;0.00124753;0.00127734;-0.000656672;0.000967006;0.502481;1.99012;0.00113561;0.00128934;1.94517;0.514094;121.412;166.412;-0.00364518;-0.000627455;0.00159767;-0.00111859;0.00124628;-0.00194358;0.0242474;0;0.0257072;3.74694;1.16049
326000;327;25.8071;0.0612558;0.00237925;-2.73678;25.619;-1.47769;-0.0675668;0.0272395;-0.5912;-0.0198478;-1.71163;-0.386107;1.75475;-5.37184;8.88754e-05;0.00219035;0.00308094;0.00423741;-0.00106759;0.0026525;-0.0288468;-34.6659;0.00323997;0.00353666;3.96913;0.251944;90.6134;135.613;0.000711482;9.12439e-05;0.00463301;-0.000245043;0.00307263;-0.0187984;0.0210965;0;0.0531724;-0.0794784;-1.72991;-0.981351;1.99047;-6.85023;-0.000557637;0.000259027;0.0014448;0.00147776;-0.000590601;0.00103418;0.385961;2.59093;0.00123024;0.00137891;2.50214;0.399658;117.636;162.636;-0.00362336;-0.000558052;0.00146685;-0.000946387;0.00144376;-0.000764521;0.0241162;0;0.0260689;3.82247;1.16807
327000;328;25.808;0.0621521;0.00241406;-2.73727;25.62;-1.47481;-0.0680561;0.0282561;-0.588319;-0.0192451;-1.71238;-0.390888;1.75653;-5.37662;0.00024603;0.00272912;0.00343337;0.00500006;-0.00132066;0.00316036;-0.0716584;-13.9551;0.00384986;0.00421382;3.78603;0.264129;85.5923;130.592;-0.000883904;0.000249646;0.00500395;0.000461504;0.00342461;-0.0144728;0.0217566;0;0.057294;-0.0792978;-1.73177;-0.986741;1.99473;-6.85562;-0.000525815;0.000339806;0.00167045;0.00172183;-0.000577188;0.00114951;0.314774;3.17688;0.00138109;0.00153268;2.98313;0.335218;113.961;158.961;-0.00344303;-0.000526158;0.00157744;-0.000895111;0.00166927;-0.00191753;0.0244036;0;0.0278124;3.89249;1.17512
328000;329;25.8081;0.0622171;0.00241659;-2.7374;25.6199;-1.47744;-0.0681824;0.0281563;-0.590954;-0.0194341;-1.71392;-0.392062;1.7583;-5.3776;8.77871e-05;0.00225583;0.00321722;0.00439788;-0.00109288;0.00274538;-0.0272867;-36.6479;0.00335606;0.00366051;4.02413;0.248501;90.8702;135.87;-0.000852737;9.02882e-05;0.00481307;-0.000293446;0.00320821;-0.0139262;0.0210607;0;0.0536939;-0.0794491;-1.73327;-0.989348;1.99734;-6.85823;-0.000611362;0.000359359;0.00156047;0.00161838;-0.000669278;0.00114383;0.391782;2.55244;0.00135814;0.00152511;2.4181;0.413548;113.788;158.788;-0.00361241;-0.000611543;0.00142253;-0.00070151;0.00155952;-0.00219014;0.0248722;0;0.0272279;3.94463;1.18127
329000;330;25.809;0.0631037;0.00245102;-2.73793;25.6205;-1.48264;-0.068714;0.0286921;-0.596153;-0.0211074;-1.71634;-0.391889;1.76063;-5.37742;0.000198885;0.00248408;0.00332426;0.0046963;-0.00117316;0.00293473;-0.0598284;-16.7145;0.00358646;0.00391298;4.00313;0.249805;88.874;133.874;0.00053497;0.000201966;0.00506777;-9.15724e-05;0.00331454;-0.0159923;0.0239611;0;0.0537312;-0.0811771;-1.73709;-0.988525;2.00031;-6.85741;-0.000574206;0.000370261;0.00164947;0.0017095;-0.000634237;0.00117187;0.348115;2.87262;0.00139982;0.00156249;2.69537;0.371006;114.623;159.623;-0.00371864;-0.000574579;0.00168312;-0.000939681;0.00164813;-0.00199146;0.024257;0;0.0246149;4.0176;1.18881
330000;331;25.8102;0.0643788;0.00250055;-2.73868;25.6216;-1.4831;-0.0694614;0.0298604;-0.596894;-0.0195706;-1.7198;-0.392986;1.76424;-5.37802;0.00048475;0.00265833;0.00372482;0.00521786;-0.00100829;0.00311307;-0.13014;-7.68401;0.00385883;0.00415077;5.17497;0.193238;86.583;131.583;-0.00332115;0.000488281;0.00534825;-2.29292e-05;0.00371409;-0.0138483;0.0248681;0;0.0559256;-0.0798458;-1.74101;-0.989247;2.00402;-6.85813;-0.000644517;0.000271134;0.00152551;0.00155887;-0.000677881;0.00111838;0.422494;2.3669;0.00132436;0.00149117;2.29962;0.434854;118.822;163.822;-0.00382676;-0.000645043;0.00160578;-0.00106063;0.00152426;-0.00163096;0.0229986;0;0.0283584;4.09674;1.19811
331000;332;25.8105;0.0646072;0.00250942;-2.73971;25.6215;-1.48734;-0.0704967;0.0297436;-0.600857;-0.0184036;-1.71867;-0.399802;1.76466;-5.38534;0.000366758;0.00246299;0.00377373;0.00506494;-0.00092445;0.00299469;-0.0971872;-10.2894;0.00372323;0.00399292;5.47887;0.182519;87.5955;132.595;-0.000426661;0.000369789;0.00498969;-5.51523e-05;0.00376435;-0.0155938;0.0245129;0;0.0569878;-0.0793826;-1.74057;-1.00032;2.00911;-6.86921;-0.000579166;0.000318546;0.00159205;0.00163782;-0.000624937;0.00113138;0.363787;2.74886;0.00134933;0.0015085;2.62078;0.381566;115.623;160.623;-0.00432478;-0.000579531;0.00155098;-0.000911217;0.0015909;-0.00181446;0.0242389;0;0.0247228;4.14384;1.19839
332000;333;25.8101;0.0641856;0.00249304;-2.74143;25.6208;-1.48911;-0.0722188;0.0290321;-0.602623;-0.0179105;-1.72228;-0.396039;1.76732;-5.38189;0.000293772;0.00252595;0.0033556;0.00477834;-0.00112897;0.00295366;-0.0875469;-11.4224;0.00362103;0.00393821;4.23247;0.236269;87.8698;132.87;-0.00160739;0.000296961;0.00509921;-3.94816e-05;0.00334582;-0.008372;0.0251435;0;0.056705;-0.0791935;-1.74471;-0.997602;2.01134;-6.86648;-0.000576437;0.000213658;0.00148039;0.00150235;-0.000598396;0.00105037;0.389381;2.56818;0.00124974;0.0014005;2.51063;0.398307;118.918;163.918;-0.0038709;-0.000576915;0.00143105;-0.00100124;0.00147939;-0.0013396;0.0240683;0;0.024934;4.21476;1.20538
333000;334;25.8112;0.0653164;0.00253697;-2.74108;25.6215;-1.497;-0.0718623;0.0297495;-0.610514;-0.0177332;-1.72509;-0.399827;1.77091;-5.38556;-0.000145084;0.00211292;0.00331694;0.00431738;-0.00114552;0.00273145;0.0437403;22.8622;0.0033265;0.00364193;3.76891;0.265329;94.5997;139.6;0.00118706;-0.000143047;0.00486138;-0.000626082;0.00330738;-0.0187065;0.023034;0;0.0562694;-0.0793575;-1.74844;-1.00414;2.01783;-6.87302;-0.0005653;0.000111886;0.0014523;0.00145848;-0.000571485;0.00101498;0.389245;2.56907;0.00120872;0.00135331;2.55209;0.391836;121.3;166.3;-0.00410625;-0.000565835;0.00126631;-0.00104021;0.0014515;-0.00123346;0.0238225;0;0.0269991;4.29191;1.21246
334000;335;25.8119;0.065986;0.00256297;-2.74085;25.6219;-1.50278;-0.0716373;0.0301101;-0.616289;-0.017598;-1.72661;-0.400824;1.77261;-5.38656;0.000333603;0.00256084;0.0033627;0.00482334;-0.00112704;0.00297519;-0.099207;-10.0799;0.00364972;0.00396692;4.27965;0.233664;87.0313;132.031;-0.000854296;0.000336879;0.00506758;6.16616e-05;0.00335317;-0.0114833;0.0219662;0;0.0568167;-0.0793393;-1.75115;-1.00593;2.02107;-6.87481;-0.00060086;0.000114795;0.00155005;0.00155616;-0.000606969;0.00108156;0.38764;2.57971;0.00128834;0.00144208;2.56381;0.390044;121.959;166.959;-0.00422277;-0.000601563;0.0014238;-0.0011914;0.00154904;1.76778e-05;0.0241675;0;0.0326902;4.34633;1.21902
335000;336;25.8153;0.0694622;0.00269799;-2.74018;25.6258;-1.49619;-0.0709642;0.0340696;-0.609699;-0.0179082;-1.7283;-0.402527;1.77465;-5.38826;1.50944e-05;0.00237283;0.00359433;0.00477676;-0.00116734;0.00297205;-0.00419949;-238.124;0.00363662;0.00396273;4.09202;0.244378;91.7489;136.749;0.00138891;1.78458e-05;0.00511217;-0.000356752;0.00358411;-0.0191225;0.0226032;0;0.0559105;-0.0795138;-1.75427;-1.00738;2.0245;-6.87626;-0.000561972;1.41905e-05;0.0015396;0.0015397;-0.000562068;0.00105088;0.365012;2.73964;0.00125645;0.00140118;2.73934;0.365051;123.238;168.238;-0.00415368;-0.000562636;0.00118324;-0.00115241;0.0015389;0.000457385;0.0259053;0;0.0363703;4.4153;1.22675
336000;337;25.8155;0.069612;0.00270381;-2.74039;25.6254;-1.50522;-0.0711736;0.033669;-0.618734;-0.0173608;-1.73135;-0.401861;1.77746;-5.38791;9.19741e-05;0.00224695;0.00437493;0.00533744;-0.000870529;0.00310398;-0.021023;-47.567;0.00388115;0.00413864;6.13125;0.163099;92.1761;137.176;0.00211588;9.43785e-05;0.00499505;-0.000489449;0.00436503;-0.0191118;0.0240312;0;0.0585958;-0.0794867;-1.75871;-1.00879;2.02905;-6.87767;-0.000615918;8.42362e-06;0.00171835;0.00171838;-0.000615948;0.00116717;0.358435;2.78991;0.00139693;0.00155622;2.78982;0.358446;120.956;165.956;-0.00396181;-0.000616462;0.00106231;-0.001043;0.00171779;0.000147678;0.0239803;0;0.0359323;4.49272;1.2333
337000;338;25.8155;0.0695976;0.00270325;-2.74036;25.6253;-1.50733;-0.0711493;0.033533;-0.620846;-0.0174073;-1.73343;-0.404208;1.78002;-5.38994;7.47949e-05;0.00214017;0.00434943;0.00523675;-0.000812526;0.00302464;-0.0171965;-58.1514;0.00379114;0.00403285;6.44503;0.155158;93.2642;138.264;0.0020982;7.6872e-05;0.00494487;-0.000652613;0.00433954;-0.0187512;0.0200278;0;0.0570944;-0.0799282;-1.76154;-1.01215;2.03319;-6.88103;-0.000572663;8.72859e-05;0.00177694;0.00178018;-0.000575902;0.00117804;0.322275;3.10294;0.00141828;0.00157072;3.09112;0.323508;116.02;161.02;-0.00355715;-0.000572992;0.000992006;-0.000815312;0.00177645;-0.000537573;0.0249833;0;0.0396828;4.54813;1.24087
338000;339;25.8158;0.0699829;0.00271822;-2.73933;25.6259;-1.50549;-0.0701102;0.0341407;-0.619002;-0.0184523;-1.7354;-0.404557;1.78203;-5.39029;-0.000136732;0.00197988;0.00391583;0.00472253;-0.000943427;0.00283298;0.0349178;28.6387;0.0035054;0.0037773;5.00572;0.199772;95.2134;140.213;0.000695122;-0.000135017;0.00467042;-0.000699801;0.00390692;-0.0152628;0.0226274;0;0.0590596;-0.0808419;-1.76464;-1.01356;2.03661;-6.88244;-0.000557423;0.000105916;0.00167724;0.00168225;-0.000562431;0.00112234;0.332345;3.00892;0.00134865;0.00149645;2.99103;0.334333;119.342;164.342;-0.00332802;-0.000557966;0.00126231;-0.0010479;0.00167645;0.000281986;0.0231447;0;0.0344114;4.6138;1.24806
339000;340;25.8201;0.0742169;0.00288267;-2.7385;25.6307;-1.49903;-0.0692821;0.038873;-0.612545;-0.0165725;-1.73834;-0.408386;1.78575;-5.39412;-0.000174361;0.00191921;0.0039792;0.00473021;-0.000925368;0.00282779;0.0438181;22.8216;0.00350291;0.00377038;5.1117;0.19563;96.006;141.006;0.00193661;-0.000172821;0.00462734;-0.000777732;0.00397037;-0.017351;0.0226887;0;0.0566166;-0.0794402;-1.76938;-1.01771;2.04273;-6.88659;-0.0005535;5.01999e-05;0.00177161;0.00177269;-0.000554583;0.00116364;0.312428;3.20074;0.00140366;0.00155152;3.19644;0.312848;117.688;162.688;-0.00338986;-0.000553921;0.00102166;-0.000919002;0.00177109;-0.000312676;0.0249007;0;0.0300306;4.69855;1.25593
340000;341;25.8191;0.0732805;0.0028463;-2.7392;25.6291;-1.50749;-0.0699899;0.0373581;-0.621;-0.0168074;-1.73973;-0.407773;1.78696;-5.39351;-5.70609e-05;0.00183777;0.00408786;0.00478533;-0.000754529;0.00276993;0.0139586;71.6403;0.00346919;0.00369324;6.34213;0.157676;96.2131;141.213;0.00268185;-5.58143e-05;0.00462752;-0.000940472;0.00407888;-0.0193324;0.0226433;0;0.0562054;-0.0797266;-1.77122;-1.01845;2.0447;-6.88733;-0.000621396;0.000159709;0.0019503;0.00196018;-0.000631276;0.00129573;0.318616;3.13858;0.00156037;0.00172764;3.1051;0.32205;115.804;160.804;-0.00311561;-0.000621819;0.00125513;-0.000932897;0.00194952;-0.000443957;0.0251667;0;0.0269283;4.7413;1.26156
341000;342;25.8207;0.0748252;0.0029063;-2.73971;25.6309;-1.50383;-0.0704949;0.0390753;-0.61734;-0.0170447;-1.74028;-0.41011;1.78803;-5.39584;-0.000198022;0.00200839;0.00404874;0.00484809;-0.000997372;0.00292273;0.0489095;20.4459;0.00361073;0.00389697;4.86086;0.205725;95.3942;140.394;0.0025162;-0.000196226;0.00469316;-0.000665044;0.00403978;-0.0179224;0.0235371;0;0.053464;-0.0801079;-1.77283;-1.02179;2.04778;-6.89067;-0.0006097;0.000173091;0.00203972;0.00205099;-0.00062096;0.00133597;0.298913;3.34546;0.00161462;0.0017813;3.30293;0.302762;114.304;159.304;-0.00308138;-0.00061008;0.00123823;-0.000889232;0.00203897;-0.00102429;0.0257983;0;0.0267518;4.80402;1.26354
342000;343;25.8212;0.0753677;0.00292737;-2.74047;25.6312;-1.50665;-0.0712554;0.0393746;-0.620165;-0.0173132;-1.74329;-0.410158;1.79098;-5.39589;-8.02227e-05;0.00193509;0.00405368;0.00481813;-0.000844677;0.0028314;0.0197901;50.5303;0.00352752;0.00377521;5.70411;0.175312;95.6131;140.613;0.00205636;-7.87022e-05;0.0047205;-0.000838871;0.00404445;-0.0175609;0.0238403;0;0.0580189;-0.0807061;-1.7766;-1.02241;2.05137;-6.89129;-0.000698883;0.000240877;0.00216425;0.00218438;-0.000719006;0.00145169;0.322921;3.09673;0.00174599;0.00193559;3.03805;0.329158;113.957;158.957;-0.00323332;-0.000699266;0.00139298;-0.000907931;0.00216331;-0.00113148;0.0269405;0;0.0258588;4.8845;1.27297
343000;344;25.8239;0.078017;0.00303027;-2.74025;25.6341;-1.50188;-0.0710379;0.0423375;-0.615666;-0.0173673;-1.74599;-0.415303;1.79479;-5.3952;-0.000744002;0.000714066;0.00250396;0.00265401;-0.000894057;0.00177404;0.29713;3.36553;0.00213083;0.00236538;2.96851;0.33687;115.721;160.721;-0.000979509;-0.000747207;0.00406862;-0.00262963;0.00249596;-0.0208993;0.0226731;0;0.0587041;-0.0804909;-1.77884;-1.02655;2.05537;-6.89543;-0.000732529;0.000357941;0.00232842;0.00236972;-0.000773829;0.00157178;0.314603;3.17861;0.00189128;0.0020957;3.06233;0.326548;108.613;153.613;-0.00299013;-0.000732649;0.00132491;-0.00060608;0.00232761;-0.00173029;0.0274138;0;0.025502;4.93536;1.27761
344000;345;25.823;0.0771092;0.00299502;-2.74224;25.6327;-1.50665;-0.0730293;0.04093;-0.620438;-0.0145981;-1.74879;-0.416297;1.79772;-5.39619;-0.000551072;0.000763733;0.00306269;0.00321747;-0.00070585;0.00196166;0.179931;5.5577;0.0024149;0.00261555;4.55829;0.21938;112.807;157.807;-0.00185553;-0.000553758;0.00397894;-0.0024399;0.00305509;-0.0241553;0.0218833;0;0.0504035;-0.0783512;-1.78195;-1.02887;2.05914;-6.89775;-0.000799637;0.000236522;0.0023034;0.00232133;-0.000817561;0.00156945;0.347154;2.88056;0.00188028;0.00209259;2.83933;0.352195;112.267;157.267;-0.00319574;-0.000799904;0.00124461;-0.000768449;0.00230266;-0.00112857;0.0259658;0;0.0278052;5.0048;1.28525
345000;346;25.8248;0.0789171;0.00306523;-2.74285;25.6343;-1.50873;-0.0736392;0.0425635;-0.622521;-0.0162642;-1.75091;-0.417043;1.79996;-5.39662;-0.000399668;0.001209;0.00359524;0.00393264;-0.000737062;0.00233485;0.111166;8.99557;0.00289885;0.00311313;5.33556;0.187422;106.091;151.091;-0.00226078;-0.00040091;0.00441691;-0.00198614;0.00358625;-0.0151991;0.0177435;0;0.0515891;-0.0799817;-1.78519;-1.03059;2.06287;-6.89947;-0.000677044;0.000287269;0.00229039;0.00231795;-0.000704598;0.00151127;0.295602;3.38293;0.00182605;0.00201503;3.28975;0.303975;110.033;155.033;-0.00300163;-0.000677255;0.00128717;-0.000709667;0.00228961;-0.00243372;0.0264673;0;0.0288346;5.08452;1.29246
346000;347;25.8259;0.0800499;0.00310923;-2.74291;25.6355;-1.50783;-0.0736965;0.0437517;-0.621617;-0.0159894;-1.75508;-0.413772;1.80327;-5.39217;-0.000741361;0.000504763;0.00285344;0.00292298;-0.000810892;0.00186693;0.259813;3.84893;0.0022678;0.00248924;3.60464;0.27742;118.739;163.739;-0.00661412;-0.000745745;0.00402506;-0.00300292;0.00284549;-0.025106;0.00930886;0;0.0480353;-0.0797504;-1.7886;-1.0292;2.06511;-6.89808;-0.000688062;0.000308932;0.00220733;0.00223993;-0.000720658;0.00148029;0.311717;3.20804;0.00178274;0.00197372;3.10817;0.321733;112.198;157.198;-0.0031652;-0.000688364;0.00145761;-0.000836431;0.00220632;-0.00253856;0.0259004;0;0.0264323;5.141;1.30022
347000;348;25.8256;0.0797538;0.00309774;-2.74359;25.635;-1.51042;-0.0743777;0.0432282;-0.624206;-0.015153;-1.75592;-0.413299;1.80396;-5.39169;-0.000517687;0.000773211;0.00286981;0.00303796;-0.000685829;0.00186189;0.18039;5.54354;0.00228843;0.00248252;4.42961;0.225753;113.349;158.349;-0.00724972;-0.000521046;0.00426245;-0.00270425;0.00286105;-0.0182006;0.0148355;0;0.0495279;-0.0792951;-1.7901;-1.02925;2.06642;-6.89814;-0.000740442;0.000215289;0.00238951;0.00240425;-0.000755181;0.00157971;0.309872;3.22714;0.00190512;0.00210629;3.18367;0.314103;111.339;156.339;-0.00310169;-0.000740728;0.00121891;-0.000785203;0.00238879;-0.00234939;0.0253961;0;0.0259161;5.19235;1.30757
348000;349;25.8276;0.0817188;0.00317405;-2.74397;25.6369;-1.51092;-0.0747533;0.0451475;-0.624432;-0.0146915;-1.75763;-0.413407;1.80565;-5.39945;-0.000786689;0.000551902;0.00311507;0.00319163;-0.000863253;0.00202744;0.252543;3.95972;0.00246639;0.00270326;3.69722;0.270474;115.989;160.989;-0.000661681;-0.000789195;0.00341989;-0.00230493;0.00310939;-0.0133716;0.0197745;0;0.057034;-0.0790228;-1.794;-1.0327;2.07151;-6.90158;-0.000810797;0.000108289;0.00231669;0.00232043;-0.000814542;0.00156749;0.349981;2.8573;0.00187829;0.00208998;2.84876;0.35103;112.587;157.587;-0.00340313;-0.000811081;0.000981079;-0.000761778;0.00231621;-0.00224024;0.0256367;0;0.0309495;5.27757;1.31535
349000;350;25.8289;0.0830234;0.00322473;-2.74387;25.638;-1.51499;-0.0746504;0.0462231;-0.628778;-0.0143579;-1.75994;-0.418164;1.80899;-5.4007;-0.000711299;0.000768979;0.00289953;0.00305647;-0.000868242;0.00196236;0.245315;4.07639;0.00238044;0.00261648;3.5203;0.284067;112.497;157.497;-0.00392655;-0.000712915;0.00350295;-0.00195515;0.0028937;-0.0168001;0.0220932;0;0.0572985;-0.0792398;-1.79715;-1.03691;2.07635;-6.90579;-0.000824661;9.38694e-05;0.00225447;0.00225733;-0.00082752;0.00154242;0.365789;2.73381;0.00184371;0.00205657;2.72782;0.366593;115.045;160.045;-0.00361858;-0.00082504;0.00106562;-0.000874892;0.00225391;-0.00139042;0.0254519;0;0.0266731;5.34079;1.32232
350000;351;25.8295;0.0836468;0.00324894;-2.74345;25.6385;-1.51742;-0.0742401;0.0467611;-0.63093;-0.0140169;-1.76068;-0.418728;1.80984;-5.40477;-0.00037826;0.0015246;0.00445117;0.0048922;-0.000819286;0.00285574;0.0849799;11.7675;0.00356607;0.00380766;5.97129;0.167468;99.6162;144.616;-0.00218176;-0.000377637;0.00410031;-0.00103873;0.00444396;-0.0114495;0.0184879;0;0.0563713;-0.0791207;-1.79946;-1.03703;2.0784;-6.90592;-0.000782976;1.42958e-05;0.00235748;0.00235754;-0.000783041;0.00157029;0.332124;3.01092;0.00188765;0.00209372;3.01076;0.332142;114.274;159.274;-0.00346792;-0.000783375;0.000924799;-0.000893355;0.00235705;-0.000429526;0.0263104;0;0.0307186;5.38915;1.32701
351000;352;25.8321;0.086243;0.00334978;-2.74425;25.6413;-1.51336;-0.0750308;0.0495225;-0.627145;-0.0147961;-1.76296;-0.42231;1.81289;-5.40334;-0.000388823;0.00156639;0.003504;0.00405601;-0.000940833;0.00249842;0.110965;9.01182;0.00306612;0.00333123;4.31109;0.23196;101.152;146.152;-2.87794e-05;-0.000388396;0.00440852;-0.00126472;0.00349554;-0.0206822;0.0159958;0;0.0498068;-0.0798952;-1.80306;-1.04274;2.08439;-6.91162;-0.000840787;-5.33471e-05;0.00250704;0.00250789;-0.000841637;0.00167476;0.335371;2.98177;0.00201203;0.00223302;2.97977;0.335596;114.051;159.051;-0.0034212;-0.000841213;0.000820363;-0.00092414;0.0025067;-0.000927157;0.0259045;0;0.0410165;5.47533;1.3362
352000;353;25.8343;0.0884585;0.00343583;-2.74381;25.6437;-1.51185;-0.0745928;0.0518902;-0.625637;-0.0137791;-1.76659;-0.417798;1.81537;-5.40034;-0.000952994;0.000517708;0.00289668;0.00296509;-0.0010214;0.00199324;0.328995;3.03956;0.00239105;0.00265766;2.90296;0.344476;117.668;162.668;-0.00143646;-0.000955321;0.00326378;-0.00221782;0.0028915;-0.0221585;0.0191868;0;0.052884;-0.0788818;-1.80705;-1.04069;2.08678;-6.90957;-0.000829001;-6.35178e-05;0.00256255;0.00256374;-0.00083019;0.00169697;0.323506;3.09114;0.00204292;0.00226262;3.08814;0.32382;114.085;159.085;-0.00317211;-0.000829461;0.000837573;-0.00096156;0.00256221;0.00022105;0.0248719;0;0.0390093;5.53518;1.34307
353000;354;25.8367;0.0908019;0.00352685;-2.74468;25.6462;-1.50698;-0.0754614;0.0544446;-0.620769;-0.0128271;-1.7673;-0.422379;1.81712;-5.40492;-0.000373833;0.00141599;0.00350707;0.00396878;-0.000835541;0.00240216;0.106594;9.38137;0.00296389;0.00320288;4.74995;0.210529;101.461;146.461;-0.00666444;-0.000373551;0.0040424;-0.00120028;0.00349993;-0.0117736;0.0182232;0;0.0554971;-0.0789449;-1.81003;-1.04278;2.09041;-6.91166;-0.000759376;-0.000107366;0.00260183;0.00260526;-0.000762802;0.00168403;0.291862;3.42627;0.00203923;0.00224537;3.41538;0.292793;110.723;155.723;-0.00333577;-0.000759707;0.000609028;-0.000821358;0.00260165;-0.000450078;0.0242505;0;0.0353842;5.58721;1.34418
354000;355;25.8393;0.0934226;0.00362864;-2.74252;25.6492;-1.50504;-0.073303;0.0574297;-0.618826;-0.0133029;-1.77079;-0.421409;1.82029;-5.40244;-0.000651428;0.000981002;0.00330936;0.00353902;-0.000881085;0.00221005;0.196844;5.08017;0.00270137;0.00294674;4.01666;0.248963;109.303;154.303;0.000236863;-0.000652697;0.0038437;-0.0018704;0.00330248;-0.0195024;0.0192573;0;0.0529081;-0.0791469;-1.8143;-1.04507;2.09526;-6.91395;-0.000862482;-0.000152258;0.00257629;0.00258302;-0.00086921;0.00172611;0.334777;2.98706;0.0020734;0.00230148;2.97168;0.33651;114.379;159.379;-0.00254084;-0.000862942;0.000668998;-0.000970697;0.00257608;-0.00047383;0.0251695;0;0.0308815;5.66504;1.35121
355000;356;25.8397;0.0938106;0.00364372;-2.74353;25.6495;-1.5055;-0.0743155;0.0576851;-0.619289;-0.0122974;-1.77233;-0.425544;1.82275;-5.40658;-0.000289895;0.00148564;0.00340878;0.0039316;-0.000812723;0.00237216;0.0850436;11.7587;0.0029298;0.00316288;4.83757;0.206715;100.789;145.789;-0.00272764;-0.000289585;0.00424155;-0.00126013;0.00340091;-0.013652;0.017961;0;0.0485392;-0.0787754;-1.81743;-1.04844;2.09964;-6.91732;-0.000777005;-0.000102799;0.00269031;0.00269336;-0.00078005;0.0017367;0.288816;3.46242;0.00210435;0.00231561;3.4528;0.28962;109.012;154.012;-0.00276646;-0.000777291;0.000559846;-0.000763153;0.00269016;-0.0014018;0.0252295;0;0.0333829;5.73545;1.35888
356000;357;25.8405;0.0946901;0.00367788;-2.7435;25.6504;-1.50414;-0.0742874;0.0586538;-0.617931;-0.0125966;-1.77582;-0.420861;1.82505;-5.40189;-0.000304439;0.00128228;0.0037897;0.00415815;-0.00067289;0.00241552;0.0803333;12.4481;0.00302148;0.0032207;6.17954;0.161824;103.847;148.847;-0.00172219;-0.000305086;0.00429033;-0.00171351;0.00378135;-0.0157715;0.0206;0;0.0520655;-0.0791549;-1.82142;-1.04463;2.10121;-6.91351;-0.000782944;-4.70463e-05;0.00276004;0.00276066;-0.000783569;0.00177212;0.283672;3.5252;0.00214977;0.00236282;3.52319;0.283834;110.036;155.036;-0.00287316;-0.000783292;0.000743112;-0.000834413;0.00275976;-0.000913396;0.0272316;0;0.0327962;5.78106;1.36624
357000;358;25.843;0.0971897;0.00377496;-2.7469;25.6529;-1.49922;-0.0776837;0.0610964;-0.613012;-0.0117992;-1.77759;-0.42458;1.82763;-5.40561;-0.000474954;0.00101894;0.00397649;0.00419864;-0.000697103;0.00244787;0.119441;8.37236;0.00305806;0.00326383;6.02298;0.166031;107.412;152.412;-0.00114961;-0.000476337;0.00400122;-0.00195013;0.00396903;-0.0157831;0.019775;0;0.0508785;-0.0792175;-1.82524;-1.04665;2.10553;-6.91553;-0.000802213;-3.20998e-05;0.00274669;0.00274698;-0.000802504;0.00177474;0.292066;3.42389;0.00214935;0.00236632;3.42301;0.292141;108.54;153.54;-0.00210997;-0.000802486;0.000677518;-0.000739207;0.00274646;-0.00167918;0.0263589;0;0.0272312;5.85709;1.37389
358000;359;25.8418;0.0959332;0.00372616;-2.7456;25.6511;-1.51037;-0.0763852;0.0593252;-0.623885;-0.0118956;-1.78058;-0.421106;1.82974;-5.40715;-0.000227011;0.00201431;0.00523797;0.00590018;-0.000889215;0.0033947;0.0433395;23.0736;0.0042609;0.00452626;6.63527;0.15071;93.8712;138.871;-0.000628035;-0.00022507;0.00446121;-0.000419297;0.00523009;-0.0162425;0.0202278;0;0.0605665;-0.0791805;-1.829;-1.04819;2.10955;-6.91708;-0.000919994;5.68009e-06;0.00295535;0.00295536;-0.000920002;0.00193768;0.311298;3.21236;0.00233804;0.00258357;3.21234;0.3113;107.918;152.918;-0.00216373;-0.000920263;0.000747563;-0.000733336;0.00295507;-0.00181519;0.0270168;0;0.0277081;5.93047;1.38087
359000;360;25.8419;0.0959973;0.00372865;-2.74496;25.6512;-1.51104;-0.0757451;0.0594189;-0.624554;-0.0112195;-1.78206;-0.424008;1.83184;-5.41005;-0.000153058;0.00200922;0.00514765;0.00582315;-0.000828563;0.00332586;0.0297337;33.6319;0.00418572;0.00443448;7.02801;0.142288;93.5418;138.542;0.000304047;-0.00015113;0.00445733;-0.000425997;0.00513977;-0.0148821;0.0200935;0;0.0593718;-0.0788573;-1.83205;-1.04748;2.11183;-6.91636;-0.000811771;6.5503e-05;0.00293679;0.00293793;-0.000812915;0.00187542;0.276415;3.61775;0.00227846;0.00250056;3.61407;0.276696;108.561;153.561;-0.0022215;-0.000812088;0.000932543;-0.000798297;0.00293636;-0.0021428;0.0254422;0;0.0274826;5.97839;1.38838
360000;361;25.8438;0.0979301;0.00380372;-2.74697;25.6529;-1.51186;-0.0777536;0.0610933;-0.625648;-0.0114018;-1.78133;-0.43498;1.83371;-5.41601;-0.000609797;0.000765277;0.00365477;0.00378794;-0.000742968;0.00226545;0.16685;5.99341;0.00280593;0.0030206;5.09839;0.19614;111.578;156.578;-0.00205033;-0.000611962;0.00375983;-0.00221656;0.00364802;-0.0146214;0.0207857;0;0.0521653;-0.0790707;-1.83139;-1.06198;2.1185;-6.93086;-0.000916846;8.10149e-05;0.00317073;0.00317233;-0.000918451;0.00204539;0.289159;3.4583;0.00247843;0.00272719;3.454;0.289519;105.567;150.567;-0.00264005;-0.000917062;0.000826757;-0.000661688;0.00317039;-0.00200424;0.0288241;0;0.0276216;6.04742;1.39553
361000;362;25.8407;0.0948737;0.00368501;-2.74435;25.6494;-1.5229;-0.0751355;0.0576412;-0.636689;-0.0124629;-1.78561;-0.436155;1.83815;-5.41719;-0.000879999;0.000644226;0.0036213;0.00371169;-0.000970385;0.00234104;0.243006;4.11512;0.00285346;0.00312138;3.82496;0.261441;115.595;160.595;-3.56384e-05;-0.000883227;0.00392346;-0.0026203;0.00361384;-0.0195053;0.0242451;0;0.065211;-0.0794919;-1.83495;-1.06487;2.12304;-6.93376;-0.000969454;8.55378e-05;0.00314057;0.00314235;-0.000971233;0.00205679;0.308687;3.23953;0.0024828;0.00274239;3.23542;0.309079;108.106;153.106;-0.00297447;-0.000969755;0.000954993;-0.000780356;0.00314012;-0.00151953;0.0288451;0;0.0272852;6.12153;1.40332
362000;363;25.843;0.0971146;0.00377205;-2.7469;25.6517;-1.51826;-0.0776887;0.0599007;-0.632048;-0.0122992;-1.78888;-0.427687;1.83933;-5.40872;-0.00064667;0.00078352;0.00418912;0.0043129;-0.000770451;0.00254168;0.154369;6.47799;0.00316351;0.0033889;5.59789;0.178639;111.71;156.71;0.000610451;-0.000649413;0.00405208;-0.0024693;0.00418125;-0.0217413;0.0236821;0;0.0557605;-0.0798095;-1.83891;-1.05626;2.12218;-6.92514;-0.00103213;8.6076e-05;0.00319436;0.00319611;-0.00103388;0.002115;0.32311;3.09493;0.00254632;0.00281999;3.09137;0.323481;109.252;154.252;-0.00280746;-0.00103248;0.00102385;-0.00084775;0.00319384;-0.00121698;0.0277651;0;0.027263;6.16882;1.40688
363000;364;25.8448;0.0988975;0.0038413;-2.74671;25.6528;-1.52927;-0.0774967;0.0610632;-0.643061;-0.0116941;-1.78887;-0.435251;1.8411;-5.41628;-0.000730268;0.000846714;0.00439861;0.00453478;-0.000866435;0.00270061;0.166022;6.02329;0.00334956;0.00360081;5.23384;0.191064;110.585;155.585;0.000888612;-0.000732478;0.00397517;-0.00226577;0.0043911;-0.0180994;0.0250169;0;0.0549632;-0.0796722;-1.84023;-1.06474;2.12755;-6.93362;-0.000960768;6.40127e-05;0.00316219;0.00316319;-0.000961762;0.00206247;0.30383;3.29132;0.00249203;0.00274997;3.28895;0.304048;105.926;150.926;-0.00285377;-0.000960989;0.00079864;-0.000667596;0.00316188;-0.00115487;0.0280527;0;0.0248843;6.23836;1.41348
364000;365;25.8438;0.0979376;0.00380402;-2.74752;25.6518;-1.52891;-0.0783067;0.0600308;-0.642703;-0.0120296;-1.7939;-0.43341;1.84556;-5.41444;-0.000528591;0.000998233;0.00444824;0.004641;-0.000721347;0.00268117;0.118832;8.41528;0.00336035;0.0035749;6.43379;0.155429;108.28;153.28;-0.00171962;-0.000530506;0.00420865;-0.00219629;0.00443992;-0.0114233;0.0221781;0;0.0538811;-0.0797936;-1.8452;-1.06517;2.13207;-6.93406;-0.000942938;7.19629e-05;0.0032878;0.00328903;-0.000944162;0.00211659;0.286799;3.48676;0.00256598;0.00282213;3.48354;0.287064;108.423;153.423;-0.0031272;-0.000943315;0.0010179;-0.000869981;0.00328729;-0.000610382;0.0280362;0;0.0257196;6.31161;1.42338
365000;366;25.8439;0.0980694;0.00380913;-2.7459;25.6516;-1.5376;-0.0766891;0.0598176;-0.651389;-0.0116057;-1.79399;-0.435341;1.84609;-5.41638;-0.000636085;0.000860156;0.00453965;0.00467886;-0.00077529;0.00272707;0.140118;7.13686;0.0034072;0.0036361;6.03497;0.165701;109.469;154.469;-0.00182564;-0.000638111;0.00392431;-0.00218822;0.00453235;-0.0142277;0.0237313;0;0.0520002;-0.0797196;-1.84628;-1.06659;2.13371;-6.93547;-0.00100753;-1.71022e-05;0.00338075;0.00338082;-0.0010076;0.00219421;0.298021;3.35547;0.00265428;0.00292561;3.35532;0.298034;108.159;153.159;-0.0031593;-0.00100792;0.000844145;-0.000874583;0.0033804;-0.00111704;0.0272734;0;0.0246117;6.35431;1.42547
366000;367;25.8457;0.0998629;0.0038788;-2.74661;25.6536;-1.53299;-0.0773982;0.0618242;-0.646784;-0.0127682;-1.79363;-0.445318;1.84813;-5.42635;-0.00059242;0.000948802;0.00405237;0.00423871;-0.000778758;0.00250873;0.146191;6.84037;0.00311798;0.00334498;5.4429;0.183726;109.558;154.558;-0.0018036;-0.000594442;0.00413565;-0.00222331;0.0040443;-0.012159;0.0224688;0;0.0534569;-0.0809934;-1.8474;-1.07764;2.14027;-6.94652;-0.000963092;8.40816e-05;0.00331921;0.00332086;-0.000964742;0.0021428;0.290157;3.44641;0.00259594;0.00285707;3.44222;0.29051;108.198;153.198;-0.00297995;-0.000963456;0.00102949;-0.000857287;0.00331868;-0.000749226;0.028448;0;0.0272175;6.42311;1.43281
367000;368;25.8464;0.100496;0.00390339;-2.746;25.6538;-1.54104;-0.0767885;0.0620454;-0.65483;-0.01253;-1.79845;-0.440627;1.85169;-5.42317;-0.000719558;0.000867697;0.00471219;0.00484743;-0.000854801;0.00285112;0.152701;6.54873;0.00355102;0.00380149;5.67083;0.176341;109.68;154.68;-0.00630325;-0.000721649;0.003973;-0.00222083;0.00470471;-0.0108303;0.0214374;0;0.0592624;-0.0809246;-1.85352;-1.07416;2.14381;-6.94304;-0.000983066;-5.77984e-05;0.00350143;0.00350218;-0.000983811;0.00224299;0.280761;3.56175;0.00272263;0.00299066;3.55981;0.280914;109.3;154.3;-0.0033544;-0.000983575;0.000898996;-0.00101032;0.00350103;0.000254023;0.026447;0;0.0272764;6.4871;1.44198
368000;369;25.849;0.103173;0.00400737;-2.74764;25.6565;-1.53775;-0.0784211;0.0647653;-0.651538;-0.0137779;-1.80115;-0.437473;1.85357;-5.42001;-0.000812948;0.00116954;0.00445668;0.00470459;-0.00106085;0.00288272;0.182411;5.48212;0.00354335;0.00384363;4.43472;0.225493;106.76;151.76;-0.00638262;-0.000813691;0.00404352;-0.00168937;0.00444922;-0.00877965;0.0199956;0;0.0610327;-0.081852;-1.85726;-1.0738;2.14689;-6.94268;-0.00100021;-9.55521e-05;0.00355502;0.00355702;-0.00100221;0.00227961;0.281351;3.55428;0.0027666;0.00303949;3.54917;0.281756;106.793;151.793;-0.00347522;-0.00100058;0.000680487;-0.000868068;0.00355479;0.00106201;0.0296256;0;0.041629;6.53534;1.44901
369000;370;25.8516;0.105709;0.00410586;-2.74626;25.659;-1.54125;-0.0770427;0.0672573;-0.655042;-0.0136821;-1.80217;-0.441124;1.85542;-5.42366;-0.000869776;0.000831327;0.00432989;0.00445957;-0.000999455;0.00272951;0.200877;4.97816;0.00335617;0.00363935;4.462;0.224115;110.965;155.965;-0.00586033;-0.0008717;0.00380784;-0.00212978;0.00432301;-0.0117545;0.0234116;0;0.0600476;-0.0817884;-1.85936;-1.07872;2.15117;-6.9476;-0.000961621;-5.58174e-05;0.00370399;0.00370466;-0.000962289;0.00233347;0.259618;3.85182;0.0028453;0.0031113;3.84984;0.259751;106.768;151.768;-0.00275574;-0.000962041;0.000809948;-0.000917558;0.00370367;0.000617233;0.0293732;0;0.0385557;6.5824;1.45588
370000;371;25.8559;0.110017;0.00427318;-2.74707;25.6641;-1.52837;-0.0778515;0.0722814;-0.642159;-0.0131638;-1.80243;-0.452074;1.8583;-5.43461;-0.00067699;0.00127984;0.00447278;0.00477331;-0.000977521;0.00287542;0.151358;6.60687;0.00355316;0.00383389;4.88308;0.204789;104.977;149.977;-0.00573789;-0.000677418;0.00415356;-0.00157916;0.00446501;-0.012364;0.0236877;0;0.0612712;-0.0821561;-1.86242;-1.08822;2.15861;-6.9571;-0.00100558;-1.30468e-05;0.00374706;0.0037471;-0.00100562;0.00237636;0.268365;3.72626;0.00289215;0.00316848;3.72616;0.268372;103.495;148.495;-0.003083;-0.00100583;0.00067832;-0.00070114;0.00374683;0.000374491;0.0287943;0;0.0400399;6.64966;1.46349
371000;372;25.8553;0.109389;0.0042488;-2.74636;25.6634;-1.52974;-0.0771411;0.0716527;-0.643257;-0.0126705;-1.80486;-0.450893;1.86037;-5.43686;-0.00111662;0.000467364;0.00420599;0.00424672;-0.00115735;0.00270203;0.265484;3.7667;0.00328559;0.00360271;3.66934;0.272528;116.457;161.457;-0.00445213;-0.00111978;0.00350421;-0.00255339;0.00419998;-0.00322853;0.0216409;0;0.0548089;-0.0817157;-1.8656;-1.08939;2.16193;-6.95827;-0.0010661;-1.12996e-05;0.00373271;0.00373274;-0.00106612;0.00239943;0.285609;3.50129;0.00290972;0.00319924;3.50123;0.285614;105.916;150.916;-0.00269971;-0.00106644;0.000811001;-0.000829669;0.00373238;-0.000583025;0.0282611;0;0.0314802;6.6915;1.4698
372000;373;25.8585;0.112668;0.00437617;-2.74643;25.6671;-1.52295;-0.0772102;0.0753529;-0.636468;-0.0120039;-1.80505;-0.455833;1.86176;-5.4418;-0.000578176;0.00135646;0.00514081;0.00544623;-0.000883599;0.00316492;0.112468;8.89143;0.00395837;0.00421989;6.16369;0.16224;103.546;148.546;-0.00319156;-0.000578564;0.00434739;-0.00161745;0.00513232;-0.00708403;0.0214758;0;0.0575409;-0.0820189;-1.8684;-1.0915;2.16541;-6.96038;-0.000976655;-4.77362e-05;0.00388867;0.00388913;-0.000977123;0.00243313;0.251154;3.98162;0.00297249;0.00324417;3.98019;0.251244;102.48;147.48;-0.00306039;-0.000976892;0.000598142;-0.000690484;0.00388849;0.000196;0.0289748;0;0.0356141;6.73189;1.47698
373000;374;25.86;0.114169;0.00443447;-2.7469;25.6686;-1.52246;-0.077686;0.0768435;-0.635974;-0.0117461;-1.80817;-0.456407;1.86492;-5.44238;-0.000936217;0.000562432;0.00369872;0.00376599;-0.00100349;0.00238474;0.253119;3.9507;0.00290354;0.00317965;3.75289;0.266461;115.042;160.042;-0.00376608;-0.000938572;0.00337877;-0.00224091;0.00369319;-0.00600257;0.0219422;0;0.0532972;-0.0816122;-1.87207;-1.09563;2.17065;-6.96451;-0.00104257;4.40854e-05;0.003825;0.0038254;-0.00104297;0.00243418;0.272568;3.66881;0.00295982;0.00324558;3.66778;0.272644;101.594;146.594;-0.00197221;-0.00104274;0.000672578;-0.00058136;0.00382477;-0.000470994;0.0321177;0;0.0329515;6.78572;1.48511
374000;375;25.8615;0.115682;0.00449322;-2.74788;25.6705;-1.5155;-0.0786662;0.0786746;-0.629008;-0.0128262;-1.80975;-0.462973;1.86808;-5.44894;-0.000775327;0.00110503;0.00388848;0.00413705;-0.0010239;0.00258047;0.199391;5.01527;0.00315521;0.00344063;4.04048;0.247495;107.162;152.162;-0.00350283;-0.000775935;0.00378299;-0.0015605;0.00388196;-0.00707051;0.0220152;0;0.0537111;-0.0831933;-1.87486;-1.10094;2.1758;-6.96982;-0.00112335;0.000181241;0.00388353;0.00389008;-0.0011299;0.00250999;0.28926;3.45709;0.00304082;0.00334665;3.44284;0.290458;100.726;145.726;-0.00182311;-0.00112345;0.000844915;-0.000479122;0.00388319;-0.00195024;0.0315201;0;0.0278295;6.81576;1.49081
375000;376;25.8615;0.115616;0.00449067;-2.74849;25.6703;-1.51642;-0.079278;0.0784881;-0.629936;-0.0117831;-1.8112;-0.464103;1.86975;-5.44696;-0.000487326;0.00152865;0.00458067;0.00500605;-0.000912707;0.00295938;0.106387;9.39961;0.00367953;0.00394584;5.48484;0.182321;102.264;147.264;-0.00219615;-0.000487236;0.00454132;-0.00146883;0.00457157;-0.012761;0.0181936;0;0.050557;-0.0826574;-1.8771;-1.09985;2.17716;-6.96873;-0.00128167;0.000151056;0.00395599;0.00396034;-0.00128602;0.00262318;0.323981;3.0866;0.00315744;0.00349757;3.07954;0.324724;102.829;147.829;-0.00223253;-0.00128183;0.000894103;-0.000588115;0.0039556;-0.00133356;0.0324073;0;0.0260264;6.84958;1.49354
376000;377;25.8625;0.116647;0.0045307;-2.74895;25.6714;-1.51391;-0.0797342;0.0796257;-0.627426;-0.0119956;-1.81465;-0.468415;1.87417;-5.45127;-0.0007208;0.00120738;0.00362181;0.00393493;-0.00103391;0.00248442;0.199016;5.02471;0.00302736;0.00331256;3.80585;0.262753;107.723;152.723;-0.00125484;-0.000721773;0.00427241;-0.00184439;0.00361344;-0.0133392;0.021686;0;0.047819;-0.0826821;-1.88064;-1.10631;2.18347;-6.97519;-0.00130376;0.000257097;0.00405363;0.00406594;-0.00131607;0.00269101;0.321629;3.10917;0.00323968;0.00358801;3.08944;0.323683;104.547;149.547;-0.00249174;-0.00130397;0.00120889;-0.000689616;0.00405293;-0.000826538;0.032961;0;0.0269122;6.89595;1.50072
377000;378;25.8626;0.116756;0.00453496;-2.75002;25.6712;-1.51806;-0.0808069;0.0793764;-0.631573;-0.0125511;-1.81582;-0.473125;1.87649;-5.45598;-0.000373761;0.0016453;0.00406626;0.00460948;-0.000916983;0.00276323;0.0919176;10.8793;0.00341988;0.00368431;5.02679;0.198934;101.238;146.238;-0.00185131;-0.000373438;0.0047406;-0.00143633;0.00405642;-0.0148696;0.0180192;0;0.0480101;-0.0838982;-1.88247;-1.11178;2.18787;-6.98066;-0.00123163;0.000326442;0.00430473;0.00432391;-0.00125081;0.00278736;0.286111;3.49514;0.00337765;0.00371649;3.45688;0.289278;101.815;146.815;-0.00301392;-0.00123174;0.00123042;-0.00057255;0.00430403;-0.000704492;0.0336203;0;0.0267735;6.92489;1.50713
378000;379;25.8621;0.116235;0.00451471;-2.75109;25.6703;-1.52199;-0.0818723;0.0785042;-0.635506;-0.0139747;-1.81877;-0.467255;1.87788;-5.45011;-0.000914559;0.00127457;0.00375181;0.00407725;-0.00124;0.00265862;0.243765;4.10232;0.00321229;0.00354483;3.28811;0.304126;108.713;153.713;-0.00132963;-0.000915613;0.00449546;-0.00193137;0.00374255;-0.0140534;0.0227206;0;0.0470173;-0.0850011;-1.8846;-1.10913;2.1884;-6.97801;-0.00129758;0.000241693;0.004195;0.00420562;-0.0013082;0.00275691;0.309316;3.23294;0.00332668;0.00367587;3.21482;0.311059;101.841;146.841;-0.00266666;-0.0012977;0.0010387;-0.000550957;0.00419449;-0.00260023;0.034289;0;0.0251633;6.94518;1.51374
379000;380;25.8629;0.117027;0.00454547;-2.75097;25.671;-1.52378;-0.0817563;0.0792085;-0.637293;-0.012541;-1.82181;-0.468932;1.88124;-5.45179;-0.000722265;0.000896653;0.00433908;0.00449323;-0.000876418;0.00268482;0.166456;6.0076;0.00332634;0.00357976;5.12681;0.195053;110.872;155.872;-0.00227188;-0.000724763;0.00421766;-0.00240763;0.00433062;-0.0115734;0.0215575;0;0.0451797;-0.0838378;-1.88858;-1.11056;2.19251;-6.97944;-0.00136498;0.000307253;0.00430984;0.00432643;-0.00138157;0.002854;0.316712;3.15744;0.0034386;0.00380533;3.13154;0.319332;105.138;150.138;-0.00294727;-0.00136524;0.00140017;-0.000779492;0.00430891;-0.000914859;0.033277;0;0.0247841;6.99395;1.52133
380000;381;25.8632;0.117382;0.00455927;-2.75181;25.6709;-1.52913;-0.0825957;0.0791487;-0.642918;-0.0138628;-1.82472;-0.469117;1.88411;-5.45015;-0.000867892;0.00102799;0.00398053;0.00418948;-0.00107685;0.00263317;0.218034;4.58643;0.00321267;0.00351089;3.89051;0.257036;110.856;155.856;-0.00157908;-0.000869946;0.00434379;-0.0022718;0.00397166;-0.0159474;0.024233;0;0.054112;-0.0853911;-1.89185;-1.11272;2.19648;-6.9816;-0.001343;0.00029459;0.0042457;0.00426118;-0.00135848;0.00280983;0.31632;3.16136;0.00338571;0.00374644;3.13672;0.318804;102.957;147.957;-0.00261835;-0.00134314;0.0012032;-0.000608966;0.00424502;-0.00209578;0.0332262;0;0.0254095;7.02595;1.52858
381000;382;25.8645;0.118662;0.00460896;-2.75281;25.6722;-1.52816;-0.0835993;0.0803972;-0.641677;-0.014266;-1.8253;-0.478577;1.88705;-5.46143;-0.000665287;0.00116018;0.00409233;0.00436017;-0.000933128;0.00264665;0.162569;6.15123;0.00326261;0.00352887;4.67264;0.214012;108.815;153.815;-0.00183854;-0.000667274;0.00464271;-0.00230586;0.00408227;-0.014173;0.0232522;0;0.0447154;-0.0859989;-1.89419;-1.12148;2.20297;-6.99036;-0.00128485;0.000322384;0.00443993;0.00445803;-0.00130295;0.00288049;0.289385;3.45561;0.00348841;0.00384065;3.4215;0.29227;101.708;146.708;-0.00295866;-0.00128497;0.00123163;-0.000581677;0.00443923;-0.000773758;0.0355861;0;0.0243747;7.05627;1.53612
382000;383;25.8642;0.118356;0.00459707;-2.75248;25.6712;-1.54003;-0.0832663;0.0794153;-0.653543;-0.0139121;-1.82869;-0.473134;1.88896;-5.45918;-0.000515664;0.0020025;0.00601507;0.00658019;-0.00108078;0.00383049;0.0857287;11.6647;0.00478789;0.00510732;6.08836;0.164248;98.47;143.47;-0.0032321;-0.000514269;0.00513013;-0.00110485;0.00600399;-0.0110738;0.0231908;0;0.06312;-0.086183;-1.89939;-1.11789;2.20563;-6.98677;-0.00135961;0.000188627;0.00461485;0.0046208;-0.00136556;0.00299318;0.294617;3.39424;0.00362256;0.00399091;3.38381;0.295525;101.549;146.549;-0.00339415;-0.0013598;0.00101156;-0.000629408;0.00461436;0.00119268;0.0344082;0;0.0329031;7.09577;1.54371
383000;384;25.864;0.118109;0.0045875;-2.75263;25.6708;-1.54298;-0.0834102;0.0789746;-0.656493;-0.0151114;-1.82809;-0.482592;1.89078;-5.46864;-0.000264801;0.00227903;0.00554652;0.00633367;-0.00105195;0.00369281;0.0477418;20.946;0.00461325;0.00492375;6.02088;0.166089;95.9184;140.918;-0.0017515;-0.000262579;0.00544354;-0.00086721;0.00553437;-0.0152993;0.0240724;0;0.0581512;-0.0880557;-1.90049;-1.12786;2.21172;-6.99675;-0.00117689;0.000184741;0.00482829;0.00483397;-0.00118257;0.00300827;0.243749;4.10258;0.00368072;0.00401103;4.08768;0.244637;101.339;146.339;-0.00343159;-0.00117713;0.00108758;-0.0007127;0.00482772;0.000580866;0.035098;0;0.0387142;7.12347;1.55134
384000;385;25.8663;0.120484;0.00467974;-2.75214;25.6731;-1.54475;-0.0829278;0.0813027;-0.65854;-0.0178799;-1.83528;-0.473688;1.89551;-5.45472;-0.000796916;0.00127598;0.0038381;0.00416615;-0.00112496;0.00264556;0.207633;4.81619;0.00321863;0.00352741;3.70336;0.270025;109.221;154.221;-0.00201157;-0.000798908;0.00493719;-0.00236834;0.00382677;-0.0183378;0.0262167;0;0.0540945;-0.0904232;-1.9073;-1.12038;2.21387;-6.98926;-0.00124893;0.000401729;0.00475222;0.00477899;-0.0012757;0.00302735;0.26281;3.80504;0.00368557;0.00403646;3.74617;0.26694;95.7053;140.705;-0.00292416;-0.00124887;0.00100904;-0.000201957;0.00475179;-0.000837451;0.0342661;0;0.0441171;7.14976;1.5563
385000;386;25.8694;0.12354;0.00479843;-2.75212;25.6762;-1.54355;-0.0829019;0.0844563;-0.657343;-0.0170548;-1.83615;-0.481758;1.89838;-5.46279;-0.000977376;0.00100624;0.00429818;0.00448359;-0.00116279;0.00282319;0.227393;4.39768;0.00344275;0.00376425;3.85591;0.259342;112.566;157.566;-0.000783781;-0.000980619;0.00476957;-0.00273733;0.00428736;-0.0198164;0.0262575;0;0.0568066;-0.089856;-1.91025;-1.13014;2.22134;-6.99902;-0.00116401;0.000241336;0.0050086;0.00501802;-0.00117343;0.00309572;0.232402;4.30289;0.00379741;0.00412763;4.27638;0.233843;94.9422;139.942;-0.002943;-0.00116401;0.000735808;-0.0002501;0.00500836;0.000206522;0.0331568;0;0.0423059;7.18555;1.56357
386000;387;25.8715;0.125585;0.00487789;-2.75054;25.6786;-1.54088;-0.0813279;0.0868563;-0.65439;-0.0174157;-1.8388;-0.478437;1.9001;-5.46448;-0.0010865;0.00110341;0.00464184;0.00484703;-0.00129169;0.00306936;0.234066;4.2723;0.00373708;0.00409248;3.75247;0.266491;110.697;155.697;-0.00556318;-0.00108857;0.00454013;-0.00231371;0.00463218;-0.00825288;0.0233146;0;0.0583651;-0.0909718;-1.91567;-1.12782;2.22487;-6.9967;-0.00122015;0.000321214;0.0050687;0.00508506;-0.00123651;0.00316079;0.240722;4.15418;0.00386865;0.00421438;4.11243;0.243165;89.624;134.624;-0.00227274;-0.0012201;0.000493169;0.000150335;0.00506863;-0.00106838;0.0340461;0;0.0360329;7.21936;1.57066
387000;388;25.874;0.128099;0.0049755;-2.75031;25.6811;-1.54288;-0.0810926;0.089284;-0.656665;-0.0180521;-1.84245;-0.477083;1.9033;-5.45962;-0.000772651;0.00157502;0.00473475;0.00515337;-0.00119126;0.00317231;0.163187;6.12793;0.00389389;0.00422975;4.32597;0.231162;105.466;150.466;-0.00745404;-0.000773339;0.00513302;-0.00196349;0.00472288;-0.0140559;0.0224805;0;0.0583438;-0.0917998;-1.92012;-1.12696;2.2283;-6.99584;-0.00119478;0.000475194;0.00507878;0.00511457;-0.00123057;0.00317257;0.23525;4.2508;0.00388541;0.00423009;4.15625;0.240601;93.7423;138.742;-0.0023067;-0.00119467;0.00103857;-8.46663e-05;0.00507835;-0.000890649;0.0349281;0;0.0272157;7.23828;1.57249
388000;389;25.8753;0.129409;0.00502639;-2.75102;25.6822;-1.54422;-0.0818061;0.090447;-0.658006;-0.0187416;-1.84266;-0.483424;1.90511;-5.46596;-0.000945869;0.0010888;0.00437206;0.00458635;-0.00116016;0.00287326;0.216344;4.62227;0.00350881;0.00383101;3.95321;0.252959;111.362;156.362;-0.00915788;-0.000948645;0.00479188;-0.00259468;0.00436122;-0.00657285;0.0234228;0;0.0568208;-0.0929866;-1.92229;-1.13464;2.23411;-7.00352;-0.00130177;0.00044738;0.00510254;0.00513364;-0.00133287;0.00323326;0.255122;3.91969;0.00394255;0.00431101;3.85156;0.259635;91.6165;136.617;-0.00201508;-0.00130168;0.000825133;7.20334e-05;0.0051023;-0.00274072;0.0375138;0;0.0246698;7.26412;1.57943
389000;390;25.8772;0.131296;0.00509967;-2.75275;25.6838;-1.54686;-0.0835397;0.0920131;-0.660368;-0.0190262;-1.84372;-0.487687;1.90723;-5.47373;-0.00116636;0.00125073;0.00468051;0.00493682;-0.00142268;0.00317975;0.249196;4.01291;0.00385399;0.00423967;3.4701;0.288176;109.902;154.902;-0.0046066;-0.00116801;0.00472204;-0.0022004;0.00467019;-0.0102263;0.0234329;0;0.0561727;-0.0940424;-1.92573;-1.14004;2.23986;-7.00892;-0.0014388;0.000699392;0.00514351;0.005217;-0.00151229;0.00336465;0.279731;3.57487;0.0040767;0.0044862;3.44974;0.289877;86.9931;131.993;-0.00204067;-0.00143868;0.000894543;0.000505519;0.00514336;-0.00259797;0.0365529;0;0.0231098;7.3009;1.58611
390000;391;25.8783;0.132417;0.00514323;-2.75421;25.6848;-1.54626;-0.0849978;0.0930128;-0.660051;-0.0199503;-1.84589;-0.489691;1.90984;-5.47223;-0.00120614;0.00117817;0.00413342;0.00438182;-0.00145454;0.00291818;0.291801;3.42699;0.00350806;0.00389091;3.01251;0.331949;112.561;157.561;-0.0103653;-0.00120892;0.00501273;-0.00263602;0.0041216;-0.00573851;0.0237331;0;0.0592721;-0.0955722;-1.92859;-1.14326;2.24402;-7.01214;-0.00142408;0.000665071;0.00534268;0.00540742;-0.00148882;0.00344812;0.266547;3.75168;0.00419033;0.0045975;3.63201;0.275329;92.1537;137.154;-0.00190833;-0.00142386;0.00120872;0.000125082;0.00534217;-0.00489067;0.0366648;0;0.0237737;7.32549;1.59365
391000;392;25.8793;0.133415;0.00518199;-2.75596;25.6853;-1.55165;-0.0867434;0.0935156;-0.665165;-0.0202996;-1.84814;-0.487131;1.91137;-5.47318;-0.00123777;0.00140028;0.00454191;0.00486329;-0.00155916;0.00321122;0.272523;3.66941;0.00386812;0.00428163;3.11918;0.320597;109.655;154.655;-0.00607614;-0.00123917;0.00499974;-0.00217849;0.00453044;-0.0061885;0.022652;0;0.059655;-0.0964625;-1.9325;-1.14295;2.24727;-7.01183;-0.00149941;0.000656929;0.0052813;0.00534436;-0.00156247;0.00345341;0.283909;3.52226;0.00418218;0.00460455;3.42047;0.292358;87.3189;132.319;-0.00197087;-0.0014993;0.000843444;0.000471672;0.00528116;-0.00442461;0.0363201;0;0.0249208;7.34886;1.60125
392000;393;25.88;0.134112;0.00520909;-2.75725;25.6855;-1.5578;-0.0880394;0.0937072;-0.671311;-0.0204896;-1.84929;-0.491212;1.91353;-5.47726;-0.00116646;0.00147535;0.00410294;0.0044879;-0.00155141;0.00301965;0.284298;3.51743;0.00362158;0.00402621;2.89278;0.345688;108.521;153.521;-0.00553156;-0.00116713;0.00484517;-0.00187679;0.00409233;-0.00737625;0.0223988;0;0.0580895;-0.0971922;-1.9356;-1.14809;2.25258;-7.01697;-0.0017306;0.00081007;0.00539386;0.00548481;-0.00182155;0.00365318;0.320846;3.11676;0.0043915;0.0048709;3.01107;0.332108;91.2872;136.287;-0.00227919;-0.00173032;0.00131685;0.00030688;0.00539332;-0.0037014;0.036053;0;0.0236657;7.38152;1.60905
393000;394;25.8828;0.136956;0.00531953;-2.75966;25.6881;-1.55741;-0.0904491;0.0963369;-0.670923;-0.0216888;-1.85231;-0.489311;1.91597;-5.47536;-0.00123816;0.00151334;0.00462838;0.00499575;-0.00160554;0.00330065;0.267515;3.73811;0.00397527;0.00440086;3.11158;0.32138;108.13;153.13;-0.005569;-0.00123882;0.00494811;-0.0019014;0.00461733;-0.00725608;0.0235058;0;0.0564878;-0.0991228;-1.94001;-1.14853;2.25668;-7.01741;-0.00159138;0.000742878;0.00540559;0.0054836;-0.00166938;0.00357649;0.294395;3.3968;0.00432105;0.00476865;3.28481;0.304432;91.3254;136.325;-0.00218796;-0.00159113;0.00124376;0.000245482;0.0054051;-0.00394153;0.0362484;0;0.0232772;7.40261;1.61571
394000;395;25.8853;0.139443;0.00541612;-2.75907;25.6903;-1.5644;-0.0898532;0.0984821;-0.677911;-0.0217777;-1.85483;-0.49;1.91859;-5.47286;-0.00100183;0.0013672;0.00454877;0.00486726;-0.00132032;0.00309379;0.220241;4.54048;0.00376296;0.00412505;3.68644;0.271264;109.769;154.769;-0.00374754;-0.00100424;0.00534212;-0.00258578;0.0045355;-0.00978677;0.0227676;0;0.0484271;-0.0997407;-1.94446;-1.14722;2.25986;-7.0161;-0.00155975;0.00079639;0.00564364;0.00573064;-0.00164674;0.00368869;0.276372;3.61831;0.00447158;0.00491825;3.47999;0.287358;90.8081;135.808;-0.00243181;-0.00155947;0.00131163;0.000284836;0.0056431;-0.00303759;0.0347523;0;0.0239379;7.42819;1.62306
395000;396;25.8895;0.143667;0.00558018;-2.76101;25.6946;-1.55977;-0.0917928;0.102811;-0.673287;-0.0214018;-1.85381;-0.496143;1.91918;-5.48219;-0.001381;0.00119527;0.00423273;0.00447663;-0.0016249;0.00305077;0.326268;3.06497;0.00364872;0.00406769;2.75501;0.362975;112.797;157.797;-0.00492387;-0.00138334;0.0048776;-0.00246649;0.0042216;-0.00757495;0.0217353;0;0.0596962;-0.100302;-1.94672;-1.15635;2.26648;-7.02523;-0.00146095;0.000679375;0.00590166;0.00596383;-0.00152312;0.00374347;0.247549;4.0396;0.00456901;0.0049913;3.91554;0.255392;92.0781;137.078;-0.00211619;-0.00146073;0.0012617;0.000101308;0.0059011;-0.0026941;0.0354321;0;0.0285459;7.45792;1.63046
396000;397;25.8915;0.145597;0.00565517;-2.76026;25.6959;-1.5721;-0.0910484;0.104085;-0.68561;-0.0215113;-1.85551;-0.493196;1.92006;-5.47917;-0.00119972;0.00103294;0.00384633;0.00404959;-0.00140298;0.00272629;0.311914;3.20602;0.00326932;0.00363505;2.88642;0.34645;113.875;158.875;-0.00594815;-0.00120262;0.004704;-0.00261967;0.00383584;-0.00459666;0.0229037;0;0.0550523;-0.100991;-1.95112;-1.15437;2.26928;-7.02325;-0.00154638;0.000708655;0.00613142;0.00619628;-0.00161124;0.00390376;0.252206;3.96501;0.00475972;0.00520501;3.84565;0.260034;87.7066;132.707;-0.00249878;-0.00154624;0.000945887;0.000473234;0.00613122;-0.000878521;0.0335104;0;0.0337444;7.47508;1.63702
397000;398;25.8969;0.151029;0.00586615;-2.76189;25.7017;-1.56255;-0.0926796;0.109965;-0.676061;-0.0204319;-1.8579;-0.49522;1.92287;-5.48127;-0.00107467;0.00147511;0.00457864;0.00494039;-0.00143642;0.00318841;0.234715;4.26049;0.00386248;0.00425121;3.43937;0.290751;107.753;152.753;-0.00583136;-0.00107555;0.00495075;-0.00198099;0.00456753;-0.00778592;0.0251895;0;0.0557813;-0.101078;-1.9575;-1.15769;2.27646;-7.02657;-0.0015651;0.000527639;0.00643701;0.00647166;-0.00159974;0.0040357;0.243141;4.11284;0.00493489;0.00538093;4.04543;0.247192;89.3935;134.394;-0.0019748;-0.001565;0.000798286;0.000259143;0.00643684;-0.00137011;0.0338314;0;0.0393107;7.49662;1.64284
398000;399;25.9033;0.157397;0.00611348;-2.76267;25.7085;-1.55485;-0.0934571;0.116764;-0.668365;-0.0216749;-1.85898;-0.497252;1.92446;-5.48322;-0.00149261;0.000891996;0.0040842;0.00422339;-0.00163181;0.0029276;0.36546;2.73628;0.00348913;0.00390347;2.58817;0.386373;116.877;161.877;-0.00496285;-0.0014967;0.00480152;-0.00299583;0.00407311;-0.00759654;0.0250557;0;0.0517468;-0.103053;-1.96187;-1.16117;2.28207;-7.03005;-0.00145606;0.000628812;0.00662795;0.00667657;-0.00150468;0.00409063;0.219685;4.55197;0.00502822;0.00545417;4.4372;0.225367;85.5721;130.572;-0.00141266;-0.00145606;0.000628208;0.000629412;0.00662795;-0.00315223;0.0351751;0;0.0354788;7.51918;1.64706
399000;400;25.9095;0.163643;0.0063561;-2.76163;25.7152;-1.54987;-0.0924149;0.123471;-0.663383;-0.0215459;-1.85952;-0.500967;1.92594;-5.48701;-0.00136937;0.00130616;0.00439452;0.00467669;-0.00165154;0.00316412;0.311609;3.20915;0.00379021;0.00421882;2.83171;0.353144;110.865;155.865;-0.00580419;-0.00137076;0.00474964;-0.00211759;0.00438414;-0.00466248;0.0255657;0;0.051616;-0.103877;-1.96746;-1.16512;2.28893;-7.034;-0.0015279;0.000626398;0.00682099;0.00686773;-0.00157463;0.00422118;0.223999;4.4643;0.00518371;0.00562824;4.36148;0.22928;88.8848;133.885;-0.00196771;-0.00152776;0.000920737;0.0003345;0.00682077;-0.00191252;0.0363511;0;0.0246899;7.53709;1.65312
400000;401;25.9118;0.165924;0.00644468;-2.76194;25.7174;-1.5524;-0.0927273;0.125582;-0.665915;-0.021212;-1.86241;-0.49783;1.92791;-5.48069;-0.00114692;0.00129323;0.0044576;0.00474161;-0.00143094;0.00308628;0.257295;3.88658;0.00373068;0.00411503;3.31364;0.301783;111.02;156.02;-0.00193169;-0.00114943;0.00519268;-0.00258448;0.00444501;-0.0132187;0.02185;0;0.0467945;-0.104493;-1.97347;-1.16204;2.29257;-7.03092;-0.0015506;0.000760075;0.00681562;0.00688411;-0.00161909;0.0042516;0.227507;4.39547;0.00521359;0.0056688;4.25184;0.235193;89.8522;134.852;-0.00158073;-0.00155035;0.00122758;0.00029646;0.00681516;-0.00352774;0.0358544;0;0.0242107;7.55788;1.66081
401000;402;25.9153;0.169445;0.00658146;-2.76387;25.7211;-1.54638;-0.0946536;0.129286;-0.659895;-0.0213115;-1.86272;-0.499942;1.92877;-5.4828;-0.00107904;0.00154222;0.00488036;0.00525582;-0.0014545;0.00335516;0.221099;4.52287;0.00407615;0.00447354;3.6135;0.27674;108.32;153.32;-0.00254561;-0.00108066;0.00547486;-0.00236712;0.00486663;-0.0152764;0.0214081;0;0.0469701;-0.105524;-1.97755;-1.16453;2.29738;-7.03341;-0.00154272;0.00072677;0.00669593;0.00675955;-0.00160634;0.00418294;0.230397;4.34034;0.0051264;0.00557726;4.20804;0.23764;87.338;132.338;-0.00107469;-0.00154259;0.000939191;0.000516088;0.00669575;-0.00475606;0.0360007;0;0.0228999;7.57123;1.66833
402000;403;25.9186;0.172746;0.00670967;-2.76673;25.7238;-1.55131;-0.0975141;0.132008;-0.664821;-0.02059;-1.86391;-0.499492;1.92979;-5.48235;-0.00136422;0.00105345;0.00505521;0.00522367;-0.00153267;0.00337817;0.269864;3.70557;0.0040902;0.00450423;3.40821;0.293409;113.866;158.866;-0.00206966;-0.00136843;0.0052195;-0.003086;0.00504221;-0.0128419;0.0242996;0;0.0468543;-0.105935;-1.9823;-1.16483;2.30164;-7.03371;-0.00179029;0.000915561;0.00663603;0.00673436;-0.00188862;0.00431149;0.269783;3.70668;0.00523396;0.00574866;3.56576;0.280445;88.1852;133.185;-0.00143897;-0.00179002;0.00128576;0.000548457;0.00663563;-0.00396896;0.0381052;0;0.0230829;7.59172;1.67547
403000;404;25.9213;0.175442;0.00681436;-2.76778;25.7262;-1.5548;-0.0985621;0.1344;-0.668311;-0.0206671;-1.86492;-0.500126;1.93093;-5.48298;-0.00123417;0.00134395;0.00498348;0.00526154;-0.00151223;0.00338689;0.247652;4.03792;0.00410568;0.00451585;3.47932;0.287412;110.471;155.471;-0.00234652;-0.00123656;0.00527841;-0.00256619;0.00497052;-0.0137301;0.0226082;0;0.0462523;-0.106996;-1.98741;-1.16634;2.30686;-7.03522;-0.00175933;0.00071634;0.00693035;0.006989;-0.00181798;0.00440349;0.253858;3.9392;0.00536893;0.00587132;3.84437;0.26012;88.7318;133.732;-0.00197828;-0.00175915;0.00102798;0.000407394;0.00693008;-0.00414337;0.0377015;0;0.0234012;7.61073;1.68279
404000;405;25.927;0.181104;0.00703431;-2.76975;25.7315;-1.55782;-0.100533;0.139711;-0.671338;-0.0206094;-1.86409;-0.503395;1.93098;-5.48625;-0.00123484;0.00187512;0.00542084;0.00591277;-0.00172677;0.00381977;0.227795;4.3899;0.00462613;0.00509302;3.42418;0.29204;106.188;151.188;-0.0022654;-0.00123515;0.00581005;-0.00203378;0.00540581;-0.0142438;0.0239447;0;0.0459807;-0.107984;-1.99016;-1.17161;2.31194;-7.04049;-0.00185737;0.000602152;0.00701992;0.00706057;-0.00189802;0.0044793;0.264585;3.7795;0.00545101;0.0059724;3.71996;0.26882;90.024;135.024;-0.00185161;-0.00185721;0.000957014;0.000250417;0.00701964;-0.00509029;0.0363768;0;0.0228626;7.61979;1.68962
405000;406;25.9312;0.185337;0.00719869;-2.77091;25.7357;-1.55659;-0.101692;0.143925;-0.670101;-0.0212173;-1.86394;-0.506498;1.93165;-5.48935;-0.00130935;0.00156509;0.00505564;0.00541967;-0.00167337;0.00354652;0.258988;3.86118;0.00428133;0.00472869;3.23876;0.30876;109.035;154.035;-0.00306439;-0.00131085;0.0054853;-0.00233032;0.00504189;-0.0114039;0.0223126;0;0.0467725;-0.10946;-1.99507;-1.17467;2.31779;-7.04356;-0.00179437;0.000546172;0.00739799;0.00743033;-0.00182671;0.00462852;0.242549;4.12289;0.00566155;0.00617136;4.0676;0.245845;92.6872;137.687;-0.00206774;-0.00179422;0.00115395;-5.60591e-05;0.00739748;-0.00314412;0.0374597;0;0.0248823;7.63994;1.69736
406000;407;25.9371;0.191276;0.00742938;-2.77192;25.7413;-1.56123;-0.10271;0.149519;-0.674747;-0.0207476;-1.86503;-0.50578;1.9325;-5.48864;-0.00117667;0.00157708;0.00540016;0.00575878;-0.00153529;0.00364703;0.217895;4.58936;0.00444032;0.00486271;3.75094;0.2666;108.056;153.056;-0.00247247;-0.00117821;0.00554036;-0.00236029;0.00538613;-0.0146197;0.0232926;0;0.0459536;-0.110112;-2.00127;-1.17602;2.32383;-7.0449;-0.00160665;0.000442442;0.00804211;0.00806235;-0.0016269;0.00484463;0.19978;5.0055;0.00599129;0.0064595;4.95565;0.20179;91.7558;136.756;-0.00191013;-0.00160656;0.000941788;-5.21243e-05;0.00804177;-0.0035285;0.0357273;0;0.0232752;7.65469;1.70371
407000;408;25.9424;0.19649;0.00763191;-2.77321;25.7461;-1.56649;-0.103999;0.154315;-0.680004;-0.0203238;-1.86513;-0.506117;1.93269;-5.48897;-0.00122625;0.00178105;0.00603104;0.00644457;-0.00163978;0.00404218;0.203323;4.91828;0.00493464;0.00538957;3.93014;0.254444;106.115;151.115;-0.00404631;-0.00122693;0.00571817;-0.0021277;0.00601637;-0.0110768;0.0260436;0;0.0445677;-0.110894;-2.00657;-1.17756;2.32922;-7.04644;-0.00170473;0.000550297;0.00847049;0.00850016;-0.0017344;0.00511728;0.201255;4.96882;0.00632468;0.00682304;4.90092;0.204044;92.5115;137.511;-0.00157393;-0.00170458;0.00122561;-0.000118206;0.00846989;-0.00282753;0.0331467;0;0.0266503;7.66186;1.70958
408000;409;25.9495;0.203665;0.0079106;-2.77374;25.7536;-1.56133;-0.104528;0.161801;-0.674841;-0.0204011;-1.86766;-0.498613;1.93318;-5.48147;-0.00146159;0.00120167;0.005979;0.00616826;-0.00165085;0.00390955;0.244455;4.09074;0.00475888;0.00521274;3.73641;0.267637;111.565;156.565;-0.00205799;-0.00146504;0.0053212;-0.0028874;0.00596564;-0.0128135;0.0234033;0;0.0532176;-0.111768;-2.01449;-1.17293;2.33376;-7.04181;-0.00181591;0.000343824;0.00877936;0.0087905;-0.00182705;0.00530878;0.206838;4.8347;0.00655479;0.00707837;4.81131;0.207844;91.9372;136.937;-0.00178085;-0.00181585;0.000811711;-0.00011915;0.00877909;-0.00250012;0.0339707;0;0.0267962;7.68056;1.71656
409000;410;25.9577;0.211807;0.00822684;-2.77394;25.7618;-1.56046;-0.104726;0.170036;-0.673974;-0.0193516;-1.86376;-0.510202;1.93243;-5.49306;-0.000662725;0.00233682;0.00702135;0.0076762;-0.00131758;0.00449689;0.0943871;10.5947;0.00560849;0.00599585;5.826;0.171644;99.1604;144.16;-0.00456756;-0.000660986;0.00611101;-0.00140859;0.00700552;-0.00934607;0.0235505;0;0.0488596;-0.112483;-2.02;-1.18292;2.34358;-7.0518;-0.00179496;0.000394623;0.00844309;0.00845828;-0.00181014;0.00513421;0.212595;4.70379;0.00632911;0.00684562;4.67271;0.214009;89.5715;134.571;-0.000536041;-0.0017949;0.000602649;0.000188707;0.00844299;-0.00399574;0.0338277;0;0.026806;7.6943;1.72206
410000;411;25.9666;0.220745;0.00857401;-2.77476;25.7711;-1.554;-0.105545;0.179344;-0.667514;-0.020064;-1.86434;-0.507268;1.93223;-5.49012;-0.00103589;0.00218821;0.00686344;0.00742909;-0.00160155;0.00451532;0.150929;6.62562;0.00556395;0.00602043;4.63869;0.215578;101.72;146.72;-0.00349474;-0.00103479;0.00601103;-0.00160465;0.00684787;-0.0114848;0.0257231;0;0.0474542;-0.11385;-2.02706;-1.18248;2.34951;-7.05137;-0.00192339;0.000451112;0.00824604;0.00826601;-0.00194337;0.00510469;0.233251;4.28724;0.00625984;0.00680625;4.25345;0.235103;91.6631;136.663;-0.00128335;-0.00192329;0.000921581;-1.46128e-05;0.00824572;-0.00347803;0.0330818;0;0.0258572;7.69819;1.72738
411000;412;25.9714;0.225557;0.0087609;-2.77589;25.7752;-1.56456;-0.106677;0.183432;-0.678075;-0.0203389;-1.86395;-0.507121;1.93181;-5.48998;-0.00148272;0.00172981;0.00644532;0.0068063;-0.00184371;0.00432501;0.230046;4.34695;0.00526092;0.00576668;3.69164;0.270883;106.722;151.722;-0.00257784;-0.00148343;0.00558958;-0.00209958;0.00643128;-0.0098921;0.0247354;0;0.0500276;-0.115167;-2.03227;-1.18569;2.35568;-7.05458;-0.00192492;0.000508073;0.00831028;0.00833544;-0.00195007;0.00514276;0.231631;4.31722;0.00630827;0.00685701;4.27442;0.23395;89.5203;134.52;-0.000736385;-0.00192482;0.00077333;0.000245508;0.00831011;-0.0059665;0.0351054;0;0.0305731;7.70869;1.73321
412000;413;25.9793;0.233386;0.00906499;-2.77757;25.7833;-1.55833;-0.10836;0.191516;-0.671843;-0.0209849;-1.86119;-0.513581;1.93086;-5.49963;-0.00179566;0.00150222;0.00621926;0.00649157;-0.00206797;0.00427977;0.288726;3.46349;0.00515715;0.00570636;3.13911;0.318562;109.401;154.401;-0.00664012;-0.00179703;0.00526989;-0.00223546;0.00620659;-0.00507104;0.0253343;0;0.0500672;-0.116714;-2.03747;-1.19187;2.36336;-7.06076;-0.00194048;0.000506451;0.00846976;0.00849434;-0.00196507;0.0052297;0.229107;4.36476;0.00641897;0.00697294;4.32268;0.231338;91.1245;136.125;-0.000248773;-0.00194036;0.000957824;5.97369e-05;0.00846943;-0.00493096;0.0334934;0;0.0254944;7.72082;1.74057
413000;414;25.9851;0.239234;0.00929215;-2.77866;25.7886;-1.56677;-0.109442;0.196782;-0.680278;-0.0198756;-1.85977;-0.520211;1.93126;-5.50307;-0.00106509;0.0025237;0.0077917;0.00846034;-0.00173373;0.00509703;0.136695;7.31553;0.00629819;0.00679605;4.87985;0.204924;99.1899;144.19;-0.00424131;-0.00106265;0.0063037;-0.00122312;0.00777515;-0.0112125;0.0232743;0;0.0482808;-0.117004;-2.04321;-1.19718;2.371;-7.06606;-0.00192516;0.000376137;0.00902775;0.00904065;-0.00193806;0.00548936;0.21325;4.68934;0.00676628;0.00731914;4.66478;0.214372;92.8196;137.82;-0.000780726;-0.00192512;0.000980205;-0.000221373;0.00902734;-0.00466103;0.0344427;0;0.0251026;7.72751;1.74784
414000;415;25.9914;0.245576;0.00953848;-2.78018;25.7945;-1.57078;-0.110962;0.202764;-0.684296;-0.019362;-1.86277;-0.509471;1.93128;-5.49233;-0.00166058;0.00151133;0.00780354;0.00803902;-0.00189606;0.00496754;0.212798;4.69928;0.00609055;0.00662339;4.23985;0.235858;107.068;152.068;-0.00326101;-0.00166232;0.00546165;-0.00240192;0.00778987;-0.00766179;0.0262935;0;0.0481409;-0.117306;-2.05126;-1.1891;2.3739;-7.05798;-0.00210079;0.000399319;0.00994717;0.00996039;-0.00211401;0.0060372;0.211195;4.73496;0.00744565;0.0080496;4.7116;0.212242;91.7183;136.718;-0.00122189;-0.00210072;0.000901926;-9.72933e-05;0.00994684;-0.00444343;0.0348354;0;0.0288592;7.73154;1.7554
415000;416;26.0001;0.254192;0.00987314;-2.78193;25.8028;-1.57444;-0.112713;0.211034;-0.687952;-0.0202503;-1.86033;-0.513447;1.92999;-5.4963;-0.00157768;0.00203234;0.00802899;0.00844125;-0.00198994;0.0052156;0.196498;5.0891;0.00639486;0.00695413;4.24196;0.23574;103.351;148.351;-0.00209391;-0.00157718;0.00586618;-0.001765;0.00801397;-0.012784;0.0251563;0;0.0478012;-0.119003;-2.05662;-1.19691;2.38253;-7.06579;-0.00210931;0.000236069;0.0111498;0.011154;-0.00211351;0.00663374;0.18918;5.28598;0.00823142;0.00884498;5.27746;0.189485;92.3071;137.307;-0.000939066;-0.00210932;0.000769249;-0.000290121;0.0111495;-0.00470271;0.0343765;0;0.0321619;7.74586;1.76268
416000;417;26.0089;0.263032;0.0102165;-2.78342;25.8115;-1.57588;-0.114209;0.219692;-0.689395;-0.0201986;-1.85808;-0.517054;1.92879;-5.50303;-0.00198621;0.00147586;0.00757401;0.00779666;-0.00220886;0.00500276;0.26224;3.81331;0.00606955;0.00667035;3.52973;0.283308;108.076;153.076;-0.0089138;-0.00198771;0.00526342;-0.00227578;0.00756134;0.00165601;0.0253736;0;0.0509871;-0.119941;-2.0635;-1.20204;2.39109;-7.07093;-0.00213832;7.9556e-05;0.0120822;0.0120827;-0.00213877;0.00711072;0.176981;5.65033;0.00885457;0.00948097;5.64936;0.177011;92.9209;137.921;-0.00182139;-0.00213844;0.000651373;-0.000484226;0.012082;-0.00333906;0.0338665;0;0.0304146;7.74942;1.77016
417000;418;26.0181;0.27219;0.0105722;-2.78289;25.8203;-1.58364;-0.113674;0.228502;-0.697157;-0.0196608;-1.85732;-0.514869;1.92746;-5.50091;-0.0017638;0.00159496;0.00782086;0.0080793;-0.00202224;0.00505077;0.225525;4.43411;0.00617172;0.00673436;3.99522;0.250299;105.493;150.493;-0.00702459;-0.0017644;0.0051626;-0.00193877;0.0078089;-0.00304578;0.0193492;0;0.0546482;-0.120332;-2.07156;-1.20129;2.3977;-7.07018;-0.00229096;9.29579e-06;0.0120195;0.0120195;-0.00229097;0.00715526;0.190603;5.24651;0.0088758;0.00954034;5.2465;0.190603;91.8814;136.881;-0.00182997;-0.00229101;0.000339476;-0.000316216;0.0120195;-0.00381536;0.0344933;0;0.0369003;7.75401;1.77756
418000;419;26.0278;0.281918;0.01095;-2.78283;25.8302;-1.58164;-0.11361;0.238435;-0.695152;-0.0203632;-1.85753;-0.511193;1.9267;-5.49724;-0.00170307;0.0018775;0.00920285;0.00951702;-0.00201724;0.00576713;0.185059;5.40368;0.00711309;0.00768951;4.71784;0.211961;102.5;147.5;-0.0074228;-0.00170283;0.00553842;-0.00174388;0.0091894;-0.00237891;0.0197031;0;0.0571684;-0.122093;-2.08009;-1.19912;2.40407;-7.068;-0.00241022;6.45968e-05;0.0115283;0.0115286;-0.00241052;0.00696956;0.20907;4.78308;0.00860256;0.00929274;4.78261;0.209091;91.57;136.57;-0.00128147;-0.00241025;0.000360478;-0.000227207;0.0115282;-0.00565722;0.0332849;0;0.0355703;7.76393;1.7852
419000;420;26.0375;0.291614;0.0113266;-2.78506;25.8396;-1.58338;-0.115844;0.247857;-0.696893;-0.0196075;-1.85467;-0.515238;1.925;-5.50128;-0.00156471;0.00193784;0.00910205;0.00944319;-0.00190585;0.00567452;0.171907;5.81709;0.00701755;0.00756603;4.95485;0.201823;99.9172;144.917;-0.00839809;-0.00156355;0.00511081;-0.00120161;0.00909097;-0.0026763;0.0189292;0;0.0582391;-0.122299;-2.08616;-1.20512;2.41233;-7.074;-0.00232941;0.000225125;0.0112658;0.0112696;-0.00233313;0.00680135;0.206768;4.83635;0.00839947;0.00906846;4.83022;0.20703;92.5744;137.574;-0.000706748;-0.00232944;0.00078361;-0.000325853;0.0112656;-0.00611709;0.034681;0;0.0260415;7.76769;1.79148
420000;421;26.0434;0.297501;0.0115553;-2.78675;25.8451;-1.58773;-0.117534;0.253331;-0.701515;-0.0200468;-1.85556;-0.514879;1.92577;-5.49742;-0.00176397;0.00173245;0.00883435;0.00911035;-0.00203998;0.00557516;0.199672;5.00822;0.00685549;0.00743355;4.46591;0.223918;103.275;148.275;-0.0096751;-0.00176402;0.00526207;-0.00176012;0.00882211;-4.42987e-05;0.0269103;0;0.0591187;-0.123273;-2.09248;-1.20607;2.41832;-7.07495;-0.00241557;0.000254624;0.0114452;0.0114499;-0.00242024;0.00693507;0.211055;4.73811;0.0085549;0.00924676;4.73089;0.211377;92.2381;137.238;-0.000443721;-0.00241557;0.000781414;-0.000264947;0.011445;-0.00661174;0.0362073;0;0.0265895;7.76725;1.79314
421000;422;26.0503;0.304455;0.0118254;-2.78728;25.8518;-1.59247;-0.11807;0.259999;-0.705984;-0.0198572;-1.85373;-0.516532;1.92445;-5.50258;-0.00184696;0.00139304;0.00907102;0.00924596;-0.0020219;0.00563393;0.203611;4.91133;0.00693686;0.0075119;4.57292;0.218679;104.169;149.169;-0.0082148;-0.00184786;0.00475593;-0.00193349;0.00906078;0.00172134;0.024206;0;0.0566956;-0.123523;-2.09777;-1.21156;2.42565;-7.08044;-0.00255121;0.000178546;0.0121032;0.0121054;-0.00255339;0.00732939;0.210788;4.7441;0.00904237;0.00977252;4.74091;0.21093;92.2628;137.263;-0.000684149;-0.00255125;0.00067992;-0.000315569;0.012103;-0.00618418;0.0361485;0;0.0263528;7.7758;1.79946
422000;423;26.0616;0.315777;0.0122652;-2.78854;25.8634;-1.58744;-0.11932;0.271582;-0.700956;-0.0184764;-1.84946;-0.525081;1.92264;-5.51113;-0.00139975;0.00257043;0.0101553;0.0107013;-0.00194575;0.00632352;0.137835;7.25507;0.00786344;0.00843136;5.49984;0.181824;95.1599;140.16;-0.00502106;-0.00139653;0.00559061;-0.000415216;0.0101431;-0.00397399;0.0282899;0;0.0618903;-0.124515;-2.10403;-1.21675;2.43371;-7.08563;-0.00271346;7.51764e-05;0.0131906;0.0131909;-0.00271382;0.00795237;0.205712;4.86116;0.0098243;0.0106032;4.86066;0.205734;92.7348;137.735;-0.00097813;-0.00271357;0.00063411;-0.000474984;0.0131904;-0.00592721;0.0370623;0;0.0286989;7.78266;1.80656
423000;424;26.0683;0.322454;0.0125245;-2.78893;25.8692;-1.60115;-0.11972;0.277423;-0.714661;-0.0183929;-1.84914;-0.523445;1.92189;-5.50949;-0.00142202;0.00233576;0.0102573;0.0107071;-0.00187182;0.00628946;0.138635;7.21321;0.00783688;0.00838595;5.72014;0.174821;96.3834;141.383;-0.00513905;-0.00141953;0.00541401;-0.000706918;0.0102455;-0.00425123;0.0263039;0;0.0574985;-0.125185;-2.11121;-1.21779;2.44047;-7.08667;-0.00238172;5.64211e-05;0.0147366;0.0147368;-0.0023819;0.00855936;0.161619;6.1874;0.0107072;0.0114125;6.187;0.161629;92.5678;137.568;-0.000995785;-0.00238186;0.000661487;-0.000538438;0.0147364;-0.00569236;0.0363009;0;0.0293432;7.78497;1.81418
424000;425;26.0771;0.331191;0.0128638;-2.79122;25.8778;-1.60074;-0.122005;0.286005;-0.714253;-0.0198269;-1.84651;-0.528368;1.92072;-5.51441;-0.00156354;0.00254146;0.0110446;0.0115376;-0.00205655;0.00679708;0.141566;7.06383;0.00846099;0.00906278;5.61017;0.178248;95.4511;140.451;-0.00561797;-0.00156044;0.00564029;-0.000518754;0.0110321;-0.00413596;0.0260584;0;0.0587157;-0.127058;-2.11748;-1.22413;2.44915;-7.09301;-0.00262296;-0.000289383;0.0153304;0.0153351;-0.00262763;0.00898135;0.171095;5.8447;0.0112025;0.0119751;5.8361;0.171347;93.5989;138.599;-0.00140095;-0.00262331;0.000314931;-0.000883011;0.0153304;-0.00458572;0.0340286;0;0.0314134;7.79311;1.82127
425000;426;26.0863;0.340417;0.0132222;-2.79111;25.8871;-1.60046;-0.121897;0.295331;-0.713973;-0.0183521;-1.84782;-0.52082;1.9199;-5.50687;-0.00155193;0.00258062;0.0110082;0.0115178;-0.00206148;0.00678962;0.140979;7.09325;0.00844991;0.00905283;5.58715;0.178982;94.9459;139.946;-0.00526922;-0.00154868;0.00559726;-0.000398564;0.010996;-0.00385783;0.0261881;0;0.0585324;-0.126645;-2.12683;-1.21982;2.45508;-7.0887;-0.00272021;-0.000190378;0.0151124;0.0151144;-0.00272224;0.00891832;0.179999;5.55559;0.0110956;0.0118911;5.55219;0.180109;93.2245;138.225;-0.00185954;-0.00272048;0.000384909;-0.00075556;0.0151123;-0.00415095;0.0348085;0;0.0325786;7.80102;1.82883
426000;427;26.0958;0.349981;0.0135937;-2.79253;25.8965;-1.60213;-0.123311;0.304713;-0.715645;-0.0185372;-1.8461;-0.522032;1.91858;-5.50808;-0.00190123;0.00168944;0.0101504;0.0103828;-0.00213358;0.00625818;0.187306;5.33887;0.00773181;0.00834425;4.86636;0.205493;101.828;146.828;-0.00839706;-0.00190123;0.00510653;-0.00168691;0.0101389;0.00186686;0.0261048;0;0.0540099;-0.127527;-2.13189;-1.22489;2.46203;-7.09377;-0.0028331;-0.000178229;0.0143844;0.0143862;-0.00283494;0.00861059;0.196956;5.07727;0.0106622;0.0114808;5.07462;0.197059;91.9132;136.913;-0.00176855;-0.00283318;9.1945e-05;-0.000443817;0.0143844;-0.00571108;0.0340679;0;0.0330792;7.7983;1.8363
427000;428;26.1061;0.360258;0.0139928;-2.79343;25.9069;-1.59922;-0.124211;0.315152;-0.712732;-0.0181205;-1.84694;-0.517861;1.91826;-5.50391;-0.00200699;0.00180867;0.0109863;0.0112334;-0.00225406;0.00674373;0.18268;5.47404;0.00834242;0.00899164;4.98364;0.200657;100.263;145.263;-0.00761962;-0.00200642;0.00512047;-0.00146058;0.010975;0.000913261;0.0248336;0;0.052353;-0.1281;-2.14177;-1.22026;2.46833;-7.08915;-0.00298996;7.25583e-05;0.0139416;0.0139419;-0.00299027;0.00846608;0.214463;4.66281;0.0104352;0.0112881;4.66243;0.214481;91.4451;136.445;-0.00130482;-0.00298999;0.0004006;-0.000250006;0.0139415;-0.00766244;0.0359062;0;0.0276254;7.80169;1.84408
428000;429;26.1139;0.368067;0.0142962;-2.79317;25.9146;-1.60262;-0.123951;0.322829;-0.71641;-0.0193739;-1.84417;-0.524893;1.91752;-5.50743;-0.00194996;0.00205937;0.0103978;0.0107322;-0.00228436;0.0065083;0.187535;5.33234;0.00802539;0.00867774;4.69813;0.212851;100.468;145.468;-0.00993073;-0.00194882;0.00556775;-0.00140616;0.0103846;0.00166371;0.0287729;0;0.0561442;-0.129791;-2.14711;-1.22684;2.4763;-7.09572;-0.00296722;1.0674e-05;0.0139629;0.013963;-0.00296723;0.00846509;0.212507;4.70573;0.0104392;0.0112868;4.70572;0.212507;92.8904;137.89;-0.00116848;-0.00296737;0.000582155;-0.000551265;0.0139628;-0.00555856;0.0370753;0;0.0288607;7.81189;1.85109
429000;430;26.1216;0.37576;0.014595;-2.7933;25.9224;-1.60234;-0.124082;0.330585;-0.716127;-0.0175454;-1.84416;-0.521963;1.91668;-5.5045;-0.00206637;0.00186506;0.010754;0.0110199;-0.00233218;0.00667602;0.192148;5.20431;0.00823479;0.00890135;4.72512;0.211635;100.671;145.671;-0.00919275;-0.00206572;0.00524614;-0.00147316;0.0107421;-1.97099e-05;0.0280825;0;0.0588686;-0.128922;-2.15473;-1.22508;2.48199;-7.09396;-0.00305002;1.33394e-05;0.014922;0.014922;-0.00305003;0.00898601;0.204398;4.89242;0.0111052;0.0119814;4.89241;0.204398;91.9739;136.974;-0.000762125;-0.0030501;0.000438099;-0.000403899;0.0149219;-0.00768498;0.0389675;0;0.0278883;7.81489;1.85748
430000;431;26.129;0.383157;0.0148823;-2.79574;25.9291;-1.61006;-0.126526;0.337297;-0.723844;-0.0175232;-1.84222;-0.521544;1.91471;-5.50408;-0.00217369;0.00207469;0.0107839;0.011108;-0.00249777;0.00680289;0.201567;4.96113;0.00836321;0.00907053;4.44718;0.224862;100.789;145.789;-0.0102251;-0.00217258;0.00564583;-0.00145069;0.0107703;0.00221937;0.0291264;0;0.0557947;-0.13002;-2.16013;-1.22751;2.48794;-7.09639;-0.0031046;-7.68294e-05;0.016061;0.0160613;-0.0031049;0.00958312;0.1933;5.17331;0.0118786;0.0127775;5.17289;0.193315;92.3607;137.361;-0.000813999;-0.00310475;0.000413714;-0.00055812;0.016061;-0.00754069;0.038911;0;0.0289831;7.81881;1.86344
431000;432;26.1376;0.391755;0.0152162;-2.79692;25.9374;-1.61359;-0.127705;0.345615;-0.727378;-0.0184369;-1.83923;-0.52953;1.91403;-5.51207;-0.00210503;0.00241526;0.0112989;0.0117208;-0.00252695;0.00712387;0.186304;5.36756;0.00877827;0.0094985;4.63831;0.215596;97.8102;142.81;-0.00833865;-0.00210247;0.00572759;-0.000853196;0.0112855;-0.000586658;0.0301347;0;0.056671;-0.131696;-2.16676;-1.23555;2.49775;-7.10443;-0.00312282;-0.00024106;0.0177924;0.0177952;-0.0031256;0.0104604;0.175514;5.69755;0.0130309;0.0139472;5.69338;0.175643;92.8485;137.848;-0.00123952;-0.00312311;0.000330287;-0.000800666;0.0177924;-0.0071772;0.0400019;0;0.0301683;7.8299;1.86991
432000;433;26.1469;0.401017;0.015576;-2.7973;25.9468;-1.61109;-0.128083;0.355063;-0.724876;-0.0177669;-1.83904;-0.527153;1.91319;-5.50969;-0.00234262;0.00233081;0.0112837;0.0116713;-0.00273028;0.00720079;0.207612;4.81669;0.00883276;0.00960106;4.27477;0.233931;98.3057;143.306;-0.0084753;-0.00234026;0.00555894;-0.000853861;0.0112711;-0.000340319;0.0295927;0;0.0549969;-0.131664;-2.17509;-1.23434;2.50439;-7.10322;-0.00337947;-0.000359445;0.0181617;0.0181677;-0.00338546;0.0107766;0.186077;5.37412;0.0133838;0.0143687;5.36637;0.186346;92.9347;137.935;-0.0014813;-0.00337978;0.00016124;-0.000869114;0.0181617;-0.00605515;0.0386278;0;0.0318791;7.82987;1.87437
433000;434;26.1572;0.411348;0.0159772;-2.79765;25.9573;-1.61011;-0.128434;0.365506;-0.723624;-0.0178553;-1.83636;-0.529854;1.91136;-5.5159;-0.00225744;0.00252534;0.0121127;0.0125436;-0.00268832;0.00761595;0.18637;5.36568;0.00938769;0.0101546;4.66596;0.214318;95.9399;140.94;-0.00684865;-0.00225435;0.00555384;-0.000460177;0.0121006;-0.000465484;0.0276166;0;0.0539859;-0.132659;-2.18186;-1.23793;2.51209;-7.10681;-0.00325752;-0.000496264;0.0178639;0.0178755;-0.00326917;0.0105723;0.182352;5.48389;0.013143;0.0140965;5.4679;0.182885;94.3312;139.331;-0.00206576;-0.00325819;0.000281396;-0.00125779;0.017864;-0.00405477;0.0367719;0;0.0340108;7.83188;1.88097
434000;435;26.1665;0.420643;0.0163383;-2.7981;25.9663;-1.61497;-0.128882;0.374523;-0.72848;-0.0180032;-1.83335;-0.53149;1.90892;-5.51754;-0.00258503;0.00250092;0.0122234;0.0126343;-0.002996;0.00781516;0.211483;4.72851;0.00957901;0.0104202;4.21707;0.237132;96.9407;141.941;-0.00700615;-0.00258206;0.00561702;-0.000569613;0.0122109;3.30869e-05;0.0281393;0;0.0524245;-0.133678;-2.18817;-1.2408;2.51904;-7.10968;-0.0034641;-0.000445619;0.0171086;0.0171182;-0.00347375;0.010296;0.202477;4.93883;0.0127291;0.013728;4.92789;0.202927;93.2656;138.266;-0.00150265;-0.00346443;4.57707e-05;-0.000927069;0.0171087;-0.00637303;0.0365971;0;0.0375249;7.84106;1.88818
435000;436;26.1778;0.431947;0.0167773;-2.79827;25.9782;-1.60687;-0.129057;0.386398;-0.720378;-0.0191341;-1.83242;-0.536383;1.90941;-5.51924;-0.00270916;0.00249741;0.0122699;0.0126753;-0.00311457;0.00789494;0.220797;4.52905;0.00965729;0.0105266;4.06968;0.245719;98.3542;143.354;-0.00118799;-0.0027064;0.00590862;-0.000863343;0.0122557;-0.0137094;0.0314079;0;0.0499411;-0.135588;-2.19601;-1.24599;2.5285;-7.11487;-0.0033692;-0.000194442;0.016709;0.0167109;-0.00337109;0.010041;0.20164;4.95934;0.0124178;0.013388;4.95713;0.20173;92.9277;137.928;-0.00106177;-0.00336946;0.000368569;-0.000746336;0.016709;-0.00615255;0.0353505;0;0.0353411;7.84496;1.89544
436000;437;26.1861;0.440222;0.0170987;-2.80053;25.9862;-1.60755;-0.131313;0.39445;-0.721066;-0.017063;-1.83174;-0.533455;1.90791;-5.51631;-0.00237997;0.0029372;0.0129843;0.0135266;-0.00292233;0.00822448;0.183296;5.45564;0.0101333;0.010966;4.62871;0.216043;95.5184;140.518;-0.00276329;-0.00237571;0.00629171;-0.00036645;0.012969;-0.010995;0.0332907;0;0.0521511;-0.134935;-2.20254;-1.2462;2.53425;-7.11509;-0.00363542;-7.29463e-05;0.0168587;0.016859;-0.00363568;0.0102473;0.21564;4.63735;0.0126269;0.0136631;4.63709;0.215652;92.0284;137.028;-0.00113932;-0.00363554;0.000355797;-0.000493048;0.0168587;-0.00704735;0.0381189;0;0.030187;7.848;1.90319
437000;438;26.1958;0.449964;0.0174771;-2.80152;25.9957;-1.61072;-0.132308;0.403964;-0.724234;-0.017367;-1.82962;-0.533456;1.90588;-5.51631;-0.002573;0.00302752;0.0131899;0.0137514;-0.00313449;0.00844293;0.195074;5.12626;0.0103715;0.0112572;4.38712;0.22794;94.6343;139.634;-0.00238765;-0.00256841;0.006171;-6.70776e-05;0.0131756;-0.0103544;0.0312609;0;0.0544201;-0.135748;-2.21019;-1.24501;2.54035;-7.11389;-0.0036169;-0.000248483;0.0182098;0.0182126;-0.00361973;0.0109162;0.198624;5.03465;0.0135109;0.0145549;5.03149;0.198748;93.6495;138.649;-0.0014376;-0.00361738;0.0005317;-0.00101194;0.0182097;-0.0075991;0.0392284;0;0.0325416;7.85503;1.90899
438000;439;26.2025;0.456603;0.017735;-2.80457;26.002;-1.61221;-0.135355;0.410233;-0.72572;-0.0164135;-1.82934;-0.532185;1.90525;-5.51504;-0.00265687;0.0030998;0.0133733;0.0139519;-0.00323541;0.00859363;0.198669;5.03349;0.0105465;0.0114582;4.31225;0.231898;94.7543;139.754;-0.00332816;-0.00265205;0.00632074;-7.02227e-05;0.0133584;-0.010048;0.0319915;0;0.0533582;-0.136002;-2.21728;-1.24718;2.5476;-7.11606;-0.00373351;-0.000247594;0.0196892;0.0196918;-0.00373612;0.011714;0.189622;5.27366;0.0145342;0.0156186;5.27066;0.189729;92.5747;137.575;-0.00106518;-0.00373379;0.000312446;-0.000794771;0.0196892;-0.00783174;0.0401431;0;0.032775;7.85662;1.91609
439000;440;26.2107;0.464811;0.0180538;-2.80544;26.0104;-1.60959;-0.136229;0.418573;-0.7231;-0.0162348;-1.82668;-0.534305;1.90329;-5.52035;-0.0023988;0.00422958;0.0148859;0.0158654;-0.00337828;0.00962182;0.161146;6.20555;0.0118644;0.0128291;4.69628;0.212934;88.2952;133.295;-0.00310351;-0.00239116;0.00687741;0.00162683;0.0148714;-0.00648991;0.0310254;0;0.0630951;-0.136882;-2.22401;-1.25012;2.55495;-7.119;-0.00381607;-0.000326769;0.0206424;0.0206468;-0.00382044;0.0122336;0.184866;5.40933;0.0151989;0.0163115;5.4043;0.185038;93.2483;138.248;-0.0011266;-0.00381658;0.000419373;-0.00105503;0.0206424;-0.00711586;0.0396335;0;0.0329094;7.85819;1.92289
440000;441;26.2189;0.473004;0.018372;-2.80532;26.0185;-1.61094;-0.136104;0.426759;-0.724454;-0.0168143;-1.8261;-0.536251;1.90328;-5.51911;-0.00280235;0.00327135;0.0139808;0.0145959;-0.00341746;0.00900669;0.200442;4.98896;0.0110474;0.0120089;4.271;0.234137;93.6773;138.677;-0.0023966;-0.00279701;0.00637058;0.000223391;0.0139661;-0.0110543;0.0311862;0;0.0533719;-0.13781;-2.23023;-1.25354;2.56208;-7.12242;-0.00391211;-0.000588001;0.0207765;0.0207905;-0.00392611;0.0123583;0.188295;5.31081;0.0153375;0.0164777;5.29544;0.188842;93.2423;138.242;-0.00153578;-0.00391259;-2.26986e-05;-0.00113963;0.0207767;-0.00646236;0.0391779;0;0.0362763;7.86754;1.93045
441000;442;26.2295;0.483644;0.0187853;-2.80542;26.029;-1.61461;-0.136202;0.437242;-0.728123;-0.0162331;-1.82551;-0.535466;1.90249;-5.51832;-0.00272182;0.00339206;0.0143746;0.015023;-0.00337024;0.00919664;0.189349;5.28126;0.0113075;0.0122622;4.45757;0.224338;92.9758;137.976;0.00122791;-0.00271611;0.00648367;0.000352535;0.0143596;-0.0192029;0.0329255;0;0.0573796;-0.138098;-2.23812;-1.25336;2.56888;-7.12224;-0.003954;-0.000657176;0.0205407;0.0205584;-0.00397162;0.012265;0.192496;5.19493;0.0152034;0.0163533;5.17632;0.193188;93.8958;138.896;-0.00176947;-0.00395468;4.1686e-05;-0.00133926;0.0205409;-0.00597327;0.0370025;0;0.0333491;7.8734;1.9365
442000;443;26.2384;0.492552;0.0191313;-2.80679;26.0378;-1.61486;-0.137579;0.446046;-0.728653;-0.015823;-1.82517;-0.534028;1.90176;-5.51282;-0.00303373;0.00283099;0.0141229;0.014578;-0.0034888;0.00903338;0.21481;4.65528;0.0110664;0.0120445;4.1785;0.23932;96.8947;141.895;-0.001775;-0.00302992;0.00635565;-0.00063407;0.0141069;-0.0127359;0.0351662;0;0.0490647;-0.138511;-2.24536;-1.25382;2.57544;-7.1227;-0.00412568;-0.000444864;0.0199233;0.0199316;-0.0041339;0.0120327;0.207078;4.82911;0.0148586;0.0160436;4.82149;0.207405;93.3822;138.382;-0.0014105;-0.00412617;0.000209784;-0.00108408;0.0199234;-0.00752681;0.0366245;0;0.0341305;7.87395;1.93988
443000;444;26.2489;0.503091;0.0195406;-2.80813;26.0486;-1.61032;-0.13891;0.456803;-0.724111;-0.0158558;-1.82492;-0.530041;1.9004;-5.50883;-0.00329182;0.0024379;0.0145378;0.0148652;-0.00361915;0.00924216;0.226431;4.41635;0.0113112;0.0123229;4.10736;0.243465;98.3181;143.318;-0.00048591;-0.0032894;0.00599691;-0.00105859;0.014523;-0.0133467;0.0369557;0;0.0503296;-0.139266;-2.25351;-1.25148;2.58145;-7.12036;-0.00411871;-0.000310716;0.0196305;0.0196346;-0.00412278;0.0118787;0.209812;4.76618;0.0146585;0.0158382;4.76247;0.209975;92.3765;137.376;-0.0006966;-0.00411894;0.000138911;-0.00074987;0.0196305;-0.00875728;0.0390713;0;0.0327716;7.88163;1.94504
444000;445;26.2601;0.514223;0.019973;-2.8081;26.0599;-1.60851;-0.138888;0.468135;-0.722296;-0.015962;-1.82177;-0.535509;1.89892;-5.5143;-0.00304517;0.00305256;0.0155828;0.0160703;-0.00353263;0.00980145;0.195418;5.11723;0.0120647;0.0130686;4.54909;0.219824;94.8381;139.838;0.000424954;-0.00304052;0.00641531;-0.000248544;0.0155671;-0.018182;0.0312751;0;0.0520163;-0.140274;-2.2599;-1.25895;2.59071;-7.12783;-0.00408723;-0.000199854;0.0200085;0.0200101;-0.00408889;0.0120495;0.204275;4.89536;0.0148914;0.016066;4.89378;0.204341;92.9236;137.924;-0.00109374;-0.0040876;0.000495844;-0.000879118;0.0200084;-0.00765857;0.037709;0;0.0360108;7.88832;1.95222
445000;446;26.2658;0.519962;0.0201959;-2.81169;26.0648;-1.61664;-0.142477;0.473028;-0.730434;-0.0144461;-1.82197;-0.533888;1.89864;-5.51268;-0.00296167;0.00279517;0.0148615;0.0152896;-0.00338975;0.00933968;0.199284;5.01795;0.0114909;0.0124529;4.51054;0.221703;96.9823;141.982;0.00316333;-0.00295809;0.00648201;-0.000826953;0.0148447;-0.015597;0.0310985;0;0.0547731;-0.140083;-2.26744;-1.25895;2.59728;-7.12783;-0.00434637;-0.000166063;0.0211747;0.0211758;-0.00434745;0.0127616;0.205262;4.87181;0.0157674;0.0170155;4.87085;0.205303;91.8606;136.861;-0.000735082;-0.00434654;0.000280592;-0.000601556;0.0211747;-0.00834639;0.0413275;0;0.032425;7.88493;1.95983
446000;447;26.2739;0.52808;0.0205112;-2.81314;26.0732;-1.61145;-0.143928;0.481373;-0.725244;-0.0142899;-1.8215;-0.531563;1.89753;-5.51035;-0.00306276;0.0030694;0.0157376;0.016226;-0.00355119;0.00988861;0.194614;5.13838;0.012175;0.0131848;4.56918;0.218857;94.5504;139.55;0.000746102;-0.00305805;0.00637812;-0.000178108;0.0157222;-0.0166375;0.0327138;0;0.0515094;-0.140785;-2.27454;-1.25957;2.60381;-7.12845;-0.00429134;-0.000277454;0.0225317;0.0225346;-0.00429421;0.0134144;0.190457;5.25052;0.0166402;0.0178859;5.24768;0.190561;92.7707;137.771;-0.00112761;-0.00429177;0.000432971;-0.000969243;0.0225317;-0.0100113;0.0427406;0;0.0320616;7.89231;1.96631
447000;448;26.2818;0.535953;0.020817;-2.81267;26.0811;-1.61196;-0.143456;0.489327;-0.725746;-0.0141961;-1.81832;-0.537917;1.89627;-5.51773;-0.00366823;0.00291013;0.0157052;0.0161328;-0.00409592;0.0101144;0.233568;4.2814;0.0123491;0.0134858;3.93876;0.253887;95.9057;140.906;-0.00818912;-0.00366404;0.00623671;-0.000353034;0.0156902;-0.00492128;0.0239157;0;0.0525509;-0.141124;-2.2798;-1.26582;2.61146;-7.1347;-0.00446224;-0.000478849;0.0230867;0.023095;-0.00447056;0.0137828;0.193282;5.17379;0.017083;0.0183771;5.16602;0.193573;92.8263;137.826;-0.00178675;-0.00446271;0.000130857;-0.00107214;0.0230868;-0.00785886;0.0418331;0;0.0327472;7.89965;1.97368
448000;449;26.2904;0.544555;0.0211512;-2.81353;26.0896;-1.61287;-0.144319;0.497855;-0.726383;-0.0150783;-1.81611;-0.537925;1.89416;-5.52195;-0.00385903;0.00252873;0.0160901;0.0164056;-0.00417457;0.0102901;0.239839;4.16947;0.012562;0.0137201;3.9299;0.25446;96.9221;141.922;-0.000918958;-0.00385608;0.00584534;-0.000722796;0.0160764;-0.0130059;0.0345841;0;0.0597599;-0.14241;-2.28583;-1.26815;2.61792;-7.13703;-0.00455042;-0.000620584;0.0233163;0.0233301;-0.00456424;0.0139472;0.195161;5.12398;0.017277;0.0185962;5.1115;0.195637;93.1856;138.186;-0.00125268;-0.00455101;2.07093e-05;-0.00124441;0.0233165;-0.0079386;0.0410306;0;0.0318753;7.89985;1.98087
449000;450;26.299;0.553086;0.0214825;-2.81331;26.0981;-1.61562;-0.144091;0.506306;-0.729134;-0.0155945;-1.81442;-0.539561;1.89301;-5.52358;-0.00390646;0.00251297;0.015702;0.0160189;-0.0042234;0.0101212;0.248788;4.01949;0.0123306;0.0134949;3.7929;0.263651;97.5044;142.504;-0.000628572;-0.00390361;0.00588946;-0.000798349;0.015688;-0.0160927;0.037093;0;0.0565897;-0.143665;-2.29185;-1.27072;2.62449;-7.1396;-0.00457026;-0.000820492;0.0230048;0.0230292;-0.00459465;0.0138119;0.198665;5.03359;0.0170915;0.0184159;5.01217;0.199514;93.5578;138.558;-0.00199205;-0.00457092;-0.000209071;-0.00141543;0.0230051;-0.00665478;0.0413992;0;0.0336348;7.90381;1.98875
450000;451;26.3095;0.56369;0.0218944;-2.81359;26.1086;-1.61757;-0.144373;0.516831;-0.731358;-0.014181;-1.81446;-0.53999;1.89316;-5.52035;-0.00408592;0.00247253;0.0160757;0.0163745;-0.00438471;0.0103796;0.254167;3.93441;0.0126341;0.0138395;3.73445;0.267777;98.4519;143.452;-0.00448455;-0.00408343;0.00609088;-0.00107405;0.0160605;-0.0158433;0.0369281;0;0.0575358;-0.143301;-2.30019;-1.27217;2.63246;-7.14105;-0.0045123;-0.000602533;0.0225181;0.0225316;-0.00452573;0.0135286;0.200385;4.99039;0.0167349;0.0180382;4.97855;0.200862;93.1774;138.177;-0.00129692;-0.00451284;9.253e-06;-0.00119815;0.0225183;-0.00870444;0.0397092;0;0.0363581;7.91427;1.99565
451000;452;26.3197;0.573861;0.0222895;-2.81389;26.1191;-1.61351;-0.14468;0.527309;-0.727021;-0.0138333;-1.81146;-0.537221;1.88949;-5.52327;-0.00397867;0.00352182;0.017441;0.0180052;-0.00454287;0.011274;0.228122;4.38361;0.0137698;0.015032;3.96339;0.252309;91.4431;136.443;-0.00434253;-0.00397288;0.00616428;0.000934975;0.0174284;-0.0110578;0.0288253;0;0.0645155;-0.143697;-2.30827;-1.26977;2.63838;-7.13865;-0.00471821;-0.000238805;0.0223049;0.022307;-0.00472032;0.0135137;0.211532;4.72741;0.0166691;0.0180182;4.72575;0.211607;91.6795;136.679;-0.00074155;-0.00471836;0.000129545;-0.000597419;0.0223049;-0.0103092;0.0420163;0;0.0356257;7.91551;2.00273
452000;453;26.3293;0.583453;0.022662;-2.81531;26.1286;-1.61308;-0.146097;0.536847;-0.726597;-0.0135586;-1.80909;-0.541849;1.88854;-5.52789;-0.00408972;0.00402884;0.0182766;0.0189802;-0.0047933;0.0118868;0.223768;4.46892;0.0145175;0.015849;3.95974;0.252542;88.8619;133.862;-0.00264165;-0.00408319;0.00631204;0.00179577;0.018265;-0.0110303;0.0293847;0;0.0670677;-0.144566;-2.31396;-1.27865;2.64769;-7.14753;-0.00471763;-0.000214925;0.0225306;0.0225323;-0.00471932;0.0136258;0.209387;4.77584;0.0168168;0.0181678;4.77448;0.209447;91.7203;136.72;-0.000769923;-0.00471779;0.000188559;-0.000607657;0.0225306;-0.00958361;0.040887;0;0.0336239;7.92115;2.00751
453000;454;26.3358;0.58995;0.0229144;-2.81704;26.1347;-1.6176;-0.147829;0.542929;-0.731114;-0.0129813;-1.81053;-0.533476;1.88753;-5.51945;-0.00398009;0.00430382;0.0189591;0.01974;-0.00476098;0.0122505;0.20993;4.76349;0.015001;0.016334;4.1462;0.241184;88.9609;133.961;-0.001082;-0.00397243;0.00685682;0.00180827;0.0189451;-0.0149087;0.0307608;0;0.0640069;-0.144588;-2.32332;-1.27121;2.6523;-7.14009;-0.00485734;-0.000202176;0.0240282;0.0240296;-0.00485875;0.0144442;0.202151;4.94679;0.017861;0.0192589;4.94564;0.202198;91.9605;136.96;-0.000986506;-0.00485758;0.000332687;-0.000721951;0.0240282;-0.00939068;0.0435817;0;0.0328998;7.92936;2.01542
454000;455;26.3441;0.598268;0.0232374;-2.81932;26.1429;-1.61636;-0.150109;0.551142;-0.729869;-0.0148442;-1.80326;-0.550977;1.88561;-5.53702;-0.00391519;0.00447802;0.0193494;0.0201815;-0.00474737;0.0124645;0.202342;4.94212;0.0152846;0.0166193;4.2511;0.235233;87.5013;132.501;0.00295731;-0.0039077;0.00674294;0.00226477;0.0193369;-0.0208809;0.0243451;0;0.0723385;-0.147387;-2.32614;-1.28788;2.66295;-7.15676;-0.00477541;-0.000355941;0.0246842;0.0246885;-0.00477971;0.0147341;0.19346;5.16903;0.018262;0.0196455;5.16527;0.193601;92.458;137.458;-0.00151592;-0.00477582;0.000273612;-0.000967395;0.0246843;-0.0088475;0.0423892;0;0.0337629;7.92989;2.0198
455000;456;26.3514;0.60554;0.0235199;-2.82073;26.1501;-1.61685;-0.15152;0.558287;-0.730363;-0.0143586;-1.80376;-0.547926;1.8852;-5.53397;-0.00418875;0.004389;0.0195683;0.0203532;-0.00497367;0.0126634;0.214059;4.67162;0.0154951;0.0168846;4.09218;0.244368;87.7439;132.744;0.00217787;-0.00418157;0.0066033;0.00222629;0.0195563;-0.0195302;0.025475;0;0.0685986;-0.147734;-2.33367;-1.28754;2.66938;-7.15642;-0.00494122;-0.000502592;0.0252689;0.0252773;-0.00494958;0.0151134;0.195545;5.11391;0.0187208;0.0201513;5.10696;0.195811;92.6322;137.632;-0.00143022;-0.0049417;0.000108967;-0.00109613;0.0252691;-0.00893534;0.043867;0;0.0326282;7.93007;2.02501
456000;457;26.3623;0.616436;0.0239431;-2.82047;26.1612;-1.61415;-0.151251;0.569463;-0.727663;-0.0138472;-1.79999;-0.553041;1.88308;-5.53901;-0.00345423;0.00585474;0.0212601;0.0225769;-0.00477103;0.013674;0.162474;6.15481;0.0168681;0.018232;4.73209;0.211323;83.1491;128.149;0.00528307;-0.00344516;0.00772961;0.00402521;0.0212477;-0.0202781;0.0282429;0;0.0720784;-0.147975;-2.33924;-1.29019;2.67554;-7.15908;-0.00496525;-0.000491481;0.0254534;0.0254613;-0.00497318;0.0152172;0.195072;5.1263;0.0188519;0.0202896;5.11972;0.195323;92.3551;137.355;-0.0020466;-0.00496563;3.32147e-05;-0.00100061;0.0254535;-0.00666461;0.0456881;0;0.033531;7.94271;2.03238
457000;458;26.3678;0.62195;0.0241573;-2.82094;26.1659;-1.62812;-0.151723;0.574102;-0.741634;-0.0133051;-1.79939;-0.550099;1.88165;-5.53614;-0.00431613;0.00450641;0.0200943;0.0208996;-0.00512149;0.0130106;0.214794;4.65562;0.0159173;0.0173474;4.08077;0.245052;87.2305;132.231;0.00199127;-0.00430892;0.00662217;0.00244126;0.0200827;-0.0164583;0.0259146;0;0.0703808;-0.147838;-2.346;-1.29077;2.68172;-7.15965;-0.00517142;-0.000588386;0.025244;0.0252553;-0.0051828;0.0152191;0.204858;4.88144;0.0188041;0.0202921;4.87292;0.205216;92.331;137.331;-0.00241123;-0.00517176;-0.000148766;-0.00101496;0.0252441;-0.00750066;0.0451796;0;0.0373071;7.94376;2.03943
458000;459;26.3798;0.633966;0.024624;-2.82145;26.1781;-1.62522;-0.15223;0.586337;-0.738734;-0.0130664;-1.79877;-0.548392;1.88056;-5.53436;-0.00412854;0.00473972;0.0204955;0.0213763;-0.00500935;0.0131928;0.201437;4.96434;0.0161812;0.0175904;4.26727;0.234342;86.58;131.58;0.00260206;-0.00412085;0.00685577;0.0026747;0.0204834;-0.0214889;0.028927;0;0.0703726;-0.148626;-2.35368;-1.29024;2.68824;-7.15913;-0.00526575;-0.00055911;0.0251182;0.0251285;-0.00527603;0.0152022;0.209639;4.77011;0.0187599;0.0202697;4.76276;0.209962;92.6669;137.667;-0.00208654;-0.00526621;1.44534e-05;-0.00111567;0.0251183;-0.00664427;0.0421133;0;0.0382425;7.94475;2.04728
459000;460;26.3911;0.645196;0.0250602;-2.82137;26.1894;-1.6266;-0.152153;0.597576;-0.740114;-0.0138129;-1.79634;-0.554092;1.87991;-5.54006;-0.00406928;0.00515085;0.0217973;0.0227853;-0.00505724;0.0139213;0.186687;5.35655;0.0171267;0.0185617;4.50548;0.221952;85.1044;130.104;0.00380181;-0.00406138;0.0070639;0.00328621;0.0217859;-0.0217426;0.0270464;0;0.073801;-0.150328;-2.36099;-1.29602;2.69751;-7.1649;-0.00526344;-0.000350235;0.025019;0.0250231;-0.00526749;0.0151453;0.210378;4.75336;0.018687;0.0201937;4.75047;0.210505;91.443;136.443;-0.000618445;-0.00526357;-7.43217e-05;-0.000617996;0.0250191;-0.0098973;0.0452157;0;0.0390543;7.95521;2.05376
460000;461;26.3986;0.652714;0.0253522;-2.82271;26.1964;-1.63355;-0.153499;0.604575;-0.74706;-0.01369;-1.7968;-0.549543;1.87901;-5.53551;-0.00428352;0.00484503;0.0216201;0.0224967;-0.00516008;0.0138284;0.198127;5.04727;0.0169812;0.0184378;4.35975;0.229371;86.3539;131.354;0.00420557;-0.00427572;0.00692548;0.00281731;0.0216081;-0.0226524;0.0278479;0;0.0712998;-0.150796;-2.36935;-1.29576;2.70473;-7.16464;-0.00526654;-0.000151596;0.0255333;0.025534;-0.00526728;0.0154006;0.206262;4.84821;0.0190231;0.0205342;4.84766;0.206285;91.3117;136.312;0.00022701;-0.00526666;0.000222077;-0.000514046;0.0255332;-0.0095149;0.0427475;0;0.0368889;7.95863;2.06147
461000;462;26.4043;0.658464;0.0255755;-2.82556;26.2016;-1.63675;-0.156347;0.609863;-0.750263;-0.0134815;-1.79551;-0.548163;1.87737;-5.53413;-0.0043142;0.00476058;0.0216549;0.0225001;-0.00515939;0.0138297;0.199226;5.01944;0.0169831;0.0184396;4.36099;0.229306;86.9664;131.966;0.00485088;-0.00430621;0.00698083;0.00259674;0.0216421;-0.0215818;0.029009;0;0.071676;-0.151294;-2.37576;-1.29616;2.71056;-7.16504;-0.00532006;-0.000151251;0.0266043;0.026605;-0.00532078;0.0159629;0.19997;5.00075;0.0197506;0.0212839;5.00021;0.199991;91.0693;136.069;-0.00096461;-0.00532015;0.000153115;-0.000446152;0.0266043;-0.00981232;0.0463326;0;0.0372361;7.95519;2.06874
462000;463;26.4112;0.66536;0.0258434;-2.82753;26.2085;-1.63517;-0.158317;0.616698;-0.748686;-0.0132435;-1.79238;-0.555174;1.87644;-5.54122;-0.00418807;0.00491716;0.0226706;0.0235425;-0.00505997;0.0143012;0.184735;5.41315;0.0176255;0.0190683;4.6527;0.214929;86.6996;131.7;0.00416697;-0.0041796;0.00718832;0.00270563;0.0226572;-0.0231354;0.0246265;0;0.0700792;-0.151963;-2.3815;-1.30204;2.71844;-7.17093;-0.00525158;-0.000197126;0.0270347;0.0270359;-0.00525278;0.0161443;0.194253;5.14792;0.0200061;0.0215258;5.14697;0.194289;92.214;137.214;-0.00134915;-0.00525197;0.000531821;-0.000903158;0.0270346;-0.00982459;0.0461999;0;0.0361988;7.9619;2.07556
463000;464;26.4186;0.67269;0.0261281;-2.82744;26.2158;-1.63639;-0.158224;0.624018;-0.749906;-0.0123188;-1.79194;-0.552051;1.87509;-5.5381;-0.00413421;0.00512731;0.0224619;0.0234161;-0.00508843;0.0142523;0.184054;5.43318;0.0175545;0.019003;4.60183;0.217305;85.9101;130.91;0.00556912;-0.00412564;0.00727466;0.00303579;0.0224489;-0.025279;0.0253207;0;0.0729154;-0.15178;-2.3877;-1.30156;2.72364;-7.17045;-0.00540192;-0.000276842;0.0273706;0.0273729;-0.00540425;0.0163886;0.197362;5.06682;0.0202913;0.0218514;5.06506;0.197431;92.304;137.304;-0.00178194;-0.00540235;0.000441106;-0.000971888;0.0273705;-0.00906928;0.0462194;0;0.0359629;7.97067;2.08211
464000;465;26.4256;0.67976;0.0264027;-2.82823;26.2223;-1.64418;-0.159016;0.630571;-0.75769;-0.0123162;-1.79102;-0.551785;1.87413;-5.53783;-0.00479396;0.00462271;0.0223806;0.0231454;-0.00555881;0.0143521;0.214202;4.66849;0.0175787;0.0191361;4.16374;0.240169;87.1108;132.111;0.00442526;-0.00478662;0.00670056;0.00260006;0.022369;-0.016253;0.0295107;0;0.0760624;-0.152044;-2.39336;-1.30345;2.72952;-7.17233;-0.00554773;-0.000374388;0.0277731;0.0277773;-0.00555194;0.0166646;0.199752;5.0062;0.0206195;0.0222195;5.00316;0.199874;91.8008;136.801;-0.00155861;-0.005548;8.72112e-05;-0.000821021;0.0277731;-0.0102688;0.0495712;0;0.0354709;7.97277;2.08591
465000;466;26.4334;0.687572;0.0267061;-2.82779;26.2299;-1.6505;-0.158578;0.638094;-0.764013;-0.012586;-1.78993;-0.554382;1.87386;-5.53724;-0.00448387;0.0043825;0.0217645;0.0224769;-0.00519625;0.0138366;0.206017;4.85396;0.0169838;0.0184488;4.3256;0.231182;88.7526;133.753;0.00555909;-0.00447608;0.00690997;0.00191992;0.0217506;-0.0210678;0.0301205;0;0.0727345;-0.153336;-2.39948;-1.30685;2.73659;-7.17574;-0.00550164;-0.000522113;0.0276591;0.0276673;-0.00550986;0.0165886;0.198909;5.02743;0.0205295;0.0221181;5.02142;0.199147;92.521;137.521;-0.00218833;-0.00550216;0.000122089;-0.00114553;0.0276592;-0.00768805;0.0495726;0;0.0435785;7.9796;2.09146
466000;467;26.4448;0.698972;0.0271489;-2.82768;26.2416;-1.64606;-0.158466;0.649872;-0.759577;-0.0133897;-1.7891;-0.557974;1.87414;-5.54039;-0.00487098;0.00289623;0.021997;0.0223057;-0.00517963;0.0137427;0.221438;4.51594;0.0168643;0.0183235;4.30642;0.232211;94.7076;139.708;0.00292193;-0.00486688;0.00636015;-0.00047666;0.0219813;-0.0235116;0.0260208;0;0.0681419;-0.154505;-2.4068;-1.31226;2.74565;-7.18114;-0.00556545;-0.000578407;0.0277014;0.0277115;-0.00557551;0.0166435;0.200909;4.97739;0.020586;0.0221913;4.97021;0.201199;92.9676;137.968;-0.001932;-0.00556618;0.000205767;-0.0013372;0.0277016;-0.00681022;0.0440438;0;0.0428624;7.98529;2.09899
467000;468;26.4548;0.708908;0.0275348;-2.82851;26.2515;-1.6479;-0.159292;0.659682;-0.761409;-0.0142495;-1.78886;-0.555079;1.87305;-5.53749;-0.00495865;0.00244516;0.0219359;0.0221564;-0.00517914;0.0136678;0.226051;4.42378;0.0167661;0.0182237;4.27801;0.233753;95.8017;140.802;0.00284176;-0.0049561;0.00593643;-0.000954248;0.0219216;-0.0220672;0.0253411;0;0.0756264;-0.156206;-2.41446;-1.31292;2.75278;-7.1818;-0.00561864;-0.00035696;0.0279119;0.0279157;-0.00562244;0.0167691;0.201299;4.96774;0.0207402;0.0223588;4.96506;0.201408;92.2113;137.211;-0.000880129;-0.00561905;0.000284201;-0.000977207;0.0279119;-0.00953848;0.0482549;0;0.0459744;7.9824;2.10505
468000;469;26.4619;0.716047;0.0278121;-2.82924;26.2586;-1.64763;-0.160025;0.666813;-0.761139;-0.0122865;-1.7866;-0.554195;1.87062;-5.53705;-0.00470619;0.00369104;0.0226336;0.0231232;-0.00519574;0.0141594;0.207929;4.80933;0.0174078;0.0188793;4.45041;0.224699;91.2505;136.25;0.0074068;-0.00469972;0.00660213;0.000857749;0.022619;-0.0283778;0.0209396;0;0.0652755;-0.155384;-2.42136;-1.31144;2.75808;-7.18032;-0.00568665;-0.000182673;0.0283008;0.0283018;-0.00568764;0.0169947;0.200936;4.9767;0.0210218;0.0226596;4.97601;0.200964;91.5781;136.578;-0.000915406;-0.00568687;0.000333167;-0.000681464;0.0283007;-0.00883272;0.0471563;0;0.041935;7.98419;2.11237
469000;470;26.4688;0.722938;0.0280798;-2.83185;26.2649;-1.65394;-0.162633;0.67308;-0.767455;-0.014653;-1.78786;-0.553974;1.87178;-5.53639;-0.0053919;0.0022393;0.0220845;0.0222658;-0.00557321;0.0139195;0.244148;4.09587;0.0170088;0.0185594;3.99516;0.250303;96.5482;141.548;0.00475482;-0.00539008;0.00574984;-0.0011769;0.0220708;-0.0236347;0.0238325;0;0.0723101;-0.15752;-2.429;-1.31713;2.76761;-7.18601;-0.00553696;-1.99363e-05;0.0295268;0.0295268;-0.00553697;0.0175319;0.187523;5.33267;0.0217662;0.0233758;5.33266;0.187524;91.3702;136.37;-0.00157016;-0.00553713;0.000557105;-0.000577325;0.0295266;-0.00874493;0.0495974;0;0.0436874;7.99506;2.11995
470000;471;26.4778;0.731933;0.0284292;-2.83271;26.2741;-1.65001;-0.163494;0.682299;-0.76352;-0.0132106;-1.78353;-0.558984;1.86912;-5.54184;-0.00521576;0.00291244;0.022689;0.0229897;-0.00551649;0.0142531;0.229881;4.35008;0.0174583;0.0190041;4.16745;0.239955;93.6605;138.661;0.00372155;-0.0052115;0.00601006;-0.00010069;0.0226755;-0.0198486;0.0196554;0;0.0652754;-0.157373;-2.43413;-1.32098;2.77394;-7.18987;-0.00562964;-0.000225132;0.0297574;0.0297589;-0.00563107;0.017695;0.189184;5.28585;0.0219583;0.0235933;5.28476;0.189223;91.5357;136.536;-0.00110922;-0.00562987;0.00028303;-0.00071583;0.0297574;-0.00945743;0.0477869;0;0.037318;7.99518;2.12754
471000;472;26.4844;0.738554;0.0286863;-2.83365;26.2804;-1.65447;-0.164434;0.688589;-0.767986;-0.0131412;-1.78396;-0.558848;1.86949;-5.54126;-0.00528313;0.00246604;0.0228638;0.0230782;-0.00549755;0.0142879;0.231069;4.32771;0.0175081;0.0190505;4.19791;0.238214;95.5342;140.534;0.00485569;-0.00528047;0.00592101;-0.000893881;0.0228497;-0.0257125;0.0236031;0;0.065769;-0.158082;-2.44065;-1.32279;2.78056;-7.19167;-0.00581886;-0.000402025;0.029922;0.0299265;-0.00582338;0.0178749;0.194468;5.14224;0.0221488;0.0238333;5.13903;0.194589;91.7362;136.736;-0.00147696;-0.00581915;7.12415e-05;-0.000858868;0.0299221;-0.010374;0.050558;0;0.0374096;8.00275;2.13491
472000;473;26.4923;0.746428;0.0289921;-2.83174;26.2873;-1.67376;-0.16252;0.695509;-0.787275;-0.0125695;-1.78137;-0.557521;1.86662;-5.5363;-0.00528334;0.00242143;0.0233884;0.0235914;-0.0054864;0.0145389;0.225896;4.42681;0.0178399;0.0193852;4.29998;0.232559;95.1368;140.137;0.00422665;-0.00528074;0.00576982;-0.000833181;0.023375;-0.011833;0.0283232;0;0.0578669;-0.1582;-2.44734;-1.32056;2.78539;-7.18944;-0.00585832;-0.0004862;0.0299104;0.029917;-0.00586493;0.0178909;0.195863;5.10562;0.0221599;0.0238546;5.10099;0.19604;91.9668;136.967;-0.00218579;-0.00585869;2.77963e-05;-0.000982345;0.0299105;-0.00867447;0.0503133;0;0.0370168;8.01353;2.14227
473000;474;26.5008;0.754968;0.0293239;-2.83211;26.2959;-1.67352;-0.162893;0.704092;-0.787032;-0.0114524;-1.77986;-0.562208;1.86657;-5.54098;-0.00516431;0.00278808;0.0238316;0.0240973;-0.00542996;0.0147636;0.2167;4.61468;0.0181477;0.0196848;4.43784;0.225335;93.7677;138.768;0.00701122;-0.00516045;0.00597249;-0.000306163;0.023818;-0.0183846;0.0253633;0;0.0600796;-0.15787;-2.45397;-1.32424;2.79294;-7.19312;-0.00582999;-0.00061175;0.0300552;0.0300657;-0.00584042;0.017953;0.193976;5.15528;0.0222476;0.0239374;5.14786;0.194256;91.8057;136.806;-0.00183735;-0.00583027;-0.000250465;-0.000960449;0.0300554;-0.00790459;0.0505275;0;0.0391219;8.01016;2.1494
474000;475;26.5074;0.761546;0.0295793;-2.83155;26.302;-1.682;-0.162334;0.71024;-0.795512;-0.0119385;-1.78041;-0.558843;1.8661;-5.53842;-0.00541725;0.00330203;0.0238519;0.0242198;-0.00578514;0.0150025;0.22712;4.40296;0.0183809;0.0200033;4.18655;0.23886;90.8985;135.899;0.00509128;-0.0054122;0.00574549;0.000928413;0.0238411;-0.0135633;0.0245128;0;0.0635725;-0.158953;-2.46033;-1.3268;2.7998;-7.19568;-0.00597572;-0.000669761;0.0302452;0.0302575;-0.0059881;0.0181228;0.197576;5.06134;0.0224357;0.0241638;5.05294;0.197904;92.3214;137.321;-0.00171627;-0.00597622;-0.000118489;-0.00120165;0.0302454;-0.00898686;0.0495887;0;0.0435304;8.01302;2.15409
475000;476;26.5182;0.772352;0.0299991;-2.83121;26.3131;-1.68029;-0.161993;0.721276;-0.793806;-0.0122322;-1.77779;-0.555514;1.8626;-5.54116;-0.0059288;0.00173294;0.0235681;0.0236695;-0.00603026;0.0148499;0.25156;3.97519;0.0181273;0.0197999;3.92513;0.254769;97.1894;142.189;-0.000958188;-0.00592865;0.00521506;-0.00164886;0.0235563;-0.00704013;0.0221904;0;0.059131;-0.159801;-2.46727;-1.32818;2.8066;-7.19706;-0.00596471;-0.000472315;0.0308686;0.0308746;-0.00597076;0.0184227;0.193229;5.1752;0.022835;0.0245636;5.17097;0.193387;92.4131;137.413;-0.00121433;-0.00596532;0.00028069;-0.00119842;0.0308687;-0.00871665;0.0483717;0;0.0464464;8.02096;2.16037
476000;477;26.5291;0.783219;0.0304212;-2.83316;26.3239;-1.6778;-0.163943;0.732168;-0.791592;-0.0117773;-1.77773;-0.55791;1.86326;-5.53475;-0.00544868;0.00311401;0.0248514;0.0251681;-0.00576541;0.0154667;0.219251;4.56098;0.0189945;0.0206223;4.36536;0.229076;92.8919;137.892;0.00560421;-0.00544381;0.00623104;8.91083e-05;0.0248372;-0.015756;0.0282522;0;0.0576837;-0.160595;-2.47548;-1.3278;2.81369;-7.19668;-0.00595365;-0.000314856;0.0318165;0.0318191;-0.00595627;0.0188877;0.187124;5.34404;0.0234517;0.0251836;5.34212;0.187191;91.0862;136.086;-0.000644068;-0.00595377;-3.13476e-05;-0.000587986;0.0318166;-0.00931921;0.0484691;0;0.0428371;8.02132;2.16492
477000;478;26.5373;0.791393;0.0307386;-2.83435;26.3322;-1.67563;-0.165132;0.740425;-0.78914;-0.0130459;-1.77459;-0.560908;1.86117;-5.54155;-0.00550178;0.00260395;0.0251804;0.0253998;-0.00572121;0.0155605;0.218495;4.57677;0.0191276;0.0207473;4.43959;0.225246;92.9984;137.998;0.00642233;-0.00549838;0.00542711;-0.000134727;0.0251693;-0.0140498;0.0253843;0;0.0570407;-0.162112;-2.48112;-1.3353;2.82228;-7.20418;-0.00582259;-0.000168683;0.032529;0.0325298;-0.00582333;0.0191766;0.178997;5.5867;0.0238656;0.0255687;5.58611;0.179015;90.7299;135.73;-0.00104565;-0.00582265;6.13458e-05;-0.000390168;0.0325291;-0.00995616;0.0513744;0;0.0445587;8.02519;2.17031
478000;479;26.5426;0.796741;0.0309464;-2.838;26.3377;-1.66753;-0.168789;0.745926;-0.781315;-0.0116484;-1.77445;-0.562507;1.86151;-5.53935;-0.00514339;0.00315032;0.0254174;0.0257388;-0.00546476;0.0156018;0.202357;4.94175;0.0192412;0.0208023;4.70995;0.212316;92.2353;137.235;0.00669016;-0.00513843;0.00615578;0.000234413;0.0254037;-0.0189995;0.0275658;0;0.0579103;-0.161945;-2.48797;-1.33749;2.82933;-7.20637;-0.00593461;-0.000223862;0.0325117;0.032513;-0.00593592;0.0192245;0.182538;5.47832;0.023901;0.0256326;5.47734;0.18257;91.1676;136.168;-0.00113604;-0.00593477;0.000175696;-0.000608542;0.0325117;-0.00931489;0.0496461;0;0.0403384;8.03559;2.17799
479000;480;26.5499;0.804017;0.031229;-2.8383;26.3441;-1.68185;-0.169086;0.752325;-0.795362;-0.0123254;-1.77122;-0.56273;1.8585;-5.54384;-0.0054822;0.00307603;0.025424;0.0257272;-0.00578538;0.0157563;0.215631;4.63756;0.0193701;0.0210084;4.44694;0.224874;91.8981;136.898;0.000453678;-0.00547753;0.00582698;0.000407966;0.0254121;-0.0167418;0.0220913;0;0.0606029;-0.163587;-2.49434;-1.3366;2.8346;-7.20548;-0.00608624;-0.000282962;0.0324335;0.0324356;-0.00608832;0.0192619;0.187653;5.32898;0.0239129;0.0256826;5.32751;0.187705;91.3498;136.35;-0.0009283;-0.00608646;0.000158223;-0.000707688;0.0324335;-0.010739;0.0520302;0;0.0442557;8.03566;2.18509
480000;481;26.5573;0.811476;0.0315187;-2.84167;26.3519;-1.6712;-0.172454;0.760157;-0.784708;-0.0115514;-1.7695;-0.562582;1.85682;-5.54863;-0.00551596;0.00311804;0.02615;0.0264541;-0.00582006;0.0161371;0.210935;4.74079;0.0198624;0.0215161;4.54533;0.220006;92.2972;137.297;-0.000890072;-0.0055111;0.00610211;0.000226042;0.0261366;-0.0152326;0.0170087;0;0.0593039;-0.163063;-2.49992;-1.33852;2.84039;-7.2074;-0.00609681;-0.000520087;0.0322887;0.0322957;-0.00610385;0.0191998;0.188822;5.296;0.0238272;0.0255997;5.29104;0.188999;91.9431;136.943;-0.00136199;-0.00609723;3.09224e-05;-0.00105061;0.0322888;-0.0116991;0.0519755;0;0.042433;8.03822;2.1932
481000;482;26.5654;0.819544;0.0318321;-2.83865;26.3592;-1.68926;-0.16944;0.767461;-0.802777;-0.011982;-1.7732;-0.552254;1.85724;-5.53336;-0.00494747;0.00356045;0.0258283;0.0262349;-0.00535401;0.0157944;0.191552;5.22052;0.0195209;0.0210593;4.90005;0.20408;90.813;135.813;0.00392442;-0.00494146;0.00636194;0.000842984;0.0258148;-0.02466;0.0215163;0;0.0614725;-0.163607;-2.50898;-1.33151;2.84512;-7.20039;-0.00602525;-0.000532206;0.0325248;0.0325322;-0.0060326;0.0192824;0.185251;5.39809;0.0239536;0.0257099;5.39273;0.185435;92.0491;137.049;-0.00153986;-0.00602573;6.90669e-05;-0.00111103;0.032525;-0.0106124;0.0525717;0;0.0405875;8.04664;2.19988
482000;483;26.574;0.82812;0.0321652;-2.83891;26.3679;-1.68903;-0.1697;0.776091;-0.802545;-0.0106189;-1.76847;-0.559297;1.85483;-5.54534;-0.00545731;0.00339732;0.0263538;0.0267126;-0.00581609;0.0162643;0.207078;4.82909;0.0200306;0.0216858;4.59288;0.217728;90.9642;135.964;0.000309223;-0.00545184;0.00606893;0.000808488;0.0263415;-0.0174185;0.0158139;0;0.0647498;-0.163684;-2.51309;-1.3433;2.85427;-7.21218;-0.00608027;-0.000683848;0.0324942;0.0325064;-0.00609238;0.0192994;0.187118;5.34421;0.0239613;0.0257325;5.33557;0.187421;92.2768;137.277;-0.00191012;-0.00608083;-8.29963e-05;-0.00126225;0.0324945;-0.0100192;0.0517977;0;0.0421682;8.04578;2.20711
483000;484;26.5844;0.838574;0.0325712;-2.83957;26.3781;-1.6918;-0.170351;0.78637;-0.805588;-0.0118194;-1.76426;-0.569105;1.85381;-5.55408;-0.00532717;0.00343535;0.0268814;0.0272437;-0.0056895;0.0164666;0.198173;5.04609;0.0203262;0.0219555;4.78842;0.208837;90.4979;135.498;-0.001314;-0.00532169;0.0059987;0.000952368;0.0268696;-0.0195753;0.0170062;0;0.0613137;-0.164903;-2.51885;-1.34905;2.86212;-7.21793;-0.00576979;-0.000770605;0.0330668;0.0330821;-0.00578508;0.0194336;0.174489;5.73102;0.0242146;0.0259115;5.71853;0.17487;93.0353;138.035;-0.001555;-0.0057709;0.000165439;-0.00167146;0.0330671;-0.0087682;0.0502495;0;0.0456708;8.04638;2.21436
484000;485;26.5954;0.849548;0.0329975;-2.84324;26.3895;-1.6803;-0.17403;0.797769;-0.794086;-0.010326;-1.7662;-0.564901;1.85437;-5.54465;-0.00557209;0.00302388;0.0267923;0.0270724;-0.00585219;0.0164623;0.207974;4.8083;0.0202824;0.0219497;4.62603;0.216168;91.9819;136.982;0.00735976;-0.00556753;0.00585217;0.000284715;0.0267801;-0.022613;0.0214157;0;0.0589712;-0.165074;-2.52802;-1.34871;2.87004;-7.21759;-0.00586215;-0.000312587;0.034574;0.0345764;-0.00586456;0.0202205;0.169554;5.89784;0.025234;0.0269606;5.89582;0.169612;91.4583;136.458;-0.000578671;-0.00586243;0.000214047;-0.000818637;0.034574;-0.0113585;0.0515671;0;0.0501069;8.05718;2.22295
485000;486;26.6056;0.859722;0.0333926;-2.84739;26.4002;-1.66704;-0.178171;0.808426;-0.780556;-0.0121947;-1.76458;-0.560791;1.85159;-5.54684;-0.0049167;0.00406414;0.0274044;0.0279076;-0.0054199;0.0166637;0.179413;5.57374;0.0206502;0.0222183;5.1491;0.194209;88.4393;133.439;0.00380873;-0.00491019;0.00630903;0.00188985;0.0273931;-0.0199869;0.0126711;0;0.0610119;-0.167695;-2.53628;-1.345;2.87573;-7.21388;-0.00579689;-0.000167331;0.035455;0.0354557;-0.00579757;0.0206266;0.1635;6.11621;0.0257878;0.0275022;6.11561;0.163516;90.9511;135.951;-0.000354972;-0.00579702;0.000217942;-0.000537255;0.035455;-0.0110616;0.0523361;0;0.0488925;8.05891;2.22865
486000;487;26.6129;0.867019;0.033676;-2.84666;26.4074;-1.67046;-0.17744;0.815641;-0.783973;-0.0102955;-1.75996;-0.571492;1.85045;-5.55754;-0.00523506;0.00343033;0.0279211;0.0282723;-0.00558624;0.0169293;0.187495;5.33348;0.0209599;0.0225723;5.06106;0.197587;89.9595;134.959;0.00233072;-0.00522977;0.00582633;0.0011116;0.0279103;-0.0191063;0.011911;0;0.0587602;-0.16627;-2.54009;-1.35767;2.88495;-7.22655;-0.00561511;-0.000108104;0.0353677;0.035368;-0.0056154;0.0204917;0.158764;6.29866;0.0256561;0.0273222;6.29839;0.158771;90.8731;135.873;-0.000922559;-0.00561522;0.000280162;-0.000481;0.0353676;-0.00992918;0.0510822;0;0.0444916;8.06017;2.23374
487000;488;26.619;0.873102;0.0339123;-2.84848;26.4133;-1.67094;-0.179268;0.821545;-0.784454;-0.0109835;-1.76069;-0.570873;1.85096;-5.55198;-0.0051207;0.0034417;0.0277017;0.0280587;-0.0054777;0.0167682;0.184851;5.40976;0.0207739;0.0223576;5.12236;0.195223;90.3421;135.342;0.003764;-0.00511519;0.00602083;0.000944914;0.0276899;-0.0247643;0.0226915;0;0.0650121;-0.167411;-2.54707;-1.35773;2.8912;-7.22662;-0.00577569;-0.00026588;0.0349042;0.034906;-0.00577742;0.0203417;0.165472;6.0433;0.0254163;0.0271223;6.04179;0.165514;90.8071;135.807;-0.000797011;-0.00577577;-3.82148e-05;-0.000484596;0.0349043;-0.0117074;0.0529573;0;0.0453293;8.07094;2.23907
488000;489;26.6268;0.880938;0.0342167;-2.84855;26.4207;-1.67891;-0.179337;0.828929;-0.792424;-0.0110933;-1.75936;-0.57093;1.84972;-5.55204;-0.00497861;0.00362023;0.0279463;0.0283397;-0.00537197;0.0168558;0.178149;5.61327;0.020915;0.0224744;5.27547;0.189557;89.8594;134.859;0.00240141;-0.00497271;0.0061562;0.00116547;0.0279343;-0.0188115;0.0218711;0;0.0640569;-0.167734;-2.55291;-1.36349;2.89907;-7.23237;-0.00580767;-0.000410156;0.0347717;0.0347759;-0.00581182;0.0202938;0.167023;5.98721;0.0253443;0.0270585;5.98365;0.167122;91.3664;136.366;-0.000719296;-0.00580791;1.81538e-06;-0.000805971;0.0347718;-0.0107897;0.0519311;0;0.0457034;8.07135;2.24512
489000;490;26.6344;0.888489;0.03451;-2.84841;26.4279;-1.68623;-0.179195;0.836088;-0.799748;-0.0108841;-1.75543;-0.579102;1.84851;-5.56021;-0.00472067;0.00362351;0.0286124;0.0290017;-0.00511002;0.0170559;0.164987;6.06109;0.0212437;0.0227412;5.67546;0.176197;89.2045;134.204;0.00520046;-0.00471503;0.00594018;0.00138189;0.0286016;-0.0277634;0.0197877;0;0.0616078;-0.168288;-2.55736;-1.36473;2.9036;-7.23361;-0.00581418;-0.000375558;0.0346561;0.0346596;-0.00581766;0.0202386;0.167768;5.96062;0.0252699;0.0269849;5.95765;0.167851;91.6918;136.692;-0.0013836;-0.00581457;0.000229057;-0.000956523;0.0346562;-0.00972137;0.0540918;0;0.0401281;8.07242;2.25214
490000;491;26.6404;0.89451;0.0347438;-2.84939;26.4335;-1.69183;-0.180171;0.841693;-0.805344;-0.0109455;-1.75807;-0.56836;1.84769;-5.54947;-0.00507729;0.00322319;0.0286626;0.0289677;-0.00538244;0.0171751;0.17714;5.64525;0.0213335;0.0229001;5.38189;0.185808;91.0023;136.002;0.00303218;-0.00507222;0.00598477;0.000552163;0.0286502;-0.0176068;0.0218388;0;0.0621508;-0.169611;-2.56573;-1.3632;2.91033;-7.23208;-0.00569729;-0.00054826;0.0348627;0.0348701;-0.0057047;0.0202874;0.163421;6.11918;0.0253631;0.0270499;6.11253;0.163598;92.6226;137.623;-0.00160097;-0.00569825;0.000426769;-0.00148507;0.0348628;-0.00924234;0.051399;0;0.0458054;8.08038;2.25887
491000;492;26.6506;0.904718;0.0351403;-2.84563;26.4429;-1.71207;-0.176411;0.851084;-0.825582;-0.00957274;-1.75629;-0.568331;1.84598;-5.54944;-0.00518083;0.00404606;0.0284421;0.0289221;-0.00566087;0.0172915;0.182154;5.48987;0.0214192;0.0230553;5.10913;0.195728;88.1079;133.108;0.00267488;-0.00517473;0.00610133;0.00205796;0.0284319;-0.0189587;0.0220183;0;0.0583147;-0.1685;-2.57257;-1.36502;2.91715;-7.2339;-0.00555913;-0.000570303;0.0358166;0.0358245;-0.00556699;0.0206957;0.155211;6.44284;0.0259385;0.0275943;6.43516;0.155396;92.6713;137.671;-0.00165245;-0.00556019;0.000460547;-0.00155998;0.0358167;-0.00914001;0.0520441;0;0.0495035;8.0841;2.26619
492000;493;26.6627;0.916876;0.0356126;-2.85245;26.4566;-1.67786;-0.18323;0.864794;-0.791372;-0.00963877;-1.75514;-0.566572;1.84434;-5.54768;-0.00496394;0.0037489;0.0291597;0.0295667;-0.00537095;0.0174688;0.170233;5.8743;0.0217239;0.0232918;5.50493;0.181655;88.4817;133.482;0.00263844;-0.00495845;0.00580057;0.00176525;0.0291502;-0.0218705;0.0214475;0;0.0713789;-0.170134;-2.58004;-1.36382;2.92328;-7.2327;-0.00562873;-0.000501794;0.0369013;0.0369072;-0.00563465;0.0212709;0.152535;6.55588;0.0266821;0.0283612;6.55004;0.152671;92.2274;137.227;-0.00143085;-0.00562952;0.000377166;-0.0013447;0.0369013;-0.0110789;0.0516415;0;0.0447439;8.08281;2.27333
493000;494;26.6706;0.924698;0.0359164;-2.84768;26.4638;-1.69648;-0.178465;0.872003;-0.809989;-0.00952868;-1.74969;-0.573365;1.84126;-5.55448;-0.00463213;0.00433423;0.0299338;0.030469;-0.00516731;0.0178182;0.154746;6.46222;0.0222362;0.0237576;5.89649;0.169592;86.979;131.979;0.00544169;-0.00462597;0.00617406;0.00255613;0.0299245;-0.0252812;0.0218615;0;0.0614798;-0.170362;-2.58407;-1.36911;2.92931;-7.23799;-0.00543982;-0.000438543;0.037874;0.0378785;-0.00544426;0.0216614;0.143629;6.96237;0.027249;0.0288818;6.95751;0.14373;91.7035;136.704;-0.00151548;-0.0054403;0.000221883;-0.00107141;0.0378741;-0.00938228;0.0517573;0;0.0431961;8.09123;2.28074
494000;495;26.6782;0.932368;0.0362143;-2.84846;26.4707;-1.70737;-0.179246;0.878949;-0.820882;-0.00856259;-1.74822;-0.577894;1.84128;-5.55948;-0.00412461;0.00513524;0.030201;0.0309528;-0.00487639;0.0179146;0.136572;7.32215;0.022438;0.0238861;6.34747;0.157543;84.3114;129.311;0.00858264;-0.00411914;0.00637671;0.00393512;0.030194;-0.0211626;0.0169436;0;0.0814615;-0.171166;-2.59097;-1.37748;2.93937;-7.24636;-0.00552069;-0.000145938;0.0383942;0.0383946;-0.00552118;0.0219579;0.14379;6.95459;0.0276214;0.0292772;6.95407;0.143801;90.8067;135.807;-0.00100083;-0.00552081;0.000221324;-0.000497668;0.0383941;-0.00973086;0.0519376;0;0.0436642;8.09705;2.288
495000;496;26.6885;0.942609;0.036612;-2.85457;26.4828;-1.66944;-0.185354;0.89103;-0.782957;-0.006722;-1.75299;-0.558404;1.83979;-5.53904;-0.0040588;0.00535053;0.0308399;0.0316418;-0.00486069;0.0182512;0.131609;7.59828;0.0228875;0.024335;6.50972;0.153616;85.6674;130.667;0.000980878;-0.00405018;0.00738472;0.00338518;0.0308273;-0.0242542;0.00503991;0;0.074453;-0.169754;-2.60185;-1.35656;2.93917;-7.22544;-0.00580479;-0.000120875;0.0383397;0.03834;-0.00580512;0.0220726;0.151404;6.60484;0.0276986;0.0294301;6.60452;0.151411;90.5313;135.531;-0.000571156;-0.00580483;9.98922e-05;-0.000332256;0.0383397;-0.0118946;0.0531353;0;0.0526698;8.09687;2.2956
496000;497;26.6861;0.940202;0.0365186;-2.85636;26.4797;-1.67704;-0.187149;0.887921;-0.79083;-0.00952666;-1.74843;-0.575329;1.84068;-5.55292;-0.00390749;0.00456849;0.0313309;0.0319135;-0.00449014;0.0182018;0.124717;8.01816;0.0229195;0.0242691;7.10747;0.140697;86.9932;131.993;0.0106834;-0.0039002;0.00668795;0.00252144;0.0313193;-0.0175485;0.0151189;0;0.0657752;-0.173141;-2.60499;-1.37508;2.95072;-7.24396;-0.00579457;-0.00020353;0.0374825;0.0374835;-0.00579553;0.0216395;0.154594;6.46856;0.027128;0.0288527;6.46765;0.154616;91.4645;136.465;-0.000409881;-0.00579492;0.000482603;-0.000861041;0.0374824;-0.0113635;0.0518849;0;0.0449766;8.1009;2.30293
497000;498;26.7007;0.954806;0.0370858;-2.8526;26.493;-1.70624;-0.183384;0.90119;-0.819751;-0.00865625;-1.74609;-0.574484;1.83819;-5.55266;-0.00362041;0.00462968;0.0320302;0.0326216;-0.00421182;0.0184167;0.113031;8.84712;0.023279;0.0245556;7.74525;0.129111;86.572;131.572;0.00747409;-0.00361335;0.00661295;0.00271491;0.0320194;-0.0268779;0.0113209;0;0.0722663;-0.173048;-2.61185;-1.37516;2.95682;-7.24404;-0.00566995;-0.000273403;0.0370597;0.0370615;-0.00567169;0.0213666;0.152995;6.53617;0.026799;0.0284888;6.53446;0.153035;91.1287;136.129;-0.000890748;-0.00567015;0.000159695;-0.000688656;0.0370598;-0.0101459;0.0518934;0;0.0451159;8.10798;2.31055
498000;499;26.7006;0.954782;0.0370849;-2.8546;26.493;-1.70174;-0.18538;0.901231;-0.815534;-0.00801718;-1.74398;-0.579171;1.83765;-5.5573;-0.00340332;0.00474603;0.0325006;0.0331173;-0.00402009;0.0185687;0.104716;9.54967;0.023533;0.0247583;8.23796;0.121389;86.6723;131.672;0.00409532;-0.00339559;0.00689848;0.00266841;0.0324884;-0.0285255;0.00335487;0;0.0757901;-0.173709;-2.61704;-1.37977;2.96358;-7.24865;-0.00557881;-0.000436009;0.0373535;0.0373579;-0.00558324;0.0214706;0.149352;6.69559;0.0269598;0.0286274;6.69108;0.149453;92.2394;137.239;-0.00178981;-0.00557964;0.000518654;-0.00135116;0.0373534;-0.00854269;0.050117;0;0.0452413;8.10247;2.31249
499000;500;26.7098;0.963909;0.0374394;-2.85532;26.502;-1.70406;-0.186101;0.910203;-0.817849;-0.00565359;-1.74117;-0.579108;1.83496;-5.55917;-0.00353203;0.00535791;0.03266;0.0334365;-0.00430856;0.0188725;0.108146;9.24679;0.0238572;0.0251634;7.76048;0.128858;85.093;130.093;-0.000843443;-0.00352434;0.00711926;0.00365827;0.0326493;-0.0181452;0.00355524;0;0.0779725;-0.171891;-2.62223;-1.38215;2.96917;-7.25104;-0.00549219;-0.00041206;0.0380155;0.0380194;-0.00549609;0.0217577;0.144472;6.92174;0.0273629;0.0290103;6.91754;0.14456;92.1652;137.165;-0.000873269;-0.00549299;0.000545041;-0.00132904;0.0380154;-0.010764;0.0524412;0;0.0451981;8.10737;2.3179
500000;501;26.7211;0.975205;0.0378782;-2.85431;26.5134;-1.7051;-0.185094;0.921629;-0.818886;-0.00776722;-1.73984;-0.576538;1.83289;-5.55758;-0.00352769;0.00547408;0.0329624;0.0337659;-0.00433119;0.0190486;0.107021;9.34392;0.0240845;0.0253981;7.79599;0.128271;84.2604;129.26;0.00525924;-0.00352123;0.0068635;0.00413374;0.0329541;-0.0200928;0.0133872;0;0.0891326;-0.17388;-2.63013;-1.38284;2.97659;-7.25172;-0.00551876;-0.000525142;0.0390342;0.0390404;-0.00552495;0.0222827;0.141383;7.07301;0.0280506;0.0297103;7.06621;0.141519;92.8119;137.812;-0.0013383;-0.0055202;0.000776004;-0.0017705;0.0390341;-0.00954018;0.0505166;0;0.0543887;8.11574;2.32509
501000;502;26.7296;0.983707;0.0382084;-2.85495;26.5218;-1.70736;-0.185735;0.929983;-0.821153;-0.00702272;-1.73801;-0.577632;1.83149;-5.5582;-0.00374037;0.00426815;0.032398;0.0328953;-0.00423762;0.0185664;0.115451;8.66172;0.0234706;0.0247553;7.76268;0.128822;86.7429;131.743;0.00297915;-0.00373455;0.00602601;0.00257181;0.0323893;-0.0165515;0.0160238;0;0.0832923;-0.174198;-2.63581;-1.38774;2.9839;-7.25662;-0.00531021;-0.000392352;0.0403092;0.0403126;-0.00531358;0.0228131;0.131737;7.5909;0.0288101;0.0304175;7.58671;0.131809;92.0965;137.097;-0.0010496;-0.00531107;0.000627909;-0.00136787;0.0403091;-0.0101593;0.0536616;0;0.0466017;8.11532;2.3324
502000;503;26.7389;0.993069;0.038572;-2.85637;26.5315;-1.70002;-0.187155;0.939737;-0.81381;-0.00859502;-1.73492;-0.582562;1.83014;-5.56313;-0.00344008;0.00410996;0.0334064;0.0338592;-0.00389296;0.0188761;0.102977;9.71091;0.0239761;0.0251681;8.69756;0.114975;87.4372;132.437;0.00791377;-0.00343394;0.00613505;0.00215707;0.0333963;-0.0203267;0.0194895;0;0.0854155;-0.176583;-2.64101;-1.39342;2.99128;-7.2623;-0.00532969;-0.000229208;0.0411059;0.041107;-0.00533082;0.0232189;0.129657;7.71263;0.0293435;0.0309586;7.71121;0.129681;91.1421;136.142;-0.0013094;-0.00532995;0.000329557;-0.000763051;0.0411059;-0.0111269;0.0537398;0;0.0458988;8.11881;2.33987
503000;504;26.7486;1.00272;0.0389469;-2.85935;26.5413;-1.69433;-0.190134;0.949508;-0.808121;-0.00666529;-1.73462;-0.585209;1.83069;-5.56495;-0.00310573;0.00450969;0.0340484;0.034588;-0.00364527;0.0191166;0.0912151;10.9631;0.0243648;0.0254888;9.48845;0.105391;87.398;132.398;0.000447306;-0.00309801;0.00688416;0.0022205;0.0340354;-0.00628536;0.00690655;0;0.0754772;-0.176581;-2.65018;-1.39118;2.99833;-7.26006;-0.00546533;-4.07171e-06;0.041106;0.041106;-0.00546533;0.0232857;0.132957;7.52123;0.0293956;0.0310476;7.52123;0.132957;90.7776;135.778;-0.000422414;-0.00546545;0.000496371;-0.000482128;0.0411059;-0.0106082;0.0542364;0;0.0504377;8.12977;2.34732
504000;505;26.752;1.00616;0.0390804;-2.85949;26.5439;-1.70771;-0.190272;0.9521;-0.821499;-0.0071544;-1.73235;-0.583611;1.82803;-5.56827;-0.004459;0.00310118;0.0326366;0.0328941;-0.00471647;0.0188053;0.136626;7.31927;0.0236588;0.0250737;6.9743;0.143384;90.08;135.08;-0.00173006;-0.00445443;0.00557596;0.000715287;0.0326262;-0.00623108;0.00766534;0;0.0813521;-0.176549;-2.65441;-1.39673;3.00465;-7.26561;-0.00548459;-8.12893e-05;0.0403529;0.0403531;-0.00548474;0.0229189;0.135916;7.35751;0.0289043;0.0305585;7.35734;0.135919;90.7489;135.749;0.00102658;-0.0054847;0.000328597;-0.000473117;0.0403529;-0.0125644;0.052569;0;0.0479474;8.12684;2.35502
505000;506;26.764;1.01815;0.0395463;-2.86791;26.557;-1.6768;-0.198691;0.96525;-0.790592;-0.00671483;-1.73072;-0.581939;1.82595;-5.56053;-0.00312435;0.00410543;0.0349683;0.0354058;-0.00356179;0.0194838;0.0893479;11.1922;0.0248762;0.0259784;9.94045;0.100599;88.2198;133.22;0.00182338;-0.00311735;0.00659908;0.00170354;0.0349554;-0.0186665;0.00776776;0;0.0865381;-0.177324;-2.6605;-1.39137;3.00759;-7.26025;-0.00549223;-0.000130571;0.0403072;0.0403076;-0.00549261;0.0229001;0.136259;7.33894;0.0288772;0.0305334;7.33851;0.136267;91.229;136.229;-0.000805054;-0.00549253;0.00054337;-0.000774842;0.0403071;-0.0105818;0.0575369;0;0.0422133;8.13029;2.36254
506000;507;26.7689;1.023;0.0397346;-2.86882;26.5612;-1.68685;-0.199601;0.9694;-0.800644;-0.00788775;-1.73229;-0.577618;1.82607;-5.56072;-0.00331162;0.00391837;0.0340052;0.0344122;-0.00371862;0.0190654;0.0973858;10.2684;0.0242761;0.0254205;9.25401;0.108061;88.9227;133.923;0.00111472;-0.00330477;0.00663298;0.0013017;0.0339913;-0.0175762;0.00629525;0;0.0849732;-0.178766;-2.66806;-1.39365;3.01543;-7.26254;-0.00556163;-0.000156355;0.0397072;0.0397078;-0.00556217;0.022635;0.140066;7.13949;0.0285074;0.03018;7.13889;0.140078;91.9056;136.906;-0.000752985;-0.00556231;0.000903043;-0.00116963;0.0397068;-0.00829164;0.0533193;0;0.0433176;8.13985;2.36995
507000;508;26.7824;1.03651;0.0402594;-2.86207;26.5722;-1.73782;-0.192851;0.98047;-0.851337;-0.00664612;-1.72588;-0.590317;1.82405;-5.57017;-0.00238241;0.00420746;0.0352876;0.0357519;-0.00284663;0.0192992;0.067514;14.8117;0.0248379;0.0257323;12.5594;0.0796219;87.4649;132.465;0.000315282;-0.00237562;0.00645691;0.00203984;0.035276;-0.0148459;0.00803063;0;0.0794889;-0.178442;-2.67125;-1.40901;3.02535;-7.27789;-0.00547509;-0.00047685;0.0398249;0.0398299;-0.00548011;0.022655;0.137479;7.27383;0.0285558;0.0302067;7.26808;0.137588;92.5634;137.563;-0.000491026;-0.00547634;0.000747188;-0.00164756;0.0398247;-0.00957936;0.051654;0;0.0451148;8.1382;2.3787
508000;509;26.7956;1.04971;0.0407721;-2.8609;26.5864;-1.72744;-0.191689;0.994578;-0.840949;-0.00684068;-1.72429;-0.58892;1.8221;-5.57333;-0.00252876;0.0036859;0.0355171;0.0358709;-0.00288256;0.0193767;0.0711983;14.0453;0.0249304;0.0258356;12.4441;0.0803592;89.1234;134.123;-0.00304848;-0.00252247;0.00645671;0.00101686;0.0355035;-0.00930817;0.00917489;0;0.0889149;-0.179592;-2.67851;-1.40782;3.03127;-7.27671;-0.00547057;-0.00041227;0.040935;0.0409386;-0.00547424;0.0232064;0.133641;7.48275;0.0292882;0.0309419;7.47842;0.133718;92.379;137.379;-0.0012544;-0.00547172;0.000794382;-0.00156513;0.0409347;-0.0090667;0.0521042;0;0.0486985;8.1385;2.38166
509000;510;26.8056;1.05979;0.0411636;-2.8704;26.5979;-1.68994;-0.201189;1.00611;-0.803731;-0.00787938;-1.72301;-0.590911;1.82154;-5.57086;-0.00296979;0.00328249;0.0357076;0.0359842;-0.00324639;0.0196153;0.0831697;12.0236;0.0251416;0.0261537;11.0844;0.0902172;90.5413;135.541;0.00594237;-0.00296441;0.00649168;0.000193105;0.0356925;-0.026753;0.0123067;0;0.0844581;-0.181435;-2.6852;-1.41139;3.03896;-7.28028;-0.00527626;-0.000544333;0.0422075;0.0422137;-0.0052825;0.0237481;0.125008;7.9995;0.0300584;0.0316642;7.99124;0.125137;92.6884;137.688;-0.00118613;-0.00527783;0.000822872;-0.00184925;0.0422073;-0.00761404;0.0506269;0;0.0516719;8.14846;2.38766
510000;511;26.8104;1.06457;0.0413493;-2.86238;26.6008;-1.73296;-0.193163;1.00903;-0.846751;-0.00779582;-1.72097;-0.590334;1.81942;-5.56941;-0.00296766;0.00330933;0.0359378;0.0362173;-0.00324714;0.0197322;0.0825775;12.1098;0.0252968;0.0263096;11.1536;0.0896572;90.1907;135.191;0.00816749;-0.00296224;0.00633246;0.000399696;0.0359237;-0.00879862;0.0118646;0;0.0785805;-0.181618;-2.69098;-1.41635;3.04637;-7.28523;-0.0050455;-0.000474677;0.0432922;0.0432968;-0.00505016;0.0241735;0.116545;8.58035;0.0306868;0.0322313;8.57336;0.11664;91.8404;136.84;-0.000622156;-0.00504627;0.000415831;-0.00132393;0.0432922;-0.011037;0.0526624;0;0.0476277;8.14931;2.39279
511000;512;26.8166;1.07079;0.0415908;-2.86428;26.6068;-1.73411;-0.195066;1.01501;-0.847903;-0.00698346;-1.71851;-0.596539;1.81912;-5.57897;-0.00310132;0.0030545;0.0363295;0.0365648;-0.00333654;0.0199506;0.0853664;11.7142;0.0255614;0.0266009;10.9589;0.09125;90.2402;135.24;0.00521233;-0.0030967;0.00587068;0.000345449;0.0363174;-0.00781211;0.0103817;0;0.0721858;-0.181911;-2.6963;-1.42411;3.0547;-7.293;-0.00512159;-0.000261196;0.0436819;0.0436833;-0.00512299;0.0244031;0.117247;8.52897;0.0309714;0.0325375;8.52691;0.117276;91.1445;136.145;-0.000241568;-0.00512189;0.000327516;-0.000822379;0.0436818;-0.0116323;0.0538255;0;0.0508296;8.14965;2.4001
512000;513;26.8267;1.08089;0.0419832;-2.86464;26.6175;-1.72554;-0.195429;1.02571;-0.839333;-0.00581925;-1.71737;-0.595284;1.81762;-5.57324;-0.00305837;0.00232551;0.0364805;0.0366168;-0.00319468;0.0199057;0.0838357;11.9281;0.0255428;0.026541;11.4618;0.0872462;92.4526;137.453;0.00849433;-0.00305627;0.00588664;-0.0010998;0.0364664;-0.00968374;0.0204963;0;0.0775831;-0.181654;-2.70312;-1.42138;3.05944;-7.29026;-0.00524204;-0.000124429;0.0439279;0.0439282;-0.00524236;0.0245853;0.119333;8.37992;0.0311802;0.0327804;8.37948;0.119339;90.8923;135.892;0.000699916;-0.00524223;0.000402438;-0.000626481;0.0439278;-0.0124192;0.0519359;0;0.051833;8.1602;2.40645
513000;514;26.8328;1.08693;0.0422178;-2.86671;26.6228;-1.73348;-0.197496;1.03106;-0.847266;-0.00777596;-1.71656;-0.589126;1.81486;-5.56751;-0.00310267;0.00240411;0.0365367;0.0366819;-0.00324795;0.0199649;0.0849194;11.7759;0.025606;0.0266199;11.2939;0.0885435;92.2552;137.255;0.00898771;-0.00310024;0.00590756;-0.000965383;0.0365226;-0.00276687;0.0226246;0;0.083159;-0.184085;-2.70945;-1.41862;3.0639;-7.28751;-0.0053476;-0.000109453;0.0432799;0.0432801;-0.00534785;0.024314;0.123559;8.09332;0.0307912;0.0324187;8.093;0.123564;90.6074;135.607;0.000876884;-0.00534769;0.000221013;-0.000424516;0.0432799;-0.0109225;0.0524592;0;0.0465115;8.16143;2.41418
514000;515;26.841;1.09515;0.042537;-2.86777;26.631;-1.7343;-0.198558;1.03918;-0.848089;-0.00787075;-1.71448;-0.589181;1.81291;-5.56804;-0.00316488;0.00146898;0.0362467;0.0363014;-0.00321955;0.0197605;0.0873149;11.4528;0.0253424;0.0263473;11.2753;0.0886896;94.5029;139.503;0.00308521;-0.00316673;0.00551289;-0.00242115;0.0362331;0.00582263;0.0174695;0;0.0848905;-0.185304;-2.71563;-1.41727;3.06882;-7.28615;-0.00547194;-7.465e-05;0.0426793;0.0426794;-0.00547205;0.0240757;0.128211;7.79966;0.0304413;0.0321009;7.79952;0.128213;91.5577;136.558;0.000204267;-0.00547246;0.000920847;-0.00102417;0.0426789;-0.0070398;0.0523829;0;0.0415355;8.16286;2.42135
515000;516;26.849;1.10311;0.0428461;-2.87014;26.6378;-1.74795;-0.20093;1.04605;-0.861739;-0.00563974;-1.70861;-0.597247;1.81;-5.58143;-0.003327;0.00142626;0.0361771;0.0362285;-0.00337843;0.0198035;0.0919644;10.8738;0.0253536;0.0264046;10.7235;0.0932534;94.2104;139.21;-0.000220515;-0.00332845;0.00521674;-0.00221972;0.0361649;0.00263756;0.0123092;0;0.0845047;-0.184247;-2.72018;-1.42875;3.07809;-7.29763;-0.00533864;-0.000307243;0.0426157;0.0426177;-0.0053406;0.0239791;0.125274;7.98251;0.030349;0.0319722;7.97993;0.125314;91.9937;136.994;0.00111549;-0.00533952;0.000797374;-0.00136105;0.0426154;-0.00990995;0.0516915;0;0.0429327;8.16695;2.42932
516000;517;26.8577;1.11189;0.043187;-2.86908;26.6464;-1.75395;-0.199864;1.05462;-0.867739;-0.00785652;-1.71102;-0.583433;1.80778;-5.56829;-0.00317288;0.00200954;0.0360839;0.0361865;-0.00327548;0.019731;0.0879307;11.3726;0.0252869;0.026308;11.0477;0.0905167;92.7651;137.765;0.00188437;-0.00317169;0.00544088;-0.00129181;0.0360715;-0.00326933;0.0127312;0;0.0832104;-0.186041;-2.72943;-1.4234;3.0839;-7.29228;-0.00523744;-0.000429494;0.043515;0.0435187;-0.00524122;0.02438;0.120359;8.30845;0.030908;0.0325066;8.30317;0.120436;92.5867;137.587;-0.000580056;-0.005239;0.00102459;-0.00181565;0.0435145;-0.00894889;0.0540518;0;0.0451324;8.17095;2.43572
517000;518;26.8681;1.12221;0.0435881;-2.86914;26.6573;-1.74671;-0.19993;1.0655;-0.860502;-0.00636311;-1.70881;-0.59111;1.80817;-5.57596;-0.00346786;0.00134774;0.0357812;0.0358275;-0.00351408;0.0196708;0.0969183;10.318;0.0251383;0.0262277;10.1954;0.0980834;94.4235;139.424;5.68942e-05;-0.00346961;0.00514391;-0.00230459;0.0357694;0.00178526;0.0149689;0;0.0783355;-0.185471;-2.73559;-1.43027;3.0925;-7.29915;-0.00511087;-0.000505624;0.0444482;0.0444533;-0.00511602;0.0247847;0.114985;8.6968;0.0314798;0.0330462;8.68904;0.115087;92.7301;137.73;-0.000490536;-0.0051127;0.00103597;-0.00197406;0.0444478;-0.00803873;0.052352;0;0.0492193;8.16869;2.4427
518000;519;26.8787;1.13282;0.0440002;-2.86895;26.6686;-1.73676;-0.199737;1.07686;-0.850545;-0.00500714;-1.70997;-0.584546;1.80713;-5.56995;-0.00353389;0.00142088;0.0363662;0.0364167;-0.00358443;0.0200006;0.0971752;10.2907;0.0255565;0.0266674;10.1597;0.098428;94.6244;139.624;-0.000153108;-0.0035359;0.00545156;-0.00245464;0.0363528;0.00802438;0.0160113;0;0.0761321;-0.185;-2.74553;-1.42385;3.0983;-7.29273;-0.00519784;-0.000387763;0.0456738;0.0456768;-0.0052008;0.0254388;0.113804;8.78707;0.0323245;0.0339184;8.78265;0.113861;92.3862;137.386;-0.00146141;-0.00519932;0.00105466;-0.00176001;0.0456734;-0.0101124;0.0538328;0;0.0501286;8.17337;2.44888
519000;520;26.8899;1.14406;0.0444365;-2.86962;26.6797;-1.74023;-0.200402;1.08788;-0.854015;-0.00562092;-1.70572;-0.591334;1.80532;-5.57673;-0.00292546;0.00117774;0.0371269;0.0371615;-0.00296006;0.0200608;0.0787963;12.6909;0.0258176;0.0267477;12.5543;0.0796541;95.4128;140.413;-0.00312871;-0.0029297;0.00566513;-0.00313636;0.0371121;0.00679115;0.0127312;0;0.0798986;-0.186547;-2.7501;-1.42997;3.10526;-7.29885;-0.00478514;-0.000408154;0.0460981;0.0461013;-0.00478841;0.0254449;0.103803;9.63359;0.0324483;0.0339265;9.62769;0.103867;92.3097;137.31;-0.00255726;-0.00478657;0.000989424;-0.00173775;0.0460977;-0.00494349;0.0545717;0;0.0484261;8.17872;2.45748
520000;521;26.898;1.1521;0.0447488;-2.87159;26.6876;-1.74027;-0.202375;1.09577;-0.854064;-0.00415769;-1.70117;-0.597808;1.80315;-5.58321;-0.00313915;0.00125331;0.0378984;0.0379366;-0.00317739;0.020557;0.0828307;12.0728;0.026414;0.0274093;11.9395;0.0837553;95.268;140.268;-0.00124763;-0.00314311;0.00576369;-0.00307875;0.0378831;0.0068176;0.0133513;0;0.0812527;-0.186835;-2.75371;-1.43733;3.11187;-7.30621;-0.00512968;-0.000207898;0.046295;0.0462959;-0.00513052;0.0257132;0.110804;9.02493;0.0327085;0.0342843;9.02362;0.11082;91.2326;136.233;0.000998468;-0.00513009;0.000544914;-0.000923711;0.0462949;-0.0126274;0.0548869;0;0.0443;8.17774;2.45941
521000;522;26.9043;1.15848;0.0449966;-2.87201;26.6938;-1.74207;-0.2028;1.10204;-0.855861;-0.00476746;-1.69949;-0.596773;1.80123;-5.5825;-0.00281478;0.00109292;0.0379267;0.037956;-0.00284408;0.0204;0.0742165;13.4741;0.0263033;0.0272;13.3456;0.0749311;95.3727;140.373;0.00211638;-0.00281937;0.00557652;-0.00321471;0.0379123;0.00306436;0.0114237;0;0.080171;-0.187456;-2.75977;-1.43805;3.1176;-7.30693;-0.00511849;-4.3012e-05;0.0463765;0.0463765;-0.00511853;0.0257475;0.110368;9.06058;0.0327574;0.03433;9.06052;0.110369;90.8133;135.813;0.000643709;-0.00511867;0.00053391;-0.000591542;0.0463763;-0.0113026;0.0557869;0;0.0458075;8.18207;2.46524
522000;523;26.9111;1.16522;0.0452587;-2.87376;26.6998;-1.75147;-0.204545;1.10804;-0.865258;-0.00542419;-1.69772;-0.596553;1.79949;-5.58206;-0.00348911;0.00131523;0.0380813;0.0381229;-0.00353068;0.0208268;0.0916225;10.9143;0.0266702;0.027769;10.7976;0.092613;95.2968;140.297;-0.000904159;-0.00349291;0.00586575;-0.00305308;0.0380656;0.00551136;0.012801;0;0.0769686;-0.18868;-2.76495;-1.4411;3.12367;-7.30998;-0.00516472;-1.611e-05;0.0460118;0.0460118;-0.00516473;0.0255883;0.112248;8.90887;0.0325331;0.0341177;8.90886;0.112248;90.8114;135.811;0.00052612;-0.00516489;0.000575665;-0.000578932;0.0460117;-0.00969409;0.0547093;0;0.0503941;8.18895;2.47293
523000;524;26.9182;1.17233;0.0455348;-2.8709;26.7063;-1.76661;-0.201688;1.11451;-0.880396;-0.00630292;-1.69538;-0.594548;1.79662;-5.57937;-0.00342733;0.00130038;0.0379565;0.0379973;-0.00346815;0.0207327;0.0902962;11.0747;0.0265632;0.0276436;10.9561;0.0912735;94.4144;139.414;0.00483749;-0.00342959;0.00525013;-0.0024919;0.037944;-0.00189694;0.0126957;0;0.074018;-0.190199;-2.77093;-1.44099;3.12901;-7.30987;-0.00505267;-0.000105965;0.0458393;0.0458396;-0.0050529;0.0254462;0.110226;9.07229;0.0323757;0.0339283;9.07194;0.11023;91.6984;136.698;-0.00127319;-0.00505342;0.00107089;-0.00122555;0.0458388;-0.00523996;0.0559454;0;0.04963;8.18539;2.48025
524000;525;26.9255;1.1796;0.0458169;-2.87567;26.7129;-1.76948;-0.206459;1.12113;-0.883266;-0.00617812;-1.69692;-0.591893;1.7972;-5.56545;-0.00319609;0.00211521;0.0378755;0.0379841;-0.00330474;0.0206444;0.0843842;11.8506;0.0264931;0.0275259;11.4938;0.0870031;92.7976;137.798;0.00655329;-0.00319482;0.00577003;-0.00139501;0.0378616;-0.0124654;0.00772352;0;0.0793903;-0.190676;-2.77688;-1.44092;3.13427;-7.30981;-0.00524134;-8.61935e-05;0.0456885;0.0456886;-0.00524149;0.0254651;0.114719;8.71695;0.0323481;0.0339534;8.71673;0.114722;91.8844;136.884;0.00091413;-0.00524224;0.00123507;-0.00134311;0.0456878;-0.00891481;0.052865;0;0.0499234;8.18829;2.48796
525000;526;26.9368;1.19097;0.0462587;-2.87632;26.7243;-1.7699;-0.207108;1.1325;-0.883694;-0.0051573;-1.69215;-0.59453;1.79356;-5.57872;-0.00382932;0.00192702;0.03793;0.0380187;-0.00391805;0.0209684;0.100958;9.90516;0.0267477;0.0279578;9.70347;0.103056;93.4915;138.492;0.00149578;-0.00382901;0.00577291;-0.00176416;0.0379157;0.00721509;0.0103654;0;0.0733403;-0.190673;-2.78263;-1.44487;3.14119;-7.31375;-0.00524148;-0.000378663;0.0465141;0.0465168;-0.00524425;0.0258806;0.112686;8.87422;0.0328989;0.0345074;8.87007;0.112739;92.1442;137.144;8.82144e-05;-0.00524272;0.000923381;-0.00161631;0.0465137;-0.00919829;0.0555906;0;0.0491646;8.19605;2.49456
526000;527;26.9494;1.20358;0.0467485;-2.87496;26.7384;-1.75124;-0.205746;1.14658;-0.865033;-0.00520604;-1.68909;-0.596996;1.79149;-5.58118;-0.00315463;0.00187827;0.037927;0.0380127;-0.00324032;0.0206265;0.0831762;12.0227;0.0264881;0.027502;11.7312;0.0852431;93.2482;138.248;0.00469308;-0.00315434;0.00562367;-0.0017189;0.0379135;-0.00120435;0.0077104;0;0.0694229;-0.191136;-2.7896;-1.44835;3.14899;-7.31723;-0.00494834;-0.000510868;0.0474541;0.0474591;-0.00495332;0.0262062;0.104276;9.58991;0.0334131;0.0349416;9.58127;0.10437;92.5532;137.553;-0.00259421;-0.00495019;0.00104172;-0.00198578;0.0474537;-0.00489524;0.0575543;0;0.0509836;8.1966;2.502
527000;528;26.958;1.21212;0.0470801;-2.87544;26.7472;-1.74666;-0.206226;1.15544;-0.860453;-0.00491541;-1.69012;-0.594146;1.79152;-5.57793;-0.00341299;0.00178509;0.0381515;0.038228;-0.00348951;0.0208587;0.0894589;11.1783;0.0267245;0.0278117;10.9551;0.0912816;93.7921;138.792;0.00655571;-0.0034135;0.0057822;-0.00205202;0.0381369;-0.00271636;0.00564376;0;0.0729246;-0.191934;-2.7975;-1.44692;3.15538;-7.3158;-0.0046916;-0.000514792;0.0482427;0.0482477;-0.00469661;0.0264722;0.09725;10.2828;0.0338395;0.0352962;10.2729;0.0973437;92.4956;137.496;-0.0028771;-0.00469345;0.00103216;-0.00198362;0.0482423;-0.00756888;0.057998;0;0.0482378;8.19967;2.50877
528000;529;26.9693;1.22344;0.04752;-2.87585;26.7583;-1.75082;-0.206635;1.16653;-0.864606;-0.00432108;-1.68653;-0.597673;1.78931;-5.58207;-0.00339109;0.00228799;0.0386529;0.0387771;-0.00351524;0.0211462;0.0877319;11.3984;0.0270992;0.0281949;11.0311;0.0906525;92.7245;137.724;0.00319912;-0.00338937;0.00606855;-0.00133955;0.0386377;-0.000183379;0.0112041;0;0.0681711;-0.191954;-2.80389;-1.45251;3.16361;-7.32139;-0.00473272;-0.00043665;0.0490018;0.0490053;-0.00473627;0.0268708;0.0965825;10.3538;0.034358;0.0358277;10.3468;0.0966479;92.6895;137.69;-0.00276061;-0.00473495;0.00136963;-0.0021504;0.049001;-0.00487318;0.0580958;0;0.0483547;8.20704;2.51667
529000;530;26.9809;1.23504;0.0479703;-2.88348;26.7712;-1.71994;-0.214263;1.1794;-0.833732;-0.00394759;-1.68494;-0.597985;1.78791;-5.58092;-0.00291077;0.00223551;0.0387035;0.0388233;-0.00303052;0.0209269;0.0752069;13.2967;0.0269492;0.0279025;12.8108;0.0780593;92.5848;137.585;0.00906936;-0.00290915;0.00595193;-0.00133204;0.0386889;-0.0128233;0.0228487;0;0.0771504;-0.192333;-2.81021;-1.45268;3.16932;-7.32156;-0.00499444;-0.000154265;0.0491904;0.0491908;-0.00499488;0.0270928;0.101533;9.84902;0.0345793;0.0361238;9.84824;0.101541;91.1972;136.197;-0.000292023;-0.00499488;0.000683023;-0.000948313;0.0491901;-0.0109364;0.05913;0;0.0490431;8.20726;2.52333
530000;531;26.9827;1.23679;0.0480386;-2.87641;26.7707;-1.76641;-0.207199;1.17891;-0.880198;-0.00406899;-1.68156;-0.601383;1.78587;-5.58432;-0.00317232;0.00151887;0.0389552;0.0390099;-0.00322701;0.0211185;0.0814352;12.2797;0.0271463;0.0281579;12.0885;0.082723;93.9181;138.918;0.00409294;-0.00317373;0.00545817;-0.00226072;0.038942;-0.00499946;0.0144259;0;0.072365;-0.193483;-2.81463;-1.45728;3.17541;-7.32616;-0.00487124;-0.000168924;0.0491636;0.0491642;-0.00487177;0.027018;0.0990822;10.0926;0.0345148;0.036024;10.0916;0.0990919;91.0665;136.066;0.000283553;-0.00487159;0.000551003;-0.000851772;0.0491635;-0.010046;0.0582993;0;0.0516855;8.20717;2.52894
531000;532;26.9894;1.24351;0.0482994;-2.87857;26.7768;-1.7728;-0.209356;1.18502;-0.886589;-0.00347809;-1.68022;-0.602097;1.78484;-5.58093;-0.0029443;0.00220985;0.0400474;0.0401607;-0.00305759;0.0216091;0.0735205;13.6017;0.027849;0.0288122;13.1347;0.076134;92.6321;137.632;0.0060205;-0.00294288;0.00600844;-0.00143175;0.0400324;-0.0208926;0.00949916;0;0.0789851;-0.193633;-2.81967;-1.46072;3.18147;-7.3296;-0.00478962;-4.63745e-05;0.049226;0.049226;-0.00478966;0.0270078;0.0972987;10.2776;0.0345248;0.0360104;10.2776;0.0972994;91.275;136.275;-0.000903348;-0.00479012;0.000951707;-0.000993073;0.0492255;-0.00730444;0.0572497;0;0.0551651;8.21397;2.5342
532000;533;26.9996;1.25371;0.0486957;-2.88053;26.787;-1.77053;-0.211311;1.19524;-0.88432;-0.00355203;-1.67574;-0.602318;1.7807;-5.58651;-0.00306717;0.0024714;0.0406099;0.0407493;-0.00320657;0.0219779;0.0755276;13.2402;0.0282957;0.0293039;12.7081;0.0786901;92.0916;137.092;0.00801151;-0.00306466;0.00614222;-0.00104537;0.0405947;-0.0104129;0.0189994;0;0.0821154;-0.194661;-2.82623;-1.46342;3.18858;-7.3323;-0.00491781;1.96629e-05;0.0486223;0.0486223;-0.00491782;0.02677;0.101143;9.88698;0.0341723;0.0356934;9.88696;0.101143;91.1862;136.186;0.000139535;-0.00491821;0.000985934;-0.000897273;0.0486218;-0.00720729;0.0578576;0;0.0508008;8.21819;2.54022
533000;534;27.0083;1.26245;0.0490351;-2.88037;26.7956;-1.77468;-0.211153;1.20379;-0.888465;-0.00390385;-1.67593;-0.602334;1.78089;-5.58652;-0.00311343;0.00196882;0.0410855;0.041173;-0.00320096;0.022187;0.0757793;13.1962;0.0285755;0.0295826;12.8627;0.0777441;92.932;137.932;0.00576461;-0.00311293;0.00579617;-0.00169606;0.0410712;-0.00917872;0.0182853;0;0.0830027;-0.195161;-2.83403;-1.46752;3.19741;-7.3364;-0.00484828;-0.00013602;0.0492383;0.0492386;-0.00484862;0.0270436;0.0984657;10.1558;0.0345555;0.0360582;10.1552;0.0984719;91.9037;136.904;-0.00120361;-0.00484939;0.00129623;-0.00149444;0.0492375;-0.00663921;0.0556038;0;0.0591652;8.21428;2.54625
534000;535;27.0183;1.27242;0.0494223;-2.88066;26.8059;-1.77043;-0.211446;1.21409;-0.884224;-0.00326752;-1.67583;-0.601194;1.78041;-5.57492;-0.00299323;0.00203056;0.0414499;0.0415425;-0.00308581;0.0223142;0.072213;13.8479;0.0287788;0.0297522;13.4625;0.0742807;92.7141;137.714;0.00692873;-0.0029924;0.00579732;-0.00157548;0.0414358;-0.0137188;0.0141922;0;0.0865786;-0.195639;-2.83979;-1.46376;3.20083;-7.33264;-0.00496823;-0.000285268;0.0499722;0.0499737;-0.00496971;0.0274717;0.0994198;10.0584;0.0350899;0.0366289;10.0557;0.0994465;92.022;137.022;-0.00164216;-0.00496953;0.00113872;-0.00163475;0.0499716;-0.004333;0.0589762;0;0.0502759;8.22137;2.55271
535000;536;27.0293;1.28349;0.0498521;-2.88155;26.8172;-1.7669;-0.21233;1.22538;-0.880685;-0.00305637;-1.67396;-0.600193;1.77831;-5.5827;-0.00322685;0.00191904;0.0406394;0.0407232;-0.00331064;0.0220169;0.079402;12.5941;0.0283169;0.0293559;12.3007;0.0812962;93.4217;138.422;0.00568902;-0.003227;0.00600301;-0.00199281;0.0406239;-0.00858069;0.0124613;0;0.0773494;-0.1962;-2.8476;-1.46697;3.20926;-7.33585;-0.00493507;-0.000512319;0.0503547;0.0503595;-0.00493982;0.0276497;0.0980062;10.2034;0.0353349;0.0368662;10.1946;0.0980912;92.4928;137.493;-0.00193196;-0.00493708;0.00112394;-0.00206245;0.0503543;-0.00724511;0.056198;0;0.0507367;8.22433;2.56017
536000;537;27.0382;1.29232;0.0501954;-2.88253;26.826;-1.76605;-0.213316;1.23424;-0.879839;-0.00255468;-1.66926;-0.605322;1.77563;-5.58946;-0.00303946;0.00203304;0.0410269;0.0411205;-0.00313306;0.0221268;0.0740847;13.4981;0.0285154;0.0295024;13.1247;0.0761922;92.7752;137.775;0.0105427;-0.00303865;0.00581417;-0.00158807;0.0410126;-0.00829644;0.0167716;0;0.0816669;-0.196552;-2.85255;-1.47346;3.21664;-7.34234;-0.00469503;-0.000724066;0.0508469;0.0508564;-0.00470447;0.0277804;0.0923366;10.8299;0.0355762;0.0370406;10.8102;0.0925051;92.5032;137.503;-0.00115804;-0.00469706;0.000764638;-0.00213408;0.0508469;-0.00915855;0.0560042;0;0.0523178;8.22555;2.56757
537000;538;27.0448;1.29891;0.0504511;-2.88389;26.832;-1.77313;-0.214673;1.24026;-0.886923;-0.00196186;-1.6688;-0.603635;1.77462;-5.58795;-0.0030335;0.00141466;0.0414084;0.0414534;-0.00307848;0.0222659;0.073258;13.6504;0.0287168;0.0296879;13.4655;0.0742637;94.1808;139.181;0.000552789;-0.00303603;0.00566537;-0.00265467;0.041394;-0.00321829;0.00639279;0;0.0803014;-0.196974;-2.86018;-1.47147;3.22252;-7.34035;-0.00476129;-0.000483614;0.0512826;0.0512868;-0.00476546;0.0280261;0.0928441;10.7707;0.0358853;0.0373682;10.7622;0.0929179;92.1984;137.198;0.000111211;-0.00476291;0.000972741;-0.00186233;0.0512823;-0.0082788;0.0569218;0;0.0530582;8.23278;2.57549
538000;539;27.0558;1.30994;0.0508797;-2.88306;26.8435;-1.76891;-0.213844;1.25175;-0.882704;-0.00245813;-1.66345;-0.607658;1.77097;-5.59259;-0.00240157;0.00233164;0.0424711;0.042592;-0.00252239;0.0225572;0.0565458;17.6848;0.0292717;0.0300762;16.8855;0.0592223;91.6219;136.622;0.00318043;-0.00239924;0.00570662;-0.000898082;0.0424581;-0.0020934;0.00535534;0;0.0793739;-0.198169;-2.86516;-1.47777;3.22989;-7.34665;-0.00473751;-0.00041506;0.051613;0.0516161;-0.00474057;0.0281783;0.0917891;10.8945;0.0360948;0.0375711;10.8882;0.0918429;91.528;136.528;4.687e-05;-0.00473829;0.000537034;-0.00131614;0.051613;-0.00934754;0.058715;0;0.050872;8.23577;2.5827
539000;540;27.0636;1.3177;0.0511809;-2.8831;26.8505;-1.782;-0.21389;1.2587;-0.89579;-0.000426786;-1.66497;-0.601106;1.77016;-5.58521;-0.002803;0.00165714;0.0426597;0.04272;-0.00286332;0.0227917;0.065706;15.2193;0.0294809;0.0303889;14.9197;0.0670253;93.9157;138.916;0.00228692;-0.00280493;0.00607607;-0.00256914;0.0426433;0.00305621;0.00685028;0;0.0827754;-0.196836;-2.87285;-1.47157;3.23381;-7.34045;-0.00470988;-1.47746e-05;0.0522113;0.0522113;-0.00470989;0.0284606;0.0902081;11.0855;0.036479;0.0379474;11.0855;0.0902082;91.267;136.267;-0.00154408;-0.00471043;0.00107821;-0.00104864;0.0522107;-0.00911643;0.0637724;0;0.0506685;8.23258;2.59014
540000;541;27.0726;1.32675;0.0515326;-2.88405;26.8592;-1.78608;-0.214839;1.26745;-0.899872;-0.000911179;-1.66246;-0.602562;1.76829;-5.58774;-0.00231412;0.00195313;0.0430682;0.0431521;-0.00239802;0.0227751;0.0537316;18.611;0.0295998;0.0303667;17.9948;0.0555715;92.9603;137.96;-0.000942813;-0.0023141;0.00602464;-0.00194126;0.0430526;0.0063928;0.0065288;0;0.0857022;-0.198377;-2.879;-1.47416;3.24055;-7.34304;-0.00477982;8.75962e-05;0.0523632;0.0523634;-0.00477995;0.0285717;0.091282;10.9551;0.0366064;0.0380955;10.9548;0.0912843;91.2938;136.294;-0.00152625;-0.00478038;0.0012961;-0.00105529;0.0523624;-0.00773776;0.061894;0;0.0524053;8.2332;2.59739
541000;542;27.0793;1.33345;0.0517928;-2.88702;26.8646;-1.80263;-0.217807;1.27278;-0.916422;-0.000649383;-1.65961;-0.606265;1.76688;-5.59144;-0.00286487;0.00171879;0.0425022;0.0425672;-0.00292989;0.0227486;0.0674052;14.8357;0.0294035;0.0303314;14.5286;0.0688298;93.4469;138.447;0.00189151;-0.00286583;0.00582149;-0.00220539;0.0424873;0.00443561;0.0053374;0;0.0795967;-0.199333;-2.88272;-1.48227;3.2476;-7.35115;-0.00499047;4.21226e-05;0.0526621;0.0526622;-0.0049905;0.0288263;0.094764;10.5525;0.0368843;0.0384351;10.5525;0.0947645;91.2707;136.271;-0.000881236;-0.00499102;0.00119252;-0.00104527;0.0526615;-0.00666704;0.0619937;0;0.0528666;8.23911;2.60383
542000;543;27.0924;1.34654;0.0523013;-2.88494;26.8792;-1.78481;-0.215728;1.28739;-0.898597;0.000616307;-1.65833;-0.608578;1.76647;-5.58528;-0.0017275;0.00236997;0.043469;0.0435929;-0.00185144;0.0227222;0.039741;25.1629;0.0296983;0.0302962;23.5455;0.042471;92.3991;137.399;0.00752553;-0.00172597;0.00652006;-0.00160039;0.0434513;-0.00921575;0.0148406;0;0.0842892;-0.198612;-2.89026;-1.47942;3.25296;-7.3483;-0.00477845;-8.56159e-05;0.052611;0.0526111;-0.00477858;0.0286949;0.0908261;11.0101;0.0367706;0.0382598;11.0098;0.0908283;91.6741;136.674;-0.000899639;-0.00477944;0.00131191;-0.00140695;0.0526102;-0.00541579;0.0626659;0;0.0502783;8.23749;2.60738
543000;544;27.0979;1.35208;0.0525165;-2.88597;26.8844;-1.78788;-0.216757;1.29266;-0.901674;-0.000744823;-1.6549;-0.610665;1.76397;-5.58736;-0.00138315;0.00237583;0.04417;0.0442935;-0.00150673;0.0229001;0.0313143;31.9342;0.0300439;0.0305335;29.3971;0.0340169;92.5343;137.534;0.0097826;-0.00138193;0.0067293;-0.00178775;0.044151;-0.00742263;0.0166219;0;0.0810103;-0.200711;-2.89362;-1.48447;3.25837;-7.35335;-0.00475738;-0.000113639;0.0530573;0.0530575;-0.0047576;0.0289075;0.089665;11.1526;0.0370595;0.0385434;11.1521;0.0896688;91.9908;136.991;-0.00189584;-0.00475881;0.00155612;-0.00169172;0.0530561;-0.0060409;0.0607254;0;0.0507617;8.24294;2.61274
544000;545;27.1112;1.3653;0.05303;-2.88689;26.8984;-1.77692;-0.217678;1.30661;-0.890711;0.00108417;-1.65341;-0.609059;1.76202;-5.58576;-0.00147812;0.00310967;0.0449704;0.0451777;-0.00168539;0.0234315;0.0328688;30.424;0.0306957;0.031242;26.8055;0.0373057;91.3598;136.36;0.00506015;-0.00147365;0.00725965;-0.000855895;0.0449498;0.00191395;0.00946448;0;0.0805931;-0.200051;-2.90277;-1.48508;3.26674;-7.35396;-0.00481296;-0.000581901;0.0535046;0.0535104;-0.00481876;0.0291646;0.0899541;11.1168;0.0373835;0.0388861;11.1046;0.0900528;91.9435;136.944;-0.00122042;-0.00481431;0.000647333;-0.00174309;0.0535046;-0.00985647;0.0569748;0;0.0536648;8.25132;2.6202
545000;546;27.1163;1.37048;0.0532311;-2.88884;26.9027;-1.7871;-0.219629;1.31095;-0.900891;0.00151386;-1.65112;-0.614323;1.7617;-5.59102;-0.00140296;0.0027793;0.0450104;0.0451762;-0.0015688;0.0233725;0.0311698;32.0824;0.0306538;0.0311633;28.7967;0.0347262;91.5226;136.523;0.00617844;-0.00139961;0.00674681;-0.00101204;0.0449923;-0.00186452;0.00724252;0;0.0848913;-0.200345;-2.9088;-1.49162;3.27509;-7.3605;-0.00476208;-0.000755338;0.0535973;0.0536071;-0.00477185;0.0291895;0.0888493;11.255;0.0374302;0.0389193;11.234;0.0890154;92.6112;137.611;-0.000530616;-0.00476455;0.000926267;-0.0023438;0.0535971;-0.00826044;0.0593033;0;0.0541014;8.24999;2.62649
546000;547;27.1294;1.38351;0.0537372;-2.89817;26.9171;-1.75301;-0.228957;1.32532;-0.866801;0.000910694;-1.6488;-0.614296;1.75952;-5.59218;-0.0013888;0.0032616;0.0455105;0.0457362;-0.00161454;0.0236754;0.0305161;32.7696;0.031043;0.0315672;28.3277;0.0353011;90.7298;135.73;0.00582402;-0.00138355;0.00707201;-0.000377931;0.0454916;-0.00240649;0.00697181;0;0.0865657;-0.20179;-2.91524;-1.49101;3.28062;-7.35989;-0.00454514;-0.000453336;0.0540765;0.05408;-0.00454865;0.0293143;0.0840503;11.8976;0.0376612;0.0390858;11.8892;0.0841097;92.568;137.568;-0.000879388;-0.00454766;0.0014867;-0.00228547;0.0540755;-0.00618589;0.0625992;0;0.0506451;8.24743;2.63425
547000;548;27.1295;1.38362;0.0537415;-2.89254;26.9145;-1.80323;-0.223326;1.32272;-0.917017;0.000457804;-1.64739;-0.614714;1.75834;-5.59083;-0.000743993;0.00305587;0.0457323;0.0459324;-0.000944059;0.0234382;0.0162684;61.4688;0.0309411;0.031251;48.6542;0.0205532;91.2167;136.217;0.00426691;-0.000739707;0.00717323;-0.000878542;0.0457122;-0.00164487;0.00407873;0;0.0859126;-0.203624;-2.92091;-1.4951;3.28763;-7.36399;-0.00471278;-0.000242951;0.0544278;0.0544288;-0.00471378;0.0295713;0.0865878;11.549;0.0379548;0.0394284;11.5467;0.0866045;91.7532;136.753;-0.00123109;-0.00471397;0.0011471;-0.00155503;0.0544272;-0.00627453;0.0615082;0;0.0514102;8.25165;2.64076
548000;549;27.1392;1.39332;0.0541183;-2.89352;26.9243;-1.80185;-0.224307;1.33248;-0.915635;0.00115887;-1.64327;-0.620115;1.75638;-5.598;-0.000943249;0.00280704;0.0460999;0.0462668;-0.00111015;0.0236885;0.020461;48.8735;0.0312211;0.0315846;41.6761;0.0239946;91.43;136.43;0.0021867;-0.000939842;0.00683102;-0.00103601;0.0460813;-0.0100856;-0.00365574;0;0.0846307;-0.203028;-2.92439;-1.50166;3.29367;-7.37054;-0.00447764;-0.000132297;0.0547721;0.0547724;-0.00447794;0.0296252;0.0817504;12.2324;0.0380954;0.0395002;12.2316;0.0817553;91.7656;136.766;-0.00152898;-0.00447886;0.00138568;-0.001565;0.0547712;-0.00631862;0.061149;0;0.0591599;8.25246;2.64831
549000;550;27.1531;1.40724;0.0546587;-2.90232;26.9399;-1.76294;-0.233105;1.34814;-0.87673;0.00184439;-1.64172;-0.619224;1.75462;-5.59636;-0.00102074;0.00345052;0.0468326;0.0470801;-0.00126826;0.0241742;0.0217954;45.8812;0.0318179;0.0322323;37.1218;0.0269383;90.228;135.228;0.00723227;-0.00101478;0.00710454;-3.6502e-05;0.0468142;-0.010274;0.00994318;0;0.0877038;-0.20359;-2.93136;-1.49995;3.29911;-7.36883;-0.00471814;1.88684e-05;0.0551487;0.0551487;-0.00471815;0.0299335;0.0855531;11.6887;0.0384352;0.0399113;11.6886;0.0855532;91.2833;136.283;-0.00131893;-0.00471878;0.00122834;-0.00112198;0.055148;-0.00648829;0.063856;0;0.0569184;8.25512;2.65562
550000;551;27.1555;1.40965;0.0547525;-2.89496;26.9402;-1.80779;-0.225748;1.34839;-0.921576;0.000459732;-1.64162;-0.613037;1.75235;-5.59074;-0.00109756;0.00258314;0.0462978;0.0464382;-0.00123793;0.023838;0.0237066;42.1823;0.0313796;0.0317841;37.5126;0.0266577;92.1603;137.16;0.00429627;-0.00109554;0.0069852;-0.00161956;0.0462777;-0.0150916;0.00256801;0;0.0905127;-0.205229;-2.93678;-1.50146;3.30473;-7.37034;-0.00468952;0.000147559;0.0556517;0.0556521;-0.00468988;0.030171;0.0842655;11.8673;0.0387594;0.040228;11.8664;0.0842714;91.2746;136.275;-0.00092571;-0.00469012;0.00147702;-0.00110591;0.0556507;-0.00612724;0.0619803;0;0.052436;8.26401;2.66325
551000;552;27.1664;1.4205;0.0551741;-2.89654;26.951;-1.80665;-0.227322;1.35924;-0.920436;-0.000420617;-1.63917;-0.620295;1.75261;-5.59668;-0.000993394;0.0027167;0.0456506;0.0458083;-0.00115109;0.0234797;0.0217608;45.9542;0.0309297;0.0313063;39.7956;0.0251284;91.896;136.896;0.0004789;-0.000990672;0.00701876;-0.0013935;0.0456306;-0.0074125;0.00335723;0;0.0872608;-0.207045;-2.9435;-1.51047;3.3149;-7.37935;-0.00469798;-4.13471e-05;0.055628;0.055628;-0.00469801;0.030163;0.0844535;11.8408;0.0387464;0.0402174;11.8408;0.084454;91.6576;136.658;-0.000470191;-0.00469907;0.00147887;-0.00147469;0.055627;-0.00583661;0.0637096;0;0.0541207;8.26618;2.66989
552000;553;;;;;;;;;;0.00122385;-1.63831;-0.61415;1.74964;-5.59013;-0.00106774;0.00190995;0.0470051;0.0470809;-0.00114351;0.0241122;0.0227155;44.0229;0.0317753;0.0321496;41.1724;0.0242881;93.3367;138.337;0.00320855;-0.00106941;0.00668102;-0.00264209;0.0469856;-0.000835399;0.00379289;0;0.0908276;-0.206581;-2.95239;-1.49932;3.31771;-7.3682;-0.00471531;-0.000316196;0.0560473;0.0560489;-0.00471696;0.0303829;0.084131;11.8862;0.0390334;0.0405106;11.8824;0.0841579;92.0064;137.006;-0.00168948;-0.00471696;0.00130205;-0.00184133;0.0560465;-0.00492023;0.0589531;0;0.0574842;8.26287;2.67635
553000;554;27.1913;1.44542;0.0561418;-2.90547;26.9785;-1.7559;-0.236258;1.38674;-0.869685;0.00243381;-1.63558;-0.617923;1.74842;-5.5945;-0.0010069;0.00257326;0.0475008;0.0476369;-0.00114303;0.02439;0.0211976;47.1751;0.0321457;0.0325199;41.676;0.0239946;92.4911;137.491;0.00421275;-0.00100551;0.00732566;-0.00195912;0.0474783;-0.00428954;0.0117228;0;0.0885169;-0.206183;-2.95784;-1.50494;3.32509;-7.37383;-0.0046524;-0.000518859;0.0562557;0.0562601;-0.00465682;0.0304585;0.082701;12.0918;0.0391514;0.0406113;12.0812;0.0827731;92.5043;137.504;-0.00176583;-0.00465499;0.00140252;-0.00232944;0.0562549;-0.00617281;0.0564863;0;0.0520965;8.26616;2.67949
554000;555;27.2028;1.4569;0.0565876;-2.90477;26.9901;-1.75683;-0.235552;1.39833;-0.870623;0.00259249;-1.62978;-0.624241;1.74524;-5.60096;-0.000336287;0.00335307;0.0489551;0.0491822;-0.000563335;0.0248728;0.0068693;145.575;0.0329775;0.0331637;87.3054;0.011454;91.0691;136.069;0.0100685;-0.000331054;0.00779857;-0.000883594;0.0489315;-0.0111612;0.00847889;0;0.0890817;-0.206694;-2.9636;-1.51321;3.33399;-7.38209;-0.00459341;-0.000652281;0.0561325;0.0561395;-0.00460042;0.0303699;0.0818316;12.2202;0.0390502;0.0404933;12.2031;0.0819462;92.4619;137.462;-0.000499514;-0.00459587;0.00110454;-0.00230808;0.0561321;-0.00724019;0.0584544;0;0.0561869;8.27263;2.68636
555000;556;27.2083;1.46242;0.0568023;-2.90748;26.9948;-1.76617;-0.238263;1.40299;-0.87996;0.00309468;-1.62651;-0.623892;1.74207;-5.60207;-0.000957448;0.00277086;0.049813;0.0499638;-0.00110822;0.025536;0.0192208;52.0269;0.0336847;0.034048;45.0846;0.0221805;92.0391;137.039;0.00669405;-0.000955;0.00743665;-0.00166934;0.0497904;-0.00611154;0.00595427;0;0.0928492;-0.207181;-2.96887;-1.51623;3.34007;-7.38511;-0.0045012;-0.000521574;0.0562988;0.0563033;-0.00450567;0.0304045;0.0799519;12.5075;0.039124;0.0405393;12.4961;0.080025;92.1919;137.192;0.000496728;-0.00450318;0.00110423;-0.00205379;0.0562984;-0.00821852;0.0613092;0;0.0566046;8.26984;2.69241
556000;557;27.2142;1.46835;0.0570323;-2.90013;26.9993;-1.8;-0.230911;1.40752;-0.913787;0.00304649;-1.62468;-0.62132;1.73943;-5.60184;-0.00131673;0.00256252;0.0493846;0.0495138;-0.00144591;0.0254799;0.0266627;37.5055;0.0335016;0.0339731;34.2439;0.0292022;92.5852;137.585;-0.00129063;-0.00131561;0.00744085;-0.00208016;0.0493614;0.000727199;-0.00326185;0;0.0866789;-0.207855;-2.9745;-1.51676;3.34536;-7.38565;-0.00440835;-0.000242865;0.0570526;0.0570536;-0.00440931;0.0307314;0.0772681;12.9419;0.0395874;0.0409753;12.9393;0.0772836;91.8209;136.821;-0.00132558;-0.00440977;0.00130746;-0.00170305;0.0570518;-0.00525618;0.0619061;0;0.0525214;8.27528;2.6995
557000;558;27.2225;1.47661;0.0573534;-2.90134;27.0071;-1.80672;-0.232125;1.41527;-0.920507;0.0024125;-1.62091;-0.624654;1.73711;-5.60231;-0.000856964;0.00244003;0.0483127;0.0484335;-0.000977753;0.0247056;0.0177379;56.3766;0.0326198;0.0329408;49.5355;0.0201875;92.6953;137.695;0.00898735;-0.000856397;0.00730368;-0.00219555;0.0482901;-0.00715029;0.00379663;0;0.0920403;-0.209979;-2.97982;-1.52113;3.3522;-7.39001;-0.00447948;-6.18736e-05;0.057487;0.0574871;-0.00447954;0.0309833;0.0779215;12.8334;0.0399018;0.0413111;12.8333;0.0779225;91.6767;136.677;-0.00190986;-0.00448069;0.00152427;-0.00155507;0.0574859;-0.00639899;0.0671732;0;0.0601871;8.28293;2.70749
558000;559;27.2337;1.48789;0.0577913;-2.9093;27.0192;-1.78207;-0.240086;1.42742;-0.895862;0.00346388;-1.61854;-0.624355;1.73479;-5.6058;-0.00101707;0.00274015;0.0496618;0.0498095;-0.00116479;0.0254872;0.0204799;48.8284;0.0336014;0.0339829;42.7625;0.023385;92.2817;137.282;0.0011703;-0.00101506;0.00758248;-0.00186844;0.049638;-0.0153271;-0.00405871;0;0.0997426;-0.210078;-2.98642;-1.52225;3.35858;-7.39113;-0.00457969;0.000154255;0.0582226;0.0582229;-0.00458006;0.0314015;0.0786583;12.7132;0.0404285;0.0418687;12.7123;0.0786643;91.2045;136.204;-0.00210626;-0.00458028;0.00148804;-0.00110038;0.0582215;-0.00582952;0.0658207;0;0.0678527;8.27712;2.71497
559000;560;;;;;;;;;;0.00333506;-1.61608;-0.624704;1.73262;-5.60589;-0.000911585;0.00271755;0.0491884;0.0493353;-0.00105856;0.0251969;0.0185325;53.9591;0.0332487;0.0335959;46.606;0.0214564;92.545;137.545;-0.000476769;-0.000910087;0.00777206;-0.00209567;0.0491631;0.00530977;0.00128576;0;0.0950972;-0.210357;-2.99128;-1.52536;3.36433;-7.39424;-0.00451538;0.000116331;0.058965;0.0589652;-0.0045156;0.0317404;0.0765774;13.0587;0.0408985;0.0423205;13.0581;0.0765807;91.2805;136.281;-0.00260095;-0.0045161;0.00151182;-0.0011955;0.0589639;-0.00551253;0.0638536;0;0.0700792;8.27696;2.72253
560000;561;;;;;;;;;;0.003753;-1.61267;-0.628626;1.73086;-5.60902;-0.00100174;0.00267796;0.0498642;0.0500048;-0.00114234;0.0255735;0.0200893;49.7777;0.0337237;0.0340981;43.7741;0.0228446;92.2551;137.255;-0.00303115;-0.000999874;0.00744354;-0.00185677;0.0498412;0.00312573;0.00177044;0;0.0951121;-0.211023;-2.99668;-1.53153;3.37198;-7.40041;-0.00459722;0.00010891;0.0592349;0.0592351;-0.00459741;0.0319162;0.07761;12.8849;0.0411083;0.042555;12.8845;0.0776129;91.1064;136.106;-0.000790235;-0.00459775;0.00132598;-0.00103482;0.0592341;-0.005876;0.0650228;0;0.0672613;8.28372;2.72947
561000;562;;;;;;;;;;0.00340979;-1.61113;-0.626789;1.72876;-5.60647;-0.00134285;0.00199492;0.0492689;0.0493474;-0.00142136;0.0253844;0.0272555;36.6899;0.0333822;0.0338459;34.7185;0.0288031;93.4092;138.409;-0.00234117;-0.00134478;0.00703336;-0.00280053;0.0492472;0.00958582;-0.00353491;0;0.0899656;-0.212001;-3.00445;-1.53115;3.37876;-7.40558;-0.00461843;-0.000371114;0.0594378;0.05944;-0.00462058;0.0320303;0.0777019;12.8697;0.0412532;0.042707;12.8642;0.0777352;91.8131;136.813;-0.00223195;-0.00461996;0.00113171;-0.00178307;0.0594373;-0.00477379;0.0562281;0;0.059264;8.28259;2.73665
562000;563;27.2723;1.52644;0.0592889;-2.90365;27.0576;-1.79815;-0.234431;1.46583;-0.911936;0.00450675;-1.60647;-0.633597;1.72691;-5.61506;-0.00152153;0.00111059;0.0500735;0.0500974;-0.00154542;0.0258214;0.0303859;32.91;0.0339251;0.0344285;32.4167;0.0308483;95.1958;140.196;-0.000741682;-0.00153071;0.00693228;-0.00442508;0.0500512;-0.00104765;-0.00762994;0;0.0940739;-0.211367;-3.0091;-1.53725;3.38563;-7.40613;-0.00443912;-0.000768681;0.0590231;0.0590324;-0.00444843;0.0317404;0.07521;13.2961;0.0409184;0.0423205;13.2704;0.0753558;92.4542;137.454;-0.000480148;-0.00444182;0.00100965;-0.00244045;0.0590229;-0.00688628;0.0582832;0;0.0588608;8.28029;2.74304
563000;564;;;;;;;;;;0.00402093;-1.60647;-0.63132;1.72607;-5.60503;-0.000744038;0.00274171;0.050489;0.0506353;-0.000890342;0.0257628;0.0147366;67.858;0.0340575;0.0343504;56.8717;0.0175834;92.4605;137.46;-0.000502051;-0.000742495;0.0078371;-0.00210523;0.0504633;0.00382182;-0.00521936;0;0.0855277;-0.213083;-3.01573;-1.53547;3.39083;-7.40436;-0.00447016;-0.000590216;0.0589425;0.058948;-0.00447565;0.0317118;0.0758394;13.1858;0.0408723;0.0422824;13.1708;0.0759255;92.3533;137.353;-0.000446782;-0.00447268;0.00124469;-0.00231524;0.0589419;-0.00779592;0.0624014;0;0.0598604;8.29176;2.75053
564000;565;;;;;;;;;;0.00430466;-1.60303;-0.635886;1.72455;-5.61187;-0.000588026;0.00218489;0.05034;0.0504336;-0.000681589;0.0255576;0.0116811;85.6085;0.0338519;0.0340768;73.9941;0.0135146;92.9732;137.973;0.00206025;-0.000588974;0.00719526;-0.0025826;0.0503176;0.00614182;0.00101018;0;0.0847116;-0.213739;-3.02206;-1.53916;3.39817;-7.40804;-0.00450205;-0.000540469;0.0590866;0.0590912;-0.00450664;0.0317989;0.076194;13.1244;0.0409791;0.0423986;13.112;0.0762658;92.1832;137.183;-0.000566308;-0.00450422;0.0011731;-0.00215115;0.0590861;-0.0047111;0.0608359;0;0.0563691;8.29213;2.75609
565000;566;27.3019;1.55603;0.0604381;-2.915;27.088;-1.77137;-0.245788;1.49619;-0.88516;0.00530718;-1.59918;-0.639314;1.72224;-5.615;-5.06655e-05;0.00365424;0.0517177;0.0519744;-0.00030734;0.0261408;0.000979655;1020.77;0.0347525;0.0348545;169.11;0.0059133;91.0231;136.023;0.00274953;-4.44309e-05;0.008487;-0.000940703;0.0516898;-0.00443;0.000345705;0;0.0907025;-0.213549;-3.02925;-1.53911;3.40453;-7.40799;-0.00418432;-0.000298252;0.0596062;0.0596076;-0.00418571;0.0318967;0.0701993;14.2451;0.0412046;0.0425289;14.2407;0.0702211;92.1702;137.17;-0.00179333;-0.00418656;0.00165449;-0.00213343;0.059605;-0.00539786;0.0611228;0;0.0603236;8.29182;2.76079
566000;567;27.3075;1.56169;0.0606579;-2.91596;27.0929;-1.78137;-0.24675;1.50114;-0.895161;0.00488315;-1.59993;-0.631375;1.72001;-5.60926;-0.000253653;0.00290551;0.0520166;0.0521776;-0.000414664;0.0262961;0.00487639;205.07;0.0349241;0.0350615;125.831;0.00794716;92.4956;137.496;0.000864883;-0.00025204;0.00836621;-0.00228394;0.0519874;-0.00122204;-0.00253426;0;0.0830627;-0.21433;-3.03477;-1.53924;3.40955;-7.40812;-0.0045654;2.12076e-05;0.0600955;0.0600955;-0.00456541;0.0323305;0.075969;13.1633;0.0416689;0.0431073;13.1632;0.0759691;91.4118;136.412;-0.000894393;-0.00456633;0.00149227;-0.00136013;0.0600945;-0.00658989;0.0655342;0;0.0586672;8.29585;2.7663
567000;568;27.3213;1.57542;0.0611911;-2.91705;27.1069;-1.77687;-0.247836;1.51515;-0.890664;0.00561959;-1.5951;-0.635754;1.71714;-5.6177;-0.000740399;0.00215745;0.0509323;0.0510223;-0.00083032;0.0259263;0.0145369;68.7904;0.034295;0.0345684;61.4489;0.0162737;93.7885;138.789;0.00216328;-0.000743641;0.0079357;-0.00333676;0.0509046;0.00808919;-0.00393346;0;0.101243;-0.214573;-3.04123;-1.54528;3.41804;-7.41416;-0.00452917;-3.79319e-06;0.0612644;0.0612644;-0.00452917;0.0328968;0.0739282;13.5266;0.0424333;0.0438624;13.5266;0.0739282;91.3725;136.372;-0.00201282;-0.00453009;0.0014362;-0.00135451;0.0612634;-0.00254311;0.0660549;0;0.064348;8.30075;2.77395
568000;569;27.3292;1.58333;0.0614983;-2.91971;27.1148;-1.77458;-0.250495;1.52299;-0.888371;0.0056842;-1.59189;-0.636813;1.71455;-5.61385;-0.000435123;0.00272668;0.0527251;0.0528646;-0.000574613;0.0267196;0.00825267;121.173;0.0354361;0.0356261;92.0003;0.0108695;92.6036;137.604;0.000380807;-0.000434252;0.00811138;-0.00238617;0.0526974;0.000719124;0.0160514;0;0.0964819;-0.215781;-3.04633;-1.54499;3.42253;-7.41387;-0.00472783;0.000109508;0.061614;0.0616142;-0.00472801;0.0331711;0.0767331;13.0322;0.0427394;0.0442281;13.0317;0.0767358;91.3397;136.34;-0.00218173;-0.00472869;0.00162261;-0.00130904;0.0616128;-0.00252964;0.0646788;0;0.05764;8.29198;2.7812
569000;570;27.34;1.59413;0.0619179;-2.91853;27.1261;-1.76931;-0.249315;1.53435;-0.883098;0.00685343;-1.58987;-0.643494;1.71517;-5.61899;-0.000534102;0.00282369;0.0522733;0.0524239;-0.00068466;0.0265543;0.0102175;97.8713;0.0351797;0.0354057;76.5692;0.0130601;92.2614;137.261;0.00620342;-0.000532175;0.00793373;-0.00202998;0.0522472;-0.010391;-0.0041402;0;0.0923247;-0.215507;-3.05049;-1.55525;3.43085;-7.42413;-0.00446194;-7.15896e-05;0.0623309;0.062331;-0.00446201;0.0333965;0.0715847;13.9695;0.0431183;0.0445287;13.9692;0.0715858;91.5393;136.539;-0.0013393;-0.00446316;0.00151563;-0.00155902;0.0623298;-0.00261536;0.0601569;0;0.0593701;8.29528;2.78796
570000;571;27.3501;1.60422;0.06231;-2.91851;27.1362;-1.77115;-0.249296;1.5444;-0.884944;0.00605074;-1.58727;-0.64039;1.71159;-5.61589;-0.000443896;0.00262252;0.0527049;0.052834;-0.000572986;0.0267035;0.0084223;118.732;0.0354152;0.0356046;92.2082;0.010845;92.7251;137.725;0.0038985;-0.000443577;0.00801513;-0.0024979;0.0526776;-0.0102072;0.00376792;0;0.0903608;-0.216089;-3.05757;-1.54946;3.43456;-7.41834;-0.00451758;-0.000352584;0.062263;0.0622649;-0.00451944;0.0333922;0.0725564;13.7824;0.0430955;0.0445229;13.7771;0.0725841;91.9204;136.92;-0.000648815;-0.00451948;0.00138151;-0.00197766;0.0622622;-0.00535555;0.0606838;0;0.0613958;8.3022;2.7954
571000;572;27.353;1.60715;0.0624237;-2.91271;27.1371;-1.81085;-0.243491;1.54536;-0.92464;0.00595928;-1.58474;-0.638022;1.70837;-5.61498;-1.25479e-05;0.00428695;0.0540585;0.0543963;-0.000350322;0.0273733;0.000232117;4308.18;0.0363815;0.0364977;155.275;0.00644019;90.1955;135.195;-0.00142826;-3.37668e-06;0.00900471;-0.000188887;0.0540287;-0.0127183;0.00717997;0;0.102901;-0.217351;-3.06584;-1.54602;3.44046;-7.4149;-0.00425412;-0.00069173;0.0618939;0.0619012;-0.00426136;0.0330813;0.0687325;14.5492;0.0427587;0.0441083;14.5262;0.0688413;92.3547;137.355;-0.00115811;-0.0042569;0.00118616;-0.00245264;0.0618935;-0.00516973;0.0595936;0;0.060512;8.29847;2.80249
572000;573;27.3603;1.61441;0.0627056;-2.91296;27.1441;-1.81545;-0.243746;1.55234;-0.929238;0.00714171;-1.58159;-0.645237;1.70816;-5.62161;-0.000507194;0.0023289;0.0530429;0.053144;-0.000608287;0.0268761;0.00956196;104.581;0.0356338;0.0358349;87.3666;0.011446;93.3196;138.32;0.0003897;-0.00050919;0.0080152;-0.0030683;0.053015;0.000999579;0.00344144;0;0.100693;-0.216695;-3.06942;-1.55829;3.44913;-7.42717;-0.00442327;-0.000541653;0.0617455;0.0617499;-0.0044277;0.0330888;0.0716371;13.9592;0.042719;0.0441184;13.9463;0.0717038;92.2741;137.274;-0.000361861;-0.00442587;0.00137846;-0.0023421;0.0617447;-0.00687812;0.0656583;0;0.061453;8.30032;2.81038
573000;574;;;;;;;;;;0.00751502;-1.58619;-0.634952;1.70858;-5.60002;-0.0016625;0.00238905;0.0518971;0.0520035;-0.00176885;0.0268862;0.0320345;31.2163;0.0352734;0.0358482;29.3996;0.0340141;92.3994;137.399;0.00622662;-0.00166162;0.00700042;-0.00198756;0.0518766;-0.00779101;-0.0106152;0;0.102272;-0.216604;-3.07777;-1.55267;3.45404;-7.42155;-0.00433461;-0.00047104;0.0618102;0.0618135;-0.00433796;0.0330757;0.0701277;14.2597;0.0427285;0.044101;14.2494;0.0701782;92.1108;137.111;-0.000134027;-0.00433687;0.00134488;-0.00217384;0.0618094;-0.00783826;0.0654568;0;0.0577437;8.31338;2.81745
574000;575;;;;;;;;;;0.00779595;-1.58231;-0.641086;1.70726;-5.60373;-0.00153086;0.00223124;0.0532231;0.0533139;-0.00162163;0.0274678;0.028763;34.7669;0.0360953;0.0366237;32.8767;0.0304167;92.4019;137.402;0.00734632;-0.00153051;0.0067702;-0.00207179;0.0532037;-0.0156134;-0.0168747;0;0.0980351;-0.216883;-3.08315;-1.55836;3.46141;-7.42725;-0.00450106;-0.000228768;0.0623242;0.062325;-0.00450184;0.0334134;0.07222;13.8466;0.043129;0.0445512;13.8443;0.0722317;92.0609;137.061;-0.00159413;-0.00450325;0.00177343;-0.00210502;0.0623227;-0.00463883;0.0652002;0;0.0578055;8.30968;2.82433
575000;576;27.3921;1.64619;0.0639402;-2.92441;27.1766;-1.78945;-0.255192;1.58487;-0.90324;0.00829221;-1.5728;-0.650027;1.70185;-5.62139;-1.29647e-05;0.00601899;0.0571629;0.0577896;-0.000639723;0.0292147;0.000226802;4409.12;0.0387414;0.0389529;90.3354;0.0110699;87.1786;132.179;0.0153238;9.71544e-07;0.00932612;0.00289067;0.0571388;-0.0153685;0.0152185;0;0.116705;-0.21936;-3.08763;-1.56646;3.46921;-7.43534;-0.0043537;-2.29231e-05;0.0629236;0.0629236;-0.0043537;0.0336387;0.0691901;14.4529;0.0434731;0.0448516;14.4529;0.0691903;91.4706;136.471;-0.00206095;-0.00435483;0.0015552;-0.00150116;0.0629225;-0.00316998;0.0659762;0;0.0625265;8.30986;2.82963
576000;577;27.3966;1.65077;0.0641178;-2.92694;27.1798;-1.80671;-0.257724;1.58807;-0.920494;0.00855783;-1.574;-0.641667;1.69979;-5.61291;-0.00106024;0.00317793;0.0557603;0.0559375;-0.00123743;0.0285875;0.0190143;52.5921;0.0377109;0.0381166;45.2047;0.0221216;91.554;136.554;0.0117397;-0.00105615;0.00800681;-0.00139113;0.0557347;-0.017847;0.00625267;0;0.101391;-0.220096;-3.09427;-1.56283;3.47353;-7.43172;-0.00435477;0.000204127;0.0637043;0.0637049;-0.00435538;0.0340302;0.0683591;14.6286;0.0439937;0.0453735;14.6267;0.0683681;91.2402;136.24;-0.00198064;-0.00435554;0.00176123;-0.00125334;0.0637029;-0.00287573;0.0695969;0;0.0605708;8.31988;2.83541
577000;578;27.403;1.65715;0.0643657;-2.92037;27.1852;-1.83313;-0.251159;1.59344;-0.946917;0.00891772;-1.56807;-0.648688;1.69697;-5.6243;-2.03179e-05;0.00334627;0.0552305;0.0554325;-0.000222247;0.0278274;0.000367874;2718.32;0.0370293;0.0371031;249.418;0.00400933;92.1908;137.191;0.00482282;-1.70667e-05;0.00916388;-0.00216684;0.055196;-0.0122228;-0.00503423;0;0.0948744;-0.220348;-3.09917;-1.57048;3.48135;-7.43936;-0.00463338;3.46772e-05;0.0647496;0.0647496;-0.0046334;0.0346915;0.0715585;13.9746;0.0447908;0.0462553;13.9745;0.0715587;91.5939;136.594;-0.00225835;-0.00463477;0.00184937;-0.00166176;0.064748;-0.0017366;0.0659268;0;0.0619648;8.31723;2.842
578000;579;27.4191;1.67324;0.0649906;-2.92705;27.2029;-1.79966;-0.257836;1.61117;-0.913453;0.00828006;-1.56811;-0.640307;1.69382;-5.60982;-0.000885943;0.00359696;0.0566043;0.0568285;-0.00111012;0.0289693;0.0156515;63.8915;0.038261;0.0386257;51.1914;0.0195345;90.9625;135.962;0.0125549;-0.000879823;0.00829107;-0.000841813;0.0565779;-0.0249852;-0.00291323;0;0.0948525;-0.221243;-3.10713;-1.56151;3.48447;-7.43039;-0.00454077;0.000260012;0.0656236;0.0656246;-0.00454174;0.0350832;0.0691942;14.4521;0.0453395;0.0467775;14.4492;0.0692079;91.0889;136.089;-0.00174824;-0.00454137;0.00173932;-0.00112189;0.0656222;-0.00205707;0.0651126;0;0.0666108;8.30981;2.84615
579000;580;27.425;1.67917;0.0652209;-2.92016;27.207;-1.83936;-0.250942;1.61523;-0.953147;0.0105311;-1.56383;-0.643485;1.69108;-5.61352;-0.00120998;0.00304814;0.0565794;0.0567398;-0.00137032;0.029055;0.0213856;46.7605;0.0382915;0.0387401;41.4064;0.0241509;91.5626;136.563;0.0103141;-0.00120632;0.00775977;-0.00140584;0.0565554;-0.0225262;-0.0138733;0;0.104987;-0.21946;-3.11103;-1.56706;3.49032;-7.43594;-0.00446514;-0.000104272;0.0653054;0.0653056;-0.00446529;0.0348854;0.0683731;14.6256;0.0450992;0.0465139;14.6251;0.0683754;91.7197;136.72;-0.000492499;-0.00446682;0.0017463;-0.00183364;0.065304;-0.00530061;0.0636805;0;0.0632639;8.31749;2.8533
580000;581;;;;;;;;;;0.0105994;-1.5603;-0.647634;1.6894;-5.61527;-0.000888095;0.00361854;0.0573721;0.057596;-0.00111198;0.029354;0.0154796;64.6013;0.0387733;0.0391387;51.7958;0.0193066;91.0655;136.065;0.011105;-0.000882003;0.00846335;-0.000959403;0.0573444;-0.0185663;-0.00300362;0;0.0957074;-0.22088;-3.11927;-1.57098;3.49952;-7.44541;-0.00440637;-0.000306047;0.0647803;0.0647817;-0.00440772;0.0345947;0.0680202;14.7015;0.0447295;0.0461263;14.6973;0.0680396;92.0759;137.076;-0.000884423;-0.0044088;0.00174165;-0.00222069;0.0647789;-0.0056199;0.0591219;0;0.06685;8.32082;2.86011
581000;582;27.446;1.7001;0.0660339;-2.92158;27.2291;-1.82206;-0.252361;1.63734;-0.935848;0.0104403;-1.55646;-0.650616;1.687;-5.62327;-0.000476306;0.00354234;0.0570893;0.0573065;-0.000693467;0.029;0.00834317;119.858;0.0384376;0.0386667;82.6376;0.012101;91.32;136.32;0.0145897;-0.000470841;0.00863555;-0.00127358;0.05706;-0.0116315;0.000883214;0;0.0965691;-0.222183;-3.12358;-1.57538;3.50542;-7.44426;-0.00442225;-0.000402633;0.0646312;0.0646335;-0.00442459;0.0345291;0.0684228;14.615;0.044637;0.0460388;14.6078;0.0684566;91.9515;136.951;-1.56516e-05;-0.00442437;0.00140886;-0.00209663;0.0646303;-0.00643242;0.0646874;0;0.0653662;8.31697;2.86796
582000;583;27.4597;1.71388;0.0665691;-2.92782;27.2444;-1.79172;-0.258607;1.65258;-0.905507;0.0110619;-1.55302;-0.647813;1.68275;-5.62379;0.000152621;0.00416077;0.0588107;0.0591043;-0.000141043;0.0296227;-0.00259513;-385.337;0.03945;0.0394969;419.051;0.00238635;90.3016;135.302;0.0135327;0.000161218;0.0089265;-0.000341014;0.0587812;-0.0115745;0.00566363;0;0.0997675;-0.222106;-3.1315;-1.57403;3.51187;-7.44292;-0.00415621;-0.00029312;0.0648577;0.0648589;-0.00415746;0.0345082;0.064082;15.605;0.0446896;0.0460109;15.6006;0.0641;92.0779;137.078;0.000605089;-0.00415867;0.00177955;-0.00223146;0.0648563;-0.00731445;0.0696623;0;0.0624619;8.32444;2.87433
583000;584;27.4685;1.72262;0.0669085;-2.92928;27.2526;-1.79722;-0.260062;1.66086;-0.911012;0.0100133;-1.54939;-0.653059;1.68142;-5.62676;-0.000161398;0.0032783;0.0578337;0.0580184;-0.000346122;0.0291823;0.00279072;358.33;0.0387948;0.0389097;167.624;0.00596572;92.0379;137.038;0.00818692;-0.00015819;0.00894896;-0.00208157;0.0578009;0.00255564;0.00607356;0;0.101057;-0.22424;-3.13586;-1.58105;3.51903;-7.44993;-0.00434501;-8.28956e-05;0.0648487;0.0648488;-0.00434511;0.0345969;0.0670024;14.9248;0.0447512;0.0461292;14.9245;0.0670038;91.6071;136.607;-0.00106026;-0.00434646;0.00164882;-0.00170209;0.0648474;-0.00483785;0.0658111;0;0.059899;8.32816;2.88184
584000;585;27.4783;1.7324;0.0672885;-2.93156;27.2621;-1.79897;-0.26234;1.67036;-0.912756;0.00991606;-1.55114;-0.653217;1.6831;-5.61327;-0.00117339;0.00256282;0.0566157;0.0567291;-0.00128682;0.029008;0.0207255;48.2496;0.0382556;0.0386773;44.0846;0.0226837;92.5654;137.565;0.010554;-0.00117304;0.00783507;-0.00242113;0.0565897;-0.0110378;0.00492999;0;0.103883;-0.224259;-3.14134;-1.58466;3.52555;-7.45355;-0.00431662;-7.70887e-05;0.0659941;0.0659942;-0.00431671;0.0351555;0.0654092;15.2884;0.0455033;0.0468739;15.2881;0.0654104;91.8915;136.891;-0.00199605;-0.00431871;0.0020243;-0.00203987;0.0659922;-0.0030101;0.068053;0;0.0723369;8.32136;2.88884
585000;586;27.4822;1.73632;0.0674407;-2.92336;27.2645;-1.836;-0.254141;1.67272;-0.949786;0.0106153;-1.5466;-0.651184;1.67813;-5.623;-0.000315735;0.00405887;0.0580963;0.058377;-0.000596424;0.0294867;0.00543468;184.004;0.0391183;0.0393156;97.8783;0.0102168;90.6995;135.7;0.0102552;-0.000307725;0.00907262;-0.000678184;0.0580652;-0.0123762;-0.00615325;0;0.0990629;-0.224498;-3.14736;-1.58461;3.5309;-7.45349;-0.00453705;-5.05011e-05;0.0668532;0.0668532;-0.00453708;0.0356952;0.0678659;14.735;0.0461556;0.0475935;14.7348;0.0678664;91.7612;136.761;-0.00196451;-0.00453889;0.00194853;-0.00191576;0.0668514;-0.000885263;0.0680401;0;0.062803;8.32451;2.89606
586000;587;27.4924;1.74652;0.0678367;-2.9234;27.275;-1.8332;-0.254183;1.68319;-0.946993;0.00992423;-1.54846;-0.636068;1.67404;-5.60676;-0.000687938;0.00347491;0.0579978;0.0582029;-0.000892979;0.0295479;0.0118614;84.3067;0.039103;0.0393972;65.1783;0.0153425;90.833;135.833;0.00623493;-0.00068219;0.00796382;-0.000765064;0.0579736;-0.0198222;-0.00410438;0;0.100407;-0.225913;-3.15719;-1.57015;3.53331;-7.43903;-0.00453115;5.03764e-05;0.0674245;0.0674245;-0.00453118;0.0359779;0.0672033;14.8802;0.0465337;0.0479705;14.8801;0.0672038;91.8415;136.842;-0.00217977;-0.00453317;0.00225843;-0.00200883;0.0674221;0.00057237;0.0681909;0;0.067775;8.33153;2.90229
587000;588;27.4988;1.75295;0.0680867;-2.93544;27.2833;-1.78612;-0.266222;1.6915;-0.899908;0.011894;-1.54078;-0.656873;1.675;-5.62646;-0.00068512;0.00341854;0.0593414;0.0595354;-0.00087918;0.0302073;0.0115454;86.6146;0.0399866;0.0402764;67.717;0.0147673;91.4556;136.456;0.012029;-0.00068031;0.0085691;-0.00144025;0.0593122;-0.0230383;0.00205976;0;0.100828;-0.225166;-3.15819;-1.59038;3.54319;-7.45926;-0.00440625;5.63715e-05;0.0681399;0.0681399;-0.0044063;0.0362731;0.0646648;15.4644;0.0469643;0.0483641;15.4642;0.0646654;91.5837;136.584;-0.00124528;-0.00440779;0.00199315;-0.00174886;0.068138;-0.000345459;0.0639636;0;0.0657056;8.32639;2.90514
588000;589;27.5158;1.76992;0.068746;-2.93584;27.2999;-1.79268;-0.266628;1.70814;-0.906472;0.0127338;-1.53461;-0.657973;1.66977;-5.63335;-0.000239311;0.00383401;0.0596291;0.0598736;-0.000483845;0.0301787;0.00401333;249.17;0.040078;0.0402383;123.745;0.00808111;90.9457;135.946;0.00361093;-0.000232431;0.00892671;-0.000971031;0.0595984;-0.0217234;-0.0139376;0;0.113761;-0.225408;-3.16281;-1.59322;3.54859;-7.4621;-0.00448896;-0.000223993;0.0681452;0.0681459;-0.00448965;0.0363178;0.0658735;15.1806;0.0469987;0.0484237;15.1784;0.0658829;91.8821;136.882;6.58957e-05;-0.00449118;0.00180234;-0.00211254;0.0681437;-0.00261582;0.0647774;0;0.0649497;8.32771;2.91095
589000;590;27.5239;1.77804;0.0690613;-2.93831;27.3078;-1.79261;-0.269097;1.71606;-0.9064;0.01088;-1.53447;-0.660258;1.67053;-5.625;-0.000489154;0.00398957;0.0600763;0.060338;-0.000750825;0.0305444;0.00814221;122.817;0.0404779;0.0407259;80.3622;0.0124437;90.4263;135.426;0.0133443;-0.000481267;0.00863104;-0.000386789;0.0600487;-0.0256349;-0.00572322;0;0.10798;-0.227593;-3.1691;-1.59665;3.55588;-7.46553;-0.00441875;-0.000343405;0.0676915;0.0676931;-0.00442039;0.0360568;0.0652778;15.3191;0.0466721;0.0480757;15.3138;0.0653004;91.851;136.851;-0.00147924;-0.00442087;0.00151935;-0.00208035;0.0676905;-0.0030808;0.0664247;0;0.070167;8.33843;2.91803
590000;591;27.5325;1.78668;0.0693968;-2.93935;27.3161;-1.7976;-0.270134;1.72433;-0.911393;0.0125943;-1.52939;-0.660992;1.66616;-5.63141;-0.000525901;0.00416766;0.060694;0.0609765;-0.000808319;0.0308924;0.00866479;115.41;0.0409231;0.0411899;75.4361;0.0132562;90.1193;135.119;0.0121884;-0.000517213;0.0086491;-5.51941e-05;0.060667;-0.0305004;-0.00240613;0;0.106344;-0.227374;-3.17508;-1.59795;3.56178;-7.46683;-0.00446218;-0.000289343;0.0677064;0.0677075;-0.00446334;0.0360854;0.0659048;15.1734;0.0466973;0.0481139;15.1697;0.0659208;91.9061;136.906;0.000479839;-0.00446442;0.00168879;-0.00213377;0.0677051;-0.00525724;0.0662951;0;0.062657;8.33347;2.92556
591000;592;27.5397;1.79382;0.0696743;-2.94277;27.3218;-1.81516;-0.273557;1.73;-0.928951;0.0125773;-1.52509;-0.661722;1.66251;-5.6371;0.000288577;0.00437971;0.0594568;0.0597793;-3.3858e-05;0.0299066;-0.00485355;-206.035;0.0398641;0.0398754;1765.59;0.000566383;90.0065;135.007;0.00236919;0.000298163;0.00907396;-5.24625e-05;0.059427;-0.0140766;-0.0148923;0;0.108261;-0.228392;-3.18269;-1.60247;3.57066;-7.47691;-0.00423692;-0.000436808;0.0671932;0.0671959;-0.00423959;0.0357177;0.0630557;15.859;0.0462752;0.0476237;15.8496;0.0630929;92.076;137.076;-0.000963036;-0.00423954;0.00158934;-0.00232734;0.0671921;-0.00484244;0.0629188;0;0.0701423;8.33167;2.93268
592000;593;27.5494;1.8035;0.0700502;-2.94227;27.3311;-1.8228;-0.273053;1.7393;-0.936591;0.0132302;-1.52042;-0.664723;1.65943;-5.64005;0.000644016;0.00511711;0.0599846;0.0604226;0.000205986;0.0301083;-0.0107364;-93.1414;0.0402132;0.0401444;-293.334;-0.00340908;89.1726;134.173;0.00508189;0.000656794;0.00970907;0.000782127;0.0599524;-0.0148508;-0.00531465;0;0.117142;-0.229013;-3.18765;-1.60497;3.57624;-7.47385;-0.00436836;-0.000193924;0.0675836;0.0675841;-0.00436888;0.0359765;0.0646364;15.4712;0.0465807;0.0479687;15.4694;0.0646436;92.0141;137.014;-0.000751036;-0.00437086;0.00199975;-0.00223975;0.0675817;-0.00386125;0.0674695;0;0.0657246;8.34237;2.94028
593000;594;27.5605;1.8146;0.0704813;-2.94482;27.3424;-1.81733;-0.275602;1.75058;-0.931119;0.0136211;-1.51942;-0.665143;1.65868;-5.63889;0.000360729;0.00553253;0.0605651;0.0610693;-0.000143465;0.0306064;-0.00595606;-167.896;0.0407607;0.0408085;425.673;0.00234922;88.6408;133.641;0.00482879;0.00037503;0.00989956;0.00141331;0.0605333;-0.0216567;-0.0102937;0;0.106977;-0.22917;-3.1938;-1.60417;3.58138;-7.47305;-0.00436967;-0.000296785;0.0681503;0.0681515;-0.00437088;0.0362612;0.0641181;15.5962;0.0469592;0.0483483;15.5922;0.0641348;92.2341;137.234;0.00015907;-0.0043728;0.00208486;-0.00251673;0.0681483;-0.00244501;0.0682191;0;0.0651073;8.33883;2.94763
594000;595;27.5673;1.82142;0.0707462;-2.94535;27.3488;-1.82259;-0.276133;1.75704;-0.936379;0.0142697;-1.5176;-0.663436;1.65634;-5.64177;0.000777881;0.00586185;0.0597385;0.0603156;0.000200746;0.0300574;-0.0130214;-76.7964;0.0401437;0.0400766;-300.457;-0.00332827;88.7867;133.787;-0.000572378;0.000794374;0.0108388;0.00116172;0.0596993;-0.00704369;0.00139257;0;0.103038;-0.229846;-3.19995;-1.60577;3.58762;-7.47465;-0.00427056;2.14068e-05;0.0694437;0.0694437;-0.00427057;0.0368571;0.0614968;16.261;0.047783;0.0491428;16.261;0.0614969;91.6967;136.697;-0.00141291;-0.00427242;0.00210829;-0.00192163;0.0694416;-0.00293219;0.0685129;0;0.0675232;8.33896;2.95547
595000;596;27.5785;1.8326;0.0711804;-2.94615;27.3606;-1.81418;-0.27693;1.76878;-0.927971;0.0140464;-1.5126;-0.671704;1.6551;-5.64567;0.000152773;0.00435065;0.0604629;0.0607752;-0.000159457;0.0304673;-0.00252673;-395.769;0.04057;0.0406231;381.138;0.00262372;90.9991;135.999;0.00435064;0.000161619;0.010141;-0.00111049;0.0604234;-0.0196624;-0.00419971;0;0.108939;-0.230629;-3.20479;-1.61129;3.59446;-7.48017;-0.00437852;0.000190043;0.069895;0.0698954;-0.004379;0.0371372;0.0626443;15.9632;0.0481231;0.0495163;15.9615;0.0626508;91.8271;136.827;-0.000752634;-0.00438063;0.00260864;-0.00206065;0.0698918;0.00134253;0.065339;0;0.067928;8.34424;2.96202
596000;597;27.5824;1.8365;0.0713319;-2.93815;27.3623;-1.85938;-0.268937;1.77054;-0.973171;0.0132708;-1.51643;-0.65604;1.65231;-5.62092;-0.00109556;0.0035606;0.059002;0.0592122;-0.00130578;0.030259;0.0185681;53.8557;0.0399172;0.0403453;45.3464;0.0220525;91.0889;136.089;0.00241155;-0.0010897;0.00838318;-0.00098837;0.0589748;-0.0199632;-0.0111161;0;0.105399;-0.230294;-3.2122;-1.60339;3.59752;-7.47227;-0.00433936;-0.000105813;0.0705444;0.0705446;-0.00433951;0.037442;0.0615125;16.2569;0.0485409;0.0499227;16.2563;0.0615144;92.2474;137.247;0.00085266;-0.00434276;0.00257951;-0.0026033;0.0705413;0.00083078;0.0673359;0;0.0665767;8.34393;2.96899
597000;598;;;;;;;;;;0.0155235;-1.5052;-0.667677;1.64671;-5.64809;-7.0587e-05;0.00615913;0.0620235;0.0626285;-0.000675617;0.0316521;0.00113807;878.681;0.0419794;0.0422028;92.6982;0.0107877;88.1945;133.194;0.00178988;-5.36583e-05;0.0105554;0.00201978;0.0619889;-0.0157319;-0.00699519;0;0.122924;-0.230816;-3.21673;-1.61108;3.60502;-7.47996;-0.00433807;-0.000300798;0.0709435;0.0709447;-0.00433927;0.037642;0.0611482;16.3537;0.0488073;0.0501893;16.3495;0.0611641;92.2525;137.252;-0.000926501;-0.00434154;0.00222282;-0.00264702;0.0709413;-0.00157309;0.0664998;0;0.0707924;8.339;2.97353
598000;599;;;;;;;;;;0.0146878;-1.50398;-0.67211;1.64739;-5.64311;-2.33437e-05;0.00619858;0.0618351;0.0624502;-0.000638362;0.0315443;0.000377515;2648.9;0.0418479;0.042059;97.8288;0.0102219;87.8728;132.873;0.0065081;-6.91726e-06;0.0102744;0.00236008;0.0618035;-0.0257898;-0.00453408;0;0.104004;-0.232904;-3.22253;-1.61369;3.6115;-7.48257;-0.00434028;-0.000431996;0.0704827;0.0704852;-0.00434277;0.037414;0.0615793;16.2392;0.0485026;0.0498853;16.2305;0.0616125;92.3853;137.385;-0.00134917;-0.00434412;0.00211151;-0.00279772;0.0704807;-0.00118275;0.0653637;0;0.0670783;8.34341;2.97723
599000;600;27.6171;1.8712;0.0726798;-2.94948;27.3984;-1.82524;-0.280266;1.8066;-0.939032;0.0165161;-1.49728;-0.67192;1.64122;-5.65341;0.000714734;0.00722885;0.0631025;0.0639291;-0.000111918;0.0320205;-0.0113266;-88.288;0.0426568;0.042694;571.212;0.00175066;86.9747;131.975;-0.00284295;0.000735372;0.0113929;0.00330903;0.063066;-0.0385213;0.000736731;0;0.123331;-0.232525;-3.22886;-1.61726;3.61872;-7.48615;-0.00434776;-0.000365525;0.0703016;0.0703034;-0.00434955;0.0373265;0.0618445;16.1696;0.048384;0.0497686;16.1634;0.0618683;92.1543;137.154;-0.00066942;-0.00435088;0.00194646;-0.00251626;0.0702999;-0.00390158;0.0649605;0;0.0692924;8.34841;2.98463
600000;601;;;;;;;;;;0.0168641;-1.49101;-0.684031;1.64051;-5.65846;0.00049675;0.00759868;0.0641345;0.0650293;-0.000397992;0.0327136;-0.00774544;-129.108;0.0434861;0.0436182;163.393;0.0061202;86.5526;131.553;0.0040028;0.00051803;0.0115396;0.0038933;0.0640991;-0.0406992;0.0067106;0;0.128464;-0.233179;-3.23277;-1.62683;3.62654;-7.49571;-0.00413784;-0.000179267;0.0704726;0.070473;-0.00413827;0.0373056;0.0587157;17.0312;0.0484204;0.0497409;17.0296;0.0587214;91.5583;136.558;0.000598536;-0.00413949;0.00158289;-0.00181861;0.0704714;-0.00433732;0.0666841;0;0.0624409;8.34355;2.99089
601000;602;;;;;;;;;;0.0173986;-1.48587;-0.679354;1.6339;-5.66506;0.000881945;0.00675446;0.0652906;0.0659913;0.000181236;0.0329051;-0.013508;-74.0302;0.0439339;0.0438734;-364.118;-0.00274636;87.351;132.351;0.00837522;0.000900381;0.0108007;0.00295277;0.0652573;-0.0229845;-0.00375264;0;0.120377;-0.233245;-3.23963;-1.62695;3.63271;-7.49706;-0.00417247;-2.94755e-06;0.0705966;0.0705966;-0.00417247;0.0373846;0.059103;16.9196;0.0485151;0.0498461;16.9196;0.059103;91.921;136.921;-0.000640521;-0.00417495;0.00238225;-0.00222157;0.070594;0.000622336;0.0706588;0;0.0717747;8.34642;2.99858
602000;603;27.6477;1.90188;0.0738712;-2.94898;27.4307;-1.80546;-0.279764;1.83888;-0.919252;0.0171579;-1.48412;-0.682289;1.63353;-5.66324;0.00030235;0.00695312;0.0647502;0.0654918;-0.000439272;0.0329655;-0.00466948;-214.156;0.0438083;0.043954;149.091;0.00670729;86.8832;131.883;0.00835412;0.00032016;0.0105587;0.00356569;0.0647205;-0.0307251;-0.018137;0;0.106023;-0.234512;-3.24543;-1.62997;3.63932;-7.49886;-0.00412732;-0.000289994;0.0710705;0.0710716;-0.00412844;0.0376;0.0580736;17.2195;0.0488155;0.0501334;17.2151;0.0580884;92.2294;137.229;-0.00100389;-0.00413075;0.00222778;-0.00263099;0.0710682;-0.00174728;0.0700938;0;0.0664633;8.35384;3.00714
603000;604;;;;;;;;;;0.0159542;-1.4872;-0.680326;1.6355;-5.64716;0.000309505;0.00621947;0.0631508;0.0637604;-0.000300127;0.0320303;-0.00490105;-204.038;0.0426074;0.042707;212.445;0.00470711;87.8975;132.897;0.0118788;0.000326135;0.0103573;0.00232609;0.0631185;-0.0359692;-0.00170543;0;0.124621;-0.234734;-3.25071;-1.63128;3.64462;-7.50016;-0.00416471;-0.000172463;0.0715463;0.0715467;-0.00416511;0.0378559;0.05821;17.1792;0.049145;0.0504745;17.1776;0.0582152;91.9967;136.997;-0.000972336;-0.0041675;0.00218271;-0.00236123;0.0715441;-0.00234998;0.0699067;0;0.0697437;8.34674;3.0145
604000;605;27.6637;1.91787;0.0744924;-2.94117;27.4453;-1.84072;-0.27196;1.8535;-0.954512;0.0157382;-1.48496;-0.679336;1.63305;-5.64452;-0.00156445;0.00517528;0.063029;0.0634411;-0.00197647;0.0327088;0.0248211;40.2883;0.042968;0.0436117;32.0982;0.0311544;88.1233;133.123;0.0237863;-0.00155369;0.00823524;0.00230121;0.0630097;-0.062636;0.0042109;0;0.10498;-0.235189;-3.25668;-1.63364;3.65104;-7.50252;-0.00428023;-0.000127767;0.0726407;0.0726409;-0.00428044;0.0384607;0.0589233;16.9712;0.0499153;0.0512809;16.9704;0.0589261;92.0803;137.08;-0.00182815;-0.00428334;0.00241711;-0.00249014;0.0726379;0.00116416;0.0721231;0;0.0793991;8.35185;3.02063
605000;606;27.6716;1.92576;0.074799;-2.94164;27.4533;-1.83909;-0.272423;1.86151;-0.952879;0.0161699;-1.4801;-0.680872;1.62928;-5.65132;-0.00107632;0.00631662;0.0645318;0.0651344;-0.00167894;0.0334067;0.016679;59.9557;0.0439933;0.0445422;38.795;0.0257765;87.0797;132.08;0.0153248;-0.00106252;0.00930679;0.00351068;0.0645099;-0.037773;0.00138639;0;0.115546;-0.236058;-3.26348;-1.6331;3.65691;-7.50198;-0.00430214;-0.000102417;0.072906;0.0729062;-0.00430227;0.0386042;0.0590093;16.9465;0.0500998;0.0514723;16.946;0.0590111;92.0031;137.003;-0.000291726;-0.00430503;0.00237713;-0.00240353;0.0729034;0.00162728;0.0693623;0;0.075607;8.35943;3.02777
606000;607;27.6804;1.93454;0.07514;-2.95237;27.4638;-1.79594;-0.283152;1.87207;-0.90973;0.0174379;-1.47875;-0.674249;1.62531;-5.64069;-0.00153401;0.00499932;0.0647523;0.0651272;-0.00190894;0.0335181;0.0236905;42.2111;0.0440682;0.0446908;34.1169;0.029311;88.7024;133.702;0.00338564;-0.00152293;0.00852703;0.00169118;0.0647299;-0.0193758;0.0016546;0;0.116112;-0.235794;-3.26914;-1.63102;3.66102;-7.4999;-0.0042863;-0.000215916;0.0731596;0.0731602;-0.0042869;0.0387236;0.0585883;17.0683;0.0502634;0.0516314;17.066;0.058596;91.9894;136.989;0.000626229;-0.00428919;0.00214778;-0.00240903;0.0731575;0.000884897;0.0721038;0;0.0723909;8.35363;3.0352
607000;608;27.6913;1.94547;0.0755642;-2.95687;27.4723;-1.82707;-0.287653;1.88054;-0.940859;0.0172764;-1.47326;-0.677108;1.62151;-5.64715;-0.00108775;0.00644303;0.0651504;0.0657713;-0.00170865;0.03374;0.0166961;59.8944;0.044428;0.0449866;38.4931;0.0259787;87.061;132.061;0.00461016;-0.00107335;0.00950695;0.00356959;0.0651274;-0.0301023;0.018743;0;0.129703;-0.2369;-3.2745;-1.63427;3.66733;-7.50315;-0.00448898;-0.000452169;0.0737483;0.073751;-0.00449159;0.0391213;0.0608689;16.4287;0.0507308;0.0521617;16.4198;0.0609022;91.971;136.971;0.000298608;-0.00449184;0.00167876;-0.00242783;0.0737471;-0.00251523;0.0690387;0;0.0759346;8.35186;3.04249
608000;609;27.7042;1.95833;0.0760639;-2.96042;27.4859;-1.81254;-0.291203;1.89408;-0.926328;0.0188569;-1.46461;-0.687774;1.61817;-5.6617;-0.00134204;0.00520343;0.067307;0.0676992;-0.0017342;0.0347167;0.019939;50.1529;0.0457218;0.0462889;39.0376;0.0256163;89.107;134.107;0.00712633;-0.00132927;0.00942323;0.00125497;0.0672781;-0.0264813;0.000697809;0;0.139995;-0.237446;-3.28085;-1.64249;3.6767;-7.51692;-0.00429224;-0.000337277;0.0731983;0.0731998;-0.0042937;0.0387467;0.0586384;17.0537;0.0502922;0.0516623;17.0482;0.0586573;91.831;136.831;-0.00237184;-0.00429468;0.00170623;-0.00223323;0.073197;-0.00213074;0.063654;0;0.0708012;8.3574;3.04985
609000;610;27.7168;1.97097;0.076555;-2.96104;27.4988;-1.80848;-0.291822;1.90703;-0.92227;0.0175004;-1.46534;-0.688956;1.61931;-5.65088;-0.000631677;0.00742985;0.0691304;0.069913;-0.0014142;0.0356636;0.00913746;109.44;0.0470871;0.0475514;49.4365;0.020228;86.401;131.401;0.0067003;-0.000614367;0.0105222;0.00453923;0.0691045;-0.0423266;-0.0136009;0;0.123238;-0.238738;-3.28563;-1.64499;3.68217;-7.51387;-0.00413374;-0.000102474;0.0733568;0.0733569;-0.00413387;0.0387454;0.0563511;17.7459;0.0503392;0.0516605;17.7453;0.0563529;91.8914;136.891;-0.000452198;-0.00413636;0.0022554;-0.00229012;0.0733544;-0.00295425;0.0689333;0;0.0667879;8.35454;3.05181
610000;611;27.7209;1.97499;0.0767112;-2.9622;27.5018;-1.82267;-0.292985;1.91002;-0.936455;0.0190068;-1.46077;-0.688004;1.6148;-5.65612;-0.00101607;0.00756469;0.0686928;0.0695043;-0.00182753;0.0356659;0.0147915;67.6063;0.0469572;0.0475546;38.0318;0.0262938;85.9384;130.938;0.00671155;-0.00100059;0.0101712;0.00512815;0.0686712;-0.0306355;0.00738307;0;0.139849;-0.238946;-3.29199;-1.64635;3.68846;-7.51523;-0.00414062;-0.000327067;0.0734029;0.0734043;-0.004142;0.0387732;0.0564094;17.7275;0.0503737;0.0516975;17.722;0.0564272;92.2517;137.252;-0.00140745;-0.00414437;0.00228568;-0.00275106;0.0734006;-0.00334164;0.0715081;0;0.0695527;8.35371;3.05781
611000;612;27.7314;1.98555;0.077121;-2.96192;27.5129;-1.81589;-0.292703;1.92113;-0.929676;0.0191831;-1.45486;-0.688503;1.60966;-5.66813;-0.000328991;0.0057813;0.0681132;0.0685981;-0.000813901;0.034706;0.00483006;207.037;0.0460058;0.0462747;84.2831;0.0118648;89.4115;134.411;-0.00296116;-0.00031257;0.0111366;0.000769047;0.0680708;-0.0226828;0.00318863;0;0.13695;-0.240154;-3.29959;-1.64548;3.69494;-7.51558;-0.00419934;-0.000283299;0.0737578;0.0737588;-0.00420037;0.0389796;0.0569341;17.5642;0.0506308;0.0519728;17.5601;0.0569473;92.1705;137.171;-0.00114581;-0.00420285;0.00227892;-0.0026595;0.0737554;-0.00376061;0.073026;0;0.0688348;8.36211;3.06545
612000;613;27.7401;1.99428;0.0774604;-2.96318;27.5214;-1.81864;-0.293963;1.92962;-0.932434;0.0201531;-1.4596;-0.687266;1.61344;-5.64748;-0.000694141;0.00604101;0.0672451;0.0677781;-0.00122711;0.0345026;0.0103225;96.8753;0.0455999;0.0460035;55.2338;0.0181049;88.3027;133.303;0.0139746;-0.000678173;0.0102069;0.00214019;0.0672134;-0.0239232;0.0168552;0;0.127583;-0.238935;-3.3064;-1.64773;3.70195;-7.51784;-0.00429415;-4.70024e-05;0.0740994;0.0740994;-0.00429418;0.0391968;0.0579512;17.2559;0.0508914;0.0522624;17.2558;0.0579515;91.8265;136.827;-2.65485e-05;-0.00429663;0.00230151;-0.00222411;0.0740969;0.00147614;0.0687497;0;0.0679998;8.36276;3.07309
613000;614;27.7469;2.00103;0.0777223;-2.95429;27.526;-1.86631;-0.285074;1.93419;-0.980104;0.0204139;-1.45228;-0.6907;1.6083;-5.65396;-0.000209503;0.00591008;0.0677448;0.068255;-0.000719681;0.0344873;0.00309253;323.359;0.0457451;0.0459831;94.8407;0.010544;88.5511;133.551;-0.00883846;-0.000193623;0.0103188;0.00178189;0.0677113;-0.0262878;-0.0158169;0;0.133133;-0.2399;-3.31115;-1.64896;3.70679;-7.51784;-0.00425716;-0.000149281;0.0745931;0.0745934;-0.00425744;0.0394254;0.0570717;17.5218;0.0512071;0.0525672;17.5207;0.0570753;91.7665;136.766;0.00129552;-0.00425953;0.00204049;-0.00217837;0.0745912;-0.00224026;0.0716937;0;0.068883;8.35779;3.08013
614000;615;27.7633;2.01747;0.0783612;-2.96317;27.5444;-1.82445;-0.293956;1.95262;-0.938242;0.0211007;-1.44575;-0.694834;1.60419;-5.6663;-0.000264007;0.00657599;0.069634;0.0702473;-0.000877293;0.0355623;0.00379135;263.758;0.0471267;0.0474164;80.0728;0.0124886;88.3928;133.393;-0.00188205;-0.000244472;0.0114234;0.00204526;0.0695933;-0.0460553;0.00878961;0;0.135602;-0.240557;-3.31631;-1.65352;3.71348;-7.5224;-0.00413607;-0.00025674;0.0754832;0.0754841;-0.0041369;0.0398105;0.0547946;18.25;0.0517568;0.0530806;18.2465;0.054805;92.0953;137.095;0.000295863;-0.00413951;0.00230595;-0.00262971;0.0754808;0.00077378;0.0734844;0;0.0742439;8.36575;3.08724
615000;616;27.7762;2.03031;0.0788597;-2.96158;27.5589;-1.80253;-0.292361;1.96717;-0.91632;0.020683;-1.44164;-0.699547;1.60254;-5.67328;-0.000134562;0.00790297;0.0686997;0.0695954;-0.00103026;0.0353128;0.0019587;510.542;0.0467442;0.0470838;67.5513;0.0148036;86.2641;131.264;0.00937816;-0.00011403;0.0114058;0.0046257;0.0686681;-0.0334051;0.0109373;0;0.13063;-0.24127;-3.3214;-1.65698;3.71961;-7.52587;-0.00422711;-0.000609364;0.075813;0.0758176;-0.00423175;0.0400247;0.0557571;17.9349;0.0520131;0.0533662;17.9164;0.0558149;92.1311;137.131;-0.000109498;-0.00423064;0.00167165;-0.00272067;0.0758118;0.000227624;0.0733087;0;0.0722343;8.36863;3.09408
616000;617;27.7851;2.03929;0.0792085;-2.96072;27.5671;-1.8178;-0.291502;1.97531;-0.931591;0.0209813;-1.44015;-0.700128;1.60145;-5.66721;-0.000428543;0.00666189;0.0689718;0.0696055;-0.00106225;0.0353339;0.00621331;160.945;0.0467618;0.0471118;65.5267;0.015261;88.0967;133.097;0.000295728;-0.000409267;0.0112009;0.00241747;0.0689339;-0.0320953;-0.0119866;0;0.116051;-0.241936;-3.32568;-1.66234;3.72586;-7.53122;-0.00430158;-0.000392283;0.0759413;0.0759433;-0.0043035;0.0401234;0.0566435;17.6543;0.0521226;0.0534978;17.6468;0.0566673;91.85;136.85;-0.00117109;-0.00430428;0.00172201;-0.00234889;0.07594;-0.00133265;0.0731136;0;0.0709183;8.36126;3.10179
617000;618;;;;;;;;;;0.0214942;-1.43803;-0.704509;1.60148;-5.66822;-0.000827775;0.00804398;0.0685094;0.0694304;-0.00174874;0.0355896;0.0120826;82.7634;0.0468807;0.0474528;39.703;0.025187;85.7864;130.786;0.00909088;-0.000809462;0.0109762;0.00530197;0.0684833;-0.0256167;0.00435142;0;0.124989;-0.24264;-3.33295;-1.66347;3.7329;-7.537;-0.00408733;6.6326e-05;0.0762948;0.0762949;-0.00408738;0.0401911;0.0535728;18.6662;0.052279;0.0535882;18.666;0.0535735;91.1417;136.142;0.000241211;-0.00408835;0.00168007;-0.00142689;0.0762935;-0.00449202;0.0685546;0;0.0740426;8.36526;3.10839
618000;619;27.8059;2.06;0.0800128;-2.9638;27.5883;-1.80723;-0.294586;1.99654;-0.921022;0.0199658;-1.44117;-0.688352;1.59724;-5.65058;-0.00140818;0.0079373;0.0702054;0.0710746;-0.00227737;0.036676;0.020058;49.8553;0.0481602;0.0489013;31.2091;0.0320419;85.8501;130.85;0.0131032;-0.00139132;0.0106402;0.00541525;0.070182;-0.0292533;0.0260504;0;0.125407;-0.243701;-3.34226;-1.65461;3.73735;-7.52814;-0.00419967;0.000396791;0.0768694;0.0768714;-0.00420162;0.0405365;0.0546339;18.3037;0.052704;0.0540487;18.2957;0.0546577;90.9977;135.998;0.00182827;-0.00420034;0.00214364;-0.00121855;0.0768674;-0.00355105;0.0711652;0;0.0776497;8.3681;3.11589
619000;620;;;;;;;;;;0.0214145;-1.43471;-0.703485;1.59804;-5.65578;-0.00237613;0.00690327;0.0687255;0.0693896;-0.00304017;0.0362149;0.0345743;28.9233;0.0473057;0.0482865;22.8242;0.0438131;86.398;131.398;0.0125788;-0.00236339;0.00924892;0.00471364;0.0687078;-0.032129;0.00523485;0;0.116164;-0.243035;-3.3445;-1.66477;3.74382;-7.53365;-0.00415939;-0.000361262;0.076629;0.0766307;-0.004161;0.0403958;0.0542795;18.4232;0.0525291;0.0538611;18.4164;0.0542994;91.7152;136.715;0.000425017;-0.00416175;0.00162736;-0.00220066;0.0766279;-0.00802765;0.0734553;0;0.0762328;8.36273;3.12093
620000;621;;;;;;;;;;0.0199481;-1.43403;-0.692907;1.59278;-5.64396;-0.00170967;0.00698104;0.0698293;0.0705042;-0.00238454;0.0364444;0.0244836;40.8436;0.0478175;0.0485925;29.5672;0.0338213;86.2078;131.208;0.0091134;-0.00169742;0.00918375;0.00492561;0.0698127;-0.0193177;0.010854;0;0.105395;-0.244538;-3.352;-1.66189;3.74934;-7.53222;-0.00412602;-0.000422685;0.0762661;0.0762684;-0.00412824;0.0401983;0.0541003;18.4842;0.052276;0.0535977;18.4748;0.0541278;92.1251;137.125;0.00184843;-0.00412963;0.00205243;-0.00271292;0.0762643;-0.00438249;0.0708669;0;0.0745997;8.36509;3.12729
621000;622;;;;;;;;;;0.0230484;-1.41947;-0.707708;1.58627;-5.6819;-0.00125344;0.00695954;0.0677931;0.0684876;-0.00194794;0.0352178;0.0184892;54.0857;0.0463214;0.046957;35.159;0.0284422;86.6384;131.638;-0.00394618;-0.0012382;0.00986456;0.00424232;0.0677702;0.00820369;0.00321469;0;0.124003;-0.245051;-3.35707;-1.67347;3.75905;-7.54358;-0.00424318;-0.000369428;0.0767274;0.0767291;-0.00424486;0.040487;0.055302;18.0825;0.0526248;0.0539826;18.0757;0.0553228;92.0206;137.021;-0.00119297;-0.00424647;0.00203007;-0.00258848;0.0767255;-0.00145956;0.0752421;0;0.073937;8.36884;3.13443
622000;623;27.84;2.09417;0.0813402;-2.96528;27.6226;-1.80656;-0.296066;2.03087;-0.920352;0.0253687;-1.41809;-0.692761;1.57846;-5.66935;-0.000889635;0.00668675;0.0676431;0.0682894;-0.00153597;0.0349127;0.0131519;76.0346;0.0460468;0.0465503;44.4602;0.022492;87.3524;132.352;0.0124514;-0.00087281;0.0102734;0.00333023;0.0676146;-0.0376092;0.00677798;0;0.119932;-0.243734;-3.36365;-1.66375;3.76054;-7.53385;-0.00430337;4.83347e-05;0.0773604;0.0773605;-0.00430339;0.0408319;0.0556275;17.9767;0.0530663;0.0544426;17.9766;0.0556278;91.892;136.892;0.00073074;-0.00430626;0.00269819;-0.00240067;0.0773571;0.00362532;0.0750274;0;0.0701609;8.36427;3.13794
623000;624;27.8552;2.10929;0.0819275;-2.9662;27.6376;-1.81006;-0.296986;2.04578;-0.923846;0.0232949;-1.41446;-0.70476;1.58049;-5.67936;-0.0014482;0.00683606;0.0669455;0.0676221;-0.00212478;0.0348734;0.0216325;46.2267;0.0458061;0.0464979;31.8254;0.0314214;86.6391;131.639;-0.00613985;-0.00143369;0.0096371;0.00421452;0.0669239;-0.0370916;-0.00342778;0;0.122255;-0.245736;-3.36867;-1.67651;3.77081;-7.54968;-0.0041749;-0.000270416;0.0777549;0.0777558;-0.00417579;0.0409658;0.053693;18.6244;0.0532837;0.0546211;18.6206;0.0537039;91.8574;136.857;-0.000659337;-0.00417777;0.00204139;-0.00240648;0.077753;-0.00160624;0.0725042;0;0.085265;8.36515;3.14554
624000;625;27.854;2.10813;0.0818822;-2.96978;27.6351;-1.82438;-0.300562;2.04328;-0.938172;0.0238498;-1.41462;-0.704655;1.58059;-5.66897;-0.0022044;0.00626776;0.0686495;0.0691997;-0.00275458;0.0359771;0.032111;31.142;0.0470782;0.0479695;25.1217;0.0398062;87.8696;132.87;0.00367334;-0.00218898;0.00985727;0.00291618;0.0686224;-0.0173161;0.00660081;0;0.124828;-0.246143;-3.37361;-1.67628;3.77515;-7.54516;-0.00421896;-0.000423385;0.0784435;0.0784457;-0.00422113;0.0413334;0.0537834;18.5931;0.0537594;0.0551112;18.5841;0.0538095;92.1587;137.159;0.000189816;-0.0042229;0.00218636;-0.00283309;0.0784414;0.000395365;0.0752396;0;0.0736453;8.37341;3.15292
625000;626;27.8696;2.12378;0.0824901;-2.97051;27.6507;-1.82574;-0.301293;2.05889;-0.939531;0.0255132;-1.40362;-0.716625;1.57618;-5.68301;-0.000980573;0.00777592;0.0719725;0.0727921;-0.00180018;0.0372962;0.0136243;73.3984;0.0491391;0.0497282;40.4359;0.0247305;86.1821;131.182;-0.00462184;-0.000963066;0.0107028;0.00504817;0.0719473;-0.0116667;-0.0160884;0;0.142407;-0.246541;-3.37683;-1.68347;3.78124;-7.55235;-0.00406801;-0.000328913;0.0784586;0.07846;-0.00406933;0.0412646;0.0518492;19.2867;0.0537145;0.0550195;19.2808;0.051865;91.8358;136.836;-0.00249482;-0.00407088;0.00192445;-0.00240984;0.078457;-0.00235441;0.0770755;0;0.0830957;8.3695;3.1604
626000;627;27.8797;2.13381;0.0828796;-2.97339;27.66;-1.83344;-0.304172;2.06818;-0.947232;0.0237083;-1.40162;-0.713962;1.57316;-5.6827;-0.0013977;0.00802516;0.0722137;0.0730785;-0.00226245;0.0376705;0.019355;51.6661;0.0494904;0.0502273;32.3006;0.0309592;86.0362;131.036;0.00576488;-0.00137963;0.0109285;0.00532111;0.0721881;-0.0187097;0.0170152;0;0.132505;-0.247925;-3.38381;-1.68065;3.78632;-7.54953;-0.00434339;-0.000563278;0.0786932;0.078697;-0.00434721;0.0415221;0.0551939;18.1179;0.0539721;0.0553628;18.1029;0.0552398;91.8287;136.829;-0.000663262;-0.00434618;0.0014543;-0.00242555;0.0786923;-0.0045601;0.0761901;0;0.0757393;8.36815;3.16776
627000;628;27.8843;2.13845;0.0830601;-2.9666;27.6621;-1.88196;-0.297383;2.07033;-0.995751;0.0246621;-1.40305;-0.711236;1.57322;-5.67161;-0.00239548;0.00500572;0.0698156;0.070161;-0.00274083;0.0364509;0.0343115;29.1448;0.0477138;0.0486012;25.5985;0.0390648;88.5475;133.547;0.00529259;-0.00238507;0.00815374;0.00207015;0.0697963;-0.00609707;-0.0057764;0;0.128781;-0.247489;-3.39153;-1.68566;3.79541;-7.55919;-0.00416073;0.000563442;0.0798299;0.0798337;-0.00416451;0.0419991;0.0521199;19.1865;0.0546635;0.0559988;19.17;0.0521648;90.5796;135.58;7.23027e-05;-0.00416082;0.00193864;-0.000704795;0.0798283;-0.00438069;0.0750829;0;0.0815302;8.37859;3.1753
628000;629;27.8937;2.14785;0.0834249;-2.96819;27.6725;-1.86531;-0.298972;2.08076;-0.979098;0.026185;-1.40018;-0.707272;1.56889;-5.67109;-0.00226167;0.00694367;0.071359;0.0720082;-0.00291085;0.0374595;0.0316943;31.5515;0.0490046;0.049946;24.7379;0.0404239;86.7672;131.767;-0.00732222;-0.00224722;0.00967293;0.00440191;0.0713379;-0.0127425;0.00185189;0;0.127188;-0.247788;-3.39927;-1.68064;3.80013;-7.54952;-0.00421902;-0.000161496;0.0796193;0.0796196;-0.00421933;0.0419195;0.0529899;18.8715;0.0545406;0.0558926;18.8702;0.0529936;91.5184;136.518;-0.000145398;-0.00422103;0.00184067;-0.00200818;0.0796177;-0.00415796;0.0749625;0;0.0786416;8.37322;3.18282
629000;630;27.9047;2.15887;0.0838532;-2.96585;27.685;-1.84858;-0.296631;2.09324;-0.962366;0.0255498;-1.39851;-0.70887;1.56811;-5.66541;-0.00260626;0.00374345;0.0682959;0.068493;-0.00280336;0.0356482;0.0381613;26.2045;0.0466245;0.0475309;24.4325;0.0409291;90.1815;135.182;0.00154548;-0.00259924;0.00767433;7.34192e-05;0.0682749;-0.00532943;0.00837511;0;0.113752;-0.247907;-3.40373;-1.68408;3.80565;-7.55296;-0.00429196;-9.15278e-05;0.0796175;0.0796176;-0.00429206;0.0419548;0.0539073;18.5504;0.0545654;0.0559398;18.55;0.0539085;91.5088;136.509;-0.00121747;-0.00429394;0.00196308;-0.00198645;0.0796157;-0.00418864;0.0750829;0;0.0691318;8.36957;3.18899
630000;631;27.9135;2.16762;0.0841929;-2.96882;27.692;-1.87155;-0.299606;2.1002;-0.985337;0.0246887;-1.39713;-0.714317;1.56934;-5.6593;-0.00176019;0.00572307;0.0717218;0.0721649;-0.00220326;0.0371841;0.0245419;40.7466;0.0488609;0.0495788;32.7538;0.0305308;88.0315;133.031;0.00402717;-0.00174749;0.00894844;0.00271879;0.0716998;-0.00933254;-0.00533921;0;0.123767;-0.249069;-3.41073;-1.68771;3.81359;-7.55803;-0.00424507;-0.000291841;0.0788794;0.0788804;-0.00424609;0.0415632;0.0538172;18.5814;0.0540579;0.0554177;18.5772;0.0538295;91.9904;136.99;0.0010319;-0.00424846;0.00222619;-0.00261586;0.0788771;-0.00105351;0.0711963;0;0.072315;8.37756;3.19634
631000;632;;;;;;;;;;0.0271555;-1.38755;-0.720444;1.56368;-5.67925;-0.00160328;0.00702189;0.0719582;0.0726225;-0.00226757;0.037445;0.0222808;44.8818;0.0491883;0.0499267;32.0266;0.031224;86.665;131.665;0.00895357;-0.00158864;0.00975052;0.00448046;0.0719369;-7.08785e-05;0.0198869;0;0.129196;-0.249132;-3.41479;-1.69439;3.82019;-7.5645;-0.00438819;-0.00027209;0.0794299;0.0794308;-0.00438907;0.0419099;0.0552461;18.1008;0.0544758;0.0558799;18.0974;0.0552566;91.9288;136.929;0.00150934;-0.00439141;0.00219508;-0.00254768;0.0794277;0.00305653;0.0725499;0;0.070765;8.37629;3.20285
632000;633;;;;;;;;;;0.0261439;-1.38596;-0.72481;1.56426;-5.67516;-0.00108348;0.00660186;0.070187;0.0707934;-0.00168986;0.0362416;0.0154371;64.7792;0.0477689;0.0483222;41.8931;0.0238703;87.2321;132.232;0.00343009;-0.00106817;0.00981132;0.00360609;0.0701624;-0.0136176;-0.0073519;0;0.130345;-0.250125;-3.4198;-1.69963;3.82705;-7.57445;-0.00398491;1.227e-05;0.0806712;0.0806712;-0.00398491;0.0423281;0.0493969;20.2442;0.0551571;0.0564374;20.2442;0.0493969;91.6005;136.6;-0.000310036;-0.0039872;0.00234183;-0.0021348;0.0806687;-0.000271072;0.0700805;0;0.0810918;8.37038;3.20529
633000;634;;;;;;;;;;0.0271669;-1.38038;-0.722575;1.5583;-5.68005;-0.00154388;0.00670268;0.0708896;0.0715046;-0.0021589;0.0368318;0.0217787;45.9164;0.0484054;0.049109;33.1209;0.0301924;86.7574;131.757;-0.0103984;-0.00153057;0.00929925;0.00428171;0.0708702;-0.016951;-0.00773893;0;0.129305;-0.250063;-3.42641;-1.69753;3.83203;-7.56764;-0.00418396;-0.000364499;0.0804495;0.0804511;-0.00418553;0.0423183;0.0520073;19.2281;0.0550823;0.0564244;19.2212;0.0520258;92.0224;137.022;0.000909696;-0.00418762;0.00219265;-0.00272133;0.0804473;0.00260843;0.0754439;0;0.077217;8.37666;3.21163
634000;635;27.9599;2.21408;0.0859977;-2.97607;27.7402;-1.83886;-0.30686;2.14844;-0.952646;0.0266027;-1.38017;-0.728461;1.56085;-5.67737;-0.00196603;0.00702752;0.0699904;0.0706703;-0.00264594;0.0366581;0.02809;35.5998;0.0480198;0.0488775;26.7089;0.0374406;86.339;131.339;0.00305631;-0.0019529;0.00940043;0.00481415;0.0699721;-0.037065;-0.00168922;0;0.123349;-0.251037;-3.43058;-1.70526;3.83924;-7.57537;-0.00424492;-0.000222749;0.0806266;0.0806272;-0.00424551;0.0424364;0.0526491;18.9937;0.0552211;0.0565818;18.9912;0.052656;91.3561;136.356;0.00109016;-0.00424657;0.00151533;-0.00182432;0.0806256;-0.0047216;0.0763086;0;0.0765333;8.37961;3.21909
635000;636;;;;;;;;;;0.028598;-1.37858;-0.71916;1.55515;-5.66772;-0.0021401;0.0048756;0.0701018;0.0704294;-0.00246767;0.0364485;0.0305285;32.7563;0.0477967;0.048598;28.5408;0.0350376;88.5526;133.553;0.0183646;-0.00213026;0.00792462;0.00203239;0.0700836;-0.0346404;0.0026767;0;0.113013;-0.250047;-3.43829;-1.69641;3.84215;-7.56529;-0.00451397;-9.59428e-05;0.081206;0.0812061;-0.00451408;0.0428601;0.0555866;17.9899;0.0557031;0.0571468;17.9895;0.0555879;91.2326;136.233;-3.88411e-05;-0.00451534;0.00159604;-0.00165378;0.0812048;-0.00766424;0.0786749;0;0.0716202;8.37654;3.22592
636000;637;;;;;;;;;;0.0282311;-1.3725;-0.727542;1.55366;-5.67581;-0.00187645;0.00535034;0.0703542;0.0707484;-0.00227061;0.0365095;0.0266714;37.4933;0.0479404;0.0486793;31.1583;0.0320942;88.2848;133.285;0.000850482;-0.0018649;0.00855475;0.00236212;0.0703334;-0.0223103;0.00678819;0;0.114039;-0.251631;-3.44402;-1.7037;3.85061;-7.57381;-0.00438556;0.000205045;0.0817212;0.0817217;-0.00438605;0.0430539;0.0536649;18.6342;0.0560004;0.0574052;18.6322;0.0536705;91.0776;136.078;3.03788e-05;-0.00438656;0.00197873;-0.00142745;0.0817194;-0.000314437;0.0775601;0;0.0806017;8.38225;3.23374
637000;638;27.9945;2.24861;0.0873388;-2.98269;27.774;-1.84322;-0.313477;2.18225;-0.957014;0.0287828;-1.36369;-0.738885;1.55127;-5.6937;-0.00247626;0.00442773;0.0700641;0.0703333;-0.00274552;0.0365394;0.0353427;28.2944;0.0478303;0.0487192;25.6175;0.0390358;89.5483;134.548;0.0174122;-0.00246679;0.00826537;0.000850195;0.0700413;-0.0328032;0.0204973;0;0.105148;-0.252694;-3.44862;-1.71533;3.85995;-7.58544;-0.00429453;-0.000374829;0.08162;0.0816216;-0.00429617;0.0429589;0.0526162;19.0056;0.0559015;0.0572785;18.9987;0.0526352;91.7903;136.79;-0.000545937;-0.00429747;0.00187597;-0.00244684;0.0816184;7.36173e-05;0.0738235;0;0.0775662;8.38544;3.24124
638000;639;28.0018;2.25595;0.0876238;-2.98587;27.7816;-1.83545;-0.316659;2.18981;-0.949244;0.0292947;-1.3627;-0.73573;1.5489;-5.68794;-0.00223929;0.00487729;0.0700131;0.0703408;-0.00256704;0.0364539;0.0319839;31.2657;0.0477726;0.0486053;27.4015;0.0364943;89.2258;134.226;0.0182364;-0.00222814;0.00877892;0.00123906;0.0699882;-0.0336103;0.0258252;0;0.104687;-0.252935;-3.45462;-1.71469;3.86504;-7.58357;-0.0042762;-4.18421e-05;0.0822581;0.0822581;-0.00427622;0.0432672;0.0519851;19.2363;0.0563183;0.0576896;19.2362;0.0519853;91.3558;136.356;-0.0016752;-0.0042779;0.00191597;-0.00184311;0.0822564;-0.00216048;0.0763281;0;0.0754914;8.37683;3.24873
639000;640;;;;;;;;;;0.0302078;-1.34944;-0.73532;1.53708;-5.71143;-0.00244502;0.00586254;0.0732646;0.0737158;-0.00289629;0.0383061;0.0333725;29.9648;0.0501372;0.0510748;25.4518;0.03929;87.637;132.637;0.00284598;-0.0024334;0.00857186;0.0033443;0.0732464;-0.0239401;0.00828101;0;0.111617;-0.253951;-3.46103;-1.71847;3.87251;-7.58858;-0.00434326;-0.000146629;0.0819661;0.0819664;-0.00434351;0.0431549;0.0529885;18.872;0.0561481;0.0575399;18.871;0.0529914;91.4429;136.443;-3.55736e-06;-0.00434519;0.00182727;-0.00196307;0.0819646;0.000529903;0.075702;0;0.0736733;8.37699;3.25565
640000;641;;;;;;;;;;0.0297614;-1.35222;-0.732655;1.53823;-5.69092;-0.00230405;0.00556781;0.0720695;0.072484;-0.00271856;0.0376013;0.0319698;31.2795;0.0492539;0.050135;26.6627;0.0375056;87.9602;132.96;0.00804872;-0.00229263;0.00846909;0.00286776;0.0720505;-0.0257794;0.00567181;0;0.100119;-0.254055;-3.46759;-1.71624;3.8774;-7.58781;-0.00418384;-0.00051298;0.0812891;0.0812922;-0.00418692;0.0427396;0.0514686;19.4293;0.055643;0.0569861;19.4158;0.0515046;92.1482;137.148;0.000471076;-0.00418803;0.0021162;-0.00293432;0.0812872;0.000100587;0.0712302;0;0.0740994;8.38014;3.26315
641000;642;28.0317;2.28586;0.0887857;-2.98561;27.8109;-1.84904;-0.316393;2.21909;-0.962833;0.0301266;-1.346;-0.743777;1.53812;-5.70258;-0.00180694;0.00688489;0.0729315;0.0735605;-0.00243589;0.0379982;0.0247759;40.3618;0.0498721;0.0506642;30.1987;0.0331141;86.6872;131.687;5.73883e-05;-0.00179343;0.00942847;0.00451846;0.0729122;-0.0381105;0.0108133;0;0.115061;-0.255463;-3.47228;-1.7256;3.88583;-7.60042;-0.00390775;0.000234763;0.0827381;0.0827387;-0.00390839;0.0433236;0.0472304;21.1728;0.056507;0.0577647;21.1695;0.0472377;91.1026;136.103;0.00192773;-0.00390884;0.00210989;-0.00149031;0.082736;0.00114727;0.0690357;0;0.0770271;8.37546;3.27007
642000;643;;;;;;;;;;0.0300738;-1.34484;-0.738799;1.5347;-5.69353;-0.00274739;0.00545337;0.0721571;0.072552;-0.00314234;0.0378472;0.0380752;26.2638;0.0494487;0.0504629;23.0885;0.0433115;88.0921;133.092;-0.000940994;-0.00273627;0.00836167;0.00274822;0.0721383;-0.029088;0.000215782;0;0.113665;-0.25541;-3.47762;-1.71991;3.88809;-7.59002;-0.00407177;-0.000487312;0.0826815;0.0826842;-0.0040745;0.0433794;0.0492464;20.3061;0.0565299;0.0578391;20.2931;0.0492779;92.268;137.268;0.000592497;-0.00407663;0.00240831;-0.00315091;0.0826789;0.0025041;0.0772371;0;0.0782664;8.37497;3.27337
643000;644;;;;;;;;;;0.0302035;-1.34064;-0.740161;1.53169;-5.69488;-0.00283697;0.00479805;0.0718203;0.0721274;-0.00314406;0.0376357;0.0395009;25.3159;0.0491665;0.050181;22.9408;0.0435904;88.6442;133.644;-0.00514759;-0.00282747;0.00778109;0.00202277;0.0718028;-0.013303;-0.000921205;0;0.112796;-0.256235;-3.48276;-1.72558;3.89524;-7.59569;-0.00437795;-0.00055369;0.0828581;0.0828616;-0.00438147;0.0436215;0.0528368;18.9262;0.0567579;0.058162;18.9118;0.052877;91.8619;136.862;-0.00103043;-0.00438119;0.00167068;-0.00259886;0.0828569;-0.0026505;0.07534;0;0.0746718;8.38006;3.27992
644000;645;;;;;;;;;;0.0313805;-1.33809;-0.738513;1.52868;-5.69106;-0.00287645;0.00554009;0.0714732;0.0718838;-0.00328699;0.0375854;0.0402451;24.8477;0.0490549;0.0501138;21.8691;0.0457265;87.8301;132.83;-0.00659866;-0.00286577;0.00819808;0.0030665;0.0714562;-0.0160952;0.00540956;0;0.119852;-0.255882;-3.49014;-1.72347;3.90089;-7.59358;-0.00436728;-0.000384287;0.0836222;0.0836238;-0.00436896;0.0439964;0.0522264;19.1474;0.0572611;0.0586619;19.1404;0.0522454;91.6412;136.641;-0.00133144;-0.00436987;0.00170236;-0.00230149;0.0836209;-0.00435017;0.0805899;0;0.0753969;8.37688;3.28555
645000;646;;;;;;;;;;0.0312133;-1.33759;-0.743174;1.5305;-5.69088;-0.00282476;0.00368033;0.0722896;0.0724695;-0.00300465;0.0377371;0.0390756;25.5914;0.049345;0.0503161;24.1191;0.0414609;90.0636;135.064;-0.0163894;-0.00281799;0.00741403;0.000208146;0.0722703;-0.00710472;-0.00730633;0;0.112117;-0.256585;-3.49604;-1.7315;3.90976;-7.60914;-0.00421249;0.000816342;0.0848321;0.0848396;-0.00421997;0.0445298;0.0496567;20.1383;0.0580176;0.0593731;20.1043;0.0497406;90.4562;135.456;0.00235203;-0.00421231;0.00231506;-0.000559363;0.08483;-0.000185649;0.0745416;0;0.0853661;8.3764;3.29264
646000;647;;;;;;;;;;0.0324309;-1.32925;-0.740462;1.52192;-5.69786;-0.00164073;0.00476723;0.0739997;0.074299;-0.00194;0.0381195;0.0221721;45.1018;0.0501918;0.050826;38.2985;0.0261107;89.3393;134.339;-0.00378562;-0.0016299;0.00875788;0.00105756;0.0739746;-0.00318684;-0.00183873;0;0.13176;-0.257343;-3.50185;-1.73053;3.91458;-7.60283;-0.00428129;-0.000454318;0.084278;0.0842803;-0.00428362;0.044282;0.0507997;19.6852;0.0576678;0.0590426;19.675;0.0508259;91.9072;136.907;0.0019397;-0.00428485;0.0019907;-0.00269963;0.0842763;-0.00194445;0.0783635;0;0.0817221;8.3833;3.29995
647000;648;;;;;;;;;;0.0329509;-1.32917;-0.735835;1.51961;-5.68556;-0.00235252;0.0033724;0.0699691;0.070126;-0.00250944;0.0363177;0.0336223;29.7421;0.0476092;0.0484236;27.9449;0.0357847;90.552;135.552;0.00383724;-0.00234692;0.00745136;-0.000430898;0.0699484;-0.00950828;-0.00340366;0;0.116406;-0.257315;-3.50725;-1.72741;3.91803;-7.59752;-0.00435493;-6.41168e-05;0.0842692;0.0842692;-0.00435497;0.0443121;0.0516788;19.3503;0.057686;0.0590828;19.3501;0.0516793;91.3626;136.363;-0.000718474;-0.00435674;0.0019353;-0.00190011;0.0842674;-0.000777614;0.0795395;0;0.0781604;8.38189;3.30776
648000;649;;;;;;;;;;0.0330897;-1.32179;-0.74374;1.51703;-5.70042;-0.00115265;0.00433243;0.0726343;0.0728878;-0.00140616;0.037147;0.0158692;63.0152;0.0490673;0.0495293;51.8347;0.0192921;89.4976;134.498;0.00779554;-0.00114355;0.00815481;0.000772934;0.072612;-0.00154704;-0.00898125;0;0.125631;-0.258448;-3.51376;-1.73185;3.92588;-7.60195;-0.00436223;-0.000257226;0.0844366;0.0844373;-0.00436298;0.0444001;0.0516629;19.3563;0.0578008;0.0592002;19.3531;0.0516712;91.4949;136.495;-0.000885212;-0.00436443;0.00175834;-0.00210775;0.0844352;-0.000820117;0.0770397;0;0.0747366;8.37977;3.31512
649000;650;28.1049;2.35908;0.0916296;-2.986;27.8821;-1.88665;-0.316782;2.29033;-1.00044;0.0328675;-1.32073;-0.740117;1.51433;-5.69601;-0.00119434;0.00517169;0.0733129;0.0736701;-0.00155161;0.0376109;0.0162911;61.3833;0.0496387;0.0501478;47.4798;0.0210616;88.6823;133.682;-0.00656577;-0.00118267;0.00874086;0.00185022;0.0732897;-0.0232454;-0.0143739;0;0.114883;-0.258982;-3.52044;-1.73204;3.93199;-7.60215;-0.00433117;-0.000178499;0.0839653;0.0839657;-0.00433153;0.0441486;0.0515829;19.3863;0.0574754;0.0588648;19.3847;0.051587;91.4874;136.487;0.000217352;-0.00433333;0.00188956;-0.0020781;0.0839637;0.000379849;0.0761758;0;0.0748662;8.38395;3.32229
650000;651;;;;;;;;;;0.0332275;-1.31566;-0.747526;1.51356;-5.70835;-0.00180514;0.00491359;0.0726163;0.0729393;-0.00212816;0.0375337;0.0248586;40.2275;0.0493509;0.050045;34.2735;0.0291771;89.7807;134.781;-0.00809567;-0.00179319;0.00963403;0.000520583;0.0725843;0.00152247;0.00512611;0;0.112767;-0.260286;-3.52621;-1.73753;3.93966;-7.6091;-0.00427085;-0.000186783;0.0838729;0.0838733;-0.00427125;0.0440723;0.0509205;19.6385;0.0573923;0.0587631;19.6367;0.050925;91.6545;136.654;0.00290946;-0.00427351;0.00212408;-0.00230972;0.0838709;0.00541133;0.0747283;0;0.0819426;8.38521;3.32854
651000;652;28.1269;2.38106;0.0924831;-2.99649;27.9047;-1.86261;-0.327279;2.31297;-0.976397;0.0349735;-1.31013;-0.74996;1.51001;-5.7048;-0.000552671;0.00655703;0.072644;0.0732268;-0.00113542;0.0371811;0.00760793;131.442;0.0492007;0.0495748;64.4934;0.0155055;87.7001;132.7;0.0131509;-0.000535818;0.0103199;0.00305086;0.0726144;-0.0221655;0.0125213;0;0.111683;-0.260102;-3.53108;-1.74083;3.94546;-7.61239;-0.00404305;-0.00035681;0.0841247;0.0841262;-0.00404449;0.0440853;0.0480602;20.8072;0.0574797;0.0587804;20.8002;0.0480765;92.022;137.022;0.00376049;-0.00404707;0.00235954;-0.00285225;0.0841222;0.00240157;0.0726355;0;0.0861352;8.37998;3.33609
652000;653;28.1306;2.38475;0.0926267;-2.9883;27.9057;-1.91679;-0.319084;2.31391;-1.03058;0.0345377;-1.30487;-0.741856;1.50141;-5.70631;-0.00218443;0.00485838;0.0744846;0.0747912;-0.00249107;0.0386411;0.0293272;34.098;0.0507116;0.0515215;30.0238;0.0333069;89.4128;134.413;-5.6376e-05;-0.00217314;0.00897496;0.00103547;0.0744581;-0.0134868;-0.0108491;0;0.0968562;-0.260745;-3.53858;-1.73803;3.95099;-7.61356;-0.00426786;-0.000532986;0.0842601;0.0842633;-0.00427107;0.0442672;0.050651;19.7429;0.057652;0.0590229;19.7289;0.0506872;91.9141;136.914;-0.00104837;-0.00427142;0.00184486;-0.00271668;0.0842587;-0.00270266;0.0773333;0;0.0858826;8.38387;3.34188
653000;654;28.1492;2.40331;0.0933476;-2.99913;27.926;-1.87626;-0.329915;2.33421;-0.990052;0.0356117;-1.2998;-0.758798;1.5055;-5.71847;-0.0027658;0.00529984;0.0732172;0.0735851;-0.00313368;0.0383594;0.0377752;26.4724;0.0501339;0.0511458;23.482;0.0425858;88.5466;133.547;0.00314993;-0.00275415;0.00863093;0.00220454;0.0731956;-0.00415418;0.00936012;0;0.108375;-0.260735;-3.54088;-1.75012;3.95838;-7.62022;-0.00421845;-0.000485287;0.0856462;0.0856488;-0.00422107;0.0449349;0.0492544;20.3028;0.0585569;0.0599132;20.2908;0.0492835;91.8608;136.861;-0.000154847;-0.00422194;0.00191089;-0.00268312;0.0856446;-0.00273527;0.0795827;0;0.0801097;8.38709;3.34918
654000;655;;;;;;;;;;0.0351554;-1.29649;-0.749369;1.49789;-5.71212;-0.00241811;0.00486454;0.0758759;0.076177;-0.00271919;0.0394481;0.0318693;31.3782;0.0517149;0.0525975;28.0145;0.0356957;89.6812;134.681;0.010032;-0.00240651;0.00932992;0.000724043;0.0758464;-0.0307245;0.0171056;0;0.103311;-0.261386;-3.54679;-1.74382;3.96093;-7.61029;-0.00432749;1.15534e-05;0.0862513;0.0862513;-0.00432749;0.0452894;0.0501731;19.931;0.0589963;0.0603859;19.931;0.0501731;91.1987;136.199;0.00381188;-0.00432895;0.00188583;-0.00170643;0.0862497;0.00162896;0.085218;0;0.0830374;8.38274;3.35128
655000;656;;;;;;;;;;0.0349364;-1.29506;-0.749972;1.49695;-5.70519;-0.00348892;0.00471844;0.0757214;0.0760015;-0.003769;0.0398853;0.0460757;21.7034;0.0519696;0.0531803;20.1649;0.0495911;88.8405;133.84;0.0086318;-0.00347956;0.00775935;0.00190142;0.0757038;-0.0417382;0.0203737;0;0.109606;-0.261916;-3.55399;-1.74936;3.96985;-7.61725;-0.00408569;-0.000547778;0.0871457;0.087149;-0.00408898;0.045619;0.0468834;21.3295;0.0595092;0.0608253;21.3132;0.0469194;91.9937;136.994;0.00366801;-0.00408985;0.00205518;-0.00293229;0.0871439;-0.000639543;0.0821336;0;0.0875309;8.38382;3.35822
656000;657;;;;;;;;;;0.035525;-1.29189;-0.75548;1.497;-5.70658;-0.00254096;0.00506838;0.0782494;0.0785661;-0.00285769;0.0407119;0.0324726;30.7951;0.0533555;0.0542825;27.4929;0.036373;89.4907;134.491;0.00867004;-0.0025286;0.00945505;0.00101031;0.0782198;-0.0365613;0.0117084;0;0.119849;-0.262491;-3.56062;-1.75334;3.97758;-7.62469;-0.00436717;-0.000229559;0.0876176;0.0876182;-0.00436774;0.045993;0.0498435;20.0628;0.0599211;0.061324;20.0603;0.0498498;91.6765;136.676;0.0021345;-0.00437016;0.00219628;-0.00245023;0.0876154;0.00610979;0.0810056;0;0.0803687;8.39042;3.36583
657000;658;28.1966;2.45075;0.0951899;-2.99481;27.9768;-1.83767;-0.325593;2.38504;-0.951456;0.0353614;-1.286;-0.756081;1.49221;-5.7102;-0.00287804;0.00542593;0.0750899;0.0754657;-0.00325383;0.0393598;0.0383279;26.0907;0.0514294;0.0524797;23.1929;0.0431166;88.6807;133.681;0.0092296;-0.00286548;0.00901723;0.00209502;0.0750658;-0.019865;0.0245397;0;0.102775;-0.263906;-3.56508;-1.75788;3.98367;-7.62799;-0.00416381;-0.000125823;0.0867306;0.0867308;-0.00416398;0.0454474;0.0480085;20.8296;0.0592573;0.0605965;20.8288;0.0480104;91.2864;136.286;0.000776109;-0.00416554;0.00176577;-0.00185921;0.0867292;0.000419422;0.0787206;0;0.078057;8.38377;3.37183
658000;659;28.1972;2.4513;0.0952114;-2.99231;27.9735;-1.90029;-0.323093;2.38168;-1.01408;0.0347235;-1.28249;-0.758967;1.49065;-5.70621;-0.00277311;0.00448233;0.0775334;0.0777828;-0.00302252;0.0404027;0.0357667;27.959;0.0528915;0.0538702;25.7344;0.0388585;89.4104;134.41;-0.00199405;-0.00276364;0.00814166;0.00109568;0.077512;-0.0344548;-0.000658852;0;0.126583;-0.264223;-3.57004;-1.76409;3.99087;-7.6342;-0.00418634;-0.000368541;0.0864376;0.0864391;-0.00418784;0.0453135;0.048432;20.6475;0.0590715;0.0604179;20.6405;0.0484485;91.5314;136.531;-0.00102424;-0.00418876;0.001658;-0.00222604;0.0864364;0.000727735;0.0755458;0;0.0749322;8.38374;3.37944
659000;660;28.209;2.46318;0.095673;-3.0046;27.9869;-1.85881;-0.335382;2.39513;-0.972595;0.0362634;-1.27792;-0.757655;1.48608;-5.71171;-0.0022377;0.00522017;0.074422;0.0747758;-0.00259153;0.0386837;0.0300677;33.2583;0.0507364;0.0515782;28.8539;0.0346574;89.1483;134.148;0.00193766;-0.00222502;0.00933233;0.00140133;0.0743941;-0.0266313;0.0247718;0;0.126587;-0.265194;-3.57791;-1.76097;3.99659;-7.63108;-0.00409216;-0.000351171;0.0864369;0.0864383;-0.00409352;0.0452659;0.0473427;21.1226;0.0590374;0.0603545;21.1159;0.0473577;91.6177;136.618;0.00117305;-0.00409487;0.00182956;-0.00235019;0.0864355;0.000517396;0.0753452;0;0.0783676;8.38725;3.38641
660000;661;28.2237;2.47785;0.0962425;-3.00438;28.0012;-1.86581;-0.335163;2.40947;-0.979594;0.0369089;-1.27358;-0.762492;1.48484;-5.70994;-0.00256006;0.00440313;0.0777347;0.0779754;-0.00280079;0.0403881;0.0329333;30.3644;0.0529419;0.0538508;27.8405;0.0359189;89.5444;134.544;-0.0126586;-0.00255074;0.00819565;0.000893121;0.0777125;-0.00938268;-0.0059251;0;0.115154;-0.26515;-3.58386;-1.76347;4.00302;-7.63503;-0.00410332;-0.000434866;0.0862893;0.0862914;-0.00410541;0.0451984;0.047553;21.0291;0.0589437;0.0602645;21.0189;0.0475761;91.8116;136.812;0.00479838;-0.0041067;0.00196086;-0.00263124;0.0862876;0.00105671;0.0712436;0;0.0828739;8.38344;3.39408
661000;662;;;;;;;;;;0.0364893;-1.26585;-0.763752;1.47886;-5.72019;-0.00216643;0.00469919;0.0769881;0.0772661;-0.00244443;0.0398553;0.0281398;35.5369;0.0523446;0.0531404;31.609;0.0316365;89.1653;134.165;-0.0165811;-0.0021563;0.00829691;0.00136583;0.0769664;0.00203921;-0.0120652;0;0.114086;-0.266925;-3.58863;-1.76601;4.00853;-7.63758;-0.0041284;-0.00052163;0.086357;0.08636;-0.00413141;0.0452457;0.0478062;20.9178;0.0589987;0.0603276;20.9033;0.0478394;92.0757;137.076;0.0035452;-0.00413284;0.00220326;-0.00301956;0.0863549;-0.000447173;0.070162;0;0.092314;8.3801;3.40118
662000;663;;;;;;;;;;0.0382341;-1.26385;-0.768108;1.47945;-5.71738;-0.00216406;0.00386671;0.0784948;0.0786797;-0.00234901;0.0405144;0.0275695;36.2719;0.0532534;0.0540192;33.4949;0.0298553;90.118;135.118;-0.0235939;-0.00215657;0.00798509;5.62827e-05;0.0784722;0.00461534;-0.0057644;0;0.133229;-0.266298;-3.59327;-1.77479;4.01652;-7.64677;-0.00402275;-0.000386712;0.0871644;0.0871661;-0.00402439;0.0455952;0.0461513;21.6678;0.0594976;0.0607936;21.6594;0.0461693;91.8382;136.838;0.00488865;-0.00402632;0.00213265;-0.00269476;0.0871624;0.00205222;0.084768;0;0.0949483;8.38691;3.40901
663000;664;28.2428;2.49696;0.0969851;-3.00379;28.0157;-1.93807;-0.334578;2.4239;-1.05186;0.0382931;-1.25757;-0.768253;1.47416;-5.72472;-0.00243504;0.00479232;0.0755373;0.0758307;-0.00272849;0.0392796;0.0322363;31.0209;0.0514874;0.0523728;27.7923;0.0359813;89.2672;134.267;-0.0224332;-0.00242432;0.00860755;0.00125363;0.0755135;-0.0196102;-0.0103555;0;0.118953;-0.267568;-3.59943;-1.77797;4.02352;-7.6535;-0.00411171;-0.000313782;0.0878507;0.0878518;-0.00411279;0.0459823;0.0468034;21.366;0.0599858;0.0613097;21.3607;0.046815;92.0262;137.026;0.00194236;-0.00411613;0.00260117;-0.00298231;0.0878476;-0.002148;0.0829105;0;0.093747;8.38169;3.41617
664000;665;;;;;;;;;;0.0412586;-1.25315;-0.760691;1.46654;-5.7238;-0.000437331;0.00629568;0.0783046;0.0788048;-0.000937515;0.0398711;0.005585;179.051;0.0528518;0.0531615;84.057;0.0118967;87.9764;132.976;-0.0171511;-0.000421609;0.0099972;0.00286439;0.0782766;-0.0125021;-0.0146133;0;0.130348;-0.265696;-3.60602;-1.76684;4.02439;-7.63296;-0.00416466;-0.000309518;0.0887524;0.0887534;-0.00416569;0.0464596;0.0469245;21.3108;0.0606053;0.0619461;21.3058;0.0469355;91.9054;136.905;0.00465528;-0.00416864;0.0024499;-0.00283344;0.0887497;0.000179287;0.0803197;0;0.0880456;8.37854;3.41865
665000;666;;;;;;;;;;0.0402558;-1.24659;-0.774668;1.46824;-5.73734;-0.000286518;0.00511353;0.0790552;0.0793834;-0.000614725;0.0399991;0.00362428;275.917;0.0531284;0.0533321;129.136;0.00774375;89.373;134.373;-0.00280399;-0.000273856;0.00964942;0.000911074;0.0790242;-0.00887936;-0.00701;0;0.135041;-0.267851;-3.6109;-1.78124;4.03524;-7.64913;-0.0042551;-0.000462567;0.0892356;0.0892379;-0.00425739;0.0467476;0.0476839;20.9714;0.0609606;0.0623302;20.9607;0.0477083;91.4682;136.468;0.00328766;-0.00425745;0.00145256;-0.00221331;0.0892347;-0.00121856;0.0853553;0;0.084812;8.38481;3.42537
666000;667;;;;;;;;;;0.0401073;-1.2455;-0.764321;1.46187;-5.72809;-0.000883162;0.00464591;0.0780925;0.0783649;-0.00115553;0.0397602;0.0113092;88.4237;0.0526327;0.0530136;67.8173;0.0147455;89.9802;134.98;0.00708818;-0.000872369;0.00951463;0.000133759;0.0780605;-0.00747193;0.00672435;0;0.122497;-0.268549;-3.62016;-1.77301;4.03995;-7.64089;-0.00418539;-0.0001445;0.0893213;0.0893216;-0.00418562;0.0467536;0.0468577;21.3412;0.0609908;0.0623381;21.3401;0.0468601;91.3285;136.329;0.00370417;-0.00418735;0.00186392;-0.00198052;0.0893198;-0.000157784;0.0785933;0;0.0830676;8.38475;3.43149
667000;668;28.2991;2.55329;0.0991728;-3.00693;28.0772;-1.86378;-0.337712;2.48537;-0.977565;0.0403659;-1.23573;-0.771834;1.45752;-5.73944;-0.00124833;0.00358291;0.0777085;0.0778707;-0.00141058;0.0396407;0.0160643;62.2499;0.0523903;0.0528542;55.2046;0.0181144;91.4302;136.43;-0.00490139;-0.00124356;0.0094094;-0.00181681;0.0776734;-0.00432079;-0.022008;0;0.11583;-0.269109;-3.62351;-1.78364;4.04767;-7.65375;-0.00405625;-0.000397569;0.0887379;0.0887396;-0.00405796;0.0463988;0.0457105;21.8768;0.0605577;0.061865;21.868;0.0457288;91.6388;136.639;0.00139749;-0.00405919;0.0018464;-0.00245028;0.0887364;0.000583705;0.0759409;0;0.0744602;8.39468;3.44153
668000;669;28.3111;2.56523;0.0996367;-3.01004;28.0885;-1.86843;-0.340829;2.49677;-0.982223;0.0407654;-1.23294;-0.776784;1.45781;-5.74069;-0.00248755;0.00320779;0.0786646;0.0787912;-0.00261415;0.0407027;0.0316223;31.6233;0.0534201;0.0542702;30.1402;0.0331783;91.8089;136.809;0.00635004;-0.00248488;0.00908502;-0.00222737;0.0786311;0.00556705;0.00668666;0;0.126025;-0.270092;-3.63175;-1.78579;4.05606;-7.6559;-0.00413109;-0.000264919;0.0889046;0.0889053;-0.00413184;0.0465186;0.0464665;21.5209;0.0606944;0.0620248;21.5171;0.0464746;91.4972;136.497;0.00148292;-0.00413355;0.001886;-0.00223206;0.088903;0.00404178;0.0748754;0;0.0801226;8.39924;3.45344
669000;670;28.3165;2.57063;0.0998465;-3.01304;28.0919;-1.8941;-0.343828;2.50017;-1.00789;0.0411538;-1.23173;-0.771739;1.45411;-5.73195;-0.00187898;0.00437365;0.0788438;0.0790801;-0.00211525;0.0405977;0.0238316;41.961;0.0534391;0.0541302;37.3856;0.0267483;89.9623;134.962;0.013318;-0.00186943;0.00881815;0.000261636;0.0788166;-0.00289026;0.0177145;0;0.121516;-0.269731;-3.63893;-1.7864;4.06274;-7.65797;-0.00409844;-0.00059574;0.0890148;0.0890186;-0.00410225;0.0465604;0.0460422;21.7192;0.0607593;0.0620806;21.7;0.046083;91.8971;136.897;0.00274953;-0.00410236;0.00187702;-0.00285707;0.0890134;-0.000577887;0.0736358;0;0.0850658;8.3787;3.45237
670000;671;;;;;;;;;;0.0417422;-1.22855;-0.765866;1.44832;-5.72585;-0.00219469;0.00436358;0.0788309;0.0790652;-0.00242901;0.0407471;0.0278405;35.9189;0.0535382;0.0543295;32.5504;0.0307216;90.1286;135.129;0.00418857;-0.00218515;0.00900497;7.07049e-05;0.0788021;-0.0141035;-0.000800414;0;0.129103;-0.270333;-3.64238;-1.78327;4.06449;-7.65123;-0.00425203;-0.000381177;0.0893049;0.0893064;-0.00425358;0.04678;0.0476125;21.0029;0.0610049;0.0623733;20.9956;0.0476291;91.487;136.487;0.00403892;-0.00425447;0.0016472;-0.00223534;0.0893037;-0.000907698;0.0730487;0;0.0942166;8.36487;3.45905
671000;672;;;;;;;;;;0.0424177;-1.2243;-0.771365;1.44766;-5.72549;-0.00164212;0.00566603;0.0819645;0.0823468;-0.00202436;0.0421856;0.0200345;49.9138;0.0555849;0.0562474;40.6779;0.0245834;88.5385;133.539;0.00788463;-0.0016287;0.00931223;0.00230152;0.0819393;-0.0290199;-0.00542098;0;0.135362;-0.270573;-3.64741;-1.7884;4.07126;-7.66038;-0.00428018;-0.00053792;0.0897075;0.0897106;-0.00428326;0.0469969;0.0477126;20.9588;0.0612847;0.0626626;20.9445;0.0477453;91.8047;136.805;0.00213627;-0.00428378;0.00186369;-0.00273238;0.089706;-0.000858984;0.0811492;0;0.0902706;8.36836;3.46661
672000;673;;;;;;;;;;0.0432661;-1.21884;-0.775425;1.44525;-5.73308;-0.00204971;0.0035806;0.0791863;0.0793438;-0.00220722;0.0407755;0.0258846;38.6329;0.0536467;0.0543673;35.9473;0.0278185;90.9838;135.984;0.00388399;-0.00204395;0.00869667;-0.00115043;0.0791572;-0.0146307;-0.000461019;0;0.116951;-0.27149;-3.65341;-1.79589;4.07999;-7.67204;-0.00402116;-0.000433827;0.0908418;0.0908438;-0.00402314;0.0474335;0.0442655;22.591;0.0619471;0.0632446;22.5803;0.0442864;91.9196;136.92;0.0010932;-0.0040254;0.00230929;-0.00293839;0.0908394;-0.00388708;0.0802327;0;0.0896038;8.37235;3.47383
673000;674;;;;;;;;;;0.0436387;-1.22034;-0.77009;1.44366;-5.72253;-0.00219719;0.00420174;0.0789502;0.0791672;-0.00241417;0.0407907;0.02783;35.9324;0.053601;0.0543876;32.7927;0.0304946;90.4878;135.488;-0.00420265;-0.00218843;0.00920502;-0.000425324;0.0789191;-0.0112426;0.00445014;0;0.1121;-0.271038;-3.66004;-1.78997;4.0833;-7.66585;-0.00428731;0.000266961;0.0921416;0.0921423;-0.00428805;0.0482152;0.0465296;21.4917;0.0629063;0.0642869;21.4881;0.0465373;90.785;135.785;0.00290678;-0.00428797;0.00184785;-0.00117435;0.0921401;-0.00286822;0.078605;0;0.0854411;8.37605;3.47944
674000;675;;;;;;;;;;0.0441641;-1.21362;-0.771889;1.43897;-5.72799;-0.00300412;0.0035456;0.0814923;0.0816408;-0.00315263;0.0423967;0.0368638;27.1269;0.055508;0.056529;25.8961;0.0386159;91.8529;136.853;-0.00224404;-0.00300048;0.00989357;-0.00230653;0.0814529;-0.0288653;0.00557631;0;0.12318;-0.271857;-3.66577;-1.79403;4.09027;-7.66745;-0.00422269;-0.000335721;0.0915065;0.0915077;-0.00422387;0.0478658;0.0461464;21.6702;0.0624607;0.063821;21.6644;0.0461586;91.7055;136.705;0.00316141;-0.00422608;0.00216851;-0.00262032;0.0915044;-0.00520865;0.0861004;0;0.0878178;8.38357;3.48519
675000;676;;;;;;;;;;0.0433688;-1.21508;-0.779458;1.44425;-5.71838;-0.00200542;0.00474601;0.0824576;0.0827235;-0.00227126;0.0424974;0.0243206;41.1174;0.0559215;0.0566632;36.4218;0.0274561;89.831;134.831;-0.000992633;-0.00199425;0.00938043;0.000473131;0.0824274;-0.0117882;-0.00298164;0;0.115445;-0.272709;-3.66944;-1.79963;4.09608;-7.66752;-0.00415707;-0.000301716;0.0911555;0.0911564;-0.00415803;0.0476572;0.0456042;21.9278;0.0622033;0.063543;21.923;0.0456142;91.5368;136.537;0.00536107;-0.00415981;0.00194574;-0.00235285;0.0911538;-0.00211288;0.0804706;0;0.0864526;8.38512;3.49115
676000;677;28.3882;2.64231;0.10263;-3.0185;28.1649;-1.87543;-0.349284;2.57308;-0.989219;0.0456421;-1.20402;-0.780757;1.43574;-5.7341;-0.00221071;0.00274383;0.0833476;0.0834355;-0.00229861;0.0428671;0.026524;37.7017;0.0564055;0.0571561;36.2982;0.0275496;92.5615;137.561;-0.0108647;-0.00221315;0.00954523;-0.00352053;0.0833091;-0.0285783;-0.00963222;0;0.147121;-0.271572;-3.67564;-1.80134;4.1023;-7.67144;-0.00423249;-0.000387384;0.0908122;0.0908138;-0.00423407;0.0475239;0.0466071;21.456;0.0620021;0.0633653;21.4483;0.0466236;91.3217;136.322;0.00131444;-0.00423448;0.0014072;-0.00202561;0.0908114;-0.000618404;0.0820615;0;0.0791082;8.3874;3.49679
677000;678;28.3976;2.65177;0.102998;-3.02317;28.1729;-1.89043;-0.353957;2.58111;-1.00422;0.0460181;-1.1985;-0.78137;1.43145;-5.73828;-0.00228543;0.00582768;0.080409;0.0808177;-0.0026941;0.0417559;0.0284225;35.1834;0.0547986;0.0556745;29.9981;0.0333355;88.8409;133.841;-0.0159254;-0.00227028;0.0100442;0.0019338;0.0803781;-0.026832;-0.00481462;0;0.115338;-0.273105;-3.68254;-1.80298;4.10931;-7.67309;-0.00403577;-0.000332813;0.0909634;0.0909646;-0.00403694;0.0475008;0.044367;22.5393;0.0620325;0.0633344;22.5331;0.0443792;91.5162;136.516;0.0013743;-0.00403842;0.00184625;-0.00232213;0.0909619;0.00304896;0.0780698;0;0.0802867;8.38811;3.50381
678000;679;28.4078;2.66195;0.103393;-3.02288;28.1833;-1.88935;-0.353663;2.59148;-1.00314;0.0451969;-1.1924;-0.783485;1.42749;-5.7422;-0.00233272;0.00346278;0.0816661;0.0818086;-0.00247522;0.0421419;0.0285641;35.009;0.0553826;0.0561892;33.051;0.0302563;91.0948;136.095;-0.0141747;-0.00232759;0.0086587;-0.00132972;0.081637;0.0138282;0.00125864;0;0.112179;-0.274578;-3.68854;-1.80566;4.11596;-7.67577;-0.00401057;-0.000396349;0.090991;0.0909926;-0.00401222;0.0475024;0.0440766;22.6878;0.0620424;0.0633366;22.6789;0.0440939;91.5041;136.504;0.00159832;-0.00401317;0.00170035;-0.00231047;0.0909897;0.0045481;0.0773233;0;0.0813551;8.38736;3.51183
679000;680;;;;;;;;;;0.0461585;-1.18612;-0.786789;1.4241;-5.74658;-0.00158639;0.00282184;0.0833172;0.0834109;-0.00168008;0.0425455;0.0190404;52.5199;0.0561756;0.0567273;49.6471;0.0201422;91.8419;136.842;-0.00178973;-0.00158564;0.00864168;-0.00254195;0.0832864;0.0027277;0.00295969;0;0.13447;-0.275287;-3.69187;-1.81196;4.12176;-7.67844;-0.00413063;-0.000114417;0.0909291;0.0909292;-0.00413077;0.04753;0.045427;22.0134;0.0620423;0.0633733;22.0127;0.0454284;91.0149;136.015;0.00458472;-0.00413182;0.00144947;-0.00154203;0.0909282;0.0012045;0.0774811;0;0.0961305;8.38567;3.51885
680000;681;;;;;;;;;;0.0463899;-1.18301;-0.788991;1.42274;-5.74713;-0.00158065;0.00348716;0.0831428;0.0832861;-0.00172393;0.042505;0.0190112;52.6005;0.0561076;0.0566734;48.3117;0.0206989;91.3092;136.309;0.00404438;-0.00157609;0.0091666;-0.00174813;0.0831097;-0.0144386;-0.00213626;0;0.127988;-0.275939;-3.69881;-1.81484;4.12928;-7.68109;-0.0043307;-0.000692159;0.0903412;0.0903462;-0.00433577;0.047341;0.0479372;20.8606;0.0617268;0.0631213;20.8374;0.0479906;92.0734;137.073;0.00351351;-0.0043355;0.00201913;-0.00316803;0.0903395;0.000210673;0.076128;0;0.108524;8.38392;3.52677
681000;682;;;;;;;;;;0.0472392;-1.1789;-0.791383;1.42068;-5.75284;-0.00145739;0.00328529;0.0818639;0.0819932;-0.00158673;0.04179;0.0178026;56.1715;0.0551986;0.05572;51.6744;0.0193519;92.0185;137.018;0.00307625;-0.00145577;0.00982407;-0.00275002;0.0818243;-0.0100457;0.000384543;0;0.127582;-0.276603;-3.70547;-1.82099;4.138;-7.69266;-0.00412059;-0.000514926;0.0917602;0.091763;-0.00412335;0.0479432;0.0449061;22.2687;0.062595;0.0639242;22.2544;0.0449348;91.8205;136.82;0.00609524;-0.00412445;0.00201382;-0.00282159;0.0917585;0.000571814;0.0814788;0;0.0980172;8.38166;3.53388
682000;683;;;;;;;;;;0.0475188;-1.17317;-0.791548;1.41602;-5.7551;-0.00136749;0.00293847;0.0835876;0.0836892;-0.00146901;0.0425791;0.01636;61.1248;0.0562888;0.0567721;56.9699;0.0175531;92.4144;137.414;0.0103967;-0.00136899;0.00982675;-0.00340987;0.0835471;-0.00842537;-0.00787741;0;0.125631;-0.277807;-3.71159;-1.82163;4.14384;-7.6933;-0.00416004;-0.000728253;0.0921705;0.092176;-0.00416555;0.0481708;0.0451342;22.1562;0.0628852;0.0642277;22.1282;0.0451912;91.9651;136.965;0.00581191;-0.00416452;0.00184443;-0.00307401;0.0921692;-0.00125994;0.0810103;0;0.0963986;8.3801;3.54126
683000;684;;;;;;;;;;0.0479932;-1.16942;-0.788659;1.41132;-5.75075;-0.0023915;0.00380779;0.083761;0.083929;-0.00255947;0.0432442;0.0285515;35.0244;0.056825;0.057659;32.7915;0.0304957;90.9143;135.914;0.0126869;-0.00238483;0.00912959;-0.00109105;0.0837292;-0.0335586;0.014113;0;0.126988;-0.277347;-3.71839;-1.81914;4.14881;-7.69163;-0.0043922;-0.000452145;0.092057;0.0920592;-0.00439432;0.0482267;0.0477118;20.9592;0.0628887;0.0643023;20.9496;0.0477337;91.5852;136.585;0.00623185;-0.00439514;0.0017494;-0.00245925;0.0920557;-0.00617125;0.0860328;0;0.0837673;8.37988;3.54832
684000;685;;;;;;;;;;0.0485168;-1.1665;-0.786277;1.40759;-5.7459;-0.00278647;0.00418253;0.0827991;0.083003;-0.00299039;0.0429967;0.0336534;29.7146;0.0563586;0.0573289;27.7566;0.0360275;89.9659;134.966;0.00940138;-0.00277776;0.00836509;0.000330498;0.0827748;-0.0260551;0.00278465;0;0.127291;-0.277479;-3.72623;-1.81907;4.15582;-7.69249;-0.00423762;-0.000402191;0.0925183;0.0925199;-0.00423929;0.0483796;0.0458031;21.8326;0.0631405;0.0645062;21.8244;0.0458203;91.3802;136.38;0.00458569;-0.00423987;0.00152126;-0.00215529;0.0925173;-0.00462464;0.0825787;0;0.0891425;8.37882;3.55585
685000;686;28.4923;2.74643;0.106675;-3.02701;28.2688;-1.87727;-0.357798;2.67699;-0.991056;0.0489786;-1.16267;-0.784867;1.40364;-5.74258;-0.00263719;0.00493237;0.0831199;0.0834027;-0.00291994;0.0431613;0.0317275;31.5184;0.0566002;0.0575484;28.5631;0.0350102;89.9172;134.917;0.00731894;-0.00262508;0.00981968;0.000431924;0.0830866;-0.00816001;0.0193508;0;0.11977;-0.277957;-3.7301;-1.81839;4.15902;-7.68849;-0.00419837;-0.000292259;0.0929886;0.0929895;-0.00419924;0.0485944;0.0451492;22.1488;0.0634391;0.0647925;22.1443;0.0451583;91.1141;136.114;0.0025391;-0.00419985;0.00130354;-0.00174616;0.0929879;-0.00225747;0.0820952;0;0.0778486;8.37917;3.56234
686000;687;28.4993;2.75343;0.106947;-3.03194;28.2742;-1.89398;-0.362721;2.68241;-1.00777;0.0487957;-1.16142;-0.790608;1.40583;-5.74076;-0.0027275;0.00422541;0.0863179;0.0865179;-0.00292756;0.0447227;0.0315983;31.6472;0.0586788;0.0596303;29.5529;0.0338376;90.7534;135.753;0.00587358;-0.0027189;0.0097441;-0.000841025;0.0862824;-0.00992239;0.0290497;0;0.123299;-0.278888;-3.73636;-1.82464;4.16743;-7.69475;-0.00405949;-0.000282672;0.0932714;0.0932722;-0.00406031;0.0486663;0.0435234;22.9762;0.0635782;0.0648884;22.9717;0.0435318;91.4918;136.492;0.000890529;-0.00406219;0.00197517;-0.0023395;0.0932697;-0.00155716;0.080837;0;0.0827876;8.37844;3.56892
687000;688;;;;;;;;;;0.0502537;-1.15083;-0.793951;1.39904;-5.75893;-0.00290126;0.00319399;0.0836994;0.0838171;-0.0030189;0.043418;0.0346629;28.8493;0.056911;0.0578906;27.7641;0.0360178;92.2311;137.231;-0.00726709;-0.00290054;0.00988145;-0.00295918;0.0836591;-0.0242822;0.0106878;0;0.119997;-0.279226;-3.73964;-1.82828;4.17199;-7.69475;-0.00396502;-0.000297729;0.0929974;0.0929983;-0.00396593;0.0484821;0.0426358;23.4545;0.0633622;0.0646428;23.4493;0.0426452;91.4858;136.486;0.00163266;-0.00396769;0.00192872;-0.00232666;0.0929957;0.00643543;0.0777485;0;0.0893154;8.37835;3.57247
688000;689;;;;;;;;;;0.0510636;-1.14968;-0.796027;1.3993;-5.75207;-0.00322066;0.00402831;0.0860213;0.0862028;-0.00340213;0.0448025;0.0374403;26.7092;0.0586355;0.0597366;25.3379;0.0394666;91.2402;136.24;0.000103103;-0.00321366;0.0100608;-0.00150854;0.0859822;-0.0141204;0.0199357;0;0.116463;-0.279212;-3.74693;-1.8284;4.17857;-7.69487;-0.00433645;-7.36124e-05;0.093036;0.093036;-0.00433651;0.0486863;0.0466105;21.4544;0.0635189;0.064915;21.4541;0.0466111;91.3233;136.323;0.00280973;-0.00433856;0.00209382;-0.00204796;0.093034;0.0051665;0.0739324;0;0.09271;8.37727;3.57761
689000;690;;;;;;;;;;0.0513289;-1.14197;-0.795315;1.39257;-5.75506;-0.0026021;0.00297664;0.0860205;0.0861204;-0.00270197;0.0444112;0.0302498;33.0581;0.0583351;0.0592149;31.8732;0.0313743;92.2298;137.23;-0.0145742;-0.00260247;0.00958984;-0.00309701;0.0859823;0.000603818;-0.0197286;0;0.12009;-0.280447;-3.75315;-1.83388;4.18663;-7.70555;-0.00437423;-0.000362051;0.0938582;0.0938595;-0.00437557;0.0491175;0.0466047;21.4571;0.0640814;0.0654901;21.4508;0.0466183;91.5322;136.532;0.00258161;-0.0043771;0.00189641;-0.00241769;0.0938566;-0.000333226;0.0769979;0;0.0954258;8.37724;3.5845
690000;691;28.5352;2.78933;0.108341;-3.03711;28.308;-1.92053;-0.367891;2.71624;-1.03459;0.0518426;-1.13856;-0.795362;1.38982;-5.75335;-0.00243465;0.00251209;0.0886407;0.0887099;-0.00250389;0.0456069;0.0274665;36.4079;0.059992;0.0608092;35.4288;0.0282256;92.726;137.726;-0.00871449;-0.00243952;0.00962009;-0.00400136;0.0886011;-0.011488;-0.0301174;0;0.128673;-0.280159;-3.75642;-1.83126;4.1884;-7.69442;-0.00441846;-0.000582132;0.0923195;0.092323;-0.00442197;0.0483725;0.0478606;20.894;0.0630743;0.0644966;20.8783;0.0478967;91.8754;136.875;0.00122062;-0.00442258;0.00198547;-0.00292234;0.0923178;0.00825669;0.0794768;0;0.0892185;8.37786;3.59178
691000;692;;;;;;;;;;0.051434;-1.13807;-0.792738;1.3879;-5.74356;-0.00316717;0.00257924;0.0892999;0.0893718;-0.00323906;0.0463054;0.0354667;28.1955;0.0606897;0.0617406;27.5919;0.0362425;92.3036;137.304;-0.00900604;-0.00316931;0.00900815;-0.00330403;0.0892657;-0.0106823;-0.049066;0;0.124378;-0.281312;-3.76511;-1.83704;4.1988;-7.70871;-0.00436151;-0.000623367;0.0937057;0.0937096;-0.00436547;0.0490376;0.0465448;21.4847;0.0639779;0.0653834;21.4661;0.0465851;91.821;136.821;0.00495517;-0.0043655;0.00186353;-0.00288728;0.0937043;-0.00163589;0.0819157;0;0.095564;8.37651;3.59973
692000;693;;;;;;;;;;0.0534696;-1.13103;-0.796412;1.38432;-5.75283;-0.00249566;0.00216209;0.086546;0.0865984;-0.00254813;0.0445733;0.0288362;34.6786;0.0586001;0.059431;33.9851;0.0294247;93.3034;138.303;-0.00380853;-0.00250473;0.00971523;-0.00477217;0.0865047;0.0162755;0.00287043;0;0.155101;-0.281051;-3.77281;-1.83711;4.20572;-7.7096;-0.00446991;-0.000534398;0.0943049;0.0943078;-0.0044728;0.0493903;0.0473985;21.0977;0.0644146;0.0658537;21.0847;0.0474277;91.5689;136.569;0.00648561;-0.00447291;0.00162708;-0.00250077;0.0943039;-0.00431471;0.084384;0;0.0872796;8.37648;3.60612
693000;694;28.5699;2.82403;0.109689;-3.03101;28.3417;-1.94888;-0.361799;2.74995;-1.06267;0.0529222;-1.12883;-0.79153;1.3797;-5.74754;-0.00255197;0.0021506;0.0866709;0.0867227;-0.00260377;0.0446632;0.0294443;33.9624;0.0587023;0.059551;33.3065;0.0300241;92.9807;137.981;-0.00179862;-0.00255886;0.00916522;-0.00428816;0.0866343;0.00148674;-0.00591745;0;0.157086;-0.282822;-3.77999;-1.83956;4.21334;-7.71509;-0.00420466;-0.000541356;0.0937066;0.0937096;-0.00420765;0.0489586;0.0448705;22.2864;0.0639218;0.0652782;22.2712;0.044901;91.6153;136.615;0.00193395;-0.00420781;0.00167877;-0.00256273;0.0937054;-0.0037909;0.0822177;0;0.0857007;8.37629;3.61385
694000;695;28.5798;2.83398;0.110075;-3.03442;28.3519;-1.94186;-0.365208;2.76009;-1.05565;0.0536425;-1.12023;-0.79429;1.3743;-5.75543;-0.0024669;0.00275596;0.0880935;0.0881773;-0.00255069;0.045364;0.0280032;35.7102;0.0596533;0.0604853;34.57;0.0289268;92.0738;137.074;0.000808418;-0.00246751;0.00899944;-0.00296797;0.0880598;-0.0299013;-0.015143;0;0.125395;-0.283275;-3.78564;-1.84214;4.21957;-7.71767;-0.00440107;-0.000489414;0.0941562;0.0941586;-0.0044035;0.049281;0.0467422;21.3939;0.0642905;0.0657081;21.3827;0.0467668;91.3684;136.368;0.00202361;-0.00440334;0.0013694;-0.00218079;0.0941554;-0.00434861;0.0803628;0;0.0790201;8.37538;3.62079
695000;696;28.5947;2.84881;0.110651;-3.03168;28.3683;-1.92469;-0.362469;2.7765;-1.03848;0.0542849;-1.11925;-0.799457;1.37652;-5.75304;-0.00228363;0.00259029;0.0892013;0.0892746;-0.00235691;0.0458157;0.0256009;39.0612;0.0603174;0.0610877;37.8778;0.0264007;92.4607;137.461;0.00211531;-0.00228688;0.00938275;-0.00363175;0.089164;-0.00260551;-0.015135;0;0.128687;-0.282746;-3.79184;-1.84539;4.22652;-7.72014;-0.00406099;-0.000415877;0.0948704;0.0948722;-0.00406274;0.0494675;0.0428056;23.3614;0.0646449;0.0659566;23.3518;0.0428232;91.6896;136.69;-0.000159598;-0.00406457;0.00210048;-0.00270486;0.0948685;0.00191937;0.0762275;0;0.0862981;8.3763;3.62847
696000;697;;;;;;;;;;0.0537198;-1.11456;-0.804814;1.37581;-5.75915;-0.00273491;0.00283728;0.0876858;0.0877747;-0.00282386;0.0452993;0.0311899;32.0616;0.0594801;0.0603991;31.0833;0.0321716;92.2312;137.231;0.00477219;-0.00273588;0.00937687;-0.00315876;0.0876491;0.00243537;-0.0130908;0;0.113371;-0.284267;-3.79586;-1.85223;4.23322;-7.72338;-0.00388801;-0.000389584;0.0945435;0.094545;-0.00388955;0.0492173;0.041124;24.3167;0.0643657;0.065623;24.3075;0.0411396;91.4399;136.44;0.00386101;-0.00389059;0.00171268;-0.00230279;0.0945422;0.0041155;0.0779168;0;0.0897588;8.37462;3.63542
697000;698;;;;;;;;;;0.0568722;-1.10652;-0.807396;1.37095;-5.76761;-0.00247733;0.00319525;0.0879816;0.0880943;-0.00259006;0.0453422;0.0281574;35.5146;0.0596117;0.0604563;34.0125;0.029401;92.6048;137.605;0.00269247;-0.00247928;0.0107752;-0.00375465;0.087933;0.00116447;0.00688915;0;0.124079;-0.283384;-3.80259;-1.85023;4.23832;-7.72221;-0.00421316;-0.000231229;0.0949602;0.0949608;-0.0042137;0.0495872;0.0443676;22.539;0.0647574;0.0661163;22.5362;0.044373;91.1598;136.16;0.0047049;-0.00421485;0.00154935;-0.00185054;0.0949591;0.00421981;0.0797389;0;0.0926337;8.37613;3.64076
698000;699;;;;;;;;;;0.0574196;-1.10007;-0.800125;1.36149;-5.76293;-0.00238827;0.00391475;0.0885267;0.0886949;-0.00255653;0.0456257;0.026978;37.0672;0.0600003;0.0608343;34.6935;0.0288239;91.1272;136.127;0.004451;-0.00238172;0.00981969;-0.00149711;0.0884894;-0.0239347;0.00277683;0;0.127789;-0.283578;-3.80557;-1.84606;4.23919;-7.70967;-0.00405517;0.000364327;0.0941739;0.0941753;-0.00405652;0.0491159;0.0430605;23.2232;0.0641784;0.0654879;23.2158;0.0430742;90.8531;135.853;0.00314272;-0.00405596;0.00219908;-0.00130572;0.0941718;0.00584182;0.0829686;0;0.0916059;8.37423;3.64728
699000;700;;;;;;;;;;0.0564986;-1.0982;-0.796436;1.35777;-5.76011;-0.00318212;0.00176568;0.0900167;0.0900501;-0.00321556;0.0466328;0.0353503;28.2883;0.0611335;0.0621771;28.0045;0.0357085;92.9835;137.983;0.00836;-0.00319038;0.00853518;-0.00442507;0.0899847;-0.0061364;0.00204878;0;0.125041;-0.285167;-3.81274;-1.84534;4.24542;-7.70851;-0.00461273;-0.000611986;0.0940165;0.0940203;-0.00461653;0.0493184;0.049063;20.382;0.0642743;0.0657579;20.366;0.0491014;91.8673;136.867;0.000199706;-0.00461695;0.00197134;-0.00296241;0.0940149;0.0168151;0.081553;0;0.0932146;8.37262;3.6519
700000;701;;;;;;;;;;0.0590443;-1.08822;-0.804483;1.35459;-5.77026;-0.00235635;0.00294752;0.0907182;0.0908114;-0.0024496;0.0466305;0.0259744;38.4994;0.0613738;0.062174;37.0719;0.0269746;92.7638;137.764;-0.00698813;-0.00236066;0.0107152;-0.00415743;0.0906695;-0.0228753;-0.0212008;0;0.122776;-0.285328;-3.82031;-1.85653;4.2571;-7.7282;-0.00456429;-0.000613726;0.0954661;0.0954699;-0.00456805;0.050019;0.0478105;20.9159;0.0652226;0.066692;20.8995;0.0478481;91.7047;136.705;0.00528027;-0.0045679;0.00173991;-0.00275244;0.0954649;-0.00417129;0.0849273;0;0.0947104;8.37255;3.65811
701000;702;;;;;;;;;;0.0578758;-1.08804;-0.803623;1.35388;-5.76376;-0.00335256;0.00393155;0.0893814;0.0895478;-0.00351894;0.0465334;0.0375084;26.6607;0.0609054;0.0620445;25.4474;0.0392968;91.9717;136.972;0.00252744;-0.00334846;0.011181;-0.00270099;0.0893311;-0.0381688;0.00769011;0;0.126294;-0.286173;-3.82687;-1.85859;4.26394;-7.73108;-0.00433669;-0.000612787;0.0950046;0.0950083;-0.00434047;0.0496744;0.0456472;21.9072;0.0648342;0.0662325;21.889;0.0456851;91.7555;136.756;0.00592193;-0.00434051;0.00181887;-0.00282384;0.0950032;-0.00337935;0.0875408;0;0.0878815;8.37226;3.66472
702000;703;28.6783;2.93241;0.113898;-3.03797;28.4523;-1.91898;-0.368752;2.86048;-1.03277;0.0589043;-1.081;-0.809045;1.35152;-5.77175;-0.00306258;0.00297875;0.0903954;0.0904903;-0.00315743;0.0468239;0.0338798;29.5161;0.0614064;0.0624318;28.6595;0.0348924;92.4694;137.469;-0.0196746;-0.00306462;0.0101714;-0.0035975;0.0903521;-0.0045939;-0.0208339;0;0.118236;-0.287223;-3.83313;-1.86558;4.27267;-7.74111;-0.00435609;-0.000360882;0.0953545;0.0953558;-0.0043574;0.0498566;0.0456832;21.8899;0.0650716;0.0664754;21.8836;0.0456962;91.3799;136.38;6.64092e-05;-0.00435849;0.00168019;-0.00221615;0.0953532;-0.00201399;0.0842862;0;0.0848597;8.37152;3.67207
703000;704;28.6845;2.9386;0.114139;-3.04409;28.457;-1.93202;-0.374872;2.86519;-1.04581;0.0597337;-1.07947;-0.806887;1.34904;-5.76409;-0.0027944;0.00369352;0.0917512;0.0918953;-0.00293847;0.0474169;0.0304562;32.834;0.0622661;0.0632225;31.2732;0.0319763;91.7367;136.737;-0.00679893;-0.00279068;0.0104699;-0.00249612;0.0917073;-0.0148069;-0.0215799;0;0.120276;-0.286606;-3.84073;-1.862;4.27789;-7.73754;-0.00447263;-0.000327167;0.0957067;0.0957078;-0.0044737;0.0500908;0.0467326;21.3983;0.0653475;0.0667877;21.3935;0.0467433;91.3147;136.315;0.00216877;-0.00447482;0.00164122;-0.00211559;0.0957056;-0.00631957;0.0857889;0;0.0870759;8.3715;3.67913
704000;705;;;;;;;;;;0.059395;-1.07404;-0.816995;1.35077;-5.7684;-0.00241369;0.00208454;0.0923475;0.0923933;-0.00245952;0.0474264;0.0261371;38.2599;0.0624315;0.0632352;37.5655;0.0266201;93.2601;138.26;-0.0103093;-0.00242433;0.00990332;-0.00505607;0.0923046;-0.00740063;-0.0363106;0;0.119296;-0.287502;-3.84525;-1.87204;4.28639;-7.74893;-0.00415644;-0.000418595;0.0962111;0.0962128;-0.00415818;0.0501855;0.0432013;23.1475;0.0655719;0.066914;23.1382;0.0432186;91.4868;136.487;0.0027956;-0.00415928;0.00178068;-0.0024165;0.0962097;0.00409474;0.0815182;0;0.083683;8.36902;3.6871
705000;706;;;;;;;;;;0.0597445;-1.07441;-0.807952;1.34563;-5.7575;-0.00266197;0.0016917;0.0928298;0.0928597;-0.00269193;0.0477758;0.0286759;34.8725;0.062823;0.0637011;34.4956;0.0289892;93.4031;138.403;-0.0166727;-0.00267463;0.00935422;-0.00530134;0.0927911;0.00155414;-0.036076;0;0.117616;-0.286806;-3.84917;-1.86402;4.28637;-7.7305;-0.0040863;-6.76938e-05;0.096871;0.0968711;-0.00408634;0.0504787;0.0421828;23.7063;0.065985;0.0673049;23.7061;0.0421833;91.2143;136.214;0.00387145;-0.00408823;0.00202221;-0.00196524;0.0968692;0.00304407;0.080808;0;0.0892533;8.36876;3.69411
706000;707;;;;;;;;;;0.0604283;-1.06288;-0.820063;1.34383;-5.77092;-0.00225188;0.00200921;0.0928579;0.0929003;-0.0022943;0.0475973;0.0242508;41.2358;0.0627123;0.0634631;40.4918;0.0246964;93.0291;138.029;-0.0131986;-0.00226107;0.0093924;-0.00473151;0.0928194;0.000415418;-0.0585563;0;0.131468;-0.28888;-3.85441;-1.8775;4.29709;-7.74917;-0.00430391;-0.000415923;0.0968643;0.0968661;-0.00430562;0.0505858;0.0444324;22.5061;0.0660594;0.0674478;22.4976;0.0444493;91.6052;136.605;0.00502186;-0.00430728;0.00201306;-0.00262087;0.0968626;0.00704228;0.0770832;0;0.0985248;8.36849;3.70157
707000;708;;;;;;;;;;0.0615932;-1.05634;-0.820422;1.33893;-5.77551;-0.00256924;0.00257196;0.0938721;0.0939407;-0.00263778;0.0482892;0.0273696;36.5369;0.0635246;0.0643856;35.6135;0.0280793;92.8482;137.848;-0.0137218;-0.00257581;0.0102616;-0.00443983;0.093827;-0.0164012;-0.0320827;0;0.135338;-0.28916;-3.85936;-1.87787;4.30171;-7.74573;-0.00426218;0.000248356;0.0954768;0.0954774;-0.0042628;0.0498701;0.044641;22.4009;0.0651191;0.0664935;22.3978;0.0446472;90.9202;135.92;0.00592592;-0.00426319;0.00210293;-0.00143736;0.0954748;-0.00215174;0.0863327;0;0.101215;8.36846;3.70889
708000;709;28.7346;2.98878;0.116088;-3.05378;28.5038;-1.97214;-0.38456;2.91198;-1.0862;0.061772;-1.05312;-0.819455;1.33581;-5.77242;-0.00236564;0.0023757;0.094397;0.0944553;-0.00242393;0.0484396;0.0250605;39.9034;0.0637935;0.0645862;38.9678;0.0256622;92.9129;137.913;-0.00365545;-0.00237342;0.0100292;-0.0046012;0.0943536;-0.00584607;-0.0441175;0;0.12064;-0.289523;-3.86382;-1.87692;4.30532;-7.73878;-0.00453502;-0.000802657;0.0949541;0.0949606;-0.00454149;0.049751;0.0477601;20.938;0.0648739;0.0663347;20.9096;0.047825;91.9096;136.91;0.000873907;-0.00453945;0.00170061;-0.00307847;0.0949531;0.0117281;0.0825076;0;0.0928587;8.36548;3.71651
709000;710;;;;;;;;;;0.0629308;-1.04421;-0.822464;1.33071;-5.78525;-0.00291732;0.00249247;0.0935365;0.0936008;-0.00298168;0.0482913;0.0311891;32.0625;0.0634178;0.0643884;31.392;0.0318553;92.8349;137.835;0.00171017;-0.00292376;0.0100147;-0.00436639;0.0934935;-0.00253985;-0.00848752;0;0.124061;-0.29039;-3.87339;-1.88214;4.31624;-7.75251;-0.00441502;-0.000799065;0.0969365;0.0969428;-0.00442132;0.050682;0.0455455;21.9561;0.0661516;0.0675761;21.9262;0.0456075;92.0563;137.056;0.00312149;-0.00442044;0.0020464;-0.00338162;0.0969348;-0.00265493;0.0840013;0;0.0970375;8.36519;3.72142
710000;711;;;;;;;;;;0.064641;-1.03628;-0.826987;1.32739;-5.79107;-0.00247836;0.00436177;0.0951397;0.0953342;-0.00267287;0.0490035;0.0260497;38.3881;0.0644656;0.0653381;35.6674;0.0280368;91.6068;136.607;0.00999402;-0.00247171;0.0117855;-0.00240046;0.095085;-0.0297652;-0.0287963;0;0.117718;-0.290343;-3.88022;-1.88516;4.32369;-7.75683;-0.00450545;-0.000863202;0.0967584;0.0967658;-0.0045128;0.0506393;0.0465639;21.4759;0.0660662;0.0675191;21.4425;0.0466364;91.9056;136.906;0.00580184;-0.00451001;0.00164175;-0.00313687;0.0967575;-0.00186511;0.0843988;0;0.0936591;8.36511;3.72516
711000;712;28.7714;3.02558;0.117517;-3.06293;28.5415;-1.94811;-0.393713;2.94975;-1.0619;0.0651652;-1.02839;-0.824944;1.31999;-5.79772;-0.0033333;0.00244657;0.0944402;0.0945013;-0.00339448;0.0489479;0.0352954;28.3323;0.0641623;0.0652639;27.8397;0.0359199;93.3932;138.393;-0.00838011;-0.00334428;0.0109306;-0.00527967;0.0943883;-0.023588;-0.0012246;0;0.124911;-0.291501;-3.88812;-1.88588;4.33116;-7.76141;-0.00447937;-0.000571078;0.0966081;0.0966113;-0.00448259;0.0505469;0.0463664;21.5673;0.0659525;0.0673959;21.5525;0.0463982;91.3824;136.382;0.000907577;-0.00448178;0.00129668;-0.00226666;0.0966074;-0.00601758;0.085183;0;0.0855929;8.36561;3.73352
712000;713;28.7773;3.03149;0.117747;-3.06754;28.5468;-1.95092;-0.398323;2.95502;-1.06471;0.0658449;-1.03071;-0.824093;1.3213;-5.78584;-0.00280326;0.0026995;0.0924411;0.0925175;-0.00287971;0.0476986;0.0303248;32.9763;0.0626603;0.0635982;32.1274;0.0311261;93.4665;138.466;-0.00113478;-0.00281385;0.0114954;-0.00532972;0.0923839;-0.0163968;-0.00645579;0;0.120538;-0.291892;-3.89531;-1.88866;4.33886;-7.76908;-0.00427771;-0.000384674;0.0969563;0.0969578;-0.00427917;0.0506185;0.04412;22.6655;0.0661111;0.0674913;22.6581;0.0441344;91.4813;136.481;-0.00125928;-0.00428058;0.00185891;-0.00242121;0.0969548;0.00212354;0.0801662;0;0.0834822;8.36295;3.73841
713000;714;;;;;;;;;;0.0664554;-1.02269;-0.827038;1.31693;-5.78945;-0.00282499;0.00424052;0.0940148;0.0942001;-0.00301032;0.0486052;0.0300483;33.2797;0.0638272;0.064807;31.2924;0.0319566;91.3315;136.332;0.00139662;-0.00281775;0.0109593;-0.00188363;0.0939681;-0.0329171;-0.0160361;0;0.123928;-0.29212;-3.89986;-1.89078;4.34388;-7.76767;-0.00428492;-0.000485663;0.0973769;0.0973792;-0.00428724;0.0508332;0.0440034;22.7255;0.0663947;0.0677777;22.7137;0.0440262;91.6952;136.695;0.0017398;-0.0042887;0.00205105;-0.00278737;0.0973751;0.00524447;0.0768122;0;0.0901891;8.36116;3.74597
714000;715;;;;;;;;;;0.0664315;-1.01581;-0.828928;1.31278;-5.79741;-0.00302198;0.00292136;0.0951357;0.0952226;-0.00310885;0.0491657;0.0317649;31.4812;0.064543;0.0655543;30.6295;0.0326482;92.8444;137.844;-0.0102212;-0.00302756;0.0110008;-0.00443405;0.0950844;-0.0281376;-0.0366231;0;0.118093;-0.292382;-3.90394;-1.89416;4.34903;-7.76614;-0.00404652;-0.00051208;0.0979361;0.0979387;-0.00404909;0.0509939;0.041318;24.2025;0.0666832;0.0679919;24.1878;0.0413431;91.2472;136.247;0.00297951;-0.00404856;0.00121496;-0.0020787;0.0979356;0.00416054;0.0845277;0;0.092793;8.35786;3.75283
715000;716;;;;;;;;;;0.0663509;-1.01915;-0.825272;1.31307;-5.77997;-0.00236187;0.00286337;0.0930658;0.0931516;-0.00244771;0.0477997;0.0253785;39.4034;0.0629328;0.0637329;38.0566;0.0262766;92.995;137.995;-0.015179;-0.0023686;0.0110967;-0.00465133;0.0930132;-0.0295464;-0.0320332;0;0.109689;-0.292992;-3.91251;-1.89435;4.35685;-7.7732;-0.00418249;5.80546e-05;0.0973414;0.0973414;-0.00418252;0.050762;0.0429672;23.2735;0.0663324;0.0676826;23.2734;0.0429676;91.3626;136.363;-0.00260886;-0.00418493;0.00254969;-0.00220306;0.0973384;0.00950187;0.0816179;0;0.0919396;8.35752;3.76042
716000;717;;;;;;;;;;0.0667719;-1.01025;-0.830436;1.30946;-5.78832;-0.00295901;0.00277658;0.0970633;0.0971403;-0.00303603;0.0500882;0.0304854;32.8026;0.0657956;0.0667842;31.9958;0.0312541;92.8367;137.837;0.000595039;-0.00296545;0.0108195;-0.00453315;0.0970135;-0.030634;-0.0284421;0;0.121704;-0.293138;-3.91281;-1.89323;4.35664;-7.75195;-0.00445476;-0.00101978;0.0974079;0.0974181;-0.00446497;0.0509415;0.045733;21.866;0.0664837;0.0679221;21.8183;0.045833;91.8776;136.878;0.00413365;-0.00445915;0.0013037;-0.00312759;0.0974076;-0.000398649;0.0957521;0;0.0935956;8.35749;3.76767
717000;718;28.8443;3.09846;0.120348;-3.06731;28.6173;-1.90662;-0.398096;3.02554;-1.02041;0.0680582;-1.00314;-0.837348;1.30846;-5.79277;-0.00224797;0.00324514;0.0986437;0.098748;-0.00235224;0.0505501;0.0227888;43.8813;0.0666299;0.0674001;41.9804;0.0238206;92.5223;137.522;0.00430958;-0.00225128;0.0113764;-0.00413958;0.0985896;-0.0160607;-0.0262483;0;0.135686;-0.294945;-3.92253;-1.90285;4.36968;-7.77838;-0.00423435;-0.000883741;0.0983489;0.0983565;-0.00424196;0.0512992;0.0430543;23.2265;0.0670297;0.068399;23.1866;0.0431284;92.3157;137.316;-0.0010584;-0.00424147;0.00240844;-0.00386844;0.0983466;-0.0013895;0.089132;0;0.101851;8.35758;3.7753
718000;719;;;;;;;;;;0.067642;-0.996699;-0.837951;1.3039;-5.79424;-0.00175209;0.0035282;0.099726;0.0998485;-0.00187461;0.0508616;0.017569;56.9184;0.0671993;0.0678154;53.2636;0.0187745;92.1441;137.144;0.002958;-0.00175227;0.0113586;-0.00357979;0.099673;-0.0148948;-0.0387553;0;0.145829;-0.296158;-3.92812;-1.90516;4.37578;-7.78006;-0.00414769;-0.000763128;0.0983776;0.0983833;-0.00415337;0.0512683;0.0421609;23.7187;0.0670162;0.0683578;23.6876;0.0422162;92.0131;137.013;0.00270453;-0.00415308;0.0021061;-0.00336453;0.0983758;0.00195111;0.0935797;0;0.107943;8.35767;3.78112
719000;720;;;;;;;;;;0.0686534;-0.993775;-0.835733;1.30029;-5.79202;-0.00253621;0.00202295;0.0980941;0.0981348;-0.00257686;0.0503558;0.0258549;38.6774;0.0662988;0.0671411;38.083;0.0262584;93.7441;138.744;-0.00635485;-0.00255347;0.0110829;-0.00620685;0.0980401;-0.021081;-0.0355017;0;0.136542;-0.296005;-3.93492;-1.90536;4.38196;-7.77656;-0.00434975;-0.000975533;0.0976266;0.0976359;-0.00435908;0.0509975;0.044555;22.4442;0.0665912;0.0679967;22.3983;0.0446463;91.7977;136.798;0.00603118;-0.0043538;0.00125904;-0.0030025;0.0976263;-0.00867582;0.0932894;0;0.0838668;8.35744;3.78821
720000;721;28.8774;3.13154;0.121633;-3.06096;28.6476;-1.96182;-0.391746;3.05584;-1.07561;0.0680404;-0.992446;-0.832205;1.29697;-5.78613;-0.00278723;0.00151965;0.0979445;0.0979674;-0.00281015;0.0503888;0.0284573;35.1404;0.0662682;0.067185;34.8619;0.0286846;93.8865;138.887;0.00249654;-0.00280678;0.0102684;-0.00642651;0.0978975;-0.0194604;-0.0298076;0;0.121401;-0.296733;-3.94433;-1.90897;4.39203;-7.78938;-0.00418211;-0.000544757;0.097528;0.0975309;-0.00418503;0.050858;0.0428812;23.3203;0.0664596;0.0678106;23.3047;0.0429098;91.7266;136.727;0.000261282;-0.00418604;0.0019961;-0.00285014;0.0975263;0.00112986;0.0895312;0;0.0884447;8.3562;3.79175
721000;722;;;;;;;;;;0.0693446;-0.985255;-0.832372;1.29166;-5.78933;-0.00247278;0.00323611;0.0999444;0.100047;-0.00257493;0.0513108;0.0247415;40.4179;0.0675724;0.0684143;38.8541;0.0257373;92.0937;137.094;0.00168084;-0.00247342;0.0105858;-0.00342942;0.0998983;-0.0234516;-0.0182732;0;0.131921;-0.296968;-3.94849;-1.90982;4.39616;-7.78535;-0.00408718;-0.000597704;0.098256;0.0982595;-0.00409067;0.0511751;0.0415972;24.0401;0.0669116;0.0682334;24.0204;0.0416313;91.5863;136.586;0.00135459;-0.00409052;0.00166325;-0.00264796;0.0982549;-0.000377543;0.0865324;0;0.0810769;8.35381;3.79905
722000;723;28.8875;3.14165;0.122026;-3.07306;28.6536;-2.00414;-0.403847;3.06181;-1.11793;0.0712342;-0.969567;-0.839068;1.2842;-5.81308;-0.00251946;0.00286096;0.097583;0.0976647;-0.00260116;0.0501329;0.0258187;38.7317;0.065994;0.0668439;37.5465;0.0266336;92.5222;137.522;-0.0202636;-0.00252368;0.0104904;-0.00407276;0.0975366;-0.0145067;-0.03147;0;0.145847;-0.298082;-3.95522;-1.91461;4.40435;-7.79369;-0.00411889;-0.000571727;0.0990386;0.0990418;-0.00412206;0.0515819;0.0415887;24.045;0.0674439;0.0687759;24.0273;0.0416194;91.6489;136.649;-0.00189301;-0.00412258;0.00185422;-0.00276997;0.0990372;-0.00271775;0.0855627;0;0.0855442;8.35056;3.80289
723000;724;;;;;;;;;;0.0704265;-0.972683;-0.837309;1.28536;-5.79841;-0.00262969;0.00429098;0.0993569;0.0995371;-0.00280991;0.0511735;0.0264671;37.7827;0.0673143;0.0682314;35.4236;0.0282298;90.869;135.869;0.00822319;-0.00262124;0.0103958;-0.00124766;0.0993161;-0.0301517;-0.0126089;0;0.130561;-0.297377;-3.95624;-1.91013;4.40328;-7.77453;-0.00426301;-0.000538105;0.0976218;0.0976246;-0.00426585;0.0509452;0.0436686;22.8997;0.0665506;0.067927;22.8852;0.0436965;91.4434;136.443;0.00716802;-0.00426573;0.00150341;-0.00239012;0.0976209;0.0120304;0.0879727;0;0.0825519;8.3504;3.8092
724000;725;;;;;;;;;;0.0724117;-0.963217;-0.844474;1.28303;-5.81451;-0.00209521;0.00453;0.0984015;0.0986053;-0.00229899;0.0504521;0.0212925;46.9649;0.0665164;0.0672695;42.8906;0.0233151;91.2511;136.251;0.00240888;-0.0020868;0.0116406;-0.00193024;0.0983492;-0.0273147;-0.0164905;0;0.133569;-0.298106;-3.96017;-1.91437;4.4087;-7.77526;-0.00442816;-0.00058643;0.0969555;0.0969589;-0.00443155;0.0506952;0.0456721;21.8952;0.0661659;0.0675936;21.8792;0.0457055;91.2935;136.294;0.00666884;-0.00443028;0.00111861;-0.00213388;0.096955;0.0166415;0.0846394;0;0.0943363;8.3494;3.81675
725000;726;;;;;;;;;;0.0721098;-0.959379;-0.843597;1.27956;-5.80674;-0.00262823;0.00698006;0.0982881;0.0987686;-0.00310873;0.0509386;0.0267401;37.397;0.066906;0.0679182;31.7713;0.0314749;88.7217;133.722;0.0119046;-0.00260704;0.011872;0.00253749;0.0982461;-0.035471;-0.0047053;0;0.138807;-0.298773;-3.96502;-1.91382;4.41287;-7.76743;-0.00444197;-0.000673922;0.0974597;0.0974642;-0.00444642;0.0509553;0.0455774;21.9407;0.0665078;0.0679404;21.9197;0.0456211;91.7654;136.765;0.000194163;-0.00444601;0.00179849;-0.00291676;0.0974585;0.00840144;0.0932185;0;0.0962278;8.34871;3.82432
726000;727;;;;;;;;;;0.0738659;-0.947639;-0.848942;1.27443;-5.82446;-0.00220244;0.00550309;0.0975079;0.0978107;-0.00250524;0.0501579;0.0225873;44.2726;0.066058;0.0668773;39.0424;0.0256132;90.1367;135.137;-0.0160582;-0.00218727;0.0115305;2.31358e-05;0.0974611;-0.0331791;-0.0217245;0;0.13406;-0.299675;-3.97645;-1.92336;4.42733;-7.79455;-0.00417766;-0.00088679;0.0989255;0.0989331;-0.00418529;0.0515592;0.0422304;23.6796;0.0673938;0.0687456;23.6383;0.0423042;92.1497;137.15;0.00516617;-0.00418384;0.00212799;-0.00361871;0.0989238;-0.00362555;0.0971244;0;0.0959912;8.34707;3.83207
727000;728;;;;;;;;;;0.0732724;-0.953017;-0.846853;1.27702;-5.79849;-0.00278278;0.00444026;0.100475;0.100666;-0.00297337;0.0518196;0.0276962;36.1061;0.0681234;0.0690929;33.8559;0.029537;91.5069;136.507;-0.00999806;-0.00277566;0.0119308;-0.00234761;0.10042;-0.0465627;-0.0217658;0;0.134551;-0.300233;-3.98314;-1.92431;4.43379;-7.79598;-0.00449858;-0.000714512;0.0990582;0.0990631;-0.00450351;0.0517833;0.0454135;22.0199;0.0675933;0.0690444;21.9969;0.045461;91.9034;136.903;0.00348067;-0.00450345;0.00202375;-0.00319476;0.0990566;0.00319377;0.0856107;0;0.0979958;8.34663;3.8384
728000;729;;;;;;;;;;0.073958;-0.945429;-0.85086;1.27408;-5.80649;-0.00271705;0.00495561;0.102471;0.102704;-0.00295001;0.052827;0.0265153;37.7141;0.0694736;0.0704361;34.8149;0.0287234;91.0931;136.093;-0.00483423;-0.00270612;0.0122653;-0.00165688;0.102414;-0.0067077;-0.00978454;0;0.125675;-0.300914;-3.99028;-1.92555;4.44079;-7.79722;-0.00459469;-0.000645756;0.0996723;0.0996763;-0.00459869;0.0521375;0.046098;21.6929;0.0680356;0.0695167;21.6749;0.0461362;91.4559;136.456;0.0051765;-0.00459754;0.00136457;-0.00246547;0.0996717;-0.00331979;0.0873281;0;0.0923233;8.34653;3.84582
729000;730;28.9735;3.22762;0.125365;-3.07567;28.741;-1.9888;-0.406456;3.14926;-1.10259;0.0745016;-0.944282;-0.84709;1.27074;-5.7947;-0.00243544;0.00501706;0.100318;0.100563;-0.00267982;0.0516213;0.0242771;41.191;0.0679527;0.0688284;37.5259;0.0266483;90.8047;135.805;-0.00567315;-0.00242348;0.01181;-0.0011417;0.100266;0.00118256;-0.0222415;0;0.127348;-0.300889;-3.99777;-1.92821;4.44867;-7.80374;-0.00437815;-0.000382275;0.099314;0.0993154;-0.00437956;0.0518475;0.044084;22.684;0.0677173;0.0691299;22.677;0.0440975;91.471;136.471;0.00140967;-0.00438112;0.00191392;-0.00246188;0.0993124;-8.3704e-05;0.0899666;0;0.0847342;8.34331;3.85317
730000;731;;;;;;;;;;0.075775;-0.937353;-0.849038;1.26698;-5.80147;-0.00174599;0.00441474;0.100166;0.100357;-0.00193688;0.0511469;0.017431;57.3692;0.0675595;0.0681959;51.8138;0.0192999;91.777;136.777;-0.00570458;-0.00174055;0.0125156;-0.00293598;0.100104;-0.00634011;-0.0344879;0;0.129301;-0.30132;-4.00231;-1.92906;4.45315;-7.79975;-0.00394784;-0.000640774;0.0996373;0.0996413;-0.0039518;0.0517965;0.0396221;25.2385;0.0677832;0.069062;25.2141;0.0396603;91.6588;136.659;0.00144825;-0.0039516;0.00175658;-0.00281229;0.0996361;-0.0051281;0.08485;0;0.0818053;8.34287;3.86019
731000;732;;;;;;;;;;0.0756152;-0.932181;-0.847166;1.26189;-5.80547;-0.0025751;0.0026773;0.101564;0.101633;-0.00264388;0.0521384;0.0253544;39.4409;0.0686535;0.0695178;38.4407;0.0260141;92.875;137.875;0.0098528;-0.00258342;0.0110186;-0.00487555;0.101512;-0.0114028;-0.0365303;0;0.134146;-0.301492;-4.01049;-1.93074;4.46125;-7.80629;-0.00393967;-0.000535699;0.100668;0.100671;-0.00394241;0.0523066;0.0391353;25.5524;0.0684658;0.0697421;25.5353;0.0391615;91.7253;136.725;0.00116433;-0.00394388;0.00212738;-0.00294567;0.100666;0.00285902;0.0891814;0;0.0830163;8.34125;3.86609
732000;733;;;;;;;;;;0.0760295;-0.929521;-0.851075;1.26258;-5.80598;-0.00251875;0.00199463;0.0997429;0.0997818;-0.00255764;0.0511697;0.0252524;39.6002;0.0673899;0.0682263;39.0132;0.0256323;93.4276;138.428;0.0072285;-0.00253343;0.0105526;-0.00576764;0.0996941;-0.0126902;-0.0235754;0;0.126964;-0.301986;-4.01446;-1.93453;4.46649;-7.80729;-0.00413589;-0.000429749;0.0995367;0.0995385;-0.00413767;0.0518381;0.0415514;24.0666;0.0677803;0.0691175;24.0567;0.0415685;91.4934;136.493;0.00250109;-0.00413897;0.00187107;-0.00251363;0.0995352;0.00591447;0.0912853;0;0.0849838;8.33955;3.86945
733000;734;29.02;3.2742;0.127174;-3.08098;28.7884;-1.97496;-0.411762;3.19659;-1.08902;0.0781491;-0.916962;-0.858792;1.25875;-5.81785;-0.0024854;0.0034382;0.102231;0.102343;-0.00259817;0.0524708;0.0243117;41.1324;0.0691112;0.069961;39.3906;0.0253868;92.0469;137.047;0.00524632;-0.00248536;0.0110215;-0.00342485;0.102181;-0.0297296;-0.0445143;0;0.123153;-0.302213;-4.01867;-1.9379;4.47175;-7.80318;-0.00405536;0.00139813;0.101097;0.101116;-0.00407395;0.0525948;0.0401135;24.9292;0.0688086;0.0701264;24.8201;0.04029;90.1035;135.104;0.00202499;-0.00405438;0.00301214;-6.17435e-05;0.101094;0.00995638;0.0943305;0;0.0907633;8.33873;3.87608
734000;735;;;;;;;;;;0.0780315;-0.90924;-0.857643;1.25234;-5.82417;-0.00259257;0.0039515;0.102138;0.102287;-0.00274145;0.0525144;0.0253829;39.3966;0.0691235;0.0700192;37.3114;0.0268014;91.7504;136.75;0.00994552;-0.00258886;0.0114852;-0.00286651;0.102086;-0.0370067;-0.0217021;0;0.140962;-0.30296;-4.02484;-1.93902;4.47782;-7.8035;-0.00455405;-0.00116607;0.10032;0.100333;-0.00456702;0.0524498;0.0453955;22.0286;0.0684615;0.069933;21.9689;0.0455188;92.2907;137.291;0.00452066;-0.00456109;0.00187892;-0.00392082;0.100319;0.00206689;0.0937409;0;0.0950372;8.33705;3.88331
735000;736;;;;;;;;;;0.0800133;-0.90645;-0.854591;1.24835;-5.82035;-0.00263027;0.00385342;0.103024;0.103164;-0.00277062;0.0529675;0.0255306;39.1687;0.0697182;0.0706234;37.2351;0.0268563;91.56;136.56;0.0078905;-0.0026261;0.0109413;-0.00255568;0.102977;-0.0315437;-0.040138;0;0.133136;-0.303114;-4.03626;-1.93872;4.48797;-7.81121;-0.00426126;-0.000580028;0.10027;0.100273;-0.00426448;0.0522689;0.0424978;23.5306;0.0683148;0.0696919;23.5136;0.0425286;92.0123;137.012;0.00661506;-0.00426694;0.00254772;-0.00341062;0.100267;-0.00369746;0.0906344;0;0.0979143;8.33573;3.89064
736000;737;;;;;;;;;;0.0786897;-0.89965;-0.857081;1.24505;-5.82101;-0.00293373;0.00208637;0.100291;0.100334;-0.00297588;0.0516548;0.029252;34.1857;0.0679028;0.068873;33.7156;0.0296599;93.3248;138.325;-0.00318261;-0.00294713;0.0105405;-0.00557475;0.100243;-0.00605563;-0.0510471;0;0.127786;-0.304629;-4.04032;-1.94568;4.49474;-7.81735;-0.00443099;-0.000651584;0.100347;0.100351;-0.00443504;0.0523931;0.0441566;22.6467;0.0684271;0.0698575;22.6269;0.0441952;92.0927;137.093;0.00133959;-0.00443711;0.00255123;-0.00354941;0.100344;-0.00580621;0.0920268;0;0.0950393;8.33336;3.89722
737000;738;29.0779;3.33201;0.129419;-3.08012;28.8463;-1.98082;-0.410902;3.25456;-1.09461;0.0809908;-0.892935;-0.861338;1.2433;-5.8315;-0.00220644;0.00355265;0.101874;0.101995;-0.00232757;0.0521611;0.0216586;46.171;0.0687854;0.0695481;43.8203;0.0228205;92.4076;137.408;0.00894967;-0.00220845;0.0119802;-0.00407902;0.101814;-0.0196096;-0.0232319;0;0.117489;-0.305123;-4.04881;-1.94811;4.50346;-7.82364;-0.00461819;-0.000410646;0.100351;0.100353;-0.00461979;0.0524864;0.0460201;21.7296;0.0684939;0.0699819;21.7224;0.0460354;91.4409;136.441;0.00129614;-0.00462108;0.00182788;-0.00243562;0.10035;-0.00254432;0.0894157;0;0.0855924;8.33181;3.90439
738000;739;;;;;;;;;;0.0812639;-0.88782;-0.85856;1.23772;-5.82749;-0.00221068;0.00535038;0.0967957;0.097084;-0.00249898;0.0497915;0.0228387;43.7854;0.0655715;0.0663886;38.8494;0.0257404;90.5125;135.512;-0.0155333;-0.00219652;0.0118996;-0.000607852;0.0967442;-0.0205802;-0.0230627;0;0.136475;-0.305734;-4.05333;-1.94981;4.50829;-7.8205;-0.00426028;-0.000496358;0.0998718;0.0998742;-0.00426264;0.0520684;0.0426575;23.4426;0.0680482;0.0694246;23.4301;0.0426801;91.4568;136.457;0.00375037;-0.0042632;0.00167747;-0.00246438;0.0998707;-0.00404191;0.0874076;0;0.0833276;8.33123;3.9113
739000;740;29.1084;3.36253;0.130605;-3.08069;28.8781;-1.9655;-0.411477;3.28631;-1.07929;0.0824645;-0.881247;-0.869306;1.2406;-5.82947;-0.00238829;0.00518154;0.10003;0.100292;-0.00264977;0.0514707;0.0238757;41.8836;0.0677616;0.0686276;37.8492;0.0264206;90.6196;135.62;-0.0119772;-0.00237517;0.011794;-0.000815481;0.0999791;-0.0210301;-0.0254234;0;0.124547;-0.305497;-4.05977;-1.95773;4.5175;-7.83327;-0.00417053;-0.000618155;0.100921;0.100925;-0.00417417;0.0525495;0.0413247;24.1986;0.0687169;0.070066;24.1784;0.0413592;91.7795;136.78;0.000584093;-0.004175;0.00206602;-0.0030461;0.100919;-0.000334109;0.0885229;0;0.0842265;8.32779;3.91931
740000;741;;;;;;;;;;0.0817901;-0.873617;-0.869484;1.23527;-5.83279;-0.00178288;0.00448588;0.0991242;0.0993232;-0.00198191;0.0506526;0.0179864;55.5977;0.0668859;0.0675367;50.1148;0.0199542;91.2645;136.264;-0.0083751;-0.00177482;0.011636;-0.00200798;0.0990717;-0.0192747;-0.0381576;0;0.117752;-0.306748;-4.06534;-1.95798;4.5227;-7.83074;-0.0039804;-0.000290461;0.100679;0.100679;-0.0039812;0.0523303;0.0395357;25.2936;0.0684853;0.0697738;25.2887;0.0395434;91.5235;136.524;0.00138729;-0.00398371;0.00224636;-0.00258606;0.100676;0.00685569;0.0919253;0;0.0798481;8.32488;3.926
741000;742;;;;;;;;;;0.0826989;-0.870061;-0.866047;1.2304;-5.8252;-0.00171709;0.00461221;0.10201;0.102214;-0.00192176;0.052068;0.0168326;59.4086;0.0687924;0.069424;53.1877;0.0188013;91.1398;136.14;0.00395031;-0.00170816;0.0117547;-0.00185815;0.101957;-0.0237874;-0.0435734;0;0.125333;-0.307156;-4.07432;-1.95507;4.52954;-7.82655;-0.00409628;0.00102266;0.103085;0.103095;-0.00410603;0.0536006;0.0397367;25.1656;0.0701389;0.0714675;25.1082;0.0398276;90.1733;135.173;0.00609556;-0.00409578;0.00239502;-0.000216357;0.103083;0.00235828;0.105308;0;0.0888435;8.32205;3.93341
742000;743;;;;;;;;;;0.0836871;-0.868128;-0.873386;1.23428;-5.8322;-0.00159222;0.00432943;0.0999074;0.100092;-0.00177656;0.0509341;0.015937;62.7471;0.0673278;0.0679122;56.3402;0.0177493;91.6354;136.635;0.00348182;-0.00158649;0.0120734;-0.00270016;0.0998496;-0.0290608;-0.0038218;0;0.127545;-0.307151;-4.0765;-1.95867;4.53306;-7.82223;-0.00464253;-0.00121996;0.100125;0.100139;-0.00465673;0.0523978;0.0463674;21.5669;0.0683644;0.0698638;21.5041;0.0465027;92.37;137.37;0.00240286;-0.00465001;0.00190599;-0.0040482;0.100124;0.0078625;0.0945176;0;0.101429;8.32109;3.94025
743000;744;;;;;;;;;;0.0843671;-0.862886;-0.869756;1.22807;-5.83511;-0.00165982;0.00249744;0.0995806;0.0996422;-0.00172139;0.0506818;0.0166681;59.9948;0.0670093;0.0675757;57.8847;0.0172757;93.3561;138.356;0.00772206;-0.00167308;0.011548;-0.00572;0.0995228;-0.0416764;-0.0112761;0;0.127245;-0.307661;-4.08247;-1.95784;4.5381;-7.82101;-0.00449708;-0.0012773;0.100632;0.100647;-0.0045126;0.0525799;0.0446885;22.3771;0.0686518;0.0701066;22.3036;0.0448358;92.2765;137.277;0.00420557;-0.00450398;0.00164462;-0.00392012;0.100631;0.00409365;0.094316;0;0.0937799;8.31743;3.9454
744000;745;;;;;;;;;;0.0850532;-0.851721;-0.877399;1.22576;-5.8447;-0.00119232;0.00415913;0.0997603;0.0999313;-0.00136338;0.0506474;0.0119519;83.669;0.06708;0.0675298;73.2967;0.0136432;91.67;136.67;-0.0108858;-0.0011876;0.0118288;-0.00280668;0.0997045;0.0038874;-0.00139276;0;0.135545;-0.308886;-4.08902;-1.96571;4.54748;-7.83493;-0.00408596;-0.000500025;0.10064;0.100643;-0.00408835;0.0523655;0.0405997;24.6307;0.0684985;0.0698206;24.6169;0.0406224;91.8086;136.809;0.00460076;-0.00409059;0.00235002;-0.00307889;0.100638;-0.00401405;0.092806;0;0.0904597;8.31545;3.94995
745000;746;;;;;;;;;;0.0835707;-0.849938;-0.870484;1.21948;-5.8334;-0.0020158;0.0036159;0.101458;0.101584;-0.002142;0.0518631;0.0198683;50.3314;0.068448;0.0691508;47.4249;0.021086;92.0773;137.077;0.00841474;-0.00201537;0.0114654;-0.00349639;0.101404;-0.0247703;-0.0174215;0;0.128095;-0.310098;-4.0976;-1.96497;4.55495;-7.83746;-0.0042704;-0.000883374;0.100369;0.100376;-0.00427786;0.0523271;0.0425471;23.5034;0.0683881;0.0697694;23.4641;0.0426182;91.9978;136.998;0.00770534;-0.00427586;0.00191382;-0.00341456;0.100368;-0.000418778;0.0960427;0;0.0878535;8.31383;3.95574
746000;747;29.1888;3.4429;0.133726;-3.09718;28.9584;-1.94943;-0.427963;3.36665;-1.06322;0.0857499;-0.839775;-0.88192;1.2208;-5.85099;-0.0020834;0.00285521;0.101169;0.101248;-0.00216229;0.0517052;0.0205932;48.5597;0.0682309;0.0689402;46.8245;0.0213564;92.8405;137.841;-0.000598659;-0.00209107;0.0113512;-0.00484431;0.101114;-0.00662662;-0.0139661;0;0.125295;-0.3105;-4.10643;-1.97433;4.56696;-7.85474;-0.00427293;-0.00045802;0.100312;0.100314;-0.00427494;0.0522947;0.0425962;23.4762;0.0683458;0.0697262;23.4657;0.0426154;91.7603;136.76;0.000482364;-0.00427728;0.00232865;-0.00297981;0.10031;0.000777766;0.0919172;0;0.0852114;8.31266;3.96319
747000;748;;;;;;;;;;0.0841352;-0.843273;-0.871007;1.21525;-5.8318;-0.00304975;0.00330329;0.102048;0.102152;-0.00315347;0.0526527;0.0298854;33.4612;0.0691764;0.0702036;32.3935;0.0308704;91.8076;136.808;0.00393674;-0.00304862;0.010209;-0.00294393;0.102006;-0.00355768;-0.0240421;0;0.123743;-0.311226;-4.11326;-1.96744;4.57018;-7.8417;-0.00412528;-0.000708905;0.101224;0.101229;-0.00413005;0.0526794;0.040754;24.5375;0.0689037;0.0702391;24.5103;0.0407992;91.6485;136.648;-0.00279231;-0.00412908;0.00164969;-0.00284186;0.101223;-0.00369445;0.0904507;0;0.085728;8.31055;3.97076
748000;749;;;;;;;;;;0.0855313;-0.835536;-0.86799;1.20783;-5.83157;-0.00216041;0.00375625;0.102012;0.102148;-0.00229568;0.0522217;0.0211779;47.2189;0.0688765;0.069629;44.4956;0.0224741;91.9032;136.903;0.00808579;-0.00215844;0.011425;-0.00318774;0.10196;-0.0167459;-0.00222151;0;0.120149;-0.311616;-4.11741;-1.96683;4.57369;-7.83752;-0.00400435;-0.000751838;0.101909;0.101914;-0.00400969;0.0529619;0.0392935;25.4495;0.0693179;0.0706158;25.4169;0.0393438;91.6789;136.679;0.00216924;-0.00400834;0.00164531;-0.00291857;0.101908;-0.00402039;0.0900152;0;0.0942522;8.30973;3.97862
749000;750;;;;;;;;;;0.0860362;-0.831124;-0.873672;1.20891;-5.83194;-0.00143857;0.00375331;0.100149;0.100287;-0.00157706;0.050932;0.0143644;69.6165;0.0673898;0.0679094;63.5912;0.0157254;92.1978;137.198;-0.0131311;-0.00143846;0.0119907;-0.00372366;0.10009;-0.00716642;-0.0165053;0;0.124771;-0.310924;-4.12244;-1.96961;4.57936;-7.831;-0.00426887;0.000726255;0.101609;0.101614;-0.00427385;0.0529437;0.0420128;23.8023;0.069211;0.0705916;23.7757;0.0420598;90.3327;135.333;0.00780861;-0.00426873;0.00208478;-0.000501704;0.101607;0.0112586;0.0983473;0;0.0857793;8.30617;3.98574
750000;751;;;;;;;;;;0.0865989;-0.819314;-0.879034;1.20477;-5.84072;-0.00177346;0.00316302;0.0983308;0.0984307;-0.0018733;0.050152;0.0180356;55.4458;0.0662537;0.0668693;52.544;0.0190317;92.3928;137.393;-0.00720246;-0.0017763;0.0109988;-0.00395871;0.0982803;-0.00839673;-0.0345848;0;0.119182;-0.312985;-4.1288;-1.97592;4.58794;-7.84105;-0.00433954;0.000108849;0.102421;0.102421;-0.00433966;0.0533804;0.0423696;23.6018;0.0697724;0.0711739;23.6012;0.0423707;91.0224;136.022;0.00853239;-0.00434105;0.00214964;-0.00173431;0.102419;0.00208015;0.0999595;0;0.0942287;8.30471;3.99321
751000;752;;;;;;;;;;0.0882412;-0.811312;-0.888916;1.20673;-5.847;-0.00189482;0.00428557;0.0991776;0.0993589;-0.00207621;0.0507176;0.0191054;52.3413;0.0669421;0.0676234;47.8559;0.0208961;91.1296;136.13;-0.0034446;-0.00188719;0.0109535;-0.00176938;0.0991313;0.00497282;-0.0144967;0;0.117945;-0.312397;-4.13358;-1.9831;4.5953;-7.8511;-0.00452453;-0.00104803;0.10156;0.10157;-0.00453488;0.0530526;0.0445503;22.4466;0.0692747;0.0707369;22.3976;0.0446477;92.7108;137.711;0.000156802;-0.00453494;0.0029614;-0.00467132;0.101557;0.00772323;0.0998668;0;0.100342;8.30227;4.001
752000;753;;;;;;;;;;0.0879981;-0.807355;-0.890378;1.20513;-5.84607;-7.36504e-05;0.00501733;0.0985214;0.0987761;-0.000328315;0.0495522;0.000747557;1337.69;0.0659604;0.0660696;300.857;0.00332384;91.2209;136.221;-0.00968354;-6.33225e-05;0.0128646;-0.00212587;0.0984575;-0.00587619;-0.0294352;0;0.129785;-0.314282;-4.14081;-1.98619;4.60327;-7.85738;-0.00414818;-0.00080885;0.101401;0.101407;-0.00415438;0.0527808;0.0409087;24.4447;0.0690313;0.0703744;24.4097;0.0409673;92.0391;137.039;0.00655629;-0.00415406;0.00218582;-0.00351653;0.101399;-0.00246373;0.0988494;0;0.100027;8.29881;4.00871
753000;754;;;;;;;;;;0.0903241;-0.802771;-0.892362;1.20371;-5.84787;-0.000480963;0.00420451;0.0981907;0.0983695;-0.000659798;0.0495147;0.00489826;204.154;0.0658007;0.0660195;149.09;0.00670734;91.9908;136.991;0.00538043;-0.000477922;0.0125657;-0.00340567;0.0981268;-0.00130355;-0.038785;0;0.113811;-0.313802;-4.14722;-1.9863;4.60905;-7.85551;-0.00440232;-0.000605802;0.100745;0.100749;-0.00440581;0.0525774;0.0436975;22.8846;0.0686817;0.0701032;22.8673;0.0437306;91.8167;136.817;0.00409867;-0.00440695;0.00214845;-0.00309695;0.100744;-0.00283448;0.0940072;0;0.0860024;8.2951;4.01472
754000;755;29.2984;3.55257;0.137986;-3.10719;29.0695;-1.92602;-0.437971;3.47768;-1.03981;0.0912152;-0.793626;-0.891247;1.19686;-5.85691;-0.0010659;0.00353366;0.0993052;0.0994294;-0.00119015;0.0503098;0.0107335;93.1658;0.0666865;0.0670797;83.5437;0.0119698;92.3573;137.357;-0.00919793;-0.00106772;0.0118419;-0.00401623;0.0992471;-0.0180123;-0.0187714;0;0.12546;-0.314733;-4.15903;-1.99055;4.62157;-7.87358;-0.00446551;-0.00101093;0.0997485;0.0997583;-0.00447532;0.0521168;0.0447677;22.3375;0.0680464;0.0694891;22.2908;0.0448616;92.5061;137.506;-0.00490618;-0.00447405;0.00256205;-0.00424533;0.099746;0.00385931;0.0991943;0;0.0890732;8.29194;4.019
755000;756;;;;;;;;;;0.0917307;-0.789091;-0.892605;1.19492;-5.85662;-0.000745668;0.00401315;0.0989005;0.0990619;-0.000907033;0.0499845;0.00753958;132.633;0.0663457;0.066646;109.215;0.00915622;92.064;137.064;-0.0169773;-0.000743826;0.0123024;-0.00352468;0.098839;-0.00173761;-0.0120338;0;0.132941;-0.315558;-4.16462;-1.98791;4.62552;-7.86481;-0.00440453;-0.000465841;0.100956;0.100958;-0.00440659;0.0526823;0.0436283;22.9209;0.0688212;0.070243;22.9107;0.0436478;91.8517;136.852;0.00392617;-0.00440941;0.0025029;-0.00315047;0.100953;0.00223309;0.0875886;0;0.0888106;8.29161;4.02308
756000;757;;;;;;;;;;0.0924254;-0.780236;-0.89484;1.19082;-5.86323;-0.00158212;0.00400573;0.100827;0.100983;-0.00173856;0.051361;0.0156914;63.7292;0.0679092;0.0684813;58.0845;0.0172163;91.6791;136.679;-0.0101397;-0.00157804;0.0115224;-0.00281185;0.100774;-0.0170451;0.00546286;0;0.135947;-0.315119;-4.168;-1.9962;4.6321;-7.86688;-0.00421875;-0.000643421;0.102759;0.102763;-0.00422262;0.0534927;0.0410549;24.3577;0.0699586;0.0713236;24.3363;0.041091;91.5867;136.587;0.00339745;-0.0042224;0.00171392;-0.00277208;0.102758;-0.000268133;0.0930729;0;0.0869989;8.28733;4.02998
757000;758;;;;;;;;;;0.0928051;-0.778407;-0.893009;1.18827;-5.8589;-0.00206447;0.00181949;0.0967002;0.0967337;-0.00209798;0.0494158;0.0213492;46.8402;0.0651997;0.0658878;46.1081;0.0216882;93.4628;138.463;-0.00473923;-0.00207905;0.0100766;-0.00569409;0.0966554;-0.0234594;-0.00738734;0;0.123491;-0.315944;-4.17169;-1.99677;4.63572;-7.85816;-0.00457009;0.000435437;0.101849;0.101851;-0.00457187;0.0532115;0.0448711;22.2861;0.0694749;0.0709487;22.2778;0.0448878;90.524;135.524;0.00844776;-0.00457036;0.00185464;-0.000846693;0.101848;0.00809424;0.102165;0;0.087673;8.28418;4.03735
758000;759;;;;;;;;;;0.0938144;-0.76721;-0.893334;1.1813;-5.86515;-0.000973084;0.00375604;0.099349;0.0994894;-0.00111351;0.0503015;0.00979461;102.097;0.0667005;0.0670686;89.3473;0.0111923;91.8906;136.891;-0.00547981;-0.000971178;0.0114206;-0.00320922;0.0992961;-0.00840732;-0.000849365;0;0.12164;-0.317266;-4.18433;-1.99696;4.64727;-7.87305;-0.0041497;-0.000489114;0.103112;0.103114;-0.00415193;0.0536329;0.0402448;24.848;0.0701675;0.0715105;24.8351;0.0402655;91.7213;136.721;0.00422028;-0.00415411;0.00229523;-0.00300272;0.103109;-0.00104126;0.102613;0;0.0915578;8.27908;4.04395
759000;760;;;;;;;;;;0.0932135;-0.762004;-0.902388;1.18475;-5.86573;-0.00210225;0.0021231;0.0970861;0.0971315;-0.00214768;0.0496396;0.0216535;46.1819;0.065482;0.0661861;45.2263;0.022111;93.0655;138.066;-0.0167902;-0.00211269;0.00999067;-0.00503325;0.0970427;-0.00180336;-0.0167423;0;0.12705;-0.317264;-4.18364;-2.00462;4.64994;-7.86779;-0.00432406;-0.00139202;0.101709;0.101727;-0.00434233;0.0530346;0.0425142;23.5216;0.0693107;0.0707127;23.4268;0.0426862;92.5351;137.535;0.00520478;-0.00433287;0.00195151;-0.00441374;0.101708;0.00680664;0.101264;0;0.0960644;8.27379;4.05124
760000;761;;;;;;;;;;0.093977;-0.759591;-0.903133;1.18383;-5.86569;-0.00178016;0.0025446;0.0973255;0.0973907;-0.00184545;0.0496181;0.0182908;54.6722;0.065551;0.0661575;52.7733;0.018949;92.9272;137.927;-0.0110872;-0.00178864;0.010659;-0.00483704;0.0972766;-0.0177116;-0.0189841;0;0.118179;-0.318281;-4.19342;-2.00858;4.66052;-7.87977;-0.00425866;-0.00081347;0.102059;0.102066;-0.00426488;0.0531653;0.0417272;23.9652;0.069509;0.070887;23.9317;0.0417857;92.208;137.208;0.00304564;-0.00426567;0.00252004;-0.00382538;0.102057;-0.00193594;0.102061;0;0.0952148;8.27081;4.05878
761000;762;;;;;;;;;;0.0946028;-0.751701;-0.903439;1.17907;-5.86336;-0.00151073;0.00482983;0.0987418;0.098974;-0.00174287;0.0503584;0.0152998;65.3605;0.0665712;0.0671446;56.7878;0.0176094;90.1366;135.137;-0.00794673;-0.00149905;0.0102351;-8.23812e-05;0.0987048;-0.0133392;-0.0288333;0;0.140041;-0.318476;-4.19932;-2.00706;4.66519;-7.87628;-0.00425432;-0.000741426;0.10105;0.101056;-0.00425954;0.0526575;0.042101;23.7524;0.0688342;0.0702101;23.7245;0.0421504;91.9795;136.98;0.00175708;-0.00425983;0.00219358;-0.00339572;0.101048;0.00212648;0.0954605;0;0.0923977;8.26618;4.06655
762000;763;;;;;;;;;;0.0947682;-0.746077;-0.904011;1.17595;-5.86382;-0.000101663;0.00504057;0.0987571;0.0990134;-0.000358005;0.0496857;0.00102943;971.414;0.0661286;0.0662476;276.57;0.00361572;91.2651;136.265;-0.0148581;-9.139e-05;0.0130024;-0.00220518;0.0986917;0.00260749;-0.00997052;0;0.12601;-0.320056;-4.20872;-2.00773;4.67405;-7.88022;-0.00445351;-0.000594103;0.101874;0.101877;-0.00445683;0.053167;0.0437159;22.8749;0.0694514;0.0708893;22.8587;0.0437471;91.796;136.796;0.00535439;-0.00445814;0.00217352;-0.00309465;0.101872;0.00316481;0.0987466;0;0.0944329;8.26299;4.07307
763000;764;29.4014;3.65559;0.141987;-3.10908;29.1683;-1.99764;-0.43987;3.57649;-1.11143;0.0939284;-0.742533;-0.906433;1.1755;-5.8605;-0.000767318;0.00410882;0.100018;0.100186;-0.000934549;0.0505601;0.00767177;130.348;0.0671041;0.0674134;107.202;0.00932817;91.8504;136.85;-0.00416656;-0.000763944;0.0121372;-0.00318419;0.0999591;-0.00510013;-0.033279;0;0.127072;-0.321277;-4.21865;-2.01513;4.68626;-7.89952;-0.00410888;-0.00101209;0.0993832;0.099393;-0.00411877;0.0517559;0.0413438;24.1874;0.0676767;0.0690079;24.1317;0.0414393;92.1184;137.118;-0.00208489;-0.00411485;0.00183936;-0.00359512;0.0993821;0.00403832;0.0926612;0;0.0862783;8.26178;4.08006
764000;765;29.4211;3.67523;0.14275;-3.11036;29.1879;-1.99739;-0.441144;3.59617;-1.11118;0.095958;-0.737106;-0.908818;1.17409;-5.86555;-0.00223262;0.00113515;0.100413;0.100425;-0.00224517;0.0513352;0.0222345;44.9752;0.0677109;0.0684469;44.7294;0.0223567;94.0125;139.013;-0.0242208;-0.00225572;0.00997925;-0.00688405;0.100368;-0.00201503;-0.0233154;0;0.123596;-0.321092;-4.22373;-2.01758;4.69186;-7.89799;-0.00435293;-0.000608971;0.102096;0.102099;-0.00435641;0.0532279;0.0426357;23.4545;0.0695638;0.0709705;23.4366;0.0426684;91.9099;136.91;-0.00141495;-0.00435821;0.00236887;-0.00329919;0.102093;0.00346691;0.0918629;0;0.0914301;8.25594;4.0872
765000;766;;;;;;;;;;0.0974514;-0.729348;-0.908964;1.16947;-5.86609;-0.00112339;0.00237841;0.0979594;0.0980164;-0.00118045;0.0495984;0.011468;87.1995;0.0657413;0.0661313;83.0329;0.0120434;93.0626;138.063;-0.00179862;-0.00113398;0.0106831;-0.00517701;0.09791;-0.0187397;-0.0364173;0;0.136493;-0.320036;-4.22432;-2.01413;4.69085;-7.87852;-0.00442362;-0.00135287;0.10079;0.100807;-0.00444102;0.0526241;0.0438896;22.7844;0.0687329;0.0701654;22.6991;0.0440546;92.1293;137.129;0.0055398;-0.00442953;0.00122791;-0.00368697;0.10079;0.0103077;0.0961125;0;0.0886472;8.25117;4.08908
766000;767;;;;;;;;;;0.098829;-0.71917;-0.908102;1.16259;-5.87424;-0.000298731;0.00383919;0.0985549;0.0987037;-0.00044761;0.0495757;0.00303112;329.911;0.0659522;0.0661009;220.513;0.00453488;92.1352;137.135;-0.00299445;-0.000298174;0.012114;-0.00369118;0.0984948;-0.0164469;-0.0125809;0;0.146416;-0.321245;-4.23287;-2.02031;4.70128;-7.88827;-0.0041647;0.00088338;0.103207;0.103214;-0.00417196;0.0536929;0.040353;24.7813;0.0702412;0.0715905;24.7399;0.0404206;90.318;135.318;0.00453404;-0.00416442;0.00238911;-0.000475801;0.103204;0.0117063;0.100086;0;0.0890971;8.24742;4.09695
767000;768;;;;;;;;;;0.100253;-0.709431;-0.909506;1.15782;-5.88578;-0.00140624;0.00447642;0.0988471;0.0990466;-0.00160572;0.0503261;0.0142264;70.2918;0.0665727;0.0671015;61.6836;0.0162118;91.5068;136.507;-0.00367571;-0.00139925;0.0121154;-0.00246582;0.0987894;-0.0193143;-0.0214812;0;0.134687;-0.321572;-4.23855;-2.01755;4.70523;-7.88072;-0.00454095;-0.00129663;0.101862;0.101878;-0.00455675;0.0532174;0.0445793;22.432;0.0694875;0.0709566;22.3577;0.0447274;92.2806;137.281;0.00546435;-0.00454804;0.00166857;-0.00397547;0.101862;0.00231431;0.10601;0;0.0924268;8.24381;4.10256
768000;769;;;;;;;;;;0.0998635;-0.706763;-0.903203;1.1512;-5.87412;-0.000647338;0.00259814;0.0975823;0.097651;-0.000716009;0.0491835;0.00663376;150.744;0.0653406;0.065578;136.382;0.00733233;92.8123;137.812;-0.0086951;-0.000655378;0.010698;-0.00477697;0.0975332;-0.0203564;-0.0327487;0;0.118565;-0.322843;-4.2473;-2.01946;4.71402;-7.89555;-0.00424622;-0.00113109;0.102454;0.102466;-0.00425821;0.0533621;0.0414451;24.1283;0.0697735;0.0711495;24.0632;0.0415573;92.4806;137.481;0.00173737;-0.00425501;0.00241426;-0.00433329;0.102452;-0.00135169;0.104854;0;0.103386;8.19255;4.10882
769000;770;;;;;;;;;;0.100957;-0.700927;-0.909348;1.15256;-5.88113;-0.0015052;0.00352126;0.0977061;0.097831;-0.00163002;0.0497305;0.0154053;64.9126;0.0657707;0.0663073;60.0184;0.0166616;91.69;136.69;-0.00526583;-0.00150278;0.0104193;-0.00275347;0.0976623;-0.0195919;-0.00638281;0;0.120914;-0.322162;-4.24667;-2.02239;4.71467;-7.89358;-0.00424091;-0.00115503;0.102185;0.102197;-0.00425345;0.0532253;0.0415024;24.095;0.0695926;0.0709671;24.0269;0.04162;92.4029;137.403;0.00368989;-0.00424906;0.00220564;-0.00419119;0.102183;0.000584837;0.103402;0;0.0965782;8.19082;4.1105
770000;771;;;;;;;;;;0.1016;-0.697151;-0.910332;1.15111;-5.88569;-0.000613994;0.000811764;0.0978996;0.0979063;-0.000620683;0.0492635;0.00627167;159.447;0.0654788;0.0656847;157.74;0.00633956;94.4283;139.428;-0.00128392;-0.000642501;0.0100438;-0.00759196;0.097854;-0.0338142;-0.0108475;0;0.123125;-0.323419;-4.25513;-2.02318;4.72271;-7.89239;-0.0043458;-0.000538402;0.101341;0.101344;-0.00434854;0.0528463;0.0428828;23.3194;0.0690579;0.0704618;23.3053;0.0429087;91.6886;136.689;0.00681574;-0.00434986;0.00206804;-0.00289472;0.10134;-0.00291058;0.102134;0;0.0890225;8.25329;4.12466
771000;772;29.4876;3.74178;0.145335;-3.13333;29.2501;-2.0336;-0.464114;3.65831;-1.14739;0.101605;-0.691383;-0.911177;1.14829;-5.88433;-0.000881075;0.00265422;0.0984791;0.09855;-0.000951927;0.049751;0.00894682;111.772;0.0660196;0.0663346;103.527;0.00965933;92.4564;137.456;-0.00353891;-0.000886278;0.0101637;-0.00417612;0.0984353;-0.0296758;-0.00701871;0;0.125038;-0.324161;-4.27007;-2.03226;4.74011;-7.91134;-0.00430487;-0.000274683;0.101913;0.101914;-0.00430558;0.0531099;0.0422405;23.674;0.0694225;0.0708132;23.6702;0.0422472;91.5745;136.574;-0.00071151;-0.00430849;0.00240522;-0.00269625;0.101911;0.00107129;0.0987217;0;0.0815405;8.25888;4.13229
772000;773;;;;;;;;;;0.10113;-0.688659;-0.913134;1.14817;-5.86706;-0.00190599;0.00333601;0.0975119;0.0976238;-0.0020178;0.0498208;0.0195462;51.1609;0.0657654;0.0664277;48.3812;0.0206692;91.8641;136.864;-0.00827758;-0.00190494;0.0103089;-0.00300534;0.0974686;0.020565;0.0047296;0;0.127841;-0.324809;-4.27898;-2.03485;4.74929;-7.9104;-0.00425522;-0.00080353;0.102857;0.102863;-0.00426125;0.0535622;0.0413702;24.172;0.0700391;0.0714163;24.1392;0.0414264;92.0649;137.065;0.00250531;-0.00426144;0.00230351;-0.0036088;0.102855;0.00260907;0.0922512;0;0.0956394;8.23824;4.13992
773000;774;;;;;;;;;;0.101347;-0.680068;-0.912888;1.14286;-5.86603;-0.00182635;0.00325265;0.099303;0.0994075;-0.00193086;0.0506692;0.0183917;54.3723;0.0669246;0.0675589;51.4835;0.0194237;91.9423;136.942;-0.00227659;-0.00182622;0.0103714;-0.00321131;0.0992589;0.00547168;-0.00438559;0;0.142831;-0.325995;-4.28572;-2.03588;4.75589;-7.89895;-0.00416001;0.000960982;0.103689;0.103697;-0.00416858;0.053933;0.0401202;24.9251;0.0705621;0.0719106;24.876;0.0401995;90.1566;135.157;0.0062919;-0.00415957;0.0022401;-0.000193144;0.103687;0.00327333;0.102489;0;0.0875843;8.21056;4.14913
774000;775;;;;;;;;;;0.104286;-0.664429;-0.918451;1.13837;-5.88414;-0.000627901;0.00313031;0.100191;0.100288;-0.000725;0.0505063;0.00626706;159.564;0.0671014;0.0673418;138.328;0.00722921;92.5203;137.52;-0.0069285;-0.000632652;0.0114121;-0.00439274;0.100136;-0.00732879;-0.0106359;0;0.12542;-0.325977;-4.29232;-2.03902;4.76318;-7.90702;-0.00451706;-0.00164043;0.102297;0.102323;-0.00454225;0.0534324;0.0441562;22.6469;0.0697784;0.0712432;22.5268;0.0443915;92.5544;137.554;0.00177481;-0.00452583;0.00151385;-0.00448905;0.102298;0.0116271;0.112667;0;0.0925694;8.17859;4.15407
775000;776;;;;;;;;;;0.105027;-0.660686;-0.918837;1.13657;-5.88417;-0.00121036;0.00376967;0.0972459;0.0973901;-0.00135448;0.0493723;0.0124464;80.3448;0.0653829;0.0658297;71.9023;0.0139078;91.7391;136.739;-0.0120316;-0.00120731;0.0110438;-0.00285189;0.0971968;-0.012057;-0.00387455;0;0.118349;-0.326668;-4.30022;-2.04479;4.77282;-7.92088;-0.00395032;-0.000905733;0.102755;0.102763;-0.00395801;0.0533604;0.038444;26.0119;0.0698653;0.0711472;25.9633;0.0385159;92.6684;137.668;0.00202643;-0.00396082;0.00325252;-0.00466161;0.102751;0.00190041;0.106752;0;0.102188;8.17076;4.16085
776000;777;;;;;;;;;;0.107081;-0.652136;-0.920627;1.13327;-5.89388;-0.00107684;0.00323794;0.098576;0.0986811;-0.00118194;0.0499315;0.010924;91.5419;0.0661849;0.0665753;83.491;0.0119773;92.6264;137.626;-0.0173058;-0.00108152;0.0116974;-0.00445431;0.0985184;-0.00631055;-0.0371156;0;0.129145;-0.326795;-4.3054;-2.04507;4.77761;-7.92116;-0.00427732;-0.00112381;0.102186;0.102198;-0.00428918;0.0532437;0.041858;23.8903;0.0696059;0.0709915;23.827;0.0419692;92.8452;137.845;0.00251915;-0.00428896;0.00310537;-0.00494446;0.102182;0.00104351;0.104914;0;0.0992875;8.16867;4.16272
777000;778;;;;;;;;;;0.106649;-0.644609;-0.918358;1.12707;-5.89753;-0.00136118;0.00346147;0.0977152;0.097836;-0.00148197;0.049659;0.0139301;71.787;0.0657236;0.066212;66.0175;0.0151475;91.8476;136.848;-0.0105503;-0.00135981;0.0106075;-0.00303976;0.0976694;-0.0174821;-0.0115346;0;0.115741;-0.326853;-4.30686;-2.04318;4.77812;-7.91104;-0.00435678;-0.000371856;0.101283;0.101285;-0.00435809;0.0528214;0.0430157;23.2473;0.0690218;0.0704286;23.2406;0.0430281;91.6778;136.678;0.00241672;-0.00436082;0.00238074;-0.00286041;0.101281;0.0057691;0.103786;0;0.0826509;8.17326;4.16875
778000;779;29.6032;3.8573;0.149822;-3.12526;29.3679;-2.02559;-0.456049;3.77617;-1.13965;0.108481;-0.636843;-0.923713;1.1272;-5.90664;-0.00152479;0.00388525;0.0971933;0.097346;-0.00167746;0.0495117;0.0156882;63.7422;0.0654636;0.0660156;58.0317;0.017232;91.3941;136.394;-0.0243395;-0.00151971;0.0106007;-0.00222614;0.097149;-0.00730743;-0.0253393;0;0.124172;-0.327174;-4.31592;-2.04771;4.78825;-7.92249;-0.00445375;-0.000420944;0.101216;0.101218;-0.00445543;0.0528365;0.0440025;22.726;0.0690115;0.0704487;22.7178;0.0440183;91.7914;136.791;0.00191974;-0.00445834;0.00248923;-0.00305187;0.101213;0.00790259;0.103112;0;0.0869853;8.17694;4.17656
779000;780;29.6077;3.86182;0.149998;-3.1393;29.3708;-2.02779;-0.470081;3.77907;-1.14185;0.10832;-0.639033;-0.915949;1.12208;-5.88397;-0.000787839;0.00361776;0.0975013;0.0976343;-0.000920819;0.0492775;0.00808029;123.758;0.0653986;0.0657034;106.03;0.00943131;91.7764;136.776;-0.00684614;-0.00078571;0.010856;-0.00297237;0.0974536;-0.0144241;-0.0124076;0;0.124663;-0.326398;-4.32226;-2.04348;4.79211;-7.9147;-0.00477352;-0.000209488;0.101092;0.101093;-0.00477393;0.0529333;0.0472194;21.1777;0.0690415;0.0705777;21.176;0.0472233;91.6755;136.676;0.00482353;-0.0047775;0.00268515;-0.00282582;0.101089;0.0106669;0.0923904;0;0.0920294;8.1775;4.18447
780000;781;29.6379;3.892;0.15117;-3.13581;29.4052;-1.97514;-0.466591;3.81346;-1.08893;0.108344;-0.629978;-0.921547;1.12154;-5.89408;-0.00160221;0.00234023;0.0994089;0.0994631;-0.0016564;0.0505598;0.0161174;62.0449;0.0668677;0.067413;60.0478;0.0166534;92.8721;137.872;-0.00728479;-0.00161135;0.010281;-0.00487104;0.0993634;-0.00440006;0.0216839;0;0.128401;-0.329155;-4.33324;-2.05374;4.80657;-7.93416;-0.00440028;-0.00048428;0.102662;0.102664;-0.00440247;0.0535331;0.042862;23.3307;0.0699562;0.0713775;23.3196;0.0428824;91.8945;136.894;-0.00112484;-0.00440556;0.00261178;-0.00327973;0.102659;0.00325945;0.0923289;0;0.0883274;8.17386;4.19154
781000;782;;;;;;;;;;0.109499;-0.625217;-0.922949;1.12014;-5.88969;-0.000879897;0.00205801;0.0991839;0.0992262;-0.000922207;0.0500742;0.00887137;112.722;0.0664603;0.0667656;107.596;0.00929398;93.4859;138.486;-0.00720071;-0.000895873;0.0109375;-0.00601323;0.0991314;-0.00560709;0.00150374;0;0.123719;-0.328501;-4.33895;-2.05256;4.81117;-7.92052;-0.00435528;0.00110658;0.104073;0.104084;-0.00436657;0.0542252;0.0418485;23.8957;0.0708896;0.0723003;23.8365;0.0419524;90.3113;135.311;0.0058941;-0.00435476;0.00282877;-0.000446474;0.10407;0.00471313;0.104672;0;0.0829164;8.16361;4.19892
782000;783;;;;;;;;;;0.109969;-0.621274;-0.920879;1.11629;-5.87839;-0.000436225;0.00251567;0.101893;0.101954;-0.000498033;0.0512262;0.00428122;233.578;0.0681363;0.0683017;204.714;0.00488486;93.3969;138.397;-0.00678283;-0.000451519;0.0119854;-0.00607485;0.10183;0.00167629;-0.0170432;0;0.134889;-0.329625;-4.34804;-2.04935;4.81809;-7.91735;-0.00387525;-0.001079;0.103435;0.103446;-0.0038861;0.0536659;0.0374656;26.6912;0.070295;0.0715545;26.6194;0.0375665;92.7051;137.705;-7.69362e-05;-0.00388609;0.00301132;-0.00477152;0.103431;0.0155612;0.117453;0;0.0920758;8.15305;4.20628
783000;784;;;;;;;;;;0.113721;-0.603044;-0.927924;1.11249;-5.90058;-0.000172628;0.00495095;0.103033;0.10327;-0.00040959;0.0518397;0.00167547;596.849;0.0689835;0.0691196;252.13;0.00396621;91.5146;136.515;-0.0213372;-0.000164145;0.0134437;-0.00274742;0.102962;-0.0124165;-0.0113877;0;0.141241;-0.32972;-4.35722;-2.06057;4.83115;-7.93666;-0.00435652;-0.000862983;0.102907;0.102913;-0.00436346;0.0536385;0.0423347;23.6213;0.0701087;0.0715179;23.5853;0.0423993;92.6505;137.65;0.00286707;-0.00436686;0.00329936;-0.00462051;0.102902;-0.00113989;0.110779;0;0.0926946;8.12106;4.21392
784000;785;;;;;;;;;;0.113007;-0.598275;-0.929206;1.11091;-5.89816;-0.000466224;0.00370762;0.102673;0.102806;-0.000599332;0.0517028;0.00454085;220.223;0.0687382;0.0689371;171.535;0.00582972;92.5269;137.527;-0.0217272;-0.000469659;0.0128061;-0.00454003;0.102605;-0.0127462;-0.0117241;0;0.124895;-0.330336;-4.35942;-2.06124;4.83347;-7.9291;-0.00410795;-0.000445613;0.101152;0.101154;-0.00410984;0.052632;0.0406116;24.6235;0.068847;0.070176;24.6127;0.0406295;92.0081;137.008;0.000469265;-0.00411375;0.0028518;-0.00342782;0.101149;0.00955326;0.109951;0;0.0839465;8.11195;4.22106
785000;786;;;;;;;;;;0.113163;-0.595017;-0.925536;1.1061;-5.88892;-0.00210458;0.00326501;0.101495;0.101598;-0.00220738;0.0519025;0.0207359;48.2256;0.0684794;0.0692034;46.0263;0.0217267;92.6194;137.619;-0.00947042;-0.0021092;0.0117886;-0.0044571;0.101437;-0.00982836;-0.0353122;0;0.115146;-0.330859;-4.3691;-2.06014;4.84176;-7.93134;-0.00445988;-0.00043969;0.102376;0.102377;-0.00446169;0.0534195;0.043564;22.9548;0.0697864;0.071226;22.9459;0.0435809;91.7957;136.796;0.00432828;-0.0044646;0.0025022;-0.00309647;0.102373;-0.0028095;0.104102;0;0.0824092;8.11191;4.22873
786000;787;29.716;3.97018;0.154206;-3.13903;29.4795;-2.03627;-0.469819;3.88775;-1.15006;0.115111;-0.581469;-0.932285;1.10477;-5.91232;-0.00202641;0.00307851;0.10133;0.101422;-0.00211802;0.0517698;0.0199981;50.0047;0.0683313;0.0690264;47.885;0.0208834;92.6333;137.633;-0.00530093;-0.00203175;0.0114271;-0.00448677;0.101275;-0.0227383;-0.0258309;0;0.128625;-0.331333;-4.37639;-2.06953;4.85237;-7.94379;-0.00469306;-0.000353819;0.101936;0.101937;-0.00469423;0.0533157;0.0460393;21.7206;0.0695757;0.0710876;21.7154;0.0460502;91.7137;136.714;0.00100899;-0.00469731;0.00249856;-0.00293019;0.101933;-0.00192852;0.100621;0;0.0808625;8.10812;4.23528
787000;788;;;;;;;;;;0.115828;-0.57524;-0.930244;1.09985;-5.9108;-0.00174845;0.00213772;0.100178;0.100223;-0.00179327;0.051008;0.0174535;57.2952;0.0674209;0.0680107;55.8884;0.0178928;93.0178;138.018;-0.0137873;-0.00175947;0.0101737;-0.00515383;0.100133;0.00748196;-0.00585212;0;0.135239;-0.331354;-4.38437;-2.07251;4.86084;-7.94804;-0.00437595;-0.000361867;0.102728;0.102729;-0.00437717;0.0535533;0.0425973;23.4757;0.069991;0.0714044;23.4694;0.0426087;91.7617;136.762;0.00108445;-0.00438054;0.00260972;-0.00304483;0.102725;0.00281687;0.0969314;0;0.0842182;8.10056;4.24309
788000;789;;;;;;;;;;;;;;;;;;;;;;;;;;;;;;;;;;;;;;-0.331787;-4.38487;-2.06489;4.85808;-7.92572;-0.00448557;-0.000837199;0.101355;0.101361;-0.00449219;0.0529268;0.0442561;22.5957;0.0691203;0.070569;22.5639;0.0443186;91.7859;136.786;0.00116518;-0.00448998;0.00164631;-0.00308204;0.101354;0.00422742;0.108987;0;0.081406;8.08651;4.24583
789000;790;;;;;;;;;;0.117328;-0.564116;-0.933702;1.09717;-5.90191;-0.00250707;0.00253032;0.101369;0.101431;-0.00256867;0.0519996;0.0247321;40.4332;0.0684926;0.0693328;39.4876;0.0253244;92.5616;137.562;-0.00842474;-0.00251324;0.0101003;-0.00432582;0.101326;-0.0262267;-0.0248374;0;0.120105;-0.332147;-4.39555;-2.07594;4.87245;-7.9439;-0.00425436;0.000884944;0.104288;0.104295;-0.00426157;0.0542785;0.0407942;24.5133;0.0709935;0.0723714;24.4735;0.0408606;90.7245;135.724;0.000760518;-0.00425467;0.00318375;-0.00118791;0.104284;0.00700879;0.111167;0;0.0811785;8.06433;4.25198
790000;791;;;;;;;;;;;;;;;;;;;;;;;;;;;;;;;;;;;;;;-0.332162;-4.40222;-2.07428;4.87776;-7.94228;-0.00430887;-0.00083796;0.104091;0.104097;-0.00431535;0.0542063;0.0413953;24.1573;0.0708804;0.072275;24.1226;0.041455;92.7688;137.769;0.00327465;-0.00432048;0.00364489;-0.00488067;0.104085;0.0117393;0.118668;0;0.0984533;8.06073;4.25867
791000;792;;;;;;;;;;;;;;;;;;;;;;;;;;;;;;;;;;;;;;-0.333388;-4.40965;-2.07901;4.88656;-7.9502;-0.00442536;-0.00135455;0.103285;0.103302;-0.00444239;0.0538723;0.042846;23.3394;0.0703957;0.0718297;23.2538;0.0430038;92.8507;137.851;0.00262311;-0.0044371;0.00270876;-0.00502115;0.103283;0.00527504;0.117558;0;0.0894826;8.0589;4.26558
792000;793;;;;;;;;;;;;;;;;;;;;;;;;;;;;;;;;;;;;;;-0.333113;-4.41492;-2.08386;4.89336;-7.94759;-0.00471816;-0.000862821;0.101988;0.101995;-0.00472513;0.0533603;0.0462617;21.6162;0.0696255;0.071147;21.5857;0.0463269;92.08;137.08;-0.00302212;-0.00472428;0.00216527;-0.00359769;0.101987;0.00530128;0.103171;0;0.0836627;8.04961;4.27312
793000;794;;;;;;;;;;;;;;;;;;;;;;;;;;;;;;;;;;;;;;-0.334752;-4.42946;-2.08801;4.90836;-7.96227;-0.00455901;-0.000397646;0.101978;0.101979;-0.00456049;0.0532698;0.044706;22.3684;0.0695561;0.0710264;22.3614;0.0447199;91.805;136.805;0.000185833;-0.00456374;0.00258688;-0.00309363;0.101975;-0.00089779;0.101596;0;0.082733;8.03228;4.27963
794000;795;;;;;;;;;;;;;;;;;;;;;;;;;;;;;;;;;;;;;;-0.336911;-4.44194;-2.08462;4.91833;-7.969;-0.00439604;-0.000561011;0.100907;0.10091;-0.00439903;0.0526544;0.0435654;22.954;0.0687864;0.0702058;22.9391;0.0435938;92.2695;137.269;-0.00246174;-0.00440337;0.00308765;-0.00386067;0.100903;0.00340842;0.0995649;0;0.0869125;8.00627;4.2872
795000;796;;;;;;;;;;;;;;;;;;;;;;;;;;;;;;;;;;;;;;-0.335694;-4.44482;-2.0862;4.92152;-7.96173;-0.00449161;-0.000356941;0.103496;0.103498;-0.00449279;0.0539952;0.0433987;23.0422;0.0705437;0.0719936;23.0364;0.0434096;91.9045;136.905;0.000448177;-0.00449705;0.00291765;-0.00331108;0.103493;0.00135207;0.102108;0;0.0867394;7.99435;4.29453
796000;797;;;;;;;;;;;;;;;;;;;;;;;;;;;;;;;;;;;;;;-0.335703;-4.44702;-2.08735;4.92399;-7.95175;-0.00450403;-0.000846788;0.102121;0.102127;-0.00451075;0.0533191;0.0441049;22.6732;0.0696372;0.0710921;22.6409;0.0441679;92.4414;137.441;0.00110851;-0.00451262;0.0028895;-0.0042216;0.102117;0.0158744;0.106472;0;0.0838159;7.98463;4.30229
797000;798;;;;;;;;;;;;;;;;;;;;;;;;;;;;;;;;;;;;;;-0.336655;-4.45742;-2.08861;4.93398;-7.95661;-0.00430363;-0.00136702;0.103747;0.103765;-0.00432092;0.0540427;0.0414818;24.1069;0.0706607;0.072057;24.0145;0.0416416;92.796;137.796;0.000753444;-0.00431501;0.00260841;-0.00495326;0.103745;0.00837432;0.114564;0;0.089971;7.96268;4.30803
798000;799;;;;;;;;;;;;;;;;;;;;;;;;;;;;;;;;;;;;;;-0.335554;-4.46748;-2.08463;4.94132;-7.95263;-0.00442026;-0.000734829;0.103259;0.103264;-0.00442527;0.0538446;0.0428075;23.3604;0.0703641;0.0717928;23.3351;0.042854;93.1159;138.116;0.00202355;-0.00443479;0.00446814;-0.00542996;0.10325;0.0101878;0.119819;0;0.0929084;7.95166;4.31542
799000;800;;;;;;;;;;0.127339;-0.489117;-0.94465;1.07136;-5.90509;-0.00129072;0.00136271;0.102116;0.102134;-0.00130867;0.0517211;0.0126397;79.1155;0.0685295;0.0689615;78.0438;0.0128133;94.3045;139.304;-0.0064176;-0.00131893;0.0112862;-0.00762978;0.102059;-0.0126086;-0.0166605;0;0.132926;-0.336945;-4.4734;-2.10168;4.95398;-7.97287;-0.00478446;-0.00081726;0.103036;0.103043;-0.00479066;0.0539166;0.0464347;21.5356;0.0703463;0.0718888;21.5091;0.046492;92.3977;137.398;0.00570455;-0.00479288;0.00290296;-0.00417382;0.103033;0.00222615;0.10785;0;0.0860728;7.92548;4.31839
800000;801;29.9402;4.19437;0.162914;-3.15931;29.7035;-2.03382;-0.490099;4.11174;-1.14789;0.127858;-0.476515;-0.944617;1.0657;-5.91616;-0.000652033;0.00314824;0.10329;0.103385;-0.000747301;0.0520662;0.00631266;158.412;0.0691738;0.0694215;138.345;0.00722833;93.3927;138.393;-0.0182775;-0.000665908;0.0133972;-0.00613544;0.103213;-0.0292036;-0.0341332;0;0.119258;-0.338056;-4.48311;-2.10077;4.96243;-7.97069;-0.00443546;-6.38671e-05;0.101661;0.101661;-0.0044355;0.053048;0.0436301;22.92;0.0692996;0.0707307;22.9198;0.0436305;91.4821;136.482;0.00664815;-0.00443862;0.0026448;-0.00251167;0.101657;0.00502517;0.104381;0;0.0857442;7.90586;4.32355
801000;802;29.9494;4.20354;0.163271;-3.16391;29.7109;-2.05423;-0.494694;4.1191;-1.16802;0.129834;-0.464469;-0.943496;1.05961;-5.91809;-0.00134167;0.00317702;0.103253;0.103349;-0.00143808;0.0523936;0.012994;76.9583;0.0693837;0.0698581;71.8659;0.0139148;93.0615;138.061;-0.0115506;-0.00135141;0.0126916;-0.00543572;0.103184;-0.030281;-0.0327917;0;0.116705;-0.339012;-4.49583;-2.10961;4.97774;-7.99399;-0.00441778;-0.000467958;0.100738;0.10074;-0.00441986;0.0525798;0.0438542;22.8028;0.0686806;0.0701064;22.7925;0.043874;92.376;137.376;-0.00267449;-0.0044258;0.00346455;-0.00402478;0.100732;0.00336847;0.102972;0;0.0821815;7.87789;4.33083
802000;803;;;;;;;;;;0.131082;-0.45408;-0.951521;1.06243;-5.93433;-0.00111863;0.00252296;0.104591;0.104651;-0.00117881;0.0529151;0.0106952;93.4998;0.0701639;0.0705535;88.7775;0.0112641;93.3414;138.341;-0.0219472;-0.00113378;0.0120064;-0.00605308;0.104529;-0.0193677;-0.0347026;0;0.125093;-0.337995;-4.498;-2.10506;4.9777;-7.97031;-0.00452605;-0.00070336;0.101205;0.10121;-0.00453073;0.0528702;0.0447216;22.3605;0.0690329;0.0704936;22.3385;0.0447658;92.3751;137.375;0.00748387;-0.00453408;0.0030081;-0.00405846;0.101201;0.00802851;0.111867;0;0.0859421;7.85302;4.33801
803000;804;;;;;;;;;;0.13234;-0.446969;-0.939501;1.04879;-5.92069;-0.00150164;0.00198296;0.102395;0.102433;-0.00153948;0.0519862;0.0146652;68.1888;0.0688076;0.069315;66.5376;0.0150291;93.6778;138.678;-0.0194544;-0.00152077;0.0113374;-0.00649;0.102339;0.0216564;-0.0598632;0;0.123564;-0.33865;-4.5095;-2.10221;4.98694;-7.97021;-0.00439514;-0.000942458;0.104538;0.104546;-0.00440329;0.0544746;0.0420436;23.7848;0.0712104;0.0726328;23.7426;0.0421183;92.3379;137.338;-0.00163225;-0.00440336;0.00261943;-0.00415305;0.104535;0.0122076;0.120483;0;0.10153;7.82519;4.34584
804000;805;;;;;;;;;;0.132897;-0.440212;-0.949216;1.05473;-5.91691;-0.00133615;0.00263639;0.100701;0.100769;-0.00140423;0.0510867;0.0132685;75.3664;0.0676524;0.0681156;71.7613;0.0139351;92.8298;137.83;-0.0153178;-0.00134463;0.0109288;-0.00488743;0.10065;-0.0265075;-0.0677607;0;0.117912;-0.338641;-4.51844;-2.10939;4.99805;-7.97739;-0.00442795;-0.00129611;0.103703;0.103719;-0.00444348;0.054081;0.0426984;23.4201;0.0706735;0.072108;23.3417;0.0428417;93.331;138.331;0.0021803;-0.00444442;0.00377643;-0.00587167;0.103697;0.0106555;0.115332;0;0.0898734;7.79079;4.35328
805000;806;;;;;;;;;;0.134346;-0.428425;-0.952524;1.05304;-5.91672;-0.000765452;0.00323364;0.101236;0.101338;-0.000867862;0.0511031;0.00756107;132.256;0.0678501;0.0681375;116.768;0.008564;92.4753;137.475;-0.0102001;-0.000769659;0.0115836;-0.00434308;0.10118;-0.00165573;-0.0393582;0;0.12526;-0.340219;-4.52799;-2.11762;5.01026;-7.99038;-0.00439311;6.6108e-05;0.101812;0.101812;-0.00439316;0.0531025;0.0431493;23.1753;0.0693854;0.0708034;23.1751;0.0431497;92.3822;137.382;0.000999926;-0.0044013;0.00460734;-0.00403739;0.101802;0.00669873;0.113361;0;0.0857377;7.75703;4.36106
806000;807;;;;;;;;;;;;;;;;;;;;;;;;;;;;;;;;;;;;;;-0.343118;-4.54725;-2.1207;5.02917;-7.99684;-0.00554554;0.00331753;0.10057;0.100674;-0.00564916;0.0531616;0.0551409;18.1354;0.0690761;0.0708821;17.8211;0.0561134;88.1129;133.113;0.00155766;-0.00554609;0.00313835;0.00347943;0.100571;0.0258394;0.0732367;0;0.111448;3.89801;4.44352
807000;808;;;;;;;;;;;;;;;;;;;;;;;;;;;;;;;;;;;;;;-0.60417;-5.82455;-2.24629;6.27186;-8.12055;-0.00337089;-0.000758656;0.0946686;0.0946745;-0.00337676;0.0490256;0.0356072;28.0842;0.0642715;0.0653675;28.0371;0.035667;91.21;136.21;0.00175401;-0.00337256;0.000579018;-0.00197653;0.0946687;4.12284e-05;0.0849602;0;0.0930064;-0.00749514;4.39317
808000;809;;;;;;;;;;;;;;;;;;;;;;;;;;;;;;;;;;;;;;-0.59369;-5.81003;-2.23681;6.25398;-8.10602;-0.00392613;-0.000835576;0.0938223;0.0938295;-0.00393327;0.0488814;0.0418464;23.8969;0.0639044;0.0651752;23.8553;0.0419193;90.7858;135.786;0.00825788;-0.00392662;-0.000327495;-0.00129825;0.0938226;-0.00229671;0.0849145;0;0.104206;-0.00828273;4.37866
