Time;Image index (Image index);Distance L(t) (Extensometer 1);Change in distance (Extensometer 1);Strain - RC (Extensometer 1);Distance x L(t) (Extensometer 1);Distance y L(t) (Extensometer 1);Distance z L(t) (Extensometer 1);Change in distance x (Extensometer 1);Change in distance y (Extensometer 1);Change in distance z (Extensometer 1);X-displacement (Strain Gauge 1);Y-displacement (Strain Gauge 1);Z-displacement (Strain Gauge 1);Displacement (Strain Gauge 1);Height (Strain Gauge 1);Exx - RC (Strain Gauge 1);Exy - RC (Strain Gauge 1);Eyy - RC (Strain Gauge 1);Max. principal strain - RC (Strain Gauge 1);Min. principal strain - RC (Strain Gauge 1);Max. shear strain - RC (Strain Gauge 1);Poisson ratio -Exx/Eyy (Strain Gauge 1);Poisson ratio -Eyy/Exx (Strain Gauge 1);Von Mises - RC (Strain Gauge 1);Tresca - RC (Strain Gauge 1);Poisson ratio -strain max/min (Strain Gauge 1);Poisson ratio -strain min/max (Strain Gauge 1);Max. strain angle (Strain Gauge 1);Max. shear angle (Strain Gauge 1);Vorticity-z (Strain Gauge 1);du/dx (Strain Gauge 1);du/dy (Strain Gauge 1);dv/dx (Strain Gauge 1);dv/dy (Strain Gauge 1);dw/dx (Strain Gauge 1);dw/dy (Strain Gauge 1);Ezz plane stress state (Strain Gauge 1);Stereo reconstruction error (Strain Gauge 1);X-displacement (Strain Gauge 2);Y-displacement (Strain Gauge 2);Z-displacement (Strain Gauge 2);Displacement (Strain Gauge 2);Height (Strain Gauge 2);Exx - RC (Strain Gauge 2);Exy - RC (Strain Gauge 2);Eyy - RC (Strain Gauge 2);Max. principal strain - RC (Strain Gauge 2);Min. principal strain - RC (Strain Gauge 2);Max. shear strain - RC (Strain Gauge 2);Poisson ratio -Exx/Eyy (Strain Gauge 2);Poisson ratio -Eyy/Exx (Strain Gauge 2);Von Mises - RC (Strain Gauge 2);Tresca - RC (Strain Gauge 2);Poisson ratio -strain max/min (Strain Gauge 2);Poisson ratio -strain min/max (Strain Gauge 2);Max. strain angle (Strain Gauge 2);Max. shear angle (Strain Gauge 2);Vorticity-z (Strain Gauge 2);du/dx (Strain Gauge 2);du/dy (Strain Gauge 2);dv/dx (Strain Gauge 2);dv/dy (Strain Gauge 2);dw/dx (Strain Gauge 2);dw/dy (Strain Gauge 2);Ezz plane stress state (Strain Gauge 2);Stereo reconstruction error (Strain Gauge 2);Load ADC 1 channel 1;Position ADC 1 channel 2
ms;;mm;mm;S;mm;mm;mm;mm;mm;mm;mm;mm;mm;mm;mm;S;S;S;S;S;S;;;S;S;;;°;°;S;S;S;S;S;S;S;S;pixel;mm;mm;mm;mm;mm;S;S;S;S;S;S;;;S;S;;;°;°;S;S;S;S;S;S;S;S;pixel;kN;mm
0.02515;1;26.2906;0;0;-2.00486;26.2071;-0.603077;0;0;0;0;0;0;0;-5.86437;-2.22045e-16;-6.93889e-18;-2.22045e-16;-2.15106e-16;-2.28983e-16;6.93889e-18;;;1.48246e-16;9.25186e-18;;;0;45;0;-2.22045e-16;-1.38778e-17;1.70682e-29;-2.22045e-16;0;0;0;0;0;0;0;0;-6.58271;-2.22045e-16;-7.63278e-17;0;2.37066e-17;-2.45751e-16;1.34729e-16;;;1.72281e-16;1.79639e-16;;;0;45;0;-2.22045e-16;-6.93889e-17;-8.32667e-17;0;0;0;0;0;-0.0113002;0.21499
1000.03;2;26.2918;0.00114233;4.34501e-05;-2.00539;26.208;-0.614012;-0.000531073;0.000851443;-0.0109345;0.000372394;-0.00216838;-0.00157567;0.00270615;-5.86595;0.000217365;0.000190388;-5.60138e-06;0.000326509;-0.000114745;0.000220627;;;0.000264356;0.000294169;2.84551;0.35143;60.2321;105.232;0.000323651;0.000217383;0.000379994;7.40925e-07;-5.65545e-06;-0.00140437;0.000354012;0;0.0132547;0.000581511;-0.00243419;-0.00446201;0.00511595;-6.58718;-0.000253664;0.000435665;-0.000161681;0.000230413;-0.000645758;0.000438086;-1.56892;-0.637381;0.000524462;0.000584114;0.35681;2.80261;107.262;152.262;-0.00105496;-0.000253571;0.000817975;5.33896e-05;-0.000161921;0.0037601;0.00174841;0;0.0201292;-0.0112951;0.221497
2000.03;3;26.2915;0.000874951;3.328e-05;-2.00518;26.2074;-0.628822;-0.000313853;0.000248667;-0.0257444;-0.000545019;-0.00630785;-0.00551797;0.00839846;-5.86989;0.000226888;-0.00021154;-0.000287842;0.000302669;-0.000363622;0.000333146;0.788241;1.26865;0.00038522;0.000444194;0.832372;1.20139;31.6686;76.6686;0.000496962;0.000226851;-7.69924e-05;-0.000346158;-0.000287822;-0.00146922;0.00219313;0;0.011413;-0.000385716;-0.00618465;-0.014314;0.0155978;-6.59703;-0.000203281;0.000473148;-0.000127334;0.000309361;-0.000639977;0.000474669;-1.59643;-0.626396;0.00055907;0.000632892;0.483395;2.0687;109.427;154.427;-0.00100346;-0.000203196;0.000715714;0.0002306;-0.000127479;0.00516789;0.000317598;0;0.0213188;-0.0112026;0.229165
3000.03;4;26.2903;-0.000309433;-1.17697e-05;-2.00406;26.206;-0.638185;0.000808036;-0.00108005;-0.0351076;-4.16451e-06;-0.00974253;-0.00928295;0.013457;-5.87366;0.000332084;-0.000507538;7.95343e-05;0.00072882;-0.000317201;0.000523011;-4.17536;-0.2395;0.000619311;0.000697347;2.29766;0.435226;160.935;25.9348;0.000143867;0.00033199;-0.000347308;-0.000667808;7.96028e-05;-0.000825025;0.0019375;0;0.00967768;-9.47409e-05;-0.00948937;-0.0214244;0.0234321;-6.60414;-0.000257147;0.000493242;-0.000166389;0.000283557;-0.000707093;0.000495325;-1.54546;-0.647056;0.000589119;0.000660434;0.401018;2.49365;117.897;162.897;-0.000414053;-0.000257076;0.000667533;0.000318967;-0.00016649;0.00423718;0.000221214;0;0.0231875;-0.0111611;0.23657
4000.03;5;26.2908;0.000144628;5.50112e-06;-2.00291;26.2065;-0.641374;0.00195451;-0.000614743;-0.0382971;-0.00147534;-0.010844;-0.0150709;0.0186253;-5.87945;0.000478939;-0.000457968;-0.000289667;0.000692485;-0.000503212;0.000597849;1.65342;0.604809;0.000693213;0.000797132;1.37613;0.726676;6.28024;51.2802;0.000696779;0.000478839;-0.000275737;-0.000640338;-0.0002896;-0.00314332;0.00392243;0;0.0141577;-0.00134508;-0.0106208;-0.0293403;0.0312324;-6.61205;-0.000283336;0.000467876;-1.91459e-05;0.000334925;-0.000637407;0.000486166;-14.7988;-0.0675732;0.000570359;0.000648221;0.525449;1.90313;127.273;172.273;-0.000797104;-0.000283297;0.000559536;0.000376241;-1.9193e-05;0.00657423;-0.00031408;0;0.026647;-0.0111511;0.244079
5000.03;6;26.2906;-5.17386e-05;-1.96795e-06;-2.00251;26.2063;-0.642525;0.00235306;-0.00080946;-0.0394473;-0.00151088;-0.0129251;-0.0162514;0.0208195;-5.88063;0.000496754;-0.000296332;-0.000128692;0.000614854;-0.000246792;0.000430823;3.86002;0.259066;0.000512377;0.000574431;2.49139;0.401383;179.076;44.0761;0.00109897;0.000496693;-0.00013289;-0.000459877;-0.000128657;-0.00332923;0.00346819;0;0.0123377;-0.00175807;-0.012647;-0.0336552;0.035996;-6.61637;-0.000298268;0.000474546;-1.41226e-05;0.000339162;-0.000651552;0.000495357;-21.1199;-0.0473488;0.00058139;0.000660476;0.520545;1.92107;125.911;170.911;-0.000898145;-0.000298222;0.00058328;0.000365843;-1.41801e-05;0.00643986;0.000109172;0;0.0267517;-0.0108608;0.251209
6000.03;7;26.2922;0.00159271;6.05809e-05;-2.00405;26.2079;-0.639918;0.000816795;0.000786624;-0.0368406;-0.00287185;-0.0139192;-0.0165333;0.0218023;-5.88091;0.000704115;-0.000341502;-3.6014e-06;0.000842028;-0.000141515;0.000491772;;;0.000613984;0.000655695;5.95012;0.168064;177.772;42.7718;0.000943452;0.000703975;-5.24766e-05;-0.000630732;-3.54446e-06;-0.00376599;0.00517554;0;0.0150476;-0.00436069;-0.0131645;-0.0362324;0.0387957;-6.61895;-0.000291028;0.000498423;4.5302e-05;0.000403164;-0.00064889;0.000526027;6.42418;0.155662;0.000612902;0.00070137;0.621313;1.60949;117.973;162.973;-0.00136685;-0.000290961;0.000659685;0.000337215;4.52086e-05;0.00780289;-0.000124821;0;0.0281057;-0.0105037;0.259197
7000.03;8;26.2901;-0.000491736;-1.87039e-05;-2.00647;26.2055;-0.645042;-0.00160376;-0.00161538;-0.0419648;-0.00339254;-0.0144905;-0.0169883;0.0225851;-5.88136;0.000438726;-0.000262485;-0.000544148;0.000504432;-0.000609855;0.000557144;0.806261;1.24029;0.000644293;0.000742858;0.827135;1.20899;35.0357;80.0357;0.000306389;0.000438563;0.000103595;-0.000628926;-0.000544119;-0.00230823;0.00508507;0;0.01241;-0.00787773;-0.0136211;-0.0367944;0.0400177;-6.61951;-0.000351724;0.000601038;1.94292e-05;0.000462888;-0.000795183;0.000629035;18.1029;0.0552397;0.000734745;0.000838714;0.582115;1.71787;111.083;156.083;-0.00139796;-0.000351574;0.000957105;0.000245104;1.91518e-05;0.0075412;0.000767581;0;0.029395;-0.0105417;0.266464
8000.03;9;26.2897;-0.000931385;-3.54265e-05;-2.01086;26.2047;-0.647294;-0.00599647;-0.00244867;-0.0442162;-0.00440682;-0.0154488;-0.0153958;0.0222513;-5.87977;0.000288795;-0.000341894;-0.000212603;0.000462055;-0.000385863;0.000423959;1.35838;0.736172;0.000490204;0.000565279;1.19746;0.835102;15.7402;60.7402;0.000495901;0.000288533;0.000115721;-0.000799738;-0.000212551;-0.00322276;0.00375203;0;0.0112468;-0.0123678;-0.0148982;-0.0343178;0.0394034;-6.61703;-0.000164037;0.000622496;1.50689e-05;0.000554421;-0.000703388;0.000628904;10.8858;0.0918631;0.000727892;0.000838539;0.788214;1.26869;99.9738;144.974;-0.00130956;-0.000163878;0.00097994;0.000265116;1.47825e-05;0.00680933;0.00175444;0;0.0288237;-0.00986724;0.273391
9000.03;10;26.291;0.00039511;1.50286e-05;-2.01105;26.206;-0.64702;-0.00618461;-0.00112555;-0.0439423;-0.0069144;-0.0159674;-0.0197936;0.0263543;-5.88417;0.00045442;-0.000390709;-0.000234185;0.000630884;-0.000410649;0.000520767;1.94043;0.51535;0.000605794;0.000694355;1.53631;0.650912;14.4621;59.4621;0.000678585;0.0004541;0.000107959;-0.000889721;-0.000234115;-0.00348159;0.00420424;0;0.0168312;-0.0149762;-0.0153941;-0.0399054;0.0453179;-6.62262;-0.00024907;0.000571879;-0.00010931;0.000396943;-0.000755323;0.000576133;-2.27857;-0.438871;0.000675902;0.000768177;0.525527;1.90285;103.206;148.206;-0.00159561;-0.000248909;0.00107901;6.48146e-05;-0.000109728;0.00770774;0.00218246;0;0.0307321;-0.00930739;0.280497
10000;11;26.2889;-0.00167321;-6.36429e-05;-2.0117;26.2039;-0.647721;-0.00683962;-0.00326819;-0.0446437;-0.00657346;-0.0171768;-0.012694;0.0223471;-5.87707;0.000475021;-0.000258245;-0.000346783;0.000549435;-0.000421197;0.000485316;1.36979;0.730037;0.000562022;0.000647088;1.30446;0.7666;25.4683;70.4683;0.000343503;0.000474744;0.00027144;-0.000788367;-0.000346787;-0.00354978;0.00452835;0;0.0121767;-0.0147737;-0.0149162;-0.0345757;0.0404504;-6.61729;-0.000191552;0.000612142;-0.000101872;0.00046707;-0.000760494;0.000613782;-1.88032;-0.531823;0.000715452;0.000818376;0.614167;1.62822;98.2209;143.221;-0.00139818;-0.000191367;0.00128661;-6.22623e-05;-0.000102512;0.0072814;0.00318118;0;0.028521;-0.00922331;0.288032
11000;12;26.2896;-0.000983188;-3.73969e-05;-2.0126;26.2046;-0.641848;-0.00773495;-0.00250015;-0.0387703;-0.00589541;-0.0145018;-0.0146098;0.0214127;-5.87898;0.000472427;-0.000217847;-0.000265348;0.00053195;-0.00032487;0.00042841;1.78041;0.561669;0.000499478;0.000571213;1.63742;0.610716;23.708;68.708;0.000530512;0.000472202;0.000268864;-0.000704917;-0.00026536;-0.00392389;0.00393536;0;0.01058;-0.0145178;-0.0132266;-0.0320409;0.037581;-6.61475;-0.000176274;0.000629799;-0.000115335;0.000484731;-0.00077634;0.000630535;-1.52837;-0.654293;0.000734539;0.000840714;0.62438;1.60159;100.439;145.439;-0.00212909;-0.000176093;0.00107534;0.000184285;-0.000115715;0.00936382;0.00233007;0;0.0297416;-0.00926773;0.292098
12000;13;26.2898;-0.00086287;-3.28205e-05;-2.01201;26.2048;-0.63984;-0.00714608;-0.00228512;-0.0367625;-0.00654676;-0.0114281;-0.0170674;0.0215583;-5.88144;0.000250114;-0.000491688;-0.00014691;0.000581851;-0.000478647;0.000530249;1.70249;0.587373;0.000613244;0.000706998;1.21562;0.822629;8.49438;53.4944;0.000336793;0.000249647;0.000100405;-0.00108401;-0.000146794;-0.00259507;0.00411594;0;0.0101142;-0.014954;-0.0111036;-0.0326322;0.0375735;-6.61535;-0.000200146;0.000691469;-3.90113e-05;0.000576569;-0.000815726;0.000696147;-5.13048;-0.194914;0.000807785;0.000928196;0.706816;1.41479;98.3594;143.359;-0.00226092;-0.000199907;0.00136333;1.97122e-05;-3.97016e-05;0.0103667;0.00352454;0;0.0271085;-0.00921161;0.297727
13000;14;26.2894;-0.00118043;-4.48991e-05;-2.01352;26.2043;-0.642301;-0.00866023;-0.00278022;-0.0392236;-0.00619579;-0.0116291;-0.0147442;0.0197741;-5.87912;0.000381919;-0.000231871;-0.0002556;0.000457332;-0.000331013;0.000394172;1.49421;0.669252;0.000457095;0.000525563;1.38161;0.723791;23.1205;68.1205;0.000432454;0.000381702;0.000234342;-0.000698382;-0.0002556;-0.00372618;0.00371189;0;0.0128599;-0.0146732;-0.0109997;-0.0317494;0.036665;-6.61446;-0.000172023;0.000663561;-7.62756e-05;0.000541136;-0.000789435;0.000665286;-2.25528;-0.443403;0.000772651;0.000887048;0.685473;1.45885;98.1229;143.123;-0.00204956;-0.000171807;0.0012409;8.62765e-05;-7.68254e-05;0.00968553;0.00316463;0;0.0289622;-0.00912827;0.302576
14000;15;26.2902;-0.000403384;-1.53433e-05;-2.01286;26.2053;-0.636935;-0.00799335;-0.00181845;-0.0338576;-0.00645133;-0.0135392;-0.00664675;0.0164045;-5.87102;0.000403361;-0.00055218;-0.000570049;0.000652716;-0.000819404;0.00073606;0.70759;1.41325;0.000851743;0.000981414;0.796574;1.25538;24.9704;69.9704;0.000380012;0.000402902;1.03289e-06;-0.00110593;-0.000569896;-0.00342718;0.00463097;0;0.0150253;-0.0148202;-0.0117691;-0.024319;0.0308151;-6.60703;-8.61867e-05;0.000707403;-5.64042e-06;0.000662635;-0.000754462;0.000708549;;;0.000818734;0.000944731;0.878288;1.13858;93.4289;138.429;-0.00226918;-8.59366e-05;0.00143309;-1.82263e-05;-6.41708e-06;0.0101704;0.0023902;0;0.0295608;-0.00942729;0.309643
15000;16;26.2898;-0.000786525;-2.99166e-05;-2.01276;26.2049;-0.638818;-0.00790013;-0.0022415;-0.0357404;-0.00667136;-0.0117544;-0.0101527;0.0169041;-5.87453;0.000512648;-6.16274e-05;4.41494e-05;0.000520619;3.61784e-05;0.00024222;-11.6117;-0.0861202;0.000335671;0.000322961;-14.3903;-0.0694911;23.1077;68.1077;-7.20087e-06;0.000512492;0.000439939;-0.000563429;4.40545e-05;-0.00359309;0.00387282;0;0.0184227;-0.0151221;-0.0113075;-0.0254508;0.0316904;-6.60816;-0.000148821;0.000682199;-4.67701e-05;0.000586309;-0.0007819;0.000684105;-3.18196;-0.314271;0.000792622;0.00091214;0.749852;1.3336;96.2246;141.225;-0.00230374;-0.000148588;0.0013616;2.87183e-06;-4.74644e-05;0.00934919;0.00286116;0;0.0341847;-0.00913466;0.317219
16000;17;26.29;-0.000660124;-2.51087e-05;-2.01204;26.2051;-0.638394;-0.00717579;-0.00204875;-0.0353171;-0.00724968;-0.010625;-0.015908;0.0204577;-5.88028;0.000495038;-0.000446557;-0.000125784;0.000728473;-0.000359218;0.000543846;3.93563;0.254089;0.000639928;0.000725127;2.02794;0.493112;8.03519;53.0352;0.000484179;0.000494646;9.82195e-05;-0.000991672;-0.000125689;-0.00243323;0.00470853;0;0.0107659;-0.0153838;-0.0104725;-0.0298925;0.0352121;-6.61261;-9.83986e-05;0.000667545;-3.74212e-05;0.000600331;-0.000736151;0.000668241;-2.62948;-0.380303;0.000772945;0.000890988;0.8155;1.22624;94.2492;139.249;-0.00225148;-9.81758e-05;0.00132445;1.06816e-05;-3.80755e-05;0.010195;0.00299794;0;0.0274738;-0.00929222;0.324216
17000;18;26.2899;-0.000704687;-2.68038e-05;-2.01186;26.205;-0.640976;-0.00699383;-0.00214249;-0.0378983;-0.00723182;-0.0100421;-0.0222579;0.0254668;-5.88663;0.000552448;-0.000233786;-0.000204458;0.000618835;-0.000270845;0.00044484;2.70201;0.370094;0.000526592;0.00059312;2.28483;0.437669;19.5329;64.5329;-6.19061e-05;0.000552207;0.000265305;-0.000733256;-0.000204466;-0.00294666;0.00310274;0;0.0101403;-0.0155353;-0.0105417;-0.0368592;0.0413652;-6.61957;-0.000182189;0.000677484;-5.84045e-05;0.000560008;-0.000800602;0.000680305;-3.11943;-0.320571;0.000789632;0.000907073;0.699484;1.42963;97.7404;142.74;-0.00217894;-0.00018196;0.00134075;1.42966e-05;-5.90739e-05;0.00915726;0.00333785;0;0.0276695;-0.00911949;0.331439
18000;19;26.2908;0.000203471;7.73929e-06;-2.01167;26.2058;-0.64425;-0.00680655;-0.00129731;-0.0411727;-0.00647805;-0.0140875;-0.0158184;0.0221505;-5.88019;0.000571678;-0.000473555;-0.000462496;0.000755757;-0.000646575;0.000701166;1.23607;0.809014;0.000810454;0.000934888;1.16886;0.855532;20.4875;65.4875;0.000736169;0.000571339;3.32589e-06;-0.00095093;-0.000462384;-0.00391114;0.00415586;0;0.0122859;-0.0144662;-0.0131533;-0.0330649;0.0384132;-6.61578;-0.000194382;0.000617406;-9.70967e-05;0.00047358;-0.000765058;0.000619319;-2.00194;-0.499515;0.000721698;0.000825758;0.619011;1.61548;99.8412;144.841;-0.00182603;-0.000194194;0.00115406;8.08045e-05;-9.7572e-05;0.00782307;0.00265659;0;0.0284476;-0.00890308;0.33854
19000;20;26.2906;2.89581e-05;1.10146e-06;-2.01059;26.2058;-0.642135;-0.00572739;-0.00133767;-0.0390581;-0.00600883;-0.0141339;-0.0166605;0.0226593;-5.88103;0.000393731;-0.000352115;-0.000104753;0.00057589;-0.000286912;0.000431401;3.75865;0.266053;0.000507367;0.000575201;2.0072;0.498207;9.94299;54.943;0.000337685;0.000393409;0.00017266;-0.000877152;-0.000104706;-0.00285171;0.00432793;0;0.00990752;-0.0140862;-0.0132904;-0.0353551;0.0403118;-6.61807;-0.000159065;0.000649474;-9.30676e-05;0.000524245;-0.000776378;0.000650311;-1.70914;-0.58509;0.000755603;0.000867082;0.675245;1.48094;97.4083;142.408;-0.00179816;-0.000158856;0.00124639;5.26001e-05;-9.36335e-05;0.00884334;0.00192677;0;0.0290368;-0.0086567;0.346257
20000;21;26.2889;-0.00167764;-6.38112e-05;-2.01073;26.2038;-0.651922;-0.00586518;-0.00330201;-0.0488447;-0.00662175;-0.0167611;-0.0155365;0.0237942;-5.87991;0.000594514;-0.000439413;-0.000221123;0.000786196;-0.000412804;0.0005995;2.68862;0.371938;0.000703343;0.000799333;1.90453;0.525065;10.2285;55.2285;0.000668758;0.000594213;1.35304e-05;-0.000892727;-0.000221026;-0.00342444;0.00413507;0;0.010522;-0.0145232;-0.0155431;-0.0357752;0.0416218;-6.61849;-0.000223429;0.000571919;-9.55496e-05;0.000415993;-0.000734971;0.000575482;-2.33835;-0.427651;0.000672962;0.000767309;0.565999;1.76679;101.682;146.682;-0.00125426;-0.000223267;0.00109356;5.0344e-05;-9.59841e-05;0.00749119;0.00221003;0;0.0294203;-0.00855617;0.353541
21000;22;26.29;-0.000654302;-2.48873e-05;-2.01118;26.2048;-0.652758;-0.00631723;-0.00233086;-0.0496809;-0.00572584;-0.016914;-0.0180513;0.0253913;-5.88243;0.000577399;-0.000525453;-0.000494527;0.000792007;-0.000709135;0.000750571;1.16758;0.856474;0.000867125;0.00100076;1.11686;0.895365;20.0098;65.0098;0.000777142;0.000577083;-9.81135e-05;-0.00095325;-0.000494394;-0.00390722;0.00581396;0;0.0116893;-0.0142566;-0.0157279;-0.0403392;0.0455837;-6.62305;-0.000281097;0.000601633;-0.000166907;0.000380334;-0.000828338;0.000604336;-1.68416;-0.593768;0.000713627;0.000805782;0.459153;2.17792;104.257;149.257;-0.000930619;-0.000280919;0.00112657;7.67576e-05;-0.00016736;0.00664376;0.00226525;0;0.0301606;-0.00803141;0.360305
22000;23;26.2898;-0.000818376;-3.11281e-05;-2.01116;26.2046;-0.654198;-0.00629875;-0.00252995;-0.0511204;-0.00716596;-0.0208568;-0.0119638;0.0250896;-5.87634;0.000568796;-0.000272368;-0.000100337;0.000665645;-0.000197186;0.000431415;5.66887;0.176402;0.000522056;0.00057522;3.37573;0.296233;13.1024;58.1024;0.000996071;0.000568526;0.000238374;-0.000783452;-0.000100328;-0.00531038;0.00476529;0;0.0116368;-0.0152836;-0.0183426;-0.038594;0.0453821;-6.62131;-0.000160809;0.000557738;-0.000191692;0.000381701;-0.000734202;0.000557951;-0.838894;-1.19205;0.000654894;0.000743935;0.519885;1.9235;97.2343;142.234;-0.0009435;-0.000160655;0.00116943;-5.39778e-05;-0.00019222;0.00694984;0.0029688;0;0.030786;-0.00775396;0.366606
23000;24;26.2887;-0.00187044;-7.11449e-05;-2.01102;26.2033;-0.664207;-0.00615526;-0.00382622;-0.0611295;-0.00784067;-0.0200811;-0.017565;0.0278075;-5.88194;0.000488219;-0.000511655;-0.000422919;0.000717729;-0.00065243;0.000685079;1.1544;0.866249;0.000791361;0.000913439;1.10009;0.909019;18.7135;63.7135;0.000806965;0.000487897;-7.16374e-05;-0.000952073;-0.000422791;-0.00397191;0.00443927;0;0.0151744;-0.0164185;-0.018141;-0.0456142;0.0517621;-6.62833;-0.000172713;0.000525194;-9.12675e-05;0.000394781;-0.000658761;0.000526771;-1.89238;-0.528435;0.000614594;0.000702361;0.599277;1.66868;98.6577;143.658;-0.00105697;-0.000172576;0.00110157;-5.11319e-05;-9.17364e-05;0.0055203;0.00361731;0;0.0349688;-0.00764868;0.369892
24000;25;26.2896;-0.00102595;-3.90235e-05;-2.01077;26.2044;-0.654155;-0.00590799;-0.00270714;-0.0510773;-0.0080937;-0.0199588;-0.0180255;0.0280852;-5.8824;0.000532316;-0.000432593;-5.38906e-05;0.000761751;-0.000283326;0.000522538;9.87771;0.101238;0.000624095;0.000696718;2.68861;0.37194;5.78555;50.7856;0.000776281;0.0005319;0.000143907;-0.00100943;-5.38074e-05;-0.00472566;0.00552292;0;0.0226035;-0.0169454;-0.0181285;-0.0420578;0.0488328;-6.62477;-0.000143856;0.000614478;-0.000308004;0.000394005;-0.000845865;0.000619935;-0.467057;-2.14106;0.000731514;0.00082658;0.465802;2.14684;96.2506;141.251;-0.0009239;-0.000143667;0.00123085;-1.99633e-06;-0.000308573;0.00655397;0.00387168;0;0.0357303;-0.00751379;0.37824
25000;26;26.2918;0.00114809;4.3669e-05;-2.01178;26.2065;-0.653615;-0.0069125;-0.000589654;-0.0505374;-0.00882835;-0.0171897;-0.0254367;0.0319445;-5.88981;0.000630151;-0.000504926;-0.000437474;0.000831122;-0.000638445;0.000734783;1.44043;0.694237;0.000850882;0.000979711;1.30179;0.768172;17.5323;62.5323;0.000712552;0.0006298;-3.22604e-05;-0.000978097;-0.000437347;-0.00390274;0.00491896;0;0.0193349;-0.0179721;-0.0176907;-0.0465546;0.0529461;-6.62927;-0.000176186;0.000540269;-0.000273234;0.000317734;-0.000767154;0.000542444;-0.644816;-1.55083;0.000644026;0.000723259;0.414173;2.41445;97.5664;142.566;-0.00101732;-0.000176042;0.00114821;-6.77338e-05;-0.000273747;0.00623832;0.00237587;0;0.0338412;-0.00769346;0.383202
26000;27;26.2893;-0.00132106;-5.02485e-05;-2.01221;26.2039;-0.658959;-0.00734615;-0.00323399;-0.0558821;-0.00895246;-0.0191605;-0.0187229;0.0282456;-5.8831;0.000590613;-0.00028862;-0.000341339;0.000672756;-0.000423482;0.000548119;1.73028;0.577941;0.000638344;0.000730826;1.58863;0.629474;21.432;66.432;0.001218;0.000590378;0.000165254;-0.000742916;-0.000341311;-0.00533597;0.00527179;0;0.010397;-0.0175041;-0.0178931;-0.0434029;0.0501036;-6.62612;-0.000184857;0.000563485;-0.000239376;0.000352027;-0.00077626;0.000564144;-0.772246;-1.29492;0.000666589;0.000752191;0.453491;2.20512;96.9156;141.916;-0.00132964;-0.000184709;0.00127396;-0.000147033;-0.000240029;0.00726926;0.00335852;0;0.030065;-0.00755546;0.389951
27000;28;26.2902;-0.000434895;-1.65418e-05;-2.01208;26.2049;-0.655386;-0.00721421;-0.00224518;-0.0523082;-0.00917823;-0.0169045;-0.0234838;0.030356;-5.88786;0.000660797;-0.000366662;-0.000252789;0.000789752;-0.000381744;0.000585748;2.61403;0.382551;0.000689902;0.000780998;2.0688;0.483372;13.1601;58.1601;0.00081414;0.000660539;7.23996e-05;-0.000806126;-0.000252724;-0.00461973;0.00402532;0;0.0106842;-0.0179401;-0.0162971;-0.0462311;0.0521991;-6.62894;-0.000168469;0.00053389;-0.000227293;0.000336819;-0.000732581;0.0005347;-0.741199;-1.34917;0.000631354;0.000712933;0.459771;2.175;98.7321;143.732;-0.000972336;-0.000168327;0.00105937;8.37618e-06;-0.000227711;0.00577456;0.0039372;0;0.0309058;-0.0076993;0.396908
28000;29;26.291;0.00035044;1.33295e-05;-2.01028;26.2059;-0.651377;-0.00541359;-0.00121915;-0.0482998;-0.00969786;-0.0169905;-0.0211342;0.028799;-5.88551;0.000678795;-0.000234261;-0.000273861;0.000733284;-0.00032835;0.000530817;2.47861;0.403451;0.000627621;0.000707756;2.23324;0.44778;18.9757;63.9757;0.00137308;0.00067861;0.000183505;-0.000652425;-0.00027385;-0.00580168;0.00447374;0;0.0115378;-0.0180256;-0.0162667;-0.0440736;0.0503191;-6.62679;-0.00013057;0.000598112;-0.000166979;0.000449615;-0.000747164;0.000598389;-0.781956;-1.27885;0.000698043;0.000797852;0.601763;1.66178;96.0305;141.031;-0.00125412;-0.000130391;0.00120277;-6.56661e-06;-0.000167523;0.0067246;0.00332235;0;0.0302454;-0.00750318;0.404581
29000;30;26.2917;0.00112908;4.29461e-05;-2.01166;26.2066;-0.652197;-0.00679377;-0.000564293;-0.04912;-0.00840819;-0.0153128;-0.0272584;0.0323759;-5.89163;0.000573556;-0.000528052;-4.10769e-05;0.000877207;-0.000344728;0.000610968;13.963;0.0716179;0.00072747;0.000814624;2.54463;0.392984;1.75763;46.7576;0.000410261;0.000573135;1.94746e-06;-0.00105838;-4.09375e-05;-0.0037068;0.00479966;0;0.0105952;-0.0169316;-0.0153407;-0.0480896;0.0532412;-6.6308;-0.000226574;0.000534313;-0.00014495;0.000350107;-0.000721631;0.000535869;-1.56312;-0.639744;0.000631039;0.000714492;0.485161;2.06117;100.864;145.864;-0.00114397;-0.000226433;0.00112787;-5.91954e-05;-0.000145443;0.0064803;0.00280118;0;0.0306874;-0.00757337;0.411541
30000;31;26.2912;0.000571801;2.17492e-05;-2.01099;26.2061;-0.650844;-0.00612277;-0.00103824;-0.0477668;-0.00915668;-0.0176864;-0.0200511;0.0282612;-5.88443;0.000501422;-0.000223888;-0.00055148;0.000547052;-0.00059711;0.000572081;0.90923;1.09983;0.000660793;0.000762774;0.916166;1.0915;35.1467;80.1467;0.000870623;0.000501235;0.000204166;-0.000652392;-0.000551476;-0.00369663;0.00546804;0;0.0106449;-0.0173459;-0.017295;-0.0422295;0.0488193;-6.62494;-0.000266803;0.000568841;-0.000174597;0.000350006;-0.000791406;0.000570706;-1.52811;-0.654404;0.00067522;0.000760942;0.442259;2.26112;102.829;147.829;-0.00113209;-0.000266641;0.00114254;-4.80139e-06;-0.000175088;0.00639566;0.00359442;0;0.0298593;-0.00757757;0.419095
31000;32;26.2899;-0.000708648;-2.69544e-05;-2.01128;26.2046;-0.657754;-0.0064178;-0.00251802;-0.0546767;-0.00857579;-0.0190905;-0.0169112;0.0269069;-5.88129;0.000708752;-0.000371994;-0.000227969;0.000838507;-0.000357723;0.000598115;3.10899;0.321648;0.000708994;0.000797486;2.34401;0.426619;11.2452;56.2452;0.00123167;0.000708498;6.08401e-05;-0.000805233;-0.000227901;-0.00442631;0.00462813;0;0.0112616;-0.0165707;-0.0181925;-0.0397412;0.0467431;-6.62245;-0.000201213;0.000569968;-0.000105702;0.000418508;-0.000725423;0.000571965;-1.9036;-0.525321;0.000668325;0.00076262;0.576916;1.73336;101.472;146.472;-0.001038;-0.000201056;0.00103759;0.000102388;-0.000106078;0.00743073;0.00311814;0;0.0305239;-0.00758324;0.426268
32000;33;26.2906;-3.24082e-05;-1.23269e-06;-2.01125;26.2054;-0.652626;-0.00638294;-0.00170869;-0.0495485;-0.00740797;-0.0162175;-0.0256934;0.0312736;-5.89007;0.000569836;-0.000123063;-0.000402153;0.000585175;-0.000417492;0.000501333;1.41696;0.705735;0.000581582;0.000668445;1.40164;0.713448;32.649;77.649;0.000795974;0.000569678;0.000330014;-0.00057658;-0.0004022;-0.00415499;0.00423208;0;0.0104041;-0.015321;-0.0157326;-0.0480181;0.0528014;-6.63073;-0.000154968;0.000568303;-0.000132861;0.000424496;-0.000712325;0.00056841;-1.16639;-0.857345;0.000663319;0.00075788;0.59593;1.67805;96.7413;141.741;-0.00131546;-0.00015481;0.00122353;-8.69083e-05;-0.000133448;0.00731322;0.00298628;0;0.0304922;-0.00766915;0.434069
33000;34;26.2908;0.00017614;6.69974e-06;-2.00998;26.2057;-0.652236;-0.00512131;-0.00139297;-0.0491589;-0.00913281;-0.015975;-0.025239;0.0312348;-5.88961;0.000616772;-0.000249154;-0.000114639;0.00069358;-0.000191447;0.000442513;5.38014;0.185869;0.000537686;0.000590018;3.62284;0.276027;13.8505;58.8505;0.0012414;0.000616544;0.000222544;-0.000721197;-0.000114633;-0.0053896;0.00566171;0;0.0104419;-0.0162616;-0.0151683;-0.0483348;0.053205;-6.63105;-0.000282042;0.00054744;-0.000116881;0.000354172;-0.000753095;0.000553634;-2.41307;-0.41441;0.000652964;0.000738178;0.470289;2.12635;103.184;148.184;-0.00139541;-0.000281894;0.00116841;-7.34254e-05;-0.000117414;0.00672887;0.00329912;0;0.030418;-0.00745365;0.439057
34000;35;26.2916;0.00100948;3.83969e-05;-2.01029;26.2066;-0.651008;-0.00543007;-0.000550069;-0.0479306;-0.00841813;-0.0148054;-0.0267166;0.0316834;-5.89109;0.000519139;-0.000419457;-9.73494e-05;0.000731432;-0.000309642;0.000520537;5.33274;0.187521;0.000617289;0.00069405;2.36218;0.423337;5.46171;50.4617;0.000727194;0.000518854;2.51031e-05;-0.000864292;-9.72618e-05;-0.00371933;0.00525205;0;0.0107863;-0.0154948;-0.0148308;-0.0486833;0.0531987;-6.6314;-0.000260525;0.000610733;-0.000120224;0.000424375;-0.000805123;0.000614749;-2.167;-0.461468;0.000721108;0.000819665;0.527093;1.8972;102.524;147.524;-0.00133741;-0.000260339;0.00117926;4.22819e-05;-0.000120733;0.00712636;0.00270427;0;0.0304393;-0.00741508;0.443626
35000;36;26.29;-0.000570369;-2.16948e-05;-2.00886;26.2051;-0.651086;-0.00399862;-0.00202722;-0.048009;-0.00841001;-0.017578;-0.0177639;0.0263679;-5.88214;0.000532439;-0.000302524;-0.000180831;0.000643467;-0.00029186;0.000467663;2.9444;0.339627;0.000552584;0.000623551;2.20472;0.453573;14.045;59.045;0.000841013;0.000532206;0.000141609;-0.000746974;-0.000180795;-0.00397752;0.00438095;0;0.0152377;-0.0152835;-0.0164265;-0.0413852;0.047076;-6.6241;-0.000185913;0.000594269;-0.000124117;0.000440057;-0.000750086;0.000595071;-1.49789;-0.667607;0.000694857;0.000793429;0.586675;1.70452;99.4323;144.432;-0.00112839;-0.000185737;0.00113829;5.02808e-05;-0.000124588;0.00669709;0.0019739;0;0.0307976;-0.00749459;0.448703
36000;37;26.2889;-0.00171517;-6.52388e-05;-2.0094;26.2038;-0.654982;-0.00453938;-0.00331428;-0.0519051;-0.00869614;-0.0182239;-0.0149939;0.0251505;-5.87937;0.000552023;-0.000531305;-0.000510238;0.000772148;-0.000730363;0.000751256;1.08189;0.924305;0.000867587;0.00100167;1.05721;0.945885;21.059;66.059;0.00119364;0.000551713;-0.000113411;-0.000949643;-0.000510103;-0.0045783;0.00661419;0;0.0105447;-0.0151573;-0.0166555;-0.0384963;0.0445995;-6.62121;-0.000287298;0.000607101;-0.000165565;0.000383713;-0.000836577;0.000610145;-1.73525;-0.576284;0.000720525;0.000813527;0.458671;2.18021;105.295;150.295;-0.00116399;-0.000287121;0.00109537;0.000118893;-0.000165981;0.00732868;0.00221423;0;0.0290976;-0.0075699;0.455316
37000;38;26.2909;0.000263848;1.00358e-05;-2.01035;26.2059;-0.649707;-0.00548899;-0.00127035;-0.0466298;-0.0088421;-0.0144545;-0.0233576;0.0288564;-5.88773;0.000396237;-0.000558564;-8.86548e-05;0.000762704;-0.000455121;0.000608912;4.46944;0.223742;0.000710547;0.000811883;1.67583;0.596721;2.49388;47.4939;0.000906868;0.000395874;-9.80026e-05;-0.00101935;-8.85036e-05;-0.00389293;0.00666157;0;0.010546;-0.0153201;-0.0140814;-0.0455588;0.0500859;-6.62827;-0.000234803;0.000623521;-0.000181301;0.000416043;-0.000832147;0.000624095;-1.2951;-0.772139;0.000733869;0.000832127;0.499964;2.00015;100.864;145.864;-0.00171363;-0.000234609;0.00121796;2.91107e-05;-0.000181848;0.0083057;0.00172515;0;0.0294036;-0.00753663;0.463058
38000;39;26.2902;-0.000380179;-1.44606e-05;-2.00909;26.2052;-0.653736;-0.00423014;-0.00192012;-0.0506583;-0.00871254;-0.0156291;-0.0220261;0.0283782;-5.8864;0.000548465;-0.000512046;-0.000339883;0.000782142;-0.00057356;0.000677851;1.61369;0.619699;0.000785797;0.000903802;1.36366;0.73332;13.5209;58.5209;0.00143755;0.00054816;-9.03515e-05;-0.000934116;-0.000339756;-0.00478403;0.00476235;0;0.0123173;-0.0151047;-0.0154173;-0.0434774;0.04854;-6.62619;-0.000220799;0.000532643;-6.7763e-05;0.000393829;-0.000682392;0.000538111;-3.2584;-0.306899;0.000628758;0.000717481;0.577131;1.73271;102.128;147.128;-0.00133973;-0.000220658;0.00103265;3.2711e-05;-6.81544e-05;0.00903008;0.00262144;0;0.0309796;-0.00766311;0.470305
39000;40;26.2904;-0.000169975;-6.46525e-06;-2.00924;26.2055;-0.651529;-0.00437979;-0.00166576;-0.0484521;-0.00782809;-0.0138097;-0.0241828;0.0289274;-5.88856;0.000713941;-0.000288869;0.000147365;0.000835248;2.60573e-05;0.000404595;-4.84472;-0.20641;0.000548353;0.000539461;-32.0543;-0.031197;0.829366;45.8294;0.000669033;0.000713698;0.000176666;-0.000754668;0.000147391;-0.00408652;0.00332393;0;0.0123368;-0.0143481;-0.0134493;-0.046237;0.0502456;-6.62895;-0.000204813;0.000635058;-8.31028e-05;0.000494009;-0.000781925;0.000637967;-2.46457;-0.40575;0.000742886;0.000850623;0.631786;1.58281;99.8263;144.826;-0.00145371;-0.000204614;0.00120416;6.6021e-05;-8.36262e-05;0.00796681;0.00166645;0;0.0292267;-0.00758123;0.478282
40000;41;26.2895;-0.00113844;-4.33021e-05;-2.00945;26.2044;-0.653464;-0.00458815;-0.00270152;-0.0503871;-0.0074442;-0.0143158;-0.0316755;0.0355485;-5.89605;0.000473196;-0.000489374;-0.000122093;0.000748333;-0.00039723;0.000572782;3.8757;0.258018;0.000671666;0.000763709;1.88388;0.53082;3.70457;48.7046;0.00045965;0.000472923;-9.30806e-05;-0.000885903;-0.000121978;-0.00299322;0.00347516;0;0.0111672;-0.0140508;-0.0137568;-0.0510026;0.0546621;-6.63372;-0.000286337;0.000571566;-0.000174904;0.000343655;-0.000804896;0.000574275;-1.63711;-0.610832;0.000680706;0.0007657;0.426956;2.34216;105.273;150.273;-0.00172904;-0.000286177;0.00106625;7.69336e-05;-0.000175309;0.00844081;0.00283031;0;0.0299757;-0.0075136;0.485407
41000;42;26.2902;-0.000455173;-1.73131e-05;-2.00912;26.2052;-0.651586;-0.00425928;-0.00194405;-0.0485088;-0.0062064;-0.0157325;-0.0223238;0.0280068;-5.8867;0.000473213;-0.000516457;-0.000146819;0.000765557;-0.000439163;0.00060236;3.2231;0.31026;0.000704003;0.000803146;1.74322;0.573652;4.4187;49.4187;0.000314113;0.000472925;-0.000115174;-0.000917988;-0.000146692;-0.0024349;0.00501348;0;0.0165985;-0.012995;-0.0146418;-0.0459769;0.0499713;-6.62869;-0.00025368;0.000638985;-0.000100834;0.000466282;-0.000820796;0.000643539;-2.5158;-0.397487;0.000752432;0.000858052;0.568085;1.7603;102.566;147.566;-0.00171557;-0.000253481;0.00117408;0.000103974;-0.00010132;0.00852534;0.0020083;0;0.0300237;-0.00782743;0.493163
42000;43;26.2898;-0.000846635;-3.22029e-05;-2.00868;26.2049;-0.64872;-0.00381458;-0.00223158;-0.0456425;-0.00692234;-0.0172655;-0.0186384;0.0263326;-5.88301;0.000619549;-0.000329485;-1.26168e-05;0.00076005;-0.000153118;0.000456584;49.105;0.0203645;0.000564702;0.000608779;4.96383;0.201457;3.87253;48.8725;0.00100434;0.000619325;8.73096e-05;-0.000746543;-1.25663e-05;-0.00434234;0.00437229;0;0.0204869;-0.0132303;-0.0160418;-0.0400325;0.0451108;-6.62275;-0.000255749;0.000602694;-0.000118257;0.0004196;-0.000793605;0.000606602;-2.16266;-0.462393;0.000711452;0.000808803;0.528726;1.89134;102.98;147.98;-0.00136342;-0.00025557;0.00113171;7.37476e-05;-0.000118715;0.00840175;0.00104387;0;0.0301897;-0.00753864;0.501046
43000;44;26.2894;-0.00119149;-4.53202e-05;-2.00851;26.2045;-0.652031;-0.00364383;-0.00264664;-0.0489533;-0.00702123;-0.0149898;-0.0209703;0.026716;-5.88534;0.000471792;-0.000370986;-0.000491375;0.000598117;-0.0006177;0.000607909;0.960147;1.04151;0.000701983;0.000810545;0.968297;1.03274;26.8458;71.8458;0.000861254;0.000471542;5.61461e-05;-0.000798529;-0.000491308;-0.00410547;0.00501484;0;0.00949147;-0.0134099;-0.0140119;-0.0433706;0.0475096;-6.62608;-0.000268737;0.000597735;-0.000112552;0.00041217;-0.000793459;0.000602815;-2.38767;-0.418818;0.000707579;0.000803753;0.51946;1.92508;105.028;150.028;-0.00148876;-0.000268568;0.00105515;0.000140388;-0.00011293;0.00840847;0.00299623;0;0.0290477;-0.00753353;0.508388
44000;45;26.2905;-0.000111616;-4.24548e-06;-2.00966;26.2056;-0.647678;-0.00479897;-0.00154387;-0.0446003;-0.00673978;-0.0130562;-0.0255431;0.0294676;-5.88992;0.000482562;-0.000333793;7.87999e-05;0.000670776;-0.000109414;0.000390095;-6.1239;-0.163295;0.000487763;0.000520126;6.13064;0.163115;0.353528;45.3535;0.000448683;0.000482289;0.000143723;-0.000811502;7.88453e-05;-0.00323546;0.00391964;0;0.0106849;-0.0131826;-0.0128164;-0.0465333;0.0500338;-6.62925;-0.00013834;0.000575352;-9.60139e-05;0.000458564;-0.000692918;0.000575741;-1.44083;-0.694042;0.000669383;0.000767655;0.661787;1.51106;97.5546;142.555;-0.00167603;-0.000138177;0.00108219;6.85331e-05;-9.6434e-05;0.00851112;0.00130399;0;0.0297634;-0.00756533;0.513478
45000;46;26.2897;-0.000936015;-3.56026e-05;-2.0095;26.2046;-0.652865;-0.00463457;-0.00248705;-0.0497873;-0.0076072;-0.0138034;-0.0240807;0.0287799;-5.88846;0.00063805;-0.000611447;-0.000277573;0.000944083;-0.000583606;0.000763845;2.29867;0.435034;0.000890159;0.00101846;1.61767;0.618173;9.28054;54.2805;0.00110151;0.000637566;-6.49527e-05;-0.00115844;-0.000277388;-0.0044154;0.00476398;0;0.0101844;-0.0139067;-0.0133839;-0.0455226;0.0494453;-6.62824;-0.000202779;0.000538597;-6.73552e-05;0.000407769;-0.000677904;0.000542836;-3.0106;-0.33216;0.000633248;0.000723782;0.601515;1.66247;99.7856;144.786;-0.00131969;-0.000202637;0.00115174;-7.44622e-05;-6.78734e-05;0.00802256;0.00192011;0;0.0296963;-0.00755454;0.51926
46000;47;26.2893;-0.00127188;-4.83779e-05;-2.00888;26.2043;-0.655276;-0.00402068;-0.00283712;-0.0521982;-0.00740054;-0.0139136;-0.0245398;0.0291643;-5.88891;0.00057473;-0.000429044;-0.000490642;0.000726028;-0.000641939;0.000683984;1.17138;0.853691;0.000790293;0.000911978;1.13099;0.88418;22.251;67.251;0.000412503;0.00057451;-6.79755e-05;-0.000790498;-0.000490552;-0.0033344;0.00461011;0;0.0105035;-0.0135002;-0.0133221;-0.0467225;0.0504255;-6.62944;-0.000236426;0.000567442;-7.43766e-05;0.000417797;-0.000728599;0.000573198;-3.17877;-0.314587;0.000669931;0.000764264;0.573424;1.74391;101.258;146.258;-0.00145981;-0.000236266;0.00117235;-3.73659e-05;-7.49028e-05;0.00880165;0.00213077;0;0.0297437;-0.00740978;0.523395
47000;48;26.2901;-0.000483663;-1.83968e-05;-2.00894;26.2052;-0.651359;-0.00407188;-0.00195263;-0.048282;-0.0068281;-0.0147186;-0.0210301;0.0265617;-5.8854;0.000472352;-0.00046149;-0.000188846;0.00070944;-0.000425934;0.000567687;2.50125;0.3998;0.000662285;0.000756916;1.66561;0.600381;9.90936;54.9094;0.000612151;0.000471994;3.98679e-05;-0.000963179;-0.000188741;-0.00355893;0.00497895;0;0.0114971;-0.0129868;-0.013898;-0.0430864;0.0470983;-6.6258;-0.000264747;0.000570418;-4.00807e-05;0.00042896;-0.000733787;0.000581374;-6.60535;-0.151392;0.000678959;0.000775165;0.584583;1.71062;103.081;148.081;-0.0014609;-0.000264584;0.00113778;3.18318e-06;-4.05653e-05;0.00763817;0.00148097;0;0.0299975;-0.00744798;0.528911
48000;49;26.2888;-0.00183483;-6.97902e-05;-2.00904;26.2038;-0.653234;-0.00418029;-0.00336315;-0.0501563;-0.00671219;-0.0147389;-0.0205624;0.0261744;-5.88494;0.000476586;-0.000274933;-0.000541891;0.000546064;-0.000611369;0.000578716;0.879486;1.13703;0.000668598;0.000771622;0.893182;1.11959;33.0237;78.0237;0.000690733;0.000476381;0.000146922;-0.000697219;-0.000541864;-0.00292596;0.0064188;0;0.0129814;-0.0128861;-0.0135141;-0.0436683;0.0474932;-6.62638;-0.000215197;0.000640218;-8.4895e-05;0.000493478;-0.00079357;0.000643524;-2.53486;-0.3945;0.000749781;0.000858033;0.621846;1.60812;100.034;145.034;-0.00187513;-0.000214993;0.00123001;5.05067e-05;-8.54466e-05;0.00959307;0.00171362;0;0.0303728;-0.00742166;0.536747
49000;50;26.2886;-0.00200741;-7.63547e-05;-2.00895;26.2035;-0.655419;-0.00409086;-0.00358399;-0.0523412;-0.00694712;-0.0139636;-0.0229363;0.0277366;-5.88731;0.000369677;-0.000307061;-0.000125132;0.000516602;-0.000272057;0.00039433;2.9543;0.33849;0.000462572;0.000525773;1.89888;0.526628;11.2977;56.2977;0.000932479;0.00036946;0.000112318;-0.000726648;-0.000125091;-0.00396249;0.00469268;0;0.0110326;-0.0130688;-0.0133387;-0.0442215;0.0480027;-6.62693;-0.000143047;0.000530418;-7.39138e-05;0.000423062;-0.000640024;0.000531543;-1.93533;-0.516708;0.000618019;0.000708724;0.661011;1.51284;99.954;144.954;-0.00158052;-0.000142919;0.000904043;0.000156818;-7.41818e-05;0.00860344;0.00318939;0;0.0289243;-0.00757099;0.54433
50000;51;26.2904;-0.000207353;-7.88694e-06;-2.00867;26.2056;-0.647985;-0.00380253;-0.00157113;-0.044908;-0.00705961;-0.012977;-0.0247059;0.0287858;-5.88908;0.000454341;-0.00056886;-7.11924e-05;0.000818191;-0.000435042;0.000626616;6.38189;0.156694;0.000734739;0.000835488;1.88072;0.531712;179.264;44.2643;0.000613127;0.000454045;-0.000180509;-0.000957415;-7.10468e-05;-0.00336073;0.00498724;0;0.0102701;-0.0132469;-0.0128275;-0.0452182;0.0488335;-6.62793;-0.000228819;0.000632;-9.43538e-05;0.000473979;-0.000797152;0.000635566;-2.42512;-0.412351;0.000741752;0.000847421;0.594591;1.68183;99.564;144.564;-0.00157694;-0.000228621;0.0013277;-6.36106e-05;-9.50355e-05;0.008164;0.00235776;0;0.029671;-0.00748801;0.552036
51000;52;26.2894;-0.00118825;-4.51969e-05;-2.00747;26.2045;-0.65506;-0.00260403;-0.00263926;-0.0519826;-0.00712107;-0.0130873;-0.0249574;0.0290664;-5.88933;0.000517033;-0.000273952;-0.000136152;0.000616717;-0.000235836;0.000426277;3.79748;0.263333;0.000508332;0.000568369;2.61502;0.382406;13.3042;58.3042;0.000943321;0.000516815;0.000166273;-0.000714463;-0.000136128;-0.00373964;0.00484022;0;0.0117484;-0.0133131;-0.012848;-0.0464412;0.0499909;-6.62915;-0.000195825;0.000608314;-8.79766e-05;0.000468799;-0.000752601;0.0006107;-2.22588;-0.449261;0.000711492;0.000814266;0.622905;1.60538;99.2667;144.267;-0.00178035;-0.00019564;0.00120006;1.66297e-05;-8.85117e-05;0.00868586;0.00094876;0;0.0299787;-0.00747028;0.558475
52000;53;26.2904;-0.000203163;-7.72757e-06;-2.00933;26.2054;-0.651464;-0.00446614;-0.00170406;-0.0483871;-0.00756748;-0.01287;-0.0248836;0.0290189;-5.88926;0.000391722;-0.000413216;-0.000139171;0.000617406;-0.000364855;0.000491131;2.81469;0.355279;0.000573323;0.000654841;1.6922;0.590948;8.72593;53.7259;0.000150838;0.000391424;4.9826e-05;-0.000876504;-0.000139086;-0.00214954;0.0043565;0;0.011779;-0.0136661;-0.0126969;-0.0451961;0.0488944;-6.62791;-0.00019323;0.000615218;-0.00010955;0.000465249;-0.000768029;0.000616639;-1.76384;-0.566943;0.00071915;0.000822185;0.60577;1.65079;101.371;146.371;-0.00141107;-0.000193055;0.0010583;0.000172171;-0.000109921;0.00875345;0.00291568;0;0.0295776;-0.0073778;0.565729
53000;54;26.2889;-0.00170329;-6.4787e-05;-2.00769;26.204;-0.655004;-0.0028291;-0.00317181;-0.0519264;-0.00700523;-0.0136208;-0.0224961;0.0272153;-5.88687;0.000580393;-0.000418676;-0.000243054;0.000755872;-0.000418533;0.000587202;2.38792;0.418775;0.000687303;0.000782936;1.806;0.553709;11.9243;56.9243;0.000505333;0.000580106;2.85177e-05;-0.000866239;-0.000242967;-0.00301208;0.00464371;0;0.0123627;-0.0131832;-0.013003;-0.0445799;0.0482726;-6.62729;-0.00022016;0.000569196;-0.000128248;0.000396845;-0.000745252;0.000571048;-1.71667;-0.582524;0.000669539;0.000761398;0.532497;1.87795;103.383;148.383;-0.00166191;-0.000220008;0.000996869;0.000141562;-0.000128583;0.00876115;0.00135992;0;0.0296047;-0.00756624;0.573028
54000;55;26.291;0.000353668;1.34523e-05;-2.00846;26.2061;-0.650953;-0.00359323;-0.0010658;-0.0478757;-0.00743677;-0.0130151;-0.0254262;0.0295159;-5.8898;0.000544468;-0.000383351;-0.000438789;0.000676262;-0.000570584;0.000623423;1.24084;0.805905;0.000720728;0.000831231;1.18521;0.843732;22.5029;67.5029;0.000641528;0.000544212;4.45473e-05;-0.00081167;-0.000438717;-0.00279827;0.00575407;0;0.0112797;-0.0134464;-0.0125938;-0.0476926;0.0511273;-6.63041;-0.000241358;0.000580751;-0.000110569;0.000408458;-0.000760385;0.000584421;-2.18287;-0.458112;0.000684952;0.000779229;0.537172;1.8616;101.523;146.523;-0.00167857;-0.000241189;0.00116954;-7.95618e-06;-0.000111084;0.00854986;0.00205746;0;0.0290083;-0.00749094;0.580725
55000;56;26.2899;-0.000694914;-2.6432e-05;-2.00883;26.205;-0.651762;-0.00397108;-0.00216684;-0.0486842;-0.00798842;-0.0137098;-0.0235831;0.0284242;-5.88796;0.000417727;-0.00046961;-9.98389e-05;0.000695136;-0.000377248;0.000536192;4.18401;0.239005;0.000628143;0.000714923;1.84265;0.542697;4.88491;49.8849;0.000757481;0.000417405;-1.00247e-05;-0.000929433;-9.97287e-05;-0.00309079;0.00476188;0;0.010545;-0.0141129;-0.013382;-0.0436805;0.0478146;-6.62639;-0.000160727;0.000542702;-7.07544e-05;0.000428823;-0.000660304;0.000544564;-2.27161;-0.440215;0.000633525;0.000726085;0.649433;1.53981;98.6027;143.603;-0.00133018;-0.00016058;0.00106556;1.98949e-05;-7.11748e-05;0.00790428;0.00310069;0;0.029156;-0.00743775;0.586101
56000;57;26.2903;-0.000300575;-1.14328e-05;-2.00901;26.2053;-0.653281;-0.00414441;-0.00182233;-0.0502033;-0.00771521;-0.0125647;-0.0248715;0.0289134;-5.88925;0.00055638;-0.000526362;0.000167669;0.000923122;-0.000199073;0.000561098;-3.31833;-0.301357;0.000691393;0.00074813;4.63709;0.215652;172.345;37.3454;0.000664302;0.000555985;-1.99717e-05;-0.00103295;0.000167807;-0.00382102;0.00444824;0;0.0163271;-0.0135418;-0.0123315;-0.0465938;0.0500642;-6.62931;-0.000184045;0.000541383;-8.06888e-05;0.000411477;-0.00067621;0.000543844;-2.28092;-0.438419;0.000634146;0.000725125;0.608504;1.64337;101.874;146.874;-0.0013542;-0.000183908;0.000941481;0.000141325;-8.09855e-05;0.00800282;0.00111131;0;0.0301844;-0.00745621;0.591883
57000;58;26.2918;0.00116372;4.42637e-05;-2.00958;26.2069;-0.646313;-0.00471559;-0.000224313;-0.0432354;-0.00681505;-0.0127408;-0.0252206;0.0290663;-5.8896;0.000485598;-0.000517322;-8.2084e-05;0.000791831;-0.000388317;0.000590074;5.91586;0.169037;0.000694508;0.000786766;2.03913;0.490405;1.54927;46.5493;9.5296e-05;0.000485292;-9.70876e-05;-0.000937795;-8.19549e-05;-0.00210348;0.00487459;0;0.0158181;-0.0128999;-0.0123812;-0.0465502;0.0498661;-6.62926;-0.000234737;0.000567109;-5.66863e-05;0.000428343;-0.000719766;0.000574054;-4.14099;-0.241488;0.000669941;0.000765406;0.595114;1.68035;102.58;147.58;-0.00177297;-0.000234579;0.00106692;6.739e-05;-5.70947e-05;0.00874305;0.00226048;0;0.0304917;-0.00749734;0.595725
58000;59;26.2915;0.000851435;3.23855e-05;-2.00928;26.2066;-0.647944;-0.00441365;-0.000554729;-0.0448662;-0.00700717;-0.0128796;-0.0230127;0.0272868;-5.88739;0.000547926;-0.000443029;0.000171123;0.000840949;-0.000121901;0.000481425;-3.20195;-0.31231;0.000605371;0.0006419;6.89865;0.144956;173.4;38.3997;0.000733652;0.000547588;4.77541e-05;-0.000933997;0.00017122;-0.00341705;0.00503337;0;0.012415;-0.0133402;-0.0132171;-0.0434847;0.0473664;-6.6262;-0.000286989;0.00059242;-0.00014216;0.000382255;-0.000811404;0.00059683;-2.01878;-0.495349;0.00070385;0.000795773;0.471103;2.12268;106.663;151.663;-0.00133576;-0.000286826;0.00102523;0.000159672;-0.00014251;0.00822279;0.00310976;0;0.0293602;-0.00764557;0.603521
59000;60;26.2903;-0.000265525;-1.00996e-05;-2.00872;26.2055;-0.648843;-0.00385906;-0.00165505;-0.0457661;-0.00670681;-0.0121454;-0.0242801;0.0279646;-5.88865;0.000519731;-0.000496813;0.00012162;0.000855882;-0.000214532;0.000535207;-4.27341;-0.234005;0.000653936;0.000713609;3.98954;0.250656;175.198;40.198;0.000349617;0.000519332;2.80368e-05;-0.00102187;0.000121743;-0.00270133;0.00369914;0;0.0158857;-0.0127282;-0.0118169;-0.0457516;0.0489373;-6.62847;-0.000233537;0.000602883;-0.000102092;0.000438641;-0.00077427;0.000606455;-2.28752;-0.437154;0.000709155;0.000808607;0.566522;1.76516;101.567;146.567;-0.00169936;-0.000233357;0.00115424;5.16023e-05;-0.000102576;0.00868039;0.00302188;0;0.0306626;-0.00736647;0.611113
60000;61;26.2911;0.000438961;1.66965e-05;-2.00869;26.2062;-0.646477;-0.00382211;-0.000886976;-0.0433998;-0.00691701;-0.0130856;-0.0223043;0.0267686;-5.88668;0.000520355;-0.0004251;-0.00010385;0.000735622;-0.000319116;0.000527369;5.01066;0.199575;0.00062458;0.000703159;2.30518;0.433805;3.49647;48.4965;0.000893962;0.000520129;-5.38021e-05;-0.00079663;-0.000103761;-0.00346057;0.00525066;0;0.0116606;-0.0128405;-0.0124817;-0.044346;0.047825;-6.62706;-0.000255938;0.000582011;-9.44381e-05;0.000412398;-0.000762774;0.000587586;-2.71011;-0.368989;0.000688465;0.000783448;0.540656;1.8496;103.057;148.057;-0.00136148;-0.000255769;0.00111391;5.02026e-05;-9.48892e-05;0.00862813;0.00165157;0;0.0289995;-0.00754157;0.617472
61000;62;26.2898;-0.000834876;-3.17557e-05;-2.00948;26.2047;-0.654002;-0.00461764;-0.00241263;-0.0509241;-0.00725766;-0.0132149;-0.0237306;0.0281149;-5.88811;0.000554943;-0.000347271;-0.000300994;0.000678113;-0.000424164;0.000551139;1.8437;0.542387;0.000642005;0.000734852;1.5987;0.625507;16.6612;61.6612;0.00135079;0.000554724;5.26432e-05;-0.000747527;-0.000300935;-0.00557434;0.00560107;0;0.012795;-0.0134672;-0.0128171;-0.0455842;0.0492297;-6.6283;-0.000225377;0.000562698;-5.00492e-05;0.000431772;-0.000707199;0.000569485;-4.50312;-0.222068;0.000663963;0.000759314;0.610539;1.6379;100.865;145.865;-0.0016923;-0.00022522;0.00116435;-3.8852e-05;-5.05688e-05;0.0088068;0.00270957;0;0.0302444;-0.00751232;0.624667
62000;63;26.2921;0.00143908;5.47375e-05;-2.00907;26.2072;-0.647651;-0.0042115;5.75455e-05;-0.0445739;-0.00751416;-0.0134431;-0.0247156;0.0291211;-5.88909;0.000426488;-0.00047517;0.000224968;0.000811464;-0.000160008;0.000485736;-1.89577;-0.527489;0.000601449;0.000647648;5.0714;0.197184;167.018;32.0183;0.000726687;0.000426202;-5.70854e-05;-0.000893339;0.000225079;-0.00338154;0.00387129;0;0.0113726;-0.0136947;-0.0132354;-0.0465062;0.0502548;-6.62922;-0.000258285;0.000569402;-0.000111455;0.000389246;-0.000758986;0.000574116;-2.31739;-0.431519;0.000674291;0.000765488;0.51285;1.94989;103.787;148.787;-0.00160578;-0.000258125;0.00107073;6.81448e-05;-0.000111866;0.0087964;0.00236492;0;0.0295239;-0.00733485;0.631563
63000;64;26.29;-0.000647725;-2.46371e-05;-2.00918;26.2049;-0.653849;-0.00431247;-0.00219768;-0.0507719;-0.00780501;-0.0139967;-0.024545;0.0293135;-5.88892;0.000520411;-0.000427952;-0.000167175;0.000725559;-0.000372323;0.000548941;3.11298;0.321236;0.000644706;0.000731922;1.94874;0.513153;9.58305;54.5831;0.000383859;0.000520076;6.80288e-05;-0.000924274;-0.000167085;-0.00270097;0.00510007;0;0.0112591;-0.0139831;-0.0137414;-0.0463986;0.0503704;-6.62911;-0.000137028;0.000580136;-0.000111724;0.000455898;-0.000704649;0.000580274;-1.22649;-0.815338;0.000675153;0.000773698;0.646986;1.54563;97.0326;142.033;-0.00130695;-0.00013686;0.00112616;3.41282e-05;-0.00011219;0.00819879;0.00224166;0;0.0295484;-0.00744433;0.639129
64000;65;26.2892;-0.00141357;-5.37671e-05;-2.00981;26.2041;-0.655771;-0.00495129;-0.00306301;-0.0526932;-0.0069815;-0.0136715;-0.0240154;0.0285025;-5.88839;0.00050219;-0.000364397;-0.000259742;0.000648405;-0.000405957;0.000527181;1.93342;0.517218;0.000614078;0.000702909;1.59723;0.626086;15.4619;60.4619;0.0003481;0.000501931;7.74604e-05;-0.000806591;-0.000259678;-0.00342718;0.00483607;0;0.0109957;-0.0134705;-0.0133765;-0.0466348;0.0503507;-6.62935;-0.00016296;0.000577388;-0.000123874;0.000434301;-0.000721135;0.000577718;-1.31553;-0.760149;0.000673909;0.000770291;0.602247;1.66045;100.011;145.011;-0.00137234;-0.000162803;0.00101624;0.00013855;-0.000124224;0.00800971;0.00209398;0;0.0298042;-0.00742642;0.646144
65000;66;26.2917;0.00106664;4.05711e-05;-2.01011;26.2066;-0.652502;-0.00524305;-0.000515529;-0.0494245;-0.00740135;-0.0139673;-0.0226137;0.0275907;-5.88699;0.000570519;-0.000176627;-0.000296595;0.000605116;-0.000331193;0.000468155;1.92356;0.519869;0.000548235;0.000624206;1.82708;0.547321;25.9289;70.9289;0.000155766;0.000570319;0.000302009;-0.000655679;-0.000296625;-0.00242675;0.00459569;0;0.0119444;-0.0140209;-0.0135127;-0.0455293;0.0495187;-6.62824;-0.000224286;0.00059963;-0.000175655;0.000400152;-0.000800093;0.000600122;-1.27686;-0.783173;0.000705669;0.000800163;0.500132;1.99947;100.34;145.34;-0.00163034;-0.000224106;0.0012016;-2.31508e-06;-0.000176197;0.00830568;0.00194249;0;0.0297593;-0.00734801;0.653756
66000;67;26.2893;-0.00129562;-4.92809e-05;-2.0088;26.2043;-0.655329;-0.00394062;-0.00285612;-0.0522512;-0.00770348;-0.0143389;-0.0216282;0.0270689;-5.886;0.000492254;-0.00028847;0.000411802;0.000743289;0.000160767;0.000291261;-1.19536;-0.836565;0.000451579;0.000388348;-4.62339;-0.216292;162.789;27.7893;0.000869435;0.000491988;0.0002076;-0.00078458;0.000411822;-0.00407852;0.00462815;0;0.0100038;-0.0146671;-0.01384;-0.0447742;0.049106;-6.62749;-0.000141756;0.000578714;-0.000155783;0.000429987;-0.000727526;0.000578757;-0.909958;-1.09895;0.00067561;0.000771676;0.591026;1.69197;96.4965;141.496;-0.00136319;-0.000141589;0.00118872;-3.13009e-05;-0.000156322;0.00863062;0.00236106;0;0.0296522;-0.00733923;0.660626
67000;68;26.2902;-0.000378167;-1.43841e-05;-2.0106;26.2051;-0.653352;-0.00573945;-0.0020243;-0.050275;-0.00778702;-0.0149299;-0.0217629;0.0275166;-5.88614;0.000421649;-0.000325306;-0.000200311;0.000560705;-0.000339367;0.000450036;2.10497;0.475066;0.000524869;0.000600048;1.65221;0.605251;15.3112;60.3112;0.000350885;0.000421381;0.000151114;-0.000802023;-0.00020027;-0.00354198;0.00430015;0;0.0108519;-0.0150122;-0.0141445;-0.0461802;0.0505771;-6.62889;-0.000129173;0.000589175;-0.000115038;0.000467112;-0.000711323;0.000589218;-1.12287;-0.890578;0.000685222;0.000785623;0.656681;1.52281;96.4887;141.489;-0.00148994;-0.000128999;0.00114888;2.94811e-05;-0.000115525;0.00799547;0.00220795;0;0.0296941;-0.00734362;0.665814
68000;69;26.291;0.000413669;1.57345e-05;-2.0105;26.2058;-0.656043;-0.00563192;-0.00128886;-0.0529659;-0.00791501;-0.015718;-0.0218371;0.0280457;-5.88621;0.000657555;-0.000443785;-0.000141294;0.000855194;-0.000338933;0.000597063;4.6538;0.214878;0.000710582;0.000796085;2.52319;0.396323;4.84522;49.8452;0.000888074;0.00065729;-3.53581e-05;-0.000852538;-0.000141196;-0.00374208;0.00444631;0;0.0116925;-0.0153951;-0.0152657;-0.046635;0.0514284;-6.62935;-0.000216608;0.000560654;-0.000155267;0.000375555;-0.00074743;0.000561492;-1.39506;-0.716814;0.000660099;0.000748656;0.502462;1.9902;99.6793;144.679;-0.00158405;-0.000216453;0.00119871;-7.73666e-05;-0.000155829;0.00793128;0.00142147;0;0.0309849;-0.00740924;0.67039
69000;70;26.2911;0.00044754;1.70228e-05;-2.01122;26.2059;-0.654141;-0.00635664;-0.00126294;-0.0510635;-0.00826712;-0.0165418;-0.0213817;0.0282693;-5.88576;0.000435469;-0.000544668;4.04656e-05;0.000817337;-0.000341403;0.00057937;-10.7615;-0.0929242;0.000687552;0.000772494;2.39405;0.417701;177.428;42.4276;0.000804075;0.000435062;-3.5809e-05;-0.00105373;4.06133e-05;-0.00379957;0.00475873;0;0.0105353;-0.0158445;-0.0162358;-0.0460999;0.0513794;-6.62881;-0.000217145;0.000508745;-8.81843e-05;0.000360151;-0.000665479;0.000512815;-2.46239;-0.406109;0.00060083;0.000683753;0.54119;1.84778;102.318;147.318;-0.00116727;-0.000217015;0.000995078;2.24747e-05;-8.855e-05;0.00720102;0.00155934;0;0.0306616;-0.00733283;0.675961
70000;71;26.2914;0.000745083;2.83402e-05;-2.01033;26.2061;-0.657645;-0.0054639;-0.000983633;-0.0545677;-0.0081832;-0.01716;-0.0245677;0.0310645;-5.88894;0.000601114;-0.000316754;-0.000138241;0.000718257;-0.000255385;0.000486821;4.34829;0.229975;0.000582922;0.000649094;2.81245;0.355562;10.3708;55.3708;0.00132165;0.00060089;0.000106653;-0.000740474;-0.000138197;-0.00448503;0.00576215;0;0.0113444;-0.0161675;-0.0165676;-0.0518956;0.0568245;-6.63461;-0.000178703;0.000507793;-0.000185307;0.000325799;-0.000689809;0.000507804;-0.964365;-1.03695;0.000598784;0.000677072;0.472303;2.11728;98.4487;143.449;-0.00114973;-0.000178577;0.00109257;-7.69831e-05;-0.000185775;0.00640045;0.00296259;0;0.031191;-0.00735824;0.683567
71000;72;26.2896;-0.00103141;-3.9231e-05;-2.01087;26.2042;-0.662262;-0.00600584;-0.00292375;-0.0591843;-0.00867494;-0.0193041;-0.0228854;0.0311713;-5.88726;0.000604434;-0.000305608;-0.000511404;0.000682652;-0.000589622;0.000636137;1.18191;0.846087;0.000735202;0.000848182;1.15778;0.863723;27.3428;72.3428;0.000893393;0.00060423;9.67784e-05;-0.000708444;-0.000511362;-0.00511799;0.00451271;0;0.0120979;-0.0165344;-0.0179555;-0.0517111;0.0571824;-6.63442;-0.00023405;0.00045107;-0.000204122;0.000232232;-0.000670405;0.000451318;-1.14662;-0.872132;0.000541218;0.000601758;0.346406;2.88679;101.914;146.914;-0.00116661;-0.000233953;0.000994821;-9.26642e-05;-0.000204516;0.00675898;0.00317766;0;0.0306577;-0.00739114;0.690775
72000;73;26.2904;-0.000220895;-8.40204e-06;-2.01152;26.205;-0.662147;-0.006661;-0.00215799;-0.05907;-0.00880645;-0.02097;-0.0193827;0.0298828;-5.88376;0.00060684;-0.000224532;-5.46105e-05;0.000675857;-0.000123627;0.000399742;11.1122;0.0899915;0.000496933;0.00053299;5.46689;0.182919;11.925;56.925;0.000570742;0.000606643;0.000217871;-0.000667227;-5.4609e-05;-0.00357075;0.00409933;0;0.0138649;-0.0166808;-0.0191189;-0.0507652;0.0567529;-6.63348;-0.000276138;0.000493908;-0.000211526;0.000251132;-0.000738795;0.000494964;-1.30546;-0.766015;0.000594202;0.000659952;0.339921;2.94186;101.912;146.912;-0.00100642;-0.00027603;0.00116009;-0.000172227;-0.000212077;0.00631415;0.00374981;0;0.030655;-0.00734453;0.698254
73000;74;26.2887;-0.00193539;-7.36153e-05;-2.00986;26.2032;-0.670149;-0.00499253;-0.00395348;-0.067072;-0.00901725;-0.0232638;-0.0213883;0.0328629;-5.88576;0.000716986;-0.000448388;-0.000590178;0.000856008;-0.0007292;0.000792604;1.21486;0.823137;0.000916196;0.00105681;1.1739;0.851861;23.9361;68.9361;0.00122236;0.000716664;2.26e-05;-0.000919993;-0.000590078;-0.00579625;0.00498271;0;0.0116965;-0.0169471;-0.0218069;-0.0546542;0.0612359;-6.63737;-0.000184243;0.000393128;-0.000307656;0.000151992;-0.000643891;0.000397942;-0.59886;-1.66984;0.000487882;0.000530589;0.236053;4.23635;94.5871;139.587;-0.000631118;-0.00018423;0.00114475;-0.000358583;-0.000308234;0.00574152;0.00413822;0;0.0306737;-0.00727636;0.705659
74000;75;26.2904;-0.000251746;-9.57552e-06;-2.00941;26.2049;-0.6695;-0.00454785;-0.00221364;-0.0664227;-0.00933937;-0.0243479;-0.0244692;0.0357601;-5.88884;0.000655028;-0.000360125;-0.000632302;0.000748923;-0.000726197;0.00073756;1.03594;0.965306;0.000851694;0.000983413;1.03129;0.969656;29.7787;74.7787;0.000397715;0.000654685;0.000181823;-0.000902771;-0.000632254;-0.00408272;0.00520279;0;0.0113069;-0.0173918;-0.0237582;-0.0586153;0.0655949;-6.64133;-2.40865e-05;0.000414064;-0.000405286;0.000241139;-0.000670512;0.000455826;-0.059431;-16.8262;0.000545454;0.000607767;0.359635;2.7806;85.2167;130.217;-0.000292926;-2.40721e-05;0.00120545;-0.000377626;-0.000405927;0.00472883;0.00519595;0;0.0286814;-0.00740138;0.713415
75000;76;26.2903;-0.000279998;-1.06501e-05;-2.01079;26.2047;-0.670634;-0.00592725;-0.00237679;-0.0675566;-0.00951778;-0.0276968;-0.0255827;0.0388867;-5.88996;0.000504911;-0.000368344;-0.00046283;0.000629159;-0.000587078;0.000608118;1.09092;0.916656;0.000702334;0.000810824;1.07168;0.933115;25.0311;70.0311;0.0013158;0.00050464;8.69353e-05;-0.000824063;-0.000462766;-0.00581385;0.00593846;0;0.0123521;-0.0171378;-0.0270138;-0.0631087;0.0707542;-6.64582;-0.000115792;0.000254349;-0.000424388;2.74019e-05;-0.000567582;0.000297492;-0.272846;-3.66508;0.000387845;0.000396656;0.0482783;20.7132;83.4826;128.483;1.85897e-06;-0.00011592;0.00107408;-0.000565638;-0.000424932;0.00540127;0.00589355;0;0.0271973;-0.00729299;0.720689
76000;77;26.2904;-0.000224354;-8.53361e-06;-2.0099;26.2049;-0.671091;-0.00503366;-0.0022641;-0.0680132;-0.00933631;-0.0313279;-0.0281583;0.0431451;-5.89253;0.000723859;-0.000174978;-0.000282163;0.000753424;-0.000311729;0.000532576;2.56539;0.389804;0.000632345;0.000710102;2.41692;0.413749;17.9709;62.9709;0.00130271;0.000723753;0.000141848;-0.000492123;-0.000282158;-0.00597701;0.00481652;0;0.0147938;-0.0166157;-0.0309256;-0.0702493;0.078533;-6.65296;3.95319e-05;0.00030059;-0.000495135;0.000174469;-0.000630072;0.000402271;0.0798406;12.525;0.000488698;0.000536361;0.276903;3.61137;76.472;121.472;-0.000317334;3.94129e-05;0.00117369;-0.000572982;-0.000495779;0.00624379;0.00548411;0;0.0261086;-0.00723158;0.727941
77000;78;26.2881;-0.00250882;-9.54264e-05;-2.01062;26.2023;-0.677809;-0.00575261;-0.0047841;-0.0747313;-0.00988777;-0.037027;-0.0271025;0.0469395;-5.89148;0.00050338;-0.000216515;-8.87623e-05;0.000574101;-0.000159484;0.000366792;5.6711;0.176333;0.000445514;0.000489056;3.59975;0.277797;8.73275;53.7328;0.00176365;0.000503279;6.51457e-05;-0.000498342;-8.8741e-05;-0.00612417;0.00494139;0;0.0100087;-0.0167002;-0.037492;-0.0750957;0.0855798;-6.65781;1.36241e-05;0.000356493;-0.000441179;0.000209069;-0.000636623;0.000422846;0.0308811;32.3823;0.000508635;0.000563795;0.328402;3.04505;78.8652;123.865;-0.00146788;1.33512e-05;0.00153277;-0.000820315;-0.00044229;0.00880562;0.00426184;0;0.0252399;-0.00713872;0.735483
78000;79;26.2871;-0.003527;-0.000134154;-2.01034;26.2014;-0.674672;-0.00547252;-0.00570318;-0.071595;-0.0102713;-0.0424486;-0.0231104;0.0494112;-5.88748;0.000365207;-0.000362816;-0.000472139;0.00050054;-0.000607472;0.000554006;0.773517;1.2928;0.000640703;0.000738675;0.823973;1.21363;29.9971;74.9971;0.00112032;0.000365068;-8.56572e-05;-0.000640207;-0.000472077;-0.00461159;0.00393879;0;0.0166866;-0.0168297;-0.0427936;-0.0763178;0.0891007;-6.65903;3.15449e-05;0.000406776;-0.000223288;0.000330393;-0.000522137;0.000426265;0.141274;7.07843;0.000496341;0.000568353;0.632771;1.58035;84.2764;129.276;-0.00248284;3.14977e-05;0.00132315;-0.000509831;-0.000224081;0.0111735;0.00437223;0;0.0297794;-0.00707;0.737022
79000;80;26.2896;-0.00101515;-3.86127e-05;-2.0117;26.2038;-0.677743;-0.0068348;-0.00336691;-0.0746656;-0.0113877;-0.0498567;-0.0238214;0.0564166;-5.8882;8.61044e-05;-6.72562e-05;-1.9319e-05;0.000118844;-5.20586e-05;8.54513e-05;4.45697;0.224368;0.000101151;0.000113935;2.28289;0.438042;16.2726;61.2726;0.00135872;8.60218e-05;0.00027749;-0.000412039;-1.93553e-05;-0.00572772;0.00340795;0;0.0121736;-0.0173843;-0.0501282;-0.0822151;0.0978487;-6.66493;-5.06406e-05;0.000408265;-5.38929e-05;0.000356002;-0.000460535;0.000408268;-0.939653;-1.06422;0.000472714;0.000544358;0.773017;1.29363;91.4312;136.431;-0.00305417;-5.07091e-05;0.00136769;-0.000551166;-5.47448e-05;0.0127951;0.00214048;0;0.0276257;-0.00664522;0.742881
80000;81;26.2906;-3.35112e-05;-1.27465e-06;-2.01407;26.2044;-0.684445;-0.00920416;-0.00273824;-0.0813672;-0.0121873;-0.0565665;-0.0185193;0.0607558;-5.88289;7.83848e-05;-9.99437e-05;0.000114469;0.000197986;-5.13206e-06;0.000101559;-0.684767;-1.46035;0.000133734;0.000135412;;;167.682;32.6821;0.000591016;7.82767e-05;0.000275857;-0.00047573;0.000114436;-0.00301569;0.00438895;0;0.0171307;-0.0180706;-0.0551862;-0.0837983;0.101952;-6.66651;-7.74879e-05;0.000475761;-6.90917e-05;0.00040249;-0.00054907;0.00047578;-1.12152;-0.891645;0.000551552;0.000634373;0.73304;1.36418;92.7817;137.782;-0.00281975;-7.74354e-05;0.00129995;-0.00034842;-6.98235e-05;0.0100264;0.00323625;0;0.0292112;-0.00584063;0.74945
81000;82;26.2899;-0.000669729;-2.54741e-05;-2.01155;26.2036;-0.696781;-0.00668683;-0.00350833;-0.0937041;-0.0109111;-0.061431;-0.0271742;0.0680534;-5.89155;0.000183165;-0.000544138;-0.000136949;0.000590298;-0.000544082;0.00056719;1.33747;0.747679;0.000655116;0.000756254;1.08494;0.921707;5.89468;50.8947;0.000589946;0.000182967;-0.000256567;-0.000831801;-0.000136834;-0.00309874;0.00547311;0;0.0189715;-0.0166337;-0.0589838;-0.0969661;0.114709;-6.67968;-0.000177698;0.000496567;-0.0001721;0.000321676;-0.000671474;0.000496575;-1.03253;-0.968499;0.00058513;0.0006621;0.479059;2.08742;98.2435;143.243;-0.00237638;-0.00017758;0.00109926;-0.000106118;-0.000172581;0.00995041;0.00121488;0;0.0298416;-0.00497006;0.756934
82000;83;26.2883;-0.00229027;-8.71134e-05;-2.00919;26.2018;-0.711408;-0.00432384;-0.00534595;-0.108331;-0.0133236;-0.0657063;-0.0356034;0.0759108;-5.89998;0.000299277;-0.00061708;-0.000436861;0.000649722;-0.000787306;0.000718514;0.685063;1.45972;0.000830935;0.000958019;0.825248;1.21176;21.3361;66.3361;0.000525505;0.000299022;-0.000289833;-0.000944567;-0.000436712;-0.00219572;0.00733729;0;0.0110839;-0.0185822;-0.0630224;-0.108105;0.126506;-6.69082;-0.00023467;0.000380378;-0.000264693;0.000130993;-0.000630355;0.000380674;-0.886574;-1.12794;0.000470025;0.000507565;0.207807;4.81215;102.477;147.477;-0.00142815;-0.000234603;0.000865575;-0.000104834;-0.000264995;0.00768094;0.0036276;0;0.0317898;-0.00444951;0.763449
83000;84;26.2868;-0.0037799;-0.000143774;-2.00799;26.2001;-0.720418;-0.00313058;-0.00699522;-0.117341;-0.0145232;-0.0727909;-0.035851;0.0824302;-5.90023;0.000464529;-0.000431917;-0.000448843;0.000636424;-0.000620738;0.000628581;1.03495;0.966232;0.000725842;0.000838108;1.02527;0.975353;22.5084;67.5084;0.000993226;0.000464364;-0.000146175;-0.000717921;-0.00044876;-0.0033658;0.00758108;0;0.0143937;-0.0196818;-0.06895;-0.115232;0.13572;-6.69794;-0.000145339;0.000215018;-0.000446334;-3.33824e-05;-0.000558291;0.000262454;-0.32563;-3.07097;0.00036158;0.000349939;-0.059794;-16.7241;87.5537;132.554;-0.000475485;-0.00014536;0.000724978;-0.000295095;-0.000446573;0.00608626;0.00536306;0;0.0312247;-0.00398818;0.771126
84000;85;26.2859;-0.00474523;-0.000180491;-2.00572;26.1991;-0.729377;-0.000858726;-0.0080376;-0.126299;-0.0151677;-0.079389;-0.0379011;0.0892702;-5.90228;0.000605731;-0.000417982;-0.000639231;0.000733044;-0.000766544;0.000749794;0.947593;1.05531;0.00086586;0.000999726;0.956297;1.0457;29.6778;74.6778;0.00151525;0.000605564;-0.000122683;-0.000713648;-0.000639151;-0.00588953;0.00793219;0;0.0117244;-0.0202496;-0.0760034;-0.123761;0.14664;-6.70647;-4.36177e-05;0.000205934;-0.000604755;2.38475e-05;-0.00067222;0.000348034;-0.0721246;-13.8649;0.000456304;0.000464045;0.0354757;28.1883;77.5922;122.592;-5.79443e-05;-4.3669e-05;0.000792381;-0.000380842;-0.000605048;0.0052931;0.00523706;0;0.0267233;-0.00381691;0.778286
85000;86;26.285;-0.00563803;-0.00021445;-2.0061;26.1981;-0.729877;-0.00123174;-0.00897584;-0.126799;-0.0157671;-0.084607;-0.0392335;0.0945844;-5.90361;0.000575061;-0.00043704;-0.000572898;0.000722508;-0.000720345;0.000721427;1.00378;0.996239;0.000833032;0.000961902;1.003;0.997006;26.2271;71.2271;0.00148867;0.000574924;-0.000191609;-0.000682753;-0.000572821;-0.00508639;0.00776191;0;0.014346;-0.0204531;-0.0818618;-0.132202;0.156834;-6.71491;9.14708e-05;0.000322112;-0.00046679;0.000238568;-0.000613888;0.000426228;0.195957;5.10316;0.000507818;0.000568304;0.388619;2.57322;77.3092;122.309;-0.00139146;9.14605e-05;0.000996314;-0.000352465;-0.000467235;0.00648814;0.0067394;0;0.0289211;-0.00365077;0.786208
86000;87;26.2873;-0.00331437;-0.000126067;-2.00655;26.2004;-0.732136;-0.001685;-0.00674221;-0.129059;-0.0157577;-0.0899557;-0.0392759;0.0994129;-5.90365;0.000505665;-0.000446055;-0.000427861;0.000684527;-0.000606724;0.000645626;1.18184;0.846136;0.000745955;0.000860834;1.12824;0.88634;19.1657;64.1657;0.00154503;0.000505502;-0.000167974;-0.000724395;-0.000427776;-0.00544333;0.00656483;0;0.0114451;-0.0204471;-0.0896308;-0.140732;0.168099;-6.72345;9.04484e-05;0.000306258;-0.000255442;0.000269219;-0.000434212;0.000351715;0.354086;2.82417;0.000409833;0.000468954;0.620016;1.61286;80.6814;125.681;-0.00226451;9.04875e-05;0.000737452;-0.000125086;-0.000255667;0.00893608;0.00492608;0;0.0243807;-0.00307703;0.792935
87000;88;26.2896;-0.000982294;-3.73629e-05;-2.00774;26.2024;-0.739555;-0.00287972;-0.00470226;-0.136477;-0.016618;-0.0942942;-0.045827;0.106149;-5.9102;0.000182548;-0.000519048;-0.000368275;0.000494727;-0.000680454;0.00058759;0.495683;2.01742;0.00068131;0.000783454;0.727054;1.37541;26.9644;71.9644;0.00133035;0.000182431;-0.000328572;-0.00070963;-0.000368194;-0.0050893;0.00609316;0;0.0122224;-0.0203577;-0.0948592;-0.152816;0.181013;-6.73553;-8.48941e-05;0.000341883;-0.000178474;0.000213386;-0.000476755;0.00034507;-0.475666;-2.10232;0.00040801;0.000460094;0.447581;2.23423;94.461;139.461;-0.00214269;-8.48403e-05;0.000779991;-9.6265e-05;-0.00017872;0.00860073;0.00550533;0;0.0252568;-0.00228578;0.799995
88000;89;26.2906;1.10429e-06;4.2003e-08;-2.00768;26.2032;-0.74548;-0.00282014;-0.00387892;-0.142402;-0.0171105;-0.100253;-0.0469264;0.112006;-5.9113;0.000152229;-0.000257837;0.000104008;0.00038708;-0.000130843;0.000258961;-1.46363;-0.683234;0.000310982;0.000345282;2.95836;0.338025;163.352;28.3522;0.00125562;0.000152175;-9.75292e-05;-0.000418152;0.000104037;-0.0044979;0.00567688;0;0.0109496;-0.0199669;-0.0995386;-0.161279;0.190572;-6.74399;-0.000132142;0.000405173;-0.000152952;0.00026276;-0.000547853;0.000405307;-0.863945;-1.15748;0.000477559;0.000540409;0.479618;2.08499;99.4349;144.435;-0.0020568;-0.00013206;0.000789425;2.09136e-05;-0.000153181;0.00698553;0.00636724;0;0.0274619;-0.00071352;0.806507
89000;90;26.2909;0.000317449;1.20746e-05;-2.00973;26.2032;-0.752473;-0.00486352;-0.00391805;-0.149396;-0.0170514;-0.104918;-0.0463376;0.115955;-5.91071;0.000122431;-0.000150109;0.000204681;0.000319196;7.9152e-06;0.000155641;-0.598154;-1.67181;0.000210209;0.000207521;;;140.231;5.23071;0.00102697;0.000122416;-7.10863e-05;-0.000229125;0.00020469;-0.00258548;0.00672789;0;0.0127413;-0.0194398;-0.102943;-0.167424;0.197499;-6.75014;-0.000153728;0.00041293;-0.000211482;0.000231333;-0.000596543;0.000413938;-0.726908;-1.37569;0.000493234;0.000551917;0.387789;2.57872;109.423;154.423;-0.00140471;-0.000153666;0.000609744;0.000216104;-0.000211583;0.00497104;0.00456173;0;0.0298615;2.198e-05;0.811958
90000;91;26.2907;5.47607e-05;2.0829e-06;-2.00822;26.203;-0.754483;-0.0033556;-0.00412382;-0.151406;-0.0181335;-0.107569;-0.0489385;0.119561;-5.91331;0.000126431;-0.000297211;0.000557167;0.000708838;-2.52403e-05;0.000367039;-0.226917;-4.40689;0.000481193;0.000489386;28.0836;0.035608;121.322;166.322;0.00176668;0.000126414;-0.000245657;-0.000348743;0.000557181;-0.0031893;0.00769955;0;0.0125255;-0.0197357;-0.104659;-0.174219;0.204194;-6.75693;-0.000242828;0.000409325;-0.000209417;0.000183543;-0.000635788;0.000409665;-1.15954;-0.862408;0.00049648;0.000546221;0.288686;3.46397;120.734;165.734;-0.000462886;-0.000242782;0.000544454;0.0002742;-0.000209481;0.00362555;0.00334896;0;0.0317742;0.000214811;0.815951
91000;92;26.2891;-0.00154828;-5.8891e-05;-2.00796;26.2011;-0.763589;-0.00309812;-0.00597626;-0.160511;-0.0189124;-0.112588;-0.0491779;0.124307;-5.91355;0.000158927;-0.000366087;0.000437855;0.000690143;-9.33615e-05;0.000391752;-0.362967;-2.75507;0.000494164;0.000522336;7.39215;0.135279;137.23;2.23006;0.000898734;0.000158865;-0.000224877;-0.000507258;0.000437896;-0.00164973;0.00899702;0;0.0123375;-0.0198756;-0.108107;-0.179808;0.210745;-6.76252;-0.000225855;0.000400879;-0.000334652;0.000124299;-0.000684806;0.000404553;-0.674894;-1.48171;0.000503115;0.000539403;0.18151;5.50932;121.12;166.12;2.42476e-05;-0.000225819;0.000503026;0.00029872;-0.000334698;0.00229331;0.00395626;0;0.0306431;0.00145387;0.823033
92000;93;26.2886;-0.00203445;-7.7383e-05;-2.00559;26.2009;-0.761311;-0.000724917;-0.00621602;-0.158234;-0.0187814;-0.113492;-0.053244;0.12676;-5.91762;0.000121568;-0.000294444;0.000267532;0.000497904;-0.000108804;0.000303354;-0.454404;-2.20069;0.000373524;0.000404472;4.57614;0.218525;124.449;169.449;0.00103094;0.000121575;-0.00031896;-0.000269932;0.000267525;-0.00112334;0.00798625;0;0.010981;-0.019241;-0.108772;-0.188142;0.218172;-6.77085;-0.000206642;0.000370947;-0.000258064;0.000139484;-0.00060419;0.000371837;-0.800742;-1.24884;0.000456448;0.000495783;0.230862;4.3316;133.979;178.979;6.63537e-06;-0.000206645;0.000363147;0.000378748;-0.000258061;0.00143228;0.00669585;0;0.0291922;0.00311477;0.830576
93000;94;26.2881;-0.00246986;-9.39446e-05;-2.00558;26.2001;-0.773712;-0.00071834;-0.00701565;-0.170634;-0.018805;-0.11626;-0.0571416;0.130901;-5.92152;0.000260014;-0.000544404;-0.000282604;0.000596968;-0.000619559;0.000608264;0.920062;1.08688;0.000702403;0.000811018;0.963537;1.03784;98.0355;143.036;0.00147166;0.000260045;-0.000605807;-0.000482969;-0.00028264;-0.00171798;0.00978754;0;0.0125877;-0.0185176;-0.110498;-0.197675;0.227218;-6.78039;-0.000159294;0.000334129;-0.000373924;8.4331e-05;-0.000617549;0.00035094;-0.426007;-2.34738;0.000442497;0.00046792;0.136558;7.32292;124.182;169.182;0.000388932;-0.000159288;0.000351973;0.000316282;-0.00037393;0.000421698;0.00645312;0;0.0280254;0.00383035;0.837772
94000;95;26.2893;-0.00128918;-4.90357e-05;-2.00497;26.2014;-0.770966;-0.000101609;-0.00570285;-0.167888;-0.0193663;-0.119111;-0.0568403;0.133391;-5.92121;0.000304531;-0.000721626;-0.000413504;0.000751515;-0.000860488;0.000806001;0.736465;1.35784;0.000931399;0.00107467;0.873359;1.145;86.3972;131.397;0.0016611;0.000304587;-0.000803421;-0.000639773;-0.000413566;-0.00267347;0.00966018;0;0.0178113;-0.0188391;-0.113279;-0.200798;0.231316;-6.78351;-0.00022341;0.000307667;-0.000514994;-2.87392e-05;-0.000709664;0.000340462;-0.43381;-2.30516;0.000463826;0.00045395;-0.0404969;-24.6932;117.549;162.549;0.000398553;-0.000223392;0.000369733;0.000245584;-0.000515015;0.000661091;0.00694454;0;0.0308944;0.00426591;0.845421
95000;96;26.2869;-0.00367555;-0.000139805;-2.00414;26.1988;-0.781311;0.000727862;-0.00834025;-0.178234;-0.0190417;-0.120035;-0.0609599;0.135967;-5.92533;0.000314146;-0.000695387;-6.58478e-05;0.000845025;-0.000596726;0.000720875;4.77079;0.209609;0.0008365;0.000961167;1.4161;0.706164;164.605;29.6047;0.000995455;0.000314056;-0.0005758;-0.000815018;-6.57718e-05;-0.00095938;0.0101724;0;0.0178736;-0.018314;-0.114153;-0.209633;0.239399;-6.79235;-5.74603e-05;0.000300571;-0.000430779;0.000109695;-0.000597934;0.000353814;-0.133387;-7.49698;0.000439771;0.000471752;0.183456;5.45089;115.244;160.244;0.000593058;-5.7451e-05;0.000333441;0.000267688;-0.000430789;-0.000646157;0.00914942;0;0.0288763;0.00571096;0.852048
96000;97;26.2861;-0.00447781;-0.00017032;-2.00294;26.1978;-0.78918;0.00192613;-0.00928941;-0.186102;-0.0192355;-0.124267;-0.0594803;0.139105;-5.92385;0.00038003;-0.000885502;-0.000584253;0.000906142;-0.00111036;0.00100825;0.650455;1.53739;0.00116622;0.00134434;0.816076;1.22538;66.4869;111.487;0.001299;0.000380053;-0.000911717;-0.000859263;-0.000584277;-0.00167949;0.0106853;0;0.0117999;-0.0182883;-0.119663;-0.213497;0.245428;-6.79621;8.61321e-05;0.000366421;-0.000718315;0.000228011;-0.000860194;0.000544103;0.119909;8.33969;0.000662674;0.00072547;0.26507;3.77259;111.382;156.382;0.000595569;8.61312e-05;0.000364044;0.000368799;-0.000718314;0.00038494;0.00955569;0;0.0240497;0.00775771;0.859421
97000;98;26.2858;-0.00486243;-0.000184949;-2.00145;26.1974;-0.795248;0.00341305;-0.0097452;-0.192171;-0.0191462;-0.128917;-0.0586772;0.142931;-5.92305;0.00029441;-0.000604373;-0.00042601;0.000637775;-0.000769375;0.000703575;0.691086;1.447;0.000813602;0.0009381;0.828952;1.20634;49.3108;94.3108;0.00166063;0.000294393;-0.000577567;-0.000631198;-0.000425994;-0.00307303;0.00979704;0;0.0187497;-0.0182696;-0.124984;-0.218603;0.252472;-6.80132;2.91053e-05;0.000424619;-0.000822575;0.000204632;-0.000998101;0.000601366;0.0353831;28.2621;0.000743064;0.000801822;0.205021;4.87755;106.876;151.876;-0.000743164;2.91355e-05;0.000502868;0.000346304;-0.000822611;0.0028944;0.00822352;0;0.0218344;0.00813844;0.866494
98000;99;26.2878;-0.00277872;-0.000105693;-2.00157;26.1993;-0.799647;0.00329604;-0.00779729;-0.196569;-0.0200123;-0.133479;-0.0594047;0.147465;-5.92378;0.000547682;-0.000574283;-0.000819148;0.000756936;-0.0010284;0.000892669;0.6686;1.49566;0.00103473;0.00119023;0.736031;1.35864;84.5275;129.528;0.00204941;0.000547723;-0.000649755;-0.000498709;-0.000819194;-0.00410536;0.0105544;0;0.0254502;-0.0183111;-0.130725;-0.227302;0.262851;-6.81002;-3.60824e-05;0.000384149;-0.000470097;0.000188116;-0.000694295;0.000441206;-0.0767552;-13.0284;0.000536674;0.000588274;0.270945;3.69078;127.424;172.424;-0.00114783;-3.61092e-05;0.000319621;0.000448705;-0.000470074;0.0024351;0.00749896;0;0.0249699;0.0102768;0.874006
99000;100;26.2898;-0.000852033;-3.24083e-05;-2.00196;26.2009;-0.810981;0.00290397;-0.00624243;-0.207904;-0.021287;-0.137392;-0.0607907;0.151741;-5.92517;0.000493256;-0.000533256;-0.00107878;0.000657073;-0.0012426;0.000949836;0.457234;2.18706;0.00111401;0.00126645;0.528789;1.89111;86.276;131.276;0.00247528;0.000493324;-0.000680375;-0.000385906;-0.00107887;-0.00476843;0.0102495;0;0.012226;-0.019618;-0.136429;-0.233803;0.271407;-6.81652;-7.28358e-05;0.000472525;-0.000269325;0.00031155;-0.000653711;0.000482631;-0.270438;-3.6977;0.000568845;0.000643507;0.476587;2.09825;131.269;176.269;-0.000919157;-7.28419e-05;0.000459714;0.000485339;-0.000269319;0.0024282;0.0061997;0;0.0269386;0.0109653;0.880605
100000;101;26.2918;0.00115706;4.40102e-05;-2.00281;26.2028;-0.813099;0.00205104;-0.00435733;-0.210022;-0.0201363;-0.140533;-0.0644235;0.155902;-5.9288;0.000423966;-0.000553339;-0.000625055;0.000661883;-0.000862972;0.000762428;0.678287;1.4743;0.000882924;0.00101657;0.766981;1.30381;83.837;128.837;0.00181592;0.000424002;-0.000621641;-0.000484966;-0.000625095;-0.00433518;0.00978046;0;0.010829;-0.018924;-0.138904;-0.24514;0.282394;-6.82785;-0.000162229;0.000525523;-0.000223839;0.000333392;-0.000719459;0.000526425;-0.724757;-1.37977;0.000621336;0.0007019;0.463392;2.158;153.812;18.8123;-0.00103266;-0.000162331;0.000357893;0.000693163;-0.000223765;0.0020488;0.00750589;0;0.0291226;0.0140199;0.883936
101000;102;26.293;0.00236911;9.01124e-05;-2.00357;26.2039;-0.813443;0.0012914;-0.0032099;-0.210366;-0.0190239;-0.140535;-0.0669413;0.156822;-5.93132;0.000449065;-0.00056952;-0.000899187;0.000657435;-0.00110756;0.000882496;0.499412;2.00235;0.00103001;0.00117666;0.59359;1.68466;89.8595;134.859;0.0019982;0.000449154;-0.00075759;-0.000381197;-0.000899312;-0.0035029;0.0103949;0;0.0276304;-0.0181739;-0.139747;-0.250049;0.287026;-6.83276;-0.000130382;0.000531073;-0.00010071;0.000415734;-0.000646826;0.00053128;-1.29463;-0.772422;0.000618287;0.000708374;0.64273;1.55586;160.413;25.4135;-0.000671363;-0.000130462;0.000397109;0.000665033;-0.000100648;0.00119006;0.00749923;0;0.0350715;0.0165459;0.888843
102000;103;26.2931;0.00251214;9.55527e-05;-2.00336;26.2039;-0.820454;0.00150478;-0.00326867;-0.217377;-0.0200037;-0.143938;-0.0638336;0.158723;-5.92821;0.000395555;-0.000485071;-0.000449639;0.000616295;-0.000670379;0.000643337;0.879717;1.13673;0.00074308;0.000857782;0.919323;1.08776;107.755;152.755;0.00226701;0.000395651;-0.000762748;-0.000207158;-0.000449813;-0.00497974;0.00931115;0;0.0102892;-0.0189848;-0.142815;-0.25234;0.290571;-6.83505;-0.000180339;0.000459535;-0.000246284;0.000247405;-0.000674028;0.000460716;-0.732241;-1.36567;0.000550668;0.000614288;0.367054;2.72439;155.335;20.3351;-0.00028568;-0.000180459;0.000247972;0.000671111;-0.000246209;0.000297131;0.00826861;0;0.0298297;0.0207074;0.896318
103000;104;26.2937;0.00307334;0.000116899;-2.00227;26.2047;-0.815303;0.00259383;-0.00246153;-0.212226;-0.0197136;-0.146277;-0.0608221;0.15964;-5.9252;0.000297777;-0.000437772;-0.000735659;0.00045829;-0.000896172;0.000677231;0.404775;2.47051;0.000795504;0.000902974;0.511386;1.95547;95.7874;140.787;0.00185304;0.00029786;-0.000716209;-0.000159046;-0.00073582;-0.00343129;0.00958287;0;0.0106258;-0.018927;-0.14393;-0.255836;0.294153;-6.83855;-0.000263862;0.000493681;-0.000133105;0.000299507;-0.000696475;0.000497991;-1.98236;-0.50445;0.000590059;0.000663988;0.430033;2.3254;158.013;23.0134;5.7069e-05;-0.000263953;0.000335927;0.000651414;-0.00013304;-0.000435085;0.00941393;0;0.0295298;0.0236174;0.903887
104000;105;26.2957;0.00508358;0.000193361;-2.00266;26.2068;-0.8119;0.00220234;-0.000368731;-0.208823;-0.019847;-0.145535;-0.0679662;0.161845;-5.93234;0.000322859;-0.000463476;-0.000301315;0.000569528;-0.000547984;0.000558756;1.0715;0.933272;0.000645236;0.000745008;1.03931;0.962173;108.496;153.496;0.00152837;0.000322932;-0.000666771;-0.000260055;-0.00030143;-0.00232891;0.00899001;0;0.0109574;-0.0193305;-0.14371;-0.267005;0.303838;-6.84972;-0.000191055;0.000495837;-0.000182178;0.00030924;-0.000682473;0.000495856;-1.04872;-0.95354;0.000585926;0.000661142;0.453117;2.20694;160.653;25.6531;0.000105327;-0.000191194;0.000267151;0.00072452;-0.000182091;-0.00182943;0.0100494;0;0.0296529;0.0281861;0.910727
105000;106;26.2954;0.00476666;0.000181307;-2.00278;26.2062;-0.820356;0.00208545;-0.000958991;-0.217278;-0.0194656;-0.148169;-0.0639995;0.162569;-5.92837;0.000393189;-0.000420926;-0.000352987;0.000582572;-0.000542369;0.000562471;1.11389;0.897754;0.000649623;0.000749961;1.07412;0.930992;112.65;157.65;0.00153225;0.000393271;-0.000728326;-0.000113296;-0.000353163;-0.00187928;0.00957079;0;0.0138681;-0.0190294;-0.145139;-0.270393;0.307473;-6.85311;-0.000121663;0.000502564;-0.000302637;0.000298495;-0.000722795;0.000510645;-0.40201;-2.4875;0.000606367;0.00068086;0.412973;2.42146;133.747;178.747;0.000480872;-0.000121678;0.000473884;0.000531248;-0.000302623;-0.00243038;0.00948202;0;0.0301387;0.0321085;0.917983
106000;107;26.2952;0.0045586;0.000173393;-2.00287;26.2057;-0.826696;0.00199484;-0.00137393;-0.223619;-0.020173;-0.149617;-0.0612925;0.162938;-5.92567;0.00026382;-0.000174817;-0.000483326;0.0003027;-0.000522207;0.000412454;0.545842;1.83203;0.000481848;0.000549938;0.579656;1.72516;114.358;159.358;0.00206974;0.000263814;-0.00055203;0.000202678;-0.000483464;-0.00351729;0.00914236;0;0.0107814;-0.0193612;-0.14623;-0.275167;0.31221;-6.85788;-0.000198976;0.000445082;-0.000268642;0.000212634;-0.000680252;0.000446443;-0.740671;-1.35013;0.000538558;0.000595257;0.312581;3.19917;154.256;19.2559;0.00082662;-0.000199096;0.000227233;0.000662946;-0.000268569;-0.00331474;0.0125412;0;0.0287696;0.0365073;0.925517
107000;108;26.2951;0.00451814;0.000171854;-2.00425;26.2052;-0.839365;0.000617872;-0.00192254;-0.236288;-0.02061;-0.153355;-0.056891;0.164861;-5.92127;0.000142911;-0.000149732;8.17248e-06;0.000239732;-8.86484e-05;0.00016419;;;0.000196165;0.00021892;2.7043;0.369782;107.188;152.188;0.00204231;0.000142885;-0.000572143;0.000272735;8.02002e-06;-0.00258561;0.00906849;0;0.0122125;-0.019746;-0.148361;-0.278955;0.31657;-6.86167;-0.000222358;0.000457954;-0.000423594;0.000145901;-0.000791852;0.000468877;-0.524931;-1.90501;0.000582657;0.000625169;0.184253;5.42732;132.445;177.445;0.000922745;-0.000222377;0.000416701;0.000499215;-0.000423576;-0.0036542;0.0124285;0;0.0282683;0.0425755;0.933297
108000;109;26.2979;0.00732007;0.000278429;-2.00531;26.2082;-0.830688;-0.000448879;0.00108387;-0.227611;-0.0196918;-0.153923;-0.0687394;0.169721;-5.93311;0.000106312;-0.000172961;0.000273612;0.000382089;-2.16512e-06;0.000192127;-0.38855;-2.57367;0.00025545;0.000256169;;;88.4782;133.478;0.00162254;0.000106288;-0.000625973;0.000279976;0.000273431;-0.00189516;0.00840654;0;0.011906;-0.0193677;-0.149975;-0.290386;0.327401;-6.8731;-9.95696e-05;0.000371138;-0.000504622;0.000120704;-0.000724896;0.0004228;-0.197315;-5.06803;0.000528117;0.000563733;0.166513;6.00554;117.994;162.994;0.00155834;-9.95594e-05;0.000399636;0.000342627;-0.000504633;-0.00634373;0.0136157;0;0.0267796;0.0472411;0.940409
109000;110;26.2939;0.00326135;0.00012405;-2.00548;26.2038;-0.841949;-0.000620245;-0.00336126;-0.238872;-0.0197622;-0.161196;-0.060256;0.173221;-5.92463;7.83646e-06;1.99853e-05;0.00050801;0.000508807;7.03919e-06;0.000250884;;;0.000336883;0.000334512;;;54.4112;99.4112;0.00176759;7.64652e-06;-0.000577;0.000616672;0.000507844;-0.00179877;0.00953744;0;0.012703;-0.0193277;-0.15473;-0.290432;0.329645;-6.87315;-7.67449e-05;0.00035317;-0.000554253;0.000110802;-0.000741799;0.000426301;-0.138466;-7.22201;0.000535303;0.000568401;0.149369;6.69482;97.5394;142.539;0.00127047;-7.66858e-05;0.000625906;8.03027e-05;-0.000554386;-0.00438766;0.0144205;0;0.0257478;0.0546583;0.947669
110000;111;26.2953;0.00471148;0.000179208;-2.00808;26.2051;-0.838934;-0.0032147;-0.00200812;-0.235856;-0.0190506;-0.162557;-0.0658054;0.176403;-5.93018;-8.18243e-05;-0.000213237;0.000441689;0.000517551;-0.000157687;0.000337619;0.185253;5.39801;0.000407886;0.000450158;3.28215;0.304678;73.2851;118.285;0.00119302;-8.18669e-05;-0.000788088;0.000361313;0.000441401;-6.68814e-05;0.00878261;0;0.0180505;-0.0190522;-0.155378;-0.299854;0.338257;-6.88257;5.23486e-06;0.000362103;-0.000816273;0.000142055;-0.000953093;0.000547574;;;0.000687656;0.000730099;0.149046;6.70932;95.7659;140.766;0.00141654;5.29206e-06;0.000594763;0.000129252;-0.000816385;-0.00600318;0.0153552;0;0.0254279;0.0620867;0.950932
111000;112;26.2912;0.00058577;2.22806e-05;-2.00678;26.2006;-0.85389;-0.00191624;-0.00653172;-0.250813;-0.0193027;-0.16834;-0.0665192;0.182032;-5.93089;5.95997e-05;-0.000457758;0.000524119;0.000805169;-0.00022145;0.000513309;-0.113714;-8.79398;0.000623838;0.000684413;3.63589;0.275036;91.6232;136.623;0.00191976;5.97035e-05;-0.000960734;4.49848e-05;0.000523762;-0.000680772;0.0106432;0;0.0123886;-0.0191077;-0.160239;-0.307306;0.3471;-6.89002;8.74933e-05;0.000425993;-0.00102959;0.000231404;-0.0011735;0.000702452;0.0849788;11.7676;0.00086979;0.000936603;0.197191;5.07122;87.9235;132.924;0.000538551;8.7584e-05;0.000842021;9.49993e-06;-0.00102985;-0.00391682;0.0161192;0;0.0204979;0.0730604;0.960781
112000;113;26.2913;0.000666626;2.5356e-05;-2.00852;26.2004;-0.857304;-0.00365829;-0.00669556;-0.254227;-0.0176092;-0.171821;-0.0668059;0.185191;-5.93118;0.00019841;-0.000508034;-4.01593e-05;0.000600975;-0.000442724;0.000521849;4.94057;0.202406;0.000604884;0.000695799;1.35745;0.736677;100.601;145.601;0.00163912;0.000198537;-0.001073;5.70638e-05;-4.06059e-05;0.0010676;0.0133563;0;0.0119008;-0.018154;-0.164442;-0.30945;0.350899;-6.89216;1.29808e-05;0.000429295;-0.00117986;0.000151415;-0.00131829;0.000734854;0.011002;90.8928;0.000933437;0.000979806;0.114857;8.7065;95.2266;140.227;-0.0004603;1.30611e-05;0.000704649;0.000153612;-0.00118002;-0.00137013;0.0139956;0;0.0212188;0.0832344;0.963236
113000;114;26.2918;0.00115908;4.40873e-05;-2.00771;26.2009;-0.861196;-0.00285098;-0.00626714;-0.258118;-0.0167399;-0.176036;-0.066205;0.188817;-5.93058;0.000226312;-0.000755269;-0.00059471;0.000675423;-0.00104382;0.000859622;0.380542;2.62783;0.00100017;0.00114616;0.647068;1.54543;96.4771;141.477;0.000884442;0.000226593;-0.0014151;-9.48905e-05;-0.000595427;0.0039908;0.0119156;0;0.0112171;-0.0176755;-0.169067;-0.314067;0.357119;-6.89678;3.17369e-05;0.000438864;-0.00106414;0.000185823;-0.00121822;0.000702024;0.029824;33.53;0.00088065;0.000936032;0.152536;6.55582;90.0676;135.068;-0.000766268;3.18328e-05;0.000849809;2.7469e-05;-0.0010644;-0.000934567;0.0156961;0;0.0261255;0.0954918;0.969416
114000;115;26.2946;0.00399819;0.000152077;-2.00799;26.2035;-0.8656;-0.00312995;-0.00358468;-0.262523;-0.0161231;-0.177591;-0.0722891;0.192417;-5.93666;0.000435347;-0.000616281;-0.000341094;0.000775493;-0.00068124;0.000728366;1.27633;0.783499;0.000841631;0.000971155;1.13836;0.87846;108.66;153.66;0.00105045;0.000435533;-0.00114457;-8.75789e-05;-0.00034156;0.00172513;0.0116666;0;0.0154796;-0.0173715;-0.171292;-0.324629;0.36746;-6.90734;-6.5182e-05;0.0004219;-0.000684704;0.000148461;-0.000898347;0.000523404;-0.0951972;-10.5045;0.000654026;0.000697872;0.16526;6.05107;88.5555;133.556;-0.000871041;-6.51037e-05;0.000989954;-0.000146506;-0.000685106;-0.00107786;0.0144337;0;0.0313036;0.111879;0.976737
115000;116;26.2951;0.00450813;0.000171473;-2.00802;26.2039;-0.871124;-0.0031518;-0.0032577;-0.268047;-0.0141225;-0.181781;-0.0650801;0.193595;-5.92945;0.000423332;-0.000726488;-0.000192632;0.000904424;-0.000673723;0.000789074;2.19762;0.455037;0.000914383;0.0010521;1.34243;0.74492;108.248;153.248;0.00101789;0.000423566;-0.00120648;-0.000246195;-0.000193096;0.00226907;0.0109207;0;0.0134262;-0.0162065;-0.174812;-0.322081;0.366821;-6.90479;-0.000112694;0.000457626;-0.000670714;0.00014427;-0.000927679;0.000535975;-0.168021;-5.95165;0.000671727;0.000714633;0.155518;6.43014;87.6441;132.644;-0.00123394;-0.000112641;0.00123673;-0.000321908;-0.000671375;0.000157725;0.0130711;0;0.0278601;0.120392;0.983057
116000;117;26.2937;0.00309122;0.000117579;-2.0072;26.2021;-0.883703;-0.00233815;-0.00503843;-0.280626;-0.0133686;-0.186148;-0.0605265;0.196197;-5.9249;0.000572553;-0.00101401;-0.000350861;0.00122502;-0.00100333;0.00111418;1.63185;0.612801;0.00128866;0.00148557;1.22096;0.819031;108.733;153.733;0.0016127;0.000572925;-0.00149504;-0.000532543;-0.000351465;0.000954488;0.0110603;0;0.0101458;-0.0155197;-0.179618;-0.32157;0.368661;-6.90428;-0.000195702;0.000390455;-0.000402189;0.000104929;-0.000702819;0.000403874;-0.486593;-2.05511;0.000507154;0.000538499;0.149297;6.69806;95.3247;140.325;-0.00154608;-0.000195654;0.00101766;-0.000236878;-0.00040263;0.00116812;0.0131766;0;0.0269386;0.136296;0.990812
117000;118;26.2971;0.00646696;0.00024598;-2.00889;26.2056;-0.876311;-0.00403102;-0.00153236;-0.273233;-0.0123026;-0.185032;-0.0715198;0.198754;-5.93589;0.000475523;-0.000547383;-0.000454138;0.000728812;-0.000707426;0.000718119;1.04709;0.955028;0.000829243;0.000957492;1.03023;0.970658;110.696;155.696;0.00159368;0.000475671;-0.00113695;4.27338e-05;-0.000454634;0.000253769;0.0130406;0;0.014411;-0.0154696;-0.178342;-0.337268;0.381831;-6.91998;-0.000221426;0.000439455;-0.000377724;0.000146774;-0.000745924;0.000446349;-0.586213;-1.70587;0.000552742;0.000595132;0.196768;5.08212;93.7512;138.751;-0.00196316;-0.000221457;0.00138287;-0.000504111;-0.000378584;0.000801658;0.01355;0;0.0281808;0.152946;0.997338
118000;119;26.2951;0.0045167;0.000171799;-2.00816;26.2034;-0.886254;-0.00329786;-0.00376766;-0.283177;-0.0117001;-0.188018;-0.0687114;0.200522;-5.93309;0.000521103;-0.000667926;-0.000512701;0.00084878;-0.000840378;0.000844579;1.01639;0.983876;0.000975239;0.0011261;1.01;0.990101;109.068;154.068;0.00192016;0.000521326;-0.00129936;-3.58407e-05;-0.000513322;0.000358365;0.0113438;0;0.0150718;-0.0151973;-0.181359;-0.3369;0.382915;-6.91961;-0.000216175;0.000351136;-0.000263992;0.000111865;-0.000592032;0.000351949;-0.818869;-1.2212;0.000436778;0.000469265;0.188951;5.29238;95.3591;140.359;-0.00129687;-0.000216275;0.00127008;-0.000567855;-0.000264737;-0.000278618;0.0127754;0;0.0282864;0.168805;1.00471
119000;120;26.2966;0.0059776;0.000227366;-2.00568;26.2052;-0.880119;-0.000820788;-0.00190516;-0.277042;-0.0100863;-0.190152;-0.0690133;0.20254;-5.93339;0.000758051;-0.000687699;-0.000186209;0.00112009;-0.000548248;0.000834168;4.07096;0.245642;0.000981894;0.00111222;2.04304;0.489468;118.522;163.522;0.00218872;0.000758287;-0.00137592;1.17476e-06;-0.00018692;0.000126049;0.0113589;0;0.011258;-0.0140257;-0.183245;-0.341555;0.38786;-6.92427;-0.00025724;0.000323596;-0.000138529;0.00013111;-0.000526879;0.000328994;-1.85694;-0.53852;0.000402144;0.000438659;0.248842;4.01861;100.59;145.59;-0.00163918;-0.000257441;0.00135938;-0.000712067;-0.000139401;0.000305798;0.0141516;0;0.0286817;0.186472;1.0118
120000;121;26.298;0.00734697;0.000279452;-2.00739;26.2065;-0.879026;-0.00252656;-0.000624931;-0.275949;-0.0100183;-0.19116;-0.0735241;0.205057;-5.9379;0.000727196;-0.000904084;-0.000345062;0.00124216;-0.000860028;0.0010511;2.10744;0.47451;0.00122037;0.00140146;1.44433;0.692364;112.048;157.048;0.00167572;0.000727599;-0.00170548;-0.000101829;-0.000346108;0.00121344;0.0104687;0;0.0139033;-0.0147122;-0.184994;-0.345755;0.39241;-6.92847;-0.000254823;0.000420003;-0.000258052;0.000163569;-0.000676444;0.000420006;-0.987488;-1.01267;0.000514231;0.000560008;0.241807;4.13553;95.6376;140.638;-0.0019871;-0.000255085;0.00167675;-0.000836744;-0.00025937;0.000971441;0.0156565;0;0.0289937;0.200525;1.01872
121000;122;26.2982;0.00758569;0.000288532;-2.00744;26.2066;-0.881958;-0.00257253;-0.000487422;-0.278881;-0.00933365;-0.194552;-0.0696601;0.206858;-5.93403;0.000733701;-0.000702629;-0.000166553;0.00111802;-0.000550873;0.000834447;4.40522;0.227004;0.000981908;0.0011126;2.02954;0.492721;116.087;161.087;0.00220185;0.000733943;-0.00150293;9.83966e-05;-0.000167435;-0.000381976;0.0107594;0;0.0130236;-0.0144867;-0.188133;-0.346326;0.394393;-6.92904;-0.000341693;0.000281678;-0.000193118;2.39042e-05;-0.000558715;0.00029131;-1.76935;-0.56518;0.000380695;0.000388413;0.0427842;23.3731;102.845;147.845;-0.00145213;-0.000342258;0.00166308;-0.00109952;-0.000194462;-0.000213097;0.0166038;0;0.0293519;0.22064;1.02558
122000;123;26.2957;0.00511452;0.000194538;-2.00723;26.2037;-0.894605;-0.00236554;-0.00338009;-0.291528;-0.00767991;-0.199271;-0.0580141;0.207687;-5.92239;0.000594306;-0.000800493;-0.000172349;0.00109852;-0.000676563;0.000887541;3.44826;0.290001;0.00103445;0.00118339;1.62368;0.615886;109.683;154.683;0.00240423;0.000594624;-0.0016623;6.1975e-05;-0.000173411;-0.000614242;0.00975991;0;0.0123004;-0.0134131;-0.191074;-0.344386;0.39407;-6.9271;-0.000292379;0.000224135;-0.000282393;-6.3195e-05;-0.000511577;0.000224191;-1.03536;-0.965845;0.000322059;0.000298921;-0.12353;-8.09521;95.9837;140.984;-0.00125625;-0.000293188;0.00173985;-0.00129156;-0.000283882;-0.00136641;0.0162114;0;0.0282937;0.24023;1.02769
123000;124;26.2954;0.0047508;0.000180703;-2.00875;26.2028;-0.907992;-0.00388557;-0.00432204;-0.304915;-0.00520784;-0.200844;-0.0638473;0.210813;-5.92822;0.000930121;-0.000628087;0.000189224;0.00128887;-0.000169523;0.000729195;-4.91545;-0.20344;0.000920968;0.00097226;7.60291;0.131529;120.426;165.426;0.00288084;0.000930263;-0.00158603;0.000330563;0.000188164;-0.00133709;0.0106;0;0.0116983;-0.0110815;-0.19267;-0.34831;0.398201;-6.93102;-0.000409379;0.000182253;-0.000405583;-0.000225218;-0.000589744;0.000182263;-1.00936;-0.990726;0.00034364;0.000243017;-0.381892;-2.61854;97.5871;142.587;-0.00212885;-0.000410314;0.0017438;-0.00137929;-0.000407087;0.00123967;0.0169486;0;0.0289226;0.25996;1.03502
124000;125;26.2955;0.00488114;0.000185661;-2.00959;26.2029;-0.908047;-0.00472288;-0.00425734;-0.30497;-0.00432947;-0.200616;-0.071246;0.212935;-5.93562;0.000727585;-0.000730541;-2.23222e-05;0.00117378;-0.000468514;0.000821146;32.5947;0.0306799;0.000976886;0.00109486;2.50532;0.399151;112.83;157.83;0.00272196;0.000727799;-0.00178662;0.000326333;-2.36514e-05;-0.000645877;0.00931362;0;0.014912;-0.0105241;-0.19291;-0.358497;0.407241;-6.94121;-0.000398697;0.000144091;-0.00036303;-0.000235673;-0.000526053;0.00014519;-1.09825;-0.910541;0.000304264;0.000193587;-0.448002;-2.23213;98.9532;143.953;-0.00202371;-0.000400365;0.00212012;-0.00183187;-0.000365267;-5.60451e-05;0.0164512;0;0.0302273;0.28225;1.04126
125000;126;26.2941;0.00347411;0.000132142;-2.01024;26.2011;-0.915423;-0.00537818;-0.00597626;-0.312345;-0.00383168;-0.202795;-0.0691338;0.214289;-5.93351;0.000670534;-0.000481579;-0.000145457;0.000893711;-0.000368634;0.000631172;4.60986;0.216927;0.000749536;0.000841563;2.42439;0.412475;116.742;161.742;0.00327967;0.000670445;-0.00160237;0.000640129;-0.000146625;-0.00187616;0.010019;0;0.0214026;-0.0111005;-0.194504;-0.360486;0.409763;-6.9432;-0.000415688;0.000109871;-0.000436652;-0.000315801;-0.00053654;0.00011037;-0.951988;-1.05043;0.000311388;0.00014716;-0.588587;-1.69898;92.644;137.644;-0.00252088;-0.000417937;0.00234304;-0.00212335;-0.000439393;0.00150909;0.0186388;0;0.0329712;0.30686;1.04883
126000;127;26.2938;0.00323221;0.000122942;-2.011;26.2008;-0.917101;-0.00613337;-0.00633567;-0.314024;-0.00254647;-0.204318;-0.0701246;0.216032;-5.9345;0.000763424;-0.000535669;0.000251972;0.00110128;-8.58824e-05;0.00059358;-3.0298;-0.330055;0.000764423;0.00079144;12.8231;0.0779843;113.908;158.908;0.00326327;0.000763319;-0.00177603;0.000705321;0.000250539;-0.00108426;0.0090215;0;0.0115002;-0.0101704;-0.195545;-0.365683;0.414808;-6.9484;-0.000512511;2.26522e-05;-0.000302783;-0.000300364;-0.00051493;0.000107283;-1.69267;-0.590783;0.000298667;0.000143044;-0.583311;-1.71435;133.752;178.752;-0.00260049;-0.000515265;0.0023922;-0.0023464;-0.000305645;0.000475094;0.0200687;0;0.0252422;0.328862;1.05581
127000;128;26.2931;0.00246749;9.38545e-05;-2.01047;26.1998;-0.924134;-0.00561118;-0.00731014;-0.321056;-0.000851304;-0.203434;-0.0784459;0.218037;-5.94282;0.00083961;-0.000249733;0.000541299;0.00098134;0.00039957;0.000290885;-1.5511;-0.644703;0.000569822;0.000387847;-2.45599;-0.407168;119.156;164.156;0.00324224;0.000839057;-0.00158058;0.00108151;0.000540082;-0.00162164;0.00869975;0;0.0126537;-0.00914783;-0.195825;-0.376472;0.424455;-6.95919;-0.000407304;5.3517e-05;-0.000382436;-0.000339927;-0.000449812;5.49424e-05;-1.06502;-0.938946;0.000270783;7.32565e-05;-0.75571;-1.32326;100.48;145.48;-0.00352709;-0.000411139;0.00287669;-0.00276959;-0.000386574;0.00222371;0.0197707;0;0.0237697;0.354095;1.06385
128000;129;26.2929;0.00224042;8.52174e-05;-2.01123;26.1995;-0.92592;-0.00636727;-0.0076591;-0.322842;0.00079833;-0.208089;-0.0730663;0.220546;-5.93744;0.000705384;-0.000101639;0.000723788;0.000816641;0.000612531;0.000102055;-0.974573;-1.02609;0.00049075;0.000136073;-1.33322;-0.750062;100.388;145.388;0.00386673;0.000704451;-0.00157335;0.00137005;0.000722557;-0.00174209;0.0084189;0;0.0153214;-0.00779554;-0.200401;-0.372315;0.422895;-6.95503;-0.000336745;-0.000148993;-0.000603056;-0.000270078;-0.000669724;0.000199823;-0.558398;-1.79084;0.00038907;0.000266431;-0.403267;-2.47974;25.162;70.162;-0.00358674;-0.000342006;0.00294762;-0.00324643;-0.000607392;0.00240955;0.0190125;0;0.0231561;0.38012;1.07155
129000;130;26.2896;-0.000987335;-3.75547e-05;-2.0132;26.1958;-0.933677;-0.0083407;-0.0113253;-0.3306;0.00182282;-0.212533;-0.0682839;0.223241;-5.93266;0.000613105;-0.000185176;0.00107131;0.00113679;0.000547626;0.00029458;-0.572296;-1.74735;0.00065647;0.000392774;-2.07584;-0.481732;80.127;125.127;0.00331483;0.0006124;-0.00157308;0.00120209;0.00107009;-0.000677232;0.00898223;0;0.0162681;-0.00771174;-0.204033;-0.369879;0.422492;-6.95259;-0.000328049;-0.000189891;-0.000851634;-0.000266432;-0.000913251;0.00032341;-0.385199;-2.59606;0.000542297;0.000431213;-0.29174;-3.42771;31.7256;76.7256;-0.00517705;-0.000334922;0.00333015;-0.00371178;-0.000857165;0.00519679;0.0186854;0;0.0247997;0.402735;1.07911
130000;131;26.2911;0.00051019;1.94058e-05;-2.01451;26.1972;-0.933547;-0.00964552;-0.00991809;-0.33047;0.00349112;-0.21235;-0.0807352;0.227207;-5.94511;0.000655484;-5.73958e-05;0.00136071;0.00136535;0.000650844;0.000357253;-0.481723;-2.07588;0.000788571;0.000476337;-2.09782;-0.476686;64.7787;109.779;0.00386479;0.000654092;-0.0017866;0.00167059;0.00135912;-0.00073276;0.00750801;0;0.0148406;-0.00698686;-0.205504;-0.386912;0.438157;-6.96963;-0.000198557;-0.000234815;-0.000858611;-0.000123546;-0.000933622;0.000405038;-0.231254;-4.32426;0.000585593;0.000540051;-0.132329;-7.5569;31.1944;76.1944;-0.00656786;-0.000206651;0.00355784;-0.00402997;-0.000864918;0.00569927;0.018965;0;0.0274785;0.446654;1.08586
131000;132;26.2919;0.00124558;4.73772e-05;-2.01443;26.198;-0.933417;-0.0095709;-0.00916967;-0.330339;0.00202106;-0.213471;-0.0770621;0.226964;-5.94144;0.000406591;-3.8299e-05;0.000789299;0.000793094;0.000402796;0.000195149;-0.51513;-1.94126;0.000457912;0.000260198;-1.96897;-0.50788;60.0541;105.054;0.00405081;0.000405106;-0.0018017;0.00172442;0.000787678;-0.00095989;0.00960493;0;0.0178889;-0.00850615;-0.205478;-0.38776;0.438921;-6.97047;-0.000279007;-0.000187422;-0.000914486;-0.000227849;-0.000965644;0.000368897;-0.305097;-3.27764;0.000582852;0.000491863;-0.235956;-4.23808;33.9531;78.9531;-0.00653189;-0.000287622;0.00377722;-0.00415458;-0.000921609;0.00558855;0.0173171;0;0.0220509;0.454273;1.09167
132000;133;26.2927;0.00211765;8.05477e-05;-2.01667;26.1985;-0.938698;-0.0118042;-0.00865499;-0.335621;0.00485095;-0.216656;-0.0757642;0.229572;-5.94014;0.000498416;0.000121332;0.00144505;0.00146035;0.000483112;0.000488621;-0.344913;-2.89929;0.000859073;0.000651494;-3.02281;-0.330818;51.503;96.503;0.00445161;0.000496421;-0.00176075;0.00200164;0.00144351;-0.000560012;0.00822583;0;0.0135514;-0.00676491;-0.211429;-0.384593;0.43893;-6.96731;-0.00025213;-0.000246244;-0.000851723;-0.000163965;-0.000939888;0.000387961;-0.296024;-3.37811;0.000579718;0.000517282;-0.174452;-5.73224;29.2785;74.2785;-0.00691069;-0.000260673;0.00364546;-0.00414028;-0.000858343;0.00759477;0.0160862;0;0.0255444;0.48709;1.09833
133000;134;26.2952;0.00456534;0.000173649;-2.01754;26.2009;-0.93719;-0.012674;-0.00621147;-0.334112;0.00731442;-0.217605;-0.0793582;0.231739;-5.94373;0.000427521;0.000126084;0.00211996;0.0021293;0.000418179;0.00085556;-0.201665;-4.95873;0.00130271;0.00114075;-5.09183;-0.196393;57.3977;102.398;0.00392594;0.000425385;-0.00182221;0.00207109;0.00211831;0.000351219;0.00808171;0;0.014029;-0.00487456;-0.212439;-0.390055;0.444181;-6.97277;-0.000455239;-0.000276829;-0.000726141;-0.0002825;-0.00089888;0.00030819;-0.626929;-1.59508;0.000530768;0.00041092;-0.31428;-3.18188;17.1545;62.1545;-0.00742712;-0.000464448;0.00374493;-0.00429967;-0.00073312;0.00774867;0.0156589;0;0.0329648;0.515961;1.10176
134000;135;26.2961;0.0054472;0.000207192;-2.02112;26.2016;-0.936301;-0.0162545;-0.00557058;-0.333223;0.00695596;-0.221906;-0.076265;0.234749;-5.94064;0.000554832;0.000223739;0.0017559;0.00179623;0.000514508;0.00064086;-0.315981;-3.16474;0.00106812;0.00085448;-3.49116;-0.286438;49.6168;94.6168;0.00415088;0.000552312;-0.00181172;0.00225676;0.00175429;0.000454726;0.00834938;0;0.014419;-0.00740651;-0.217237;-0.386718;0.443619;-6.96943;-0.000329439;-0.000195934;-0.000580348;-0.000222237;-0.00068755;0.000232657;-0.567657;-1.76163;0.000405142;0.000310209;-0.32323;-3.09378;19.3331;64.3331;-0.00758777;-0.00033916;0.00402001;-0.00441293;-0.000588414;0.00777829;0.0162505;0;0.0239065;0.548464;1.10817
135000;136;26.2968;0.00621804;0.000236512;-2.0208;26.2022;-0.939804;-0.0159395;-0.00489807;-0.336726;0.00882247;-0.219866;-0.086474;0.236425;-5.95085;0.000343955;3.06779e-05;0.00170357;0.00170426;0.000343263;0.000680499;-0.201902;-4.95289;0.0010408;0.000907332;-4.96489;-0.201415;56.9776;101.978;0.00434219;0.000341781;-0.0020269;0.00208546;0.00170152;0.000737941;0.00876224;0;0.0181282;-0.00549349;-0.214914;-0.402408;0.456235;-6.98512;-0.000227934;-0.000144785;-0.000467246;-0.00015976;-0.00053542;0.00018783;-0.487825;-2.04991;0.000317392;0.00025044;-0.298383;-3.3514;22.0002;67.0002;-0.00745219;-0.000238091;0.00421815;-0.00450876;-0.000476136;0.00772606;0.0140814;0;0.0288631;0.577628;1.11457
136000;137;26.2964;0.00576891;0.000219429;-2.0228;26.2018;-0.935997;-0.0179369;-0.00536668;-0.332919;0.0112505;-0.22241;-0.0852431;0.238452;-5.94962;0.000360455;0.000254695;0.00173588;0.00178153;0.000314807;0.000733362;-0.20765;-4.81581;0.0010979;0.000977816;-5.65912;-0.176706;47.9273;92.9273;0.00432878;0.000357627;-0.001886;0.00239245;0.00173414;0.00040167;0.00800511;0;0.0247878;-0.00523595;-0.217518;-0.399514;0.454921;-6.98223;-0.000293513;-0.000138711;-0.000258345;-0.000136108;-0.000415751;0.000139822;-1.13613;-0.880183;0.000244756;0.000186429;-0.327378;-3.05457;177.962;42.9622;-0.0080623;-0.000305722;0.00466544;-0.00494269;-0.000269222;0.00858405;0.0146218;0;0.0308179;0.611724;1.122
137000;138;26.2993;0.00872019;0.000331685;-2.02382;26.2046;-0.938145;-0.0189523;-0.00255996;-0.335067;0.0119749;-0.225735;-0.0833365;0.240925;-5.94771;0.000355824;8.42914e-05;0.00198522;0.00198957;0.000351475;0.000819047;-0.179237;-5.57922;0.00122613;0.00109206;-5.66062;-0.176659;56.4174;101.417;0.00462684;0.000353357;-0.00205843;0.00222353;0.00198311;-0.000532722;0.00873561;0;0.0148608;-0.00507507;-0.221209;-0.401394;0.458341;-6.98411;-0.000400605;-4.94135e-05;-1.34444e-05;-7.23725e-06;-0.000406812;0.000199788;-29.7972;-0.0335602;0.000268828;0.000266383;;;143.389;8.38925;-0.00797365;-0.000411302;0.00452758;-0.00462464;-2.36929e-05;0.00843886;0.0146796;0;0.0255147;0.643674;1.12941
138000;139;26.2989;0.00824914;0.000313768;-2.02459;26.2039;-0.942998;-0.0197245;-0.00326656;-0.339921;0.0122424;-0.226812;-0.0805764;0.24101;-5.94495;0.000501962;-7.96978e-05;0.00162663;0.00163225;0.000496342;0.000567953;-0.30859;-3.24054;0.000966192;0.000757271;-3.28855;-0.304085;62.6207;107.621;0.00460536;0.000499969;-0.00216042;0.00199869;0.0016243;0.000704277;0.00884277;0;0.0152106;-0.00593864;-0.222565;-0.400294;0.458045;-6.98301;-0.000382934;7.9049e-05;0.000116107;0.000128329;-0.000395156;0.000261743;3.29812;0.303203;0.00031505;0.00034899;0.324755;3.07924;126.903;171.903;-0.00840031;-0.000395052;0.0050832;-0.0049226;0.000103192;0.0093441;0.0152302;0;0.0256883;0.673276;1.13699
139000;140;26.2987;0.00811029;0.000308486;-2.025;26.2035;-0.948209;-0.0201325;-0.00362548;-0.345131;0.015054;-0.22939;-0.0818562;0.244022;-5.94623;0.00031294;-0.000117023;0.0014559;0.00146776;0.000301081;0.000583339;-0.214946;-4.65234;0.000895185;0.000777785;-4.87496;-0.20513;62.3757;107.376;0.00494982;0.000311037;-0.00219066;0.00195425;0.00145351;0.00103195;0.00927826;0;0.0185884;-0.00442105;-0.225248;-0.403279;0.461942;-6.98599;-0.000400069;7.63833e-05;0.000196493;0.000206117;-0.000409694;0.000307906;2.03605;0.491147;0.000361957;0.000410541;0.503101;1.98767;128.332;173.332;-0.00835385;-0.000412102;0.00506101;-0.00490527;0.000183691;0.00940908;0.0148337;0;0.028769;0.709609;1.14409
140000;141;26.2981;0.00747263;0.000284232;-2.02536;26.2027;-0.950971;-0.020498;-0.00439383;-0.347894;0.0174564;-0.233238;-0.0773898;0.246361;-5.94176;0.00021909;-0.000154993;0.00132042;0.00134182;0.000197693;0.000572064;-0.165924;-6.02686;0.000836473;0.000762752;-6.78739;-0.147332;63.2568;108.257;0.00477772;0.000217339;-0.0021902;0.00187798;0.00131804;0.000526885;0.00964966;0;0.0178438;-0.00312527;-0.228158;-0.40194;0.462192;-6.98465;-0.000436378;0.000144494;0.000229136;0.000259155;-0.000466396;0.000362775;1.90445;0.525087;0.000424555;0.000483701;0.555653;1.79968;123.769;168.769;-0.00815322;-0.0004488;0.00527771;-0.00498531;0.000215223;0.00896343;0.0140104;0;0.028281;0.739463;1.15139
141000;142;26.2984;0.00777152;0.000295601;-2.02602;26.2028;-0.955468;-0.0211566;-0.00430835;-0.352391;0.0186675;-0.232443;-0.0839434;0.24784;-5.94832;0.0003903;-0.000277793;0.00138363;0.00145604;0.000317891;0.000569073;-0.282085;-3.54503;0.00088399;0.000758763;-4.5803;-0.218326;71.4306;116.431;0.00487357;0.000388802;-0.00231144;0.00175383;0.001381;0.00119578;0.00956569;0;0.0148285;-0.00338574;-0.228569;-0.409153;0.46868;-6.99187;-0.000327484;0.000232643;0.000279246;0.000358181;-0.000406419;0.0003823;1.17275;0.852699;0.000441735;0.000509733;0.881308;1.13468;116.31;161.31;-0.00853443;-0.00034068;0.00561022;-0.00514168;0.00026354;0.00775463;0.0169331;0;0.0290386;0.772624;1.15875
142000;143;26.2974;0.00678975;0.000258258;-2.0272;26.2016;-0.958076;-0.022339;-0.00548039;-0.354999;0.0205326;-0.236981;-0.0783802;0.250449;-5.94275;0.000206538;-0.0002565;0.000738275;0.000841837;0.000102977;0.00036943;-0.279758;-3.57452;0.000530242;0.000492573;-8.17498;-0.122324;73.7696;118.77;0.00446964;0.00020511;-0.00222364;0.00170959;0.000735838;0.00175806;0.0113625;0;0.0140503;-0.00306461;-0.231487;-0.407519;0.468687;-6.99023;-0.000520465;0.000278721;0.000319145;0.000403247;-0.000604567;0.000503907;1.63081;0.613192;0.000585718;0.000671876;0.667001;1.49925;118.634;163.634;-0.00877911;-0.000535087;0.00597568;-0.00541346;0.000301335;0.00879947;0.0172234;0;0.0300674;0.809413;1.16655
143000;144;26.2977;0.00708484;0.000269482;-2.02811;26.2017;-0.961458;-0.0232503;-0.00537862;-0.358381;0.0238085;-0.237581;-0.0820799;0.252485;-5.94645;0.000230422;-0.000435715;0.000858937;0.0010819;7.45951e-06;0.00053722;-0.268264;-3.72767;0.000718792;0.000716293;;;80.2502;125.25;0.00429709;0.00022949;-0.00230578;0.00143318;0.000856376;0.00193052;0.0110513;0;0.0131318;-0.00146144;-0.232445;-0.412437;0.473431;-6.99515;-0.000426461;0.000290924;0.000302717;0.000404563;-0.000528307;0.000466435;1.40878;0.709835;0.00054017;0.000621914;0.765772;1.30587;115.935;160.935;-0.00854151;-0.000441081;0.00600007;-0.00541407;0.000284764;0.00798454;0.0146705;0;0.02912;0.847485;1.17341
144000;145;26.2988;0.00822544;0.000312866;-2.02957;26.2028;-0.961161;-0.0247076;-0.00433577;-0.358083;0.0252974;-0.237504;-0.0832281;0.252933;-5.9476;0.000239564;-0.000497593;0.000376346;0.000810226;-0.000194316;0.000502271;-0.636553;-1.57096;0.000615238;0.000669695;4.16964;0.239829;90.6021;135.602;0.00409132;0.000238633;-0.00244803;0.00145258;0.000373475;0.00290153;0.0126079;0;0.0138554;-0.00139823;-0.232637;-0.415179;0.475916;-6.99789;-0.000453374;0.000279886;0.000347403;0.00043553;-0.000541501;0.000488515;1.30504;0.766262;0.000565194;0.000651354;0.804301;1.24332;117.687;162.687;-0.00897503;-0.00046994;0.00632604;-0.00576144;0.00032744;0.00806339;0.0160995;0;0.0291941;0.880273;1.17827
145000;146;26.2988;0.00815545;0.000310204;-2.03143;26.2024;-0.964668;-0.0265665;-0.00467895;-0.36159;0.0272176;-0.23964;-0.0874079;0.256531;-5.95178;0.000347203;-0.000617378;0.000273393;0.000928778;-0.000308182;0.00061848;-1.26998;-0.787415;0.000743516;0.00082464;3.01373;0.331815;96.3666;141.367;0.00384532;0.000346566;-0.00252128;0.00128667;0.000270405;0.00333913;0.0121943;0;0.0140035;-0.00130855;-0.234973;-0.420745;0.481914;-7.00346;-0.000419607;0.000262643;0.000453595;0.000526505;-0.000492517;0.000509511;0.925069;1.081;0.000588442;0.000679348;1.06901;0.935445;119.318;164.318;-0.00926299;-0.000437609;0.00653567;-0.00600492;0.000432282;0.00859315;0.015689;0;0.0298164;0.921448;1.18358
146000;147;26.2998;0.00920484;0.000350119;-2.03402;26.2032;-0.966761;-0.0291524;-0.00390346;-0.363684;0.0291842;-0.241417;-0.0869387;0.258248;-5.95131;0.00032856;-0.000656329;0.000195287;0.000921627;-0.000397779;0.000659703;-1.68245;-0.594372;0.000781517;0.000879604;2.31693;0.431606;97.1488;142.149;0.00348118;0.000328163;-0.00241959;0.00110717;0.000192576;0.00412279;0.0113152;0;0.0123563;-0.00121995;-0.236773;-0.422955;0.48472;-7.00567;-0.000393994;0.000195303;0.000322173;0.000371971;-0.000443792;0.000407881;1.22293;0.817711;0.000471589;0.000543842;0.838166;1.19308;120.762;165.762;-0.00928082;-0.000413606;0.00665993;-0.00626471;0.000300022;0.00805191;0.0166801;0;0.0294717;0.957196;1.18949
147000;148;26.3008;0.010215;0.000388541;-2.03599;26.2042;-0.963596;-0.031126;-0.00292627;-0.360519;0.0313882;-0.242028;-0.0900483;0.260137;-5.95442;0.000343351;-0.000675814;0.000131739;0.000921591;-0.000446502;0.000684047;-2.60631;-0.383685;0.000805588;0.000912062;2.06403;0.48449;98.1761;143.176;0.00373769;0.000342915;-0.00250438;0.00115314;0.000128831;0.00283565;0.0124966;0;0.0154815;-0.000852998;-0.237985;-0.426572;0.488468;-7.00928;-0.000435427;0.000206432;0.000421549;0.000468683;-0.00048256;0.000475622;1.03292;0.968128;0.00054922;0.000634162;0.971241;1.02961;122.071;167.071;-0.00961283;-0.000456988;0.00698726;-0.0065686;0.000397169;0.0085422;0.014871;0;0.029418;0.994311;1.19682
148000;149;26.2999;0.0092412;0.000351502;-2.03621;26.2028;-0.973517;-0.0313478;-0.00428759;-0.370439;0.033287;-0.244124;-0.089338;0.262079;-5.95371;0.000275175;-0.00105393;-0.000496806;0.00101158;-0.00123321;0.00112239;0.553889;1.80542;0.00129813;0.00149652;0.820281;1.21909;98.3079;143.308;0.00361495;0.000275462;-0.00283931;0.000732827;-0.000500283;0.00316662;0.0136951;0;0.0105968;-0.000926451;-0.240805;-0.428758;0.491753;-7.01147;-0.000318939;0.000171778;0.0003468;0.000388509;-0.000360649;0.000374579;0.919663;1.08736;0.000432626;0.000499439;1.07725;0.928288;121.194;166.194;-0.0107296;-0.000342588;0.0072267;-0.00687846;0.00032071;0.00954217;0.0197198;0;0.0266766;1.04151;1.20373
149000;150;26.3002;0.00956099;0.000363666;-2.03852;26.2031;-0.970824;-0.033652;-0.00404588;-0.367747;0.0361046;-0.248009;-0.0873904;0.265422;-5.95176;0.000485216;-0.000917614;-0.000516829;0.00102968;-0.00106129;0.00104548;0.938833;1.06515;0.00120727;0.00139398;0.970213;1.0307;104.088;149.088;0.00306208;0.000485269;-0.00269169;0.000858248;-0.000520032;0.00435347;0.0130595;0;0.0179344;-0.000320595;-0.244156;-0.429067;0.49367;-7.01178;-0.000139076;-3.58336e-05;0.000383387;0.000385834;-0.000141522;0.000263678;0.362756;2.75667;0.000315172;0.000351571;2.72631;0.366796;138.331;3.33146;-0.0112404;-0.000167483;0.00746928;-0.00753703;0.000355503;0.0100218;0.0188318;0;0.02597;1.0889;1.21091
150000;151;26.3017;0.0110432;0.000420044;-2.04162;26.2045;-0.966065;-0.0367615;-0.00262434;-0.362987;0.0379962;-0.250386;-0.0871195;0.267818;-5.95149;0.000475361;-0.00113406;-0.000807438;0.00113684;-0.00146891;0.00130288;0.588727;1.69858;0.0015085;0.00173717;0.77393;1.29211;102.282;147.282;0.00328766;0.000475706;-0.00303709;0.000771419;-0.00081141;0.00393965;0.0145793;0;0.0215116;-0.000556368;-0.247268;-0.4308;0.496719;-7.01351;-0.000174566;-0.000162287;0.000217714;0.000276148;-0.000233;0.000254574;0.801812;1.24718;0.000294308;0.000339432;1.18519;0.843749;154.61;19.6103;-0.0120471;-0.000207955;0.00785117;-0.00817259;0.000186913;0.0113679;0.0205704;0;0.0250125;1.13341;1.2176
151000;152;26.3007;0.0101035;0.000384301;-2.04376;26.2032;-0.970808;-0.0388962;-0.00390924;-0.36773;0.0413243;-0.251867;-0.0894147;0.270443;-5.95379;0.000655818;-0.00106839;-0.000294415;0.00134997;-0.000988565;0.00116927;2.22753;0.448928;0.00135552;0.00155902;1.36558;0.732288;104.95;149.95;0.00313544;0.000656152;-0.00282362;0.000688519;-0.000297832;0.00351581;0.0126145;0;0.0113356;0.000300685;-0.249993;-0.434702;0.50146;-7.01742;-0.000186982;-0.000358213;0.000271473;0.000467524;-0.000383033;0.000425278;0.688768;1.45187;0.000491876;0.000567037;1.22058;0.81928;163.427;28.4272;-0.0132283;-0.000224158;0.00791672;-0.00862933;0.000240208;0.0111484;0.0214726;0;0.0241202;1.18214;1.22518
152000;153;26.3008;0.0102299;0.000389108;-2.04469;26.2031;-0.974327;-0.0398304;-0.00398589;-0.371249;0.0424654;-0.254011;-0.0895852;0.272672;-5.95396;0.000674651;-0.00106525;-1.78985e-05;0.00144849;-0.000791743;0.00112012;37.6931;0.0265301;0.0013118;0.00149349;1.8295;0.546597;104.201;149.201;0.00322166;0.000674948;-0.00286424;0.000734986;-2.14332e-05;0.00363715;0.0115186;0;0.0112916;6.54195e-05;-0.25259;-0.437578;0.505249;-7.02029;-0.000155962;-0.000445709;0.000271805;0.000552292;-0.000436449;0.000494371;0.573801;1.74277;0.000572155;0.000659161;1.26542;0.790251;166.866;31.8663;-0.0137939;-0.000196732;0.00815246;-0.00904016;0.000238681;0.0134469;0.0222435;0;0.0236461;1.2233;1.23193
153000;154;26.3035;0.0128591;0.000489115;-2.04634;26.2059;-0.967108;-0.0414814;-0.00120828;-0.36403;0.0445057;-0.256957;-0.087894;0.275197;-5.95227;0.000514271;-0.000824691;-0.000246567;0.00104206;-0.000774351;0.000908203;2.08573;0.479449;0.00105249;0.00121094;1.34571;0.7431;104.466;149.466;0.00370875;0.000514074;-0.00268449;0.00103653;-0.000249831;0.0020194;0.0108049;0;0.0123294;0.000159799;-0.257185;-0.437599;0.507579;-7.02031;-0.000116031;-0.000608045;0.000168407;0.000650643;-0.000598268;0.000624456;0.688993;1.45139;0.00072127;0.000832607;1.08755;0.919502;173.207;38.2066;-0.013802;-0.000159802;0.00816197;-0.00937552;0.000135288;0.0132761;0.0181195;0;0.0235378;1.27312;1.23965
154000;155;26.3031;0.0125197;0.000476204;-2.04807;26.2053;-0.969884;-0.0432097;-0.00178661;-0.366806;0.047863;-0.258947;-0.0859623;0.277009;-5.95034;0.000563166;-0.000533841;0.000573079;0.00110199;3.4258e-05;0.000533864;-0.982702;-1.0176;0.000723509;0.000711819;-32.1673;-0.0310875;98.2266;143.227;0.00356988;0.00056242;-0.00240058;0.00133288;0.000570342;0.00175876;0.0104403;0;0.0118509;0.00184929;-0.260264;-0.435375;0.50724;-7.01809;-4.06e-05;-0.000475217;0.000231351;0.000589664;-0.000398913;0.000494288;0.175491;5.69831;0.000574286;0.000659051;1.47818;0.676508;171.582;36.5816;-0.014515;-8.43583e-05;0.00841883;-0.0093668;0.000196033;0.0147377;0.0187612;0;0.0249767;1.32613;1.24606
155000;156;26.304;0.0133615;0.000508224;-2.04861;26.2057;-0.980635;-0.0437448;-0.00138359;-0.377558;0.0471311;-0.260729;-0.0870688;0.278894;-5.95144;0.000609044;-0.00082364;0.000357166;0.00131632;-0.000350108;0.000833213;-1.70521;-0.586437;0.00101459;0.00111095;3.75974;0.265976;101.541;146.541;0.00400222;0.000608813;-0.00271453;0.00106773;0.000353822;0.00216791;0.0110832;0;0.0113666;0.000232891;-0.263165;-0.439211;0.512018;-7.02192;-0.000219047;-0.00040131;0.000414781;0.000609222;-0.000413488;0.000511355;0.528102;1.89357;0.000594056;0.000681807;1.47337;0.678714;160.405;25.4051;-0.0142881;-0.000260794;0.00834822;-0.00914527;0.000380029;0.0139261;0.0194329;0;0.031287;1.37602;1.24961
156000;157;26.3065;0.015895;0.00060459;-2.05011;26.2083;-0.978134;-0.0452515;0.0011351;-0.375056;0.0486018;-0.263657;-0.0856703;0.281454;-5.95004;0.000516007;-0.000523432;0.00036831;0.000970775;-8.64576e-05;0.000528616;-1.40101;-0.71377;0.000677843;0.000704822;11.2283;0.0890604;100.339;145.339;0.00327965;0.000515083;-0.0025034;0.00145683;0.000365315;0.00344864;0.0106344;0;0.0126718;0.000838136;-0.266007;-0.441573;0.515506;-7.02429;-0.000176239;-0.00029428;0.000505079;0.000614586;-0.000285746;0.000450166;0.348934;2.86587;0.000531238;0.000600221;2.15081;0.464941;154.749;19.7489;-0.014112;-0.000217338;0.00848764;-0.0090702;0.00046912;0.0140938;0.0208292;0;0.0256594;1.4289;1.25656
157000;158;26.3101;0.0194883;0.000741265;-2.05169;26.2119;-0.973643;-0.0468247;0.00478592;-0.370566;0.0502548;-0.262943;-0.093742;0.283641;-5.95812;0.000642532;-0.000339069;0.000400269;0.000881456;0.000161344;0.000360056;-1.60525;-0.622956;0.000541922;0.000480075;-5.4632;-0.183043;107.33;152.33;0.00381634;0.000641286;-0.00229274;0.00161508;0.000397699;0.00137744;0.00981587;0;0.013244;0.00150205;-0.268373;-0.447953;0.522196;-7.03067;-0.000135005;-6.07076e-05;0.000709326;0.000713669;-0.000139348;0.000426508;0.190329;5.25405;0.000528389;0.000568678;5.12148;0.195256;138.021;3.02052;-0.0140211;-0.000173253;0.00863165;-0.00874573;0.000672101;0.0139107;0.0201002;0;0.0276696;1.48086;1.2616
158000;159;26.3105;0.0199006;0.000756947;-2.05336;26.2119;-0.981057;-0.0484958;0.00479247;-0.37798;0.0508983;-0.26682;-0.0896218;0.286034;-5.954;0.0004089;-0.000194282;0.000936338;0.00100018;0.000345062;0.000327557;-0.436701;-2.2899;0.000586628;0.000436742;-2.89854;-0.345002;71.9206;116.921;0.00426434;0.000407014;-0.00234181;0.00195212;0.000933618;0.00115118;0.00919771;0;0.0130209;0.00171683;-0.27223;-0.448047;0.524269;-7.03076;-0.000194736;0.000203818;0.000924769;0.000960722;-0.000230688;0.000595705;0.210578;4.74884;0.000729636;0.000794273;4.16458;0.24012;123.641;168.641;-0.0137313;-0.00022886;0.00868004;-0.00826294;0.000887152;0.01416;0.0196826;0;0.0280283;1.53637;1.26879
159000;160;26.3128;0.0221628;0.000842992;-2.05376;26.2143;-0.976859;-0.0488968;0.00718852;-0.373781;0.0535483;-0.268278;-0.0959738;0.289916;-5.96035;0.000496893;-7.08088e-05;0.00115748;0.00116498;0.000489388;0.000337797;-0.42929;-2.32943;0.00067546;0.000450396;-2.38049;-0.420082;61.1049;106.105;0.00463498;0.000494484;-0.00233965;0.00219653;0.00115475;0.000980201;0.00909365;0;0.0142862;0.00346775;-0.27487;-0.452394;0.529364;-7.03511;-0.000203304;0.000325859;0.00099063;0.00107378;-0.00028645;0.000680113;0.205227;4.87265;0.000828018;0.000906817;3.74856;0.266769;119.213;164.213;-0.0128449;-0.000235247;0.00866028;-0.00799864;0.00095322;0.0132383;0.0194084;0;0.0284558;1.59763;1.27634
160000;161;26.3129;0.0222597;0.000846679;-2.05404;26.2142;-0.981072;-0.0491746;0.00710672;-0.377994;0.0536313;-0.27187;-0.0937578;0.292541;-5.95813;0.000407474;8.17381e-05;0.00117765;0.00118622;0.000398895;0.000393665;-0.346007;-2.89011;0.000696999;0.000524886;-2.97378;-0.336273;48.4191;93.4191;0.00452153;0.00040456;-0.00225422;0.0024159;0.00117511;0.00103928;0.0103942;0;0.0151993;0.00313453;-0.278805;-0.451768;0.530882;-7.03448;-0.000353018;0.000454352;0.00100481;0.00114282;-0.000491025;0.000816922;0.351327;2.84635;0.000967997;0.00108923;2.32742;0.429661;116.88;161.88;-0.0130838;-0.000384932;0.0089209;-0.00800074;0.000965163;0.0139174;0.0201878;0;0.0301738;1.65694;1.28375
161000;162;26.3147;0.0240502;0.000914782;-2.05577;26.216;-0.979467;-0.0509089;0.008828;-0.37639;0.0552134;-0.273772;-0.0940879;0.294707;-5.95846;0.00029789;0.000252386;0.00156048;0.00160906;0.000249308;0.000679875;-0.190897;-5.23843;0.00100002;0.0009065;-6.4541;-0.15494;44.2003;89.2003;0.00471857;0.000294035;-0.00228687;0.00278844;0.0015579;0.00190163;0.00992866;0;0.0167651;0.00429007;-0.28134;-0.452495;0.532844;-7.03521;-0.000219621;0.000450212;0.00112894;0.00126543;-0.000356109;0.000810767;0.194538;5.1404;0.000984038;0.00108102;3.55348;0.281414;116.447;161.447;-0.0127714;-0.000250259;0.00875152;-0.00783994;0.00109079;0.0126428;0.0204349;0;0.0331557;1.72243;1.29077
162000;163;26.3157;0.0250538;0.000952955;-2.05641;26.2171;-0.975486;-0.0515416;0.00993418;-0.372409;0.0560971;-0.276052;-0.0943155;0.297064;-5.95869;0.000461672;0.000298902;0.00221563;0.00226517;0.000412133;0.000926517;-0.20837;-4.79915;0.0013932;0.00123536;-5.4962;-0.181944;49.6751;94.6751;0.00510166;0.000457783;-0.00221212;0.00280553;0.00221323;0.000894976;0.00940182;0;0.0162636;0.00488651;-0.2837;-0.454099;0.535458;-7.03681;-0.000344159;0.000465067;0.00113006;0.00126452;-0.00047861;0.000871563;0.304548;3.28355;0.00103993;0.00116208;2.64206;0.378493;117.402;162.402;-0.0131798;-0.000374745;0.00877601;-0.00783367;0.00109171;0.0133354;0.0205361;0;0.0329864;1.77704;1.29866
163000;164;26.3156;0.0249979;0.000950828;-2.05579;26.217;-0.976304;-0.0509227;0.00989616;-0.373226;0.0571685;-0.277567;-0.0992711;0.300277;-5.96365;0.000349276;0.000303001;0.00210535;0.00215616;0.000298465;0.000928846;-0.1659;-6.02774;0.001349;0.00123846;-7.22415;-0.138425;48.3524;93.3524;0.00514295;0.000345246;-0.00225431;0.00285583;0.00210286;0.000867099;0.0103473;0;0.0144646;0.00557984;-0.285811;-0.45886;0.540621;-7.04157;-0.000350307;0.000486932;0.00104471;0.00119786;-0.000503458;0.000850658;0.335316;2.98226;0.00100916;0.00113421;2.37926;0.420299;116.229;161.229;-0.0128921;-0.000380977;0.00883112;-0.00784567;0.00100587;0.0123592;0.0199927;0;0.0291888;1.8415;1.30598
164000;165;26.3159;0.0252417;0.000960103;-2.05708;26.2172;-0.975075;-0.0522189;0.010085;-0.371997;0.0580581;-0.280859;-0.0978182;0.30302;-5.96219;0.000247205;0.000216604;0.00226359;0.00228659;0.0002242;0.0010312;-0.109209;-9.15673;0.00145543;0.00137493;-10.1989;-0.0980495;52.2348;97.2348;0.00495652;0.0002435;-0.00230293;0.00273107;0.00226097;0.00101902;0.0103905;0;0.015222;0.00613198;-0.288865;-0.457504;0.541101;-7.04022;-0.000300758;0.000395422;0.00112067;0.00122327;-0.000403353;0.00081331;0.268373;3.72616;0.00097809;0.00108441;3.03274;0.329735;118.954;163.954;-0.0130901;-0.000333574;0.00891273;-0.00810982;0.00108107;0.0123051;0.0204632;0;0.0295111;1.89392;1.31351
165000;166;26.3174;0.0267734;0.00101836;-2.05918;26.2185;-0.977215;-0.0543158;0.0113781;-0.374137;0.0587671;-0.282556;-0.104595;0.306972;-5.96897;0.000305772;0.00017959;0.00251645;0.00253094;0.000291277;0.00111983;-0.121509;-8.22983;0.00159907;0.00149311;-8.68913;-0.115086;55.2917;100.292;0.00498889;0.000302282;-0.00229469;0.00264841;0.00251384;0.000975263;0.0100108;0;0.0176067;0.00660783;-0.290939;-0.465542;0.549016;-7.04826;-0.000197108;0.000239392;0.00105434;0.00109857;-0.000241338;0.000669954;0.186949;5.34905;0.000824682;0.000893272;4.55199;0.219684;122.976;167.976;-0.013121;-0.000231687;0.00880821;-0.00831873;0.00101562;0.0119281;0.0206021;0;0.0283412;1.9682;1.3202
166000;167;26.3166;0.0259782;0.000988116;-2.05882;26.2175;-0.982162;-0.0539614;0.0104229;-0.379084;0.0586232;-0.285582;-0.0989133;0.307859;-5.96329;0.000336551;6.57229e-05;0.00244518;0.00244723;0.000334505;0.00105636;-0.137639;-7.2654;0.0015322;0.00140848;-7.31597;-0.136687;58.2316;103.232;0.00494907;0.000333485;-0.00235131;0.00247767;0.00244242;0.00184774;0.00895188;0;0.0264258;0.00667826;-0.294169;-0.463843;0.5493;-7.04656;-0.000162769;0.00010774;0.0010654;0.00107478;-0.000172148;0.000623465;0.152777;6.5455;0.00078026;0.000831287;6.24335;0.160171;128.433;173.433;-0.0133861;-0.000200689;0.00893482;-0.00870852;0.00102553;0.012689;0.0215358;0;0.0273113;2.02777;1.32471
167000;168;26.3165;0.0259251;0.000986099;-2.05768;26.2176;-0.982033;-0.0528179;0.0104643;-0.378955;0.0610473;-0.287184;-0.107455;0.312647;-5.97183;0.000216192;7.73611e-05;0.00199097;0.00199434;0.000212826;0.000890756;-0.108586;-9.2093;0.0012646;0.00118768;-9.37075;-0.106715;54.8904;99.8904;0.00536164;0.000213129;-0.00232605;0.00247652;0.00198828;0.001192;0.010648;0;0.0150834;0.00846364;-0.2966;-0.469486;0.555392;-7.0522;-4.65125e-05;-2.21849e-05;0.00100779;0.00100825;-4.69791e-05;0.000527616;0.0461532;21.667;0.000688362;0.000703487;21.4617;0.0465946;134.578;179.578;-0.0138971;-8.904e-05;0.00918758;-0.00922225;0.000965621;0.0127356;0.0218991;0;0.0261791;2.09924;1.32945
168000;169;26.3165;0.0258967;0.000985015;-2.05655;26.2177;-0.980328;-0.0516835;0.0105885;-0.377251;0.060906;-0.291409;-0.103957;0.315335;-5.96833;0.000413647;-0.000104631;0.00187368;0.00188114;0.000406187;0.000737477;-0.220767;-4.52966;0.00114301;0.000983302;-4.63122;-0.215926;62.4897;107.49;0.00525432;0.000411314;-0.00237579;0.00216322;0.00187087;0.000951604;0.0102721;0;0.0150494;0.00783688;-0.30142;-0.466958;0.555846;-7.04967;5.49128e-05;-0.000311536;0.000852995;0.000960203;-5.22952e-05;0.000506249;-0.0643765;-15.5336;0.00065826;0.000674999;18.3612;0.0544626;152.462;17.462;-0.012906;8.59585e-06;0.00901424;-0.00962985;0.000812449;0.00909699;0.0175979;0;0.0270781;2.15449;1.33497
169000;170;26.3165;0.0258969;0.000985023;-2.0556;26.2179;-0.976578;-0.0507325;0.0108032;-0.3735;0.0619038;-0.294337;-0.101666;0.317494;-5.96604;0.00040016;-0.000256808;0.00195272;0.00199409;0.000358784;0.000817655;-0.204925;-4.87984;0.00122741;0.00109021;-5.55792;-0.179923;68.3462;113.346;0.00509078;0.00039834;-0.00244241;0.00192541;0.00194977;0.0015695;0.0100869;0;0.0170207;0.00922781;-0.305995;-0.464132;0.556001;-7.04685;0.000131089;-0.000393482;0.00109735;0.00123731;-8.87215e-06;0.00062309;-0.11946;-8.371;0.000827845;0.000830787;;;152.625;17.6247;-0.0146068;8.05604e-05;0.00928337;-0.010061;0.00105438;0.0145201;0.0223466;0;0.0287541;2.22576;1.34267
170000;171;26.3143;0.0236881;0.000901008;-2.05644;26.2156;-0.978465;-0.051572;0.00844993;-0.375388;0.0616969;-0.297057;-0.100743;0.319685;-5.96512;0.000365133;-3.30635e-05;0.00173542;0.00173622;0.000364336;0.000685941;-0.2104;-4.75284;0.00105717;0.000914588;-4.76543;-0.209844;59.4064;104.406;0.0053054;0.000362885;-0.00219016;0.00212108;0.00173303;0.00169562;0.0108424;0;0.0156287;0.00850879;-0.306743;-0.468561;0.560101;-7.05127;5.36531e-05;-0.000350022;0.00118074;0.00128059;-4.62018e-05;0.000663396;-0.0454404;-22.0068;0.000869537;0.000884528;27.7174;0.0360785;148.94;13.9404;-0.0135566;4.54072e-06;0.00922794;-0.00991717;0.00113827;0.0106672;0.0182443;0;0.0397532;2.29852;1.34965
171000;172;26.3169;0.0262865;0.000999843;-2.05501;26.2179;-0.98813;-0.0501443;0.0108076;-0.385053;0.0620513;-0.297382;-0.107155;0.322132;-5.97153;0.000399175;-0.000430317;0.0016658;0.00179816;0.000266813;0.000765676;-0.239629;-4.17311;0.00112048;0.0010209;-6.73942;-0.148381;75.4996;120.5;0.00493841;0.000397959;-0.00248148;0.00161826;0.00166282;0.00224177;0.0117536;0;0.0172431;0.00863196;-0.311473;-0.474895;0.567992;-7.05761;-7.02701e-05;-0.000434261;0.0011374;0.00127734;-0.000210209;0.000743773;0.0617814;16.1861;0.000929584;0.000991697;6.07652;0.164568;151.172;16.1718;-0.0155121;-0.000123164;0.00943742;-0.010294;0.00109301;0.0159973;0.0205041;0;0.0255237;2.37616;1.35735
172000;173;26.3189;0.028294;0.0010762;-2.05513;26.2201;-0.984394;-0.050267;0.0129536;-0.381316;0.0625053;-0.300013;-0.107903;0.324897;-5.97228;0.000332845;-0.000415932;0.00128457;0.00144072;0.000176691;0.000632015;-0.259111;-3.85935;0.000907337;0.000842687;-8.1539;-0.122641;76.615;121.615;0.00493122;0.000331678;-0.00241758;0.00158381;0.00128173;0.00144871;0.0111162;0;0.016363;0.00861487;-0.315212;-0.474874;0.570034;-7.05759;-2.9303e-05;-0.000283111;0.00130346;0.00136111;-8.69493e-05;0.000724028;0.0224809;44.4822;0.000937732;0.00096537;15.654;0.0638814;144.502;9.50243;-0.0153319;-7.96861e-05;0.00948877;-0.010042;0.00125854;0.0158872;0.0195981;0;0.0264283;2.43332;1.36443
173000;174;26.3213;0.0306634;0.00116632;-2.05498;26.2224;-0.985911;-0.05012;0.0152864;-0.382834;0.0625753;-0.302276;-0.107478;0.326861;-5.97185;0.000460792;-0.000425218;0.0015513;0.0016975;0.000314589;0.000691458;-0.297035;-3.3666;0.00104275;0.000921943;-5.39594;-0.185325;77.7941;122.794;0.00491155;0.000459757;-0.00235292;0.00150039;0.00154863;0.00151921;0.0116044;0;0.0196757;0.00867501;-0.318917;-0.476858;0.573739;-7.05957;-0.000108011;-0.000130187;0.00143828;0.00144917;-0.000118896;0.000784031;0.0750975;13.316;0.00100808;0.00104537;12.1886;0.0820441;137.622;2.62153;-0.0153467;-0.000153417;0.00928396;-0.00952979;0.00139526;0.0166816;0.0196584;0;0.0356968;2.51399;1.37249
174000;175;26.3237;0.0330883;0.00125856;-2.05584;26.2247;-0.987784;-0.050981;0.0175826;-0.384706;0.0634546;-0.304165;-0.113261;0.330713;-5.97764;0.00042119;-0.000460062;0.00108455;0.00132003;0.000185712;0.000567159;-0.388354;-2.57497;0.000825112;0.000756212;-7.10795;-0.140688;82.8414;127.841;0.00487923;0.000420231;-0.00238079;0.00145939;0.00108183;0.000770636;0.0111204;0;0.022675;0.00922384;-0.322385;-0.483213;0.580958;-7.06593;-0.000253826;0.000172518;0.00136476;0.00138294;-0.00027201;0.000827475;0.185986;5.37674;0.00102474;0.0011033;5.08416;0.196689;127.139;172.139;-0.0151371;-0.000295303;0.00946835;-0.0091083;0.00132001;0.0170343;0.0191376;0;0.0317986;2.58209;1.3794
175000;176;26.3258;0.0351361;0.00133645;-2.05458;26.2267;-0.992544;-0.0497204;0.0195571;-0.389467;0.0636346;-0.307374;-0.111199;0.333007;-5.97557;0.000497156;-0.000463262;0.00124016;0.00146248;0.000274836;0.000593822;-0.400881;-2.4945;0.000897512;0.000791762;-5.32129;-0.187924;82.9687;127.969;0.00427256;0.000496237;-0.00236121;0.00143328;0.00123748;0.00112547;0.0102256;0;0.0149027;0.00961811;-0.326761;-0.482107;0.582488;-7.06482;-0.000303747;0.000382097;0.00150586;0.00158323;-0.000381119;0.000982175;0.20171;4.95761;0.00120282;0.00130957;4.15417;0.240722;121.535;166.535;-0.0147449;-0.000341746;0.00950526;-0.00872462;0.00146082;0.0164511;0.0187469;0;0.0295589;2.65252;1.38693
176000;177;26.3265;0.0359278;0.00136656;-2.05484;26.2273;-0.996179;-0.0499788;0.0201938;-0.393102;0.0640085;-0.310379;-0.11156;0.335973;-5.97593;0.000502677;-0.000403581;0.00104554;0.00126048;0.000287742;0.000486367;-0.480782;-2.07994;0.000762715;0.000648489;-4.38057;-0.228281;84.9029;129.903;0.00470804;0.000501832;-0.00217002;0.0013619;0.00104327;0.000413722;0.0105858;0;0.0201112;0.00970216;-0.330721;-0.484777;0.586923;-7.06749;-0.000508862;0.000543036;0.00154674;0.00168138;-0.000643499;0.00116244;0.328989;3.03962;0.00138614;0.00154992;2.61287;0.38272;119.276;164.276;-0.0144714;-0.000543437;0.00943554;-0.00833126;0.00150244;0.0169687;0.0190437;0;0.0360462;2.72987;1.39396
177000;178;26.3269;0.0363182;0.00138141;-2.05572;26.2275;-1.00001;-0.0508561;0.0203713;-0.396929;0.0647592;-0.312146;-0.112471;0.338051;-5.97685;0.000453531;-0.000336064;0.00119335;0.00132321;0.000323669;0.000499772;-0.380048;-2.63125;0.000796485;0.000666363;-4.08817;-0.244608;78.3181;123.318;0.00474024;0.000452485;-0.00215875;0.00148527;0.00119108;-9.42905e-05;0.0110647;0;0.0158625;0.0101109;-0.333142;-0.485902;0.589225;-7.06862;-0.000548548;0.000615238;0.00153675;0.00170474;-0.000716533;0.00121064;0.356952;2.80149;0.00143621;0.00161418;2.37915;0.420318;117.999;162.999;-0.0148992;-0.000582012;0.00945051;-0.00820168;0.00149236;0.0167338;0.0185004;0;0.0325403;2.79544;1.3984
178000;179;26.3303;0.039724;0.00151096;-2.05588;26.231;-0.997774;-0.0510139;0.0238626;-0.394697;0.0654215;-0.313334;-0.115389;0.340254;-5.97976;0.000402046;-0.000367433;0.000842209;0.00105043;0.000193825;0.000428302;-0.47737;-2.09481;0.000645453;0.00057107;-5.41947;-0.18452;83.5214;128.521;0.00463256;0.0004009;-0.00229367;0.00155796;0.000839648;-0.000151088;0.0107393;0;0.0159449;0.0106098;-0.335352;-0.490754;0.594485;-7.07347;-0.000588359;0.000545239;0.00165094;0.00177664;-0.000714061;0.00124535;0.356378;2.80601;0.00148099;0.00166047;2.48809;0.401915;120.176;165.176;-0.0144241;-0.000622784;0.00942319;-0.00831291;0.00160677;0.0165082;0.01884;0;0.0324672;2.86887;1.40366
179000;180;26.3296;0.038963;0.00148201;-2.05595;26.23;-1.00287;-0.0510889;0.0228984;-0.399796;0.0646999;-0.315542;-0.115342;0.342135;-5.97972;0.000380628;-0.000331353;0.00124416;0.00135665;0.000268136;0.000544256;-0.305933;-3.26869;0.000829625;0.000725675;-5.05956;-0.197646;74.9833;119.983;0.00452781;0.000379341;-0.00230343;0.00163902;0.00124156;0.000591952;0.00986573;0;0.0140398;0.00995734;-0.337877;-0.491899;0.596846;-7.07461;-0.000631688;0.00050234;0.00154638;0.00165666;-0.000741962;0.00119931;0.408494;2.44802;0.00141801;0.00159908;2.23281;0.447867;121.033;166.033;-0.0146083;-0.000667496;0.00949907;-0.00847487;0.00150146;0.0161821;0.0188797;0;0.0336796;2.94352;1.40918
180000;181;26.3293;0.0386693;0.00147084;-2.05594;26.2295;-1.0094;-0.0510803;0.0223538;-0.406323;0.0651999;-0.317537;-0.117848;0.344918;-5.98222;0.000273117;-0.000317818;0.00120785;0.00130567;0.000175293;0.000565189;-0.226119;-4.42246;0.000818298;0.000753585;-7.44849;-0.134255;72.2529;117.253;0.00453053;0.000271738;-0.00232863;0.00169112;0.00120519;0.000279145;0.0103322;0;0.0152801;0.00999916;-0.340794;-0.495556;0.601512;-7.07827;-0.000540837;0.000432975;0.00155936;0.00164512;-0.000626597;0.00113586;0.346833;2.88323;0.0013548;0.00151448;2.62548;0.380883;122.061;167.061;-0.014529;-0.000578066;0.00952236;-0.00863739;0.00151418;0.0148766;0.0211714;0;0.0291966;3.01094;1.41651
181000;182;26.3316;0.0409496;0.00155757;-2.05675;26.232;-1.00153;-0.0518836;0.0248815;-0.398452;0.0660834;-0.321128;-0.116889;0.348071;-5.98126;0.000236173;6.63732e-05;0.00182476;0.00182753;0.000233405;0.000797061;-0.129427;-7.72635;0.00114848;0.00106275;-7.82985;-0.127716;55.1792;100.179;0.00503202;0.000233603;-0.00213911;0.00226835;0.00182248;-0.000236318;0.0106601;0;0.0174503;0.0108102;-0.344908;-0.49579;0.604058;-7.0785;-0.000477133;0.000255776;0.00155868;0.00159032;-0.000508776;0.00104955;0.306114;3.26676;0.0012644;0.0013994;3.12578;0.31992;126.169;171.169;-0.014257;-0.000518985;0.009681;-0.00915032;0.00151192;0.0145561;0.0225071;0;0.0284233;3.08417;1.42404
182000;183;26.3328;0.0421906;0.00160478;-2.05777;26.2332;-1.00067;-0.0529032;0.0260801;-0.397592;0.0657546;-0.322412;-0.119459;0.350063;-5.98383;0.00014986;-0.000150927;0.00167709;0.00169186;0.000135088;0.000778388;-0.0893572;-11.191;0.00108568;0.00103785;-12.5242;-0.0798456;61.7738;106.774;0.00488253;0.000147719;-0.00238053;0.00207527;0.00167427;-0.000174901;0.00988398;0;0.0139092;0.0103546;-0.347185;-0.499945;0.608761;-7.08266;-0.000393841;0.000126789;0.0016311;0.00163901;-0.000401749;0.00102038;0.241457;4.14153;0.00124833;0.00136051;4.07969;0.245117;129.45;174.45;-0.0150383;-0.00043864;0.00973754;-0.00946455;0.00158378;0.0149805;0.0214071;0;0.0271027;3.16624;1.43134
183000;184;26.3317;0.0410831;0.00156265;-2.05845;26.2319;-1.00473;-0.0535817;0.0247601;-0.401649;0.0664032;-0.324852;-0.120715;0.35286;-5.98509;4.77593e-05;0.00013351;0.00223629;0.00224441;3.96448e-05;0.00110238;-0.0213565;-46.8242;0.00148323;0.00146984;-56.6129;-0.0176638;54.1494;99.1494;0.00501471;4.44896e-05;-0.00229907;0.00256077;0.00223367;0.000369763;0.00956656;0;0.0153248;0.0108946;-0.350913;-0.501421;0.612112;-7.08413;-0.00039082;-3.6041e-06;0.00158699;0.00158699;-0.000390826;0.00098891;0.246265;4.06066;0.00120951;0.00131855;4.06061;0.246268;133.256;178.256;-0.0157238;-0.00044119;0.0100475;-0.0100349;0.00153659;0.0146658;0.0242367;0;0.0256512;3.23843;1.44031
184000;185;26.3317;0.0411191;0.00156402;-2.05774;26.232;-1.00526;-0.0528739;0.0248314;-0.402183;0.0663611;-0.32673;-0.123057;0.355386;-5.98743;4.11126e-05;0.000195832;0.00206419;0.00208297;2.23306e-05;0.00103032;-0.0199171;-50.2081;0.00138126;0.00137376;-93.2786;-0.0107206;51.1412;96.1412;0.00533896;3.76092e-05;-0.00226766;0.00265435;0.00206164;-0.000916735;0.0109148;0;0.0135483;0.0105627;-0.354141;-0.505024;0.616909;-7.08774;-0.000379564;-0.000204144;0.00175786;0.00177718;-0.000398887;0.00108804;0.215924;4.63126;0.00133772;0.00145071;4.45535;0.224449;138.354;3.35357;-0.0141603;-0.000435136;0.0101562;-0.0105423;0.0017064;0.0115684;0.020129;0;0.027483;3.31437;1.44764
185000;186;26.3344;0.0437732;0.00166498;-2.05887;26.2349;-0.996535;-0.0540031;0.0277399;-0.393457;0.0661606;-0.328158;-0.128062;0.35842;-5.99244;3.02783e-06;0.000118523;0.00259964;0.00260504;-2.37092e-06;0.00130371;;;0.00173748;0.00173827;;;56.1343;101.134;0.00496722;-4.13175e-07;-0.0023955;0.00262604;0.00259679;0.000383716;0.0102387;0;0.0147249;0.0102175;-0.357233;-0.511087;0.623642;-7.0938;-0.000422813;-0.000379161;0.00187501;0.00193596;-0.000483762;0.00120986;0.2255;4.4346;0.00147851;0.00161315;4.00188;0.249883;141.964;6.9643;-0.0153807;-0.000479469;0.00991446;-0.0106491;0.00182602;0.017165;0.0207812;0;0.0282485;3.38796;1.45442
186000;187;26.3336;0.0429617;0.00163411;-2.05885;26.2339;-1.00119;-0.0539913;0.0267489;-0.398113;0.066116;-0.334089;-0.124119;0.362481;-5.98849;9.77328e-05;0.000350529;0.00272211;0.00276812;5.17206e-05;0.0013582;-0.0359033;-27.8526;0.00182842;0.00181093;-53.5207;-0.0186844;51.6805;96.6805;0.00552554;9.33729e-05;-0.00227961;0.00297378;0.00271958;0.000191279;0.0115845;0;0.0333433;0.0103686;-0.363705;-0.508278;0.625089;-7.09099;-0.000461824;-0.000223668;0.00200922;0.0020293;-0.000481906;0.0012556;0.229853;4.35061;0.00153886;0.00167414;4.21098;0.237474;137.835;2.8346;-0.01643;-0.00051707;0.0100895;-0.0105113;0.00195844;0.0186549;0.0201288;0;0.0418566;3.46363;1.46201
187000;188;26.3367;0.0460696;0.00175232;-2.05959;26.2372;-0.993179;-0.0547283;0.0301153;-0.390101;0.0664093;-0.335321;-0.126694;0.364557;-5.99107;-5.71363e-05;0.000215637;0.00283225;0.00284825;-7.31408e-05;0.0014607;0.0201735;49.57;0.00192368;0.0019476;38.942;0.0256792;54.7842;99.7842;0.00544028;-6.11041e-05;-0.00240143;0.00282516;0.0028294;-6.55054e-05;0.0107905;0;0.0191273;0.010463;-0.366686;-0.511771;0.629664;-7.09448;-0.000424284;-0.000250222;0.00201376;0.00203918;-0.0004497;0.00124444;0.210692;4.74627;0.00153152;0.00165925;4.53454;0.22053;138.438;3.43824;-0.0162135;-0.000479416;0.0100259;-0.0105013;0.00196364;0.0182588;0.019575;0;0.0308834;3.53137;1.46797
188000;189;26.3392;0.0485527;0.00184677;-2.06025;26.2397;-0.992371;-0.0553836;0.0325869;-0.389294;0.0673875;-0.339364;-0.126209;0.36829;-5.99058;-0.000122342;2.60993e-05;0.00277934;0.00277957;-0.000122576;0.00145107;0.0440183;22.7178;0.00189523;0.00193477;22.6763;0.044099;58.3186;103.319;0.00556843;-0.000125633;-0.00252099;0.00256582;0.00277617;0.000592682;0.0116021;0;0.0192847;0.0116519;-0.370783;-0.513788;0.633714;-7.0965;-0.000523228;-7.48863e-05;0.00196868;0.00197093;-0.000525476;0.0012482;0.265775;3.76258;0.0015197;0.00166427;3.75076;0.266613;134.492;179.492;-0.0159329;-0.000573012;0.00985088;-0.00997596;0.00192026;0.018796;0.0180143;0;0.0336072;3.60765;1.47439
189000;190;26.3424;0.0517418;0.00196807;-2.06083;26.2428;-0.993886;-0.055966;0.035685;-0.390809;0.0672427;-0.342042;-0.129407;0.371834;-5.99378;-8.26609e-05;-0.00012934;0.002884;0.00288963;-8.82892e-05;0.00148896;0.0286619;34.8896;0.00195651;0.00198528;32.7292;0.0305538;62.2724;107.272;0.00470076;-8.54031e-05;-0.00261136;0.00234534;0.00288061;0.00295835;0.0107834;0;0.017568;0.0108455;-0.375372;-0.515218;0.637551;-7.09793;-0.000586902;0.000134809;0.00205863;0.00206548;-0.000593753;0.00132962;0.285093;3.50763;0.00161178;0.00177282;3.47869;0.287464;129.749;174.749;-0.0156673;-0.000631064;0.00969103;-0.0093962;0.00201178;0.0183107;0.0200713;0;0.028643;3.68983;1.47841
190000;191;26.3426;0.0520249;0.00197884;-2.0598;26.243;-0.997135;-0.0549317;0.0359271;-0.394058;0.0660498;-0.34459;-0.126865;0.373095;-5.99124;-2.46628e-05;6.22484e-05;0.00294114;0.00294244;-2.59687e-05;0.00148421;0.00838545;119.254;0.00197034;0.00197894;113.307;0.00882556;59.3089;104.309;0.0055772;-2.77658e-05;-0.00237465;0.00249194;0.00293833;0.000999745;0.0117633;0;0.015664;0.00985831;-0.378172;-0.514841;0.638884;-7.09755;-0.000752061;0.000317046;0.0021436;0.0021779;-0.000786368;0.00148214;0.350841;2.8503;0.00177317;0.00197618;2.76957;0.361066;126.584;171.584;-0.0154;-0.000793697;0.00978883;-0.00912739;0.00209584;0.0193332;0.0180663;0;0.0290322;3.75091;1.48388
191000;192;26.3437;0.0530801;0.00201897;-2.05911;26.2439;-1.00344;-0.0542484;0.0367997;-0.400361;0.0668512;-0.347089;-0.130535;0.376801;-5.99491;4.14013e-06;-0.000109447;0.00223341;0.00223877;-1.2203e-06;0.00112;;;0.00149292;0.00149333;;;60.512;105.512;0.00535053;1.61295e-06;-0.00247501;0.00225086;0.00223036;0.00154991;0.0111813;0;0.0168767;0.0114329;-0.381432;-0.521361;0.646095;-7.10407;-0.000985984;0.000550971;0.00206019;0.00215678;-0.00108258;0.00161968;0.478589;2.08948;0.00190421;0.00215957;1.99227;0.501941;123.289;168.289;-0.016005;-0.00102503;0.00998073;-0.00885017;0.00201063;0.0203787;0.0181211;0;0.0301082;3.83693;1.49152
192000;193;26.3445;0.0538577;0.00204855;-2.05893;26.2447;-1.00479;-0.0540655;0.0375431;-0.401709;0.0679916;-0.349729;-0.131757;0.379859;-5.99613;2.55971e-05;-0.000216363;0.0022031;0.00222439;4.30685e-06;0.00111004;-0.0116186;-86.0686;0.0014815;0.00148006;;;63.2645;108.264;0.0051545;2.33132e-05;-0.00258606;0.00214819;0.00219979;0.00219392;0.0111408;0;0.024872;0.0117712;-0.384857;-0.521277;0.648061;-7.10399;-0.00108819;0.000592376;0.00212256;0.00222837;-0.00119399;0.00171118;0.512676;1.95055;0.00200576;0.00228157;1.86632;0.535815;123.19;168.19;-0.0154588;-0.00112827;0.0101838;-0.00896833;0.00207099;0.0199935;0.0176705;0;0.0333183;3.90577;1.49769
193000;194;26.3443;0.0536556;0.00204086;-2.05868;26.2442;-1.01134;-0.0538156;0.0371082;-0.408258;0.0675621;-0.351924;-0.128355;0.380644;-5.99273;-2.00635e-05;-0.000416391;0.00196526;0.00204905;-0.000103859;0.00107645;0.0102091;97.9516;0.00140194;0.00143527;19.7292;0.0506863;68.3243;113.324;0.00490416;-2.15694e-05;-0.0026218;0.00178465;0.00196191;0.00261363;0.012177;0;0.0138079;0.0110836;-0.387387;-0.520333;0.648797;-7.10305;-0.00105012;0.000643857;0.00222179;0.00234393;-0.00117226;0.0017581;0.472644;2.11576;0.0020673;0.00234413;1.9995;0.500124;122.348;167.348;-0.0154379;-0.00108855;0.0101052;-0.0087867;0.00217105;0.019414;0.0196266;0;0.0314223;3.97812;1.50531
194000;195;26.3439;0.0533116;0.00202778;-2.05683;26.2437;-1.02037;-0.0519646;0.0365583;-0.417294;0.0676058;-0.354739;-0.13182;0.38443;-5.99619;1.31871e-05;-0.000483573;0.00197428;0.00208704;-9.95706e-05;0.00109331;-0.00667943;-149.713;0.00142571;0.00145774;20.9604;0.047709;71.1544;116.154;0.00458253;1.20982e-05;-0.00252409;0.00155295;0.00197122;0.00270962;0.0124139;0;0.0209133;0.0112845;-0.390678;-0.525712;0.65508;-7.10843;-0.00112835;0.000525615;0.00226897;0.00234843;-0.00120781;0.00177812;0.497295;2.01088;0.0020881;0.00237083;1.94437;0.514305;124.575;169.575;-0.0155244;-0.00116984;0.0102036;-0.00911961;0.00221717;0.0187843;0.021453;0;0.0310098;4.06084;1.51242
195000;196;26.3442;0.0535521;0.00203693;-2.05637;26.244;-1.02046;-0.0515106;0.0368317;-0.417385;0.068544;-0.357593;-0.129262;0.386368;-5.99364;-5.42309e-06;-0.000399873;0.00153899;0.00163638;-0.000102815;0.000869598;;;0.00112676;0.00115946;15.9158;0.0628308;69.0631;114.063;0.00468989;-6.67073e-06;-0.00243235;0.00162947;0.00153611;0.00280126;0.012828;0;0.0134693;0.0121526;-0.394121;-0.523763;0.655596;-7.10648;-0.00105146;0.000483528;0.00226356;0.00233265;-0.00112055;0.0017266;0.464518;2.15277;0.00203423;0.00230213;2.0817;0.480377;124.968;169.968;-0.0153315;-0.00109518;0.010358;-0.00935835;0.00221015;0.0187114;0.0210302;0;0.0286221;4.13316;1.52007
196000;197;26.3454;0.0548266;0.00208541;-2.05806;26.2452;-1.01696;-0.0531939;0.0381153;-0.413878;0.0676356;-0.359303;-0.134533;0.38958;-5.99891;6.39565e-06;-0.000582534;0.0012927;0.0015173;-0.000218202;0.000867752;;;0.00109156;0.001157;6.95365;0.143809;75.6864;120.686;0.00462978;5.73674e-06;-0.00245479;0.00128731;0.00128987;0.00188465;0.0124935;0;0.0148984;0.0108347;-0.397003;-0.527819;0.660547;-7.11053;-0.000965914;0.000339583;0.0021625;0.00219894;-0.00100235;0.00160064;0.446665;2.23881;0.00189081;0.00213419;2.19378;0.455834;127.005;172.005;-0.0152212;-0.00101148;0.0102573;-0.00954722;0.00211007;0.0168093;0.0213077;0;0.0291149;4.2074;1.5269
197000;198;26.3454;0.0548007;0.00208442;-2.05625;26.2452;-1.02208;-0.0513915;0.0380314;-0.419004;0.0671221;-0.361492;-0.133131;0.391032;-5.99751;3.70858e-05;-0.000459882;0.00150624;0.00163832;-9.49943e-05;0.000866658;-0.0246214;-40.615;0.00112522;0.00115554;17.2465;0.0579827;71.9491;116.949;0.00471466;3.61122e-05;-0.00239189;0.00146929;0.00150349;0.00115711;0.0115067;0;0.0177149;0.010702;-0.399983;-0.530535;0.664506;-7.11325;-0.00102311;0.000161237;0.00222343;0.00223142;-0.0010311;0.00163126;0.460149;2.17321;0.00192564;0.00217501;2.16412;0.462081;130.347;175.347;-0.0160436;-0.00107426;0.0104659;-0.01011;0.0021688;0.0194267;0.022148;0;0.0269059;4.28519;1.53453
198000;199;26.3456;0.055012;0.00209246;-2.05657;26.2452;-1.02537;-0.0517095;0.0380903;-0.422294;0.06703;-0.361568;-0.138529;0.392956;-6.0029;0.000136853;-0.000438472;0.0015828;0.00170538;1.42807e-05;0.000845548;-0.0864624;-11.5657;0.00113219;0.0011274;-119.418;-0.00837395;72.9153;117.915;0.00470532;0.000135906;-0.00232382;0.00144416;0.0015802;0.00172477;0.0115372;0;0.0135744;0.0105071;-0.401657;-0.537227;0.670858;-7.11994;-0.00101712;9.44603e-05;0.0022061;0.00220886;-0.00101988;0.00161437;0.461047;2.16898;0.00190578;0.0021525;2.1658;0.461722;131.589;176.589;-0.0160653;-0.00107398;0.0108829;-0.0106592;0.00214701;0.0180355;0.0239238;0;0.0280806;4.35362;1.54107
199000;200;26.3458;0.0552197;0.00210036;-2.05617;26.2454;-1.02619;-0.0513098;0.0382982;-0.423111;0.0674397;-0.364607;-0.136786;0.395217;-6.00116;0.000135674;-0.000425486;0.00133562;0.00147118;1.15683e-07;0.000735531;-0.101581;-9.84433;0.000980747;0.000980708;;;72.8978;117.898;0.00491579;0.000134559;-0.00240595;0.0015526;0.00133282;0.00105766;0.0127772;0;0.0178636;0.0105518;-0.405814;-0.536664;0.672908;-7.11938;-0.000985264;-0.000177809;0.00240622;0.00241551;-0.000994561;0.00170504;0.409466;2.44221;0.00202498;0.00227338;2.42872;0.411739;135.951;0.950982;-0.0152263;-0.00104503;0.0106098;-0.0109289;0.00235008;0.0136158;0.0187333;0;0.0253975;4.43623;1.54915
200000;201;26.3463;0.0556952;0.00211844;-2.05589;26.2461;-1.02173;-0.051027;0.0389716;-0.418652;0.0683856;-0.368225;-0.135265;0.3982;-5.99964;7.42222e-06;-0.000493309;0.00136513;0.00152544;-0.000152888;0.000839164;;;0.00107156;0.00111889;9.97753;0.100225;72.6212;117.621;0.00475336;6.45038e-06;-0.00246816;0.00147887;0.00136221;0.000826265;0.0119165;0;0.0176709;0.0114371;-0.410526;-0.537353;0.676322;-7.12007;-0.00107298;-0.000251309;0.00249468;0.0025123;-0.0010906;0.00180145;0.430108;2.325;0.00213343;0.00240193;2.3036;0.434103;136.998;1.99798;-0.0154715;-0.00113575;0.010737;-0.0112005;0.00243722;0.0165159;0.015428;0;0.0259244;4.51156;1.55153
201000;202;26.3484;0.0578127;0.00219899;-2.05582;26.2483;-1.02059;-0.0509614;0.0411466;-0.417517;0.0686243;-0.368864;-0.136823;0.399363;-6.0012;-0.000123931;-0.000549583;0.00152203;0.00168867;-0.000290566;0.000989616;0.0814249;12.2812;0.00123409;0.00131949;5.81165;0.172068;71.7063;116.706;0.00446067;-0.000124775;-0.00251269;0.0014103;0.00151903;0.00132779;0.0119543;0;0.0231583;0.0118784;-0.412871;-0.541039;0.68068;-7.12375;-0.00100227;-0.000297755;0.0025892;0.00261372;-0.00102679;0.00182026;0.387097;2.58333;0.00216739;0.00242701;2.54552;0.392846;137.488;2.48759;-0.0168866;-0.00106598;0.0107298;-0.0112858;0.00253183;0.0189815;0.0188438;0;0.0249295;4.59176;1.55698
202000;203;26.349;0.0584296;0.00222245;-2.05592;26.2488;-1.02287;-0.0510566;0.0416699;-0.419788;0.0680535;-0.371053;-0.137506;0.401522;-6.00188;-6.04702e-05;-0.000243561;0.00160447;0.00163937;-9.53689e-05;0.000867369;0.0376886;26.5332;0.00112605;0.00115649;17.1898;0.0581742;63.5746;108.575;0.00465302;-6.20421e-05;-0.0022802;0.00178969;0.0016019;8.5975e-05;0.0119198;0;0.016167;0.011239;-0.417043;-0.541634;0.68368;-7.12435;-0.00105618;-0.000244798;0.00277535;0.00279092;-0.00107176;0.00193134;0.38056;2.62771;0.00230257;0.00257512;2.60405;0.384017;136.213;1.21291;-0.0170265;-0.00111714;0.0105901;-0.0110383;0.00271945;0.0188846;0.0193302;0;0.0278938;4.65655;1.56356
203000;204;26.3516;0.0610061;0.00232045;-2.05544;26.2512;-1.02781;-0.0505796;0.0441005;-0.424731;0.069121;-0.372533;-0.1404;0.404068;-6.00477;-0.000109926;-0.000158247;0.00177878;0.00179195;-0.000123093;0.000957521;0.0617982;16.1817;0.00123771;0.00127669;14.5577;0.0686921;60.5342;105.534;0.00465725;-0.000111833;-0.00228;0.00195951;0.0017762;0.000878761;0.0122661;0;0.0178275;0.0123119;-0.420394;-0.546597;0.689675;-7.12931;-0.00129557;-9.09159e-05;0.00258925;0.00259138;-0.00129769;0.00194454;0.500364;1.99854;0.00228639;0.00259271;1.99691;0.500774;134.474;179.474;-0.0172691;-0.00135497;0.0107529;-0.0108927;0.00253159;0.0213767;0.0156829;0;0.0290111;4.73985;1.57008
204000;205;26.3558;0.0652197;0.00248072;-2.05661;26.2555;-1.02465;-0.0517452;0.0483625;-0.421572;0.0702156;-0.376475;-0.135088;0.406094;-5.99946;-0.000217481;-8.26877e-05;0.00191544;0.00191864;-0.000220682;0.00106966;0.113541;8.80737;0.00135864;0.00142621;8.69413;0.11502;57.5015;102.501;0.00464182;-0.000219868;-0.00235623;0.00218602;0.00191267;0.00159916;0.0111953;0;0.0167409;0.0132858;-0.425174;-0.543523;0.690193;-7.12624;-0.00121948;5.85547e-05;0.00263876;0.00263965;-0.00122036;0.00193001;0.46214;2.16385;0.00227824;0.00257334;2.163;0.462321;132.028;177.028;-0.0166996;-0.0012727;0.0104685;-0.0103113;0.00258411;0.0208732;0.0163188;0;0.0329759;4.80789;1.5784
205000;206;26.3551;0.0644927;0.00245307;-2.05624;26.2543;-1.0359;-0.0513787;0.0472199;-0.432823;0.0701068;-0.379634;-0.132026;0.408004;-5.9964;-0.000203473;3.32003e-05;0.00184658;0.00184712;-0.00020401;0.00102557;0.110189;9.07533;0.00130475;0.00136742;9.05406;0.110448;53.7845;98.7845;0.00506983;-0.000206282;-0.00230865;0.00237026;0.00184392;0.000500742;0.0119699;0;0.0235688;0.0131059;-0.429384;-0.543339;0.692647;-7.12605;-0.00137544;0.000289909;0.00274507;0.00276537;-0.00139574;0.00208055;0.501058;1.99578;0.00244541;0.00277407;1.9813;0.50472;128.957;173.957;-0.0164122;-0.00142607;0.010682;-0.0100595;0.00268822;0.0204921;0.0165232;0;0.0353835;4.89336;1.58481
206000;207;26.3584;0.0678227;0.00257973;-2.05857;26.2577;-1.03133;-0.0537065;0.0505601;-0.428254;0.0701939;-0.381303;-0.136626;0.411079;-6.001;-0.000338009;0.000172367;0.00257696;0.00258712;-0.000348166;0.00146764;0.131166;7.62394;0.00185174;0.00195685;7.4307;0.134577;54.2169;99.2169;0.00516478;-0.000341269;-0.00222117;0.00255895;0.00257451;-4.31683e-05;0.0112523;0;0.0128321;0.0135759;-0.432125;-0.548942;0.698752;-7.13166;-0.00151881;0.000588092;0.002815;0.00289338;-0.0015972;0.00224529;0.539543;1.85342;0.00262839;0.00299372;1.81154;0.552018;125.443;170.443;-0.0166492;-0.00156467;0.0108072;-0.00958691;0.00275694;0.021803;0.0173879;0;0.0295419;4.96095;1.59238
207000;208;26.3609;0.0702669;0.0026727;-2.05785;26.2601;-1.03278;-0.0529857;0.0530133;-0.429699;0.0702563;-0.383581;-0.134392;0.41247;-5.99877;-0.000358594;0.00029396;0.0023139;0.00234585;-0.000390546;0.0013682;0.154974;6.45269;0.00170902;0.00182427;6.00659;0.166484;49.3932;94.3932;0.0049191;-0.000362537;-0.00224158;0.00282274;0.00231144;0.00130629;0.0132861;0;0.0134354;0.0135685;-0.435202;-0.548797;0.700545;-7.13151;-0.00155126;0.000646388;0.0028906;0.00298275;-0.00164341;0.00231308;0.536656;1.86339;0.00270797;0.00308411;1.81498;0.550971;124.841;169.841;-0.0166965;-0.00159543;0.0107512;-0.00941377;0.00283318;0.0222715;0.0174544;0;0.0316622;5.04493;1.60028
208000;209;26.3608;0.0702177;0.00267083;-2.05905;26.2597;-1.03946;-0.0541895;0.0526058;-0.436386;0.0706065;-0.385471;-0.13819;0.415535;-6.00256;-0.000420458;0.000401471;0.00271995;0.00277046;-0.00047097;0.00162072;0.154583;6.46901;0.00202233;0.00216095;5.88245;0.169997;49.6025;94.6025;0.00563025;-0.000425021;-0.00225206;0.00304669;0.0027175;0.000169717;0.0125037;0;0.0227158;0.0138525;-0.437206;-0.554892;0.706573;-7.13761;-0.00149354;0.000746284;0.00286517;0.0029894;-0.00161777;0.00230359;0.521273;1.91838;0.00269896;0.00307145;1.84785;0.541168;123.413;168.413;-0.0157719;-0.00153445;0.010605;-0.00906969;0.00280937;0.0199812;0.0179748;0;0.0399465;5.10723;1.60797
209000;210;26.3619;0.0712541;0.00271025;-2.05937;26.2607;-1.04019;-0.054511;0.0535923;-0.437109;0.0712224;-0.387664;-0.140571;0.418469;-6.00495;-0.000416888;0.000174555;0.00263152;0.00264148;-0.000426851;0.00153417;0.158421;6.31229;0.00191916;0.00204556;6.1883;0.161595;53.0692;98.0692;0.00536577;-0.000420887;-0.00249174;0.00283274;0.00262844;0.000977889;0.0142414;0;0.0137709;0.0147104;-0.439986;-0.558337;0.711017;-7.14105;-0.00138076;0.00071793;0.00292289;0.00303949;-0.00149736;0.00226843;0.472395;2.11687;0.00266932;0.00302457;2.0299;0.492636;123.42;168.42;-0.0155762;-0.00142315;0.0107083;-0.0092296;0.00286598;0.0191024;0.0202846;0;0.0321429;5.17432;1.61377
210000;211;26.3621;0.0714576;0.00271799;-2.05974;26.2609;-1.03958;-0.0548793;0.0537917;-0.436504;0.0718839;-0.390239;-0.145359;0.422591;-6.00973;-0.000509655;0.000188205;0.00303435;0.00304432;-0.000519622;0.00178197;0.167962;5.95374;0.00222309;0.00237596;5.85873;0.170686;54.8933;99.8933;0.00494614;-0.000513558;-0.00243234;0.00279949;0.00303142;0.00308316;0.013562;0;0.0145517;0.0153087;-0.443093;-0.563577;0.717067;-7.14629;-0.00117468;0.000628392;0.00287481;0.00297008;-0.00126995;0.00212001;0.408611;2.44732;0.00251272;0.00282668;2.33874;0.427581;123.779;168.779;-0.0157119;-0.00121717;0.0105316;-0.00923489;0.0028197;0.0190072;0.021329;0;0.028659;5.25388;1.61929
211000;212;26.3625;0.0719004;0.00273483;-2.05973;26.2612;-1.0437;-0.0548684;0.0540738;-0.440621;0.0717538;-0.3933;-0.145294;0.425374;-6.00967;-0.000571653;0.000214647;0.00307013;0.00308274;-0.000584261;0.0018335;0.186198;5.37062;0.00227506;0.00244467;5.27631;0.189526;54.2085;99.2085;0.00484892;-0.000575788;-0.00246316;0.00288273;0.00306713;0.00333957;0.0127294;0;0.0137975;0.0154251;-0.446736;-0.564967;0.720416;-7.14768;-0.00124363;0.000524153;0.00305287;0.00311589;-0.00130665;0.00221127;0.407363;2.45481;0.00262361;0.00294836;2.38465;0.41935;125.46;170.46;-0.015709;-0.00129004;0.0107349;-0.00964289;0.00299556;0.017705;0.0210063;0;0.0291765;5.32932;1.62372
212000;213;26.3634;0.0727352;0.00276658;-2.05982;26.2623;-1.03725;-0.0549527;0.0551605;-0.434175;0.0719378;-0.39698;-0.140255;0.427129;-6.00463;-0.000745524;0.000101862;0.00288081;0.00288367;-0.000748383;0.00181603;0.25879;3.86414;0.00221447;0.00242137;3.8532;0.259525;54.7288;99.7288;0.00476255;-0.000749069;-0.00246905;0.00266348;0.00287778;0.00308366;0.0141155;0;0.0140355;0.0156012;-0.450606;-0.561744;0.720309;-7.14446;-0.00123531;0.000375863;0.00308866;0.00312109;-0.00126773;0.00219441;0.399948;2.50032;0.00260811;0.00292588;2.46195;0.406183;127.361;172.361;-0.0157381;-0.00128482;0.0107481;-0.00995171;0.00303115;0.0177343;0.0245026;0;0.0258362;5.40757;1.63012
213000;214;26.3639;0.0732883;0.00278762;-2.05933;26.2629;-1.03706;-0.0544684;0.0557614;-0.433984;0.073022;-0.398256;-0.14722;0.430829;-6.01159;-0.000695988;-0.000259336;0.00307195;0.00308971;-0.000713753;0.00190173;0.226562;4.4138;0.00233439;0.00253564;4.32883;0.23101;61.9007;106.901;0.00484752;-0.000698342;-0.00271264;0.00218476;0.00306831;0.00289242;0.013883;0;0.0172872;0.0163177;-0.453515;-0.567693;0.726785;-7.15041;-0.00100598;0.000137447;0.00328002;0.00328442;-0.00101038;0.0021474;0.3067;3.26052;0.00259288;0.00286321;3.25067;0.307629;129.88;174.88;-0.0156986;-0.00105791;0.0105061;-0.0101869;0.00322502;0.0165994;0.0229109;0;0.0272054;5.47501;1.63731
214000;215;26.3639;0.0732389;0.00278574;-2.05834;26.263;-1.03526;-0.0534802;0.0558601;-0.432185;0.0723533;-0.400689;-0.149626;0.433791;-6.014;-0.00075836;-0.000291601;0.00306857;0.00309066;-0.000780451;0.00193556;0.247138;4.04633;0.00236393;0.00258074;3.9601;0.252519;61.9386;106.939;0.00530007;-0.000760666;-0.00275892;0.00216631;0.00306482;0.00334865;0.0133682;0;0.0144308;0.0165017;-0.456581;-0.571617;0.731768;-7.15433;-0.00107903;-5.98243e-05;0.00338271;0.00338351;-0.00107983;0.00223167;0.318984;3.13496;0.00268889;0.00297556;3.13337;0.319145;132.51;177.51;-0.0153517;-0.00113551;0.0105502;-0.0106227;0.00332724;0.0143757;0.022103;0;0.0265762;5.54739;1.64446
215000;216;26.3627;0.0720801;0.00274167;-2.05682;26.2621;-1.03238;-0.05196;0.0549297;-0.429298;0.0720395;-0.403849;-0.147472;0.435926;-6.01185;-0.000588223;-0.000284441;0.00244183;0.0024683;-0.000614693;0.0015415;0.240894;4.1512;0.00188416;0.00205533;4.0155;0.249035;61.237;106.237;0.00484775;-0.000590251;-0.00260922;0.00203331;0.00243848;0.00382286;0.0150171;0;0.0141792;0.0158096;-0.460908;-0.570233;0.733383;-7.15295;-0.001104;-0.000281905;0.00360033;0.00361716;-0.00112083;0.002369;0.306638;3.26117;0.00285924;0.00315866;3.22722;0.309865;134.896;179.896;-0.0159546;-0.00116263;0.0103122;-0.0108263;0.00354739;0.0176621;0.0210707;0;0.0253857;5.6194;1.65229
216000;217;26.363;0.0723722;0.00275278;-2.0574;26.262;-1.0389;-0.052537;0.0549203;-0.435825;0.0734419;-0.405426;-0.147399;0.437596;-6.01177;-0.000556221;-0.000331587;0.00276043;0.00279325;-0.000589047;0.00169115;0.201498;4.96282;0.00208642;0.00225487;4.74199;0.210882;63.5928;108.593;0.00482438;-0.000558057;-0.0026151;0.00194437;0.00275707;0.00371394;0.0141487;0;0.0124599;0.0172263;-0.463375;-0.573781;0.737725;-7.15649;-0.0009455;-0.000272253;0.00383372;0.00384918;-0.000960959;0.00240507;0.246627;4.05471;0.00293928;0.00320676;4.00556;0.249653;134.125;179.125;-0.0152488;-0.0010016;0.0100961;-0.0105912;0.00378299;0.0154522;0.0206065;0;0.0264575;5.69145;1.65952
217000;218;26.3667;0.0761076;0.00289486;-2.05655;26.2659;-1.0375;-0.0516861;0.0587919;-0.434427;0.0739077;-0.408991;-0.148018;0.441186;-6.01239;-0.000705221;-0.000586273;0.0019996;0.00212121;-0.000826829;0.00147402;0.352681;2.83543;0.00175589;0.00196536;2.56548;0.389791;65.2671;110.267;0.00477487;-0.00070621;-0.00270181;0.00152356;0.00199613;0.00246435;0.0153114;0;0.0130443;0.0174719;-0.468839;-0.575675;0.742642;-7.15839;-0.000912508;-0.00025845;0.00371775;0.00373213;-0.000926889;0.00232951;0.245446;4.07421;0.00284778;0.00310602;4.02651;0.248354;134.112;179.112;-0.0162098;-0.000966702;0.00993944;-0.0104093;0.00366857;0.0162064;0.0202001;0;0.0247107;5.76987;1.66746
218000;219;26.3684;0.0778237;0.00296013;-2.05561;26.2676;-1.03928;-0.0507463;0.0605181;-0.436201;0.074882;-0.411651;-0.146212;0.443217;-6.01059;-0.000677401;-0.000654579;0.00220005;0.00234196;-0.00081931;0.00158064;0.307903;3.24778;0.00189442;0.00210751;2.85845;0.349839;67.5612;112.561;0.00397099;-0.000678124;-0.00268371;0.00136872;0.00219667;0.00499911;0.0129536;0;0.0154708;0.0183814;-0.472538;-0.576609;0.745726;-7.15932;-0.00100917;-0.000105823;0.00378844;0.00379077;-0.00101151;0.00240114;0.266382;3.75401;0.00292328;0.00320152;3.74765;0.266834;132.149;177.149;-0.0153147;-0.0010597;0.00988434;-0.0100482;0.00373978;0.0148784;0.022181;0;0.0325515;5.83726;1.67466
219000;220;26.371;0.080427;0.00305915;-2.05533;26.2703;-1.03904;-0.0504702;0.0631625;-0.435961;0.0753194;-0.41052;-0.154974;0.445216;-6.01935;-0.000548145;-0.000686418;0.00227407;0.00243216;-0.00070624;0.0015692;0.241042;4.14865;0.0019011;0.00209227;3.44382;0.290376;69.543;114.543;0.00399834;-0.000548803;-0.00271452;0.00133597;0.00227062;0.00640275;0.0146132;0;0.0125362;0.0188759;-0.475092;-0.580879;0.750659;-7.16359;-0.000937994;3.70822e-05;0.00379057;0.00379086;-0.000938285;0.00236457;0.247454;4.04115;0.00289121;0.00315277;4.04021;0.247512;130.237;175.237;-0.0154859;-0.000984738;0.00978446;-0.00966438;0.00374288;0.0159221;0.023268;0;0.0309036;5.91156;1.68179
220000;221;26.3716;0.0810183;0.00308164;-2.05449;26.2708;-1.0439;-0.0496278;0.0636292;-0.440821;0.0752273;-0.414977;-0.151645;0.448175;-6.01602;-0.00040036;-0.000863514;0.00159953;0.00192077;-0.000721606;0.00132119;0.250299;3.99523;0.00157708;0.00176159;2.6618;0.375685;73.9796;118.98;0.00415352;-0.000400576;-0.00281614;0.00108522;0.00159594;0.00356294;0.0153307;0;0.0120876;0.0187056;-0.479558;-0.582044;0.754387;-7.16476;-0.000941766;0.000176831;0.00372262;0.00372931;-0.000948461;0.00233889;0.252985;3.95281;0.00285536;0.00311852;3.93197;0.254326;128.481;173.481;-0.0137882;-0.000983974;0.00958236;-0.009185;0.00367689;0.0117109;0.0199026;0;0.0284197;5.97081;1.68853
221000;222;26.3741;0.0834375;0.00317366;-2.05609;26.2729;-1.04759;-0.0512241;0.065786;-0.444511;0.0766305;-0.416488;-0.152268;0.450022;-6.01664;-0.000462009;-0.000743613;0.00154463;0.00179016;-0.000707533;0.00124884;0.299106;3.34329;0.00148651;0.00166513;2.53014;0.395235;71.0115;116.011;0.00355638;-0.000462474;-0.00270829;0.00121713;0.00154125;0.00564282;0.0150625;0;0.0121718;0.0196616;-0.482195;-0.585609;0.758839;-7.16832;-0.0010653;0.000313291;0.00375595;0.00377623;-0.00108558;0.0024309;0.283631;3.52571;0.00294677;0.0032412;3.47854;0.287477;127.056;172.056;-0.0129725;-0.00110569;0.0096589;-0.00898746;0.00370953;0.00943077;0.0193931;0;0.0277059;6.05238;1.69528
222000;223;26.3758;0.0851499;0.0032388;-2.05584;26.2743;-1.05528;-0.0509717;0.0672168;-0.452207;0.0776393;-0.418341;-0.156631;0.453399;-6.02101;-0.000604961;-0.000790129;0.00122429;0.00151831;-0.00089899;0.00120865;0.494134;2.02374;0.00141082;0.00161154;1.68891;0.592097;69.8745;114.875;0.00398407;-0.000605361;-0.00277673;0.00119285;0.00122075;0.00431011;0.0158115;0;0.012071;0.0205517;-0.486424;-0.588797;0.764011;-7.17151;-0.00114893;0.000566627;0.00394985;0.00401206;-0.00121114;0.0026116;0.290878;3.43786;0.00315683;0.00348213;3.31264;0.301874;124.106;169.106;-0.0138677;-0.00118288;0.00943404;-0.00825579;0.00390568;0.0128046;0.0246332;0;0.0306321;6.1116;1.69984
223000;224;26.3782;0.0875741;0.003331;-2.05784;26.2767;-1.05294;-0.0529728;0.0695876;-0.449865;0.0784728;-0.422469;-0.151203;0.455522;-6.01558;-0.000695289;-0.000776147;0.00142475;0.00167852;-0.000949059;0.00131379;0.488007;2.04915;0.0015364;0.00175172;1.76862;0.565413;68.2776;113.278;0.00403445;-0.000695747;-0.00278842;0.00123187;0.00142117;0.00332765;0.0150281;0;0.0128632;0.0211189;-0.490075;-0.588081;0.765806;-7.17079;-0.000996555;0.000655388;0.00406573;0.00414921;-0.00108003;0.00261462;0.245111;4.07979;0.00318773;0.00348616;3.84176;0.260298;122.865;167.865;-0.0140703;-0.00103258;0.00986605;-0.0085089;0.00401747;0.0129113;0.0258417;0;0.0309507;6.1853;1.70438
224000;225;26.3818;0.0911751;0.00346797;-2.05669;26.2808;-1.04336;-0.0518261;0.0736747;-0.440278;0.0814871;-0.426778;-0.143438;0.457552;-6.00781;-0.000662282;-0.00100896;0.0013877;0.00180098;-0.00107556;0.00143827;0.477252;2.09533;0.00167828;0.00191769;1.67446;0.597209;72.5205;117.521;0.00350273;-0.000662232;-0.0029806;0.000958639;0.00138377;0.0053232;0.0149349;0;0.0107689;0.0240865;-0.495875;-0.57935;0.762967;-7.16206;-0.00105851;0.00081463;0.00426323;0.00438513;-0.00118041;0.00278277;0.248288;4.02759;0.00338618;0.00371037;3.71491;0.269185;121.379;166.379;-0.0131373;-0.0010926;0.00997116;-0.00829345;0.00421405;0.0093467;0.0281963;0;0.0303656;6.2429;1.71078
225000;226;26.3818;0.0911515;0.00346707;-2.05658;26.2808;-1.04261;-0.0517133;0.0736894;-0.43953;0.0819646;-0.427401;-0.150862;0.460597;-6.01524;-0.000774393;-0.000812953;0.00130831;0.00158805;-0.00105414;0.0013211;0.591905;1.68946;0.00153582;0.00176146;1.50649;0.663795;67.6942;112.694;0.00366199;-0.00077485;-0.00288468;0.00125446;0.00130448;0.00439432;0.0151228;0;0.0169729;0.0244855;-0.497189;-0.587544;0.770068;-7.17026;-0.00106672;0.000794034;0.00432431;0.00443883;-0.00118124;0.00281004;0.246681;4.05382;0.00342162;0.00374671;3.75776;0.266116;121.52;166.52;-0.0130463;-0.00109974;0.00979642;-0.0081601;0.00427684;0.00873642;0.0294987;0;0.0336335;6.30274;1.71802
226000;227;26.3804;0.089784;0.00341506;-2.05809;26.2789;-1.05218;-0.053224;0.0718171;-0.449098;0.0833926;-0.430389;-0.150681;0.463567;-6.01506;-0.000445792;-0.000465607;0.00120788;0.00132996;-0.000567876;0.000948918;0.369071;2.7095;0.00112478;0.00126522;2.34199;0.426987;64.6048;109.605;0.00402208;-0.000447212;-0.00268277;0.00174789;0.00120439;0.00371088;0.015241;0;0.0165456;0.0258813;-0.501109;-0.588759;0.773575;-7.17147;-0.000999932;0.000706435;0.00449813;0.00458745;-0.00108925;0.00283835;0.2223;4.49843;0.0034787;0.00378446;4.21157;0.237441;122.28;167.28;-0.0127955;-0.00103564;0.00993943;-0.00847608;0.0044492;0.00772806;0.0294475;0;0.0309141;6.35127;1.72571
227000;228;26.3834;0.0928205;0.00353056;-2.05792;26.2823;-1.04499;-0.0530549;0.0751652;-0.441915;0.0855478;-0.432468;-0.154795;0.467234;-6.01917;-0.000589239;-0.000463492;0.00202594;0.00210565;-0.000668955;0.0013873;0.290848;3.43822;0.00167197;0.00184974;3.14767;0.317695;63.4046;108.405;0.00406073;-0.000590846;-0.00278433;0.00185129;0.00202217;0.00356894;0.0137137;0;0.0119422;0.0276907;-0.504718;-0.591543;0.778094;-7.17426;-0.00080942;0.000518795;0.00461792;0.00466707;-0.000858566;0.00276282;0.175278;5.70522;0.00343354;0.00368376;5.43588;0.183963;123.583;168.583;-0.0128359;-0.00084648;0.00970854;-0.00862134;0.00457114;0.00721799;0.0297369;0;0.0277854;6.41652;1.73237
228000;229;26.3843;0.0937185;0.00356471;-2.05973;26.2831;-1.0442;-0.0548626;0.0759566;-0.441118;0.0868825;-0.435181;-0.157954;0.471042;-6.02233;-0.000474114;-0.000115569;0.00264587;0.00265014;-0.000478389;0.00156426;0.179191;5.58065;0.00194592;0.00208569;5.53971;0.180515;59.4377;104.438;0.00374569;-0.000476656;-0.00249554;0.002257;0.00264277;0.00403772;0.0129636;0;0.0118072;0.0288379;-0.508776;-0.594333;0.78289;-7.17705;-0.000741296;0.000326335;0.00466826;0.00468788;-0.000760911;0.00272439;0.158795;6.29744;0.00340733;0.00363252;6.16088;0.162315;125.534;170.534;-0.0133379;-0.000782411;0.00977401;-0.0090705;0.00462077;0.00805299;0.0323181;0;0.0263615;6.46522;1.73989
229000;230;26.3846;0.0939374;0.00357304;-2.06074;26.2832;-1.04356;-0.0558781;0.0761222;-0.440479;0.0885034;-0.437745;-0.159961;0.474385;-6.02434;-0.000496355;0.000185938;0.00281132;0.00282174;-0.000506774;0.00166426;0.176556;5.66394;0.00207086;0.00221901;5.56804;0.179596;54.029;99.029;0.00440958;-0.000500079;-0.00237146;0.0027349;0.00280853;0.00258631;0.0138033;0;0.013118;0.0303472;-0.512654;-0.596422;0.787054;-7.17913;-0.000645494;0.000107154;0.00485924;0.00486132;-0.000647579;0.00275445;0.132839;7.52794;0.0034769;0.0036726;7.50692;0.13321;127.514;172.514;-0.0138312;-0.000689738;0.00967093;-0.00940424;0.0048127;0.00884689;0.0325356;0;0.0248732;6.52117;1.74694
230000;231;26.3848;0.0941449;0.00358093;-2.06087;26.2834;-1.04514;-0.0560074;0.0762573;-0.442066;0.0896108;-0.440334;-0.161582;0.477528;-6.02596;-0.000564032;0.000106667;0.00292884;0.00293209;-0.000567287;0.00174969;0.192579;5.19268;0.0021687;0.00233292;5.16862;0.193475;55.7728;100.773;0.00376748;-0.000567522;-0.00243863;0.0026431;0.00292588;0.00356971;0.0137794;0;0.0121865;0.0315782;-0.516519;-0.597775;0.790648;-7.18049;-0.000637347;3.67032e-05;0.00480689;0.00480714;-0.000637595;0.00272237;0.13259;7.54204;0.00343706;0.00362982;7.5395;0.132635;128.405;173.405;-0.0133905;-0.000683827;0.00976461;-0.0096385;0.00475945;0.0090877;0.0313289;0;0.0233875;6.55743;1.75495
231000;232;26.3859;0.0952598;0.00362334;-2.0616;26.2846;-1.04035;-0.0567366;0.0775093;-0.437277;0.0904285;-0.443993;-0.161919;0.48117;-6.02629;-0.000556954;0.000256469;0.00356296;0.00357887;-0.000572858;0.00207586;0.156318;6.39723;0.002598;0.00276782;6.24739;0.160067;56.7049;101.705;0.00467104;-0.000560875;-0.00230909;0.0028115;0.00356034;0.00269478;0.014841;0;0.0126553;0.032426;-0.521406;-0.597676;0.793809;-7.18039;-0.000569888;4.56197e-05;0.00496973;0.00497011;-0.000570263;0.00277019;0.114672;8.72055;0.00351893;0.00369358;8.71546;0.114739;127.909;172.909;-0.0147184;-0.000614985;0.00963853;-0.00949442;0.00492351;0.0114325;0.0322665;0;0.0273218;6.60994;1.76197
232000;233;26.3867;0.0960888;0.00365487;-2.06284;26.2851;-1.04626;-0.0579794;0.0780098;-0.443179;0.0918192;-0.445451;-0.168427;0.485;-6.0328;-0.000530522;0.000212543;0.00401207;0.004022;-0.000540445;0.00228122;0.132232;7.56249;0.00287844;0.00304163;7.442;0.134372;59.3099;104.31;0.00465018;-0.000534423;-0.00238694;0.00280026;0.00400926;0.00304725;0.0139278;0;0.0124462;0.0335242;-0.524693;-0.603186;0.800162;-7.1859;-0.000657863;9.33854e-05;0.00488512;0.00488669;-0.000659436;0.00277306;0.134667;7.42574;0.00349839;0.00369742;7.41042;0.134945;127.625;172.625;-0.0147054;-0.000701937;0.00962536;-0.00938602;0.00483902;0.0116303;0.031751;0;0.0272699;6.64368;1.76927
233000;234;26.3896;0.0989964;0.00376546;-2.06378;26.2883;-1.03909;-0.0589129;0.0811394;-0.436016;0.0923789;-0.448128;-0.170041;0.488126;-6.03442;-0.000589501;0.00025539;0.00410801;0.00412186;-0.000603345;0.0023626;0.1435;6.96862;0.00296952;0.00315013;6.83167;0.146377;58.6929;103.693;0.00506573;-0.000593699;-0.00240957;0.00290788;0.00410515;0.00238526;0.0134264;0;0.0142528;0.034403;-0.528701;-0.605806;0.804804;-7.18852;-0.000717712;0.000144824;0.00484918;0.00485294;-0.000721477;0.00278721;0.148007;6.75644;0.00350066;0.00371628;6.7264;0.148668;127.241;172.241;-0.0143116;-0.000761331;0.00968027;-0.00933781;0.00480256;0.0115192;0.0307771;0;0.0266398;6.6868;1.77415
234000;235;26.3916;0.10094;0.0038394;-2.06337;26.2902;-1.0414;-0.0585072;0.0830316;-0.438319;0.0920967;-0.452275;-0.173259;0.493004;-6.03763;-0.000417055;8.04339e-06;0.00399023;0.00399024;-0.000417069;0.00220365;0.104519;9.56763;0.00280952;0.00293821;9.56733;0.104522;62.7514;107.751;0.00488188;-0.000420172;-0.00249141;0.00249653;0.00398713;0.00306555;0.0135301;0;0.0166617;0.0344727;-0.533807;-0.609365;0.810842;-7.19208;-0.000896827;0.000309896;0.00493313;0.00494956;-0.000913253;0.00293141;0.181797;5.50065;0.00364249;0.00390854;5.4197;0.184512;125.538;170.538;-0.0138437;-0.000934688;0.00937578;-0.00870342;0.00488944;0.0117748;0.0308071;0;0.031062;6.72121;1.78044
235000;236;26.3925;0.101863;0.00387451;-2.06331;26.2912;-1.03944;-0.0584511;0.08404;-0.43636;0.0926404;-0.454772;-0.172659;0.495188;-6.03703;-0.000545578;-4.42977e-05;0.00408903;0.00408945;-0.000546001;0.00231773;0.133425;7.49486;0.00292534;0.0030903;7.48982;0.133515;63.9004;108.9;0.00462643;-0.000548304;-0.00243429;0.00233466;0.00408608;0.00466506;0.0133607;0;0.0157754;0.0351943;-0.536752;-0.609666;0.81304;-7.19238;-0.000961849;0.000392806;0.00485616;0.00488256;-0.00098825;0.00293541;0.198068;5.04878;0.00362958;0.00391387;4.94062;0.202404;124.793;169.793;-0.0134502;-0.000997038;0.00923097;-0.00839422;0.00481384;0.0113061;0.028284;0;0.0296268;6.75608;1.78499
236000;237;26.3932;0.1026;0.00390252;-2.0608;26.2919;-1.04552;-0.0559362;0.0847355;-0.442441;0.0943394;-0.457837;-0.175902;0.499456;-6.04028;-0.000353612;-7.26853e-05;0.00405086;0.00405206;-0.000354811;0.00220344;0.0872929;11.4557;0.00282708;0.00293792;11.4203;0.087563;65.7474;110.747;0.00410779;-0.000355951;-0.00231902;0.00216379;0.00404819;0.005102;0.0135309;0;0.0140197;0.036942;-0.540579;-0.611788;0.817237;-7.1945;-0.00117403;0.000478563;0.00490437;0.00494182;-0.00121147;0.00307665;0.239384;4.17739;0.00376393;0.00410219;4.07918;0.245148;124.433;169.433;-0.0134594;-0.00120863;0.00933883;-0.00832815;0.00486109;0.0117936;0.025553;0;0.0306686;6.79438;1.79167
237000;238;26.3946;0.103971;0.0039547;-2.06017;26.2932;-1.04757;-0.0553068;0.0860801;-0.44449;0.0944493;-0.459766;-0.181283;0.503159;-6.04566;-0.000373303;-0.000277246;0.003761;0.00377951;-0.000391813;0.00208566;0.0992563;10.0749;0.00265991;0.00278088;9.64622;0.103668;67.5925;112.593;0.00475312;-0.000375126;-0.00249251;0.00192889;0.00375794;0.00347213;0.0134131;0;0.016832;0.0371784;-0.542856;-0.619022;0.824174;-7.20174;-0.0012743;0.000630685;0.00490736;0.00497105;-0.00133799;0.00315452;0.259672;3.85101;0.00383856;0.00420603;3.7153;0.269157;123.08;168.08;-0.0133642;-0.00130495;0.00916354;-0.00784973;0.00486577;0.0116204;0.0273439;0;0.030938;6.83529;1.79876
238000;239;26.3936;0.102968;0.00391653;-2.05841;26.2925;-1.04215;-0.053549;0.0854256;-0.439076;0.0952151;-0.463371;-0.179823;0.506078;-6.0442;-0.000189433;-0.00024776;0.00354797;0.00356432;-0.000205786;0.00188505;0.0533918;18.7295;0.0024477;0.00251341;17.3206;0.0577349;68.4221;113.422;0.00445074;-0.000191034;-0.0023099;0.0018067;0.00354534;0.00407825;0.0139735;0;0.0147457;0.0381266;-0.547209;-0.615098;0.824158;-7.19781;-0.00136743;0.000644617;0.00490695;0.00497249;-0.00143298;0.00320273;0.278673;3.58843;0.00388184;0.00427031;3.47004;0.288181;123.262;168.262;-0.0130794;-0.00139882;0.00928683;-0.00794369;0.00486424;0.0112293;0.0281795;0;0.0297907;6.86076;1.80553
239000;240;26.3939;0.103272;0.0039281;-2.05911;26.2923;-1.05439;-0.0542504;0.0851883;-0.45131;0.0952821;-0.466191;-0.179689;0.508626;-6.04406;-6.34704e-05;2.77247e-05;0.0034496;0.00344981;-6.36891e-05;0.00175675;0.0183994;54.3497;0.0023214;0.00234234;54.1664;0.0184616;63.7879;108.788;0.0048846;-6.58039e-05;-0.00211249;0.00216045;0.00344737;0.00191553;0.0133496;0;0.0144707;0.038593;-0.550405;-0.616736;0.827525;-7.19945;-0.00137182;0.000609355;0.0047679;0.0048278;-0.00143171;0.00312975;0.287719;3.47561;0.00378708;0.00417301;3.37205;0.296556;123.677;168.677;-0.0133709;-0.00140342;0.00923954;-0.00796814;0.00472561;0.0116935;0.029592;0;0.0286902;6.90368;1.81308
240000;241;26.3949;0.104256;0.00396552;-2.05821;26.2934;-1.05415;-0.0533477;0.0862561;-0.451075;0.0951026;-0.469922;-0.178291;0.511526;-6.04267;-0.000106323;-0.000289594;0.00302214;0.00304872;-0.000132905;0.00159081;0.0351815;28.424;0.0020782;0.00212108;22.9392;0.0435936;67.7022;112.702;0.00476421;-0.000107905;-0.00238769;0.00180196;0.00301934;0.00219181;0.0135756;0;0.0134207;0.0386345;-0.554608;-0.616728;0.830323;-7.19944;-0.00133015;0.0005038;0.00488082;0.00492142;-0.00137075;0.00314608;0.272526;3.66938;0.00382072;0.00419478;3.59031;0.278527;124.459;169.459;-0.0134148;-0.00136295;0.00917127;-0.00811014;0.00483909;0.010766;0.0305648;0;0.0279866;6.93587;1.82031
241000;242;26.3946;0.103961;0.00395431;-2.05786;26.2929;-1.05889;-0.0529964;0.0857972;-0.455816;0.0965698;-0.471278;-0.183771;0.514976;-6.04815;-0.000104999;-0.000319176;0.00295267;0.00298563;-0.000137961;0.0015618;0.0355607;28.1209;0.00203797;0.0020824;21.6411;0.0462083;68.8761;113.876;0.00459027;-0.000106303;-0.00229027;0.00164591;0.00295011;0.0027966;0.0132126;0;0.0141789;0.0396067;-0.557471;-0.6203;0.834934;-7.20301;-0.00134157;0.000351936;0.00501924;0.00503865;-0.00136099;0.00319982;0.267286;3.74131;0.00389289;0.00426643;3.70221;0.270109;125.867;170.867;-0.013596;-0.00137776;0.00926896;-0.00850868;0.00497656;0.0108253;0.0309847;0;0.0258609;6.98338;1.82784
242000;243;26.3953;0.104651;0.00398055;-2.05913;26.2937;-1.05545;-0.0542706;0.0865283;-0.452377;0.0975634;-0.473566;-0.186769;0.51833;-6.05114;3.24622e-05;-0.000129032;0.00312566;0.00313104;2.7089e-05;0.00155197;-0.0103857;-96.2862;0.00207839;0.0020693;-115.583;-0.00865176;66.6808;111.681;0.00454623;3.07555e-05;-0.00211628;0.00185209;0.00312344;0.00211917;0.012946;0;0.0182396;0.0402235;-0.561179;-0.620488;0.837583;-7.2032;-0.00122431;0.000163621;0.00507862;0.00508287;-0.00122856;0.00315571;0.241072;4.14814;0.00386376;0.00420762;4.13726;0.241706;127.498;172.498;-0.0138418;-0.00126546;0.00945254;-0.00906706;0.00503419;0.0119829;0.0303471;0;0.024944;6.99515;1.83555
243000;244;26.3935;0.102864;0.00391258;-2.0587;26.2917;-1.06025;-0.0538385;0.0845751;-0.457174;0.0958911;-0.476987;-0.181396;0.519246;-6.04577;-0.000185977;-0.000181941;0.00276042;0.00277162;-0.000197169;0.00148439;0.0673725;14.8429;0.00191685;0.00197919;14.0571;0.0711387;65.3378;110.338;0.00434515;-0.000187501;-0.00212496;0.00175537;0.00275819;0.00274836;0.0128985;0;0.0155762;0.0395381;-0.56445;-0.621785;0.840704;-7.2045;-0.00121694;2.76669e-06;0.00528279;0.00528279;-0.00121694;0.00324987;0.230359;4.34105;0.00398986;0.00433316;4.34104;0.230359;128.728;173.728;-0.0140689;-0.00126077;0.00942338;-0.00935694;0.00523862;0.0116378;0.0302986;0;0.0239642;7.03648;1.83939
244000;245;26.393;0.102372;0.00389385;-2.05762;26.291;-1.06681;-0.0527576;0.0839;-0.463735;0.0962811;-0.478336;-0.186725;0.522438;-6.0511;-0.000127276;-0.000295423;0.0034155;0.00343996;-0.000151742;0.00179585;0.0372643;26.8354;0.00234553;0.00239447;22.6699;0.0441114;69.4452;114.445;0.0042856;-0.000128689;-0.0023047;0.00170676;0.00341289;0.00218065;0.0120475;0;0.0163548;0.039936;-0.567299;-0.627626;0.846957;-7.21034;-0.00112496;-0.000133463;0.0053681;0.00537084;-0.0011277;0.00324927;0.209563;4.77182;0.00400968;0.00433236;4.76265;0.209967;129.839;174.839;-0.0143424;-0.00117265;0.00955779;-0.00976211;0.00532268;0.0132198;0.0287215;0;0.0233057;7.06727;1.84538
245000;246;26.3944;0.103764;0.0039468;-2.05722;26.2926;-1.06359;-0.0523587;0.0854595;-0.460508;0.0959225;-0.482421;-0.186475;0.526027;-6.05085;-0.00018576;-3.14045e-07;0.00310314;0.00310314;-0.00018576;0.00164445;0.0598617;16.7052;0.00213338;0.0021926;16.7052;0.0598618;62.1873;107.187;0.00446109;-0.000188041;-0.00214355;0.0021359;0.00310085;0.00174419;0.0127934;0;0.01333;0.039835;-0.573048;-0.627448;0.850683;-7.21016;-0.00118178;-0.000225844;0.00549014;0.00549777;-0.00118942;0.0033436;0.215255;4.64565;0.0041193;0.00445813;4.62224;0.216345;130.593;175.593;-0.014784;-0.00123178;0.00960976;-0.00999616;0.00544424;0.0134497;0.027619;0;0.0288089;7.11033;1.85424
246000;247;26.396;0.105382;0.00400835;-2.05775;26.2942;-1.06205;-0.0528863;0.0871048;-0.458974;0.0967173;-0.484735;-0.185254;0.527865;-6.04963;-9.80575e-05;0.00019301;0.00349592;0.00350626;-0.000108393;0.00180733;0.0280491;35.6518;0.00237446;0.00240977;32.3476;0.0309142;60.5991;105.599;0.00431472;-0.000100977;-0.0020459;0.0024239;0.00349386;0.00218468;0.0124202;0;0.0167165;0.0403727;-0.576654;-0.627812;0.853409;-7.21053;-0.00134289;-0.000309349;0.00555937;0.00557321;-0.00135673;0.00346497;0.241554;4.13986;0.00424069;0.00461996;4.10784;0.243437;131.396;176.396;-0.0153477;-0.00139456;0.00961276;-0.0101633;0.00551347;0.0158605;0.0253861;0;0.0247987;7.14251;1.85796
247000;248;26.3982;0.107566;0.00409143;-2.05766;26.2963;-1.06397;-0.0527998;0.0892268;-0.460889;0.0970721;-0.487355;-0.188805;0.531588;-6.05318;-0.000316389;0.000150267;0.00388839;0.00389375;-0.000321752;0.00210775;0.0813675;12.2899;0.00270946;0.00281034;12.1017;0.0826328;61.6613;106.661;0.00469069;-0.000319474;-0.00219748;0.00248818;0.003886;0.00168708;0.0126489;0;0.0205219;0.0413343;-0.580916;-0.632476;0.859766;-7.21519;-0.00128323;-0.000271133;0.00555793;0.00556866;-0.00129395;0.00343131;0.230882;4.33122;0.00421056;0.00457507;4.3036;0.232364;130.943;175.943;-0.0152342;-0.00133322;0.00952071;-0.00999633;0.00551289;0.0157961;0.0259426;0;0.0257386;7.17141;1.86496
248000;249;26.4002;0.10963;0.00416993;-2.05811;26.2983;-1.06638;-0.0532493;0.0911656;-0.463302;0.0967697;-0.490652;-0.188661;0.534506;-6.05304;-0.000333034;0.000455952;0.00401686;0.00406414;-0.000380313;0.00222223;0.082909;12.0614;0.00284469;0.00296297;10.6863;0.0935776;57.9494;102.949;0.00520689;-0.000336961;-0.00193714;0.00283867;0.0040151;-0.000177913;0.0128049;0;0.0143026;0.0411715;-0.585358;-0.63358;0.863576;-7.21629;-0.0013308;-0.000196574;0.00551342;0.00551906;-0.00133644;0.00342775;0.241375;4.14293;0.0041964;0.00457034;4.12966;0.242151;130.222;175.222;-0.0146573;-0.00137644;0.00921991;-0.00954895;0.00547117;0.0152278;0.0251277;0;0.0320427;7.2123;1.87279
249000;250;26.4044;0.113825;0.0043295;-2.05925;26.3027;-1.05973;-0.0543837;0.0955571;-0.45665;0.0975359;-0.493368;-0.191317;0.538077;-6.05569;-0.000325859;0.000445666;0.00421808;0.00426137;-0.000369157;0.00231526;0.0772529;12.9445;0.00297162;0.00308702;11.5435;0.0866285;58.1363;103.136;0.00527105;-0.000330252;-0.00211747;0.0029972;0.00421594;-0.000335503;0.0134139;0;0.0144067;0.0420251;-0.589656;-0.636151;0.868417;-7.21886;-0.00155737;5.37063e-05;0.00547423;0.00547464;-0.00155778;0.00351621;0.284491;3.51505;0.00426493;0.00468828;3.51439;0.284544;128.552;173.552;-0.0150052;-0.00160102;0.00950939;-0.00933586;0.00542927;0.0164855;0.0255951;0;0.0284051;7.24007;1.88026
250000;251;26.4047;0.114078;0.00433912;-2.06059;26.3026;-1.06507;-0.0557306;0.0954899;-0.461988;0.0978995;-0.496764;-0.191907;0.541468;-6.05628;-0.000389279;0.000500671;0.00458383;0.00463373;-0.000439184;0.00253646;0.0849245;11.7752;0.00324547;0.00338194;10.5508;0.0947797;59.0942;104.094;0.0048636;-0.00039378;-0.00205252;0.00304122;0.00458185;0.00163153;0.0140735;0;0.0148709;0.0428475;-0.593357;-0.639006;0.873062;-7.22172;-0.00170534;0.000187084;0.0055698;0.00557461;-0.00171015;0.00364238;0.306177;3.26608;0.0043987;0.00485651;3.25971;0.306775;127.511;172.511;-0.0155774;-0.00174646;0.00950433;-0.00906277;0.0055249;0.0178028;0.0246828;0;0.0290724;7.27153;1.8877
251000;252;26.4057;0.115052;0.00437617;-2.05988;26.3034;-1.0702;-0.0550188;0.0963151;-0.467121;0.0977816;-0.499009;-0.194853;0.544554;-6.05923;-0.00042232;0.000256473;0.00477348;0.00478611;-0.00043495;0.00261053;0.0884722;11.303;0.00334516;0.00348071;11.0038;0.0908775;62.7062;107.706;0.00499041;-0.00042609;-0.00225733;0.00275727;0.00477098;0.00180994;0.0132221;0;0.0226167;0.0427566;-0.596758;-0.641605;0.877271;-7.22432;-0.00193246;0.000332905;0.00549701;0.0055119;-0.00194735;0.00372962;0.351547;2.84457;0.0044675;0.00497283;2.83047;0.353299;126.9;171.9;-0.0156216;-0.00197274;0.00970863;-0.00897357;0.00545019;0.0186662;0.0241725;0;0.0303768;7.30428;1.89536
252000;253;26.4078;0.117228;0.00445894;-2.06089;26.3057;-1.0666;-0.0560231;0.0985672;-0.463523;0.0976707;-0.502133;-0.195754;0.547719;-6.06013;-0.000489366;0.000458635;0.00474843;0.00478828;-0.000529222;0.00265875;0.103058;9.70323;0.00338243;0.003545;9.04779;0.110524;59.8093;104.809;0.00481893;-0.000493883;-0.00213624;0.00303998;0.00474626;0.00209173;0.0134271;0;0.0140684;0.0429107;-0.600327;-0.643227;0.880894;-7.22594;-0.00201393;0.000426048;0.0054015;0.00542589;-0.00203833;0.00373211;0.372846;2.68207;0.00445495;0.00497615;2.66194;0.375666;126.415;171.415;-0.0149686;-0.00205283;0.00974331;-0.00882253;0.00535437;0.0174298;0.0251063;0;0.0309018;7.34105;1.90294
253000;254;26.4074;0.116808;0.00444297;-2.05888;26.3056;-1.06238;-0.05402;0.0984734;-0.459299;0.0980812;-0.504255;-0.197345;0.550307;-6.06172;-0.000411422;0.000302612;0.00500062;0.00501748;-0.00042829;0.00272289;0.0822743;12.1545;0.00349651;0.00363052;11.7151;0.0853596;62.6065;107.606;0.0046455;-0.000415555;-0.00229914;0.00289035;0.00499803;0.00282971;0.0131073;0;0.0165177;0.0435855;-0.60286;-0.646683;0.885177;-7.2294;-0.00217364;0.000429544;0.00548411;0.00550813;-0.00219765;0.00385289;0.396351;2.52301;0.00458375;0.00513719;2.50637;0.398984;126.641;171.641;-0.014931;-0.00221308;0.00981357;-0.00888305;0.00543631;0.0176236;0.0246755;0;0.0324203;7.37091;1.9087
254000;255;26.4082;0.117567;0.00447182;-2.0591;26.3061;-1.06949;-0.0542379;0.0989295;-0.466415;0.0976995;-0.5083;-0.197782;0.554104;-6.06216;-0.000379468;0.000107234;0.00481897;0.00482118;-0.000381679;0.00260143;0.0787445;12.6993;0.00334861;0.00346858;12.6315;0.0791671;64.657;109.657;0.00520705;-0.000382852;-0.00240175;0.00260324;0.00481611;0.00230699;0.0133295;0;0.0173345;0.0433967;-0.607615;-0.645979;0.887901;-7.22869;-0.00208907;0.000254774;0.00556789;0.00557636;-0.00209754;0.00383695;0.3752;2.66524;0.00457977;0.00511593;2.65852;0.376149;127.712;172.712;-0.0146102;-0.00213056;0.00968427;-0.00910294;0.00552129;0.0167928;0.0251091;0;0.028069;7.40589;1.91537
255000;256;26.4084;0.117796;0.00448054;-2.05778;26.3064;-1.0702;-0.0529171;0.0992343;-0.467119;0.0984791;-0.511327;-0.198466;0.557263;-6.06284;-0.000386448;-3.7453e-05;0.00476902;0.00476929;-0.00038672;0.00257801;0.081033;12.3407;0.00331596;0.00343734;12.3327;0.0810854;66.5226;111.523;0.00444274;-0.000389281;-0.00246778;0.00238041;0.00476599;0.00310117;0.0128983;0;0.0178034;0.0445538;-0.610814;-0.648884;0.892261;-7.2316;-0.00209058;0.000171139;0.00567857;0.00568234;-0.00209435;0.00388834;0.368152;2.71627;0.00464643;0.00518446;2.71318;0.368571;128.399;173.399;-0.0153332;-0.00213649;0.0099924;-0.00957426;0.00562894;0.0177382;0.0260647;0;0.0279542;7.43512;1.92126
256000;257;26.4078;0.117211;0.00445827;-2.05676;26.3057;-1.07303;-0.0518975;0.0986111;-0.469949;0.0982459;-0.513156;-0.20029;0.559551;-6.06466;-0.000321767;4.75037e-05;0.00470177;0.00470222;-0.000322216;0.00251222;0.0684352;14.6124;0.00324755;0.00334962;14.5934;0.0685242;65.9656;110.966;0.0051142;-0.000324639;-0.00231378;0.00239698;0.00469911;0.00235952;0.0128225;0;0.0157805;0.0444635;-0.613317;-0.651868;0.89614;-7.23458;-0.00215122;2.08355e-05;0.00597147;0.00597153;-0.00215128;0.0040614;0.36025;2.77585;0.00485952;0.0054152;2.77581;0.360256;129.445;174.445;-0.0156811;-0.00220367;0.0103555;-0.0102304;0.00591817;0.0173516;0.0255195;0;0.0268694;7.46121;1.92315
257000;258;26.4069;0.116292;0.00442333;-2.05579;26.3048;-1.07459;-0.0509281;0.0977009;-0.471511;0.0980312;-0.516524;-0.201343;0.56298;-6.06572;-0.000307557;-0.00022596;0.00445103;0.00446174;-0.000318262;0.00239;0.0690978;14.4722;0.00308606;0.00318667;14.0191;0.0713315;69.3639;114.364;0.00467179;-0.000309481;-0.0024366;0.00197421;0.0044481;0.00369014;0.0122245;0;0.015376;0.0442614;-0.617698;-0.652779;0.899795;-7.23549;-0.00201518;-0.000181788;0.00609214;0.00609622;-0.00201925;0.00405773;0.330783;3.02313;0.00487857;0.00541031;3.01905;0.33123;130.603;175.603;-0.0160852;-0.00207118;0.0102955;-0.0105746;0.00603948;0.0176514;0.0235466;0;0.0268407;7.4978;1.93243
258000;259;26.4074;0.116794;0.00444244;-2.05524;26.3053;-1.07548;-0.0503728;0.098212;-0.472405;0.0985559;-0.518571;-0.199971;0.564462;-6.06435;-0.000448174;-0.000309513;0.00436332;0.00438315;-0.000468003;0.00242558;0.102714;9.73577;0.00308994;0.0032341;9.36565;0.106773;69.5926;114.593;0.00465418;-0.00044989;-0.002507;0.00187745;0.00436024;0.00365449;0.0130749;0;0.0153964;0.0452797;-0.620881;-0.653075;0.902248;-7.23579;-0.00204346;-0.000307343;0.0063413;0.00635255;-0.00205471;0.00420363;0.322247;3.10321;0.00506093;0.00560484;3.0917;0.323447;131.249;176.249;-0.015889;-0.0021034;0.0104166;-0.0109419;0.00628743;0.0180399;0.0215645;0;0.0277867;7.52152;1.93648
259000;260;26.4062;0.115557;0.00439536;-2.05405;26.304;-1.07881;-0.0491834;0.0969262;-0.475735;0.099001;-0.521487;-0.198262;0.56662;-6.06264;-0.000343015;-0.000109784;0.00384504;0.00384792;-0.000345891;0.00209691;0.0892095;11.2096;0.00268801;0.00279587;11.1247;0.0898902;66.1259;111.126;0.00543945;-0.000345081;-0.00226394;0.00203538;0.0038425;0.0018088;0.0144065;0;0.0255461;0.0456878;-0.624899;-0.652883;0.904899;-7.2356;-0.00207684;-0.000434504;0.00661649;0.00663816;-0.0020985;0.00436833;0.313888;3.18585;0.0052662;0.00582444;3.16328;0.316127;131.864;176.864;-0.0166001;-0.00214177;0.0106186;-0.0113921;0.00656058;0.0192293;0.0204268;0;0.0251396;7.55661;1.94373
260000;261;26.4071;0.116476;0.00443031;-2.05231;26.3052;-1.07646;-0.0474464;0.0980808;-0.473378;0.0993865;-0.523851;-0.200145;0.569522;-6.06452;-0.000279093;-0.000171669;0.00391153;0.00391855;-0.000286113;0.00210233;0.0713514;14.0151;0.00271277;0.00280311;13.6958;0.0730152;67.6037;112.604;0.00468134;-0.00028099;-0.00230737;0.00195512;0.00390889;0.00252982;0.0124012;0;0.0176878;0.0464587;-0.629215;-0.656411;0.910464;-7.23912;-0.00205339;-0.000499978;0.00675483;0.00678312;-0.00208168;0.0044324;0.303989;3.28959;0.00535265;0.00590987;3.25848;0.306892;132.083;177.083;-0.0171545;-0.00211987;0.0106268;-0.0115294;0.00669887;0.0207207;0.0202977;0;0.0255946;7.58116;1.95123
261000;262;26.4088;0.118204;0.00449604;-2.05128;26.3069;-1.07918;-0.0464196;0.0997838;-0.476106;0.0998461;-0.525669;-0.202835;0.572223;-6.06721;-0.000272162;-0.000325686;0.00374146;0.00376772;-0.000298418;0.00203307;0.0727422;13.7472;0.00261696;0.00271076;12.6256;0.0792039;69.5847;114.585;0.00457796;-0.000273636;-0.00240686;0.00174717;0.00373863;0.00321779;0.0124251;0;0.014472;0.0473318;-0.632191;-0.659936;0.915107;-7.24265;-0.00197738;-0.000457973;0.00667114;0.00669532;-0.00200157;0.00434845;0.296409;3.37372;0.00525927;0.00579793;3.34504;0.29895;131.789;176.789;-0.0172597;-0.00204147;0.0104973;-0.0113191;0.00661651;0.0205599;0.0201581;0;0.027961;7.60953;1.95912
262000;263;26.4126;0.121987;0.00463993;-2.05244;26.3107;-1.07585;-0.0475803;0.103628;-0.47277;0.10021;-0.527245;-0.201566;0.573287;-6.06594;-0.000265338;-0.000203915;0.0036274;0.00363805;-0.00027599;0.00195702;0.0731482;13.6709;0.0025224;0.00260936;13.1818;0.0758621;67.8737;112.874;0.00476188;-0.00026697;-0.00223374;0.00181804;0.00362493;0.00292783;0.0129844;0;0.0195888;0.0476163;-0.636283;-0.659978;0.917983;-7.24269;-0.00208755;-0.000337433;0.00673131;0.0067442;-0.00210045;0.00442232;0.310126;3.2245;0.00533591;0.00589643;3.21084;0.311445;131.059;176.059;-0.0175806;-0.00215122;0.0106995;-0.0112776;0.00667451;0.02176;0.0196949;0;0.0277118;7.64329;1.96592
263000;264;26.4138;0.123154;0.00468435;-2.05098;26.3117;-1.08472;-0.0461188;0.104549;-0.481647;0.100456;-0.529987;-0.202036;0.576018;-6.06641;-0.000255011;-0.000295508;0.00356607;0.00358879;-0.00027773;0.00193326;0.0715105;13.984;0.00249027;0.00257768;12.9219;0.0773882;68.8905;113.891;0.00471683;-0.000256502;-0.00235063;0.00175179;0.00356336;0.00250328;0.0128023;0;0.0162127;0.0480698;-0.6411;-0.662072;0.922854;-7.24478;-0.00196747;-0.000192581;0.00669118;0.00669546;-0.00197175;0.00433361;0.29404;3.4009;0.0052459;0.00577814;3.39569;0.294491;129.713;174.713;-0.0176441;-0.00202305;0.0102392;-0.0105346;0.00663912;0.0218924;0.0202924;0;0.0293233;7.6692;1.97327
264000;265;26.4172;0.126573;0.00481439;-2.05046;26.3149;-1.09034;-0.0455984;0.10779;-0.487262;0.10038;-0.531301;-0.205245;0.578344;-6.06962;-0.000273187;-7.00265e-05;0.00347871;0.00348002;-0.000274494;0.00187726;0.0785312;12.7338;0.00241671;0.00250301;12.6779;0.0788771;65.2888;110.289;0.00464483;-0.000275089;-0.00209893;0.00195129;0.00347652;0.00164408;0.0123373;0;0.0167826;0.0480882;-0.644474;-0.666909;0.928669;-7.24962;-0.00223136;4.267e-05;0.00670092;0.00670113;-0.00223156;0.00446634;0.332993;3.00307;0.00536817;0.00595512;3.00289;0.333013;128.472;173.472;-0.0178273;-0.00228397;0.0104243;-0.0102469;0.00664695;0.022402;0.0215154;0;0.0300368;7.69652;1.98005
265000;266;26.4205;0.12985;0.00493902;-2.05136;26.318;-1.09233;-0.0464922;0.110927;-0.489251;0.100364;-0.533725;-0.206021;0.580845;-6.0704;-0.000277798;4.10296e-05;0.00363095;0.00363138;-0.000278228;0.00195481;0.0765082;13.0705;0.00251879;0.00260641;13.0518;0.0766177;63.8435;108.844;0.00472451;-0.000280048;-0.00204778;0.0021217;0.00362886;0.00117889;0.0122151;0;0.019786;0.0483884;-0.648565;-0.670291;0.933953;-7.253;-0.0024048;0.000233523;0.00656842;0.00657449;-0.00241088;0.00449268;0.366116;2.73138;0.00537015;0.00599025;2.72701;0.366702;127.452;172.452;-0.017354;-0.00245163;0.0102245;-0.00966843;0.00651652;0.0221725;0.0219857;0;0.0320055;7.72312;1.98827
266000;267;26.4231;0.132533;0.00504107;-2.05164;26.3206;-1.0951;-0.0467799;0.113483;-0.492025;0.101161;-0.536122;-0.208101;0.583924;-6.07248;-0.000376976;-4.75179e-05;0.00353644;0.00353702;-0.000377553;0.00195729;0.106597;9.38108;0.00249341;0.00260972;9.36828;0.106743;64.3502;109.35;0.00431558;-0.000379031;-0.00213069;0.00202753;0.00353418;0.0017438;0.0136355;0;0.014568;0.049459;-0.653043;-0.673532;0.939445;-7.25625;-0.0023224;0.00015448;0.00663956;0.00664222;-0.00232506;0.00448364;0.349782;2.85893;0.00537354;0.00597819;2.8568;0.350042;127.627;172.627;-0.0169157;-0.00236814;0.00995153;-0.00955536;0.00659038;0.0203313;0.0218974;0;0.0303457;7.75139;1.99542
267000;268;26.4254;0.13479;0.00512691;-2.05101;26.3228;-1.09767;-0.0461472;0.115691;-0.49459;0.100712;-0.53902;-0.209036;0.58684;-6.07341;-0.000362501;0.000139058;0.00406124;0.0040656;-0.000366868;0.00221624;0.0892589;11.2034;0.0028406;0.00295498;11.0819;0.0902371;63.3282;108.328;0.00467599;-0.000365196;-0.00205691;0.00232535;0.00405914;0.00116065;0.0136761;0;0.0147144;0.0493623;-0.657563;-0.674672;0.943402;-7.25738;-0.00238358;0.000121867;0.00664873;0.00665037;-0.00238522;0.0045178;0.358502;2.78939;0.00540697;0.00602373;2.78816;0.35866;127.961;172.961;-0.016507;-0.0024304;0.00999771;-0.00966538;0.00659909;0.0193049;0.0229929;0;0.0296339;7.77573;1.99611
268000;269;26.4264;0.135826;0.00516633;-2.0515;26.3236;-1.10355;-0.0466363;0.116447;-0.500476;0.100416;-0.540715;-0.211087;0.589079;-6.07546;-0.000413709;0.000105711;0.00441284;0.00441515;-0.000416023;0.00241559;0.0937513;10.6665;0.00309145;0.00322078;10.6127;0.0942263;64.5909;109.591;0.00475669;-0.000416472;-0.0021521;0.00235267;0.00441054;0.00105271;0.0138819;0;0.0152905;0.0490305;-0.660409;-0.679852;0.949075;-7.26257;-0.00232186;-6.01253e-06;0.00687614;0.00687615;-0.00232186;0.004599;0.337669;2.96148;0.0055232;0.00613201;2.96148;0.337669;128.494;173.494;-0.0164076;-0.00237191;0.0100732;-0.00999316;0.00682575;0.0186476;0.0232138;0;0.0283323;7.80798;2.00475
269000;270;26.4273;0.136729;0.00520069;-2.05047;26.3245;-1.10453;-0.0456068;0.117393;-0.501455;0.101461;-0.543124;-0.210569;0.591285;-6.07494;-0.000464728;0.000435321;0.00444039;0.00447872;-0.000503062;0.00249089;0.104659;9.55481;0.00316685;0.00332119;8.90291;0.112323;59.5838;104.584;0.00533676;-0.00046876;-0.00201364;0.00287232;0.00443846;-0.000431619;0.0136259;0;0.0176431;0.0501348;-0.664223;-0.680241;0.952068;-7.26295;-0.00230767;-0.000135392;0.00714016;0.0071421;-0.00230961;0.00472585;0.323196;3.0941;0.00568973;0.00630114;3.09234;0.323379;128.956;173.956;-0.0165375;-0.0023599;0.0100347;-0.0102101;0.00709017;0.0186015;0.0248714;0;0.028131;7.82119;2.01062
270000;271;26.4295;0.138851;0.0052814;-2.05277;26.3267;-1.09967;-0.0479097;0.119547;-0.496592;0.101729;-0.546491;-0.20994;0.594202;-6.07431;-0.000613279;0.000407764;0.00462215;0.00465372;-0.000644848;0.00264928;0.132683;7.53678;0.00333825;0.00353238;7.21677;0.138566;59.9926;104.993;0.00530354;-0.000617403;-0.00209717;0.00289964;0.00462004;-5.99116e-06;0.0134995;0;0.0163627;0.0504448;-0.66993;-0.681206;0.956762;-7.26392;-0.00219031;-0.00030236;0.00764108;0.00765037;-0.0021996;0.00492499;0.28665;3.48858;0.00597008;0.00656665;3.47807;0.287516;129.411;174.411;-0.0164597;-0.00224962;0.0103827;-0.0108832;0.00758763;0.0165977;0.0266515;0;0.0286507;7.86068;2.01839
271000;272;26.43;0.139399;0.00530224;-2.05183;26.3272;-1.10117;-0.0469697;0.120108;-0.498094;0.101318;-0.548071;-0.209594;0.595463;-6.07397;-0.000661321;0.000299998;0.00454635;0.00456358;-0.000678546;0.00262106;0.145462;6.87465;0.00329196;0.00349475;6.72552;0.148687;60.1898;105.19;0.00520223;-0.000665441;-0.00229853;0.00288506;0.00454377;0.00110124;0.0142027;0;0.0133403;0.0500318;-0.674453;-0.681594;0.960188;-7.26431;-0.00214796;-0.00047811;0.008061;0.00808334;-0.00217031;0.00512682;0.266464;3.75285;0.00623944;0.00683576;3.72451;0.268491;129.815;174.815;-0.0171466;-0.00221029;0.010316;-0.0111628;0.00800832;0.0186062;0.0246291;0;0.0265064;7.8814;2.02457
272000;273;26.4317;0.141048;0.00536496;-2.05205;26.3291;-1.09637;-0.0471875;0.121947;-0.493289;0.100813;-0.551282;-0.206096;0.597119;-6.07047;-0.000600557;0.00044196;0.00494339;0.0049784;-0.000635569;0.00280698;0.121487;8.23134;0.00354981;0.00374264;7.83298;0.127665;60.5181;105.518;0.00538339;-0.000605033;-0.00215386;0.00302346;0.00494118;0.000273998;0.0141379;0;0.0148792;0.0494284;-0.680738;-0.678484;0.962386;-7.2612;-0.00216778;-0.000614459;0.0083585;0.00839425;-0.00220353;0.00529889;0.25935;3.85579;0.00645724;0.00706518;3.80946;0.262505;130.232;175.232;-0.0172212;-0.0022333;0.0103368;-0.0114513;0.00830571;0.01951;0.021663;0;0.0255726;7.90945;2.03207
273000;274;26.4356;0.144951;0.00551343;-2.05168;26.3331;-1.09355;-0.046812;0.126012;-0.490473;0.101656;-0.550952;-0.211834;0.598963;-6.07621;-0.000752356;0.000520637;0.00529557;0.00534007;-0.000796848;0.00306846;0.142073;7.03866;0.00385322;0.00409128;6.70149;0.149221;60.4204;105.42;0.00522361;-0.000757255;-0.00214695;0.00317217;0.00529342;-7.79014e-05;0.0136236;0;0.0151182;0.0503866;-0.684246;-0.686057;0.970261;-7.26877;-0.00204638;-0.000623958;0.00859515;0.00863161;-0.00208284;0.00535722;0.238085;4.20018;0.00655985;0.00714296;4.14416;0.241304;129.395;174.395;-0.0165134;-0.00210577;0.00976749;-0.0109057;0.00854804;0.0184582;0.0215969;0;0.0257121;7.92275;2.0392
274000;275;26.4402;0.149626;0.00569123;-2.05139;26.3379;-1.0925;-0.0465284;0.13077;-0.489422;0.102127;-0.552864;-0.211212;0.600583;-6.07559;-0.000532935;0.000544334;0.00533378;0.00538386;-0.000583013;0.00298344;0.099917;10.0083;0.00379852;0.00397792;9.23455;0.108289;60.579;105.579;0.00539962;-0.000538052;-0.00217114;0.00324396;0.00533159;0.000328401;0.0138951;0;0.0147259;0.0508647;-0.689849;-0.687462;0.975235;-7.27018;-0.00197363;-0.000665073;0.00852552;0.00856748;-0.0020156;0.00529154;0.231497;4.31971;0.00648872;0.00705539;4.2506;0.235261;129.548;174.548;-0.0165438;-0.00203197;0.00958795;-0.0108113;0.00848016;0.0177138;0.0224044;0;0.0270563;7.9495;2.0466
275000;276;26.4458;0.155221;0.00590404;-2.05262;26.3434;-1.09219;-0.0477522;0.136304;-0.489113;0.102225;-0.554637;-0.211307;0.602265;-6.07568;-0.000825884;0.00053851;0.00541268;0.00545882;-0.000872027;0.00316542;0.152583;6.5538;0.00396201;0.00422056;6.25992;0.159746;60.5162;105.516;0.00521848;-0.000830847;-0.00213434;0.00319477;0.00541056;0.000870092;0.0141511;0;0.0160524;0.0507184;-0.695851;-0.689265;0.980749;-7.27198;-0.00219188;-0.000473246;0.00849349;0.00851441;-0.0022128;0.0053636;0.258066;3.87498;0.00653987;0.00715147;3.84781;0.259888;128.348;173.348;-0.0166289;-0.00224271;0.00923876;-0.0100823;0.00845129;0.0199228;0.0211269;0;0.0308416;7.96924;2.05331
276000;277;26.4516;0.161003;0.00612399;-2.05295;26.3491;-1.09476;-0.0480909;0.141976;-0.491685;0.102039;-0.554859;-0.213322;0.603147;-6.0777;-0.000778191;0.000427157;0.00533896;0.00536864;-0.000807875;0.00308826;0.145757;6.86073;0.00387655;0.00411768;6.64539;0.15048;61.6353;106.635;0.00549389;-0.000782699;-0.00219357;0.00303193;0.00533665;0.000128054;0.013406;0;0.0158822;0.0504201;-0.700006;-0.693029;0.986327;-7.27574;-0.00227566;-0.000361443;0.00856263;0.00857467;-0.0022877;0.00543119;0.265767;3.7627;0.00661227;0.00724158;3.74816;0.266798;127.61;172.61;-0.0160351;-0.00232389;0.00919598;-0.00981612;0.00852077;0.0189598;0.0210922;0;0.0329738;7.98407;2.06018
277000;278;26.4554;0.164752;0.00626658;-2.0546;26.3526;-1.09678;-0.0497367;0.145527;-0.493704;0.102593;-0.55918;-0.212065;0.606778;-6.07644;-0.00081171;0.000351315;0.00573408;0.00575288;-0.000830511;0.0032917;0.141559;7.0642;0.00413995;0.00438893;6.92692;0.144364;63.7572;108.757;0.00531038;-0.000815954;-0.00224779;0.0029335;0.00573163;0.000493069;0.0138239;0;0.0363775;0.050514;-0.707747;-0.693387;0.992091;-7.2761;-0.0025022;-2.90546e-05;0.00858021;0.00858028;-0.00250228;0.00554128;0.291625;3.42906;0.00671161;0.00738837;3.42899;0.291631;125.851;170.851;-0.0156957;-0.00254428;0.0092056;-0.00916224;0.0085382;0.0174808;0.0211705;0;0.0509694;8.00648;2.06789
278000;279;26.4591;0.168494;0.00640891;-2.05513;26.3562;-1.10035;-0.0502683;0.149094;-0.49727;0.102811;-0.559184;-0.211823;0.606734;-6.0762;-0.00080178;0.000303649;0.00575942;0.00577344;-0.000815803;0.00329462;0.139212;7.18329;0.00414773;0.00439283;7.07701;0.141303;64.0799;109.08;0.0055389;-0.000806006;-0.00233195;0.00292206;0.00575676;0.00069435;0.0138534;0;0.0211997;0.0504051;-0.711596;-0.695288;0.99616;-7.278;-0.00259097;-0.000147375;0.00900319;0.00900506;-0.00259284;0.00579895;0.287783;3.47484;0.00702891;0.00773193;3.47305;0.287931;125.962;170.962;-0.015545;-0.00263412;0.00909096;-0.00927954;0.00896224;0.0165986;0.0230609;0;0.0392543;8.02021;2.07286
279000;280;26.4638;0.173191;0.00658758;-2.05596;26.3608;-1.10228;-0.0510947;0.153664;-0.499207;0.102964;-0.560308;-0.211888;0.607818;-6.07626;-0.000819426;0.000267112;0.00603056;0.00604096;-0.000829826;0.0034354;0.135879;7.3595;0.0043305;0.00458053;7.27979;0.137367;65.3462;110.346;0.00518033;-0.000823484;-0.00234368;0.00286013;0.00602787;0.00150085;0.0134818;0;0.0205567;0.0504342;-0.716785;-0.697237;1.00123;-7.27995;-0.00264097;-0.0002493;0.00944672;0.00945186;-0.0026461;0.00604898;0.279564;3.57699;0.00734393;0.00806531;3.57199;0.279956;126.258;171.258;-0.0156576;-0.00268888;0.00939603;-0.00977911;0.00940302;0.017231;0.0237416;0;0.037431;8.03403;2.07545
280000;281;26.4671;0.176462;0.00671199;-2.05582;26.364;-1.10406;-0.0509583;0.156884;-0.500984;0.103264;-0.561746;-0.210363;0.608666;-6.07474;-0.000769442;0.000361127;0.00573388;0.00575387;-0.000789433;0.00327165;0.134192;7.452;0.00412432;0.0043622;7.28861;0.1372;63.7906;108.791;0.0050352;-0.000773703;-0.00223488;0.00294035;0.00573146;0.00199728;0.0135543;0;0.0177245;0.0502453;-0.723832;-0.694627;1.00447;-7.27734;-0.00271389;-0.000552602;0.0103132;0.0103366;-0.00273729;0.00653693;0.263148;3.80015;0.0079619;0.00871591;3.77621;0.264816;126.743;171.743;-0.0152572;-0.00276758;0.00938647;-0.0103635;0.0102697;0.0158487;0.0237879;0;0.0281562;8.05329;2.08255
281000;282;26.4726;0.181941;0.00692037;-2.05626;26.3697;-1.09764;-0.0513979;0.162618;-0.494558;0.10331;-0.562509;-0.208255;0.608654;-6.07263;-0.00070687;0.000425465;0.00586374;0.00589117;-0.000734306;0.00331274;0.120549;8.29535;0.0041937;0.00441699;8.02278;0.124645;63.6588;108.659;0.00532279;-0.000711382;-0.00219916;0.00303294;0.00586142;0.00114284;0.0132412;0;0.0168765;0.0498602;-0.729632;-0.694762;1.00873;-7.27747;-0.00274898;-0.000777293;0.0115035;0.0115458;-0.00279125;0.0071685;0.23897;4.18463;0.0087768;0.009558;4.13641;0.241756;126.166;171.166;-0.0152325;-0.00280655;0.0093315;-0.0107436;0.0114607;0.0150883;0.0222786;0;0.0279351;8.06315;2.09007
282000;283;26.4769;0.186261;0.00708469;-2.05615;26.3741;-1.09646;-0.0512834;0.167013;-0.493378;0.103493;-0.561228;-0.209252;0.607844;-6.07363;-0.000810836;0.000263587;0.00565252;0.00566326;-0.000821568;0.00324241;0.143447;6.97123;0.00407705;0.00432322;6.89323;0.14507;64.2512;109.251;0.00510905;-0.000814855;-0.00233566;0.00284612;0.00564985;0.0016408;0.0141798;0;0.0176233;0.0494672;-0.734924;-0.698122;1.01486;-7.28084;-0.0028356;-0.000839398;0.0121848;0.0122316;-0.00288236;0.00755698;0.232715;4.29709;0.00926585;0.010076;4.2436;0.235649;125.622;170.622;-0.0149846;-0.00289464;0.00935602;-0.0108834;0.0121419;0.0159261;0.0194452;0;0.0256025;8.07146;2.09746
283000;284;26.4801;0.189475;0.00720695;-2.05614;26.3773;-1.09677;-0.0512799;0.170227;-0.493694;0.103604;-0.563176;-0.211404;0.610403;-6.07578;-0.000801321;0.000330482;0.0056092;0.00562619;-0.000818314;0.00322225;0.142858;6.99994;0.00405121;0.00429634;6.87535;0.145447;63.7757;108.776;0.00519422;-0.00080539;-0.00222591;0.00287057;0.00560679;0.00147802;0.0141237;0;0.0213863;0.0489076;-0.742301;-0.702908;1.02347;-7.28562;-0.00288888;-0.000768759;0.0125668;0.012605;-0.00292702;0.007766;0.229881;4.35007;0.00953002;0.0103547;4.30642;0.232212;124.519;169.519;-0.014861;-0.00294366;0.009093;-0.0104799;0.0125263;0.015224;0.0201528;0;0.0291026;8.09257;2.10506
284000;285;26.49;0.199414;0.007585;-2.0573;26.3874;-1.0936;-0.0524369;0.180246;-0.490523;0.103471;-0.564691;-0.209788;0.611223;-6.07416;-0.000725858;0.000278875;0.00580897;0.00582085;-0.000737737;0.00327929;0.124955;8.00291;0.0041484;0.00437239;7.89014;0.12674;65.1959;110.196;0.00523926;-0.000729736;-0.00225661;0.00279789;0.00580648;0.00183201;0.0131393;0;0.0238565;0.0481409;-0.751008;-0.702554;1.02952;-7.28527;-0.00322585;-0.000681307;0.0127938;0.0128227;-0.00325477;0.00803876;0.252141;3.96603;0.00981498;0.0107183;3.93967;0.253828;123.536;168.536;-0.0143521;-0.00327388;0.0085932;-0.00980906;0.0127576;0.0157271;0.0200391;0;0.0347817;8.09611;2.11221
285000;286;26.4954;0.204827;0.00779087;-2.05796;26.3924;-1.10146;-0.0530931;0.185301;-0.498387;0.103893;-0.563185;-0.215511;0.611895;-6.07989;-0.000766066;0.000158564;0.00582012;0.00582394;-0.000769881;0.00329691;0.131624;7.59741;0.00416305;0.00439588;7.56472;0.132193;66.0623;111.062;0.0052606;-0.000769694;-0.00239699;0.00269738;0.00581728;0.00194267;0.0132976;0;0.0375137;0.0476929;-0.756005;-0.711688;1.03938;-7.2944;-0.00327023;-0.000576103;0.0130012;0.0130216;-0.00329061;0.00815609;0.251533;3.97562;0.00996078;0.0108748;3.9572;0.252704;122.766;167.766;-0.014548;-0.00331607;0.00857068;-0.00957592;0.0129651;0.0158859;0.0216895;0;0.0404699;8.1061;2.11954
286000;287;26.5036;0.212936;0.00809932;-2.05954;26.4001;-1.11015;-0.0546764;0.192955;-0.507071;0.104454;-0.564895;-0.205942;0.610269;-6.07032;-0.000727497;0.000363677;0.00599948;0.00601909;-0.000747101;0.00338309;0.12126;8.24675;0.00428353;0.00451079;8.05659;0.124122;64.8223;109.822;0.00501594;-0.000731717;-0.0022169;0.002927;0.00599711;0.00139166;0.0126399;0;0.0169701;0.0476249;-0.764442;-0.703009;1.03965;-7.28572;-0.0035857;-0.000434346;0.0130901;0.0131015;-0.003597;0.00834923;0.273924;3.65065;0.0101481;0.0111323;3.64232;0.27455;122.134;167.134;-0.0145107;-0.0036276;0.00842474;-0.00914757;0.0130552;0.0155489;0.0232015;0;0.0333642;8.11714;2.12706
287000;288;26.5101;0.219496;0.00834882;-2.06011;26.4066;-1.11169;-0.0552493;0.199431;-0.508608;0.104151;-0.566936;-0.204203;0.611524;-6.06858;-0.000887288;0.000365334;0.00584149;0.00586126;-0.000907065;0.00338416;0.151894;6.58353;0.00424231;0.00451222;6.46179;0.154756;64.2493;109.249;0.00505652;-0.000891343;-0.00215601;0.00286981;0.00583924;0.00163913;0.0132498;0;0.0185519;0.0464931;-0.771779;-0.704137;1.04576;-7.28685;-0.00385393;-0.000398532;0.0135573;0.0135664;-0.00386305;0.00871473;0.28427;3.51778;0.0105699;0.0116196;3.51184;0.284751;121.913;166.913;-0.0148585;-0.00389692;0.00862123;-0.00926332;0.0135207;0.0150708;0.0239002;0;0.0335218;8.12656;2.13443
288000;289;26.5171;0.226469;0.00861405;-2.06104;26.4134;-1.1134;-0.0561752;0.206287;-0.510328;0.103933;-0.567019;-0.205674;0.612057;-6.07005;-0.00083363;0.000325436;0.00602554;0.00604094;-0.000849036;0.00344499;0.13835;7.22807;0.00433809;0.00459332;7.11506;0.140547;65.2907;110.291;0.00525278;-0.000837594;-0.00219944;0.00283309;0.00602318;0.00227809;0.0131903;0;0.0172217;0.0457349;-0.778558;-0.708269;1.05351;-7.29098;-0.00385329;-0.000641141;0.0145931;0.0146154;-0.00387555;0.00924548;0.264048;3.78719;0.01126;0.0123273;3.77118;0.265169;121.646;166.646;-0.0143861;-0.00390056;0.0086115;-0.0097255;0.0145568;0.0152148;0.0241176;0;0.0309183;8.14521;2.14182
289000;290;26.5221;0.231514;0.00880595;-2.06187;26.4181;-1.12061;-0.0570054;0.210982;-0.517537;0.104624;-0.566212;-0.204035;0.610879;-6.06841;-0.000958112;0.000152746;0.00607575;0.00607906;-0.000961428;0.00352025;0.157695;6.34137;0.00440827;0.00469366;6.32295;0.158154;66.7543;111.754;0.0050884;-0.000961549;-0.00233666;0.00262474;0.00607305;0.00200623;0.0132573;0;0.0197103;0.0453185;-0.784867;-0.708008;1.05799;-7.29072;-0.00391537;-0.00080514;0.0157834;0.0158163;-0.00394823;0.00988226;0.248068;4.03115;0.0120773;0.0131764;4.00592;0.24963;120.8;165.8;-0.0140553;-0.0039647;0.00851639;-0.00994583;0.0157481;0.0150414;0.0224664;0;0.0312877;8.14542;2.14868
290000;291;26.5267;0.236083;0.00897973;-2.06191;26.4228;-1.11826;-0.0570505;0.215665;-0.515184;0.104216;-0.565479;-0.207207;0.611197;-6.07158;-0.000826179;0.000330742;0.0062363;0.00625176;-0.000841634;0.0035467;0.132479;7.54837;0.00447484;0.00472893;7.42812;0.134624;65.6281;110.628;0.0055654;-0.000830301;-0.00224574;0.00288914;0.00623385;0.00116479;0.0135345;0;0.0168404;0.0442389;-0.791294;-0.712975;1.06604;-7.29569;-0.00412497;-0.000716238;0.0165837;0.0166084;-0.00414972;0.0103791;0.248737;4.02031;0.0126838;0.0138388;4.0023;0.249856;119.874;164.874;-0.0138532;-0.00417396;0.00866225;-0.00990362;0.016547;0.0159337;0.0225526;0;0.0284175;8.14808;2.14946
291000;292;26.5334;0.242751;0.00923336;-2.06245;26.4297;-1.11248;-0.0575867;0.222562;-0.509401;0.10327;-0.565383;-0.203312;0.609637;-6.06769;-0.000976173;0.000320318;0.00593445;0.00594927;-0.000990989;0.00347013;0.164493;6.0793;0.00433444;0.00462684;6.00337;0.166573;64.2701;109.27;0.00495984;-0.00098034;-0.00228043;0.0029032;0.00593192;0.00219587;0.0132372;0;0.0227844;0.0422976;-0.798201;-0.711021;1.0698;-7.29373;-0.00435011;-0.000660876;0.0172333;0.0172536;-0.00437033;0.0108119;0.252424;3.96158;0.0132025;0.0144159;3.94788;0.2533;119.215;164.215;-0.0138937;-0.00439868;0.00873345;-0.00985582;0.0171961;0.0165495;0.02164;0;0.0335014;8.16022;2.15576
292000;293;26.5387;0.248114;0.00943736;-2.06368;26.4347;-1.11933;-0.0588198;0.227561;-0.516251;0.10344;-0.565502;-0.202978;0.609666;-6.06735;-0.00078359;0.000598005;0.006012;0.00606422;-0.000835812;0.00345002;0.130338;7.67238;0.00434828;0.00460002;7.25549;0.137827;62.7991;107.799;0.0051576;-0.000788411;-0.00198246;0.00316103;0.00601023;0.00133721;0.0140906;0;0.0167271;0.0414533;-0.805768;-0.714069;1.07744;-7.29678;-0.0045003;-0.000628442;0.0173752;0.0173932;-0.00451834;0.0109558;0.259008;3.86089;0.0133588;0.0146077;3.84947;0.259776;118.328;163.328;-0.013673;-0.00454353;0.008232;-0.00929832;0.0173421;0.0160429;0.0227864;0;0.0351438;8.17429;2.16319
293000;294;26.5485;0.25791;0.00980996;-2.06482;26.4445;-1.11677;-0.0599544;0.237414;-0.513692;0.10364;-0.566814;-0.200562;0.610118;-6.06494;-0.000863298;0.000207489;0.00562307;0.0056297;-0.000869928;0.00324982;0.153528;6.51348;0.00407419;0.00433309;6.47146;0.154525;64.74;109.74;0.00524281;-0.000867056;-0.00234985;0.00274833;0.00562035;0.00135914;0.0137445;0;0.0168134;0.040773;-0.814352;-0.713731;1.08363;-7.29644;-0.00472702;-0.000507194;0.0172649;0.0172766;-0.00473871;0.0110077;0.273794;3.65239;0.01338;0.0146769;3.64584;0.274285;118.145;163.145;-0.0139051;-0.0047679;0.00820885;-0.00903477;0.0172319;0.0167021;0.0246418;0;0.0372567;8.18289;2.17032
294000;295;26.555;0.264368;0.0100556;-2.06466;26.4507;-1.1255;-0.0597936;0.24354;-0.522427;0.103737;-0.566999;-0.201445;0.610597;-6.06582;-0.000807946;0.000391367;0.0061656;0.00618749;-0.000829841;0.00350867;0.131041;7.6312;0.00442761;0.00467822;7.45623;0.134116;64.9135;109.914;0.00542075;-0.000812249;-0.00219373;0.00295855;0.00616328;0.001577;0.0133023;0;0.0220249;0.0401543;-0.821152;-0.716329;1.09043;-7.29904;-0.00491889;-0.000459777;0.0173113;0.0173208;-0.0049284;0.0111246;0.284143;3.51935;0.0134934;0.0148328;3.51449;0.284536;118.064;163.064;-0.0143918;-0.00495877;0.0081904;-0.0089209;0.0172785;0.0174214;0.0249519;0;0.0403681;8.19014;2.17805
295000;296;26.5651;0.274513;0.0104415;-2.0656;26.4606;-1.12991;-0.0607372;0.253464;-0.526836;0.103547;-0.567881;-0.198518;0.610427;-6.06289;-0.00095011;0.000381039;0.00599652;0.00601735;-0.000970948;0.00349415;0.158444;6.31139;0.00437131;0.00465887;6.1974;0.161358;64.6473;109.647;0.0052991;-0.000954121;-0.00211161;0.00285647;0.00599437;0.0017487;0.012769;0;0.0188721;0.0391575;-0.829857;-0.714752;1.09593;-7.29747;-0.00505995;-0.000506308;0.0178114;0.0178226;-0.00507116;0.0114469;0.284085;3.52007;0.0138843;0.0152625;3.51451;0.284535;118.071;163.071;-0.0140079;-0.00510202;0.00834993;-0.00916349;0.0177773;0.0160891;0.0253533;0;0.0353827;8.20146;2.18503
296000;297;26.5722;0.281592;0.0107107;-2.06774;26.4673;-1.1351;-0.0628734;0.260182;-0.532024;0.103893;-0.567276;-0.198242;0.609832;-6.06262;-0.000911339;0.000318193;0.00611452;0.0061289;-0.00092572;0.00352731;0.149045;6.70938;0.00442689;0.00470308;6.62069;0.151042;64.9228;109.923;0.00538196;-0.000915552;-0.00230078;0.00291887;0.00611194;0.002014;0.0141899;0;0.0187382;0.0383509;-0.83683;-0.716894;1.10258;-7.29961;-0.00509144;-0.000627851;0.0187679;0.0187844;-0.00510795;0.0119462;0.271285;3.68616;0.014528;0.0159282;3.67748;0.271925;117.652;162.652;-0.0128605;-0.00513639;0.00843521;-0.00947861;0.0187331;0.0129853;0.0186533;0;0.0347602;8.20409;2.19302
297000;298;26.5775;0.2869;0.0109126;-2.06894;26.4725;-1.13632;-0.0640806;0.265365;-0.533239;0.104496;-0.568977;-0.192955;0.609824;-6.05733;-0.00106055;0.000629587;0.00603957;0.00609496;-0.00111595;0.00360546;0.175601;5.69473;0.00448184;0.00480727;5.46168;0.183094;62.1354;107.135;0.00462846;-0.00106541;-0.00193781;0.00317886;0.0060379;0.00252589;0.0143295;0;0.0161954;0.0376534;-0.845287;-0.714429;1.1074;-7.29714;-0.00518608;-0.000624154;0.0199284;0.0199439;-0.00520158;0.0125728;0.260235;3.84268;0.0153269;0.0167637;3.83421;0.26081;116.545;161.545;-0.0122782;-0.00523112;0.00846223;-0.00948675;0.0198935;0.0127922;0.0199991;0;0.0332642;8.21421;2.19953
298000;299;26.5834;0.292768;0.0111358;-2.06957;26.4784;-1.13473;-0.0647079;0.271275;-0.531649;0.104576;-0.567654;-0.192749;0.608539;-6.05712;-0.00110329;0.000691984;0.0062116;0.00627649;-0.00116818;0.00372233;0.177618;5.63005;0.00462318;0.00496311;5.37288;0.18612;61.9285;106.929;0.00529212;-0.00110846;-0.00192028;0.00328525;0.00621001;0.00133179;0.0132771;0;0.0272691;0.0372527;-0.851419;-0.715116;1.11252;-7.29783;-0.00548252;-0.000552939;0.0209166;0.0209282;-0.0054941;0.0132111;0.262114;3.81514;0.0160991;0.0176148;3.80921;0.262522;115.469;160.469;-0.0126902;-0.00552569;0.00840877;-0.00928287;0.0208821;0.0165609;0.0226548;0;0.0430443;8.22518;2.2069
299000;300;26.589;0.298371;0.0113489;-2.06874;26.4843;-1.13023;-0.0638812;0.277157;-0.527153;0.10385;-0.567951;-0.19906;0.610719;-6.06343;-0.000855312;0.000254671;0.00626339;0.00627249;-0.000864411;0.00356845;0.136557;7.32294;0.00449757;0.00475794;7.25638;0.13781;66.8492;111.849;0.00510686;-0.000858949;-0.00221609;0.00270795;0.00626099;0.0024438;0.0123904;0;0.0173487;0.0357173;-0.860695;-0.723581;1.12501;-7.30629;-0.00543483;-0.000409764;0.0210762;0.0210825;-0.00544117;0.0132618;0.257866;3.87798;0.0161767;0.0176825;3.87463;0.258089;114.525;159.525;-0.0121877;-0.00547432;0.00827773;-0.00887167;0.0210427;0.0139111;0.0218847;0;0.038726;8.22883;2.21403
300000;301;26.5977;0.307094;0.0116807;-2.07055;26.4928;-1.1329;-0.0656863;0.285659;-0.529823;0.104687;-0.568293;-0.196234;0.610266;-6.06061;-0.00105959;0.000406623;0.00605875;0.0060819;-0.00108274;0.00358232;0.174886;5.71802;0.00445955;0.00477643;5.61714;0.178027;64.0339;109.034;0.00562539;-0.00106384;-0.00214805;0.00294322;0.00605654;0.000161261;0.0143043;0;0.0183035;0.0357764;-0.867865;-0.722617;1.12989;-7.30533;-0.00549222;-0.000355657;0.0210342;0.021039;-0.00549699;0.013268;0.261109;3.82982;0.0161728;0.0176906;3.82736;0.261277;113.785;158.785;-0.0123659;-0.00552765;0.0079052;-0.00840187;0.0210036;0.0146252;0.0262984;0;0.0394824;8.23053;2.21595
301000;302;26.6039;0.313296;0.0119166;-2.07087;26.4986;-1.1416;-0.0660056;0.291488;-0.538518;0.104051;-0.56993;-0.192866;0.610609;-6.05724;-0.000823619;0.000435405;0.00621184;0.00623868;-0.000850463;0.00354457;0.132589;7.54213;0.00446966;0.0047261;7.33563;0.136321;65.557;110.557;0.00517601;-0.000827581;-0.00199355;0.00284738;0.00620996;0.00115169;0.0127599;0;0.0179527;0.0337185;-0.87623;-0.722618;1.13626;-7.30533;-0.00569926;-0.000306416;0.0210151;0.0210186;-0.00570278;0.0133607;0.271199;3.68733;0.0162503;0.0178142;3.68567;0.271321;114.556;159.556;-0.0132532;-0.00573765;0.00835618;-0.00874233;0.0209809;0.0172314;0.0272566;0;0.037142;8.25514;2.22609
302000;303;26.6144;0.323751;0.0123143;-2.07126;26.509;-1.14413;-0.0663979;0.301844;-0.541054;0.104127;-0.566753;-0.195039;0.608352;-6.05941;-0.000979216;0.00049801;0.00634864;0.00638233;-0.00101291;0.00369762;0.15424;6.48339;0.00462961;0.00493016;6.30101;0.158705;64.4484;109.448;0.00526556;-0.000983699;-0.00205665;0.00303407;0.00634666;0.00104729;0.0134659;0;0.0171226;0.0329005;-0.882199;-0.726896;1.14356;-7.30961;-0.00577534;-0.000387465;0.0212843;0.0212899;-0.00578088;0.0135354;0.271342;3.68538;0.0164621;0.0180472;3.6828;0.271532;114.654;159.654;-0.0129835;-0.00581501;0.00834699;-0.00889046;0.0212503;0.0166242;0.0273693;0;0.0401674;8.25506;2.2318
303000;304;26.6243;0.333646;0.0126907;-2.07409;26.5187;-1.14354;-0.069222;0.311584;-0.540459;0.103945;-0.569488;-0.192091;0.609935;-6.05647;-0.000959598;0.000457352;0.00625961;0.00628847;-0.000988457;0.00363846;0.1533;6.52316;0.00455767;0.00485129;6.36191;0.157186;64.1638;109.164;0.00542102;-0.000964173;-0.00216199;0.0030579;0.00625739;0.000953492;0.0132325;0;0.0224089;0.0321358;-0.891836;-0.725937;1.15039;-7.30865;-0.00582339;-0.000470203;0.0220601;0.0220681;-0.00583131;0.0139497;0.263978;3.7882;0.0169927;0.0185996;3.78441;0.264242;114.407;159.407;-0.0127308;-0.0058652;0.00843281;-0.0091303;0.0220255;0.0160689;0.024717;0;0.03825;8.26155;2.2371
304000;305;26.6292;0.338618;0.0128798;-2.07434;26.5232;-1.15492;-0.06948;0.316061;-0.551847;0.103423;-0.570105;-0.187468;0.608983;-6.05184;-0.000846446;0.000512866;0.00638521;0.0064214;-0.000882637;0.00365202;0.132564;7.54355;0.00460344;0.00486936;7.27524;0.137452;65.0987;110.099;0.00493293;-0.000850769;-0.00197565;0.0029835;0.0063834;0.00165858;0.0136571;0;0.0174424;0.0304401;-0.899518;-0.722241;1.15399;-7.30495;-0.00606102;-0.000400553;0.0229334;0.022939;-0.00606656;0.0145028;0.264288;3.78376;0.0176655;0.019337;3.78122;0.264465;113.797;158.797;-0.0128807;-0.00610284;0.00858001;-0.00912653;0.0228975;0.0162328;0.0226364;0;0.0374817;8.26273;2.24443
305000;306;26.6363;0.345657;0.0131475;-2.07551;26.5304;-1.1504;-0.0706449;0.323234;-0.547326;0.103979;-0.570946;-0.182124;0.608243;-6.0465;-0.000975543;0.000446425;0.0062146;0.00624221;-0.00100315;0.00362268;0.156976;6.3704;0.00453301;0.00483025;6.22258;0.160705;64.3657;109.366;0.00513128;-0.000979928;-0.00211908;0.00299359;0.00621247;0.00158875;0.0137478;0;0.0215826;0.0296299;-0.907382;-0.721696;1.15977;-7.30441;-0.00621907;-0.000181789;0.023717;0.0237181;-0.00622017;0.0149692;0.262219;3.8136;0.0182425;0.0199589;3.8131;0.262254;112.424;157.424;-0.0121689;-0.00625677;0.00854982;-0.00865805;0.0236813;0.0165073;0.0215744;0;0.035153;8.27236;2.25191
306000;307;26.6431;0.352517;0.0134085;-2.07581;26.5375;-1.14396;-0.070945;0.330376;-0.540887;0.102917;-0.567761;-0.197261;0.6098;-6.06164;-0.000924177;0.000258014;0.00654491;0.00655381;-0.000933079;0.00374345;0.141205;7.08188;0.00471114;0.00499126;7.02385;0.142372;68.1646;113.165;0.00516736;-0.000927508;-0.00209431;0.00259288;0.00654276;0.00101997;0.0135431;0;0.0254431;0.0282241;-0.913958;-0.734979;1.17316;-7.31769;-0.00606126;-0.000366474;0.0242849;0.0242894;-0.00606569;0.0151775;0.24959;4.00658;0.0185484;0.0202367;4.00438;0.249726;111.982;156.982;-0.0110342;-0.00609946;0.008243;-0.00872085;0.0242518;0.0157942;0.0233462;0;0.0416902;8.28249;2.25864
307000;308;26.6483;0.357667;0.0136044;-2.0764;26.5424;-1.14868;-0.0715333;0.335298;-0.545599;0.104033;-0.569129;-0.194006;0.61022;-6.05838;-0.00100065;0.000606848;0.00637311;0.00642272;-0.00105026;0.00373649;0.157012;6.36896;0.00467142;0.00498199;6.11536;0.163523;64.0168;109.017;0.0053001;-0.00100521;-0.00188355;0.003079;0.00637153;0.000491262;0.0131407;0;0.0184134;0.0282903;-0.922387;-0.736193;1.1805;-7.31891;-0.0062378;-0.000236397;0.0243464;0.0243482;-0.00623963;0.0152939;0.25621;3.90304;0.018663;0.0203919;3.90219;0.256266;110.853;155.853;-0.0121805;-0.00627026;0.00780218;-0.00803495;0.0243167;0.0161853;0.0270759;0;0.0399214;8.29742;2.26634
308000;309;26.6571;0.366468;0.0139391;-2.07589;26.5511;-1.15303;-0.0710288;0.343985;-0.549949;0.103977;-0.569776;-0.196079;0.611476;-6.06045;-0.000921907;0.000299435;0.00607998;0.00609276;-0.000934689;0.00351372;0.15163;6.595;0.00440657;0.00468496;6.51849;0.15341;65.8717;110.872;0.00515362;-0.000925608;-0.00215434;0.00273613;0.00607771;0.00192523;0.0132889;0;0.018064;0.0276153;-0.930889;-0.740128;1.18958;-7.32284;-0.00619609;-0.000210034;0.0243737;0.0243752;-0.00619753;0.0152863;0.254212;3.93373;0.0186622;0.0203818;3.93304;0.254256;110.944;155.944;-0.0124984;-0.00622921;0.0079403;-0.00811713;0.024343;0.0183769;0.0293566;0;0.0390008;8.30516;2.27289
309000;310;26.666;0.375355;0.0142771;-2.07787;26.5596;-1.15907;-0.0730058;0.352489;-0.555998;0.10265;-0.572591;-0.18622;0.610799;-6.05059;-0.000910819;0.000223501;0.0062586;0.00626556;-0.000917779;0.00359167;0.145531;6.8714;0.00451417;0.00478889;6.82687;0.14648;67.1494;112.149;0.00487142;-0.000914289;-0.00221319;0.00264283;0.00625619;0.00263137;0.012355;0;0.0232635;0.0249479;-0.941102;-0.731744;1.19237;-7.31446;-0.00633367;-0.000215059;0.024583;0.0245845;-0.00633517;0.0154598;0.257644;3.88132;0.0188595;0.0206131;3.88064;0.257689;111.703;156.703;-0.0126316;-0.00637076;0.00841776;-0.00858736;0.0245485;0.0181926;0.0264387;0;0.0415899;8.30743;2.28074
310000;311;26.6758;0.385227;0.0146526;-2.08059;26.5692;-1.16067;-0.0757223;0.362118;-0.557592;0.103088;-0.57363;-0.182651;0.61077;-6.04703;-0.00101478;0.000525309;0.00641151;0.00644848;-0.00105175;0.00375012;0.158274;6.31815;0.00468906;0.00500016;6.13119;0.163101;64.8117;109.812;0.0052402;-0.00101909;-0.00195063;0.00298297;0.00640976;0.00157154;0.0130863;0;0.016842;0.0242389;-0.949691;-0.729783;1.19795;-7.3125;-0.00646987;-0.000268892;0.0250821;0.0250844;-0.00647216;0.0157783;0.257948;3.87675;0.0192465;0.0210377;3.87574;0.258016;111.604;156.604;-0.0121116;-0.00650788;0.00842402;-0.00869422;0.0250475;0.0178681;0.0240932;0;0.0411802;8.30959;2.28734
311000;312;26.6834;0.392763;0.0149393;-2.08125;26.5765;-1.16559;-0.0763887;0.369417;-0.562517;0.103096;-0.572239;-0.187013;0.610787;-6.05139;-0.000983699;0.000402097;0.00627645;0.00629865;-0.0010059;0.00365228;0.156729;6.38046;0.00457144;0.0048697;6.2617;0.159701;65.4313;110.431;0.00515537;-0.000987696;-0.0020681;0.00285447;0.00627441;0.00178534;0.0135764;0;0.0167881;0.0233561;-0.955821;-0.738309;1.20799;-7.32102;-0.00653316;-0.000223727;0.025694;0.0256955;-0.00653471;0.0161151;0.254268;3.93286;0.0196737;0.0214868;3.93216;0.254313;111.17;156.17;-0.011814;-0.00657114;0.00851675;-0.00868956;0.0256586;0.0178949;0.0218919;0;0.0378493;8.32101;2.29436
312000;313;26.6881;0.397472;0.0151184;-2.08158;26.5813;-1.16474;-0.076718;0.374157;-0.561663;0.102424;-0.573257;-0.187122;0.611661;-6.0515;-0.000931542;0.000403294;0.00627234;0.00629485;-0.000954049;0.00362445;0.148516;6.73329;0.00454806;0.0048326;6.59803;0.15156;65.2447;110.245;0.00553976;-0.000935683;-0.00211619;0.00290474;0.0062702;0.000833122;0.0129413;0;0.0198762;0.0213614;-0.964757;-0.738691;1.21527;-7.3214;-0.00671268;-0.000273436;0.0265195;0.0265217;-0.00671493;0.0166183;0.253123;3.95065;0.0202932;0.0221578;3.94966;0.253186;109.78;154.78;-0.0106531;-0.00674613;0.00787283;-0.00815596;0.0264893;0.0132578;0.0247327;0;0.0365605;8.3239;2.29621
313000;314;26.692;0.401422;0.0152686;-2.08071;26.5853;-1.16531;-0.0758419;0.378166;-0.562234;0.102122;-0.575009;-0.180571;0.611285;-6.04495;-0.000890556;0.000503912;0.00648702;0.00652128;-0.000924816;0.00372305;0.137283;7.28424;0.00468631;0.00496407;7.05144;0.141815;65.4273;110.427;0.00542691;-0.000894839;-0.00197884;0.00296846;0.0064852;0.000504722;0.0126492;0;0.0178484;0.0214145;-0.9723;-0.741479;1.22295;-7.32419;-0.00683089;-0.0004092;0.0272225;0.0272274;-0.00683581;0.0170316;0.250928;3.98521;0.0208079;0.0227088;3.98306;0.251063;109.07;154.07;-0.0105121;-0.006863;0.00743797;-0.0079962;0.0271957;0.0118251;0.0265469;0;0.0437184;8.34268;2.3053
314000;315;26.7024;0.411794;0.0156631;-2.08252;26.5959;-1.1578;-0.0776519;0.388766;-0.554725;0.104597;-0.573043;-0.187512;0.611947;-6.05189;-0.000993131;0.000573354;0.00643625;0.00648024;-0.00103712;0.00375868;0.154303;6.48077;0.00470413;0.00501157;6.24832;0.160043;64.8001;109.8;0.00516819;-0.000997447;-0.00186333;0.00299205;0.00643469;0.00183766;0.012548;0;0.0198777;0.0218637;-0.981999;-0.7415;1.2307;-7.32421;-0.00680734;-0.000275862;0.0273396;0.0273419;-0.00680957;0.0170757;0.248992;4.0162;0.0208714;0.0227676;4.01521;0.249053;108.153;153.153;-0.011284;-0.00683589;0.00723358;-0.00753569;0.0273142;0.0159344;0.0303199;0;0.0435918;8.34905;2.31117
315000;316;26.7116;0.420941;0.0160111;-2.08315;26.6045;-1.17076;-0.0782863;0.397333;-0.567682;0.104397;-0.574769;-0.182027;0.611876;-6.0464;-0.000978527;0.000517148;0.00680239;0.00683661;-0.00101275;0.00392468;0.14385;6.95166;0.00493012;0.0052329;6.75055;0.148136;66.1552;111.155;0.00537167;-0.00098281;-0.00195573;0.00297091;0.00680062;0.000718257;0.0130898;0;0.0178209;0.0210018;-0.990519;-0.744656;1.23939;-7.32737;-0.00685384;-0.000153815;0.027437;0.0274377;-0.00685453;0.0171461;0.249803;4.00316;0.0209538;0.0228615;4.00286;0.249822;108.434;153.434;-0.0116278;-0.00688367;0.00765083;-0.00769797;0.0274086;0.0162739;0.0293544;0;0.040884;8.34964;2.31782
316000;317;26.7176;0.426936;0.0162391;-2.08402;26.6103;-1.17333;-0.0791543;0.403171;-0.57025;0.102468;-0.575119;-0.183607;0.61235;-6.04798;-0.000930331;0.000532807;0.00675366;0.00679043;-0.0009671;0.00387876;0.137752;7.25941;0.00488136;0.00517168;7.02143;0.142421;66.2617;111.262;0.0049919;-0.000934515;-0.00189299;0.00294009;0.00675202;0.00154614;0.0120123;0;0.0182688;0.0182945;-0.997931;-0.746931;1.24664;-7.32964;-0.00660862;-0.000169847;0.0277927;0.0277935;-0.00660946;0.0172015;0.237783;4.20552;0.0210804;0.0229353;4.20511;0.237806;108.234;153.234;-0.0114372;-0.00663929;0.00773311;-0.00780828;0.0277636;0.0189854;0.0268901;0;0.0426949;8.34688;2.32534
317000;318;26.7295;0.438844;0.016692;-2.08654;26.622;-1.17435;-0.0816772;0.414884;-0.57127;0.102858;-0.576215;-0.182078;0.61299;-6.04645;-0.000913624;0.000291886;0.00668306;0.00669426;-0.000924823;0.00380954;0.136707;7.31489;0.0048009;0.00507939;7.23842;0.138152;68.4641;113.464;0.00501179;-0.000916968;-0.00203493;0.00260114;0.00668105;0.00221542;0.013156;0;0.0168207;0.0172607;-1.00702;-0.74517;1.25286;-7.32788;-0.00651186;-0.000260886;0.0279219;0.0279239;-0.00651384;0.0172189;0.233217;4.28785;0.0211247;0.0229585;4.28686;0.233271;108.625;153.625;-0.0119355;-0.00654501;0.0078704;-0.00811977;0.0278918;0.0193124;0.0249225;0;0.043156;8.36096;2.33267
318000;319;26.7361;0.44552;0.016946;-2.08787;26.6283;-1.18085;-0.0830078;0.421195;-0.57777;0.101542;-0.575874;-0.183081;0.612748;-6.04746;-0.00107486;0.000423465;0.00668607;0.00670911;-0.0010979;0.00390351;0.160761;6.22041;0.00488005;0.00520467;6.11087;0.163643;67.6569;112.657;0.00508102;-0.00107829;-0.00182177;0.00265139;0.00668452;0.00133273;0.0131633;0;0.0208642;0.0152331;-1.01399;-0.750669;1.26171;-7.33338;-0.00647149;-0.000150249;0.0286657;0.0286663;-0.00647214;0.0175692;0.225757;4.42953;0.021594;0.0234257;4.42919;0.225775;107.804;152.804;-0.0109881;-0.00650309;0.00789991;-0.00792542;0.0286354;0.0174155;0.0243908;0;0.0437738;8.3663;2.33992
319000;320;26.7413;0.450697;0.0171429;-2.08634;26.6337;-1.17971;-0.0814748;0.426564;-0.576637;0.104122;-0.578915;-0.173474;0.613252;-6.03785;-0.00107893;0.000408009;0.00646814;0.00649013;-0.00110092;0.00379553;0.166807;5.99497;0.00473657;0.0050607;5.89518;0.16963;66.4471;111.447;0.00517701;-0.00108262;-0.0019465;0.00274486;0.00646634;0.0021306;0.0132311;0;0.0163223;0.0174885;-1.02405;-0.748431;1.26852;-7.33114;-0.00721449;-0.00024828;0.0298898;0.0298915;-0.00721615;0.0185538;0.241369;4.14303;0.0227183;0.0247384;4.14231;0.241411;106.54;151.54;-0.0102485;-0.00724191;0.00715391;-0.00738378;0.029865;0.011576;0.0292076;0;0.0422074;8.38446;2.34738
320000;321;26.7497;0.459035;0.01746;-2.08794;26.6421;-1.17643;-0.0830752;0.434956;-0.573352;0.103183;-0.573714;-0.186978;0.612173;-6.05135;-0.000998509;0.00035296;0.0069306;0.00694628;-0.00101419;0.00398023;0.144073;6.94094;0.0050033;0.00530698;6.84909;0.146005;67.9919;112.992;0.00507187;-0.00100223;-0.00206173;0.00274863;0.00692855;0.00183505;0.0124859;0;0.0296849;0.0150087;-1.02953;-0.759072;1.2792;-7.34179;-0.00700202;-0.000323447;0.0301376;0.0301404;-0.00700483;0.0185726;0.232335;4.30412;0.0227902;0.0247635;4.3028;0.232407;106.27;151.27;-0.0103447;-0.00702946;0.00700698;-0.00738957;0.0301138;0.0164064;0.0280676;0;0.0494219;8.38027;2.35508
321000;322;26.7538;0.463217;0.0176191;-2.08887;26.6462;-1.17641;-0.0840036;0.439082;-0.57333;0.10146;-0.577672;-0.178759;0.61315;-6.04313;-0.00103411;0.000429843;0.00662561;0.00664966;-0.00105816;0.00385391;0.156078;6.40705;0.00482466;0.00513854;6.28418;0.15913;66.7373;111.737;0.00487694;-0.0010379;-0.00194417;0.00278579;0.00662382;0.00192442;0.0124137;0;0.0178405;0.0123231;-1.03975;-0.749961;1.28206;-7.33267;-0.00705022;-0.00022236;0.0298869;0.0298883;-0.00705156;0.0184699;0.235896;4.23915;0.022645;0.0246266;4.23853;0.235931;105.026;150.026;-0.0109998;-0.00707222;0.0064054;-0.00661241;0.029867;0.0151535;0.0305719;0;0.0457656;8.38684;2.36213
322000;323;26.7643;0.473713;0.0180183;-2.0889;26.6562;-1.18965;-0.0840328;0.449031;-0.586577;0.102851;-0.577746;-0.178709;0.613438;-6.04308;-0.00100376;0.000358849;0.00636962;0.00638705;-0.00102118;0.00370411;0.157585;6.34577;0.00463607;0.00493882;6.25456;0.159883;66.7305;111.73;0.00520983;-0.00100731;-0.00198894;0.00268943;0.00636772;0.0013865;0.0133628;0;0.0179125;0.0131724;-1.0481;-0.757339;1.29316;-7.34005;-0.00693323;-0.000105796;0.0304676;0.0304679;-0.00693352;0.0187007;0.227561;4.39443;0.0229745;0.0249343;4.39429;0.227568;105.888;150.888;-0.0105879;-0.00695982;0.00732702;-0.00726883;0.0304415;0.0168937;0.0287771;0;0.0452447;8.39063;2.36732
323000;324;26.7734;0.482743;0.0183618;-2.09083;26.665;-1.19059;-0.0859695;0.457904;-0.587509;0.103006;-0.577138;-0.182335;0.613958;-6.04671;-0.000923741;0.000567489;0.00664865;0.00669095;-0.000966033;0.00382849;0.138936;7.19753;0.00481505;0.00510465;6.92621;0.144379;65.8884;110.888;0.00573793;-0.000927917;-0.00182704;0.002944;0.00664716;-0.000257287;0.0124643;0;0.0188995;0.0122967;-1.05557;-0.762023;1.30194;-7.34474;-0.00679009;-7.35289e-05;0.0307054;0.0307055;-0.00679024;0.0187479;0.221137;4.52208;0.0230693;0.0249972;4.52201;0.221141;105.992;150.992;-0.0106884;-0.00681798;0.0075737;-0.00744256;0.0306775;0.0188659;0.0256292;0;0.048013;8.39716;2.37201
324000;325;26.7828;0.492187;0.018721;-2.09179;26.6741;-1.19719;-0.0869314;0.467015;-0.594112;0.103459;-0.575477;-0.183633;0.612861;-6.04801;-0.00106518;0.000395061;0.00715882;0.00717775;-0.00108411;0.00413093;0.148792;6.72078;0.00518446;0.00550791;6.62087;0.151038;68.8724;113.872;0.00448935;-0.00106867;-0.0018998;0.00267118;0.0071571;0.00235539;0.0117356;0;0.0197003;0.0119241;-1.06111;-0.767715;1.30976;-7.35043;-0.00679907;-0.000110575;0.0307098;0.0307101;-0.00679939;0.0187548;0.221397;4.51677;0.0230762;0.0250063;4.5166;0.221406;106.107;151.107;-0.0107689;-0.00682747;0.00757015;-0.00751178;0.030682;0.0189204;0.025668;0;0.0465704;8.40567;2.37879
325000;326;26.7881;0.497532;0.0189243;-2.09207;26.6791;-1.20525;-0.0872099;0.471997;-0.602176;0.102709;-0.5799;-0.17841;0.615356;-6.04278;-0.00106777;0.000387158;0.00663162;0.00665104;-0.00108719;0.00386911;0.161012;6.2107;0.00483732;0.00515882;6.11763;0.163462;67.2531;112.253;0.00482349;-0.00107135;-0.00194421;0.0027007;0.00662981;0.00208069;0.0130833;0;0.0182579;0.00991309;-1.07381;-0.766908;1.31959;-7.34962;-0.00680374;-4.45668e-05;0.031813;0.031813;-0.00680379;0.0193084;0.213867;4.67581;0.023803;0.0257446;4.67579;0.213868;104.933;149.933;-0.00977194;-0.00682949;0.00734;-0.00715276;0.0317869;0.0145672;0.0298152;0;0.0457849;8.42278;2.38686
326000;327;26.7962;0.505567;0.01923;-2.0924;26.6875;-1.19845;-0.0875363;0.480346;-0.595373;0.101887;-0.580218;-0.176884;0.615078;-6.04126;-0.000964556;0.000398516;0.00632559;0.00634731;-0.000986276;0.0036668;0.152485;6.55804;0.00459571;0.00488906;6.43564;0.155385;66.9872;111.987;0.00512629;-0.00096794;-0.00184994;0.00263068;0.00632397;0.00171901;0.0134473;0;0.0172094;0.00805214;-1.08326;-0.766059;1.32678;-7.34877;-0.00728993;-0.000405279;0.0325261;0.0325302;-0.00729405;0.0199121;0.224126;4.46178;0.024483;0.0265495;4.45982;0.224224;104.288;149.288;-0.00853308;-0.00731391;0.00636217;-0.00691175;0.0325065;0.00962234;0.0304138;0;0.0465186;8.42165;2.39236
327000;328;26.8026;0.511943;0.0194725;-2.09361;26.6937;-1.19948;-0.0887461;0.486607;-0.596405;0.102145;-0.579731;-0.17869;0.615185;-6.04306;-0.00106381;0.000279124;0.00678372;0.00679363;-0.00107372;0.00393368;0.156818;6.37682;0.00492616;0.0052449;6.32717;0.158049;69.1966;114.197;0.00503874;-0.00106684;-0.00193517;0.00247616;0.0067819;0.00145112;0.0126517;0;0.021496;0.00730332;-1.09031;-0.770949;1.33536;-7.35366;-0.00749552;-0.000252274;0.0324035;0.0324051;-0.00749712;0.0199511;0.231319;4.32304;0.024488;0.0266015;4.32234;0.231356;103.125;148.125;-0.0104362;-0.00751463;0.00589598;-0.00616291;0.0323867;0.0139657;0.030105;0;0.0493776;8.41959;2.40011
328000;329;26.8095;0.518911;0.0197375;-2.09336;26.7009;-1.19688;-0.088494;0.493739;-0.5938;0.101912;-0.581937;-0.173497;0.615742;-6.03787;-0.00110806;0.000408042;0.00644679;0.00646876;-0.00113004;0.0037994;0.171878;5.81808;0.00473436;0.00506586;5.72439;0.174691;66.6699;111.67;0.00502572;-0.00111159;-0.00188833;0.00268717;0.0064451;0.00175972;0.0132061;0;0.0182446;0.00618701;-1.09982;-0.765875;1.34023;-7.34859;-0.00716314;-0.000111242;0.0327374;0.0327377;-0.00716345;0.0199506;0.218806;4.57026;0.0245636;0.0266008;4.5701;0.218813;102.681;147.681;-0.0104466;-0.00718157;0.00606711;-0.00605089;0.0327196;0.0175724;0.0300622;0;0.0489508;8.42647;2.40621
329000;330;26.8188;0.528182;0.0200901;-2.09569;26.7097;-1.2043;-0.0908283;0.502532;-0.601226;0.10194;-0.58097;-0.173186;0.614745;-6.03756;-0.00094945;0.000443034;0.00671805;0.00674357;-0.000974964;0.00385927;0.141328;7.07573;0.00485345;0.00514569;6.91674;0.144577;67.3945;112.394;0.00486208;-0.000953128;-0.00187867;0.00274705;0.0067164;0.0020159;0.0127707;0;0.0181766;0.00572124;-1.10709;-0.769678;1.34836;-7.35239;-0.00684731;-9.15357e-05;0.0332312;0.0332315;-0.00684752;0.0200395;0.20605;4.85318;0.0247545;0.0267193;4.85306;0.206055;103.184;148.184;-0.00972697;-0.00686872;0.00659846;-0.00652202;0.0332102;0.0172559;0.0283846;0;0.0495729;8.43077;2.41364
330000;331;26.829;0.538364;0.0204774;-2.09638;26.7196;-1.20898;-0.0915192;0.51249;-0.605902;0.102369;-0.584662;-0.167112;0.616632;-6.03149;-0.00111828;0.000384963;0.0065852;0.00660439;-0.00113747;0.00387093;0.169817;5.88871;0.00482696;0.00516124;5.80623;0.172229;67.5557;112.556;0.00490309;-0.00112162;-0.00185961;0.00261236;0.00658355;0.00211627;0.0123245;0;0.0325427;0.00500337;-1.11835;-0.765935;1.3555;-7.34865;-0.00670883;-1.80215e-06;0.0334321;0.0334321;-0.00670883;0.0200705;0.20067;4.9833;0.0248283;0.0267606;4.9833;0.20067;103.086;148.086;-0.00998026;-0.00673032;0.00679352;-0.00653318;0.0334098;0.0188057;0.026696;0;0.060843;8.44594;2.42121
331000;332;26.8352;0.544554;0.0207129;-2.09838;26.7252;-1.21874;-0.0935147;0.518106;-0.615658;0.103953;-0.585668;-0.164054;0.617031;-6.02843;-0.00115992;0.000684278;0.00635551;0.0064173;-0.00122172;0.00381951;0.182506;5.47926;0.00473824;0.00509268;5.25269;0.190378;64.6356;109.636;0.00488934;-0.00116388;-0.00154343;0.00289534;0.00635456;0.00113561;0.0121377;0;0.024313;0.00549056;-1.1258;-0.771114;1.36458;-7.35383;-0.0069275;-2.5111e-05;0.0340284;0.0340284;-0.00692752;0.020478;0.20358;4.91207;0.0253128;0.0273039;4.91206;0.20358;102.596;147.596;-0.00942127;-0.00694777;0.00655461;-0.00634422;0.0340076;0.0158686;0.0294491;0;0.0492118;8.45187;2.42906
332000;333;26.8454;0.554787;0.0211021;-2.09721;26.7359;-1.21198;-0.0923469;0.528779;-0.608902;0.103236;-0.583212;-0.174522;0.617457;-6.0389;-0.00104895;0.000405708;0.00683501;0.00685584;-0.00106978;0.00396281;0.153468;6.51604;0.00496571;0.00528374;6.40867;0.156039;68.8958;113.896;0.00477004;-0.00105208;-0.00173816;0.00253279;0.00683359;0.00163741;0.0127131;0;0.0275073;0.00402256;-1.13436;-0.778786;1.37597;-7.3615;-0.00718318;-0.000171295;0.0348355;0.0348362;-0.00718387;0.02101;0.206203;4.84959;0.0259523;0.0280134;4.84922;0.206219;102.95;147.95;-0.00861579;-0.00720583;0.00664352;-0.0067094;0.0348142;0.0145353;0.0301185;0;0.0493085;8.45931;2.43518
333000;334;26.8509;0.560285;0.0213112;-2.09828;26.7413;-1.21346;-0.093417;0.534149;-0.610384;0.102714;-0.582804;-0.173715;0.616756;-6.03809;-0.00119817;0.000643106;0.00681987;0.00687112;-0.00124943;0.00406028;0.175689;5.69189;0.00504902;0.0054137;5.49941;0.181838;66.4295;111.43;0.00471916;-0.00120201;-0.00157204;0.00284061;0.00681885;0.00243897;0.0123045;0;0.0238746;0.00308971;-1.14237;-0.780932;1.38379;-7.36365;-0.00749951;-0.000302587;0.0350331;0.0350352;-0.00750166;0.0212685;0.214069;4.67138;0.0262176;0.0283579;4.67033;0.214118;102.177;147.177;-0.00855845;-0.00751922;0.00591275;-0.00626251;0.0350162;0.0137049;0.0319631;0;0.0508625;8.46228;2.44244
334000;335;26.8548;0.564164;0.0214588;-2.0975;26.7449;-1.22097;-0.0926404;0.537762;-0.617897;0.100928;-0.584793;-0.169662;0.617215;-6.03404;-0.00108171;0.00018006;0.00695988;0.00696391;-0.00108574;0.00402482;0.155421;6.43414;0.00504363;0.00536643;6.41398;0.15591;70.552;115.552;0.00497987;-0.00108444;-0.0019982;0.00234093;0.00695791;0.00213598;0.0124257;0;0.0167553;7.32015e-05;-1.15129;-0.780829;1.3911;-7.36354;-0.00756482;-0.000141709;0.0351886;0.0351891;-0.00756529;0.0213772;0.214979;4.65161;0.0263457;0.0285029;4.65139;0.21499;100.475;145.475;-0.00998977;-0.00757891;0.00522919;-0.00529079;0.0351754;0.0160935;0.0319642;0;0.0485669;8.46337;2.44396
335000;336;26.863;0.57237;0.0217709;-2.09961;26.7529;-1.22256;-0.0947428;0.545765;-0.619484;0.100801;-0.584313;-0.174223;0.61801;-6.0386;-0.000975099;0.000486292;0.00661343;0.00664447;-0.00100613;0.0038253;0.147442;6.78232;0.0048003;0.0051004;6.60395;0.151424;67.5546;112.555;0.0052186;-0.000978511;-0.00169994;0.00265604;0.00661211;0.000838282;0.0127098;0;0.0175864;-0.00116712;-1.15914;-0.787266;1.40121;-7.36998;-0.00718517;-8.26185e-05;0.0356801;0.0356802;-0.00718533;0.0214328;0.201378;4.96579;0.0265085;0.028577;4.96571;0.201381;100.851;145.851;-0.00923157;-0.00720127;0.0057308;-0.00565543;0.0356642;0.0143601;0.0311861;0;0.0513439;8.46657;2.45123
336000;337;26.8733;0.5827;0.0221638;-2.10073;26.7629;-1.22933;-0.0958688;0.555738;-0.626257;0.100151;-0.584952;-0.173085;0.618189;-6.03746;-0.00109523;0.000263131;0.00656313;0.00657216;-0.00110426;0.00383821;0.166876;5.99247;0.00479212;0.00511761;5.95165;0.168021;68.8469;113.847;0.00468019;-0.00109814;-0.00191792;0.00242759;0.00656133;0.00250938;0.0125393;0;0.0164138;-0.00285348;-1.16795;-0.788383;1.40913;-7.3711;-0.00671788;1.48037e-05;0.0358255;0.0358255;-0.00671788;0.0212717;0.187517;5.33286;0.0264093;0.0283622;5.33285;0.187517;101.117;146.117;-0.00869133;-0.00673548;0.00619702;-0.00591349;0.0358069;0.0159058;0.0289704;0;0.0501897;8.47419;2.4577
337000;338;26.8857;0.595044;0.0226333;-2.10324;26.7752;-1.22572;-0.0983776;0.568103;-0.622641;0.0994915;-0.584859;-0.17482;0.618482;-6.03919;-0.00109618;0.000267931;0.00668474;0.00669396;-0.0011054;0.00389968;0.163983;6.09819;0.00487308;0.00519957;6.05569;0.165134;68.8903;113.89;0.00509724;-0.00109921;-0.00195393;0.00247262;0.00668288;0.00183703;0.0122341;0;0.0173205;-0.00437203;-1.17661;-0.791559;1.4181;-7.37427;-0.00644876;0.000116697;0.0360435;0.0360438;-0.00644908;0.0212464;0.178916;5.58921;0.0264424;0.0283286;5.58898;0.178923;101.037;146.037;-0.00782307;-0.00646655;0.00643997;-0.00594723;0.0360235;0.0179862;0.0281562;0;0.0476613;8.48622;2.46556
338000;339;26.8934;0.602757;0.0229267;-2.10366;26.7827;-1.22997;-0.0988003;0.575619;-0.626895;0.100336;-0.587033;-0.170553;0.619486;-6.03493;-0.00100113;0.000295896;0.00655977;0.00657133;-0.00101269;0.00379201;0.152617;6.55236;0.00475454;0.00505601;6.48897;0.154108;69.2209;114.221;0.00514049;-0.00100396;-0.00182023;0.00239612;0.00655816;0.000770276;0.0126326;0;0.0168832;-0.0043895;-1.18716;-0.79138;1.42677;-7.37409;-0.00701528;-0.000114418;0.0370905;0.0370908;-0.00701558;0.0220532;0.189139;5.28711;0.0273672;0.0294043;5.28693;0.189146;100.847;145.847;-0.00775936;-0.00703323;0.00600344;-0.00597209;0.0370732;0.0142266;0.0318798;0;0.052017;8.48919;2.47212
339000;340;26.899;0.608415;0.0231419;-2.10372;26.7884;-1.22933;-0.0988607;0.581326;-0.626249;0.0999243;-0.587514;-0.171037;0.62001;-6.03541;-0.00101587;0.000378153;0.00648192;0.00650094;-0.00103489;0.00376791;0.156723;6.38068;0.00471692;0.00502389;6.28177;0.159191;68.4164;113.416;0.0046667;-0.00101884;-0.00172717;0.0024678;0.0064805;0.00241742;0.0129394;0;0.0195489;-0.00583391;-1.19572;-0.795392;1.43611;-7.37811;-0.00719681;-0.000391718;0.037336;0.0373395;-0.00720026;0.0222699;0.192758;5.18785;0.0276078;0.0296931;5.18585;0.192832;99.7559;144.756;-0.00820915;-0.00721144;0.0048444;-0.00540304;0.0373248;0.0130502;0.0321631;0;0.0507559;8.4938;2.47971
340000;341;26.9039;0.613279;0.0233269;-2.10263;26.7933;-1.23283;-0.097763;0.586134;-0.62975;0.0998766;-0.587651;-0.169938;0.619829;-6.03431;-0.00101964;0.000299768;0.00675151;0.00676306;-0.00103118;0.00389712;0.151024;6.62148;0.00488882;0.00519616;6.55853;0.152473;70.0822;115.082;0.00479713;-0.00102233;-0.00175401;0.00233769;0.00675003;0.00141269;0.011195;0;0.017332;-0.00667197;-1.20372;-0.797063;1.44371;-7.37978;-0.00749527;-0.000214612;0.0379211;0.0379221;-0.00749629;0.0227092;0.197654;5.05934;0.0281153;0.030279;5.05879;0.197676;98.8035;143.804;-0.00797289;-0.00750712;0.00463606;-0.00485303;0.0379108;0.0117802;0.0321086;0;0.0507346;8.49877;2.48775
341000;342;26.9116;0.621016;0.0236212;-2.10512;26.8008;-1.23419;-0.10026;0.593645;-0.631108;0.100366;-0.589032;-0.166271;0.620224;-6.03065;-0.00114456;0.000371462;0.00643579;0.00645395;-0.00116272;0.00380833;0.177842;5.62296;0.004738;0.00507778;5.55076;0.180156;67.9068;112.907;0.00491105;-0.00114757;-0.00175505;0.00248196;0.00643433;0.00255298;0.012105;0;0.0194089;-0.00705308;-1.21264;-0.796594;1.4509;-7.37931;-0.00730452;-0.000124171;0.0381011;0.0381014;-0.00730486;0.0227031;0.191714;5.2161;0.0281536;0.0302709;5.2159;0.191721;98.8795;143.88;-0.00760894;-0.00731676;0.00490304;-0.00493149;0.0380895;0.0128265;0.0309273;0;0.05541;8.50032;2.49383
342000;343;26.9219;0.631237;0.02401;-2.10572;26.8108;-1.23813;-0.100861;0.60368;-0.635054;0.100892;-0.587846;-0.167993;0.619648;-6.03237;-0.00113247;0.000400985;0.00660268;0.00662341;-0.0011532;0.00388831;0.171517;5.83033;0.00484596;0.00518441;5.7435;0.17411;68.0747;113.075;0.00501372;-0.0011356;-0.0017465;0.00253197;0.00660125;0.00128924;0.0122;0;0.0170015;-0.00760289;-1.21958;-0.801809;1.45957;-7.38452;-0.00710883;-1.53484e-05;0.0383629;0.0383629;-0.00710884;0.0227358;0.185305;5.39651;0.0282446;0.0303145;5.3965;0.185305;99.05;144.05;-0.00813644;-0.00712182;0.0052806;-0.00507938;0.0383494;0.0145743;0.0321061;0;0.0540073;8.5065;2.50152
343000;344;26.9295;0.638869;0.0243003;-2.1072;26.8178;-1.2495;-0.102336;0.6107;-0.646419;0.0995928;-0.589149;-0.168056;0.620692;-6.03243;-0.00108401;0.000169638;0.00686075;0.00686437;-0.00108763;0.003976;0.158001;6.32906;0.00497855;0.00530133;6.31132;0.158445;71.3175;116.318;0.00476731;-0.00108638;-0.00186206;0.0021853;0.00685904;0.00271655;0.0119048;0;0.0159811;-0.0100025;-1.22855;-0.805221;1.46895;-7.38793;-0.00644483;0.000237325;0.0387932;0.0387945;-0.00644607;0.0226203;0.166133;6.01928;0.0282578;0.0301604;6.01831;0.16616;99.0502;144.05;-0.00789583;-0.00645844;0.00593014;-0.00520758;0.0387763;0.0154735;0.031156;0;0.0505685;8.51268;2.50832
344000;345;26.9406;0.650006;0.0247239;-2.10853;26.829;-1.2483;-0.103666;0.621834;-0.645227;0.100063;-0.589447;-0.167576;0.62092;-6.03195;-0.00107458;0.000268934;0.00659707;0.00660649;-0.001084;0.00384524;0.162887;6.13921;0.00480658;0.00512699;6.09457;0.16408;70.0496;115.05;0.00442236;-0.00107711;-0.0017438;0.00226632;0.0065956;0.00206435;0.0118912;0;0.0168921;-0.0102661;-1.23895;-0.804502;1.47727;-7.38722;-0.00664023;7.72678e-06;0.0393299;0.0393299;-0.00664024;0.0229851;0.168834;5.92298;0.0286907;0.0306468;5.92298;0.168834;99.1616;144.162;-0.00853255;-0.0066548;0.00564493;-0.00538014;0.0393146;0.0131502;0.0313454;0;0.0557754;8.52089;2.51546
345000;346;26.9486;0.657943;0.0250258;-2.10948;26.8368;-1.24859;-0.104617;0.629716;-0.645515;0.0998109;-0.590449;-0.16644;0.621526;-6.03081;-0.00106613;0.000357176;0.0066599;0.00667638;-0.0010826;0.00387949;0.160081;6.24683;0.00485221;0.00517265;6.16697;0.162154;69.4603;114.46;0.00491469;-0.00106888;-0.00167467;0.00237343;0.00665857;0.00127141;0.0116483;0;0.0184836;-0.0115674;-1.24784;-0.807243;1.48623;-7.38996;-0.00708617;-0.000219584;0.0399009;0.0399019;-0.0070872;0.0234946;0.177594;5.63081;0.0292513;0.0313261;5.63014;0.177615;98.6608;143.661;-0.00671037;-0.00709944;0.0049311;-0.00513753;0.0398892;0.0118511;0.0341683;0;0.0552417;8.52883;2.52172
346000;347;26.9534;0.662774;0.0252095;-2.1091;26.8417;-1.24873;-0.104234;0.634591;-0.64565;0.100019;-0.592026;-0.164321;0.622495;-6.0287;-0.00102616;0.000308012;0.00661021;0.00662262;-0.00103856;0.00383059;0.155239;6.4417;0.00479887;0.00510745;6.37671;0.156821;70.0497;115.05;0.00451936;-0.00102872;-0.00168247;0.00228339;0.00660885;0.0022387;0.0130832;0;0.0159321;-0.0123499;-1.25763;-0.807846;1.49479;-7.39056;-0.00740535;-0.000207497;0.0402352;0.0402361;-0.00740625;0.0238212;0.184052;5.43326;0.0296033;0.0317616;5.43272;0.18407;97.6973;142.697;-0.00707209;-0.00741573;0.0043371;-0.00454396;0.0402262;0.0131352;0.0327268;0;0.052983;8.52843;2.52636
347000;348;26.9598;0.669163;0.0254526;-2.10948;26.8477;-1.25627;-0.104612;0.640625;-0.653188;0.098419;-0.59111;-0.167011;0.622085;-6.03139;-0.00110724;0.0001477;0.00639788;0.00640079;-0.00111015;0.00375547;0.173064;5.77821;0.00468132;0.00500729;5.7657;0.173439;70.4933;115.493;0.00471881;-0.00110949;-0.00184244;0.002123;0.0063962;0.00252306;0.0131866;0;0.0186013;-0.0147426;-1.26487;-0.815926;1.50527;-7.39864;-0.00728529;-4.51206e-05;0.0406292;0.0406293;-0.00728533;0.0239573;0.179311;5.57689;0.0298128;0.0319431;5.57686;0.179312;97.0458;142.046;-0.00655741;-0.00729404;0.00427757;-0.00416878;0.0406204;0.0124709;0.0325559;0;0.0563731;8.53122;2.53094
348000;349;26.9684;0.677774;0.0257801;-2.11023;26.8563;-1.25695;-0.105371;0.64918;-0.653877;0.0989447;-0.593574;-0.163165;0.623493;-6.02754;-0.00113354;0.000281794;0.00637875;0.00638931;-0.00114409;0.0037667;0.177705;5.6273;0.00468767;0.00502227;5.58461;0.179064;69.2533;114.253;0.00484138;-0.00113608;-0.0017233;0.00227192;0.00637732;0.00169715;0.0129761;0;0.0159692;-0.0149848;-1.27477;-0.813939;1.51253;-7.39665;-0.00710866;7.47411e-06;0.0409683;0.0409683;-0.00710866;0.0240385;0.173516;5.76315;0.0299642;0.0320513;5.76315;0.173516;97.2154;142.215;-0.00660108;-0.00711808;0.00455092;-0.00432613;0.0409583;0.012518;0.0342374;0;0.0563769;8.53414;2.53828
349000;350;26.9775;0.686915;0.0261278;-2.11164;26.8651;-1.26348;-0.106781;0.657943;-0.660398;0.0991294;-0.594012;-0.162892;0.623868;-6.02727;-0.00117945;0.000389849;0.00638358;0.00640363;-0.00119949;0.00380156;0.184763;5.41235;0.00471999;0.00506874;5.33862;0.187314;68.8728;113.873;0.00449405;-0.00118203;-0.00153995;0.00230514;0.00638248;0.00157745;0.0126926;0;0.0162391;-0.0159635;-1.28363;-0.815952;1.5211;-7.39867;-0.00656444;0.000178556;0.0413673;0.041368;-0.00656511;0.0239666;0.158687;6.30173;0.0300074;0.0319554;6.30119;0.1587;96.8342;141.834;-0.00683225;-0.00657315;0.00473123;-0.00416457;0.0413566;0.0122841;0.0333488;0;0.052739;8.53919;2.54583
350000;351;26.9867;0.696076;0.0264762;-2.11342;26.8735;-1.2757;-0.108557;0.666425;-0.672624;0.0987328;-0.59582;-0.160353;0.62487;-6.02473;-0.0011366;0.000283379;0.00649604;0.00650655;-0.00114711;0.00382683;0.174968;5.71534;0.0047663;0.00510244;5.67215;0.1763;70.1081;115.108;0.00444216;-0.00113897;-0.00164442;0.00219656;0.00649474;0.00226248;0.012332;0;0.0163641;-0.017631;-1.294;-0.817711;1.53082;-7.40042;-0.00648725;0.000393058;0.0417112;0.0417144;-0.00649046;0.0241024;0.155528;6.42972;0.0302064;0.0321366;6.42703;0.155593;96.3823;141.382;-0.00716992;-0.00649473;0.00486746;-0.00387432;0.0416999;0.014458;0.0336209;0;0.0583699;8.5581;2.55265
351000;352;26.9966;0.706034;0.026855;-2.11511;26.8837;-1.27045;-0.110248;0.67654;-0.667372;0.097753;-0.595211;-0.162141;0.624597;-6.02652;-0.00114025;0.000279574;0.0064744;0.00648465;-0.0011505;0.00381757;0.176116;5.67807;0.00475324;0.0050901;5.63639;0.177419;70.0399;115.04;0.00452206;-0.00114262;-0.00165211;0.00219665;0.00647308;0.00279072;0.0119138;0;0.0162072;-0.0194133;-1.30475;-0.820569;1.54145;-7.40554;-0.00676769;-0.000905139;0.0417952;0.041812;-0.00678455;0.0242983;0.161925;6.1757;0.0303897;0.0323977;6.16283;0.162263;99.0496;144.05;-0.00212028;-0.00678471;0.00431822;-0.00588499;0.0417866;0.00616462;0.0314663;0;0.0556677;8.5545;2.56004
352000;353;27.0033;0.712709;0.0271089;-2.11479;26.8905;-1.26802;-0.109925;0.683383;-0.664947;0.0979834;-0.597268;-0.15658;0.625177;-6.02095;-0.00119164;0.00016404;0.00626339;0.00626699;-0.00119524;0.00373112;0.190254;5.25613;0.00462815;0.00497482;5.24328;0.19072;71.1417;116.142;0.00396356;-0.00119353;-0.00163696;0.00195169;0.00626207;0.00324414;0.0126509;0;0.014696;-0.0201671;-1.31416;-0.820074;1.54917;-7.40505;-0.00713957;-0.000952232;0.0423701;0.0423884;-0.00715788;0.0247732;0.168505;5.93455;0.0309223;0.0330309;5.92193;0.168864;98.3483;143.348;-0.00178274;-0.00715422;0.00379708;-0.00547594;0.0423636;0.00864242;0.0241822;0;0.0536341;8.55413;2.56711
353000;354;27.0078;0.717179;0.0272789;-2.11443;26.8948;-1.2737;-0.109564;0.687632;-0.670624;0.0981344;-0.59781;-0.158686;0.62625;-6.02306;-0.0010294;0.000295049;0.00617582;0.00618788;-0.00104146;0.00361467;0.166682;5.99944;0.00451264;0.00481956;5.94154;0.168307;69.0676;114.068;0.0044669;-0.00103188;-0.00167042;0.00224644;0.00617447;0.00208518;0.0125131;0;0.0166532;-0.0208878;-1.32318;-0.824801;1.55934;-7.40977;-0.00713661;-0.000841787;0.0427501;0.0427643;-0.00715081;0.0249575;0.166938;5.99025;0.0311678;0.0332767;5.98034;0.167215;97.5034;142.503;-0.00191674;-0.00714859;0.00347228;-0.00494945;0.0427446;0.00995396;0.0248718;0;0.0566291;8.55462;2.57502
354000;355;27.0165;0.72589;0.0276102;-2.11542;26.9033;-1.27691;-0.110553;0.69615;-0.673828;0.0980705;-0.597389;-0.161118;0.626459;-6.02549;-0.00108997;0.000319884;0.00656742;0.00658076;-0.00110331;0.00384204;0.165966;6.02532;0.00479742;0.00512272;5.96456;0.167657;69.9851;114.985;0.00456618;-0.00109247;-0.00162998;0.00225491;0.00656616;0.00224216;0.0124344;0;0.0164384;-0.0216863;-1.32965;-0.829679;1.56742;-7.41239;-0.007062;0.00012309;0.0432979;0.0432982;-0.00706231;0.0251803;0.163103;6.13111;0.0314847;0.0335737;6.13089;0.163108;95.4308;140.431;-0.00537013;-0.00706789;0.00384718;-0.00342124;0.0432908;0.00981161;0.0353976;0;0.0589479;8.5579;2.58167
355000;356;27.0276;0.737033;0.0280341;-2.11773;26.9142;-1.27955;-0.112864;0.707033;-0.676472;0.0978196;-0.597534;-0.16215;0.626824;-6.02652;-0.00108745;0.000393831;0.00645418;0.00647469;-0.00110796;0.00379133;0.168488;5.93515;0.00472924;0.0050551;5.84379;0.171122;69.6301;114.63;0.00470919;-0.00108992;-0.00148283;0.00225643;0.00645317;0.00112792;0.0131022;0;0.0161087;-0.0229336;-1.33848;-0.832872;1.57662;-7.41559;-0.00648321;0.000315713;0.0439692;0.0439712;-0.00648518;0.0252282;0.147449;6.78202;0.0316978;0.0336376;6.78026;0.147487;95.7749;140.775;-0.0051671;-0.00649018;0.00457207;-0.00373495;0.0439593;0.0109599;0.0338265;0;0.0565482;8.5655;2.5864
356000;357;27.0373;0.746733;0.028403;-2.11754;26.9236;-1.28664;-0.112677;0.71645;-0.683567;0.0977952;-0.598644;-0.160547;0.627466;-6.02492;-0.0012;0.000406408;0.00651601;0.00653736;-0.00122134;0.00387935;0.184161;5.43002;0.00481724;0.00517247;5.3526;0.186825;68.9009;113.901;0.00493234;-0.00120268;-0.00155193;0.00234973;0.0065149;0.000608878;0.0140419;0;0.0151383;-0.0237944;-1.34943;-0.834677;1.58689;-7.41965;-0.00659457;-0.000586739;0.0443413;0.044348;-0.00660133;0.0254747;0.148723;6.72391;0.0319936;0.0339662;6.71805;0.148853;97.6893;142.689;-0.00227034;-0.00660845;0.00435199;-0.00528458;0.0443324;0.0110412;0.0316616;0;0.0613022;8.57227;2.59336
357000;358;27.0471;0.756438;0.0287722;-2.12071;26.9331;-1.28569;-0.115848;0.725992;-0.682611;0.0964476;-0.598761;-0.160902;0.627461;-6.02528;-0.00121458;0.000204928;0.0062502;0.00625582;-0.0012202;0.00373801;0.194327;5.14597;0.00463118;0.00498402;5.12687;0.195051;70.0174;115.017;0.00397942;-0.00121674;-0.0016933;0.00208907;0.0062488;0.00337986;0.0125174;0;0.0137854;-0.0263226;-1.35825;-0.837673;1.596;-7.42265;-0.00681669;-0.000808321;0.0444137;0.0444264;-0.00682944;0.0256279;0.153482;6.51543;0.0321369;0.0341706;6.50514;0.153725;97.2888;142.289;0.000408039;-0.00682916;0.00364367;-0.00504192;0.0444076;0.00426371;0.031341;0;0.0589813;8.5832;2.59913
358000;359;27.0534;0.762804;0.0290143;-2.12053;26.9394;-1.28895;-0.115667;0.732244;-0.685868;0.0973619;-0.599677;-0.160007;0.628246;-6.02438;-0.00113484;0.000150268;0.00635437;0.00635738;-0.00113785;0.00374762;0.178592;5.59935;0.00466404;0.00499683;5.58717;0.178981;71.8923;116.892;0.00443148;-0.00113664;-0.00161677;0.00190415;0.00635308;0.00211851;0.012649;0;0.0151601;-0.0264805;-1.36818;-0.841441;1.60644;-7.42641;-0.00709475;-0.000813631;0.0449326;0.0449454;-0.00710747;0.0260264;0.157897;6.33323;0.0325921;0.0347019;6.32368;0.158136;97.0859;142.086;-0.000982501;-0.0071067;0.00352775;-0.00493884;0.044927;0.00794374;0.0284593;0;0.0559271;8.58346;2.60645
359000;360;27.0588;0.768232;0.0292208;-2.11935;26.9447;-1.29366;-0.114483;0.737562;-0.690579;0.0966508;-0.600084;-0.160513;0.628655;-6.02489;-0.00117856;0.00019753;0.00643781;0.00644293;-0.00118368;0.0038133;0.183069;5.46242;0.00473938;0.00508441;5.44312;0.183718;71.6769;116.677;0.00459579;-0.00118045;-0.001567;0.0019487;0.00643661;0.00139503;0.0128752;0;0.0141131;-0.0280162;-1.37665;-0.844859;1.61547;-7.42983;-0.0069233;-0.000880241;0.0453952;0.04541;-0.00693811;0.0261741;0.152512;6.55688;0.0328313;0.0348988;6.54502;0.152788;96.9096;141.91;-0.00307606;-0.00693502;0.00335632;-0.00490476;0.0453902;0.0117285;0.0287138;0;0.0569004;8.58217;2.61226
360000;361;27.0652;0.774592;0.0294627;-2.12076;26.9507;-1.29865;-0.115899;0.743597;-0.695577;0.0959609;-0.601428;-0.159011;0.629451;-6.02339;-0.00119665;0.000224625;0.00657896;0.00658544;-0.00120313;0.00389429;0.18189;5.49783;0.00484143;0.00519238;5.47359;0.182696;71.4787;116.479;0.00421485;-0.00119867;-0.00158551;0.00202077;0.00657773;0.00199149;0.0128083;0;0.015553;-0.0295237;-1.38447;-0.845583;1.62254;-7.4283;-0.00680801;0.00017603;0.0457407;0.0457412;-0.0068086;0.0262749;0.148839;6.71865;0.0329987;0.0350332;6.71816;0.14885;93.6044;138.604;-0.00685197;-0.0068109;0.00289004;-0.0024016;0.0457367;0.0113358;0.0377581;0;0.0645225;8.58353;2.61963
361000;362;27.0763;0.785715;0.0298858;-2.12264;26.9618;-1.29811;-0.117781;0.754646;-0.695035;0.096366;-0.602363;-0.154495;0.629283;-6.01887;-0.00117755;0.000323872;0.00646747;0.00648117;-0.00119124;0.00383621;0.182072;5.49232;0.00476773;0.00511494;5.44067;0.183801;70.9124;115.912;0.00449405;-0.00117963;-0.00142793;0.00206236;0.00646651;0.00196416;0.012259;0;0.0141981;-0.0299434;-1.3941;-0.843981;1.62994;-7.42669;-0.00638731;0.000442004;0.046646;0.0466497;-0.00639099;0.0265203;0.136931;7.30292;0.0334344;0.0353605;7.29929;0.137;94.1121;139.112;-0.00643831;-0.00639113;0.00384735;-0.0027908;0.046639;0.0129428;0.0361914;0;0.0617188;8.59416;2.62611
362000;363;27.086;0.795395;0.030254;-2.12209;26.9709;-1.31094;-0.11723;0.76379;-0.707865;0.0961223;-0.602695;-0.155117;0.629716;-6.01949;-0.00130097;0.000312295;0.00626545;0.00627832;-0.00131384;0.00379608;0.207642;4.81599;0.0046853;0.00506144;4.77861;0.209266;70.3974;115.397;0.00400651;-0.00130296;-0.00140451;0.00201619;0.00626452;0.0020463;0.0130831;0;0.0158432;-0.0310985;-1.40261;-0.847347;1.63899;-7.43006;-0.00628105;0.000446397;0.0473569;0.0473606;-0.00628476;0.0268227;0.132632;7.53965;0.0338636;0.0357636;7.53579;0.1327;93.3767;138.377;-0.00413852;-0.00628364;0.00335798;-0.00231608;0.0473516;0.0107229;0.0379729;0;0.0606782;8.59434;2.63415
363000;364;27.096;0.805394;0.0306343;-2.12465;26.981;-1.30641;-0.119788;0.77385;-0.703328;0.0963228;-0.602576;-0.15476;0.629545;-6.01913;-0.00121081;0.000441056;0.00659434;0.00661918;-0.00123565;0.00392742;0.183614;5.44622;0.00487713;0.00523656;5.35683;0.186678;69.9253;114.925;0.00409712;-0.00121321;-0.00136715;0.00223524;0.00659351;0.00223497;0.0130908;0;0.0189998;-0.0318179;-1.41143;-0.849513;1.64767;-7.43223;-0.00655515;0.000252776;0.0475585;0.0475597;-0.00655633;0.027058;0.137833;7.25514;0.0341026;0.0360773;7.25401;0.137855;93.2585;138.259;-0.00364868;-0.0065577;0.0029101;-0.00226728;0.0475545;0.00871181;0.0398306;0;0.058954;8.60542;2.64045
364000;365;27.1034;0.812823;0.0309169;-2.12555;26.9883;-1.30872;-0.120685;0.781128;-0.705645;0.0962782;-0.602503;-0.15739;0.63012;-6.02176;-0.00119765;0.000405678;0.00656691;0.00658805;-0.00121879;0.00390342;0.182377;5.48316;0.00484962;0.00520456;5.40541;0.185;69.9222;114.922;0.00423269;-0.00120005;-0.00143123;0.00222842;0.00656598;0.0020773;0.012622;0;0.0191953;-0.0330872;-1.42173;-0.855852;1.65979;-7.44082;-0.00671913;-0.000863525;0.0475743;0.0475881;-0.00673286;0.0271605;0.141234;7.08043;0.0341913;0.0362139;7.06803;0.141482;95.9807;140.981;0.000519104;-0.00672892;0.00296477;-0.0044934;0.0475705;0.00756372;0.0347979;0;0.0603935;8.60904;2.64826
365000;366;27.1082;0.81762;0.0310993;-2.12442;26.9929;-1.31413;-0.119559;0.785771;-0.711054;0.0960931;-0.605206;-0.153002;0.631599;-6.01738;-0.00140938;0.00037743;0.00649646;0.00651444;-0.00142736;0.0039709;0.216946;4.60944;0.00488871;0.00529454;4.56397;0.219107;69.5011;114.501;0.00388496;-0.00141172;-0.00145278;0.00219327;0.00649549;0.00243847;0.0126573;0;0.0151872;-0.0341669;-1.43178;-0.856214;1.66861;-7.44119;-0.0069021;-0.000902447;0.0478448;0.0478596;-0.00691697;0.0273883;0.14426;6.93191;0.0344444;0.0365177;6.91916;0.144526;95.6193;140.619;-0.00167627;-0.00691079;0.00263058;-0.00425087;0.0478419;0.0113926;0.0279969;0;0.0603188;8.60965;2.65532
366000;367;27.1173;0.826641;0.0314424;-2.12685;27.0017;-1.31584;-0.121986;0.794557;-0.71276;0.0961005;-0.60498;-0.1531;0.631408;-6.01747;-0.00128522;0.000309514;0.00689487;0.00690656;-0.00129691;0.00410174;0.186402;5.36475;0.00509203;0.00546898;5.3254;0.187779;72.2899;117.29;0.00413841;-0.00128717;-0.0013945;0.00199968;0.00689395;0.00132939;0.013239;0;0.0160288;-0.034997;-1.44088;-0.859348;1.67804;-7.44432;-0.00712605;-0.000647199;0.0478344;0.047842;-0.00713367;0.0274879;0.148973;6.71262;0.0345192;0.0366505;6.70651;0.149109;94.7888;139.789;-0.00179469;-0.00713226;0.00243766;-0.00357024;0.0478318;0.011019;0.0314629;0;0.0663199;8.61332;2.66321
367000;368;27.1251;0.834469;0.0317402;-2.1276;27.0093;-1.31955;-0.122735;0.802178;-0.716476;0.0961331;-0.604807;-0.153433;0.631328;-6.01781;-0.00138331;0.000530989;0.00689444;0.00692837;-0.00141723;0.0041728;0.200641;4.98402;0.00515665;0.00556373;4.88866;0.204555;70.3356;115.336;0.00397529;-0.00138571;-0.0012049;0.00225261;0.00689386;0.00222638;0.0118363;0;0.0161415;-0.0361425;-1.44752;-0.862572;1.68542;-7.44529;-0.00644309;0.000484367;0.0494121;0.0494163;-0.00644729;0.0279318;0.130395;7.669;0.0352902;0.0372424;7.66466;0.130469;92.6269;137.627;-0.00517767;-0.0064447;0.00295288;-0.00185277;0.0494081;0.0104918;0.0421182;0;0.0656575;8.61685;2.66767
368000;369;27.1363;0.845647;0.0321653;-2.12764;27.0203;-1.32407;-0.122775;0.813179;-0.720992;0.0954;-0.605223;-0.15431;0.631829;-6.01868;-0.00134995;0.000494344;0.0070046;0.00703375;-0.0013791;0.00420642;0.192723;5.18878;0.00521007;0.00560857;5.10025;0.196069;70.79;115.79;0.00406701;-0.00135233;-0.00126303;0.00223713;0.00700393;0.00141191;0.0126704;0;0.0169652;-0.0375207;-1.45649;-0.866568;1.6952;-7.44928;-0.00605001;0.000516538;0.0497351;0.0497398;-0.0060548;0.0278973;0.121645;8.22065;0.0353514;0.0371964;8.21495;0.121729;92.4964;137.496;-0.00510859;-0.00605148;0.00294853;-0.00178622;0.049731;0.00996669;0.0395147;0;0.065886;8.62025;2.67069
369000;370;27.145;0.854402;0.0324983;-2.12894;27.0287;-1.32949;-0.124074;0.821603;-0.726411;0.0959124;-0.606988;-0.15073;0.632734;-6.0151;-0.00142599;0.000459197;0.00675869;0.00678437;-0.00145167;0.00411802;0.210986;4.73964;0.00507647;0.0054907;4.67348;0.213973;70.7586;115.759;0.00402721;-0.00142816;-0.00122432;0.00212903;0.00675805;0.00104694;0.0122229;0;0.0206685;-0.0377729;-1.4661;-0.865793;1.70307;-7.44851;-0.00641307;0.000390241;0.0502906;0.0502933;-0.00641576;0.0283545;0.12752;7.84189;0.0358593;0.037806;7.83902;0.127567;92.6055;137.605;-0.00346342;-0.00641481;0.00281216;-0.00190092;0.0502869;0.00948281;0.0395158;0;0.0613053;8.62751;2.6769
370000;371;27.1523;0.861727;0.032777;-2.12985;27.0359;-1.33115;-0.124986;0.828807;-0.728068;0.0957782;-0.608436;-0.147181;0.63327;-6.01156;-0.0013772;0.000444833;0.00684731;0.00687129;-0.00140119;0.00413624;0.20113;4.97192;0.00511234;0.00551499;4.90391;0.203919;70.3975;115.397;0.00387359;-0.00137957;-0.00134666;0.00222169;0.0068465;0.00146869;0.0124775;0;0.0173148;-0.0388364;-1.47708;-0.86749;1.71342;-7.45246;-0.00673671;-0.000817844;0.0503344;0.0503461;-0.00674843;0.0285473;0.133839;7.47166;0.0360249;0.038063;7.46042;0.134041;94.8565;139.857;0.000596879;-0.00674399;0.00242979;-0.00388901;0.0503319;0.00741762;0.0374805;0;0.0635865;8.62882;2.68437
371000;372;27.1592;0.868628;0.0330395;-2.12979;27.0429;-1.3297;-0.124929;0.835813;-0.726627;0.0951665;-0.607944;-0.151045;0.633614;-6.01542;-0.00143367;0.000384854;0.00691957;0.00693726;-0.00145136;0.00419431;0.207191;4.82647;0.0051769;0.00559242;4.77982;0.209213;71.9171;116.917;0.00391323;-0.00143565;-0.00126902;0.00202501;0.00691884;0.00154364;0.0121734;0;0.019487;-0.0404994;-1.48562;-0.873598;1.72391;-7.45857;-0.00684445;-0.000958631;0.05049;0.050506;-0.00686048;0.0286832;0.135561;7.37677;0.036175;0.0382443;7.36188;0.135835;94.6297;139.63;0.0012533;-0.00685108;0.00199658;-0.00375255;0.0504885;0.011268;0.0324359;0;0.0624315;8.6375;2.6917
372000;373;27.1649;0.874306;0.0332554;-2.13075;27.0481;-1.33931;-0.125888;0.840966;-0.736228;0.0949856;-0.609111;-0.149345;0.634304;-6.01372;-0.00145721;0.000379087;0.00683941;0.00685669;-0.0014745;0.0041656;0.213061;4.69349;0.0051337;0.00555413;4.65019;0.215045;71.2804;116.28;0.00378377;-0.00145929;-0.00132927;0.00207337;0.0068386;0.00149563;0.012195;0;0.017207;-0.0417657;-1.49484;-0.876468;1.73335;-7.46144;-0.00690555;-0.000787957;0.0505976;0.0506084;-0.00691634;0.0287624;0.13648;7.3271;0.0362649;0.0383498;7.31722;0.136664;94.2191;139.219;-0.00142985;-0.00691106;0.00197707;-0.00340164;0.0505961;0.0130389;0.033212;0;0.062246;8.64005;2.69932
373000;374;27.1742;0.883561;0.0336075;-2.13263;27.0571;-1.34218;-0.127766;0.849971;-0.739104;0.0953787;-0.611071;-0.145521;0.635359;-6.0099;-0.00148476;0.000739462;0.00697449;0.00703864;-0.00154891;0.00429378;0.212884;4.69738;0.00528494;0.00572504;4.54425;0.220059;68.4226;113.423;0.00370578;-0.00148771;-0.00107294;0.00253664;0.00697419;0.00126643;0.0129401;0;0.0152141;-0.0421174;-1.50497;-0.874512;1.74111;-7.45722;-0.00649801;0.000576911;0.0523719;0.0523776;-0.00650366;0.0294406;0.124074;8.05968;0.0372759;0.0392541;8.05355;0.124169;91.6868;136.687;-0.00500539;-0.00649859;0.00247522;-0.00121521;0.0523692;0.0139528;0.0434522;0;0.06693;8.64882;2.70663
374000;375;27.1863;0.895675;0.0340683;-2.13254;27.0691;-1.34596;-0.127673;0.861957;-0.742887;0.0948035;-0.610864;-0.147974;0.635641;-6.01235;-0.00144896;0.000600335;0.0070129;0.00705528;-0.00149134;0.00427331;0.206614;4.83995;0.00527143;0.00569775;4.73083;0.21138;69.7683;114.768;0.00355466;-0.00145158;-0.00117768;0.00236341;0.00701239;0.00207119;0.0135214;0;0.0158052;-0.0435027;-1.51476;-0.879811;1.75227;-7.46478;-0.00657851;-0.000387319;0.0521476;0.0521502;-0.00658107;0.0293656;0.126152;7.92696;0.0371553;0.0391542;7.92427;0.126195;93.425;138.425;0.000471682;-0.0065824;0.00217256;-0.00280431;0.0521455;0.0071217;0.0346951;0;0.064828;8.64541;2.71449
375000;376;27.1955;0.904876;0.0344182;-2.13546;27.078;-1.34866;-0.130598;0.870833;-0.745581;0.0952923;-0.611832;-0.144785;0.63591;-6.00916;-0.00159521;0.000585823;0.00712805;0.00716721;-0.00163438;0.00440079;0.223793;4.46841;0.00540592;0.00586772;4.38529;0.228035;70.1137;115.114;0.00385753;-0.00159774;-0.00116441;0.0023209;0.00712754;0.00119857;0.0122895;0;0.0164761;-0.0438792;-1.52338;-0.880845;1.76026;-7.46582;-0.00683388;-0.000440951;0.0526898;0.0526931;-0.00683714;0.0297651;0.1297;7.71009;0.0376155;0.0396868;7.70688;0.129754;93.5558;138.556;-0.000150139;-0.00683813;0.00220816;-0.00294027;0.0526876;0.00639491;0.0384964;0;0.0645587;8.64616;2.72212
376000;377;27.203;0.912384;0.0347038;-2.13588;27.0853;-1.35162;-0.131018;0.878192;-0.748545;0.0939415;-0.611349;-0.145382;0.635381;-6.00976;-0.0016442;0.000442244;0.00731437;0.00733615;-0.00166598;0.00450106;0.224791;4.44858;0.00553038;0.00600142;4.4035;0.227092;72.1069;117.107;0.00398286;-0.00164629;-0.00121719;0.00208692;0.00731373;0.000615295;0.0123795;0;0.023328;-0.0462292;-1.53158;-0.886502;1.77025;-7.47147;-0.00674243;-0.000861485;0.0530032;0.0530156;-0.00675485;0.0298852;0.127208;7.86114;0.0377971;0.039847;7.84852;0.127412;93.9145;138.914;0.00064808;-0.0067477;0.00177495;-0.00334833;0.0530021;0.00683096;0.0398927;0;0.0666551;8.65288;2.72874
377000;378;27.2108;0.920207;0.0350013;-2.13474;27.0935;-1.34686;-0.129881;0.886376;-0.743787;0.0939213;-0.61114;-0.150216;0.636301;-6.01459;-0.00149122;0.000462225;0.00741626;0.00744018;-0.00151514;0.00447766;0.201075;4.97328;0.00553474;0.00597022;4.91054;0.203643;72.2833;117.283;0.00356033;-0.0014934;-0.0012277;0.0021372;0.00741562;0.00166964;0.0122576;0;0.0224622;-0.0473053;-1.54124;-0.892991;1.78188;-7.47796;-0.00678508;-0.000801225;0.0534072;0.0534179;-0.00679574;0.0301068;0.127044;7.87127;0.0380798;0.0401424;7.86049;0.127219;93.7754;138.775;0.00120618;-0.00679006;0.00179124;-0.00324555;0.053406;0.0101585;0.0389261;0;0.0651236;8.65657;2.73569
378000;379;27.2149;0.924327;0.0351581;-2.13627;27.097;-1.35644;-0.131409;0.889916;-0.753358;0.0941893;-0.613676;-0.143663;0.637267;-6.00804;-0.00156984;0.000543908;0.00733061;0.00736373;-0.00160296;0.00448334;0.214149;4.66964;0.00552158;0.00597779;4.59383;0.217683;72.0061;117.006;0.00309582;-0.00157199;-0.00106643;0.00214002;0.0073302;0.00261471;0.0128024;0;0.0180489;-0.0478613;-1.55126;-0.890542;1.78935;-7.47551;-0.00697035;-0.00101479;0.0531467;0.0531638;-0.00698747;0.0300757;0.131153;7.62469;0.0379865;0.0401009;7.60845;0.131433;93.9569;138.957;-0.00194455;-0.00697571;0.00153264;-0.0034168;0.0531461;0.0147645;0.0350639;0;0.0725468;8.65562;2.73991
379000;380;27.224;0.933392;0.0355028;-2.13642;27.106;-1.36002;-0.13156;0.898829;-0.756945;0.0935215;-0.614085;-0.143154;0.637448;-6.00753;-0.00156812;0.000309565;0.007183;0.00719394;-0.00157905;0.0043865;0.218309;4.58065;0.00539983;0.00584866;4.55585;0.219498;72.5498;117.55;0.00337614;-0.00157004;-0.00138045;0.0019849;0.0071821;0.00174769;0.0127248;0;0.0214139;-0.0495801;-1.55871;-0.893167;1.79716;-7.47588;-0.00647228;0.000617697;0.054732;0.0547382;-0.00647851;0.0306084;0.118254;8.45636;0.0388322;0.0408111;8.44919;0.118355;90.6241;135.624;-0.00255174;-0.00647216;0.0016864;-0.000388994;0.0547308;0.0104962;0.0452527;0;0.0712856;8.6638;2.74368
380000;381;27.2351;0.944485;0.0359248;-2.13849;27.117;-1.35841;-0.13363;0.909888;-0.755328;0.0933026;-0.614779;-0.14171;0.637762;-6.00608;-0.0016195;0.000476865;0.00713603;0.00716193;-0.00164539;0.00440366;0.226947;4.40632;0.00540719;0.00587155;4.35271;0.229742;71.5128;116.513;0.00294993;-0.00162163;-0.00117716;0.00211651;0.00713546;0.00178737;0.0130878;0;0.0180042;-0.0504915;-1.56825;-0.893361;1.80556;-7.47607;-0.00628922;0.000610658;0.0554747;0.0554807;-0.00629526;0.030888;0.113371;8.82059;0.0392542;0.041184;8.81309;0.113468;90.5517;135.552;-0.00232932;-0.00628909;0.00162427;-0.000343637;0.0554736;0.00993618;0.0453141;0;0.0663204;8.67175;2.75163
381000;382;27.2458;0.955179;0.0363316;-2.14039;27.1272;-1.36542;-0.13553;0.920127;-0.762344;0.09222;-0.616516;-0.140591;0.639032;-6.00497;-0.00179481;0.000355782;0.00718448;0.00719856;-0.00180889;0.00450372;0.249818;4.00292;0.00550203;0.00600496;3.97955;0.251285;72.3043;117.304;0.00273438;-0.00179668;-0.00126687;0.00196397;0.00718375;0.00244703;0.0132043;0;0.0163306;-0.0521171;-1.57903;-0.895135;1.81585;-7.47785;-0.00639272;0.000392044;0.0563302;0.0563327;-0.00639517;0.0313639;0.113486;8.81163;0.0398582;0.0418186;8.80863;0.113525;90.5158;135.516;-0.00229643;-0.00639271;0.0011969;-0.000365023;0.0563296;0.0083349;0.0499141;0;0.0698785;8.66761;2.75802
382000;383;27.2533;0.962649;0.0366157;-2.14163;27.1345;-1.36929;-0.136771;0.927336;-0.766215;0.0929435;-0.616353;-0.139429;0.638725;-6.0038;-0.00171337;0.00025756;0.00709511;0.00710264;-0.0017209;0.00441177;0.241486;4.14102;0.0054009;0.00588236;4.12729;0.24229;74.5617;119.562;0.00285621;-0.00171472;-0.00115547;0.00165823;0.00709448;0.0024285;0.0133859;0;0.0136598;-0.0525959;-1.58918;-0.898259;1.82623;-7.48323;-0.00669553;-0.000843196;0.0557821;0.0557935;-0.00670691;0.0312502;0.12003;8.33124;0.039621;0.0416669;8.31881;0.12021;93.3584;138.358;0.00061794;-0.00669986;0.00150191;-0.00304952;0.0557814;0.0096693;0.0457503;0;0.0713711;8.66446;2.76561
383000;384;27.2614;0.97083;0.0369269;-2.141;27.1429;-1.3655;-0.136132;0.935795;-0.762426;0.0926751;-0.616882;-0.140743;0.639485;-6.00512;-0.00167719;0.000376841;0.00708382;0.0071;-0.00169336;0.00439668;0.236763;4.22364;0.00538725;0.00586225;4.19284;0.238502;73.9376;118.938;0.00274014;-0.00167867;-0.00102329;0.00176479;0.00708338;0.00271769;0.0131482;0;0.0258043;-0.0537445;-1.59831;-0.902179;1.83614;-7.48715;-0.00677872;-0.000647322;0.0559095;0.0559161;-0.0067854;0.0313508;0.121245;8.24779;0.0397328;0.041801;8.24065;0.12135;92.7776;137.778;0.000598428;-0.00678169;0.00133601;-0.0025129;0.0559088;0.0136436;0.0409678;0;0.068718;8.68202;2.77303
384000;385;27.2669;0.976315;0.0371355;-2.14108;27.1479;-1.37535;-0.136215;0.9408;-0.772277;0.0933272;-0.617366;-0.138442;0.639544;-6.00282;-0.00176706;0.000521137;0.00715237;0.00718272;-0.00179741;0.00449006;0.24706;4.04761;0.00548665;0.00598675;3.99616;0.25024;72.4774;117.477;0.0027493;-0.00176888;-0.000944552;0.00197384;0.00715206;0.00163936;0.0132435;0;0.0214943;-0.0542998;-1.60853;-0.906138;1.847;-7.49231;-0.0068329;-0.000734138;0.0562908;0.0562993;-0.00684143;0.0315704;0.121386;8.2382;0.0400088;0.0420938;8.22917;0.121519;93.1574;138.157;-0.0040669;-0.00683679;0.00154327;-0.00287544;0.0562899;0.00572485;0.0376094;0;0.0753939;8.67932;2.78062
385000;386;27.2753;0.984709;0.0374548;-2.14147;27.1562;-1.37702;-0.136606;0.949115;-0.773942;0.0928183;-0.618116;-0.143045;0.641206;-6.00742;-0.00177269;0.00042456;0.00744507;0.00746459;-0.00179221;0.0046284;0.238103;4.19987;0.00566903;0.0061712;4.16503;0.240094;73.5035;118.504;0.00259614;-0.00177444;-0.00107805;0.00191342;0.00744459;0.00228499;0.0124098;0;0.0192269;-0.0552873;-1.61874;-0.90942;1.85753;-7.49439;-0.00666335;-0.000340195;0.057147;0.0571488;-0.00666516;0.031907;0.1166;8.57632;0.0405041;0.0425426;8.57426;0.116628;92.2617;137.262;-0.0005386;-0.00666541;0.00148488;-0.00205511;0.057146;0.00912533;0.0392901;0;0.0737133;8.67863;2.78772
386000;387;27.285;0.99442;0.0378241;-2.14316;27.1656;-1.38264;-0.1383;0.958449;-0.779561;0.0939265;-0.621492;-0.133481;0.642566;-5.99786;-0.00195179;0.000466099;0.00705839;0.00708243;-0.00197584;0.00452914;0.276521;3.61636;0.00549984;0.00603885;3.58452;0.278978;72.5347;117.535;0.00250564;-0.00195346;-0.000961163;0.00188059;0.00705804;0.00213266;0.0130508;0;0.0148834;-0.0555478;-1.62811;-0.907027;1.86454;-7.492;-0.00686114;-0.000331036;0.0579236;0.0579253;-0.00686283;0.032394;0.118452;8.44227;0.0410959;0.0431921;8.44043;0.118477;91.4006;136.401;0.00168499;-0.00686195;0.000713988;-0.00131207;0.0579234;0.00649426;0.0364965;0;0.0705804;8.67509;2.79494
387000;388;27.2959;1.0053;0.038238;-2.14416;27.1761;-1.38957;-0.139301;0.968947;-0.786488;0.0938327;-0.619148;-0.142214;0.642164;-6.00659;-0.00189842;0.00061999;0.0070086;0.00705155;-0.00194137;0.00449646;0.27087;3.6918;0.00546435;0.00599528;3.63225;0.275311;70.296;115.296;0.00248787;-0.00190062;-0.000956425;0.00218246;0.00700834;0.00201383;0.0141496;0;0.0182479;-0.0562507;-1.6352;-0.918601;1.8764;-7.50357;-0.00700101;-0.000486057;0.0585362;0.0585398;-0.00700461;0.0327722;0.119601;8.36111;0.0415586;0.0436962;8.35732;0.119656;91.7778;136.778;0.000965734;-0.00700233;0.000803028;-0.00169533;0.058536;0.00713613;0.0410597;0;0.066861;8.68798;2.80201
388000;389;27.307;1.0164;0.0386603;-2.14755;27.1872;-1.38388;-0.14269;0.98012;-0.780803;0.0939208;-0.622473;-0.132642;0.643341;-5.99702;-0.00204106;0.000621386;0.0068237;0.00686704;-0.0020844;0.00447572;0.299113;3.34322;0.00540842;0.00596763;3.29449;0.303537;70.212;115.212;0.00278409;-0.00204305;-0.000860222;0.00208995;0.00682352;0.00072785;0.0140204;0;0.0149634;-0.0575251;-1.6467;-0.913594;1.88403;-7.49857;-0.00661262;-0.000583553;0.0586733;0.0586785;-0.00661784;0.0326482;0.112702;8.87292;0.0415012;0.0435309;8.86672;0.112781;92.7734;137.773;0.00118779;-0.00661593;0.00159637;-0.00262904;0.0586722;0.00780976;0.0415421;0;0.0731548;8.69641;2.80961
389000;390;27.3127;1.02211;0.0388772;-2.14509;27.1931;-1.38593;-0.14023;0.985938;-0.782849;0.0940275;-0.622784;-0.133053;0.643742;-5.99743;-0.0020638;0.000637673;0.00666361;0.00670995;-0.00211015;0.00441005;0.309712;3.2288;0.00531811;0.00588007;3.17985;0.31448;69.2496;114.25;0.00214268;-0.00206589;-0.000877363;0.00213957;0.00666343;0.00208639;0.0141826;0;0.0144603;-0.058415;-1.65749;-0.915894;1.89461;-7.50207;-0.00677243;-0.000841225;0.0592873;0.0592981;-0.00678314;0.0330406;0.114231;8.75422;0.0419762;0.0440541;8.74198;0.114391;93.0503;138.05;-0.00456256;-0.00677648;0.00141724;-0.00295884;0.0592867;0.0117163;0.0406325;0;0.0766419;8.69427;2.81688
390000;391;27.318;1.02742;0.0390793;-2.14621;27.1979;-1.39328;-0.14135;0.990811;-0.790198;0.094227;-0.622439;-0.135523;0.643953;-5.9999;-0.0020398;0.000747033;0.00650614;0.00657095;-0.00210461;0.00433778;0.313519;3.1896;0.00522541;0.00578371;3.12217;0.32029;67.9774;112.977;0.00254487;-0.00204208;-0.000777189;0.00225831;0.00650612;0.00117511;0.013715;0;0.0165672;-0.059192;-1.66565;-0.923658;1.90553;-7.50863;-0.00684725;-0.00013731;0.0600908;0.0600911;-0.00684753;0.0334693;0.113948;8.7759;0.0425274;0.0446257;8.77558;0.113953;91.6176;136.618;-0.00084709;-0.00684841;0.00134187;-0.00152309;0.0600899;0.0122774;0.0394121;0;0.0751378;8.69719;2.82259
391000;392;27.326;1.03539;0.0393824;-2.1472;27.2057;-1.39586;-0.142333;0.998603;-0.792783;0.0932967;-0.623242;-0.1322;0.643903;-5.99657;-0.00216919;0.000658511;0.00639289;0.00644324;-0.00221954;0.00433139;0.339313;2.94713;0.00519584;0.00577519;2.90296;0.344476;67.6995;112.699;0.00263835;-0.00217136;-0.000878366;0.00218231;0.00639272;0.0017868;0.0140619;0;0.0165639;-0.0608205;-1.67599;-0.921978;1.91381;-7.50695;-0.00702857;-0.000228908;0.059464;0.0594648;-0.00702936;0.0332471;0.118199;8.46033;0.042182;0.0443294;8.45949;0.11821;91.1301;136.13;0.00378277;-0.00702912;0.000675899;-0.00107693;0.0594638;0.00878998;0.0440592;0;0.0782709;8.693;2.82572
392000;393;27.3372;1.04663;0.0398101;-2.14866;27.2167;-1.39995;-0.143799;1.00957;-0.796871;0.0933045;-0.623083;-0.135545;0.644446;-5.99992;-0.00205887;0.000639797;0.00645507;0.00650288;-0.00210668;0.00430478;0.318955;3.13524;0.00518224;0.00573971;3.08678;0.323962;68.5934;113.593;0.00258008;-0.00206095;-0.000868172;0.00213501;0.0064549;0.00172565;0.013441;0;0.0169214;-0.0615439;-1.68259;-0.927763;1.92241;-7.51048;-0.00663889;0.000682754;0.0617413;0.0617481;-0.0066457;0.0341969;0.107528;9.29994;0.04355;0.0455959;9.29143;0.107626;89.1227;134.123;-0.000711058;-0.00663913;0.000370969;0.000974459;0.0617414;0.0084481;0.0462808;0;0.0740397;8.70067;2.83209
393000;394;27.3469;1.05624;0.0401754;-2.14961;27.226;-1.4059;-0.144745;1.01884;-0.802827;0.0931793;-0.624315;-0.134041;0.645305;-5.99842;-0.00218505;0.00087041;0.00677967;0.0068634;-0.00226877;0.00456609;0.322294;3.10276;0.0054904;0.00608812;3.02516;0.330561;68.2047;113.205;0.0022709;-0.0021874;-0.000609519;0.00233716;0.00677986;0.00252281;0.0141009;0;0.0172387;-0.0627811;-1.6935;-0.9307;1.93341;-7.51567;-0.0069856;-0.000579615;0.0616832;0.0616881;-0.0069905;0.0343393;0.11325;8.83004;0.0436426;0.0457857;8.82456;0.11332;91.338;136.338;0.00246622;-0.00698641;0.000286627;-0.00138983;0.0616833;0.00982862;0.0410641;0;0.0730071;8.69671;2.83928
394000;395;27.359;1.06834;0.0406357;-2.1525;27.2383;-1.39756;-0.147633;1.03119;-0.794481;0.0928295;-0.624796;-0.133525;0.645613;-5.9979;-0.00216404;0.000912099;0.00691099;0.00700175;-0.0022548;0.00462828;0.31313;3.19356;0.0055736;0.00617104;3.10526;0.322034;68.195;113.195;0.00309055;-0.00216652;-0.000596183;0.00240679;0.00691123;-0.000230056;0.0143031;0;0.0166245;-0.0640998;-1.70311;-0.932696;1.94284;-7.51767;-0.00662805;-0.000795944;0.0619896;0.0619989;-0.00663728;0.0343181;0.106922;9.35262;0.0437133;0.0457574;9.341;0.107055;92.3524;137.352;0.00166262;-0.00663068;0.000938156;-0.002418;0.0619895;0.00970794;0.0461898;0;0.0757106;8.70446;2.84589
395000;396;27.3622;1.07158;0.0407591;-2.15156;27.241;-1.40917;-0.146695;1.03393;-0.806098;0.093275;-0.628295;-0.125676;0.647494;-5.99005;-0.00247311;0.000803867;0.00643669;0.00650863;-0.00254506;0.00452684;0.384221;2.60267;0.00539153;0.00603579;2.55736;0.391028;66.4654;111.465;0.00288982;-0.0024754;-0.000691281;0.00228578;0.00643677;0.000547197;0.0141054;0;0.0179571;-0.0645553;-1.71523;-0.929037;1.95174;-7.51401;-0.00658975;-0.000290151;0.0623652;0.0623664;-0.00659098;0.0344787;0.105664;9.46397;0.0439397;0.0459716;9.4624;0.105681;91.7847;136.785;0.00207907;-0.00659131;0.00130782;-0.0017844;0.0623644;0.0130017;0.0481897;0;0.0775612;8.70772;2.85281
396000;397;27.3684;1.07779;0.0409953;-2.15129;27.2471;-1.41399;-0.146424;1.03994;-0.810908;0.0920835;-0.626502;-0.12972;0.646384;-5.99409;-0.0023264;0.000747828;0.00644395;0.00650726;-0.00238971;0.00444849;0.36102;2.76993;0.00531688;0.00593131;2.72304;0.367237;67.0019;112.002;0.00237437;-0.00232867;-0.00077611;0.00225848;0.00644393;0.00130994;0.0139719;0;0.0169408;-0.0664462;-1.72294;-0.938625;1.96315;-7.5248;-0.00684347;-0.000572026;0.0623509;0.0623557;-0.0068482;0.0346019;0.109757;9.11101;0.0440311;0.0461359;9.10541;0.109825;91.9026;136.903;-0.0045484;-0.00684522;0.000899978;-0.00194815;0.0623507;0.00984431;0.0424399;0;0.0842059;8.71333;2.85965
397000;398;27.3764;1.08576;0.0412985;-2.15405;27.2546;-1.41907;-0.149182;1.04746;-0.815993;0.0926709;-0.62863;-0.127324;0.648055;-5.9917;-0.00240749;0.000665478;0.00612888;0.00618045;-0.00245906;0.00431975;0.392811;2.54576;0.00513995;0.00575967;2.51334;0.397877;67.2889;112.289;0.00255226;-0.00240936;-0.000723565;0.00204273;0.00612884;0.00163809;0.0156744;0;0.015429;-0.066978;-1.73355;-0.93863;1.97248;-7.5236;-0.00698531;-0.000150853;0.0629615;0.0629618;-0.00698563;0.0349737;0.110946;9.01342;0.0444863;0.0466316;9.01304;0.11095;90.6502;135.65;0.00352576;-0.00698552;0.000396109;-0.000661823;0.0629614;0.0139856;0.0472309;0;0.0790634;8.71521;2.86732
398000;399;27.3921;1.10148;0.0418962;-2.15636;27.2705;-1.41356;-0.151493;1.06335;-0.810479;0.0918807;-0.628006;-0.130518;0.647972;-5.99489;-0.00232163;0.000667517;0.00679292;0.00684155;-0.00237026;0.0046059;0.341772;2.92593;0.00552333;0.0061412;2.88642;0.34645;69.3671;114.367;0.00238856;-0.00232364;-0.000791128;0.00211296;0.00679283;0.0013381;0.0135986;0;0.018678;-0.0685496;-1.74227;-0.943572;1.98256;-7.52854;-0.00689772;-0.000467574;0.0643754;0.0643784;-0.00690079;0.0356396;0.107148;9.33285;0.0453944;0.0475195;9.32914;0.107191;90.6649;135.665;0.00249832;-0.0068979;-0.000158889;-0.00075559;0.0643755;0.00946675;0.0419261;0;0.0747256;8.71516;2.87406
399000;400;27.398;1.10742;0.0421224;-2.1551;27.2757;-1.43009;-0.150237;1.06856;-0.82701;0.0913571;-0.627936;-0.130855;0.647899;-5.99523;-0.00224897;0.000777045;0.00668134;0.00674844;-0.00231608;0.00453226;0.336605;2.97084;0.00543796;0.00604302;2.91373;0.343202;68.7954;113.795;0.00298622;-0.00225107;-0.000646936;0.00218839;0.00668143;-0.000712921;0.0146087;0;0.0165908;-0.0703108;-1.75109;-0.947582;1.99228;-7.53255;-0.0068361;-0.000565219;0.0646988;0.0647033;-0.00684057;0.0357719;0.10566;9.46428;0.0455871;0.0476959;9.45876;0.105722;91.062;136.062;0.00200527;-0.00683664;9.00209e-05;-0.00117643;0.0646989;0.0100371;0.0437988;0;0.0777535;8.71691;2.88167
400000;401;27.4102;1.11956;0.042584;-2.15877;27.2879;-1.42428;-0.153904;1.08076;-0.821207;0.0906917;-0.628542;-0.127823;0.647788;-5.9922;-0.00231686;0.000479655;0.00665733;0.0066829;-0.00234242;0.00451266;0.348016;2.87343;0.0054079;0.00601688;2.85298;0.35051;70.7584;115.758;0.00239508;-0.00231847;-0.000906407;0.00185336;0.00665704;0.00043345;0.0142134;0;0.0161463;-0.0714475;-1.75912;-0.950081;2.00057;-7.53279;-0.00621419;0.000445295;0.0661251;0.0661279;-0.00621693;0.0361724;0.0939761;10.641;0.0462969;0.0482299;10.6367;0.0940137;89.6821;134.682;-0.000635457;-0.00621417;0.000484032;0.000409186;0.0661251;0.0136527;0.0532248;0;0.07813;8.71918;2.88854
401000;402;27.4149;1.1243;0.0427644;-2.15713;27.2925;-1.43015;-0.152263;1.08535;-0.827069;0.0904722;-0.630512;-0.124158;0.648958;-5.98853;-0.00228839;0.000424533;0.00655272;0.00657306;-0.00230872;0.00444089;0.349227;2.86347;0.00532126;0.00592119;2.84705;0.351241;71.4482;116.448;0.00153254;-0.0022898;-0.000897241;0.0017347;0.00655241;0.00192063;0.014851;0;0.0226124;-0.0724399;-1.77161;-0.948436;2.01082;-7.53341;-0.00707221;-0.00035055;0.0661026;0.0661043;-0.00707389;0.0365891;0.106988;9.34681;0.0466068;0.0487855;9.34482;0.107011;91.1314;136.131;0.00108986;-0.00707291;0.000591023;-0.0012275;0.0661025;0.0111784;0.0503421;0;0.0838295;8.71536;2.892
402000;403;27.421;1.1304;0.0429963;-2.15834;27.2985;-1.43115;-0.153472;1.09133;-0.828075;0.0914379;-0.630006;-0.126901;0.649132;-5.99128;-0.00238778;0.000757314;0.00679915;0.00686116;-0.00244979;0.00465548;0.351189;2.84747;0.00557317;0.0062073;2.80071;0.357052;69.9657;114.966;0.00268701;-0.00238963;-0.000562094;0.00206468;0.00679928;-1.75618e-05;0.014778;0;0.0174501;-0.0726369;-1.78025;-0.955007;2.02154;-7.5417;-0.0071168;5.09208e-07;0.0660684;0.0660684;-0.0071168;0.0365926;0.107719;9.28344;0.0465994;0.0487902;9.28344;0.107719;90.248;135.248;0.00157041;-0.00711684;0.000272962;-0.00025324;0.0660684;0.0112093;0.0475066;0;0.0847054;8.72255;2.89678
403000;404;27.4271;1.13648;0.0432277;-2.15823;27.3043;-1.43716;-0.153365;1.09713;-0.834079;0.0925391;-0.631086;-0.121601;0.649323;-5.98598;-0.00232721;0.000767698;0.00651365;0.00657982;-0.00239338;0.0044866;0.357281;2.79891;0.00536533;0.00598213;2.74918;0.363745;69.2031;114.203;0.00214647;-0.00232904;-0.000536154;0.0020601;0.0065138;0.000861782;0.0162948;0;0.0190614;-0.0726232;-1.78946;-0.954012;2.02918;-7.54019;-0.0072609;-0.000464627;0.0663476;0.0663506;-0.00726383;0.0368072;0.109437;9.13766;0.0468431;0.0490763;9.13437;0.109477;90.4617;135.462;-0.0028665;-0.00726095;-0.000354602;-0.000567057;0.0663477;0.00846855;0.0516182;0;0.0864578;8.71936;2.90284
404000;405;27.439;1.14837;0.04368;-2.16026;27.3161;-1.43582;-0.155395;1.10899;-0.832745;0.0916003;-0.631327;-0.125784;0.65022;-5.99016;-0.00239259;0.000572283;0.00664151;0.00667761;-0.00242869;0.00455315;0.360248;2.77587;0.00544496;0.00607087;2.74947;0.363707;70.9352;115.935;0.00195121;-0.00239412;-0.000708575;0.00184165;0.00664142;0.00126934;0.014866;0;0.0170061;-0.0741308;-1.79746;-0.961567;2.03985;-7.54654;-0.00707204;-0.000368781;0.0679754;0.0679772;-0.00707385;0.0375255;0.104038;9.61185;0.0478507;0.050034;9.60964;0.104062;90.3506;135.351;0.00360078;-0.00707207;-0.000290367;-0.000441684;0.0679754;0.00950502;0.0462229;0;0.0761861;8.73023;2.91036
405000;406;27.4531;1.16249;0.0442171;-2.1628;27.3297;-1.44359;-0.157935;1.12256;-0.840509;0.0913031;-0.633894;-0.122175;0.651985;-5.98655;-0.00245215;0.000713602;0.00732858;0.00738037;-0.00250394;0.00494216;0.334601;2.98863;0.00593369;0.00658954;2.9475;0.33927;72.2435;117.243;0.00202272;-0.00245383;-0.000549661;0.0019646;0.00732868;-0.000145398;0.0152054;0;0.0171192;-0.0754617;-1.80684;-0.96195;2.04835;-7.54466;-0.00661171;0.000621602;0.0693366;0.0693416;-0.0066168;0.0379792;0.0953568;10.4869;0.0485838;0.050639;10.4796;0.0954231;88.7312;133.731;-0.00061679;-0.00661264;-0.000315096;0.00149177;0.0693367;0.00944692;0.054308;0;0.0811216;8.73213;2.91723
406000;407;27.4621;1.17145;0.0445578;-2.1647;27.3386;-1.44155;-0.159832;1.13152;-0.838472;0.0903953;-0.631637;-0.124125;0.650033;-5.9885;-0.00237223;0.000540148;0.00680764;0.00683932;-0.00240391;0.00462161;0.348466;2.86972;0.00553759;0.00616215;2.84508;0.351484;72.7644;117.764;0.00171038;-0.00237354;-0.000635416;0.00170499;0.00680759;0.000228735;0.01602;0;0.0151995;-0.076995;-1.817;-0.965907;2.05922;-7.55235;-0.00689118;-0.000497814;0.0685816;0.0685849;-0.00689446;0.0377397;0.100481;9.95209;0.0481861;0.0503195;9.94782;0.100525;91.5501;136.55;0.00132668;-0.0068926;0.000851634;-0.00175195;0.0685814;0.00907325;0.0528411;0;0.0819553;8.73576;2.92488
407000;408;27.4681;1.1775;0.0447878;-2.16318;27.3446;-1.4467;-0.15832;1.13744;-0.843627;0.0894367;-0.632791;-0.127829;0.651739;-5.9922;-0.00252904;0.000367957;0.0072949;0.00730866;-0.0025428;0.00492573;0.346686;2.88445;0.00590543;0.00656764;2.87425;0.347916;72.9753;117.975;0.00187926;-0.00253047;-0.00100533;0.00172785;0.00729446;0.00078909;0.0153387;0;0.0225777;-0.07853;-1.82817;-0.973067;2.0725;-7.56126;-0.00704188;-0.000113613;0.0689416;0.0689417;-0.00704205;0.0379919;0.102143;9.79022;0.0484793;0.0506559;9.79001;0.102145;90.5476;135.548;-0.00567017;-0.00704206;0.000419898;-0.0006092;0.0689415;0.00896259;0.0512512;0;0.0888364;8.73406;2.93167
408000;409;27.4728;1.18217;0.0449654;-2.16334;27.3487;-1.45593;-0.158478;1.14163;-0.852856;0.0902703;-0.63345;-0.122801;0.651528;-5.98718;-0.00251309;0.000729151;0.00697672;0.00703242;-0.00256879;0.0048006;0.360211;2.77615;0.00573947;0.00640081;2.73764;0.365278;69.797;114.797;0.00120252;-0.00251504;-0.000657812;0.00210304;0.00697677;0.00215883;0.015197;0;0.0164256;-0.0793904;-1.83687;-0.973947;2.08062;-7.56012;-0.00730229;-0.000291397;0.0693868;0.0693879;-0.0073034;0.0383457;0.10524;9.50206;0.0488753;0.0511276;9.50077;0.105255;90.194;135.194;-0.00561648;-0.00730228;-0.000318917;-0.000265851;0.0693868;0.0103893;0.0525636;0;0.0904018;8.73393;2.93951
409000;410;27.4797;1.1891;0.0452291;-2.16438;27.3553;-1.46231;-0.15952;1.14817;-0.859234;0.0917523;-0.638663;-0.110857;0.654674;-5.97523;-0.00245272;0.000782483;0.00719965;0.00726267;-0.00251574;0.00488921;0.340672;2.93537;0.00586312;0.00651894;2.88689;0.346393;71.0125;116.013;0.00126698;-0.00245459;-0.000530335;0.00208272;0.00719981;0.00140154;0.0152906;0;0.0170863;-0.0785495;-1.84856;-0.965376;2.08693;-7.55035;-0.0073628;-0.000357931;0.0711372;0.0711388;-0.00736444;0.0392516;0.103502;9.66169;0.0500616;0.0523355;9.65977;0.103522;89.8031;134.803;0.00268769;-0.00736275;-0.000904148;0.000148255;0.0711368;0.00988117;0.0473823;0;0.0840914;8.73381;2.94719
410000;411;27.4937;1.2031;0.0457616;-2.16349;27.3698;-1.45582;-0.158624;1.16265;-0.852739;0.0919979;-0.636997;-0.115737;0.65393;-5.98011;-0.00259561;0.000995286;0.00700457;0.00710667;-0.00269771;0.00490219;0.37056;2.69862;0.00584823;0.00653625;2.63433;0.379603;68.7449;113.745;0.000985856;-0.00259778;-0.000328364;0.00230632;0.00700501;0.00137805;0.0151896;0;0.0172529;-0.0792008;-1.85589;-0.972845;2.0969;-7.55785;-0.00701158;-0.000250545;0.0712861;0.0712869;-0.00701238;0.0391497;0.0983583;10.1669;0.0500262;0.0521996;10.1659;0.0983684;89.9242;134.924;-0.000559028;-0.00701155;-0.000562033;3.81778e-05;0.071286;0.00744464;0.0435414;0;0.0822309;8.73717;2.95389
411000;412;27.5067;1.21605;0.0462543;-2.16575;27.3822;-1.4639;-0.160885;1.17505;-0.860824;0.089342;-0.634909;-0.121843;0.652639;-5.98622;-0.00271883;0.000439895;0.00769899;0.00771753;-0.00273737;0.00522745;0.353142;2.83173;0.00626025;0.00696994;2.81932;0.354696;74.1594;119.159;0.00111201;-0.00272018;-0.00083099;0.00169764;0.00769874;0.00219343;0.0153628;0;0.0178211;-0.0823165;-1.86252;-0.980405;2.10641;-7.56312;-0.00676103;0.000649091;0.072954;0.0729593;-0.00676632;0.0398628;0.0926753;10.7904;0.0510446;0.0531504;10.7827;0.092741;88.5461;133.546;0.00116128;-0.00676242;-0.000575382;0.00178259;0.072954;0.0105335;0.0516528;0;0.0822543;8.74014;2.9594
412000;413;27.5135;1.22289;0.0465142;-2.16735;27.389;-1.46237;-0.162488;1.18187;-0.859295;0.090237;-0.638188;-0.116215;0.654929;-5.98059;-0.00267584;0.000861363;0.00807948;0.00814802;-0.00274439;0.0054462;0.33119;3.01942;0.0065416;0.00726161;2.96898;0.336816;72.2367;117.237;0.00113111;-0.0026779;-0.000492692;0.00220097;0.00807972;0.00238472;0.0150175;0;0.019811;-0.0824244;-1.87377;-0.983791;2.11794;-7.56876;-0.00708672;-8.5834e-05;0.0728043;0.0728044;-0.00708681;0.0399456;0.0973392;10.2733;0.0510628;0.0532608;10.2732;0.0973404;89.7854;134.785;0.00414969;-0.00708674;-0.000425606;0.000228635;0.0728043;0.0149376;0.0507064;0;0.0870027;8.74793;2.96495
413000;414;27.5209;1.23025;0.0467942;-2.1684;27.3962;-1.46438;-0.163539;1.18907;-0.861301;0.0898369;-0.639693;-0.109451;0.655178;-5.97383;-0.00277623;0.000642757;0.00734517;0.00738583;-0.00281688;0.00510136;0.377967;2.64574;0.00608423;0.00680181;2.62198;0.381391;71.0991;116.099;0.00152411;-0.00277801;-0.000716765;0.00198862;0.00734512;0.000536497;0.0165347;0;0.0166918;-0.0842312;-1.88512;-0.98042;2.1265;-7.56711;-0.00698026;0.000154483;0.0733621;0.0733624;-0.00698056;0.0401715;0.095148;10.5099;0.0513934;0.053562;10.5095;0.0951517;89.5175;134.517;0.00101768;-0.00698042;-0.000308612;0.000582915;0.0733621;0.010762;0.0572688;0;0.0891785;8.746;2.97024
414000;415;27.5278;1.23715;0.0470568;-2.1674;27.4032;-1.46439;-0.162538;1.19609;-0.861312;0.0915503;-0.637705;-0.11985;0.655296;-5.98422;-0.00265281;0.000719803;0.00804344;0.00809166;-0.00270104;0.00539635;0.329811;3.03204;0.00648507;0.00719513;2.99576;0.333805;73.8063;118.806;0.000642899;-0.00265448;-0.0005315;0.00195783;0.00804355;0.00242374;0.0162089;0;0.0286549;-0.0839888;-1.89493;-0.991051;2.14009;-7.57723;-0.00752237;-0.000169192;0.0732946;0.073295;-0.00752273;0.0404089;0.102632;9.74355;0.0515542;0.0538785;9.74314;0.102636;89.7658;134.766;-0.00602567;-0.00752239;-0.000605548;0.000234307;0.0732945;0.0119111;0.0487344;0;0.0928969;8.74818;2.97603
415000;416;27.5328;1.24223;0.0472499;-2.16815;27.4076;-1.47741;-0.163287;1.20043;-0.874329;0.0913188;-0.636112;-0.124386;0.65456;-5.98876;-0.00248989;0.000897987;0.00830391;0.0083781;-0.00256409;0.0054711;0.299846;3.33505;0.00660806;0.0072948;3.26748;0.306047;74.1375;119.137;0.00157307;-0.00249167;-0.000303152;0.00208627;0.00830426;0.000263703;0.0163476;0;0.0201897;-0.0853177;-1.90268;-0.995705;2.14916;-7.58071;-0.007132;0.000108673;0.0744849;0.0744851;-0.00713214;0.0408086;0.0957509;10.4438;0.0521968;0.0544115;10.4436;0.0957526;88.841;133.841;4.62347e-05;-0.00713294;-0.00125952;0.00137294;0.0744842;0.00407938;0.0416401;0;0.0938829;8.74849;2.98367
416000;417;27.5444;1.25377;0.047689;-2.16861;27.4187;-1.48453;-0.163743;1.21161;-0.881449;0.0897955;-0.64004;-0.111284;0.655819;-5.97566;-0.00262744;0.000784906;0.00785188;0.00791035;-0.0026859;0.00529812;0.334625;2.98842;0.00636079;0.00706417;2.94514;0.339543;72.8579;117.858;0.000659228;-0.00262922;-0.000486192;0.00204279;0.00785207;0.00251123;0.015196;0;0.0179035;-0.0870664;-1.91379;-0.989928;2.15642;-7.5749;-0.00734923;-0.000816047;0.0750721;0.0750802;-0.00735731;0.0412187;0.0978956;10.215;0.0526774;0.0549583;10.2048;0.0979927;89.9645;134.965;0.00321472;-0.0073489;-0.001582;-0.000108817;0.0750712;0.00982906;0.0458738;0;0.0868769;8.75101;2.9904
417000;418;27.5611;1.27046;0.0483236;-2.17248;27.4354;-1.48001;-0.167613;1.2283;-0.876931;0.0896371;-0.6412;-0.110859;0.656857;-5.97523;-0.00255782;0.00082991;0.00809772;0.00816197;-0.00262207;0.00539202;0.315869;3.16587;0.00649424;0.00718936;3.11279;0.321255;73.423;118.423;0.00144755;-0.00255964;-0.00043126;0.00207775;0.00809797;0.000675195;0.016555;0;0.0201765;-0.0879934;-1.92331;-0.994712;2.1671;-7.57968;-0.00723274;-0.000631553;0.0762584;0.0762631;-0.00723751;0.0417503;0.0948452;10.5435;0.0534183;0.0556671;10.5372;0.0949019;89.9653;134.965;0.00441406;-0.00723254;-0.00123854;-7.16565e-05;0.0762578;0.0154923;0.0509658;0;0.0900562;8.75138;2.99798
418000;419;27.5656;1.27502;0.0484973;-2.17312;27.4399;-1.48202;-0.168258;1.23273;-0.878942;0.0893537;-0.640441;-0.113185;0.656475;-5.97756;-0.00296916;0.000633625;0.00798418;0.00802071;-0.00300569;0.0055132;0.37188;2.68904;0.00658192;0.00735093;2.66851;0.374741;73.6918;118.692;0.000577567;-0.00297068;-0.000600425;0.00185426;0.0079842;0.00275882;0.0151471;0;0.022267;-0.0893649;-1.93176;-1.00049;2.1773;-7.58546;-0.00729285;0.000131692;0.076261;0.0762612;-0.00729306;0.0417771;0.0956301;10.457;0.053438;0.0557029;10.4567;0.0956326;89.0025;134.003;0.00356061;-0.00729359;-0.00104396;0.00121607;0.0762605;0.0145738;0.0480172;0;0.0913907;8.7517;3.00557
419000;420;27.5726;1.28196;0.0487611;-2.17357;27.4468;-1.48211;-0.168708;1.23966;-0.879036;0.0896078;-0.641189;-0.112836;0.657179;-5.97721;-0.00285647;0.000899449;0.00812033;0.00819354;-0.00292968;0.00556161;0.351767;2.84279;0.00665738;0.00741548;2.79674;0.357559;72.2289;117.229;0.00108243;-0.00285847;-0.000408587;0.00219324;0.00812065;0.00118197;0.0159377;0;0.0171771;-0.0897629;-1.94238;-1.0046;2.18863;-7.59285;-0.00699705;0.00034766;0.0771028;0.0771042;-0.00699848;0.0420514;0.0907496;11.0193;0.0538874;0.0560685;11.0173;0.0907665;89.096;134.096;0.00256183;-0.00699766;-0.000531692;0.00115835;0.0771027;0.0108899;0.0534439;0;0.0941761;8.75114;3.01318
420000;421;27.5801;1.28949;0.0490477;-2.17363;27.4539;-1.49082;-0.168769;1.24675;-0.887747;0.0898072;-0.642797;-0.107805;0.657932;-5.97218;-0.00291317;0.000771156;0.00834177;0.00839437;-0.00296576;0.00568006;0.349227;2.86347;0.00680382;0.00757342;2.83042;0.353304;73.5615;118.562;0.000958388;-0.00291495;-0.000509796;0.00203781;0.00834194;0.00233905;0.0157902;0;0.0171885;-0.0909567;-1.95175;-1.00405;2.19675;-7.58903;-0.00765846;9.74923e-05;0.0778131;0.0778133;-0.00765857;0.0427359;0.0984211;10.1604;0.0546077;0.0569812;10.1603;0.0984224;88.8593;133.859;0.000705224;-0.00765945;-0.00132241;0.00140479;0.0778123;0.00920335;0.0469768;0;0.0940661;8.75535;3.02038
421000;422;27.5852;1.29461;0.0492425;-2.17415;27.4585;-1.4997;-0.169283;1.25137;-0.89662;0.0898978;-0.643218;-0.109815;0.658689;-5.97419;-0.00299136;0.0007637;0.00871144;0.00876107;-0.00304099;0.00590103;0.343383;2.9122;0.00707566;0.00786804;2.881;0.347102;74.5032;119.503;0.00145873;-0.00299309;-0.000494507;0.00200731;0.00871161;0.00176197;0.0164439;0;0.0169821;-0.091672;-1.96026;-1.00875;2.20649;-7.59544;-0.00719172;-0.000567216;0.0798981;0.0799018;-0.00719541;0.0435486;0.0900111;11.1097;0.0558212;0.0580648;11.1046;0.0900531;89.864;134.864;0.00417859;-0.00719156;-0.00126504;7.43359e-05;0.0798975;0.0146443;0.0473394;0;0.0869705;8.75266;3.02732
422000;423;27.5964;1.30582;0.0496688;-2.17527;27.4701;-1.49123;-0.170408;1.263;-0.888154;0.0888368;-0.64331;-0.108172;0.658362;-5.97255;-0.00310882;0.000403867;0.00896022;0.00897372;-0.00312232;0.00604802;0.346958;2.88219;0.00725091;0.00806402;2.87406;0.34794;77.5032;122.503;0.000999146;-0.00310992;-0.000739266;0.00153333;0.00896003;0.00214757;0.0160056;0;0.0188343;-0.0933942;-1.96937;-1.00953;2.21501;-7.5945;-0.00739824;-0.000540214;0.0799214;0.0799247;-0.00740159;0.0436631;0.092569;10.8027;0.0559139;0.0582175;10.7983;0.092607;89.5474;134.547;0.00554803;-0.00739821;-0.00164365;0.000474004;0.0799203;0.0122143;0.0503589;0;0.0891374;8.7624;3.0342
423000;424;27.6075;1.31685;0.0500883;-2.17713;27.4805;-1.5007;-0.172265;1.27342;-0.89762;0.0895287;-0.645177;-0.102371;0.659355;-5.96675;-0.00309701;0.000872083;0.00864627;0.00871068;-0.00316142;0.00593605;0.35819;2.79182;0.00709956;0.00791473;2.75531;0.362935;74.1113;119.111;0.00129616;-0.00309876;-0.000335206;0.00206531;0.00864659;0.000444025;0.0159264;0;0.019088;-0.0936502;-1.9797;-1.0102;2.22452;-7.59518;-0.00750542;-0.000193401;0.0803349;0.0803353;-0.00750584;0.0439206;0.0934266;10.7036;0.0562261;0.0585608;10.703;0.0934314;88.9892;133.989;0.00356439;-0.00750617;-0.00175552;0.00124171;0.0803335;0.0180075;0.0519644;0;0.0905822;8.75977;3.03748
424000;425;27.6155;1.32486;0.050393;-2.17646;27.4884;-1.50557;-0.171598;1.28126;-0.902488;0.0887062;-0.647086;-0.0995024;0.660673;-5.96388;-0.00312843;0.000546546;0.00902005;0.00904459;-0.00315297;0.00609878;0.346831;2.88325;0.00731097;0.00813171;2.86859;0.348603;76.597;121.597;0.000795636;-0.00312976;-0.000634447;0.00171332;0.00902;0.00405586;0.0156782;0;0.0174128;-0.0951258;-1.99124;-1.0118;2.23558;-7.59825;-0.00724524;-0.000165305;0.0801878;0.0801881;-0.00724555;0.0437168;0.0903534;11.0677;0.0560303;0.0582891;11.0672;0.0903569;88.6178;133.618;0.006083;-0.00724672;-0.00221694;0.00172027;0.0801856;0.0158925;0.0490743;0;0.094162;8.76641;3.04585
425000;426;27.6249;1.33425;0.0507501;-2.17899;27.4971;-1.51451;-0.174122;1.29;-0.91143;0.0899074;-0.646368;-0.092168;0.659067;-5.95654;-0.00324452;0.000766398;0.00868981;0.00873882;-0.00329354;0.00601618;0.373371;2.6783;0.00718009;0.00802157;2.65333;0.376886;75.3345;120.335;0.00152972;-0.00324597;-0.000344108;0.00186376;0.00869004;-0.000139623;0.0159376;0;0.073395;-0.0955862;-2.00188;-1.00868;2.24368;-7.59686;-0.00738758;0.000135215;0.0822804;0.0822806;-0.00738778;0.0448342;0.0897854;11.1377;0.0574748;0.0597789;11.1374;0.0897876;88.1743;133.174;0.00467192;-0.00739045;-0.00232848;0.00239479;0.0822779;0.01388;0.0493324;0;0.107285;8.76261;3.04998
426000;427;27.6266;1.336;0.0508165;-2.17717;27.4984;-1.52614;-0.172302;1.29125;-0.923064;0.0893061;-0.646837;-0.102147;0.660914;-5.96652;-0.00322394;0.000440251;0.00908785;0.00910358;-0.00323966;0.00617162;0.354752;2.81887;0.00738957;0.00822882;2.81004;0.355867;77.2832;122.283;0.000741307;-0.00322509;-0.000716074;0.00158247;0.0090877;0.00247411;0.0160764;0;0.0255907;-0.0969028;-2.01078;-1.0217;2.25755;-7.60787;-0.00787428;-0.000848836;0.0823111;0.082319;-0.00788227;0.0451007;0.095665;10.4531;0.0576866;0.0601342;10.4436;0.0957527;89.9704;134.97;-0.00317171;-0.00787393;-0.00164881;-0.000115524;0.0823101;0.00654795;0.0445839;0;0.101374;8.76269;3.05731
427000;428;27.6356;1.34497;0.0511578;-2.17757;27.5074;-1.52552;-0.172709;1.30027;-0.922447;0.0896676;-0.645742;-0.106267;0.660542;-5.97064;-0.00326314;0.000648479;0.00946563;0.00949859;-0.00329609;0.00639734;0.344736;2.90077;0.00767089;0.00852979;2.88177;0.347009;77.2763;122.276;0.00135968;-0.00326447;-0.000468319;0.00175119;0.00946573;0.000862734;0.0160061;0;0.0177076;-0.0978018;-2.01854;-1.02726;2.26701;-7.61343;-0.00776529;-0.0010188;0.0834985;0.0835099;-0.00777667;0.0456433;0.0929992;10.7528;0.0584382;0.0608577;10.7385;0.0931227;89.4679;134.468;0.00273716;-0.00776491;-0.00269773;0.000518725;0.0834957;0.00564987;0.0437053;0;0.0934674;8.76258;3.065
428000;429;27.6434;1.35279;0.0514551;-2.17916;27.515;-1.52801;-0.174295;1.30786;-0.924932;0.0894517;-0.648181;-0.0993386;0.661822;-5.96371;-0.00312491;0.000710305;0.00884466;0.00888667;-0.00316691;0.00602679;0.35331;2.83038;0.00721558;0.00803572;2.8061;0.356367;76.1763;121.176;0.000930683;-0.00312628;-0.00039045;0.001798;0.00884484;0.00268459;0.0172271;0;0.027398;-0.0988103;-2.02706;-1.02643;2.27427;-7.6114;-0.00754266;-0.000483451;0.0845912;0.0845937;-0.0075452;0.0460694;0.089166;11.215;0.0590717;0.0614259;11.2116;0.0891934;89.1239;134.124;0.00528675;-0.00754314;-0.0022007;0.00108792;0.084589;0.0124716;0.0518844;0;0.0980122;8.76309;3.07209
429000;430;27.6539;1.36333;0.0518561;-2.17965;27.525;-1.53699;-0.174789;1.31791;-0.933918;0.0897686;-0.646247;-0.107007;0.661168;-5.97138;-0.00321543;0.000558474;0.00951229;0.00953675;-0.00323989;0.00638832;0.338029;2.95832;0.0076694;0.00851776;2.94354;0.339727;78.2965;123.297;0.00147776;-0.00321656;-0.000498507;0.00160213;0.00951232;0.000861402;0.0176435;0;0.017832;-0.0990428;-2.03557;-1.03538;2.2859;-7.62035;-0.00745813;-0.000104239;0.0853938;0.0853939;-0.00745825;0.0464261;0.0873381;11.4498;0.0595712;0.0619014;11.4496;0.0873394;88.9808;133.981;0.00290196;-0.00745906;-0.0017047;0.0013593;0.0853925;0.0163499;0.0496076;0;0.0989015;8.76277;3.07978
430000;431;27.6672;1.37655;0.0523591;-2.18176;27.5387;-1.52769;-0.176893;1.33155;-0.924609;0.0894879;-0.650186;-0.0973682;0.663498;-5.96174;-0.00325548;0.000713356;0.00923905;0.00927965;-0.00329608;0.00628786;0.352361;2.838;0.00752957;0.00838382;2.81536;0.355194;76.2602;121.26;0.00153655;-0.00325695;-0.000443861;0.00185625;0.00923921;0.000833262;0.0172524;0;0.0182554;-0.100725;-2.0492;-1.03306;2.29708;-7.62797;-0.00641786;0.00151141;0.086975;0.0869995;-0.00644231;0.0467209;0.0737897;13.552;0.060262;0.0622945;13.5044;0.07405;86.1216;131.122;0.0131663;-0.00643277;-0.00301624;0.00565002;0.0869719;0.0158047;0.0487899;0;0.0994646;8.76455;3.08664
431000;432;27.6724;1.38183;0.0525598;-2.1794;27.544;-1.52989;-0.174535;1.33691;-0.926813;0.0885199;-0.648769;-0.100085;0.662385;-5.96446;-0.00333928;0.00057229;0.00967773;0.00970284;-0.00336439;0.00653362;0.345047;2.89815;0.00783464;0.00871149;2.88398;0.346743;77.8377;122.838;0.00109805;-0.00334053;-0.000548488;0.00167862;0.00967775;0.00221051;0.0167475;0;0.0199493;-0.102485;-2.0572;-1.03855;2.30676;-7.62352;-0.00773028;0.000361456;0.0863356;0.086337;-0.00773167;0.0470343;0.0895376;11.1685;0.0603007;0.0627125;11.1667;0.0895522;87.7794;132.779;0.000488356;-0.00773503;-0.00262515;0.00308945;0.0863325;0.010202;0.0503256;0;0.104619;8.77021;3.09355
432000;433;27.6813;1.39065;0.0528953;-2.18307;27.5519;-1.54213;-0.178211;1.3448;-0.939049;0.0890053;-0.648281;-0.102732;0.662378;-5.96711;-0.00331437;0.000417114;0.00965381;0.00966722;-0.00332777;0.00649749;0.343322;2.91272;0.00779457;0.00866332;2.90501;0.344233;77.8945;122.894;0.00134048;-0.00331557;-0.000781634;0.00160046;0.0096536;0.00156124;0.018028;0;0.0193788;-0.10342;-2.06859;-1.04512;2.31992;-7.63387;-0.00765892;-0.000839372;0.0861916;0.0861991;-0.00766642;0.0469328;0.0888592;11.2538;0.0601845;0.062577;11.2437;0.0889385;89.4692;134.469;-0.00367545;-0.00765873;-0.00239318;0.000580183;0.0861893;0.00966054;0.0559129;0;0.0981656;8.76939;3.10113
433000;434;27.6878;1.39719;0.0531442;-2.18369;27.5579;-1.5516;-0.178825;1.3508;-0.948519;0.0885894;-0.649516;-0.102393;0.663479;-5.96677;-0.00336157;0.000592478;0.00970842;0.00973522;-0.00338837;0.0065618;0.346253;2.88806;0.00786673;0.00874906;2.87313;0.348053;77.4855;122.485;0.00118634;-0.0033629;-0.000564431;0.00173441;0.00970844;0.00117875;0.0178903;0;0.0170047;-0.10462;-2.0776;-1.04927;2.32988;-7.6426;-0.00743515;-0.000325222;0.0889715;0.0889726;-0.00743625;0.0482044;0.0835678;11.9663;0.0619428;0.0642726;11.9647;0.0835791;88.217;133.217;0.0129429;-0.00743818;-0.003393;0.00247097;0.0889663;0.0042163;0.043507;0;0.0969868;8.76641;3.10786
434000;435;27.6977;1.40707;0.0535199;-2.18329;27.5679;-1.55199;-0.178428;1.36073;-0.948908;0.0882109;-0.64919;-0.100765;0.662859;-5.96514;-0.00327698;0.000644646;0.00953238;0.00956474;-0.00330934;0.00643704;0.343774;2.90889;0.00771979;0.00858272;2.89022;0.345994;77.3515;122.352;0.0011115;-0.00327831;-0.000476771;0.00175183;0.00953247;0.001095;0.0181807;0;0.0212555;-0.10591;-2.08759;-1.05221;2.34017;-7.64717;-0.00786534;-0.000346483;0.0892288;0.08923;-0.00786657;0.0485483;0.088148;11.3446;0.0622747;0.0647311;11.3429;0.0881606;88.2625;133.263;0.00555026;-0.00786816;-0.00335511;0.00239395;0.0892237;0.00109883;0.0436812;0;0.106374;8.76257;3.11499
435000;436;;;;;;;;;;0.0879718;-0.650382;-0.0960814;0.6633;-5.96046;-0.00349462;0.000322658;0.00922823;0.0092364;-0.0035028;0.0063696;0.378688;2.6407;0.00759924;0.0084928;2.63686;0.379238;77.6775;122.678;0.000517334;-0.00349564;-0.000831391;0.00146216;0.00922794;0.00345215;0.0176891;0;0.0182286;-0.106956;-2.09634;-1.05123;2.34758;-7.64604;-0.00638463;0.000267256;0.0934797;0.0934804;-0.00638534;0.0499329;0.0682996;14.6414;0.0645541;0.0665772;14.6398;0.0683067;87.3972;132.397;0.00338868;-0.00639255;-0.00381483;0.00397653;0.0934731;0.0199048;0.0513169;0;0.108843;8.75999;3.11599
436000;437;27.7224;1.43179;0.0544601;-2.18771;27.5924;-1.55069;-0.182849;1.38529;-0.947609;0.088598;-0.651596;-0.098377;0.66491;-5.96275;-0.00344131;0.000459759;0.00967285;0.00968895;-0.00345741;0.00657318;0.35577;2.8108;0.00786916;0.00876424;2.80237;0.356841;79.2551;124.255;0.00049463;-0.00344224;-0.000531032;0.00143768;0.00967282;0.00436668;0.017044;0;0.0171689;-0.10771;-2.10898;-1.05884;2.36231;-7.65347;-0.00704145;-0.000296089;0.0913914;0.0913923;-0.00704234;0.0492173;0.0770472;12.9791;0.0634061;0.0656231;12.9775;0.0770562;87.583;132.583;0.0222663;-0.00704758;-0.00446857;0.00350008;0.0913823;0.0104746;0.0413221;0;0.102208;8.76242;3.12329
437000;438;27.7242;1.43363;0.0545301;-2.18654;27.5933;-1.56848;-0.181676;1.38622;-0.965407;0.0882847;-0.651998;-0.0934072;0.664545;-5.95778;-0.00361335;0.000407932;0.00982886;0.00984123;-0.00362572;0.00673347;0.367627;2.72015;0.00804645;0.00897797;2.71428;0.368422;79.6962;124.696;0.000504164;-0.0036142;-0.000559742;0.00136273;0.00982878;0.00385644;0.0175639;0;0.0174051;-0.109014;-2.11867;-1.05938;2.37127;-7.65771;-0.00703094;-0.00122658;0.0929519;0.092967;-0.00704598;0.0500065;0.0756406;13.2204;0.0644551;0.0666753;13.1943;0.0757902;88.7475;133.747;0.0156856;-0.00703162;-0.00443657;0.00168978;0.0929436;0.0238622;0.0455794;0;0.0964806;8.7613;3.13093
438000;439;27.7332;1.4426;0.0548711;-2.1867;27.6023;-1.56882;-0.181833;1.3952;-0.965739;0.0888437;-0.652392;-0.0944877;0.665159;-5.95886;-0.00375637;0.000360605;0.00978478;0.00979438;-0.00376597;0.00678017;0.3839;2.60485;0.00808284;0.00904023;2.60076;0.384503;78.9301;123.93;0.000248595;-0.00375729;-0.000693031;0.00140011;0.00978461;0.00447006;0.0170489;0;0.0160197;-0.109483;-2.12637;-1.06376;2.38013;-7.65527;-0.00740882;-0.00123937;0.0915274;0.0915429;-0.00742435;0.0494836;0.0809465;12.3538;0.0636479;0.0659782;12.3301;0.0811023;89.1575;134.158;0.00588612;-0.00740859;-0.00374203;0.00103646;0.0915217;0.0218696;0.0521682;0;0.0912706;8.76216;3.13788
439000;440;27.7418;1.45114;0.0551962;-2.18881;27.6109;-1.56524;-0.183946;1.40382;-0.962166;0.0874663;-0.651636;-0.0988373;0.664867;-5.96321;-0.00358242;0.000246653;0.0102778;0.0102821;-0.00358681;0.00693447;0.348561;2.86894;0.00831245;0.00924597;2.86666;0.348839;80.2203;125.22;9.79027e-05;-0.00358324;-0.000821258;0.00129991;0.0102774;0.00519315;0.0163413;0;0.0171203;-0.111267;-2.13629;-1.07013;2.39192;-7.66297;-0.00763405;-0.000621045;0.0920422;0.092046;-0.00763791;0.049842;0.0829407;12.0568;0.0640619;0.066456;12.0512;0.0829793;88.1948;133.195;0.00846129;-0.00763712;-0.00410659;0.00254636;0.0920346;0.00161656;0.040167;0;0.111872;8.76255;3.1449
440000;441;27.75;1.45939;0.0555098;-2.18879;27.6189;-1.57099;-0.18393;1.41178;-0.967913;0.0878934;-0.65238;-0.0964124;0.665297;-5.96079;-0.00364482;0.000302264;0.0100538;0.0100605;-0.00365148;0.00685598;0.362531;2.75838;0.00819978;0.0091413;2.75517;0.362954;79.6352;124.635;0.000199703;-0.00364569;-0.000762263;0.00135235;0.0100536;0.0041831;0.0163955;0;0.0170021;-0.112051;-2.14762;-1.07393;2.40378;-7.66966;-0.00819083;0.000354102;0.0937949;0.0937962;-0.00819206;0.0509941;0.087327;11.4512;0.0654326;0.0679921;11.4496;0.087339;87.1767;132.177;0.00969546;-0.00819989;-0.00394744;0.00425456;0.0937879;0.00133661;0.0505327;0;0.111903;8.76279;3.15247
441000;442;;;;;;;;;;0.087108;-0.654506;-0.09124;0.666551;-5.95561;-0.00385134;0.000306331;0.0103339;0.0103405;-0.00385795;0.00709924;0.37269;2.6832;0.00847751;0.00946565;2.68031;0.373091;80.2186;125.219;0.000861055;-0.00385214;-0.000700631;0.00129915;0.0103337;0.00327086;0.0166163;0;0.0194942;-0.113793;-2.15736;-1.07177;2.41161;-7.65896;-0.00809233;7.6734e-05;0.0958117;0.0958117;-0.00809238;0.0519521;0.0844608;11.8398;0.0667357;0.0692694;11.8397;0.0844613;87.023;132.023;0.0064049;-0.00810276;-0.00486515;0.00455003;0.0958009;0.00752357;0.0594309;0;0.107205;8.76123;3.16001
442000;443;;;;;;;;;;0.08753;-0.65381;-0.0921142;0.666044;-5.95649;-0.00384565;0.000156766;0.0100308;0.0100326;-0.00384742;0.00694002;0.383382;2.60836;0.00827461;0.00925335;2.60762;0.383491;80.8236;125.824;0.000206088;-0.00384624;-0.000801849;0.00110221;0.0100305;0.00541409;0.0179406;0;0.0174577;-0.114893;-2.16872;-1.07854;2.42483;-7.67652;-0.00740627;-0.00178129;0.0991771;0.0992069;-0.00743603;0.0533214;0.0746772;13.391;0.0687508;0.0710953;13.3414;0.0749548;89.5288;134.529;0.00370017;-0.0074048;-0.00429826;0.000491624;0.0991701;0.0385328;0.0576837;0;0.112966;8.75789;3.16732
443000;444;27.7788;1.48821;0.0566059;-2.19059;27.6469;-1.58508;-0.185726;1.43979;-0.982007;0.0867207;-0.655033;-0.0885017;0.666649;-5.95288;-0.00385989;0.000215213;0.0100152;0.0100185;-0.00386323;0.00694089;0.385403;2.59469;0.00827311;0.00925452;2.59331;0.385607;80.0887;125.089;0.000191555;-0.00386061;-0.000797703;0.00121421;0.0100149;0.00379838;0.0176699;0;0.0166517;-0.115969;-2.17878;-1.07918;2.43416;-7.67831;-0.00748117;-0.00150352;0.098142;0.0981634;-0.00750256;0.052833;0.0762279;13.1185;0.0680811;0.070444;13.084;0.0764293;88.5336;133.534;0.0208645;-0.00748222;-0.00547738;0.00208814;0.0981294;0.0209105;0.0382419;0;0.0976301;8.75912;3.17559
444000;445;27.7862;1.49557;0.0568862;-2.19026;27.6537;-1.59585;-0.185396;1.4466;-0.992771;0.0871021;-0.653993;-0.0891021;0.665758;-5.95348;-0.00379491;0.00012484;0.0103767;0.0103778;-0.00379601;0.00708688;0.365716;2.73436;0.00847221;0.00944917;2.73386;0.365783;81.1723;126.172;0.000769206;-0.00379551;-0.000869445;0.00110518;0.0103763;0.00370297;0.0176832;0;0.0171294;-0.116049;-2.18459;-1.08313;2.44112;-7.67194;-0.00834679;-0.00173877;0.0982078;0.0982362;-0.00837515;0.0533057;0.0849911;11.7659;0.0684535;0.0710742;11.7295;0.0852553;89.3549;134.355;0.00741906;-0.00834553;-0.00446269;0.000720871;0.0982001;0.0115387;0.0469145;0;0.115795;8.75538;3.18221
445000;446;27.7944;1.50379;0.0571988;-2.19312;27.6616;-1.59887;-0.188252;1.45446;-0.995792;0.0865523;-0.655526;-0.0865696;0.666858;-5.95094;-0.00381758;6.5211e-05;0.00999105;0.00999135;-0.00381789;0.00690462;0.382101;2.61711;0.00823406;0.00920616;2.61698;0.38212;80.2706;125.271;0.000229045;-0.00381821;-0.00100344;0.00111926;0.00999055;0.0047997;0.017702;0;0.0172157;-0.118042;-2.19716;-1.08636;2.4539;-7.68102;-0.00862548;-0.00186671;0.100555;0.100587;-0.00865738;0.054622;0.0857789;11.6579;0.070122;0.0728294;11.6186;0.0860689;88.7039;133.704;0.0225441;-0.00862528;-0.00589347;0.0017606;0.100541;0.00873431;0.0387927;0;0.118233;8.75284;3.18714
446000;447;27.8045;1.51393;0.0575845;-2.19351;27.6715;-1.60228;-0.188647;1.46442;-0.9992;0.0863854;-0.656269;-0.0827579;0.667083;-5.94713;-0.00382171;0.000167487;0.010118;0.01012;-0.00382372;0.00697186;0.377715;2.6475;0.00831949;0.00929581;2.64663;0.377839;81.4086;126.409;-9.36327e-05;-0.00382226;-0.000732848;0.0010554;0.0101177;0.00570286;0.0181251;0;0.0169598;-0.119589;-2.20981;-1.09031;2.46705;-7.68684;-0.00853125;-4.81064e-05;0.0989325;0.0989326;-0.00853127;0.0537319;0.086233;11.5965;0.0689749;0.0716426;11.5965;0.0862332;86.9527;131.953;0.0129372;-0.00854276;-0.00539828;0.00477888;0.0989193;0.00293927;0.0381739;0;0.115458;8.7522;3.19184
447000;448;27.8172;1.52663;0.0580676;-2.19484;27.6843;-1.60042;-0.18998;1.47718;-0.997339;0.0869716;-0.654591;-0.0850818;0.665802;-5.94946;-0.00389313;0.000254359;0.0101401;0.0101447;-0.00389773;0.00702124;0.383932;2.60463;0.00837058;0.00936165;2.60273;0.384212;80.2381;125.238;0.000745898;-0.00389386;-0.000737457;0.0012324;0.0101399;0.00357179;0.0178449;0;0.0175616;-0.120887;-2.21867;-1.09488;2.47707;-7.68731;-0.00892897;-0.00109515;0.0990707;0.0990818;-0.00894008;0.0540109;0.0901273;11.0954;0.0692272;0.0720146;11.0829;0.0902293;87.3566;132.357;0.0210044;-0.00893626;-0.00669574;0.00395513;0.0990508;0.0162149;0.047505;0;0.115565;8.75205;3.1977
448000;449;;;;;;;;;;0.086545;-0.656961;-0.0836802;0.6679;-5.94805;-0.00391898;-0.000147675;0.010459;0.0104605;-0.00392049;0.00719051;0.374699;2.66881;0.00858431;0.00958735;2.66817;0.374789;82.5575;127.558;8.46421e-05;-0.00391928;-0.00109913;0.000790239;0.0104584;0.00574143;0.0183701;0;0.0187865;-0.121721;-2.23098;-1.09471;2.48806;-7.69164;-0.0076863;-0.00182102;0.101866;0.101896;-0.00771657;0.0548064;0.0754551;13.2529;0.0706437;0.0730752;13.2049;0.0757296;88.807;133.807;0.0197109;-0.00768606;-0.00571396;0.00168488;0.101853;0.0300992;0.0456529;0;0.106963;8.74853;3.20416
449000;450;;;;;;;;;;0.0862971;-0.657378;-0.0847474;0.668412;-5.94912;-0.00391644;0.000178747;0.0104274;0.0104296;-0.00391866;0.00717414;0.375591;2.66247;0.00856357;0.00956552;2.66152;0.375725;81.4207;126.421;0.000821943;-0.00391702;-0.000747907;0.00109225;0.0104271;0.00285865;0.0187673;0;0.0187206;-0.123349;-2.23961;-1.10141;2.49883;-7.69997;-0.00734207;-0.0019348;0.102778;0.102812;-0.00737606;0.0550941;0.0714361;13.9985;0.0711277;0.0734588;13.9386;0.071743;88.1077;133.108;0.0201442;-0.00734435;-0.00727858;0.00287542;0.102756;0.0250577;0.0323949;0;0.124493;8.74773;3.2112
450000;451;27.8386;1.54801;0.0588808;-2.19504;27.7045;-1.62181;-0.19018;1.4974;-1.01874;0.0847388;-0.658959;-0.0805786;0.669254;-5.94495;-0.00392351;-6.13079e-05;0.0101676;0.0101679;-0.00392377;0.00704582;0.385883;2.59146;0.00839783;0.00939443;2.59135;0.385899;81.3995;126.4;0.000922658;-0.00392394;-0.00106794;0.000931282;0.010167;0.00332973;0.0195818;0;0.0162667;-0.125318;-2.25017;-1.10672;2.51074;-7.70442;-0.00843019;-0.00201997;0.103112;0.103149;-0.00846676;0.0558078;0.0817573;12.2313;0.0717549;0.0744104;12.1828;0.0820829;88.858;133.858;0.0231372;-0.00842936;-0.00600063;0.00155821;0.103098;0.0175406;0.0106201;0;0.117108;8.7447;3.21863
451000;452;27.8492;1.55855;0.0592814;-2.19716;27.7149;-1.62321;-0.192296;1.50774;-1.02014;0.0851974;-0.659503;-0.081463;0.669955;-5.94584;-0.00406125;0.000220205;0.0104954;0.0104988;-0.00406458;0.00728167;0.386955;2.58428;0.00867737;0.00970889;2.58298;0.387149;80.7155;125.715;0.00077565;-0.00406194;-0.000763666;0.0011899;0.0104952;0.00345791;0.0184356;0;0.0193838;-0.126185;-2.2647;-1.11117;2.52577;-7.71582;-0.00841524;-0.00288605;0.105662;0.105735;-0.00848821;0.0571118;0.0796427;12.5561;0.0734833;0.0761491;12.4567;0.0802778;89.4901;134.49;0.0232427;-0.00841113;-0.00656692;0.000415082;0.105647;0.0179684;0.0141771;0;0.118214;8.74222;3.22553
452000;453;27.86;1.56935;0.0596923;-2.19702;27.7258;-1.6221;-0.192157;1.51867;-1.01903;0.0865025;-0.662721;-0.0696431;0.671961;-5.93402;-0.00399459;9.53836e-06;0.0102906;0.0102906;-0.00399459;0.0071426;0.388178;2.57614;0.00851039;0.00952347;2.57614;0.388178;81.8384;126.838;0.000499448;-0.00399501;-0.00091739;0.00092336;0.0102902;0.0039953;0.0185873;0;0.0171508;-0.126611;-2.27707;-1.1089;2.53589;-7.71375;-0.00841711;-0.00228264;0.105035;0.105081;-0.00846302;0.056772;0.0801362;12.4788;0.0730386;0.075696;12.4165;0.080538;88.3938;133.394;0.0231536;-0.00841725;-0.00743978;0.00234507;0.105012;0.0321739;0.0207215;0;0.124927;8.74084;3.23322
453000;454;27.8721;1.58144;0.0601521;-2.19929;27.7376;-1.62409;-0.194427;1.53052;-1.02101;0.0864907;-0.659083;-0.0818151;0.66975;-5.94619;-0.00384634;0.000117086;0.0104302;0.0104312;-0.0038473;0.00713924;0.36877;2.71172;0.00853081;0.00951898;2.71129;0.368828;81.8612;126.861;0.000209945;-0.00384686;-0.000795357;0.00101664;0.0104299;0.00360193;0.0186567;0;0.0196762;-0.127779;-2.28369;-1.12055;2.547;-7.72259;-0.00753994;-0.00305013;0.104327;0.10441;-0.00762305;0.0560166;0.0722722;13.8366;0.0722819;0.0746888;13.6966;0.0730106;89.6353;134.635;0.0293966;-0.00753527;-0.00664768;0.000183019;0.104311;0.00763446;0.0120607;0;0.11605;8.73981;3.24065
454000;455;27.8795;1.58888;0.0604354;-2.19975;27.7444;-1.63517;-0.194884;1.53732;-1.03209;0.0863012;-0.661184;-0.0739388;0.670879;-5.93831;-0.00390587;0.000215567;0.0103749;0.0103781;-0.00390912;0.00714363;0.376474;2.65623;0.00852594;0.00952484;2.65485;0.376669;80.7768;125.777;0.000222334;-0.00390655;-0.000766107;0.00118337;0.0103746;0.00355383;0.0189557;0;0.0146709;-0.128925;-2.29257;-1.11538;2.55275;-7.71285;-0.00803171;-0.0025997;0.106525;0.106584;-0.00809067;0.0573374;0.0753973;13.2631;0.0739007;0.0764498;13.1737;0.0759088;88.738;133.738;0.0215466;-0.0080299;-0.00748583;0.00178063;0.106503;0.0186095;0.00504639;0;0.118659;8.73758;3.24816
455000;456;27.8864;1.59581;0.060699;-2.20091;27.7508;-1.64346;-0.196049;1.5437;-1.04039;0.0858622;-0.662264;-0.0717848;0.671654;-5.93616;-0.00401932;0.000150028;0.0102736;0.0102752;-0.00402089;0.00714804;0.391227;2.55606;0.00851306;0.00953072;2.55545;0.391321;80.8968;125.897;0.000254658;-0.00401992;-0.000816223;0.00110261;0.0102733;0.00439118;0.019005;0;0.0171662;-0.130009;-2.30301;-1.11916;2.56384;-7.715;-0.0088894;-0.00193459;0.108451;0.108483;-0.00892129;0.0587023;0.0819667;12.2001;0.0754719;0.0782697;12.16;0.0822365;88.2708;133.271;0.0261282;-0.00889115;-0.00710024;0.00268426;0.10843;0.0146392;0.00504056;0;0.117483;8.73414;3.25507
456000;457;27.8958;1.60518;0.0610551;-2.20355;27.7605;-1.63468;-0.19869;1.55341;-1.0316;0.0840804;-0.660627;-0.074165;0.670074;-5.93854;-0.00400637;0.000115278;0.0105711;0.010572;-0.00400729;0.00728965;0.378993;2.63857;0.00869716;0.00971954;2.6382;0.379046;81.218;126.218;0.000939794;-0.00400697;-0.000877373;0.00109361;0.0105707;0.00319109;0.018468;0;0.0220384;-0.132093;-2.31678;-1.12614;2.57936;-7.73263;-0.00805775;-0.00140489;0.110882;0.110898;-0.00807435;0.0594863;0.0726699;13.7609;0.0767652;0.079315;13.7346;0.0728086;88.0034;133.003;0.0249293;-0.00806248;-0.00675089;0.00336876;0.110862;0.0146449;0.0218055;0;0.122831;8.73203;3.26085
457000;458;27.9068;1.61622;0.0614753;-2.20531;27.7714;-1.63694;-0.200446;1.56424;-1.03386;0.0863869;-0.662238;-0.0711513;0.671628;-5.93553;-0.00415634;0.000182728;0.0107361;0.0107383;-0.00415858;0.00744844;0.387138;2.58306;0.00887595;0.00993125;2.5822;0.387266;81.9034;126.903;0.000669404;-0.00415687;-0.000695142;0.00104766;0.0107358;0.0040451;0.0197417;0;0.0157613;-0.132103;-2.3299;-1.1294;2.59257;-7.73411;-0.00818978;-0.00252087;0.111079;0.111132;-0.00824303;0.0596876;0.0737293;13.5631;0.0769831;0.0795835;13.482;0.0741732;88.7918;133.792;0.0141359;-0.0081882;-0.00735868;0.00179767;0.111057;0.0270219;0.0211782;0;0.114707;8.74738;3.26988
458000;459;27.9234;1.63278;0.0621049;-2.20602;27.7879;-1.63693;-0.201161;1.58082;-1.03385;0.0875875;-0.658537;-0.0796195;0.66909;-5.94399;-0.00390298;0.00021714;0.0106591;0.0106623;-0.00390621;0.00728428;0.366163;2.73102;0.00870743;0.00971237;2.72959;0.366356;80.6576;125.658;0.000355539;-0.00390373;-0.000825291;0.00124455;0.0106588;0.00419415;0.0197602;0;0.0168224;-0.132419;-2.33629;-1.13891;2.60248;-7.73828;-0.00809762;-0.00232223;0.109638;0.109684;-0.0081434;0.0589136;0.0738577;13.5395;0.0759826;0.0785515;13.469;0.0742443;88.4228;133.423;0.0247416;-0.00809793;-0.00766209;0.0024511;0.109614;0.00418774;0.0292612;0;0.111909;8.68875;3.27288
459000;460;27.9255;1.63489;0.0621852;-2.20709;27.7897;-1.64179;-0.202222;1.58257;-1.03872;0.0880811;-0.663286;-0.0648073;0.67224;-5.92918;-0.00372968;0.000246042;0.0105454;0.0105496;-0.00373392;0.00714178;0.353679;2.82743;0.00855385;0.00952237;2.82535;0.353938;81.9183;126.918;2.1668e-05;-0.00373026;-0.00062477;0.00110455;0.0105452;0.00413002;0.0195487;0;0.016818;-0.132578;-2.34437;-1.13038;2.60603;-7.72623;-0.00893328;-0.00216231;0.109516;0.109556;-0.00897274;0.0592642;0.0815704;12.2594;0.0762043;0.0790189;12.2098;0.0819012;87.9791;132.979;0.0241438;-0.00893607;-0.00815959;0.00319477;0.109488;0.0034741;0.0275561;0;0.119161;8.6909;3.2776
460000;461;27.9332;1.64263;0.0624797;-2.20637;27.7968;-1.65444;-0.20151;1.58966;-1.05136;0.0858203;-0.663549;-0.0663748;0.67236;-5.93075;-0.00396262;7.62341e-06;0.0105075;0.0105075;-0.00396263;0.00723507;0.377123;2.65165;0.00863449;0.00964676;2.65165;0.377123;81.7751;126.775;0.000219544;-0.00396309;-0.000965102;0.00096642;0.010507;0.00425962;0.0205278;0;0.0172621;-0.136411;-2.35515;-1.13301;2.61706;-7.72956;-0.00856736;-0.00201682;0.111693;0.111727;-0.00860117;0.0601639;0.0767047;13.037;0.0775107;0.0802185;12.9897;0.0769841;88.1858;133.186;0.0293079;-0.0085697;-0.00758749;0.00295128;0.111669;0.00044527;0.032725;0;0.133801;8.72468;3.28484
461000;462;27.9436;1.65295;0.0628721;-2.21062;27.8075;-1.64207;-0.205759;1.60042;-1.039;0.0870098;-0.66861;-0.055627;0.676539;-5.92;-0.00369398;-0.000355277;0.0102873;0.0102964;-0.003703;0.00699968;0.35908;2.78489;0.00837601;0.0093329;2.78054;0.359642;84.4586;129.459;-0.000524254;-0.00369402;-0.00118529;0.00046325;0.0102867;0.00633769;0.019791;0;0.027872;-0.135124;-2.36941;-1.13184;2.62934;-7.73037;-0.00936595;-0.000969195;0.114284;0.114291;-0.00937355;0.0618325;0.0819534;12.2021;0.0795032;0.0824433;12.193;0.0820144;87.199;132.199;0.0258186;-0.00937786;-0.00763159;0.00495392;0.114258;0.00801381;0.0290208;0;0.126306;8.72643;3.29236
462000;463;27.9558;1.66519;0.0633378;-2.20927;27.8189;-1.66062;-0.204403;1.61173;-1.05754;0.0858315;-0.661064;-0.071201;0.670404;-5.93558;-0.0039877;5.08662e-05;0.0105623;0.0105624;-0.00398788;0.00727515;0.377543;2.64871;0.00868178;0.00970021;2.64863;0.377553;82.9071;127.907;0.000549256;-0.00398807;-0.000764265;0.000854261;0.010562;0.00334379;0.0187746;0;0.0165382;-0.137014;-2.3834;-1.14592;2.64811;-7.75758;-0.00956603;-0.00171253;0.118307;0.11833;-0.00958896;0.0639593;0.0808579;12.3674;0.0822692;0.0852791;12.3402;0.081036;87.8539;132.854;0.0238252;-0.00957178;-0.00791888;0.00378421;0.11828;0.0179133;0.0288553;0;0.107732;8.72108;3.29981
463000;464;27.9677;1.67708;0.06379;-2.2091;27.8308;-1.66118;-0.204234;1.62366;-1.0581;0.0861314;-0.663288;-0.0657123;0.672077;-5.93009;-0.00408604;8.08377e-05;0.0106021;0.0106026;-0.00408648;0.00734453;0.385397;2.59472;0.00875446;0.00979271;2.59455;0.385423;81.3029;126.303;0.000242314;-0.00408659;-0.000911117;0.00105838;0.0106017;0.00488136;0.0188745;0;0.0176286;-0.139374;-2.39029;-1.14819;2.65542;-7.74326;-0.00889756;-0.00144573;0.113566;0.113583;-0.00891463;0.0612488;0.0783472;12.7637;0.0788616;0.081665;12.7412;0.0784856;87.7168;132.717;0.0212065;-0.00890431;-0.00748922;0.00393317;0.113542;0.013604;0.0159244;0;0.119121;8.70084;3.30727
464000;465;27.9764;1.68575;0.0641195;-2.21113;27.8387;-1.67255;-0.206266;1.63159;-1.06678;0.0867811;-0.665758;-0.0602986;0.674092;-5.92467;-0.00389421;9.5119e-05;0.0107929;0.0107935;-0.00389483;0.00734416;0.360813;2.77152;0.00878655;0.00979221;2.77124;0.36085;82.3073;127.307;0.000621794;-0.0038947;-0.000815983;0.000992982;0.0107926;0.00297057;0.019743;0;0.0260215;-0.140242;-2.40188;-1.15551;2.66907;-7.75977;-0.00853634;-0.00216702;0.116928;0.116966;-0.00857376;0.0627697;0.073005;13.6977;0.0809865;0.083693;13.6423;0.0733015;87.3165;132.316;0.0335633;-0.00854542;-0.00997382;0.00476294;0.116886;0.0064544;0.0299495;0;0.122506;8.69264;3.3145
465000;466;27.9859;1.6953;0.0644831;-2.21034;27.848;-1.67799;-0.205476;1.64086;-1.07492;0.0859178;-0.662622;-0.0654938;0.671371;-5.92987;-0.00405379;0.000467812;0.0106092;0.0106241;-0.0040687;0.0073464;0.382102;2.61711;0.00875981;0.0097952;2.61118;0.382969;79.5355;124.536;0.000839195;-0.00405478;-0.000562672;0.00148335;0.0106091;0.00242956;0.0204738;0;0.0162455;-0.140626;-2.4137;-1.15395;2.67906;-7.76223;-0.0105843;-0.00205813;0.121417;0.121449;-0.0106164;0.0660328;0.0871732;11.4714;0.0847269;0.0880437;11.4398;0.0874144;88.2162;133.216;0.0162103;-0.010587;-0.0078833;0.00308142;0.121391;0.00982413;0.049618;0;0.122275;8.68234;3.32161
466000;467;27.9984;1.70768;0.0649537;-2.2165;27.8616;-1.65032;-0.21164;1.65452;-1.04454;0.0852124;-0.663562;-0.061597;0.671841;-5.92597;-0.00393665;0.000175243;0.0106955;0.0106976;-0.00393875;0.0073182;0.368064;2.71692;0.00874551;0.0097576;2.716;0.368188;81.1051;126.105;0.000239566;-0.00393732;-0.000831319;0.00116723;0.0106952;0.00450664;0.0201323;0;0.0221751;-0.142844;-2.42892;-1.15651;2.69399;-7.77192;-0.0100734;-0.00249098;0.12202;0.122067;-0.0101203;0.0660936;0.0825553;12.1131;0.0849525;0.0881248;12.0615;0.0829082;88.3908;133.391;0.028171;-0.010074;-0.00840504;0.00272689;0.121991;0.0163845;0.0378052;0;0.127146;8.68316;3.32729
467000;468;28.0028;1.71221;0.0651261;-2.21294;27.8645;-1.68297;-0.208075;1.65734;-1.0799;0.0865932;-0.662427;-0.0612441;0.670864;-5.92562;-0.00404834;-0.000103546;0.0103714;0.0103721;-0.00404908;0.0072106;0.390338;2.56188;0.00858871;0.00961413;2.5616;0.390382;83.5137;128.514;-0.000433087;-0.00404856;-0.000887945;0.000669658;0.010371;0.0054729;0.0189192;0;0.0198473;-0.141704;-2.43344;-1.16095;2.69992;-7.76833;-0.00986262;5.44913e-06;0.123319;0.123319;-0.00986262;0.0665908;0.0799765;12.5037;0.0856896;0.0887878;12.5037;0.0799765;86.0904;131.09;0.0175681;-0.0098927;-0.00874479;0.00771825;0.123285;0.0131807;0.044374;0;0.114577;8.68204;3.33304
468000;469;28.0103;1.71972;0.0654118;-2.21448;27.871;-1.69826;-0.209616;1.66384;-1.09519;0.0859169;-0.664804;-0.0563201;0.672695;-5.92069;-0.00378042;9.51717e-06;0.01034;0.01034;-0.00378043;0.00706021;0.365612;2.73514;0.00844056;0.00941362;2.73514;0.365612;82.4726;127.473;0.000293294;-0.00378081;-0.000877105;0.000883748;0.0103396;0.00477385;0.0204167;0;0.0160175;-0.143653;-2.44611;-1.16168;2.71175;-7.77402;-0.0105949;-0.00147704;0.123755;0.123771;-0.0106112;0.0671911;0.0856123;11.6806;0.0862688;0.0895881;11.6642;0.0857322;87.3198;132.32;0.0298299;-0.0106066;-0.00885907;0.0050225;0.123721;0.0151687;0.0391389;0;0.10078;8.68187;3.33716
469000;470;28.024;1.73335;0.0659301;-2.21392;27.8849;-1.69604;-0.209054;1.67778;-1.09026;0.0853556;-0.66488;-0.0584429;0.67288;-5.92282;-0.00379833;0.000341687;0.0105121;0.0105202;-0.00380648;0.00716336;0.36133;2.76755;0.00856893;0.00955115;2.76377;0.361825;80.8983;125.898;0.000401327;-0.00379908;-0.000597212;0.00126729;0.010512;0.00386984;0.0189191;0;0.0304565;-0.145952;-2.45954;-1.16569;2.72571;-7.78119;-0.0103091;-0.00171911;0.125398;0.12542;-0.0103309;0.0678752;0.0822115;12.1637;0.0872608;0.0905003;12.1402;0.0823709;87.0901;132.09;0.031364;-0.0103232;-0.00998571;0.00555074;0.125355;0.0201452;0.0532645;0;0.117167;8.67504;3.34409
470000;471;28.0375;1.74682;0.0664427;-2.21471;27.8982;-1.6984;-0.209843;1.69112;-1.09263;0.0860557;-0.665745;-0.0514666;0.673253;-5.91584;-0.00384052;0.000122712;0.0104135;0.0104145;-0.00384158;0.00712805;0.368803;2.71147;0.00851739;0.00950407;2.711;0.368868;81.0165;126.016;0.000523752;-0.00384115;-0.000891455;0.00112257;0.0104131;0.00372079;0.020272;0;0.0237595;-0.145838;-2.47319;-1.17218;2.74079;-7.78715;-0.0103925;-0.00135518;0.126865;0.126878;-0.0104059;0.068642;0.0819183;12.2073;0.0882588;0.0915227;12.1929;0.0820151;87.0474;132.047;0.0349639;-0.0104084;-0.00945886;0.0057615;0.126826;0.0162618;0.0381499;0;0.13192;8.66822;3.35095
471000;472;28.0485;1.75782;0.0668611;-2.21407;27.9088;-1.70781;-0.20921;1.70165;-1.10203;0.0858026;-0.663859;-0.0560037;0.671719;-5.92038;-0.00397789;5.22147e-05;0.0107438;0.010744;-0.00397808;0.00736102;0.370251;2.70087;0.00879389;0.00981469;2.70079;0.370262;83.0467;128.047;0.000146744;-0.00397826;-0.00076877;0.000861241;0.0107435;0.00491873;0.0192714;0;0.0158499;-0.147562;-2.4854;-1.17954;2.75505;-7.79709;-0.0102328;-0.00143424;0.127705;0.12772;-0.0102477;0.0689839;0.0801284;12.48;0.0887601;0.0919786;12.4633;0.0802358;87.1537;132.154;0.026611;-0.0102475;-0.00943431;0.00558735;0.127667;0.01395;0.0259389;0;0.1231;8.65304;3.35758
472000;473;28.0565;1.76591;0.067169;-2.21872;27.9163;-1.71098;-0.213857;1.70916;-1.10791;0.0867232;-0.662742;-0.0560576;0.670739;-5.92043;-0.00400433;0.000168533;0.0106391;0.0106411;-0.00400627;0.00732367;0.376377;2.65691;0.00874106;0.0097649;2.65611;0.376491;81.0177;126.018;0.000363428;-0.00400498;-0.000834024;0.00115656;0.0106388;0.00342088;0.0198262;0;0.0176349;-0.148257;-2.49595;-1.18069;2.7651;-7.79896;-0.010667;-0.000233301;0.129014;0.129015;-0.0106674;0.069841;0.0826806;12.0947;0.089777;0.0931213;12.0943;0.0826834;86.0306;131.031;0.0371778;-0.0107004;-0.0097832;0.0081351;0.128972;0.0201117;0.0353484;0;0.107893;8.64529;3.36524
473000;474;28.0653;1.77469;0.0675028;-2.21802;27.9246;-1.72067;-0.213161;1.71744;-1.11759;0.0854723;-0.662798;-0.0555093;0.670588;-5.91988;-0.00409194;0.000336883;0.0103756;0.0103834;-0.00409978;0.00724159;0.394383;2.53561;0.0086202;0.00965545;2.53267;0.39484;79.7754;124.775;0.000139125;-0.00409279;-0.000681421;0.00134061;0.0103754;0.00421987;0.0209607;0;0.0153615;-0.150552;-2.50706;-1.18643;2.7777;-7.80869;-0.0110567;-0.00206466;0.13089;0.130921;-0.0110867;0.0710036;0.0844728;11.8381;0.0912008;0.0946715;11.8088;0.0846827;87.5111;132.511;0.0312463;-0.0110664;-0.00996062;0.00484031;0.130848;0.0203905;0.0342654;0;0.116046;8.63093;3.37137
474000;475;28.08;1.78936;0.0680605;-2.21954;27.9393;-1.71998;-0.21468;1.73216;-1.1142;0.0854952;-0.663472;-0.0530905;0.671061;-5.91747;-0.00413184;3.77926e-05;0.0101828;0.0101829;-0.00413194;0.0071574;0.405769;2.46446;0.00850721;0.0095432;2.46442;0.405775;80.8713;125.871;-0.000201377;-0.00413236;-0.000952741;0.00101429;0.0101823;0.00508171;0.0202593;0;0.0160347;-0.152129;-2.51631;-1.19187;2.78846;-7.79911;-0.0100038;-0.00148322;0.125293;0.125309;-0.0100201;0.0676644;0.0798436;12.5245;0.0870716;0.0902192;12.5058;0.079963;87.1662;132.166;0.0275995;-0.0100177;-0.00936339;0.00544958;0.125255;0.00759071;0.0189684;0;0.139876;8.63084;3.37871
475000;476;28.0943;1.80361;0.0686027;-2.21972;27.9545;-1.7051;-0.21486;1.74738;-1.09933;0.0872553;-0.661503;-0.0531689;0.669347;-5.91754;-0.00392564;0.000216858;0.0105509;0.0105541;-0.00392889;0.00724151;0.372068;2.68768;0.00864849;0.00965535;2.68629;0.372261;81.3377;126.338;-7.89105e-05;-0.00392627;-0.000718464;0.00113878;0.0105507;0.00381321;0.0198813;0;0.0201099;-0.151998;-2.52535;-1.19041;2.79599;-7.79909;-0.0101118;-0.000247037;0.129839;0.129839;-0.0101122;0.0699756;0.0778797;12.8403;0.0901194;0.0933009;12.8398;0.0778828;85.8419;130.842;0.0310768;-0.0101494;-0.0103844;0.00863467;0.129791;0.0135873;0.0334437;0;0.151801;8.63076;3.38594
476000;477;28.1065;1.81585;0.0690683;-2.22301;27.9669;-1.69906;-0.218144;1.75979;-1.09328;0.0862554;-0.662185;-0.0513191;0.669748;-5.91569;-0.00392758;0.000282081;0.0107746;0.01078;-0.00393299;0.0073565;0.364522;2.74332;0.00879583;0.00980867;2.74092;0.364841;81.4184;126.418;0.000366886;-0.00392826;-0.000643019;0.00119372;0.0107744;0.00316778;0.0192058;0;0.016912;-0.15373;-2.53532;-1.19845;2.80852;-7.80102;-0.00957269;-7.04229e-05;0.129189;0.129189;-0.00957273;0.0693807;0.0740985;13.4955;0.0894876;0.0925077;13.4955;0.0740988;85.7736;130.774;0.0210434;-0.00961179;-0.0101834;0.00879982;0.129143;0.0473604;-0.00773315;0;0.119271;8.62413;3.39359
477000;478;28.1131;1.82246;0.0693199;-2.22103;27.9711;-1.74064;-0.21617;1.76398;-1.13756;0.0859415;-0.663435;-0.0446662;0.670468;-5.90904;-0.003899;0.000114478;0.0109668;0.0109677;-0.00389988;0.0074338;0.355527;2.81273;0.00890125;0.00991173;2.81232;0.355578;81.6731;126.673;0.000110401;-0.00389961;-0.000894701;0.00110882;0.0109664;0.00342934;0.0184992;0;0.0171171;-0.155642;-2.55231;-1.19348;2.82186;-7.80387;-0.0108787;0.000330881;0.130427;0.130427;-0.0108795;0.0706534;0.0834085;11.9892;0.0907956;0.0942045;11.9884;0.083414;85.3774;130.377;0.0369642;-0.010926;-0.0103512;0.00967764;0.130379;0.00845116;0.0260426;0;0.115626;8.61208;3.4008
478000;479;28.1237;1.8331;0.0697246;-2.22299;27.9816;-1.74113;-0.218124;1.77448;-1.13805;0.086584;-0.662662;-0.045865;0.669867;-5.91024;-0.00386408;0.000208566;0.0110663;0.0110692;-0.00386699;0.00746812;0.349174;2.8639;0.00895139;0.00995749;2.8625;0.349345;81.9551;126.955;0.000579916;-0.0038647;-0.00073245;0.00113569;0.0110661;0.00208782;0.0194178;0;0.0185837;-0.156197;-2.55849;-1.20092;2.83063;-7.80017;-0.0107518;5.78347e-05;0.130457;0.130457;-0.0107518;0.0706043;0.0824162;12.1335;0.0907677;0.0941391;12.1335;0.0824163;85.117;130.117;0.0298447;-0.0108044;-0.011541;0.0102078;0.130398;0.0133445;0.0126907;0;0.133372;8.59757;3.40915
479000;480;28.1414;1.85069;0.0703933;-2.22279;27.9993;-1.74278;-0.217929;1.79213;-1.137;0.086989;-0.664071;-0.0389138;0.670874;-5.90329;-0.00382184;9.38808e-05;0.010798;0.0107986;-0.00382245;0.00731054;0.353939;2.82535;0.00875592;0.00974738;2.82506;0.353975;82.3233;127.323;6.40662e-05;-0.00382234;-0.00082577;0.00100023;0.0107977;0.00272489;0.0183535;0;0.0242361;-0.157904;-2.57519;-1.20175;2.84619;-7.8032;-0.0105591;0.00179996;0.130975;0.130998;-0.010582;0.0707898;0.0806196;12.4039;0.0910642;0.0943864;12.3793;0.0807802;84.3891;129.389;0.0396566;-0.010631;-0.00992937;0.0120613;0.130933;0.0103659;-0.000699022;0;0.149751;8.57068;3.41291
480000;481;28.1511;1.86044;0.0707643;-2.22297;28.0084;-1.75365;-0.218103;1.80124;-1.14788;0.0852331;-0.661768;-0.0438291;0.668673;-5.9082;-0.0037694;0.000336396;0.0106913;0.0106992;-0.00377722;0.00723819;0.352565;2.83635;0.00867058;0.00965092;2.83255;0.353039;81.9973;126.997;-0.000195995;-0.00377001;-0.00049326;0.00115418;0.0106913;0.00381578;0.0181497;0;0.0157215;-0.160092;-2.58473;-1.21224;2.85937;-7.82016;-0.00977027;-0.000814637;0.131803;0.131808;-0.00977496;0.0707913;0.0741278;13.4902;0.0913047;0.0943885;13.4842;0.0741607;86.0208;131.021;0.0394248;-0.00980513;-0.011288;0.00834871;0.131747;0.00837624;-0.00874067;0;0.146638;8.57227;3.41611
481000;482;28.157;1.86637;0.0709897;-2.22248;28.0148;-1.74672;-0.217613;1.80767;-1.14094;0.0858388;-0.663609;-0.0421648;0.670465;-5.90654;-0.00382812;0.000215236;0.0107223;0.0107255;-0.0038313;0.00727841;0.357022;2.80095;0.00871291;0.00970455;2.79945;0.357213;82.3221;127.322;0.000102916;-0.00382865;-0.000631678;0.00104996;0.0107222;0.00414046;0.0188736;0;0.0232487;-0.16001;-2.59756;-1.2088;2.86952;-7.81828;-0.00955231;-0.00115652;0.135144;0.135153;-0.00956155;0.0723575;0.0706824;14.1478;0.0934526;0.0964766;14.1351;0.0707459;85.5028;130.503;0.0453453;-0.00959933;-0.0136223;0.00972038;0.135063;0.0155965;0.0365356;0;0.124094;8.56877;3.42396
482000;483;28.1704;1.87972;0.0714978;-2.22288;28.0274;-1.75866;-0.218016;1.82032;-1.15288;0.0877181;-0.665475;-0.0345274;0.672119;-5.8989;-0.00369751;0.00017171;0.0105773;0.0105794;-0.00369958;0.00713949;0.349569;2.86067;0.008557;0.00951933;2.85963;0.349696;81.672;126.672;8.83085e-06;-0.00369811;-0.000777978;0.00110798;0.0105771;0.00393983;0.0184426;0;0.0204083;-0.160807;-2.61593;-1.20632;2.88516;-7.82242;-0.0115877;-0.00234717;0.132718;0.132756;-0.0116259;0.0721908;0.0873113;11.4533;0.0926227;0.0962544;11.419;0.0875737;85.6628;130.663;0.0391183;-0.0116241;-0.0151218;0.0088003;0.132619;0.0226402;0.0366093;0;0.126711;8.56445;3.43033
483000;484;28.1863;1.89566;0.072104;-2.22789;28.0429;-1.76188;-0.223022;1.83574;-1.15611;0.0870431;-0.662643;-0.0351307;0.669259;-5.89951;-0.00386557;7.30343e-05;0.0108368;0.0108372;-0.00386594;0.00735156;0.356707;2.80342;0.00880116;0.00980208;2.80325;0.356729;82.2136;127.214;0.000183493;-0.00386608;-0.000871417;0.00100375;0.0108365;0.00323609;0.019017;0;0.0182482;-0.161851;-2.62185;-1.21541;2.8944;-7.82153;-0.010783;0.00034733;0.135697;0.135698;-0.0107838;0.0732408;0.0794639;12.5843;0.0942656;0.0976544;12.5834;0.0794695;84.9847;129.985;0.0438618;-0.0108439;-0.0118636;0.0109833;0.135635;0.00549914;0.0132959;0;0.139424;8.55048;3.43709
484000;485;28.2028;1.91211;0.0727297;-2.22528;28.0593;-1.76675;-0.22042;1.85217;-1.16097;0.08596;-0.661562;-0.0382601;0.668219;-5.90263;-0.00367726;0.000491828;0.0109968;0.0110133;-0.00369373;0.00735351;0.334393;2.99049;0.00883469;0.00980468;2.98162;0.335388;81.4489;126.449;4.20679e-05;-0.00367806;-0.000380669;0.00135166;0.0109969;0.00314791;0.0184834;0;0.0201194;-0.164159;-2.64577;-1.22512;2.92026;-7.84356;-0.0103528;-0.000948412;0.136152;0.136158;-0.010359;0.0732587;0.0760386;13.1512;0.0944148;0.0976782;13.144;0.0760803;85.8663;130.866;0.0288449;-0.0103927;-0.0122878;0.00892883;0.136086;0.0183918;0.0212107;0;0.141045;8.52395;3.44424
485000;486;28.2159;1.92519;0.0732271;-2.22649;28.0728;-1.75899;-0.221627;1.86571;-1.15322;0.085887;-0.660652;-0.0385217;0.667324;-5.9029;-0.00370971;0.000277416;0.0104363;0.0104417;-0.00371515;0.00707844;0.355463;2.81324;0.00847544;0.00943791;2.81058;0.355798;81.9927;126.993;1.55241e-05;-0.00371028;-0.000555408;0.00109858;0.0104362;0.00352626;0.0193916;0;0.0156959;-0.165408;-2.65193;-1.228;2.92713;-7.84526;-0.00959631;-0.00153011;0.139853;0.139869;-0.00961198;0.0747403;0.0686172;14.5736;0.0966093;0.0996537;14.5515;0.0687215;86.2337;131.234;0.0372032;-0.00963037;-0.0129061;0.0083545;0.139781;0.0198025;0.0201998;0;0.125425;8.49565;3.45197
486000;487;28.2225;1.9318;0.0734783;-2.22743;28.079;-1.76453;-0.222566;1.87193;-1.15875;0.0860956;-0.661793;-0.034311;0.668252;-5.89869;-0.00352601;0.000404254;0.0102614;0.0102732;-0.00353785;0.00690552;0.34362;2.91019;0.00828385;0.00920736;2.9038;0.344377;81.5421;126.542;2.85708e-05;-0.00352666;-0.000416381;0.00121369;0.0102613;0.00250848;0.0192901;0;0.0164942;-0.166579;-2.665;-1.22517;2.93786;-7.84536;-0.0106558;-0.000358157;0.139425;0.139426;-0.0106566;0.0750414;0.0764263;13.0845;0.0966989;0.100055;13.0835;0.076432;84.9775;129.978;0.0418309;-0.0107197;-0.0137288;0.0112514;0.139343;0.0181021;0.0320011;0;0.119462;8.49634;3.45861
487000;488;28.2338;1.94317;0.0739109;-2.22865;28.0889;-1.78871;-0.22379;1.88173;-1.18293;0.0861112;-0.660625;-0.037955;0.667294;-5.90233;-0.00378462;0.000296251;0.0106444;0.0106505;-0.0037907;0.00722058;0.35555;2.81254;0.00864548;0.00962744;2.80963;0.355918;81.9445;126.944;0.000138478;-0.00378522;-0.000552676;0.00113306;0.0106443;0.00224103;0.01873;0;0.0172969;-0.167298;-2.67641;-1.2369;2.95315;-7.85976;-0.0121561;-0.0007202;0.139788;0.139792;-0.0121595;0.0759755;0.0869607;11.4994;0.0975006;0.101301;11.4965;0.086983;85.4522;130.452;0.0464774;-0.0122064;-0.0130846;0.009996;0.139713;0.0180245;0.0391486;0;0.1277;8.49129;3.46604
488000;489;28.2511;1.96043;0.0745674;-2.23125;28.1064;-1.78254;-0.226391;1.89926;-1.17676;0.0869621;-0.660593;-0.0294058;0.666941;-5.89378;-0.0036505;0.000295443;0.0103981;0.0104043;-0.00365671;0.00703049;0.351075;2.8484;0.00842393;0.00937399;2.84526;0.351462;82.332;127.332;-8.69612e-05;-0.00365102;-0.000487086;0.00106709;0.010398;0.00367422;0.0169646;0;0.0185571;-0.168732;-2.69003;-1.23554;2.96501;-7.85;-0.0112709;-0.00079055;0.139046;0.13905;-0.0112751;0.0751626;0.0810591;12.3367;0.0966779;0.100217;12.3325;0.0810865;85.1222;130.122;0.041408;-0.0113293;-0.0141059;0.0107677;0.138959;0.0219846;0.00689865;0;0.142631;8.4812;3.47384
489000;490;28.2693;1.97857;0.0752576;-2.23007;28.1246;-1.78514;-0.225203;1.91743;-1.17937;0.0856447;-0.660197;-0.0276999;0.666305;-5.89207;-0.00371955;0.000211988;0.0100964;0.0100996;-0.0037228;0.00691121;0.368405;2.71441;0.00825861;0.00921495;2.71291;0.368608;82.3598;127.36;-0.000452732;-0.00372001;-0.00056263;0.000976012;0.0100962;0.0033877;0.0176025;0;0.0163164;-0.17166;-2.70894;-1.23559;2.98236;-7.85281;-0.0102031;0.000642382;0.13914;0.139143;-0.0102058;0.0746743;0.0733294;13.6371;0.0963442;0.0995658;13.6337;0.0733478;83.6619;128.662;0.0496628;-0.0103082;-0.0152371;0.0144399;0.139038;0.019146;0.0405945;0;0.125142;8.45638;3.48142
490000;491;28.2807;1.9901;0.0756961;-2.22954;28.1366;-1.77783;-0.224673;1.92946;-1.17476;0.0864651;-0.658296;-0.0270468;0.664501;-5.89142;-0.00350197;0.000143644;0.0101963;0.0101978;-0.00350347;0.00685065;0.343454;2.9116;0.00821916;0.0091342;2.91078;0.343551;83.6481;128.648;-0.000185069;-0.00350229;-0.000544483;0.000822441;0.0101962;0.00161429;0.0182441;0;0.0173627;-0.170514;-2.71635;-1.23905;2.99047;-7.85409;-0.0105033;3.54545e-05;0.142091;0.142091;-0.0105033;0.0762973;0.0739193;13.5283;0.0984156;0.10173;13.5283;0.0739194;84.82;129.82;0.0452703;-0.0105751;-0.0136805;0.0119188;0.142009;0.0220128;0.0356216;0;0.124545;8.39061;3.48511
491000;492;28.2908;2.00017;0.076079;-2.23116;28.1453;-1.79914;-0.226295;1.93816;-1.19336;0.0860866;-0.658964;-0.0262128;0.66508;-5.89059;-0.00364141;0.000208709;0.0104692;0.0104722;-0.0036445;0.00705837;0.347823;2.87503;0.00846211;0.00941116;2.87344;0.348015;82.7887;127.789;-2.59948e-05;-0.00364187;-0.000570545;0.00097708;0.010469;0.00262126;0.0178286;0;0.0168849;-0.172862;-2.72904;-1.24477;3.00449;-7.86267;-0.0111857;-0.000276638;0.141596;0.141596;-0.0111862;0.0763912;0.0789978;12.6586;0.0983384;0.101855;12.6581;0.0790011;84.9748;129.975;0.0407826;-0.0112515;-0.013762;0.011404;0.141513;0.0259054;0.0307996;0;0.128359;8.39584;3.48833
492000;493;28.3022;2.01149;0.0765094;-2.23394;28.1562;-1.80334;-0.229079;1.94905;-1.19756;0.0864195;-0.659188;-0.0235856;0.665247;-5.88796;-0.00351742;0.000115316;0.0100643;0.0100653;-0.00351839;0.00679183;0.349495;2.86127;0.0081405;0.00905577;2.86076;0.349558;84.0129;129.013;-0.00022454;-0.00351769;-0.000527501;0.000749489;0.0100642;0.00282079;0.0178457;0;0.0186899;-0.174952;-2.74133;-1.24453;3.01568;-7.86249;-0.0114855;-0.000667796;0.140116;0.140119;-0.0114884;0.0758037;0.0819711;12.1994;0.0974681;0.101072;12.1966;0.0819903;84.3488;129.349;0.0519863;-0.0115661;-0.0160176;0.0126411;0.140004;0.0200977;0.0225662;0;0.154741;8.40861;3.49574
493000;494;28.3207;2.03007;0.0772164;-2.23523;28.1746;-1.80503;-0.230363;1.96752;-1.19925;0.0857421;-0.658886;-0.0213274;0.664784;-5.8857;-0.00348122;0.000366171;0.0100588;0.0100687;-0.00349112;0.00677988;0.346089;2.88943;0.00812996;0.00903984;2.88408;0.346731;82.3368;127.337;0.000332457;-0.00348174;-0.000353939;0.00107663;0.0100588;0.000649751;0.0187008;0;0.0189754;-0.176846;-2.76042;-1.24773;3.03447;-7.87037;-0.0130205;-0.000565558;0.142831;0.142833;-0.0130225;0.077928;0.0911598;10.9697;0.0998466;0.103904;10.9682;0.0911729;84.9743;129.974;0.0487424;-0.0130848;-0.0142844;0.0112825;0.142742;0.0261744;0.02033;0;0.136418;8.38971;3.5028
494000;495;28.3436;2.05287;0.0780838;-2.2359;28.1974;-1.80732;-0.231032;1.99024;-1.20155;0.086212;-0.65796;-0.0214588;0.663931;-5.88583;-0.00341634;0.000116605;0.00973591;0.00973694;-0.00341738;0.00657716;0.350901;2.8498;0.00788138;0.00876954;2.84924;0.35097;84.4273;129.427;-0.000361123;-0.00341657;-0.000453449;0.000679233;0.00973581;0.00255186;0.01669;0;0.0179188;-0.178207;-2.78064;-1.25438;3.05569;-7.87199;-0.0120776;-0.000300038;0.141978;0.141978;-0.0120782;0.0770283;0.0850671;11.7554;0.0989244;0.102704;11.7549;0.0850709;83.8543;128.854;0.0515261;-0.0121763;-0.0167896;0.0139651;0.141854;0.0283496;0.0478323;0;0.125918;8.35311;3.51786
495000;496;28.3595;2.0688;0.0786893;-2.23797;28.2131;-1.80878;-0.233108;2.00599;-1.20301;0.0858838;-0.654295;-0.0224028;0.660288;-5.88678;-0.00345033;0.000243952;0.00932405;0.00932871;-0.00345498;0.00639185;0.370046;2.70237;0.00763595;0.00852246;2.70007;0.37036;83.1228;128.123;-8.30244e-05;-0.00345065;-0.000362785;0.000843009;0.00932402;0.00253128;0.017725;0;0.0204035;-0.180529;-2.78903;-1.26045;3.06594;-7.87296;-0.0114731;0.000593763;0.143147;0.143149;-0.0114753;0.0773121;0.0801489;12.4768;0.0994786;0.103083;12.4745;0.0801636;84.0122;129.012;0.0455283;-0.0115705;-0.0147881;0.013895;0.143051;0.00744529;0.0136716;0;0.148651;8.24716;3.5179
496000;497;28.3655;2.07479;0.0789172;-2.2399;28.218;-1.8244;-0.235037;2.01085;-1.21863;0.0855427;-0.657216;-0.0202698;0.66307;-5.88464;-0.00333493;0.0001492;0.00958796;0.00958969;-0.00333665;0.00646317;0.347824;2.87501;0.00774863;0.00861756;2.87405;0.347941;84.0035;129.004;0.000115731;-0.00333519;-0.00044556;0.000736347;0.00958788;0.00292246;0.0181778;0;0.0211074;-0.181107;-2.80178;-1.26278;3.07854;-7.8786;-0.0120612;0.000393596;0.141642;0.141643;-0.0120622;0.0768527;0.0851525;11.7436;0.0986956;0.10247;11.7427;0.085159;83.6852;128.685;0.0501407;-0.0121663;-0.0158079;0.0144138;0.141533;0.0231624;0.0264428;0;0.146655;8.25631;3.52317
497000;498;28.379;2.0883;0.0794314;-2.24018;28.2325;-1.80932;-0.235321;2.02539;-1.20355;0.0863754;-0.656245;-0.0166777;0.662115;-5.88105;-0.00334141;3.93302e-05;0.0095656;0.00956572;-0.00334153;0.00645362;0.349315;2.86275;0.00773543;0.00860483;2.86268;0.349323;84.8058;129.806;-0.000328601;-0.00334158;-0.000516912;0.000588461;0.00956547;0.00291599;0.0166529;0;0.0175869;-0.18172;-2.81513;-1.26319;3.09089;-7.88513;-0.0129034;-0.000806407;0.143475;0.143479;-0.0129076;0.0781934;0.0899347;11.1192;0.100233;0.104258;11.1159;0.0899611;85.0758;130.076;0.0526307;-0.0129653;-0.0145759;0.0110801;0.143382;0.0371112;0.0241116;0;0.138552;8.29654;3.53222
498000;499;28.4103;2.11963;0.080623;-2.24115;28.2628;-1.82669;-0.236285;2.05568;-1.22091;0.0859376;-0.655281;-0.0105427;0.660977;-5.87492;-0.00314642;-0.000156868;0.00927886;0.00928084;-0.0031484;0.00621462;0.339096;2.94902;0.00746149;0.00828616;2.94779;0.339237;86.4896;131.49;0.000130335;-0.00314645;-0.000617577;0.000298169;0.00927868;0.00131753;0.0180144;0;0.0170628;-0.184722;-2.83992;-1.26594;3.11478;-7.87489;-0.0113386;-0.000318901;0.141138;0.141139;-0.0113393;0.0762389;0.0803373;12.4475;0.0980909;0.101652;12.4468;0.0803416;83.8499;128.85;0.052737;-0.0114374;-0.016818;0.0139757;0.141014;0.0127263;0.0451158;0;0.132875;8.23238;3.54503
499000;500;28.4259;2.13527;0.0812179;-2.24399;28.2775;-1.8383;-0.239123;2.07043;-1.23252;0.0856641;-0.651621;-0.00966006;0.657299;-5.87403;-0.00305722;-9.5969e-05;0.00890404;0.00890481;-0.00305799;0.0059814;0.343352;2.91246;0.00717644;0.0079752;2.91198;0.343409;85.5767;130.577;-0.000324915;-0.0030573;-0.000603645;0.000405688;0.00890386;0.00315178;0.0197705;0;0.015657;-0.187267;-2.85602;-1.27133;3.13181;-7.89105;-0.0114958;0.000557998;0.144005;0.144007;-0.0114978;0.0777524;0.0798294;12.5267;0.100058;0.10367;12.5247;0.0798422;83.2246;128.225;0.0500323;-0.0116231;-0.0171676;0.0158741;0.143876;0.0106251;0.0326146;0;0.148459;8.1201;3.54802
500000;501;28.4345;2.14379;0.0815419;-2.24533;28.286;-1.83766;-0.240463;2.07892;-1.23189;0.0867506;-0.650653;-0.0149909;0.656582;-5.87937;-0.00318744;-0.000176371;0.0093107;0.00931318;-0.00318993;0.00625156;0.342342;2.92105;0.00750169;0.00833541;2.91956;0.342518;86.9398;131.94;-0.000868006;-0.00318746;-0.00059622;0.000238279;0.00931054;0.00436654;0.0183716;0;0.014541;-0.186705;-2.86659;-1.28174;3.14564;-7.90443;-0.0130298;-0.000562115;0.14474;0.144742;-0.0130318;0.0788868;0.0900225;11.1083;0.101119;0.105182;11.1068;0.0900351;84.6917;129.692;0.0531058;-0.0131041;-0.0152682;0.0121173;0.144638;0.0276927;0.0226771;0;0.139486;8.13315;3.55013
501000;502;28.4492;2.15854;0.082103;-2.24314;28.3009;-1.83829;-0.238274;2.09382;-1.23521;0.0863806;-0.65108;-0.0100645;0.656863;-5.87444;-0.00301462;6.32807e-05;0.00909881;0.00909914;-0.00301495;0.00605704;0.33132;3.01823;0.00728218;0.00807606;3.01801;0.331344;84.2305;129.231;0.000342492;-0.00301483;-0.000530142;0.00064958;0.00909867;0.00292024;0.0184129;0;0.0158713;-0.187007;-2.87236;-1.27651;3.1488;-7.88582;-0.0108703;0.00163028;0.144009;0.144026;-0.0108874;0.0774569;0.0754831;13.248;0.0998448;0.103276;13.2287;0.0755933;83.094;128.094;0.0529962;-0.0110046;-0.0154295;0.0163801;0.143906;0.0115071;0.038187;0;0.130002;8.12403;3.55533
501001;503;;;;;;;;;;;;;;;;;;;;;;;;;;;;;;;;;;;;;;;;;;;;;;;;;;;;;;;;;;;;;;;;;;8.11918;3.56126
501002;504;;;;;;;;;;;;;;;;;;;;;;;;;;;;;;;;;;;;;;;;;;;;;;;;;;;;;;;;;;;;;;;;;;8.11918;3.56126
