Time;Image index (Image index);Distance L(t) (Extensometer 1);Change in distance (Extensometer 1);Strain - RC (Extensometer 1);Distance x L(t) (Extensometer 1);Distance y L(t) (Extensometer 1);Distance z L(t) (Extensometer 1);Change in distance x (Extensometer 1);Change in distance y (Extensometer 1);Change in distance z (Extensometer 1);X-displacement (Strain Gauge 1);Y-displacement (Strain Gauge 1);Z-displacement (Strain Gauge 1);Displacement (Strain Gauge 1);Height (Strain Gauge 1);Exx - RC (Strain Gauge 1);Exy - RC (Strain Gauge 1);Eyy - RC (Strain Gauge 1);Max. principal strain - RC (Strain Gauge 1);Min. principal strain - RC (Strain Gauge 1);Max. shear strain - RC (Strain Gauge 1);Poisson ratio -Exx/Eyy (Strain Gauge 1);Poisson ratio -Eyy/Exx (Strain Gauge 1);Von Mises - RC (Strain Gauge 1);Tresca - RC (Strain Gauge 1);Poisson ratio -strain max/min (Strain Gauge 1);Poisson ratio -strain min/max (Strain Gauge 1);Max. strain angle (Strain Gauge 1);Max. shear angle (Strain Gauge 1);Vorticity-z (Strain Gauge 1);du/dx (Strain Gauge 1);du/dy (Strain Gauge 1);dv/dx (Strain Gauge 1);dv/dy (Strain Gauge 1);dw/dx (Strain Gauge 1);dw/dy (Strain Gauge 1);Ezz plane stress state (Strain Gauge 1);Stereo reconstruction error (Strain Gauge 1);X-displacement (Strain Gauge 2);Y-displacement (Strain Gauge 2);Z-displacement (Strain Gauge 2);Displacement (Strain Gauge 2);Height (Strain Gauge 2);Exx - RC (Strain Gauge 2);Exy - RC (Strain Gauge 2);Eyy - RC (Strain Gauge 2);Max. principal strain - RC (Strain Gauge 2);Min. principal strain - RC (Strain Gauge 2);Max. shear strain - RC (Strain Gauge 2);Poisson ratio -Exx/Eyy (Strain Gauge 2);Poisson ratio -Eyy/Exx (Strain Gauge 2);Von Mises - RC (Strain Gauge 2);Tresca - RC (Strain Gauge 2);Poisson ratio -strain max/min (Strain Gauge 2);Poisson ratio -strain min/max (Strain Gauge 2);Max. strain angle (Strain Gauge 2);Max. shear angle (Strain Gauge 2);Vorticity-z (Strain Gauge 2);du/dx (Strain Gauge 2);du/dy (Strain Gauge 2);dv/dx (Strain Gauge 2);dv/dy (Strain Gauge 2);dw/dx (Strain Gauge 2);dw/dy (Strain Gauge 2);Ezz plane stress state (Strain Gauge 2);Stereo reconstruction error (Strain Gauge 2);Load ADC 1 channel 1;Position ADC 1 channel 2
ms;;mm;mm;S;mm;mm;mm;mm;mm;mm;mm;mm;mm;mm;mm;S;S;S;S;S;S;;;S;S;;;°;°;S;S;S;S;S;S;S;S;pixel;mm;mm;mm;mm;mm;S;S;S;S;S;S;;;S;S;;;°;°;S;S;S;S;S;S;S;S;pixel;kN;mm
0.02515;1;25.7575;0;0;-2.30394;25.6269;1.18517;0;0;0;0;0;0;0;-7.16446;-3.33067e-16;-1.04083e-16;-1.11022e-16;-6.98628e-17;-3.74226e-16;1.52182e-16;;;2.29765e-16;2.02909e-16;;;0;45;0;-3.33067e-16;-8.32667e-17;-1.249e-16;-1.11022e-16;0;0;0;0;0;0;0;0;-6.0148;2.22045e-16;1.0842e-18;0;2.2205e-16;-5.29383e-21;1.11028e-16;;;1.48035e-16;1.48037e-16;;;0;45;0;2.22045e-16;4.77049e-18;-2.60209e-18;0;0;0;0;0;-0.0141638;2.18822
1000.03;2;25.7628;0.00527682;0.000204865;-2.3044;25.632;1.18936;-0.000459554;0.00506816;0.00419351;0.000512642;-0.00274505;-0.0068408;0.00738882;-7.1713;5.69639e-05;-0.000361989;0.000143311;0.000464692;-0.000264418;0.000364555;-0.397485;-2.51582;0.000426212;0.000486073;1.75742;0.569016;141.883;6.88336;-0.000651197;5.69496e-05;-0.000324408;-0.000399567;0.000143324;0.00281125;-0.00137073;0;0.0158147;0.000624568;-0.00347207;-0.00973356;0.0103531;-6.02453;0.000133611;7.11785e-05;-0.000282449;0.000145451;-0.000294289;0.00021987;0.473044;2.11397;0.000258686;0.00029316;0.494245;2.02329;132.803;177.803;-0.000619134;0.000133584;-0.000101688;0.000244117;-0.000282452;-0.00232005;0.00456921;0;0.021548;-0.0138825;2.19509
2000.03;3;25.7627;0.00515788;0.000200247;-2.30315;25.6321;1.18558;0.000787851;0.005236;0.000410168;0.0020964;-0.00375402;-0.0102461;0.0111117;-7.1747;-0.000118921;-0.000689844;-0.000155271;0.000552988;-0.00082718;0.000690084;-0.765895;-1.30566;0.000802064;0.000920112;0.668522;1.49584;63.9083;108.908;0.000233263;-0.000118857;-0.000790559;-0.000589126;-0.000155345;0.00136836;-0.000635717;0;0.0127894;0.00199606;-0.00504813;-0.0136671;0.0147057;-6.02847;-1.62621e-05;0.000136268;-0.000299573;3.86407e-05;-0.000354476;0.000196558;-0.0542842;-18.4216;0.000250194;0.000262078;0.109008;9.17364;143.664;8.66367;-0.000428155;-1.6355e-05;-0.000179414;0.000452039;-0.00029958;-0.00373739;0.00452559;0;0.0231233;-0.0137078;2.20217
3000.03;4;25.7603;0.00277175;0.000107609;-2.30309;25.6301;1.17672;0.000848168;0.00325129;-0.00844637;0.00107663;-0.00770564;-0.00751023;0.0108139;-7.17197;0.000112545;-0.000517911;-0.000496919;0.000408723;-0.000793097;0.00060091;0.226485;4.4153;0.000705602;0.000801214;0.515351;1.94043;70.5109;115.511;-0.000284517;0.000112579;-0.000589921;-0.000445857;-0.000496959;0.0018148;-9.33555e-07;0;0.0151173;0.00141027;-0.00745697;-0.0160018;0.0177103;-6.02827;-0.00015282;0.000114546;-0.000401712;-0.000108128;-0.000446404;0.000169138;-0.380422;-2.62866;0.000268906;0.000225517;-0.24222;-4.12848;123.941;168.941;-0.000619103;-0.000152843;-1.61843e-05;0.000245309;-0.000401705;-0.00439705;0.00224507;0;0.0245326;-0.0133181;2.20975
4000.03;5;25.7598;0.00226013;8.77464e-05;-2.30272;25.6297;1.17498;0.00121333;0.00284953;-0.0101824;0.00143657;-0.00891736;-0.0135968;0.0163235;-7.17805;-3.53354e-05;-0.000662221;1.16895e-05;0.000650815;-0.000674461;0.000662638;3.02282;0.330817;0.000765189;0.000883517;0.964941;1.03633;33.5677;78.5677;0.00028286;-3.53384e-05;-0.000657722;-0.000666719;1.16925e-05;0.00154689;-3.27163e-05;0;0.0179997;0.00141036;-0.00986615;-0.0232415;0.0252883;-6.03551;-0.000200278;0.000125851;-0.00031688;-0.00011988;-0.000397278;0.000138699;-0.632031;-1.5822;0.000235301;0.000184932;-0.301753;-3.31396;143.916;8.91569;0.000595038;-0.000200336;-0.000112553;0.000364282;-0.000316878;-0.00691095;0.00183411;0;0.029596;-0.0131647;2.21729
5000.03;6;25.7613;0.00381012;0.000147923;-2.30095;25.6313;1.17797;0.00299054;0.00442982;-0.00719417;0.00186877;-0.0138538;-0.0055461;0.0150392;-7.17;-0.000172587;-0.000827228;-0.000486543;0.000512425;-0.00117156;0.00084199;-0.35472;-2.81912;0.000996763;0.00112265;0.437389;2.28629;59.3653;104.365;0.00012931;-0.000172504;-0.000934165;-0.000720256;-0.000486638;0.0018348;9.00439e-05;0;0.0173328;0.00191517;-0.0133532;-0.0194915;0.0237043;-6.03176;8.05798e-05;0.000228878;-0.000436174;0.000167375;-0.000522969;0.000345172;0.184742;5.41295;0.000415822;0.000460229;0.320047;3.12454;126.835;171.835;0.000126631;8.0548e-05;0.000117251;0.000340563;-0.000436155;-0.00697575;0.00249119;0;0.0330835;-0.0127776;2.22441
6000.03;7;25.7607;0.00312901;0.000121479;-2.30076;25.6308;1.17542;0.00317265;0.00387854;-0.00974115;-0.00153642;-0.0130599;-0.0178161;0.0221435;-7.18227;-4.93792e-05;-0.000592788;0.00037089;0.000789686;-0.000468176;0.000628931;0.133137;7.51105;0.000734092;0.000838575;1.68673;0.592863;103.359;148.359;0.000212001;-4.92998e-05;-0.000746817;-0.000438824;0.000370787;0.00147583;0.000842507;0;0.0273152;-0.00170559;-0.0129816;-0.033954;0.036391;-6.04875;-0.000280903;0.000201139;-0.000488298;-0.000158304;-0.000610897;0.000226297;-0.575269;-1.73832;0.000366089;0.000301729;-0.259133;-3.85902;133.44;178.44;0.000673888;-0.000280952;2.87565e-05;0.000373558;-0.000488278;-0.00779991;0.000283182;0;0.0359619;-0.012735;2.23125
7000.03;8;25.7592;0.00170866;6.63362e-05;-2.29982;25.6297;1.16958;0.00411703;0.00280294;-0.0155816;-0.00116325;-0.014886;-0.0182768;0.0236006;-7.18273;-6.33687e-05;-0.000747204;-0.00031931;0.000566744;-0.000949422;0.000758083;-0.198455;-5.03892;0.000884604;0.00101078;0.596935;1.67522;69.3629;114.363;-0.000305091;-6.32649e-05;-0.000902128;-0.00059224;-0.000319438;0.00333804;-0.00078498;0;0.0212389;-0.00127062;-0.014873;-0.0367235;0.0396414;-6.05152;-0.000331956;0.000313489;-0.000392576;-4.73151e-05;-0.000677218;0.000314951;-0.845584;-1.18261;0.000436562;0.000419935;-0.0698669;-14.3129;141.848;6.8475;0.00047761;-0.000332004;0.000187263;0.000439724;-0.000392545;-0.00460376;0.00209299;0;0.0391554;-0.0122549;2.23772
8000.03;9;25.7597;0.00218066;8.4661e-05;-2.29975;25.63;1.1743;0.00418432;0.00306777;-0.0108665;0.00039226;-0.0153624;-0.0224124;0.0271749;-7.18687;-1.54788e-05;-0.000911556;0.00014184;0.000978124;-0.000851763;0.000914944;0.109129;9.16349;0.00105733;0.00121992;1.14835;0.870813;101.148;146.148;2.41242e-06;-1.53744e-05;-0.00103438;-0.00078875;0.00014172;0.0010766;-0.000523112;0;0.0185153;0.00101037;-0.0153415;-0.0402996;0.0431329;-6.0551;-0.000297984;0.000329108;-0.000433339;-2.96672e-05;-0.000701655;0.000335994;-0.687646;-1.45424;0.000458201;0.000447992;-0.0422817;-23.6509;125.46;170.46;0.000896715;-0.000297969;0.000376968;0.00028124;-0.000433356;-0.00534947;0.00203188;0;0.0375991;-0.0120547;2.24042
9000.03;10;25.759;0.0015188;5.89654e-05;-2.29661;25.6299;1.16662;0.00732421;0.00303492;-0.0185483;-0.00340936;-0.0183486;-0.0160983;0.0246465;-7.18056;-8.10905e-05;-0.000817491;-0.000365417;0.000606507;-0.00105301;0.000829761;-0.221913;-4.50628;0.000969616;0.00110635;0.575972;1.73619;64.5309;109.531;0.000299536;-8.09963e-05;-0.000942197;-0.000692751;-0.000365526;0.00167476;-0.00027329;0;0.0160604;-0.00113897;-0.0179014;-0.0401647;0.0439882;-6.05497;-0.000138354;0.00033484;-0.000382225;9.60616e-05;-0.00061664;0.000356351;-0.361972;-2.76265;0.000446572;0.000475135;0.155782;6.41922;139.13;4.13001;0.00105891;-0.000138411;0.000194926;0.000474789;-0.000382187;-0.00649796;0.00247774;0;0.0340034;-0.0120595;2.25036
10000;11;25.7605;0.00292897;0.000113713;-2.29977;25.631;1.16867;0.00416358;0.00407552;-0.0165008;-6.3276e-05;-0.0162978;-0.028185;0.0325579;-7.19264;-0.000156472;-0.000702775;-2.74325e-07;0.000628728;-0.000785475;0.000707102;;;0.000818161;0.000942802;0.800444;1.24931;77.5687;122.569;0.000666796;-0.000156335;-0.000936638;-0.00046895;-4.66023e-07;-0.000111828;-0.000154819;0;0.0219479;0.000782448;-0.0172412;-0.0506898;0.0535475;-6.06549;4.32406e-05;0.000452625;-0.000194524;0.000392336;-0.000543619;0.000467977;0.222289;4.49864;0.000542721;0.00062397;0.721711;1.3856;143.416;8.4159;0.000564661;4.32185e-05;0.000406194;0.000499067;-0.000194504;-0.00449341;0.00253209;0;0.0391388;-0.0116298;2.25431
11000;12;25.7611;0.00360432;0.000139933;-2.29685;25.6319;1.16964;0.00708899;0.00497218;-0.015527;-0.00103858;-0.0206229;-0.0237392;0.0314632;-7.1882;-0.000186844;-0.000828043;4.05022e-05;0.000762638;-0.00090898;0.000835809;4.61319;0.21677;0.000966341;0.00111441;0.839004;1.19189;78.4761;123.476;-0.000141061;-0.000186658;-0.00109666;-0.000559489;4.02437e-05;0.00279532;-0.00201089;0;0.0212912;0.00138796;-0.0205245;-0.0508175;0.0548234;-6.06309;4.1293e-05;0.000358023;-1.15284e-05;0.000373878;-0.000344114;0.000358996;3.58184;0.279186;0.000414651;0.000478661;1.0865;0.92039;77.9201;122.92;0.00138121;4.13069e-05;0.000399045;0.000316999;-1.1544e-05;-0.00695007;0.00497616;0;0.0315953;-0.0115559;2.26096
12000;13;25.7602;0.00264949;0.000102863;-2.29658;25.631;1.16891;0.00735583;0.00406956;-0.0162529;-0.00139964;-0.0219233;-0.0232615;0.0319951;-7.18772;-6.52565e-05;-0.00106308;-0.000327032;0.00087496;-0.00126725;0.0010711;-0.199542;-5.01148;0.0012437;0.00142814;0.690441;1.44835;77.056;122.056;-8.79023e-05;-6.49803e-05;-0.00136602;-0.000760058;-0.0003274;0.00223126;-0.00128344;0;0.0221218;0.00108394;-0.0217425;-0.0508232;0.0552893;-6.06309;0.000134162;0.000263972;6.05874e-05;0.000363898;-0.000169149;0.000266523;-2.21435;-0.4516;0.000314527;0.000355364;2.15135;0.464824;62.6053;107.605;0.00122338;0.000134182;0.000355244;0.000172694;6.05592e-05;-0.00492005;0.00249497;0;0.0365167;-0.0115603;2.26907
13000;14;25.7601;0.00255754;9.92929e-05;-2.29602;25.631;1.16805;0.00791983;0.00406692;-0.0171137;-0.00181144;-0.0232443;-0.0252614;0.0343761;-7.18972;-0.000247493;-0.00116495;-0.000225381;0.000928569;-0.00140144;0.00116501;-1.09811;-0.910655;0.00135444;0.00155334;0.662581;1.50925;60.5716;105.572;-0.000364389;-0.000247334;-0.00131087;-0.00101904;-0.000225562;0.00248153;-0.000879157;0;0.0161287;0.00134076;-0.0232963;-0.0530823;0.0579849;-6.06535;0.000122686;0.00030904;7.65712e-05;0.000409528;-0.00021027;0.000309899;-1.60225;-0.624124;0.000363952;0.000413199;1.94762;0.513446;24.471;69.471;0.00110226;0.00012266;0.000234525;0.000383559;7.65915e-05;-0.00558193;0.00478879;0;0.0298186;-0.0115172;2.27612
14000;15;25.7618;0.00425369;0.000165144;-2.29561;25.6326;1.17094;0.00832386;0.00567614;-0.0142281;-0.00245474;-0.0211423;-0.0364868;0.042241;-7.20094;-0.000296977;-0.000731741;-9.94623e-05;0.000540156;-0.000936595;0.000738375;-2.98582;-0.334916;0.000862782;0.0009845;0.576723;1.73393;72.1802;117.18;0.000294069;-0.000296773;-0.0011051;-0.000358453;-9.98052e-05;0.00164325;-0.000777246;0;0.0196936;0.00200898;-0.0225976;-0.0628438;0.0668134;-6.07764;0.000305184;0.000352906;7.46705e-05;0.000561178;-0.000181323;0.00037125;-4.08708;-0.244673;0.000446991;0.000495;3.09491;0.323111;47.33;92.33;0.00169385;0.000305209;0.000432543;0.00027325;7.46392e-05;-0.00709094;0.00191406;0;0.0330749;-0.0115013;2.28321
15000;16;25.7605;0.00298703;0.000115967;-2.29317;25.6317;1.16664;0.0107656;0.00481754;-0.0185236;-0.00156457;-0.0248717;-0.029384;0.0385288;-7.19384;-0.000232308;-0.000868089;-0.000291672;0.000606606;-0.00113059;0.000868596;-0.796473;-1.25554;0.00101806;0.00115813;0.536541;1.86379;76.0105;121.01;-0.000227634;-0.000232017;-0.0013227;-0.000413446;-0.00029217;0.00332759;-0.000621487;0;0.028211;0.00437472;-0.0253252;-0.0612317;0.0664065;-6.07603;0.000246254;0.000362684;0.000102181;0.000543986;-0.000195551;0.000369768;-2.40998;-0.414942;0.000442487;0.000493024;2.78181;0.359478;51.6257;96.6257;0.00129531;0.00024628;0.000442035;0.000283321;0.000102149;-0.00840097;0.00645146;0;0.0358017;-0.0113938;2.29086
16000;17;25.7625;0.00494837;0.000192114;-2.29296;25.6334;1.17254;0.0109769;0.00653844;-0.0126236;3.42867e-05;-0.0247836;-0.0333186;0.0415254;-7.19778;-0.000153922;-0.000798508;-6.54557e-05;0.000690043;-0.000909421;0.000799732;-2.35155;-0.425252;0.000926342;0.00106631;0.758772;1.31792;81.8998;126.9;0.000666999;-0.000153656;-0.00127199;-0.00032507;-6.59459e-05;0.000634599;-0.000392317;0;0.0185385;0.00681568;-0.026054;-0.0647918;0.0701658;-6.07959;0.000313696;0.000217441;0.000105218;0.000450592;-3.16783e-05;0.000241135;-2.98138;-0.335415;0.000311492;0.000321514;14.224;0.0703036;13.3908;58.3908;0.00106014;0.000313648;5.60758e-05;0.00037884;0.00010524;-0.00822252;0.00553324;0;0.0315934;-0.0113845;2.29798
17000;18;25.7608;0.00323836;0.000125725;-2.29143;25.632;1.16822;0.0125074;0.00515406;-0.0169461;7.9496e-05;-0.0264579;-0.0347772;0.0436976;-7.19923;-0.0001187;-0.000763719;-0.000172137;0.000618767;-0.000909604;0.000764186;-0.689569;-1.45018;0.000887715;0.00101891;0.68026;1.47003;81.7711;126.771;-1.00067e-05;-0.000118462;-0.00119894;-0.000328472;-0.000172564;0.00154926;-0.00255989;0;0.0167189;0.00804572;-0.028236;-0.0667341;0.0729071;-6.08153;0.000211689;0.000208712;0.000228961;0.000429216;1.14341e-05;0.000208891;-0.924563;-1.08159;0.00028241;0.000278521;-37.5381;-0.0266396;19.0433;64.0433;0.00185941;0.000211578;-9.78438e-05;0.000515263;0.000228978;-0.00902444;0.00659297;0;0.0302465;-0.011328;2.30617
18000;19;25.7606;0.00312318;0.000121253;-2.29062;25.632;1.16764;0.0133147;0.00513698;-0.0175283;0.00149835;-0.0262957;-0.0376111;0.0459163;-7.20207;7.94114e-05;-0.000848669;-0.000360503;0.000736164;-0.00101726;0.00087671;0.22028;4.53969;0.00101666;0.00116895;0.723677;1.38183;90.8326;135.833;-3.40796e-06;7.97441e-05;-0.00146301;-0.000234059;-0.000361213;0.00323826;-0.00102929;0;0.0196271;0.0105253;-0.0286379;-0.0691269;0.0755608;-6.08393;0.000322411;0.000173167;5.48545e-05;0.000407455;-3.01899e-05;0.000218823;-5.87756;-0.170139;0.000282239;0.000291763;13.4964;0.0740937;179.06;44.0602;0.00144459;0.000322331;-8.83642e-05;0.000434768;5.48656e-05;-0.00746416;0.00678618;0;0.0294882;-0.0114349;2.31202
19000;20;25.7634;0.00590843;0.000229387;-2.28993;25.6347;1.17099;0.0140103;0.00784524;-0.0141715;0.0013079;-0.0250304;-0.0459046;0.0523017;-7.21036;-0.000186361;-0.0010509;-0.000220661;0.000847527;-0.00125455;0.00105104;-0.844559;-1.18405;0.00122119;0.00140138;0.675563;1.48025;80.2961;125.296;0.000653721;-0.000185935;-0.00159928;-0.000502502;-0.000221388;0.00187434;-0.000327755;0;0.0179852;0.011433;-0.0292717;-0.0757701;0.0820283;-6.09057;0.000214776;0.000142955;6.02159e-05;0.000300002;-2.50107e-05;0.000162506;-3.56676;-0.280367;0.000208838;0.000216675;11.995;0.0833684;177.772;42.7721;0.000968776;0.000214683;-0.000166876;0.000452834;6.02122e-05;-0.00624325;0.00777688;0;0.0265639;-0.0114024;2.31466
20000;21;25.7633;0.00572857;0.000222404;-2.28952;25.6347;1.16751;0.0144183;0.00785968;-0.0176523;0.00076287;-0.0269006;-0.0469288;0.0540975;-7.21139;7.53438e-06;-0.000659413;-0.000471354;0.000469631;-0.000933451;0.000701541;;;0.000824691;0.000935388;0.503113;1.98763;88.4552;133.455;1.40949e-06;7.74522e-06;-0.00120392;-0.000114642;-0.000471862;0.00226971;0.000731645;0;0.0206451;0.0114741;-0.0317421;-0.0791844;0.0860778;-6.09398;0.000178846;0.000228372;0.00016117;0.00039855;-5.85349e-05;0.000228543;-1.10967;-0.901166;0.000287207;0.000304723;6.80876;0.14687;10.7436;55.7436;0.00194003;0.000178682;-0.000159087;0.000615837;0.000161183;-0.00847854;0.00760531;0;0.0303407;-0.0113183;2.32013
21000;22;25.7625;0.0049367;0.000191661;-2.29012;25.6341;1.16197;0.0138146;0.00726179;-0.0231955;0.00106958;-0.0293329;-0.0469557;0.0553751;-7.21141;-0.000146905;-0.000723808;-3.97178e-05;0.000632478;-0.000819101;0.000725789;-3.69873;-0.270363;0.000840375;0.000967719;0.772161;1.29507;82.5692;127.569;0.000634504;-0.000146669;-0.00122045;-0.000227222;-4.02006e-05;0.00105226;-0.00190473;0;0.0164746;0.0116854;-0.0341802;-0.0825328;0.0900916;-6.09733;0.000118706;0.000245148;0.000173874;0.000392985;-0.000100405;0.000246695;-0.682714;-1.46474;0.000301092;0.000328927;3.914;0.255493;9.35638;54.3564;0.00205017;0.000118315;-0.000427354;0.000917613;0.000173813;-0.00777632;0.00638549;0;0.0273916;-0.0113163;2.32831
22000;23;25.7656;0.00809874;0.000314422;-2.29134;25.6371;1.1653;0.0125939;0.0101795;-0.0198672;0.00139172;-0.0298123;-0.0512184;0.0592793;-7.21568;-4.73105e-05;-0.000521572;-0.00018039;0.000411949;-0.000639649;0.000525799;-0.262268;-3.81289;0.000611866;0.000701065;0.644023;1.55274;88.7026;133.703;0.000903202;-4.71831e-05;-0.00117491;0.000131856;-0.000180944;0.00136317;-0.00191245;0;0.035302;0.0120074;-0.0354436;-0.0888573;0.096416;-6.10366;0.000167742;0.000215359;0.000209026;0.000404731;-2.79625e-05;0.000216347;-0.80249;-1.24612;0.000279608;0.000288462;14.4741;0.0690891;14.4417;59.4417;0.00129115;0.000167553;-0.000220109;0.00065081;0.000209025;-0.00427503;0.00712381;0;0.0437674;-0.0112269;2.33513
23000;24;25.7636;0.00611794;0.00023752;-2.29202;25.6354;1.15746;0.0119216;0.0084836;-0.0277013;0.00126553;-0.0307186;-0.0516993;0.0601503;-7.21616;3.58691e-05;-0.000648494;-0.000333489;0.000525468;-0.000823088;0.000674278;0.107557;9.29739;0.000784885;0.000899038;0.63841;1.56639;89.2657;134.266;5.62416e-05;3.60644e-05;-0.00112386;-0.000172956;-0.000333911;0.00181638;-0.00195909;0;0.0236235;0.0119051;-0.0361541;-0.0911833;0.0988091;-6.10598;0.000114865;0.000205908;0.000144931;0.000336355;-7.65583e-05;0.000206456;-0.792552;-1.26175;0.000253637;0.000275275;4.39344;0.227612;7.61207;52.6121;0.00123034;0.000114506;-0.000460584;0.000872381;0.000144846;-0.00503435;0.00638551;0;0.0325096;-0.0111511;2.34252
24000;25;25.7642;0.00665422;0.000258341;-2.29373;25.636;1.15116;0.0102019;0.00915264;-0.0340061;0.000497461;-0.0346495;-0.0467921;0.0582266;-7.21125;-5.7165e-07;-0.000651007;-0.000123751;0.000591753;-0.000716076;0.000653914;;;0.000756212;0.000871886;0.826384;1.21009;89.463;134.463;0.000322648;-3.65247e-07;-0.00119704;-0.000104906;-0.000124255;0.00217457;-0.00135563;0;0.0182082;0.0106437;-0.0407719;-0.088443;0.0979683;-6.10324;6.02868e-05;0.000171642;-6.78481e-05;0.000179429;-0.00018699;0.00018321;0.888555;1.12542;0.000211567;0.00024428;0.959563;1.04214;169.65;34.6502;0.00111342;5.97809e-05;-0.000677015;0.00102041;-6.80626e-05;-0.00527505;0.00713764;0;0.0273006;-0.0110144;2.35003
25000;26;25.7653;0.00779417;0.000302598;-2.29337;25.6375;1.14454;0.0105711;0.0106277;-0.0406261;0.000925787;-0.0338643;-0.05619;0.0656123;-7.22065;-7.87743e-05;-0.000519126;-0.000240373;0.000365803;-0.00068495;0.000525376;-0.327717;-3.05142;0.000615909;0.000700502;0.534057;1.87246;86.8471;131.847;0.000764707;-7.86419e-05;-0.0011076;6.94425e-05;-0.000240852;-0.000135069;0.000329338;0;0.0221302;0.0105677;-0.0411413;-0.0988052;0.107549;-6.11361;1.82602e-07;0.000109343;-0.000344536;3.19401e-05;-0.000376294;0.000204117;;;0.000262159;0.000272156;0.0848807;11.7812;144.788;9.78823;0.00142896;-1.85584e-07;-0.000646112;0.000865059;-0.000344739;-0.00563328;0.00668409;0;0.0294722;-0.0111028;2.3575
26000;27;25.7669;0.00933468;0.000362406;-2.29455;25.6388;1.14775;0.00938807;0.0119267;-0.0374187;-0.000229205;-0.0348006;-0.0593133;0.0687692;-7.22377;-0.000158745;-0.000639746;-0.000240285;0.000441528;-0.000840558;0.000641043;-0.660652;-1.51366;0.000752069;0.000854724;0.52528;1.90375;81.2749;126.275;0.000424506;-0.000158548;-0.00115642;-0.000123027;-0.000240749;5.30202e-05;0.00226584;0;0.0175493;0.00904497;-0.0426139;-0.104264;0.112998;-6.11906;-0.000118547;9.87423e-05;-0.000283302;-7.23316e-05;-0.000329517;0.000128593;-0.418447;-2.38979;0.000199977;0.000171457;-0.219508;-4.55564;153.959;18.9589;0.000463128;-0.000119065;-0.00082481;0.00102245;-0.000283637;-0.0064412;0.00781732;0;0.026304;-0.0108623;2.3647
27000;28;25.7653;0.00777529;0.000301865;-2.2949;25.6374;1.14402;0.0090378;0.0104949;-0.0411503;-0.000179076;-0.0364246;-0.0591917;0.0695014;-7.22365;-2.59772e-05;-0.000520115;3.24195e-05;0.000524155;-0.000517713;0.000520934;0.801282;1.248;0.000601527;0.000694579;1.01244;0.987709;88.5939;133.594;0.000365825;-2.58428e-05;-0.000996625;-4.3633e-05;3.20581e-05;0.000249445;0.00100684;0;0.0210713;0.0086466;-0.0438481;-0.105032;0.114145;-6.11983;-0.000127228;0.000111231;-0.000242904;-5.96964e-05;-0.000310436;0.00012537;-0.523781;-1.9092;0.000190207;0.00016716;-0.192299;-5.20025;160.666;25.6659;0.0015554;-0.000127767;-0.000821446;0.00104402;-0.000243235;-0.00713722;0.00660029;0;0.0285924;-0.0109584;2.37363
28000;29;25.7655;0.00799293;0.000310314;-2.296;25.6375;1.14454;0.00794068;0.0105921;-0.0406281;0.000450721;-0.034466;-0.0632199;0.072006;-7.22768;9.59888e-05;-0.000375041;7.1527e-05;0.000458999;-0.000291483;0.000375241;-1.34199;-0.74516;0.000436874;0.000500321;1.5747;0.635041;95.9656;140.966;0.000577644;9.60544e-05;-0.000847672;9.76005e-05;7.12381e-05;0.000130733;0.000668082;0;0.0204118;0.00754183;-0.04134;-0.111111;0.118792;-6.12591;-0.000174097;9.32618e-05;-9.50964e-05;-3.33148e-05;-0.000235879;0.000101282;-1.83074;-0.546227;0.000147408;0.000135043;-0.141237;-7.0803;6.5268;51.5268;0.000953331;-0.000174465;-0.000676087;0.000862549;-9.53207e-05;-0.00662411;0.00478261;0;0.028923;-0.0105139;2.38111
29000;30;25.7669;0.009353;0.000363117;-2.29655;25.6386;1.14925;0.00738496;0.0116985;-0.0359187;-0.00186059;-0.0326293;-0.0521068;0.0615082;-7.21656;-0.000111461;-0.000743591;-0.000219098;0.000580257;-0.000910816;0.000745536;-0.508725;-1.9657;0.000867894;0.000994048;0.637074;1.56968;81.7223;126.722;-0.000278199;-0.000111231;-0.00118076;-0.000306377;-0.000219519;0.00244069;0.000749815;0;0.019996;0.00438583;-0.0382839;-0.0997211;0.106907;-6.11452;-0.000103445;0.000209083;7.95363e-05;0.00021627;-0.000240179;0.000228224;1.3006;0.768874;0.000263651;0.000304299;0.900454;1.11055;11.3071;56.3071;0.00109574;-0.000103801;-0.000450758;0.000868804;7.94566e-05;-0.00776779;0.00349835;0;0.0347849;-0.0107459;2.38605
30000;31;25.7651;0.00756174;0.000293574;-2.29641;25.6365;1.1556;0.00752675;0.00962567;-0.0295709;-0.00222982;-0.0297427;-0.0513759;0.0594061;-7.21583;-7.32776e-05;-0.000705179;-0.000205723;0.000568782;-0.000847782;0.000708282;-0.356195;-2.80745;0.000823124;0.000944376;0.670905;1.49052;83.4986;128.499;4.78831e-05;-7.30696e-05;-0.00112497;-0.00028533;-0.000206107;0.00278732;-0.00177147;0;0.0231826;0.0034705;-0.0341863;-0.0957847;0.101762;-6.11059;-2.7653e-05;0.000276855;0.000395166;0.000532099;-0.000164586;0.000348342;0.0699782;14.2902;0.000420473;0.000464457;3.23296;0.309314;27.4644;72.4644;0.00143789;-2.79827e-05;-0.000304481;0.000857944;0.000395158;-0.00867585;0.00393974;0;0.0378425;-0.0106263;2.38871
31000;32;25.7648;0.0072916;0.000283086;-2.2944;25.6363;1.15875;0.00953486;0.00939145;-0.0264132;-0.00225033;-0.0277049;-0.0526955;0.0595772;-7.21715;-6.16904e-05;-0.00065369;-0.000199606;0.000526669;-0.000787966;0.000657318;-0.309061;-3.23561;0.000763986;0.000876423;0.668391;1.49613;83.5024;128.502;4.9103e-05;-6.15145e-05;-0.00103247;-0.000274859;-0.000199926;0.00207919;0.00107352;0;0.0181573;0.00364103;-0.0317078;-0.0951244;0.100336;-6.10992;4.23144e-05;0.000236707;0.000439608;0.000549977;-6.80545e-05;0.000309016;-0.0962548;-10.3891;0.000391314;0.000412021;8.08142;0.123741;31.4291;76.4291;0.00168598;4.20153e-05;-0.000335636;0.000808823;0.00043958;-0.00937632;0.00346853;0;0.0281384;-0.0102224;2.39688
32000;33;25.7628;0.00531898;0.000206502;-2.29488;25.6343;1.15799;0.00905888;0.00740059;-0.0271713;-0.00152604;-0.0274088;-0.0537761;0.0603775;-7.21823;2.34244e-05;-0.00059557;-0.000323247;0.00047037;-0.000770193;0.000620281;0.0724659;13.7996;0.000723178;0.000827042;0.610718;1.63742;86.8285;131.829;0.000220683;2.35741e-05;-0.000955966;-0.000235049;-0.000323527;5.13607e-05;-3.75678e-05;0;0.0264968;0.00410885;-0.0310864;-0.0945676;0.0996307;-6.10937;-5.93797e-05;0.000314181;0.000304576;0.000485676;-0.00024048;0.000363078;0.194958;5.1293;0.000427139;0.000484104;2.01962;0.495144;21.3597;66.3597;0.00277729;-5.97015e-05;-0.000233362;0.000861524;0.000304598;-0.0125615;0.00337849;0;0.0373294;-0.0100778;2.402
33000;34;25.7584;0.000923621;3.58583e-05;-2.29232;25.6304;1.1517;0.0116216;0.00349616;-0.0334664;-0.00234983;-0.0301397;-0.0462586;0.055261;-7.21072;6.30999e-05;-0.0005639;-0.00033298;0.000462725;-0.000732605;0.000597665;0.189501;5.27702;0.000695963;0.000796887;0.631616;1.58324;89.6596;134.66;0.000350314;6.32401e-05;-0.000933694;-0.00019396;-0.000333257;0.00159395;-0.00146316;0;0.0472986;0.00474182;-0.0305828;-0.0927563;0.097783;-6.10756;3.25232e-06;0.000261017;0.000306182;0.000456498;-0.000147064;0.000301781;;;0.000363411;0.000402374;3.10408;0.322157;25.5169;70.5169;0.0010754;3.06445e-06;-0.000144321;0.000666233;0.000306205;-0.00695001;0.00524177;0;0.0362171;-0.0106945;2.40903
34000;35;25.7632;0.00563347;0.000218712;-2.29526;25.6345;1.16019;0.0086721;0.00758297;-0.0249807;-0.00319715;-0.0271119;-0.05274;0.0593867;-7.2172;-0.000105954;-0.000734129;-0.000265281;0.000552821;-0.000924056;0.000738438;-0.399403;-2.50374;0.000861608;0.000984584;0.598255;1.67153;80.6376;125.638;-0.000434646;-0.00010574;-0.0011334;-0.000334791;-0.000265654;0.00258657;-0.000572951;0;0.0173466;0.00267187;-0.0302808;-0.0939332;0.0987295;-6.10873;-2.60943e-05;0.000324351;0.000206302;0.00043464;-0.000254433;0.000344537;0.126486;7.90601;0.000402346;0.000459382;1.70827;0.585387;14.0828;59.0828;0.00233891;-2.64757e-05;-0.000283125;0.000931685;0.000206314;-0.0102172;0.00507288;0;0.0316527;-0.0106387;2.41627
35000;36;25.7644;0.00688626;0.000267349;-2.29466;25.6358;1.15917;0.00927467;0.00894174;-0.0259921;-0.00147679;-0.0259215;-0.0549554;0.06078;-7.21941;-0.000125009;-0.000735526;-0.000419477;0.000477875;-0.00102236;0.000750118;-0.298011;-3.35558;0.000884973;0.00100016;0.467423;2.13939;79.7623;124.762;-0.000143525;-0.000124782;-0.00117436;-0.000296566;-0.000419897;0.00128081;0.00023424;0;0.0211801;0.00398709;-0.0298019;-0.0954385;0.100063;-6.11024;-0.000105668;0.000318957;0.000332544;0.000500401;-0.000273525;0.000386963;0.317755;3.14707;0.000453181;0.000515951;1.82945;0.546612;21.9933;66.9933;0.00200623;-0.000106115;-0.000360549;0.000998164;0.00033253;-0.0101648;0.00421007;0;0.0321508;-0.0103564;2.42421
36000;37;25.7628;0.00525688;0.000204091;-2.29594;25.634;1.16079;0.0079972;0.00711672;-0.024377;-0.00132952;-0.0263014;-0.0523505;0.0586012;-7.21681;-6.58819e-05;-0.000702243;-0.000150025;0.000595548;-0.000811455;0.000703502;-0.439139;-2.27718;0.000815516;0.000938003;0.733926;1.36253;81.3914;126.391;-0.000524386;-6.57218e-05;-0.000988602;-0.00041586;-0.000150267;0.0036452;0.000332279;0;0.0248293;0.00415637;-0.0298555;-0.0921226;0.0969289;-6.10692;4.69138e-06;0.000348241;0.000325738;0.000548672;-0.000218242;0.000383457;;;0.000456272;0.000511276;2.51405;0.397764;22.0938;67.0938;0.00257814;4.41855e-06;-0.000120333;0.000816664;0.000325792;-0.010369;0.0067749;0;0.0358418;-0.0103425;2.43039
37000;38;25.7666;0.00902897;0.000350537;-2.29484;25.6377;1.16426;0.00909303;0.0108485;-0.0209063;-0.00250971;-0.0248338;-0.0586946;0.0637814;-7.22315;-0.000113125;-0.000761006;0.000122912;0.000774996;-0.000765209;0.000770102;0.92037;1.08652;0.000889244;0.0010268;1.01279;0.987371;85.9352;130.935;-0.000126096;-0.000112895;-0.00117711;-0.000344995;0.000122509;0.00192382;-0.000435482;0;0.0163645;0.00320483;-0.0287432;-0.0983761;0.102539;-6.11318;4.96496e-05;0.000243708;0.000436795;0.000554453;-6.80077e-05;0.00031123;-0.113668;-8.79756;0.000394264;0.000414973;8.15279;0.122657;35.8921;80.8921;0.00250231;4.94909e-05;-0.000126479;0.000613752;0.000436817;-0.012351;0.00461637;0;0.0295803;-0.0107691;2.43792
38000;39;25.7638;0.00628551;0.000244026;-2.29523;25.6351;1.16117;0.00870782;0.00819677;-0.0239932;-0.00159003;-0.0271955;-0.0498978;0.0568499;-7.21436;-0.000183063;-0.000524603;-0.000181679;0.000342233;-0.000706975;0.000524604;-1.00762;-0.992439;0.000617841;0.000699472;0.484081;2.06577;77.7411;122.741;-0.000164731;-0.000182933;-0.000925604;-0.000123603;-0.00018197;0.00248262;-3.5605e-05;0;0.0175217;0.00401389;-0.030493;-0.090599;0.0956771;-6.1054;3.9996e-05;0.000344944;0.000299686;0.000538414;-0.000198732;0.000368573;-0.133459;-7.49292;0.000440396;0.000491431;2.70925;0.369106;18.0841;63.0841;0.0022021;3.95981e-05;-0.000266659;0.000956389;0.00029971;-0.0109419;0.00555943;0;0.0291867;-0.0106914;2.44521
39000;40;25.7617;0.00419874;0.00016301;-2.29464;25.6332;1.15813;0.00929648;0.0062901;-0.0270406;-0.00220156;-0.026208;-0.0510419;0.0574194;-7.2155;1.59527e-05;-0.000582794;-0.000231691;0.000487933;-0.000703672;0.000595803;0.0688534;14.5236;0.000691722;0.000794403;0.693411;1.44215;88.0598;133.06;-0.000289652;1.61018e-05;-0.000961754;-0.00020374;-0.000231984;0.00268047;-0.000917703;0;0.0173113;0.00327302;-0.0290866;-0.0930089;0.0975059;-6.10781;-2.52809e-05;0.000318377;0.000343699;0.000527177;-0.000208759;0.000367968;0.0735553;13.5952;0.000437949;0.000490624;2.52529;0.395994;24.0255;69.0255;0.00264099;-2.55582e-05;-0.00017333;0.000809902;0.000343735;-0.010859;0.00541213;0;0.0290314;-0.0102452;2.45271
40000;41;25.7626;0.00512591;0.000199006;-2.29519;25.634;1.16051;0.00874603;0.00706472;-0.0246545;-0.00205324;-0.0259764;-0.0537378;0.0597222;-7.2182;-0.000225964;-0.000671873;-0.00022855;0.000444617;-0.000899131;0.000671874;-0.988683;-1.01145;0.000790469;0.000895832;0.494497;2.02226;76.0989;121.099;0.000259337;-0.000225768;-0.00110059;-0.000243155;-0.00022893;0.000668091;-0.000252072;0;0.0187251;0.00350478;-0.0290388;-0.0939934;0.0984392;-6.10879;-6.5206e-05;0.000312316;0.000304914;0.000482881;-0.000243173;0.000363027;0.21385;4.67617;0.000426735;0.000484036;1.98575;0.503588;20.6956;65.6956;0.00265565;-6.56038e-05;-0.000320662;0.000945061;0.000304912;-0.0120132;0.00455169;0;0.0331133;-0.0104967;2.45731
41000;42;25.7602;0.00267599;0.000103892;-2.29505;25.6319;1.15189;0.00888427;0.00500397;-0.0332804;-0.00151047;-0.0305576;-0.0394003;0.0498842;-7.20386;9.35083e-06;-0.000826518;-0.000302069;0.000694698;-0.000987417;0.000841057;;;0.000976059;0.00112141;0.703551;1.42136;81.3148;126.315;-0.000417627;9.54016e-06;-0.00110117;-0.000551781;-0.000302334;0.00261651;-4.92179e-05;0;0.0197212;0.00411682;-0.0326663;-0.0837739;0.0900117;-6.09857;3.15185e-05;0.000261451;0.000206642;0.000394804;-0.000156644;0.000275724;-0.152527;-6.55622;0.000328127;0.000367632;2.52039;0.396763;19.0622;64.0622;0.00122511;3.13751e-05;-7.3038e-05;0.000595882;0.000206673;-0.00717676;0.0048714;0;0.0294663;-0.0102165;2.46363
42000;43;25.7646;0.00712232;0.000276514;-2.29553;25.6358;1.16425;0.00840283;0.00887083;-0.0209141;-0.00244266;-0.0264021;-0.0504644;0.0570061;-7.21492;-0.000158245;-0.000649552;5.19781e-05;0.000604868;-0.000711135;0.000658002;3.04446;0.328466;0.00076062;0.000877336;0.850567;1.17569;81.3897;126.39;0.000177115;-0.000158071;-0.00102577;-0.000273411;5.16629e-05;0.00112837;-0.000472677;0;0.0254152;0.00294434;-0.0298498;-0.091546;0.0963346;-6.10635;6.73322e-05;0.000261019;0.00030234;0.000471084;-0.000101412;0.000286248;-0.222704;-4.49027;0.000352753;0.000381664;4.64524;0.215274;21.4355;66.4355;0.00221657;6.70385e-05;-0.000287713;0.000809622;0.000302332;-0.0101208;0.00415894;0;0.0323819;-0.0105073;2.47455
43000;44;25.7619;0.0043543;0.00016905;-2.29517;25.6332;1.16102;0.00876292;0.00626756;-0.0241424;-0.00153696;-0.0276142;-0.0478478;0.0552659;-7.21231;-0.000131081;-0.00070948;-0.000265853;0.000514206;-0.00091114;0.000712673;-0.493056;-2.02817;0.000833493;0.00095023;0.564354;1.77194;78.0326;123.033;0.000264086;-0.000130893;-0.00106207;-0.000356845;-0.000266166;0.000683947;-0.000900719;0;0.0167391;0.00386951;-0.030044;-0.0894537;0.0944435;-6.10425;5.07342e-05;0.00027697;0.000376525;0.000534951;-0.000107692;0.000321321;-0.134743;-7.42152;0.000397425;0.000428428;4.96742;0.201312;24.9709;69.9709;0.00237101;5.03841e-05;-0.000327691;0.000881435;0.000376509;-0.0108314;0.00372583;0;0.0292889;-0.010696;2.47485
44000;45;25.7606;0.00307048;0.000119207;-2.29516;25.632;1.15695;0.00877665;0.00516258;-0.028213;-0.0024396;-0.0287413;-0.04623;0.0544906;-7.21069;-0.000109491;-0.000676348;0.000270097;0.000782776;-0.00062217;0.000702473;0.405377;2.46684;0.00081291;0.00093663;1.25814;0.794825;89.4747;134.475;0.000180267;-0.00010933;-0.000984365;-0.000368447;0.000269841;0.00161447;0.000463706;0;0.0237028;0.00333282;-0.0313945;-0.0871865;0.0927265;-6.10199;7.09246e-05;0.000225863;0.000223687;0.000385734;-9.11225e-05;0.000238428;-0.317071;-3.15387;0.000292303;0.000317904;4.23314;0.236232;19.2713;64.2713;0.00242848;7.07492e-05;-0.000182315;0.000633977;0.000223696;-0.00926628;0.00583693;0;0.0334831;-0.0103757;2.48283
45000;46;25.7656;0.00804461;0.000312321;-2.29567;25.6367;1.1632;0.00826794;0.00983325;-0.0219622;-0.00190258;-0.0265713;-0.0495055;0.0562179;-7.21396;-8.16461e-05;-0.000675222;0.000321934;0.000824874;-0.000584586;0.00070473;0.253611;3.94305;0.000817685;0.00093964;1.41104;0.708697;91.5615;136.561;-0.000100563;-8.14762e-05;-0.0010099;-0.00034068;0.000321653;0.00219906;-0.000974956;0;0.0165133;0.00354722;-0.0294776;-0.0906533;0.0953915;-6.10545;-2.79386e-05;0.000289297;0.000270271;0.000446628;-0.000204295;0.000325461;0.103372;9.67377;0.000384394;0.000433948;2.18619;0.457417;19.3674;64.3674;0.00285188;-2.82905e-05;-0.000309007;0.000887422;0.000270265;-0.0128282;0.00506493;0;0.0305024;-0.0101637;2.48921
46000;47;25.7645;0.00696249;0.000270309;-2.29499;25.6356;1.16532;0.00894399;0.00871019;-0.0198476;-0.00218239;-0.0256124;-0.0544752;0.0602354;-7.21893;2.99552e-05;-0.000542561;-0.00034923;0.000415095;-0.00073437;0.000574732;0.0857749;11.6584;0.000672123;0.00076631;0.56524;1.76916;87.4843;132.484;-0.000143709;3.00845e-05;-0.000895975;-0.000189012;-0.000349484;6.02913e-05;-0.000298251;0;0.022075;0.00326275;-0.0291164;-0.0935582;0.0980385;-6.10836;-0.000122709;0.000218945;0.000367359;0.000450926;-0.000206276;0.000328601;0.334029;2.99375;0.000388101;0.000438135;2.18604;0.457449;31.2082;76.2082;0.00202761;-0.000122932;-0.000265188;0.000702841;0.000367348;-0.00897617;0.00565331;0;0.0326608;-0.010388;2.49653
47000;48;25.7636;0.00607781;0.000235963;-2.29581;25.6349;1.1603;0.00812898;0.00797585;-0.0248688;-0.00232761;-0.0278194;-0.0491224;0.0565009;-7.21358;-5.06421e-05;-0.000571491;0.000449874;0.0008235;-0.000424268;0.000623884;0.112569;8.8834;0.000732588;0.000831846;1.94099;0.515201;93.2557;138.256;5.86264e-05;-5.05048e-05;-0.000915272;-0.000227883;0.000449619;0.0016038;-0.00158163;0;0.0262175;0.00328139;-0.0311736;-0.0907333;0.0959953;-6.10553;5.61964e-05;0.000259155;0.000421088;0.000555577;-7.82928e-05;0.000316935;-0.133455;-7.49314;0.00039905;0.00042258;7.09614;0.140922;35.0248;80.0248;0.00203254;5.60492e-05;-8.31087e-05;0.000601294;0.000421118;-0.00950159;0.00416097;0;0.0387011;-0.010161;2.50329
48000;49;25.7623;0.00479541;0.000186175;-2.29479;25.6336;1.16097;0.0091435;0.00674732;-0.0241946;-0.00230642;-0.026815;-0.0500363;0.0568154;-7.21449;-0.000270456;-0.000757092;0.000227656;0.000775605;-0.000818405;0.000797005;1.188;0.841748;0.000920413;0.00106267;0.947703;1.05518;78.6602;123.66;0.00021401;-0.000270286;-0.0010304;-0.000483917;0.000227412;0.00156735;-0.00103244;0;0.0243899;0.00320786;-0.0297169;-0.091719;0.0964663;-6.10652;0.000112354;0.000244988;0.000321239;0.000483119;-4.95254e-05;0.000266322;-0.349751;-2.85917;0.000339793;0.000355096;9.75496;0.102512;24.8716;69.8716;0.00155626;0.000112155;-0.000187255;0.000677141;0.000321252;-0.0072076;0.00448017;0;0.03715;-0.0106545;2.51091
49000;50;25.7625;0.00502106;0.000194936;-2.29405;25.634;1.15974;0.00988673;0.0070964;-0.0254266;-0.00284629;-0.0258192;-0.049978;0.0563252;-7.21444;-0.000113044;-0.000683368;-0.000112985;0.000570353;-0.000796382;0.000683368;-1.00053;-0.999473;0.000792674;0.000911157;0.71618;1.3963;83.7536;128.754;0.000684668;-0.000112826;-0.00119291;-0.000173829;-0.000113463;0.00168557;0.000902239;0;0.0192124;0.00277927;-0.0284012;-0.0918952;0.0962242;-6.1067;-3.49959e-05;0.000247825;0.000373104;0.000490073;-0.000151965;0.000321019;0.0937967;10.6614;0.000387436;0.000428026;3.2249;0.310087;28.3102;73.3102;0.00264486;-3.5282e-05;-0.000300564;0.00079599;0.000373089;-0.0114824;0.0045338;0;0.0309179;-0.0104664;2.51785
50000;51;25.7637;0.00619835;0.000240642;-2.29602;25.6347;1.16549;0.0079157;0.00784242;-0.0196781;-0.00230847;-0.0275233;-0.0473235;0.0547939;-7.21178;6.38227e-05;-0.000427916;-0.000285841;0.000351244;-0.000573263;0.000462253;0.22328;4.47867;0.00053887;0.000616338;0.612711;1.63209;94.859;139.859;0.000327212;6.39116e-05;-0.000927719;7.20624e-05;-0.00028618;0.00121449;-0.00177357;0;0.0179027;0.00325472;-0.0302553;-0.0884178;0.0935077;-6.10322;1.99233e-05;0.000251734;0.000330966;0.000471345;-0.000120456;0.000295901;-0.0601973;-16.612;0.000361142;0.000394534;3.91302;0.255557;26.0087;71.0087;0.00150346;1.96914e-05;-0.000222773;0.000726094;0.000330973;-0.00908179;0.00457693;0;0.0300566;-0.0102251;2.52459
51000;52;25.7632;0.00563828;0.000218899;-2.295;25.6345;1.15992;0.00893622;0.00762332;-0.0252428;-0.00254635;-0.0261594;-0.0500269;0.056511;-7.21448;-0.000107903;-0.000552442;-0.000139929;0.000428757;-0.00067659;0.000552674;-0.771127;-1.2968;0.000643497;0.000736898;0.633703;1.57803;83.125;128.125;0.000334329;-0.000107756;-0.00100157;-0.000103296;-0.000140278;0.000800871;-0.000115982;0;0.0182834;0.00315159;-0.0289252;-0.0909968;0.0955354;-6.1058;2.90796e-05;0.000247371;0.000494767;0.000601642;-7.77953e-05;0.000339718;-0.0587743;-17.0142;0.000429382;0.000452958;7.73366;0.129305;33.8671;78.8671;0.00247209;2.87712e-05;-0.000328894;0.000823368;0.000494743;-0.0110467;0.00261076;0;0.0313765;-0.010224;2.53278
52000;53;25.7635;0.00599192;0.000232628;-2.29522;25.6346;1.16428;0.00871491;0.00776151;-0.0208884;-0.00254194;-0.0274194;-0.0478936;0.0552457;-7.21235;-0.000109983;-0.000789878;-0.000276351;0.000601079;-0.000987413;0.000794246;-0.397984;-2.51266;0.000926113;0.00105899;0.608741;1.64274;80.5941;125.594;-0.000215992;-0.000109741;-0.00120717;-0.000372512;-0.000276768;0.00339962;0.000628571;0;0.0175327;0.00308549;-0.0299506;-0.0895788;0.0945036;-6.10438;4.26619e-05;0.000333165;0.00019508;0.000460641;-0.000222899;0.00034177;-0.218689;-4.5727;0.000402521;0.000455694;2.06659;0.483889;11.7425;56.7425;0.00257221;4.22475e-05;-0.000303179;0.000969413;0.00019509;-0.0120193;0.00373908;0;0.0310977;-0.00989045;2.53977
53000;54;25.763;0.00548441;0.000212925;-2.29497;25.6342;1.16348;0.00897105;0.00731043;-0.0216821;-0.00267575;-0.0261842;-0.0516854;0.0580013;-7.21614;-0.000124516;-0.000583538;-1.69715e-06;0.000523654;-0.000649867;0.00058676;;;0.000678837;0.000782347;0.805786;1.24102;81.9944;126.994;-0.000356915;-0.000124371;-0.000940932;-0.000226187;-1.96957e-06;0.00205466;-0.00197964;0;0.0193219;0.00331099;-0.0287151;-0.0939069;0.0982549;-6.10871;6.27329e-05;0.0002105;0.000381728;0.000486332;-4.18711e-05;0.000264102;-0.164339;-6.08498;0.000339041;0.000352136;11.615;0.0860957;29.5251;74.5251;0.00174444;6.24634e-05;-0.000342944;0.000763768;0.000381692;-0.00910962;0.00352656;0;0.0315237;-0.0104099;2.54092
54000;55;25.7636;0.00604513;0.000234694;-2.29351;25.6349;1.16354;0.0104317;0.00800225;-0.0216284;-0.00226732;-0.0265613;-0.0507944;0.0573647;-7.21525;-0.000148609;-0.000679435;-0.000169386;0.000520517;-0.000838512;0.000679515;-0.877342;-1.13981;0.000791763;0.00090602;0.620763;1.61092;77.9885;122.989;-0.000391877;-0.000148435;-0.0010218;-0.000337065;-0.000169677;0.002104;5.66992e-05;0;0.0170639;0.00339065;-0.0298028;-0.0909238;0.0957436;-6.10572;-8.19167e-05;0.000358813;0.000272006;0.000495122;-0.000305033;0.000400078;0.301158;3.32051;0.000466295;0.000533437;1.62317;0.616077;17.858;62.858;0.00220336;-8.22847e-05;-0.000212467;0.000929891;0.000272047;-0.0109279;0.00388475;0;0.0307387;-0.0106044;2.54781
55000;56;25.7626;0.00508887;0.000197568;-2.29454;25.634;1.16002;0.00939645;0.00710794;-0.0251453;-0.00276039;-0.0252394;-0.053749;0.0594441;-7.21821;-6.20078e-06;-0.00062874;-0.000311587;0.000488122;-0.00080591;0.000647016;;;0.000754582;0.000862688;0.605678;1.65104;86.7823;131.782;0.000155043;-6.02203e-06;-0.00106288;-0.000194466;-0.000311954;1.39286e-06;-0.00101773;0;0.016303;0.00293316;-0.028981;-0.0940226;0.0984315;-6.10882;-0.000168453;0.000273737;0.000366759;0.000481965;-0.000283659;0.000382812;0.459301;2.17722;0.000446948;0.000510415;1.6991;0.588547;28.2062;73.2062;0.00191277;-0.000168688;-0.000190972;0.000738197;0.000366778;-0.00917114;0.0047429;0;0.0301616;-0.0105276;2.55507
56000;57;25.7617;0.00419584;0.000162898;-2.29498;25.633;1.1616;0.00895902;0.00609978;-0.0235669;-0.00171073;-0.0260713;-0.0495521;0.0560183;-7.21401;-0.00014777;-0.000526447;-0.000149548;0.000377788;-0.000675106;0.000526447;-0.988109;-1.01203;0.000615915;0.00070193;0.559598;1.787;79.6288;124.629;0.000237121;-0.000147641;-0.000916729;-0.000136163;-0.00014983;0.00120511;0.000911871;0;0.0325586;0.00370167;-0.028367;-0.090687;0.0950922;-6.10549;-1.57455e-05;0.000247114;0.000306001;0.000439993;-0.000149737;0.000294865;0.0514557;19.4342;0.000353961;0.000393153;2.93844;0.340317;30.9934;75.9934;0.001489;-1.5845e-05;-1.56872e-05;0.00050983;0.000306032;-0.00737409;0.00339397;0;0.0432321;-0.010256;2.56249
57000;58;25.7629;0.00537501;0.000208677;-2.2944;25.6344;1.15824;0.00953889;0.00748878;-0.026926;-0.00329649;-0.0265211;-0.0503116;0.0569693;-7.21477;-8.24612e-05;-0.000541874;-0.000148082;0.000427595;-0.000658139;0.000542867;-0.55686;-1.79578;0.000631542;0.000723822;0.649704;1.53916;83.5976;128.598;-0.00033272;-8.23252e-05;-0.000936518;-0.000147205;-0.000148374;0.00219036;-0.000493656;0;0.0221222;0.00250024;-0.0293269;-0.0917434;0.0963492;-6.10654;2.89835e-05;0.000294271;0.000287016;0.000479311;-0.000163311;0.000321311;-0.100982;-9.90274;0.00038568;0.000428414;2.93496;0.34072;18.3099;63.3099;0.00278918;2.8544e-05;-0.000394292;0.000982656;0.000286982;-0.0117962;0.00580965;0;0.0348581;-0.0104662;2.57024
58000;59;25.7624;0.00490526;0.00019044;-2.29535;25.6337;1.16152;0.00858829;0.006783;-0.0236425;-0.00243036;-0.0247359;-0.0544988;0.059899;-7.21896;-0.000219865;-0.000840106;0.000146768;0.000823325;-0.000896422;0.000859874;1.49804;0.667537;0.000993195;0.0011465;0.918457;1.08878;80.7805;125.781;-0.00015219;-0.000219637;-0.00117994;-0.000500391;0.000146425;0.00135006;-0.00186959;0;0.0192636;0.00294958;-0.028118;-0.0947278;0.0988569;-6.10953;1.49309e-05;0.000337641;0.000219401;0.000469945;-0.000235614;0.000352779;-0.0680534;-14.6943;0.000414776;0.000470372;1.99456;0.501364;14.396;59.396;0.00274655;1.459e-05;-0.00021699;0.000892158;0.000219434;-0.0109609;0.00594485;0;0.0325696;-0.0104152;2.57776
59000;60;25.7617;0.00415682;0.000161383;-2.29483;25.633;1.15982;0.00910796;0.0061543;-0.0253422;-0.00331116;-0.026895;-0.0496114;0.0565296;-7.21407;-0.000150066;-0.000659714;-0.000247238;0.000462848;-0.000860152;0.0006615;-0.606971;-1.64753;0.00077523;0.000882;0.5381;1.85839;79.6701;124.67;-0.00103198;-0.000149875;-0.00108792;-0.000231466;-0.000247612;0.00400596;-0.00110638;0;0.0238657;0.00250941;-0.029595;-0.0912674;0.0959786;-6.10607;3.51078e-05;0.000191411;0.000339791;0.000432084;-5.71856e-05;0.000244635;-0.103322;-9.6785;0.000308888;0.00032618;7.55583;0.132348;32.246;77.246;0.0010333;3.49601e-05;-0.000193604;0.000576309;0.000339791;-0.00712856;0.00324187;0;0.0360118;-0.0101209;2.58499
60000;61;25.7633;0.00581598;0.000225797;-2.29534;25.6345;1.16315;0.00859456;0.00762501;-0.0220139;-0.00229187;-0.0261706;-0.0524321;0.0586454;-7.21689;-8.40435e-05;-0.000675486;-0.000387343;0.000456607;-0.000927993;0.0006923;-0.216974;-4.60884;0.000814695;0.000923066;0.492037;2.03237;83.025;128.025;-0.000799955;-8.38363e-05;-0.00114568;-0.000205147;-0.000387771;0.00309604;0.000275713;0;0.0213221;0.00334047;-0.0291501;-0.0931677;0.0976786;-6.10797;-0.000100546;0.00030575;0.000316805;0.000478303;-0.000262044;0.000370173;0.317374;3.15085;0.000433475;0.000493565;1.82528;0.547862;22.3872;67.3872;0.00195697;-0.000100897;-0.000281023;0.000892278;0.000316812;-0.00970557;0.00478282;0;0.0323675;-0.0106179;2.59246
61000;62;25.7618;0.00429524;0.000166757;-2.29358;25.6333;1.16058;0.0103553;0.00637065;-0.0245822;-0.00210495;-0.0259601;-0.0515631;0.0577677;-7.21602;-8.43716e-05;-0.000677991;-7.28877e-05;0.000599386;-0.000756645;0.000678016;-1.15756;-0.863889;0.000784658;0.000904021;0.792162;1.26237;84.434;129.434;-0.000112745;-8.41756e-05;-0.00109576;-0.000260226;-7.32583e-05;0.00212707;0.000675431;0;0.0263291;0.00351635;-0.0289808;-0.0913695;0.09592;-6.10617;1.47958e-05;0.000258404;0.000326957;0.000472759;-0.000131007;0.000301883;-0.045253;-22.098;0.000366727;0.000402511;3.60866;0.277111;25.0457;70.0457;0.0021866;1.45432e-05;-0.000239543;0.000756195;0.000326961;-0.0109186;0.00308518;0;0.0354483;-0.0103829;2.59961
62000;63;25.7639;0.00642343;0.000249381;-2.2948;25.6352;1.16256;0.00914107;0.00831133;-0.0226067;-0.00215081;-0.0245368;-0.0549302;0.0601997;-7.21939;1.04267e-05;-0.00065769;-0.000282308;0.00053784;-0.00080972;0.00067378;0.0369337;27.0755;0.000783275;0.000898373;0.664229;1.50551;86.257;131.257;-4.94782e-05;1.06023e-05;-0.00103023;-0.000285041;-0.000282622;0.00213031;-0.000794755;0;0.0180932;0.00355074;-0.0277218;-0.0947348;0.0987714;-6.10954;1.1253e-05;0.000309651;0.000357989;0.000539502;-0.00017026;0.000354881;-0.0314338;-31.8129;0.000427866;0.000473175;3.1687;0.315587;23.7431;68.7431;0.00230486;1.09222e-05;-0.00025115;0.000870258;0.000358006;-0.0112738;0.00618163;0;0.0303527;-0.0104167;2.60743
63000;64;25.7633;0.00579302;0.000224906;-2.29455;25.6346;1.16288;0.0093896;0.0076853;-0.0222826;-0.00185392;-0.0262336;-0.0520941;0.0583561;-7.21655;-0.000156917;-0.000759504;0.000115949;0.000751177;-0.000792145;0.000771661;1.35333;0.73892;0.000891142;0.00102888;0.948282;1.05454;83.117;128.117;0.000255882;-0.000156723;-0.00108589;-0.000433209;0.000115648;0.000964371;-0.00136575;0;0.0189023;0.00371152;-0.0289298;-0.0940533;0.098472;-6.10885;-5.82368e-05;0.000350768;0.000265435;0.0004899;-0.000282702;0.000386301;0.219402;4.55785;0.000451378;0.000515069;1.73292;0.577061;17.4868;62.4868;0.00202608;-5.86051e-05;-0.000225734;0.000927082;0.000265471;-0.00981512;0.0053081;0;0.033059;-0.0105815;2.61133
64000;65;25.7625;0.00499927;0.00019409;-2.29515;25.6337;1.16292;0.00879071;0.00683245;-0.0222495;-0.00210257;-0.0245565;-0.0560534;0.0612326;-7.22051;-6.77635e-05;-0.00062366;0.000337166;0.000790403;-0.000521;0.000655701;0.20098;4.97562;0.000762446;0.000874269;1.51709;0.659158;90.7792;135.779;-3.66501e-06;-6.75988e-05;-0.00100345;-0.000244023;0.000336857;0.00202792;-0.00210438;0;0.0184332;0.00327224;-0.0282506;-0.094908;0.0990774;-6.10971;-2.05003e-05;0.000286372;0.000379139;0.000528513;-0.000169875;0.000349194;0.0540709;18.4942;0.000420563;0.000465592;3.11119;0.321421;26.8215;71.8215;0.00248898;-2.07918e-05;-0.000242888;0.00081542;0.00037915;-0.0121417;0.0065327;0;0.0297296;-0.0102105;2.6145
65000;66;25.7623;0.00477637;0.000185436;-2.29482;25.6336;1.16152;0.00912042;0.00670143;-0.0236497;-0.00174197;-0.0252638;-0.0541404;0.0597703;-7.2186;-0.000173892;-0.00079106;-0.000341562;0.000537762;-0.00105322;0.00079549;-0.509107;-1.96422;0.000934484;0.00106065;0.510591;1.95852;76.1593;121.159;2.58861e-05;-0.000173661;-0.00117681;-0.000405243;-0.000341942;0.000606983;-0.000935303;0;0.0246235;0.0037992;-0.0287699;-0.0928119;0.0972429;-6.10761;6.84018e-05;0.000222235;0.000251399;0.000400234;-8.04332e-05;0.000240333;-0.272085;-3.67532;0.000297283;0.000320445;4.97598;0.200966;20.2881;65.2881;0.00187743;6.81751e-05;-0.000264639;0.000709019;0.000251388;-0.00870907;0.00485728;0;0.0326455;-0.0104008;2.62267
66000;67;25.7608;0.00327488;0.000127143;-2.29362;25.6322;1.16018;0.0103146;0.00535981;-0.0249861;-0.00206991;-0.0270129;-0.0459611;0.0533517;-7.21042;-0.000200899;-0.00072377;0.000257283;0.000787353;-0.000730969;0.000759161;0.78085;1.28066;0.000876805;0.00101222;1.07714;0.928388;83.2959;128.296;-0.000591582;-0.000200693;-0.00111292;-0.000334794;0.000256925;0.00227106;-0.0011308;0;0.0232684;0.0039933;-0.0292431;-0.0885459;0.0933353;-6.10335;4.27464e-05;0.000286328;0.000228901;0.0004369;-0.000165253;0.000301076;-0.186746;-5.35486;0.000359251;0.000401435;2.64383;0.378239;19.15;64.15;0.00134332;4.25736e-05;-8.12752e-05;0.000653862;0.000228938;-0.00745711;0.00406193;0;0.0374758;-0.0102962;2.62876
67000;68;25.7643;0.00682205;0.000264856;-2.29424;25.6356;1.16302;0.00969768;0.00874088;-0.0221462;-0.00248905;-0.0245467;-0.0557524;0.0609677;-7.22021;-7.84138e-05;-0.00064785;9.0314e-05;0.00065927;-0.00064737;0.00065332;0.868235;1.15176;0.0007544;0.000871094;1.01838;0.981949;86.6392;131.639;8.73184e-05;-7.82151e-05;-0.00114671;-0.000149079;8.98664e-05;0.00178911;-8.01304e-05;0;0.0186771;0.00299307;-0.0277982;-0.0957855;0.0997825;-6.11059;-6.34367e-05;0.00024999;0.000262717;0.000398119;-0.000198838;0.000298478;0.241464;4.14141;0.000350996;0.000397971;2.00223;0.499444;21.7444;66.7444;0.00237791;-6.37216e-05;-0.000295415;0.000795218;0.000262705;-0.0102533;0.0061951;0;0.0305921;-0.0100427;2.63547
68000;69;25.7616;0.00405932;0.000157597;-2.29462;25.6328;1.16364;0.00931681;0.00590188;-0.0215225;-0.0017412;-0.0255582;-0.0569971;0.0624893;-7.22145;-0.000167287;-0.000603992;0.000183759;0.000637215;-0.000620743;0.000628979;0.910361;1.09847;0.000726303;0.000838638;1.02654;0.97415;82.5212;127.521;-3.39446e-05;-0.000167129;-0.000985891;-0.000222226;0.000183455;0.000933058;-0.00243071;0;0.0177775;0.00422499;-0.0285753;-0.0940149;0.0983524;-6.10882;7.41323e-05;0.0002131;0.000226715;0.000376768;-7.59211e-05;0.000226345;-0.326985;-3.05825;0.000279939;0.000301793;4.96263;0.201506;18.7864;63.7864;0.0018185;7.39239e-05;-0.000253758;0.000679887;0.000226705;-0.00783452;0.00638969;0;0.0297338;-0.010192;2.64273
69000;70;25.7637;0.00615792;0.000239073;-2.29447;25.6348;1.1657;0.00946485;0.00793091;-0.0194675;-0.00121194;-0.0258531;-0.0506728;0.0568998;-7.21513;-0.000100863;-0.00080972;-8.19513e-05;0.000718368;-0.000901182;0.000809775;-1.23076;-0.812503;0.000937031;0.0010797;0.79714;1.25449;83.088;128.088;0.000224369;-0.000100623;-0.00120046;-0.000418984;-8.23441e-05;0.00146663;0.000351102;0;0.0181774;0.00480614;-0.0287172;-0.0902742;0.0948536;-6.10507;-6.97409e-05;0.000202005;0.000223125;0.000326189;-0.000172805;0.000249497;0.312564;3.19935;0.000292596;0.000332663;1.88762;0.529769;23.3501;68.3501;0.00133832;-6.9904e-05;-0.000202007;0.000605899;0.000223125;-0.00855291;0.00522496;0;0.0304722;-0.0103352;2.65099
70000;71;25.7637;0.00613089;0.000238023;-2.29445;25.6348;1.16578;0.00948972;0.00790247;-0.0193904;-0.0011925;-0.0278727;-0.0464031;0.0541438;-7.21086;-0.000109728;-0.000665958;-0.000226059;0.0005006;-0.000836387;0.000668494;-0.485396;-2.06017;0.000779983;0.000891325;0.598526;1.67077;81.869;126.869;-0.00022706;-0.000109534;-0.00109728;-0.000234587;-0.00022644;0.0031969;0.000163626;0;0.0354447;0.00445993;-0.0302663;-0.0870274;0.0922481;-6.10183;-4.77512e-05;0.000231919;0.000199561;0.000338731;-0.000186921;0.000262826;0.239281;4.17918;0.000307675;0.000350434;1.81216;0.551827;19.9343;64.9343;0.000856461;-4.79016e-05;-0.000131723;0.000595472;0.000199579;-0.00735922;0.00418124;0;0.0423184;-0.0104114;2.65839
71000;72;25.7632;0.00569447;0.00022108;-2.29402;25.6344;1.16536;0.00992077;0.00752144;-0.0198084;-0.00188143;-0.0265606;-0.0481776;0.0550462;-7.21263;-4.37229e-05;-0.000617509;-7.30685e-05;0.000559288;-0.000676079;0.000617683;-0.598383;-1.67117;0.000714301;0.000823578;0.827252;1.20882;85.8586;130.859;0.000348851;-4.35699e-05;-0.000960788;-0.00027422;-7.33394e-05;0.000693787;-0.00202249;0;0.0160564;0.00391374;-0.0288162;-0.0885728;0.0932246;-6.10337;0.000177795;0.000232925;0.000254922;0.000452454;-1.97371e-05;0.000236095;-0.697449;-1.4338;0.000308425;0.000314794;22.924;0.0436224;20.8231;65.8231;0.00185846;0.000177656;-0.000110222;0.000576045;0.000254943;-0.00919679;0.00343955;0;0.029778;-0.0101988;2.66478
72000;73;25.7632;0.00570643;0.000221544;-2.29441;25.6344;1.16564;0.00952611;0.0074852;-0.0195237;-0.00194076;-0.0265936;-0.050166;0.0568121;-7.21462;-0.000125273;-0.00067496;0.000389987;0.000854814;-0.0005901;0.000722457;0.321224;3.1131;0.000838875;0.000963276;1.44859;0.690326;88.5781;133.578;-0.000365303;-0.000125081;-0.00108157;-0.00026856;0.00038963;0.00310655;-0.00207505;0;0.0274112;0.00366183;-0.0297359;-0.089371;0.0942592;-6.10417;0.000106327;0.000110236;0.000303197;0.00035255;5.69736e-05;0.000147788;-0.350685;-2.85156;0.000218532;0.000197051;-6.18795;-0.161604;33.8878;78.8878;0.0019705;0.000106192;-0.00030967;0.000530058;0.000303155;-0.0103975;0.00297782;0;0.0421501;-0.0101112;2.67206
73000;74;25.7631;0.00562538;0.000218398;-2.29525;25.6343;1.16463;0.0086821;0.00737432;-0.0205388;-0.000385353;-0.0250604;-0.0529505;0.0585827;-7.21741;-0.0001374;-0.000714511;-0.000161476;0.000565174;-0.00086405;0.000714612;-0.850901;-1.17522;0.000831155;0.000952816;0.654098;1.52882;79.6649;124.665;0.000657514;-0.000137202;-0.00109103;-0.000337984;-0.000161816;0.00223145;0.000355181;0;0.0190353;0.00451656;-0.0284211;-0.0905471;0.0950102;-6.10535;-2.59043e-05;0.000248718;0.000343707;0.000468762;-0.000150959;0.000309861;0.0753675;13.2683;0.000373149;0.000413147;3.10522;0.322039;31.8709;76.8709;0.00239401;-2.60296e-05;-6.16256e-05;0.000558946;0.000343736;-0.0111612;0.0067356;0;0.0316819;-0.0104375;2.67814
74000;75;25.7637;0.00615041;0.000238781;-2.29417;25.6348;1.16546;0.00976765;0.0079613;-0.0197058;-0.00230309;-0.0245868;-0.0546557;0.0599755;-7.21911;-0.000151456;-0.000646101;-0.000222804;0.000459955;-0.000834215;0.000647085;-0.679773;-1.47108;0.000757533;0.000862781;0.551363;1.81369;79.6127;124.613;-0.000190796;-0.000151273;-0.0010674;-0.000224776;-0.000223165;0.00194461;-0.00254227;0;0.0202476;0.00333535;-0.0280294;-0.0936416;0.0978035;-6.10844;-5.05771e-06;0.00028649;0.000162015;0.000376899;-0.000219943;0.000298421;;;0.000348536;0.000397895;1.71363;0.583558;13.4232;58.4232;0.00254938;-5.26638e-06;-0.00013378;0.00070669;0.000162047;-0.0117291;0.00553433;0;0.0359526;-0.0102586;2.68208
75000;76;25.7609;0.00335409;0.000130218;-2.29369;25.6324;1.1587;0.0102491;0.00550036;-0.0264629;-0.00159211;-0.0269684;-0.0483649;0.0553985;-7.21282;-0.000231011;-0.000834692;-0.00016622;0.000636705;-0.00103394;0.000835321;-1.38979;-0.719535;0.000973591;0.00111376;0.615807;1.62389;74.3256;119.326;-0.00022008;-0.000230777;-0.00119098;-0.00047843;-0.000166581;0.00185497;-0.00218199;0;0.0172266;0.00462044;-0.0297005;-0.0883226;0.0932971;-6.10312;2.2883e-05;0.000275794;0.000221079;0.000415039;-0.000171077;0.000293058;-0.103506;-9.6613;0.000348028;0.000390744;2.42604;0.412194;21.6444;66.6444;0.00151561;2.27664e-05;-4.56741e-06;0.0005561;0.000221117;-0.00720967;0.00673528;0;0.0310911;-0.0104684;2.69124
76000;77;25.7639;0.00637145;0.000247363;-2.29528;25.6354;1.15669;0.00865809;0.00848137;-0.0284764;-0.00413609;-0.0294435;-0.0454141;0.0542814;-7.20987;-0.000284474;-0.000750865;0.000216352;0.00075746;-0.000825581;0.000791521;1.31486;0.760536;0.000914251;0.00105536;0.917487;1.08993;78.0253;123.025;4.23628e-05;-0.000284271;-0.00110365;-0.000398259;0.000216025;0.00283091;-0.000387681;0;0.0168034;0.00151305;-0.032039;-0.0908814;0.0963754;-6.10568;-0.000112902;0.000269766;0.000334592;0.000461325;-0.000239635;0.00035048;0.337431;2.96357;0.000411391;0.000467307;1.92512;0.519448;24.3878;69.3878;0.00154163;-0.000113329;-0.000423779;0.000963;0.000334539;-0.00916069;0.00292596;0;0.0296433;-0.0101988;2.69487
77000;78;25.7643;0.00677939;0.000263201;-2.29681;25.6356;1.1572;0.00712611;0.00873132;-0.0279706;-0.00346778;-0.0286959;-0.0519932;0.0594876;-7.21645;2.18289e-05;-0.000449115;2.07261e-05;0.000470393;-0.000427838;0.000449116;-1.05321;-0.949482;0.000518788;0.000598821;1.09947;0.909533;91.8054;136.805;-5.7357e-05;2.19243e-05;-0.00079398;-0.00010425;2.05118e-05;0.00136889;3.3947e-05;0;0.0271702;0.00182963;-0.0324855;-0.0970277;0.102338;-6.11183;-5.0965e-05;0.000239491;0.000322963;0.000439827;-0.000167829;0.000303828;0.157804;6.33697;0.000362356;0.000405104;2.62069;0.381579;24.2719;69.2719;0.00204992;-5.14068e-05;-0.000491303;0.000970011;0.000322871;-0.00948848;0.00397236;0;0.0371465;-0.0101787;2.70177
78000;79;25.7633;0.00578742;0.000224689;-2.29599;25.6349;1.15323;0.00794543;0.00798669;-0.031941;-0.00349054;-0.0316457;-0.0440887;0.0543824;-7.20855;-8.86571e-05;-0.000293189;-0.00026566;0.000129097;-0.000483414;0.000306255;-0.333724;-2.99649;0.000372834;0.00040834;0.267052;3.74459;84.5526;129.553;-0.000586782;-8.86151e-05;-0.000630548;4.42306e-05;-0.000265816;0.00290066;0.00015888;0;0.0169537;0.00124212;-0.0346141;-0.0910265;0.0973935;-6.10583;-1.39997e-05;0.000250093;0.000238145;0.000392145;-0.000168;0.000280072;0.0587866;17.0107;0.000331918;0.00037343;2.3342;0.428413;18.2809;63.2809;0.00190792;-1.4373e-05;-0.000399499;0.00089952;0.000238096;-0.0103135;0.00318188;0;0.032426;-0.00992938;2.70913
79000;80;25.7668;0.00923047;0.00035836;-2.29856;25.6378;1.15927;0.00537315;0.0109439;-0.0258954;-0.00370583;-0.0316857;-0.0499442;0.0592633;-7.2144;-1.81229e-05;-0.000450268;-0.000396534;0.000281077;-0.000695734;0.000488406;-0.0457033;-21.8802;0.000580653;0.000651208;0.404001;2.47524;85.3375;130.338;-0.000583981;-1.80288e-05;-0.000780338;-0.000120074;-0.000396738;0.00204367;0.000831631;0;0.0187941;0.000442572;-0.0360335;-0.0961993;0.102727;-6.111;-0.000128811;0.000186343;0.000398311;0.000457532;-0.000188032;0.000322782;0.323394;3.09221;0.00038339;0.000430376;2.43326;0.410971;32.6149;77.6149;0.00130535;-0.000129213;-0.000543067;0.000915369;0.000398181;-0.00897877;0.00276336;0;0.0350186;-0.00996795;2.71744
80000;81;25.7673;0.00979271;0.000380188;-2.29975;25.6387;1.15056;0.00418357;0.0117946;-0.034605;-0.00387887;-0.0309287;-0.057665;0.0655506;-7.22212;-5.34449e-06;-0.000576591;0.000181184;0.000672005;-0.000496165;0.000584085;;;0.000676986;0.00077878;1.3544;0.738336;93.5971;138.597;-0.000376403;-5.21673e-06;-0.000875865;-0.000277373;0.000180967;0.00284663;7.09792e-05;0;0.0224595;-0.000358452;-0.0369842;-0.105331;0.111636;-6.12013;-9.47619e-05;0.000192077;0.000202253;0.000296537;-0.000189046;0.000242792;0.468532;2.13432;0.000282632;0.000323722;1.56859;0.637514;20.7842;65.7842;0.000588732;-9.52371e-05;-0.000609725;0.00099364;0.000202085;-0.00707088;0.00266743;0;0.0306011;-0.00997636;2.72411
81000;82;25.7655;0.00793698;0.000308142;-2.29925;25.6372;1.1434;0.00468822;0.0102953;-0.0417685;-0.00399745;-0.032951;-0.0575382;0.0664258;-7.222;-0.000101175;-0.000706719;0.000167605;0.000752598;-0.000686168;0.000719383;0.603654;1.65658;0.000830967;0.000959177;1.09681;0.911733;87.913;132.913;-0.000440773;-0.000101013;-0.00099451;-0.000419004;0.00016736;0.00236125;4.33186e-05;0;0.0152227;-0.000915275;-0.0388595;-0.108443;0.115199;-6.12324;-0.000114026;0.000229222;-9.26683e-05;0.000126123;-0.000332817;0.00022947;-1.23048;-0.812693;0.00027378;0.00030596;0.378956;2.63883;177.824;42.8238;0.00119046;-0.000114568;-0.000607163;0.00106559;-9.28263e-05;-0.00820421;0.00424581;0;0.0267921;-0.0100336;2.73137
82000;83;25.7671;0.00954654;0.000370631;-2.29946;25.6386;1.14634;0.00447377;0.0117621;-0.0388213;-0.00417906;-0.0351601;-0.0621861;0.0715598;-7.22664;-4.58538e-05;-0.000523642;-9.8774e-06;0.000496086;-0.000551817;0.000523951;;;0.000605292;0.000698601;0.899004;1.11234;86.0591;131.059;-0.000580275;-4.57492e-05;-0.000792285;-0.000255009;-1.00542e-05;0.000465496;0.00146187;0;0.0153617;-0.00119274;-0.0421134;-0.11336;0.120936;-6.12816;-0.000274813;0.000141579;-0.000164586;-6.7772e-05;-0.000371627;0.000151928;-1.66972;-0.598903;0.000228535;0.00020257;-0.182365;-5.48349;1.31054;46.3105;0.00121738;-0.000275116;-0.00050868;0.000791766;-0.000164706;-0.00892701;0.00361906;0;0.0305704;-0.00984439;2.73839
83000;84;25.7641;0.00655056;0.000254316;-2.30084;25.6359;1.13819;0.00310096;0.00899111;-0.0469729;-0.00344161;-0.0391904;-0.0542535;0.0670162;-7.21871;1.993e-06;-0.000495427;-0.000373491;0.000344058;-0.000715555;0.000529807;;;0.000624175;0.000706409;0.480826;2.07976;84.3271;129.327;-0.000794269;2.09585e-06;-0.000791356;-0.000199387;-0.000373681;0.00251705;0.00215481;0;0.0148244;-0.000801926;-0.0445789;-0.109249;0.117997;-6.12405;-0.000295811;0.000176703;-0.000254058;-9.70025e-05;-0.000452867;0.000177932;-1.16434;-0.858855;0.000275333;0.000237243;-0.214197;-4.66861;170.802;35.8025;0.00118881;-0.000296086;-0.000408829;0.000762211;-0.000254126;-0.00890861;0.00162914;0;0.0301895;-0.00944027;2.74616
84000;85;25.7652;0.00763092;0.00029626;-2.29981;25.637;1.13842;0.00412998;0.0101591;-0.0467452;-0.00443769;-0.0402783;-0.0587304;0.0713533;-7.22319;3.09224e-05;-0.000322039;0.000186115;0.000439774;-0.000222737;0.000331255;-0.166147;-6.01878;0.000389282;0.000441674;1.97441;0.50648;96.0842;141.084;-0.000164756;3.09696e-05;-0.000547459;-9.66531e-05;0.000186017;0.000230833;0.000817124;0;0.0179082;-0.001624;-0.0455737;-0.1166;0.125201;-6.1314;-0.0001294;0.000251328;-0.000187314;9.46332e-05;-0.000411347;0.00025299;-0.690821;-1.44755;0.000310619;0.00033732;0.230057;4.34676;170.455;35.4555;0.000429618;-0.000129833;-0.000460714;0.00096341;-0.000187388;-0.00715345;0.0031683;0;0.0332685;-0.00928856;2.75249
85000;86;25.7665;0.00898849;0.000348966;-2.30061;25.6382;1.14134;0.00332594;0.0113217;-0.0438306;-0.00511319;-0.0425959;-0.0625884;0.0758806;-7.22705;-0.000117832;-0.000514159;0.000177707;0.000564909;-0.000505035;0.000534972;0.663071;1.50813;0.000618055;0.000713296;1.11856;0.89401;86.7505;131.75;-0.0010399;-0.000117757;-0.000692502;-0.000335868;0.0001776;0.00317543;0.00145724;0;0.0144778;-0.00224099;-0.0480111;-0.12153;0.130689;-6.13633;-0.000191903;0.000276691;-0.000280395;4.40569e-05;-0.000516355;0.000280206;-0.684403;-1.46113;0.000359823;0.000373608;0.0853228;11.7202;165.119;30.1186;0.000558367;-0.000192272;-0.000348311;0.000901748;-0.000280418;-0.00792979;0.00183963;0;0.0357312;-0.00891387;2.75887
86000;87;25.7642;0.00670155;0.000260178;-2.30021;25.6363;1.13425;0.0037269;0.00937371;-0.0509142;-0.00501228;-0.0452268;-0.0622358;0.0770966;-7.22669;-0.000228405;-0.000474826;0.000576712;0.000796659;-0.000448352;0.000622505;0.396047;2.52495;0.000728123;0.000830007;1.77686;0.562791;94.8167;139.817;-0.00120576;-0.000228346;-0.000621442;-0.000328328;0.000576632;0.003808;0.00284416;0;0.0185599;-0.0025432;-0.0497761;-0.122488;0.13224;-6.13729;-0.000244622;0.000301389;-0.000271901;4.34359e-05;-0.000559958;0.000301697;-0.899671;-1.11152;0.000388594;0.000402263;0.0775698;12.8916;167.95;32.9502;0.000908754;-0.000245033;-0.000353246;0.000956041;-0.000271918;-0.00672651;0.00327732;0;0.0354563;-0.00893909;2.76122
87000;88;25.7654;0.00788582;0.000306156;-2.30006;25.6374;1.13681;0.0038805;0.0104645;-0.0483594;-0.00598789;-0.0468013;-0.0702911;0.0846584;-7.23475;-0.000298329;-0.000795155;1.61371e-05;0.000669455;-0.000951648;0.000810551;18.4872;0.0540915;0.000940659;0.00108074;0.70347;1.42153;72.5573;117.557;-0.000873515;-0.000298125;-0.00111647;-0.000473943;1.583e-05;0.00281211;0.00274612;0;0.0144415;-0.00335624;-0.0509048;-0.131565;0.14111;-6.14637;-0.000172312;0.000292748;-0.000300893;6.31215e-05;-0.000536327;0.000299724;-0.572669;-1.74621;0.000380342;0.000399632;0.117692;8.49673;161.557;26.557;0.00157459;-0.000172599;-0.000225978;0.00081154;-0.000300876;-0.00940109;0.00257881;0;0.0375965;-0.00821054;2.76806
88000;89;25.7634;0.00587773;0.000228195;-2.29946;25.6356;1.13269;0.00447313;0.00868168;-0.0524735;-0.00568623;-0.0495019;-0.071725;0.0873342;-7.23618;-0.000256749;-0.0007638;-0.000232643;0.000519199;-0.00100859;0.000763895;-1.10362;-0.906112;0.000897028;0.00101853;0.514777;1.94259;63.2434;108.243;-0.000643993;-0.000256623;-0.000950765;-0.000576839;-0.000232803;0.00220915;0.00200283;0;0.0202312;-0.00361553;-0.0533424;-0.133952;0.144228;-6.14875;-5.98665e-05;0.000391579;-0.000276026;0.000238274;-0.000574167;0.00040622;-0.216887;-4.61069;0.000482241;0.000541627;0.414991;2.40969;160.857;25.8565;0.00119094;-6.01017e-05;-6.54442e-06;0.000789787;-0.00027595;-0.00757871;0.00249961;0;0.0421099;-0.00839514;2.77575
89000;90;25.76;0.00251895;9.77946e-05;-2.29903;25.6325;1.12554;0.00490814;0.00566017;-0.0596246;-0.00594911;-0.0512585;-0.0722213;0.0887623;-7.23668;-0.000111377;-0.000717182;0.000145218;0.000745488;-0.000711647;0.000728567;0.766964;1.30384;0.000841353;0.000971423;1.04755;0.954605;86.846;131.846;9.25005e-05;-0.000111228;-0.000970156;-0.000464272;0.000145005;0.00146117;0.00288878;0;0.0217245;-0.00400985;-0.0543992;-0.136588;0.147077;-6.15139;-0.000192812;0.000328054;-0.000330846;7.34065e-05;-0.000597064;0.000335235;-0.582785;-1.7159;0.000424632;0.00044698;0.122946;8.13366;150.253;15.2526;0.00108859;-0.000192919;8.91944e-05;0.000566946;-0.000330796;-0.00786207;0.0020878;0;0.0393027;-0.00806632;2.78279
90000;91;25.761;0.00347743;0.000135006;-2.29945;25.6334;1.1271;0.00448448;0.00651703;-0.0580683;-0.00578077;-0.0553789;-0.0695381;0.0890831;-7.234;-0.000183486;-0.000734738;-0.000231082;0.000527839;-0.000942408;0.000735124;-0.794031;-1.2594;0.000860022;0.000980165;0.560097;1.78541;70.4285;115.429;-0.000532409;-0.00018334;-0.00097312;-0.000496345;-0.000231286;0.00359485;0.0027368;0;0.0167142;-0.00421648;-0.057483;-0.138095;0.14964;-6.1529;-7.62557e-05;0.000388618;-0.000139442;0.000282051;-0.000497749;0.0003899;-0.546861;-1.82862;0.000455922;0.000519866;0.566653;1.76475;164.553;29.5525;0.0014378;-7.63646e-05;0.000169974;0.000607275;-0.000139381;-0.00735248;0.00206113;0;0.0391608;-0.00776456;2.79025
91000;92;25.7606;0.00311349;0.000120877;-2.29867;25.6331;1.12702;0.00526793;0.006225;-0.0581468;-0.0069336;-0.0568811;-0.0726903;0.0925603;-7.23715;-0.000349524;-0.000833576;3.35076e-05;0.000697285;-0.0010133;0.000855293;10.4312;0.0958662;0.00099321;0.00114039;0.688132;1.45321;65.1886;110.189;-0.000373178;-0.00034937;-0.00104566;-0.000621568;3.33083e-05;0.00260377;0.000979533;0;0.0278548;-0.00472323;-0.0588499;-0.14272;0.154449;-6.15752;-4.24969e-05;0.000355772;-0.000143879;0.000266177;-0.000452553;0.000359365;-0.295365;-3.38564;0.000419584;0.000479154;0.588168;1.7002;162.19;27.1898;0.00173421;-4.25765e-05;0.000176903;0.000534659;-0.000143832;-0.00812689;0.000765566;0;0.0424876;-0.00761559;2.79731
92000;93;25.7599;0.00233174;9.05266e-05;-2.29908;25.6324;1.12495;0.00485282;0.00549296;-0.0602143;-0.00737647;-0.0567268;-0.0798766;0.0982477;-7.24433;-0.000156575;-0.000799778;-0.000166117;0.000638446;-0.000961138;0.000799792;-0.942559;-1.06094;0.000929763;0.00106639;0.66426;1.50543;72.373;117.373;-0.000334193;-0.00015642;-0.00102511;-0.000574448;-0.000166323;0.000800916;0.0010908;0;0.0215606;-0.0054306;-0.0593023;-0.149982;0.161372;-6.16478;1.44752e-06;0.000307819;-6.65765e-05;0.000277128;-0.000342257;0.000309692;;;0.00035826;0.000412923;0.809707;1.23501;166.378;31.3778;0.0011959;1.4177e-06;0.000222731;0.000392913;-6.6554e-05;-0.00731277;0.00168419;0;0.0396254;-0.00758269;2.80511
93000;94;25.758;0.000505093;1.96095e-05;-2.29823;25.6309;1.11875;0.00570722;0.00400528;-0.0664156;-0.00707562;-0.0583472;-0.0811317;0.100184;-7.24559;-0.000305862;-0.000977253;-7.59791e-05;0.000793069;-0.00117491;0.000983989;-4.0256;-0.24841;0.00114332;0.00131199;0.675004;1.48147;66.4482;111.448;8.10402e-05;-0.000305668;-0.00120157;-0.000752985;-7.62235e-05;0.000160526;0.00277748;0;0.0213677;-0.00531361;-0.0610423;-0.153209;0.165007;-6.16801;8.2498e-05;0.000329125;3.7825e-05;0.000390044;-0.000269721;0.000329883;-2.18105;-0.458496;0.000383021;0.000439843;1.4461;0.691514;10.4409;55.4409;0.00156443;8.24466e-05;0.000198688;0.000459569;3.78594e-05;-0.00877368;0.00158408;0;0.0387999;-0.0075412;2.81214
94000;95;25.7591;0.00161892;6.28523e-05;-2.29921;25.6318;1.12227;0.00472538;0.00488257;-0.0628928;-0.00822738;-0.0606781;-0.0810444;0.101576;-7.2455;-0.000412981;-0.000866014;-0.000305454;0.000508464;-0.0012269;0.000867682;-1.35203;-0.739631;0.00103014;0.00115691;0.41443;2.41295;61.4993;106.499;-6.87727e-06;-0.000412786;-0.00113221;-0.000599847;-0.00030572;0.00188404;0.00361509;0;0.0256005;-0.00645275;-0.0634592;-0.155359;0.167944;-6.17016;0.000124578;0.000304789;4.63015e-05;0.000392731;-0.000221852;0.000307292;-2.69059;-0.371666;0.000359372;0.000409722;1.77024;0.564895;10.3521;55.3521;0.00140139;0.000124516;0.000144214;0.000465377;4.63375e-05;-0.0091083;0.00189824;0;0.0421082;-0.00736299;2.81988
95000;96;25.7583;0.000737251;2.86228e-05;-2.29967;25.6312;1.11513;0.0042692;0.00426739;-0.0700362;-0.00789054;-0.0614251;-0.0855307;0.105597;-7.24999;-0.000127376;-0.000826743;-0.000506002;0.000531452;-0.00116483;0.000848141;-0.25173;-3.97251;0.00100185;0.00113086;0.456249;2.19179;73.6408;118.641;-0.000395504;-0.000127168;-0.00113649;-0.000516878;-0.000506307;0.00179348;0.0029413;0;0.0272912;-0.00629189;-0.0644724;-0.161561;0.174064;-6.17636;0.000118258;0.000143409;0.000180974;0.000296413;2.81896e-06;0.000146797;-0.653455;-1.53033;0.000196676;0.000195729;;;42.6736;87.6736;0.00104434;0.000118251;9.7695e-05;0.00018912;0.000180979;-0.00783934;0.00145209;0;0.0425548;-0.00754961;2.82691
96000;97;25.7567;-0.000812217;-3.15332e-05;-2.29785;25.6298;1.11465;0.00608726;0.0028941;-0.0705144;-0.00804565;-0.0638774;-0.0853111;0.106879;-7.24977;-0.000212808;-0.000873082;-0.000450079;0.000549662;-0.00121255;0.000881105;-0.472824;-2.11495;0.00104113;0.00117481;0.453312;2.20599;71.5534;116.553;2.70968e-05;-0.000212571;-0.00120861;-0.000537473;-0.000450428;0.00145587;0.00258154;0;0.0276123;-0.00631804;-0.0668786;-0.163604;0.176859;-6.1784;0.000106857;0.000165521;0.00019341;0.000321218;-2.09514e-05;0.000171085;-0.552487;-1.81;0.00022146;0.000228113;15.3316;0.0652247;18.8977;63.8977;0.00143304;0.000106737;-0.000185943;0.000516954;0.000193407;-0.00879784;0.00145076;0;0.0383407;-0.00739041;2.83178
97000;98;25.7597;0.00219913;8.53781e-05;-2.29949;25.6326;1.11606;0.00444963;0.00571234;-0.0691089;-0.00806893;-0.0641767;-0.0909735;0.111624;-7.25543;-0.000157375;-0.000761261;-0.000420681;0.000483533;-0.00106159;0.000772561;-0.374095;-2.67311;0.000912649;0.00103008;0.455481;2.19548;71.7515;116.752;-0.000133602;-0.000157203;-0.00103722;-0.000485223;-0.000420929;0.00108359;0.00322725;0;0.0241776;-0.00678097;-0.0688679;-0.17035;0.18387;-6.18515;-1.27979e-05;0.000127703;0.000148056;0.000218548;-8.32901e-05;0.000150919;0.0864393;11.5688;0.000180004;0.000201226;2.62394;0.381106;26.3223;71.3223;0.000779091;-1.28375e-05;-5.38102e-05;0.000309188;0.000148063;-0.00651733;0.00186993;0;0.0366084;-0.00732827;2.8361
98000;99;25.7622;0.00467176;0.000181374;-2.30027;25.6352;1.11213;0.00366948;0.00829777;-0.0730327;-0.00836608;-0.0658611;-0.0927479;0.114061;-7.25721;-0.000121084;-0.000763887;-0.000503256;0.000475255;-0.00109959;0.000787425;-0.240601;-4.15625;0.000932753;0.0010499;0.432209;2.3137;72.902;117.902;0.00023557;-0.00012091;-0.00104243;-0.000485239;-0.000503508;0.00096987;0.00277922;0;0.0238708;-0.0071423;-0.0713139;-0.175144;0.189241;-6.18994;-3.11545e-05;0.000165297;-3.62509e-06;0.000148479;-0.000183259;0.000165869;;;0.00019188;0.000221159;0.810216;1.23424;1.38395;46.384;0.000345354;-3.13597e-05;-0.00033107;0.00066165;-3.66623e-06;-0.00738012;0.0020538;0;0.0352151;-0.00730359;2.84171
99000;100;25.763;0.00548872;0.000213092;-2.30173;25.6359;1.11146;0.00220624;0.00901675;-0.0737085;-0.00869409;-0.067165;-0.0938727;0.115753;-7.25833;-0.000187213;-0.000928785;-0.000210438;0.000730031;-0.00112768;0.000928857;-0.889635;-1.12406;0.00108071;0.00123848;0.647373;1.5447;73.4769;118.477;-0.000717267;-0.000186981;-0.00122608;-0.000631482;-0.000210759;0.00273581;0.0032575;0;0.0274485;-0.00773666;-0.0736335;-0.177595;0.19241;-6.19239;-1.61982e-05;0.000195264;-0.000106131;0.00013921;-0.000261539;0.000200374;-0.152624;-6.55204;0.000234938;0.000267166;0.532272;1.87874;170.057;35.0572;0.00111027;-1.64229e-05;-0.000307793;0.000698365;-0.000106159;-0.00683839;0.00366003;0;0.041459;-0.00728897;2.8482
100000;101;25.7646;0.0070957;0.000275481;-2.30285;25.6377;1.10594;0.00108237;0.0107695;-0.0792282;-0.00907221;-0.0688512;-0.0942819;0.117098;-7.25874;-0.000350097;-0.000903987;-0.000515102;0.000475144;-0.00134034;0.000907744;-0.679666;-1.47131;0.00108712;0.00121032;0.354494;2.82092;65.5052;110.505;-6.96682e-05;-0.000349864;-0.00121574;-0.000592178;-0.000515432;0.00126115;0.00202861;0;0.0223757;-0.00820895;-0.0757499;-0.182443;0.197714;-6.19724;-8.47508e-05;0.00015332;-9.5622e-05;6.32303e-05;-0.000243603;0.000153417;-0.88631;-1.12827;0.000187075;0.000204556;0.259563;3.85263;173.251;38.251;-5.78748e-05;-8.49174e-05;-0.000290716;0.000597362;-9.56525e-05;-0.0038738;0.00080999;0;0.0323163;-0.00721549;2.85508
101000;102;25.7648;0.00728572;0.000282858;-2.30312;25.6379;1.10347;0.000820051;0.011043;-0.0816923;-0.00919812;-0.0705401;-0.0948736;0.118581;-7.25933;-5.53334e-05;-0.000728146;-0.000303501;0.000559226;-0.00091806;0.000738643;-0.182317;-5.48494;0.000861258;0.000984858;0.609139;1.64166;78.9878;123.988;-0.000829396;-5.51641e-05;-0.00101854;-0.000437677;-0.000303754;0.00216025;0.000985783;0;0.0272838;-0.00825918;-0.0781204;-0.185671;0.201605;-6.20047;-1.21089e-05;0.00015842;-0.000410715;4.3183e-05;-0.000466007;0.000254595;-0.0294825;-33.9185;0.00032602;0.00033946;0.092666;10.7914;140.117;5.11744;-6.39624e-05;-1.22486e-05;-0.00023481;0.000551806;-0.00041073;-0.00323097;0.00184922;0;0.0353753;-0.00715006;2.86262
102000;103;25.7654;0.00791467;0.000307276;-2.30228;25.6389;1.0984;0.00165802;0.0119684;-0.0867689;-0.00894671;-0.071353;-0.0978162;0.121406;-7.26227;-0.000136872;-0.000605369;-0.000417568;0.000344205;-0.000898645;0.000621425;-0.327782;-3.05081;0.000740978;0.000828567;0.383027;2.61078;73.8591;118.859;-0.000232411;-0.000136743;-0.000879217;-0.000331444;-0.000417772;0.00145697;0.00257506;0;0.0234913;-0.00847835;-0.0801195;-0.190387;0.206732;-6.20519;2.32851e-06;0.00019896;-0.000354096;9.12204e-05;-0.000442988;0.000267104;;;0.000329963;0.000356139;0.205921;4.85624;151.106;16.106;0.000499883;2.0168e-06;-0.000416114;0.000814253;-0.000354163;-0.00554291;0.00417108;0;0.0349446;-0.00686291;2.8693
103000;104;25.7697;0.0121594;0.000472073;-2.30321;25.6429;1.10135;0.000731154;0.0160244;-0.0838207;-0.00951966;-0.0722158;-0.103757;0.126773;-7.26821;-9.12485e-05;-0.000643876;-0.000461343;0.000393644;-0.000946235;0.000669939;-0.197789;-5.0559;0.000795207;0.000893253;0.41601;2.40379;74.7826;119.783;-0.000779514;-9.1114e-05;-0.000906199;-0.000381456;-0.000461547;0.00200471;0.000951971;0;0.0250666;-0.00911344;-0.0824349;-0.198135;0.214793;-6.21294;-8.2144e-05;0.000175068;-0.000371924;2.14327e-07;-0.000454282;0.000227248;-0.220862;-4.5277;0.000302926;0.000302998;;;143.276;8.276;-0.000155529;-8.22606e-05;-0.000163398;0.000513632;-0.000371922;-0.00432156;0.00348153;0;0.0355887;-0.00693383;2.87697
104000;105;25.7684;0.0108453;0.000421054;-2.30239;25.6419;1.09592;0.00155055;0.01501;-0.0892506;-0.00967098;-0.0728338;-0.10623;0.129163;-7.27069;-8.24969e-05;-0.00052669;-0.000252719;0.000365915;-0.000701131;0.000533523;-0.326438;-3.06337;0.00062611;0.000711364;0.521893;1.9161;77.6041;122.604;-0.000194259;-8.23968e-05;-0.00077534;-0.000277998;-0.000252881;-0.000528683;0.00273084;0;0.0218575;-0.00933374;-0.0832946;-0.20215;0.218837;-6.21695;-8.04269e-05;0.000177834;-0.000430985;-6.01051e-06;-0.000505401;0.000249695;-0.186612;-5.35871;0.000334949;0.000332927;;;139.123;4.12256;0.000311068;-8.05437e-05;-0.000159198;0.000514985;-0.000430982;-0.00500005;0.00437552;0;0.0354163;-0.00699013;2.884
105000;106;25.7646;0.00706612;0.000274332;-2.30254;25.6385;1.08642;0.00139238;0.0116022;-0.0987484;-0.0104004;-0.0758814;-0.106429;0.131123;-7.27089;5.8499e-06;-0.000681315;-0.000441511;0.000499263;-0.000934924;0.000717093;;;0.000840666;0.000956124;0.534014;1.87261;81.0764;126.076;-0.000394592;6.00911e-06;-0.00098069;-0.000381805;-0.00044176;0.00106285;0.00263833;0;0.0229957;-0.00999946;-0.0862952;-0.2045;0.222187;-6.2193;-1.01666e-05;0.000282346;-0.000609559;0.000101886;-0.000721611;0.000411749;-0.0166787;-59.9569;0.000518385;0.000548998;0.141192;7.08253;116.611;161.611;-0.000216324;-1.01834e-05;0.000228139;0.000336585;-0.000609545;-0.00467057;0.00368212;0;0.0379357;-0.00626011;2.89199
106000;107;25.767;0.00945609;0.000367119;-2.30258;25.6408;1.08928;0.00135436;0.0138793;-0.0958911;-0.0102467;-0.0782473;-0.108475;0.134143;-7.27293;-0.000120003;-0.000738027;7.3101e-05;0.000720865;-0.000767767;0.000744316;1.6416;0.609161;0.000859604;0.000992421;0.938912;1.06506;84.0954;129.095;-0.00012737;-0.000119823;-0.00104531;-0.000430805;7.28271e-05;-0.00123783;0.00313933;0;0.0219058;-0.00986137;-0.0888056;-0.20911;0.227399;-6.22391;7.77033e-05;0.000321938;-0.000604341;0.000205659;-0.000732297;0.000468978;0.128575;7.77755;0.000569272;0.000625304;0.280841;3.56073;112.091;157.091;0.000551339;7.77021e-05;0.000318119;0.00032576;-0.00060434;-0.00629584;0.00377384;0;0.0393402;-0.00619321;2.89849
107000;108;25.7648;0.00731826;0.000284121;-2.30113;25.639;1.08347;0.0028049;0.0121072;-0.101699;-0.0104114;-0.0792217;-0.110678;0.136507;-7.27514;6.84983e-05;-0.000375905;5.41457e-05;0.000437295;-0.000314651;0.000375973;-1.26507;-0.790468;0.000436057;0.000501298;1.38978;0.71954;95.0822;140.082;9.2781e-05;6.85689e-05;-0.000760489;8.68505e-06;5.39272e-05;-0.000309037;0.00365059;0;0.022153;-0.00999999;-0.0896928;-0.213242;0.231554;-6.22804;0.000214831;0.000279552;-0.000596235;0.000301849;-0.000683252;0.000492551;0.360313;2.77536;0.000582785;0.000656734;0.441783;2.26356;102.59;147.59;0.000686654;0.00021484;0.000311103;0.000247975;-0.000596244;-0.00600447;0.00511412;0;0.0395134;-0.00615538;2.90347
108000;109;25.7641;0.00661406;0.000256782;-2.3015;25.6383;1.08184;0.00243393;0.0114348;-0.103322;-0.0108179;-0.0808936;-0.114745;0.140809;-7.2792;-7.97331e-05;-0.000799705;0.000134005;0.00083395;-0.000779679;0.000806815;0.595003;1.68066;0.000931805;0.00107575;1.06961;0.934922;88.9141;133.914;-3.45868e-05;-7.95456e-05;-0.00108513;-0.000514345;0.000133736;-0.000512195;0.00287755;0;0.0235787;-0.0104198;-0.0911501;-0.218021;0.236538;-6.23282;3.17636e-05;0.000278442;-0.000528599;0.00014659;-0.000643426;0.000395008;0.0600901;16.6417;0.000485252;0.000526677;0.227828;4.38928;91.8162;136.816;0.000526092;3.18005e-05;0.000495697;6.10645e-05;-0.000528683;-0.00497204;0.0049736;0;0.0412465;-0.00574321;2.90731
109000;110;25.7651;0.00760712;0.000295336;-2.30171;25.6391;1.08582;0.00222441;0.0122457;-0.0993412;-0.0101683;-0.0845358;-0.114017;0.142301;-7.27847;-8.23768e-05;-0.000446963;0.000654246;0.000865097;-0.000293228;0.000579163;0.125911;7.94212;0.000695396;0.000772217;2.95026;0.338953;95.6777;140.678;-0.000904165;-8.22998e-05;-0.000679966;-0.000214131;0.000654115;0.000175387;0.00337738;0;0.0173739;-0.00976851;-0.0937719;-0.218926;0.238364;-6.23373;0.000159654;0.000326997;-0.000498756;0.000294456;-0.000633558;0.000464007;0.320105;3.12398;0.000547583;0.000618677;0.464766;2.15162;79.3577;124.358;0.00018929;0.000159706;0.000709108;-5.53658e-05;-0.000498954;-0.00492891;0.00443292;0;0.0393907;-0.00539246;2.91289
110000;111;25.7634;0.00589342;0.000228804;-2.3011;25.6377;1.0801;0.00283288;0.01082;-0.105065;-0.0110293;-0.0859802;-0.117438;0.145966;-7.2819;-4.02532e-05;-0.00033819;0.000537629;0.000693502;-0.000196126;0.000444814;0.0748716;13.3562;0.000539722;0.000593085;3.536;0.282805;86.5297;131.53;-0.000201186;-4.01966e-05;-0.00071324;3.66439e-05;0.000537432;0.000221126;0.00518586;0;0.0231686;-0.0105458;-0.0951716;-0.223887;0.243504;-6.23869;0.000275898;0.000370652;-0.000294771;0.000458323;-0.000477195;0.000467759;0.935976;1.0684;0.000540158;0.000623679;0.960451;1.04118;72.01;117.01;0.00113631;0.000275966;0.000704348;3.67646e-05;-0.00029495;-0.00476993;0.00211095;0;0.0408705;-0.00504719;2.92061
111000;112;25.7623;0.00479017;0.000185972;-2.30187;25.6366;1.07917;0.00207006;0.00968199;-0.105995;-0.0114271;-0.0896291;-0.118127;0.148721;-7.28258;-3.35308e-05;-0.00057948;0.000576481;0.000926324;-0.000383373;0.000654848;0.0581645;17.1926;0.000777511;0.000873131;2.41625;0.413865;97.644;142.644;-0.000386838;-3.34046e-05;-0.000870328;-0.00028881;0.000576271;0.000327772;0.00419604;0;0.018455;-0.0106002;-0.0976931;-0.226029;0.246466;-6.24083;0.000174428;0.000413828;-0.000259495;0.00042472;-0.000509787;0.000467253;0.672183;1.48769;0.000540282;0.000623004;0.833132;1.20029;79.0345;124.035;0.000602207;0.000174514;0.000836256;-8.7839e-06;-0.000259759;-0.0037958;0.00154638;0;0.0392264;-0.00455077;2.92746
112000;113;25.7593;0.00175519;6.81427e-05;-2.30207;25.6338;1.07201;0.00186642;0.00691419;-0.113154;-0.0113453;-0.0915292;-0.120253;0.151549;-7.28471;-0.000206548;-0.000703135;0.00048345;0.000921664;-0.000644762;0.000783213;0.427237;2.34062;0.000909074;0.00104428;1.42947;0.699562;87.5358;132.536;-0.000242606;-0.00020636;-0.00106029;-0.000346222;0.000483135;0.00150834;0.00464434;0;0.0200258;-0.0105746;-0.0986132;-0.230578;0.251003;-6.24538;0.000332893;0.000317627;-0.000389444;0.000452691;-0.000509243;0.000480967;0.854789;1.16988;0.000555693;0.000641289;0.88895;1.12492;68.2124;113.212;0.00139689;0.000332943;0.000634073;9.52307e-07;-0.000389595;-0.00545814;0.00353303;0;0.0400556;-0.00447802;2.93498
113000;114;25.7581;0.000599586;2.32781e-05;-2.30124;25.6327;1.07134;0.00269372;0.00585542;-0.113828;-0.011745;-0.0941146;-0.122536;0.154953;-7.28699;-0.000280911;-0.000934467;0.00038788;0.00104598;-0.000939012;0.000992497;0.72422;1.3808;0.00114659;0.00132333;1.11392;0.897733;85.1754;130.175;-0.000765276;-0.000280674;-0.00123693;-0.000632208;0.000387552;0.00257567;0.00564819;0;0.0249719;-0.0106937;-0.100528;-0.234255;0.255139;-6.24906;0.000319225;0.000284869;-0.00022103;0.000441678;-0.000343483;0.00039258;1.44426;0.692396;0.000454493;0.00052344;1.28588;0.777677;64.9836;109.984;0.00052841;0.000319256;0.000712902;-0.000143396;-0.000221244;-0.00423811;0.00410398;0;0.0416673;-0.00420257;2.94231
114000;115;25.7576;4.60029e-05;1.786e-06;-2.30038;25.6324;1.06922;0.00356008;0.00546534;-0.115946;-0.0115863;-0.0962269;-0.123366;0.156885;-7.28782;-0.000395148;-0.000858057;0.000128888;0.000764041;-0.0010303;0.000897171;3.06583;0.326176;0.00103976;0.00119623;0.741571;1.34849;70.3155;115.315;-0.000310498;-0.000394923;-0.00118116;-0.000535128;0.000128558;0.00107849;0.00335252;0;0.0231344;-0.0104811;-0.102774;-0.236341;0.257933;-6.25114;0.000323344;0.000301987;-0.000191423;0.000462751;-0.000330829;0.00039679;1.68916;0.59201;0.000460279;0.000529053;1.39876;0.714919;64.1078;109.108;0.000654488;0.000323389;0.000630996;-2.71915e-05;-0.000191576;-0.00369925;0.0034223;0;0.0384354;-0.00426271;2.94996
115000;116;25.7565;-0.00100956;-3.91947e-05;-2.29985;25.6314;1.06761;0.00408346;0.00451851;-0.117552;-0.0115335;-0.0978123;-0.127275;0.160933;-7.29173;-0.000294179;-0.000931305;0.000137263;0.000877504;-0.00103442;0.000955962;2.14318;0.466595;0.00110509;0.00127462;0.848305;1.17882;77.0185;122.019;-0.000389359;-0.00029392;-0.00127308;-0.000589677;0.000136886;0.00159011;0.0038947;0;0.0244646;-0.0104455;-0.104143;-0.242395;0.264027;-6.2572;0.000426963;0.000173067;-0.000291887;0.00046646;-0.000331384;0.000398922;1.46277;0.683634;0.000462831;0.000531896;1.40761;0.710422;47.615;92.615;0.000495907;0.000426978;0.000353876;-7.87176e-06;-0.000291934;-0.00509845;0.00628457;0;0.0356083;-0.00405123;2.95661
116000;117;25.757;-0.000480778;-1.86655e-05;-2.30056;25.6318;1.06831;0.0033801;0.00495794;-0.11686;-0.0119562;-0.0998493;-0.129805;0.164202;-7.29426;-0.000192223;-0.000859071;-0.000249967;0.000638461;-0.00108065;0.000859556;-0.768991;-1.30041;0.00100341;0.00114607;0.590812;1.69259;71.136;116.136;6.69236e-05;-0.000192029;-0.00112572;-0.00059241;-0.000250232;-0.000277082;0.00406636;0;0.0290536;-0.0107515;-0.106153;-0.248156;0.270121;-6.26296;0.000246839;0.000211844;-0.000180601;0.000334041;-0.000267803;0.000300922;1.36677;0.731654;0.000348175;0.000401229;1.24734;0.801706;63.8432;108.843;7.52806e-05;0.00024686;0.000479464;-5.5891e-05;-0.000180693;-0.00396032;0.0062353;0;0.0386993;-0.00399677;2.96391
117000;118;25.7579;0.000416482;1.61693e-05;-2.30168;25.6327;1.06649;0.00225712;0.00583428;-0.118673;-0.0114957;-0.102786;-0.129767;0.165941;-7.29422;-0.000204541;-0.000853872;-0.000108914;0.000698481;-0.00101194;0.000855209;-1.878;-0.532481;0.000993023;0.00114028;0.690242;1.44877;72.7326;117.733;5.24729e-07;-0.000204355;-0.00111126;-0.000596509;-0.000109167;-0.0012857;0.00388173;0;0.0358194;-0.0104679;-0.109101;-0.249878;0.272858;-6.26468;0.000182076;0.000179157;-0.000354835;0.000236368;-0.000409127;0.000322747;0.513129;1.94883;0.000377099;0.00043033;0.577737;1.73089;73.0231;118.023;-0.000423444;0.000182092;0.000389345;-3.11436e-05;-0.000354895;-0.00209202;0.00574157;0;0.0460499;-0.00398927;2.97088
118000;119;25.7593;0.00176544;6.85407e-05;-2.3005;25.6342;1.06531;0.00343604;0.00734494;-0.119859;-0.0108152;-0.103891;-0.135382;0.170993;-7.29984;-0.000207258;-0.000860838;-3.45447e-05;0.000744257;-0.00098606;0.000865159;-5.9997;-0.166675;0.00100225;0.00115354;0.754779;1.32489;77.872;122.872;0.00040967;-0.000207013;-0.00122139;-0.000500344;-3.49201e-05;-0.000584625;0.00374726;0;0.0228661;-0.00995084;-0.111333;-0.257149;0.280392;-6.27195;0.000110851;0.000262511;-0.000511422;0.000206799;-0.00060737;0.000407085;0.216751;4.61358;0.000488657;0.00054278;0.340483;2.937;101.411;146.411;-0.000789644;0.000110866;0.000324985;0.000199997;-0.00051144;-0.00235635;0.00899742;0;0.0318264;-0.00391141;2.97702
119000;120;25.7605;0.00299836;0.000116407;-2.30176;25.6357;1.05761;0.00217453;0.00878929;-0.127555;-0.011719;-0.106543;-0.133999;0.171594;-7.29846;-0.000433452;-0.00088952;-0.000238369;0.000558941;-0.00123076;0.000894852;-1.81841;-0.549931;0.00105727;0.00119314;0.454142;2.20195;64.8877;109.888;0.000284717;-0.000433203;-0.00123762;-0.000541484;-0.000238739;0.000494797;0.0043954;0;0.027974;-0.0107235;-0.114614;-0.25931;0.283713;-6.27411;4.00236e-05;0.000123168;-0.000738931;5.9035e-05;-0.000757943;0.000408489;0.0541642;18.4624;0.000526079;0.000544652;0.0778884;12.8389;102.624;147.624;-0.000561053;4.00167e-05;7.59556e-05;0.000170418;-0.000738926;-0.00225506;0.00758167;0;0.0329865;-0.00384616;2.98085
120000;121;25.765;0.00748434;0.000290569;-2.30171;25.6401;1.06017;0.00223072;0.0131966;-0.124999;-0.0115411;-0.107408;-0.136171;0.173817;-7.30063;-0.000260203;-0.000952993;-0.000392513;0.000628929;-0.00128164;0.000955286;-0.662915;-1.50849;0.00112432;0.00127372;0.49072;2.03782;70.9064;115.906;0.000500271;-0.000259924;-0.00131323;-0.000592708;-0.000392921;-0.00116045;0.00456029;0;0.0221303;-0.0106935;-0.116525;-0.264187;0.288942;-6.27899;7.38208e-05;0.000147539;-0.00077141;9.88343e-05;-0.000796423;0.000447629;0.095696;10.4498;0.000566773;0.000596838;0.124098;8.05817;88.7946;133.795;-0.000849987;7.38317e-05;0.000285916;9.0452e-06;-0.00077144;-0.000127802;0.0053289;0;0.0291401;-0.00379754;2.98612
121000;122;25.7657;0.00821824;0.000319062;-2.30316;25.641;1.05367;0.000780018;0.0140716;-0.131494;-0.0112697;-0.108682;-0.139318;0.177054;-7.30378;-0.000162257;-0.000894328;-0.000664191;0.00051565;-0.0013421;0.000928874;-0.244292;-4.09345;0.00110738;0.0012385;0.384212;2.60273;72.3201;117.32;-9.83075e-05;-0.000162014;-0.00122826;-0.000560224;-0.000664545;0.000352767;0.00343967;0;0.0261666;-0.0107563;-0.119109;-0.269819;0.295135;-6.28462;6.31426e-05;0.000131884;-0.000886276;8.11222e-05;-0.000904256;0.000492689;0.0712449;14.0361;0.000631617;0.000656919;0.0897115;11.1468;113.871;158.871;-0.000763943;6.30748e-05;-0.000127208;0.000391222;-0.000886276;-0.0030295;0.00396689;0;0.0327622;-0.00372296;2.99356
122000;123;25.7658;0.00831561;0.000322842;-2.30197;25.6413;1.04999;0.00196925;0.0144271;-0.135174;-0.0114767;-0.109821;-0.140413;0.178629;-7.30487;-0.000249357;-0.000850444;-0.000520253;0.000476357;-0.00124597;0.000861162;-0.4793;-2.08638;0.00102694;0.00114822;0.382319;2.61562;73.0704;118.07;-9.16946e-05;-0.000249091;-0.00126411;-0.000436664;-0.00052069;0.000992274;0.00351402;0;0.0291104;-0.0110286;-0.121078;-0.273592;0.29939;-6.28839;5.87938e-05;0.000119392;-0.000844858;7.43019e-05;-0.000860366;0.000467334;0.0695902;14.3698;0.00059988;0.000623112;0.0863608;11.5793;109.279;154.279;-0.00048057;5.87582e-05;-5.34522e-05;0.000292392;-0.000844852;-0.00209445;0.00434521;0;0.034478;-0.00366594;3.00077
123000;124;25.7674;0.00984917;0.00038238;-2.30241;25.6427;1.05251;0.00152545;0.015825;-0.132655;-0.0113945;-0.111231;-0.143217;0.181696;-7.30767;-0.000278407;-0.000668632;-0.000593304;0.000251064;-0.00112278;0.00068692;-0.469249;-2.13106;0.000844735;0.000915893;0.223611;4.47206;73.6098;118.61;0.000925498;-0.000278215;-0.00108874;-0.000248389;-0.000593673;-0.00122196;0.00609457;0;0.0282589;-0.0110185;-0.123275;-0.279022;0.30524;-6.29382;2.97905e-05;0.000184437;-0.000808023;6.85952e-05;-0.000846828;0.000457711;0.0368684;27.1235;0.00058875;0.000610282;0.0810025;12.3453;114.311;159.311;-1.034e-05;2.97411e-05;4.31234e-06;0.000364712;-0.000808006;-0.00330223;0.00445043;0;0.0342702;-0.00350582;3.00855
124000;125;25.7669;0.00939241;0.000364647;-2.30224;25.6425;1.04627;0.00170031;0.0156371;-0.138893;-0.011655;-0.112976;-0.144712;0.183959;-7.30917;-0.000112674;-0.000821293;-0.000484665;0.00054342;-0.00114076;0.00084209;-0.232478;-4.30147;0.000992539;0.00112279;0.476367;2.09922;75.315;120.315;0.000109434;-0.000112458;-0.00115126;-0.000491198;-0.000484991;0.000127307;0.00391838;0;0.0274183;-0.011326;-0.125434;-0.283144;0.309891;-6.29794;5.59957e-05;0.000195394;-0.000877228;9.52547e-05;-0.000916487;0.000505871;0.0638325;15.666;0.000645092;0.000674495;0.103935;9.62144;97.6084;142.608;-0.000454875;5.60048e-05;0.000249439;0.000141298;-0.00087724;-0.00301769;0.00646509;0;0.0357306;-0.00357528;3.01539
125000;126;25.7667;0.00922044;0.000357971;-2.3015;25.6424;1.04562;0.0024318;0.0155564;-0.139543;-0.0113007;-0.11473;-0.146893;0.18673;-7.31135;-0.000183718;-0.000834736;-0.000204812;0.000640537;-0.00102907;0.000834802;-0.897009;-1.11482;0.000972608;0.00111307;0.622444;1.60657;74.0091;119.009;0.000119504;-0.000183511;-0.00113714;-0.000532329;-0.00020511;-0.0002256;0.00404411;0;0.0217362;-0.0110013;-0.127595;-0.286629;0.313939;-6.30143;-2.3728e-05;0.000209925;-0.000793156;2.98199e-05;-0.000846704;0.000438262;-0.029916;-33.427;0.000574667;0.000584349;0.0352188;28.3939;90.84;135.84;-4.02216e-05;-2.3706e-05;0.000417321;2.37037e-06;-0.000793221;-0.00188693;0.00539839;0;0.034298;-0.00337806;3.02291
126000;127;25.7656;0.00812241;0.000315341;-2.30135;25.6415;1.041;0.00258228;0.0146549;-0.144171;-0.0115653;-0.116227;-0.14845;0.188892;-7.31291;-0.000225506;-0.000611691;-0.000333986;0.000334345;-0.000893837;0.000614091;-0.675194;-1.48105;0.000733207;0.000818788;0.374056;2.6734;74.0908;119.091;1.06771e-05;-0.000225347;-0.000984254;-0.000239088;-0.000334284;0.000300691;0.00316964;0;0.0227782;-0.0109938;-0.129442;-0.290136;0.317891;-6.30494;-2.71623e-05;0.000162896;-0.000909415;1.95349e-06;-0.000938531;0.000470242;-0.0298678;-33.4808;0.00062634;0.00062699;;;92.5256;137.526;-6.2409e-07;-2.71496e-05;0.000290156;3.5524e-05;-0.000909444;-0.00249054;0.00541842;0;0.0370221;-0.00327516;3.0304
127000;128;25.7659;0.00834229;0.000323878;-2.29982;25.642;1.0392;0.00411751;0.0150863;-0.145964;-0.0116696;-0.117678;-0.152138;0.192692;-7.3166;-0.000167288;-0.000763009;-5.53371e-05;0.000653747;-0.000876372;0.00076506;-3.02307;-0.330789;0.000886526;0.00102008;0.74597;1.34054;78.3083;123.308;-0.000119071;-0.000167095;-0.00108271;-0.000443342;-5.56321e-05;-0.000725614;0.0034447;0;0.023662;-0.0110027;-0.131155;-0.29562;0.323595;-6.31042;4.88821e-05;0.000125709;-0.000794224;6.72265e-05;-0.000812569;0.000439898;0.0615469;16.2478;0.000565455;0.00058653;0.0827334;12.087;82.8544;127.854;-0.00130369;4.88852e-05;0.000348522;-9.72913e-05;-0.000794277;-0.00138476;0.00874377;0;0.0362655;-0.00286975;3.03801
128000;129;25.7664;0.00884346;0.000343335;-2.30005;25.6425;1.03866;0.00388798;0.0155914;-0.146509;-0.0112208;-0.120294;-0.15196;0.194135;-7.31642;-4.39859e-05;-0.000813086;-0.000251813;0.000671799;-0.000967599;0.000819699;-0.174677;-5.72487;0.000951629;0.00109293;0.694296;1.44031;82.9741;127.974;0.000405785;-4.37498e-05;-0.00119147;-0.000434625;-0.000252193;-0.000637527;0.00405412;0;0.0237434;-0.0103705;-0.133523;-0.297998;0.326709;-6.3128;-1.57275e-05;0.000141945;-0.000728359;1.1505e-05;-0.000755592;0.000383548;-0.021593;-46.3112;0.000507606;0.000511398;0.0152265;65.675;79.028;124.028;-0.000600077;-1.57401e-05;0.000496722;-0.000213085;-0.000728473;-0.00206261;0.00622955;0;0.0373458;-0.00270416;3.04506
129000;130;25.7644;0.00685669;0.000266202;-2.2994;25.6407;1.0336;0.0045321;0.0138571;-0.151565;-0.011668;-0.121932;-0.153345;0.196261;-7.3178;-4.58028e-05;-0.000731475;-0.000467237;0.000504702;-0.00101774;0.000761221;-0.098029;-10.2011;0.000895464;0.00101496;0.495904;2.01652;81.8152;126.815;-0.000180358;-4.5589e-05;-0.00113475;-0.000328031;-0.000467613;0.000325119;0.00513867;0;0.0268545;-0.0105531;-0.135065;-0.302148;0.33113;-6.31695;2.15368e-05;0.000178967;-0.000568435;7.1581e-05;-0.000618479;0.00034503;0.0378879;26.3937;0.000438133;0.00046004;0.115737;8.64027;79.8735;124.873;-0.000363556;2.15393e-05;0.000522446;-0.000164715;-0.000568556;-0.000740394;0.00813086;0;0.0374969;-0.00208582;3.05156
130000;131;25.7653;0.00782525;0.000303804;-2.29928;25.6418;1.0319;0.00466141;0.0149103;-0.153263;-0.0114934;-0.124877;-0.152514;0.197451;-7.31697;-4.92875e-05;-0.000650777;0.0001411;0.000703609;-0.000611796;0.000657703;0.349308;2.8628;0.000760066;0.000876937;1.15007;0.869512;89.4634;134.463;0.000512315;-4.91176e-05;-0.00101226;-0.000289368;0.0001408;-0.00304261;0.0065461;0;0.0204486;-0.0101613;-0.138079;-0.302984;0.333119;-6.31778;8.62106e-05;0.000214493;-0.000476292;0.000158667;-0.000548749;0.000353708;0.181004;5.52475;0.000428625;0.000471611;0.289144;3.45849;74.4908;119.491;-0.000348776;8.61953e-05;0.000705288;-0.000276579;-0.000476518;-0.00218483;0.00861235;0;0.0338596;-0.00162522;3.05728
131000;132;25.7646;0.00712089;0.000276459;-2.29947;25.641;1.0345;0.00446398;0.0140801;-0.150664;-0.011377;-0.127339;-0.153426;0.19971;-7.31788;-6.06424e-05;-0.000387439;2.21271e-06;0.000359497;-0.000417927;0.000388712;;;0.000449268;0.000518282;0.860192;1.16253;85.532;130.532;0.000561135;-6.05673e-05;-0.000775115;2.12469e-07;1.98736e-06;-0.00162664;0.00641479;0;0.0237188;-0.0100609;-0.139552;-0.306455;0.336884;-6.32126;1.2678e-05;0.000193812;-0.000442756;8.39898e-05;-0.000514067;0.000299029;0.0286344;34.9231;0.000373866;0.000398705;0.163383;6.12059;76.0918;121.092;-9.07565e-05;1.26377e-05;0.000731332;-0.000343953;-0.000443004;-0.00195857;0.00756618;0;0.0353635;-0.00163381;3.06301
132000;133;25.764;0.00645951;0.000250782;-2.29893;25.6404;1.03234;0.00500621;0.0135512;-0.152822;-0.0116431;-0.128051;-0.158394;0.204013;-7.32285;-4.28596e-06;-0.000603489;0.000203038;0.000711703;-0.000512951;0.000612327;;;0.000710152;0.000816436;1.38747;0.720737;91.5845;136.584;0.000689479;-4.11827e-06;-0.00103735;-0.000169722;0.000202682;-0.00281241;0.00659468;0;0.0209772;-0.00994039;-0.140071;-0.314628;0.344542;-6.32943;0.000104675;0.000204751;-0.00033781;0.000184881;-0.000418016;0.000301449;0.309864;3.22722;0.000356652;0.000401932;0.442282;2.261;72.704;117.704;-0.000188416;0.000104646;0.000724399;-0.000315126;-0.000338052;0.00272224;0.0060623;0;0.0343165;-0.00101291;3.06754
133000;134;25.7633;0.00575311;0.000223356;-2.29969;25.6398;1.03001;0.00424225;0.0128665;-0.155152;-0.0114816;-0.129827;-0.160856;0.20703;-7.32531;5.80077e-05;-0.00063905;0.000663261;0.00106772;-0.00034645;0.000707084;-0.0874584;-11.434;0.000851133;0.000942779;3.08188;0.324477;101.217;146.217;-3.3604e-06;5.81633e-05;-0.000966617;-0.000311681;0.000662998;-0.00100607;0.0062803;0;0.0235162;-0.0097319;-0.141452;-0.319783;0.349806;-6.33458;0.000159484;0.000241517;-0.000352877;0.000255382;-0.000448775;0.000352078;0.451954;2.21261;0.000411624;0.000469437;0.569064;1.75727;71.163;116.163;-0.000625766;0.000159446;0.000849706;-0.000366985;-0.000353209;0.00293092;0.00636163;0;0.0346898;-0.000800339;3.07442
134000;135;25.758;0.00045998;1.78581e-05;-2.29862;25.635;1.01726;0.00531982;0.00815366;-0.167901;-0.0109553;-0.132659;-0.163616;0.210923;-7.32807;-0.000155211;-0.000460704;0.00110797;0.00125815;-0.000305384;0.000781765;0.140086;7.13849;0.000956942;0.00104235;4.11987;0.242726;87.9119;132.912;1.16211e-05;-0.000155107;-0.000864999;-5.69195e-05;0.0011077;0.000450105;0.00561953;0;0.0221731;-0.00859926;-0.142747;-0.325558;0.355582;-6.34036;0.000178426;0.00010685;-0.000445182;0.000196226;-0.000462982;0.000329604;0.400794;2.49505;0.000390843;0.000439472;0.423831;2.35943;67.7414;112.741;-0.000393093;0.000178419;0.000373395;-0.00015986;-0.000445246;0.000915646;0.00767157;0;0.0305629;-0.000349425;3.08182
135000;136;25.7572;-0.000287554;-1.11639e-05;-2.29839;25.6344;1.01467;0.00554364;0.00752539;-0.170495;-0.0115487;-0.1357;-0.164196;0.213327;-7.32865;-7.67841e-05;-0.000480142;0.00124262;0.00139885;-0.000233013;0.000815931;0.0617921;16.1833;0.00101915;0.00108791;6.00331;0.166575;91.3104;136.31;-2.28509e-05;-7.66734e-05;-0.000865425;-9.53667e-05;0.00124236;-0.000164637;0.00711086;0;0.0197446;-0.00903975;-0.146127;-0.32758;0.358808;-6.34238;7.90935e-05;0.000105263;-0.000346411;0.00010371;-0.000371027;0.000237369;0.228323;4.37976;0.00028821;0.000316491;0.279521;3.57755;69.0589;114.059;0.000130126;7.90729e-05;0.000439296;-0.000228911;-0.000346502;0.00129698;0.00860079;0;0.0284182;-0.000380863;3.08841
136000;137;25.7602;0.00265389;0.000103034;-2.29823;25.6374;1.01542;0.00570456;0.0104658;-0.169749;-0.0112671;-0.138653;-0.165509;0.216205;-7.32997;-9.71635e-05;-0.000413606;0.00106562;0.00119773;-0.000229275;0.000713503;0.0911803;10.9673;0.000884869;0.000951337;5.224;0.191424;85.2548;130.255;-0.00019248;-9.70804e-05;-0.000897093;6.93193e-05;0.0010653;0.000187514;0.00781866;0;0.0199477;-0.00841564;-0.148563;-0.332431;0.364214;-6.34723;0.000125568;8.53589e-05;-0.000374153;0.000139747;-0.000388331;0.000264039;0.335608;2.97967;0.000315945;0.000352052;0.359865;2.77882;82.5583;127.558;-0.00058005;0.000125572;0.000168359;2.31713e-06;-0.000374163;4.75814e-05;0.00960284;0;0.0266615;-0.000257854;3.0967
137000;138;25.7591;0.00152818;5.93293e-05;-2.29826;25.6364;1.01138;0.00567208;0.00949141;-0.173787;-0.0112097;-0.140756;-0.167731;0.219252;-7.33219;-5.08441e-05;-0.000673284;0.00102793;0.00135124;-0.000374157;0.000862698;0.0494629;20.2172;0.00104805;0.00115026;3.61142;0.276899;95.189;140.189;-0.000135315;-5.06487e-05;-0.00109733;-0.000249698;0.00102755;0.000110088;0.00591468;0;0.0201782;-0.0078293;-0.150416;-0.338384;0.370392;-6.35318;0.000167066;0.00011486;-0.000583424;0.000184251;-0.000600609;0.00039243;0.286354;3.49218;0.000473917;0.00052324;0.306774;3.25973;82.8459;127.846;-0.000984856;0.000167072;0.000241492;-1.18662e-05;-0.000583446;0.00324097;0.010051;0;0.0271855;-1.89623e-05;3.1035
138000;139;25.7594;0.00182859;7.09924e-05;-2.29938;25.6368;1.00559;0.00455468;0.00992092;-0.179579;-0.0114977;-0.142187;-0.170247;0.222111;-7.3347;-0.000163594;-0.000780473;0.00109221;0.00146601;-0.00053739;0.0010017;0.149783;6.67633;0.00119736;0.0013356;2.72801;0.366568;92.8341;137.834;0.000211805;-0.000163337;-0.00125382;-0.000307714;0.00109173;-0.00115571;0.00631595;0;0.0187258;-0.00789168;-0.152117;-0.344208;0.376405;-6.35901;0.000213442;0.000165454;-0.000695607;0.00024262;-0.000724785;0.000483702;0.306843;3.259;0.000581196;0.000644936;0.334747;2.98733;111.052;156.052;-0.000670909;0.000213421;6.76264e-05;0.000263372;-0.000695596;0.00148551;0.0096194;0;0.0262721;6.63951e-05;3.11053
139000;140;25.7617;0.00419239;0.000162764;-2.29993;25.6391;1.00609;0.00400743;0.0122273;-0.179078;-0.0116841;-0.144681;-0.173261;0.226027;-7.33772;-0.000237102;-0.000752758;0.000607317;0.00104819;-0.000677971;0.000863078;0.390408;2.56142;0.00100421;0.00115077;1.54606;0.646804;87.1721;132.172;0.000387857;-0.000236872;-0.00117628;-0.000329592;0.000606908;-0.000801544;0.00684826;0;0.0179566;-0.00794932;-0.155069;-0.350732;0.383565;-6.36553;3.80166e-05;0.0001086;-0.00078945;5.20324e-05;-0.000803465;0.000427749;0.0481558;20.7659;0.000553803;0.000570332;0.06476;15.4416;109.397;154.397;-0.00119139;3.79843e-05;-5.92194e-05;0.000276559;-0.000789445;0.00422579;0.00763313;0;0.0288351;3.76989e-05;3.11794
140000;141;25.7647;0.0072134;0.00028005;-2.30027;25.6421;1.0073;0.00366871;0.0151846;-0.177862;-0.0112631;-0.147536;-0.171798;0.226734;-7.33625;-0.000104034;-0.000721019;0.000662066;0.00109547;-0.000537437;0.000816453;0.157135;6.36397;0.000960934;0.0010886;2.03832;0.4906;93.6767;138.677;0.00064581;-0.000103827;-0.00111497;-0.000327368;0.000661704;-0.00204796;0.00472365;0;0.0194603;-0.00732755;-0.157789;-0.354214;0.387839;-6.36901;5.28634e-05;6.57152e-05;-0.000814768;5.78125e-05;-0.000819717;0.000438765;0.0648815;15.4127;0.000566733;0.00058502;0.0705273;14.1789;118.107;163.107;-0.000250541;5.2749e-05;-0.000351039;0.000482832;-0.000814828;0.00318119;0.00647719;0;0.0277334;5.99979e-05;3.12433
141000;142;25.7651;0.00755337;0.000293249;-2.29943;25.6427;1.00116;0.00450664;0.015842;-0.184006;-0.0120865;-0.148803;-0.177629;0.232036;-7.34209;-0.000273628;-0.000934504;0.000433797;0.00107929;-0.00091912;0.000999205;0.630774;1.58535;0.00115502;0.00133227;1.17426;0.851597;84.1167;129.117;0.000554455;-0.000273282;-0.00144317;-0.000426195;0.000433193;-0.000951405;0.00533543;0;0.019283;-0.00793809;-0.15993;-0.361599;0.395467;-6.3764;-5.12881e-05;0.000221212;-0.000880805;4.0163e-06;-0.00093611;0.000470063;-0.0582287;-17.1737;0.000625416;0.000626751;;;127.948;172.948;0.000584019;-5.15341e-05;-0.000292568;0.000735418;-0.000880824;0.00142193;0.00769635;0;0.0280156;9.67363e-05;3.1318
142000;143;25.7644;0.00688695;0.000267376;-2.29881;25.6423;0.996712;0.00512233;0.0154009;-0.188454;-0.0118495;-0.150495;-0.176522;0.232269;-7.34098;-0.000184212;-0.000816499;0.000356519;0.000946252;-0.000773944;0.000860098;0.516695;1.93538;0.000994815;0.0011468;1.22264;0.817905;85.817;130.817;0.000592704;-0.000183931;-0.00130821;-0.000325054;0.000355997;-0.000702229;0.00625306;0;0.0198912;-0.00758708;-0.161958;-0.364284;0.398736;-6.37908;7.46725e-05;0.000179168;-0.000887602;0.000106949;-0.000919879;0.000513414;0.0841283;11.8866;0.000651834;0.000684552;0.116265;8.60107;124.723;169.723;-0.000861762;7.44792e-05;-0.000288241;0.000647026;-0.000887628;0.00178517;0.0089202;0;0.0310694;0.000176793;3.13322
143000;144;25.7653;0.00780983;0.000303206;-2.29814;25.6433;0.99662;0.00579648;0.0163921;-0.188546;-0.0116452;-0.152841;-0.1765;0.233769;-7.34096;-0.000223846;-0.000868165;-7.27119e-05;0.000723169;-0.00101973;0.000871447;-3.07853;-0.32483;0.0010111;0.00116193;0.709179;1.41008;77.8754;122.875;0.000685367;-0.000223568;-0.0012919;-0.000444495;-7.31696e-05;-0.000656199;0.00573275;0;0.0185062;-0.00695455;-0.164147;-0.368313;0.403296;-6.38311;0.000106543;5.75808e-05;-0.000887924;0.000109866;-0.000891247;0.000500556;0.119991;8.33397;0.000633968;0.000667408;0.123272;8.11215;116.963;161.963;9.76968e-05;0.000106429;-0.000365632;0.000481215;-0.000887989;-7.81657e-05;0.00614947;0;0.0292261;0.000257399;3.14012
144000;145;25.7648;0.00730247;0.000283508;-2.29659;25.6431;0.992568;0.00735065;0.0161788;-0.192599;-0.0110582;-0.153166;-0.183098;0.238971;-7.34756;-0.000214588;-0.000888953;-0.000196277;0.000683568;-0.00109443;0.000889;-1.09329;-0.914669;0.00103563;0.00118533;0.624586;1.60106;76.7692;121.769;0.00123792;-0.000214301;-0.00131229;-0.000465621;-0.000196743;-0.00120256;0.00697786;0;0.0214823;-0.00615574;-0.164441;-0.381022;0.415038;-6.39582;0.000108182;0.000182714;-0.000977973;0.000138095;-0.00100789;0.00057299;0.110619;9.04003;0.000722369;0.000763987;0.137015;7.2985;118.264;163.264;9.12945e-05;0.000108063;-0.000155858;0.000521654;-0.000977968;-0.00101632;0.00326198;0;0.0327342;0.000497387;3.14714
145000;146;25.7637;0.00613029;0.000238;-2.29524;25.6422;0.98639;0.00869974;0.0153602;-0.198776;-0.0118493;-0.155062;-0.184087;0.240983;-7.34854;-0.00019831;-0.000712999;-0.000200562;0.000513564;-0.000912435;0.000713;-0.988772;-1.01136;0.000833968;0.000950666;0.56285;1.77667;79.1162;124.116;0.000973023;-0.000198079;-0.00120975;-0.000216244;-0.000201039;-0.00155072;0.00669834;0;0.0253472;-0.00667526;-0.166866;-0.38357;0.418348;-6.39837;9.32062e-05;0.00019387;-0.000935085;0.000128543;-0.000970422;0.000549483;0.0996767;10.0324;0.000693777;0.000732644;0.132461;7.54939;104.453;149.453;0.000237997;9.31925e-05;0.000132919;0.000254883;-0.000935075;-0.00318368;0.00598083;0;0.0356602;0.000756201;3.15514
146000;147;25.7641;0.00661336;0.000256755;-2.29558;25.6427;0.985858;0.00835892;0.0158355;-0.199308;-0.0116418;-0.156568;-0.184048;0.241915;-7.34851;-0.000235447;-0.00106185;3.65177e-05;0.000971052;-0.00116998;0.00107052;6.44747;0.1551;0.0012379;0.00142736;0.829972;1.20486;79.605;124.605;0.00105397;-0.000235093;-0.00147605;-0.000647757;3.59922e-05;-0.000954067;0.00741639;0;0.022253;-0.00644855;-0.168019;-0.386273;0.421282;-6.40107;7.47532e-05;0.000178289;-0.000904223;0.000106212;-0.000935682;0.000520947;0.0826712;12.0961;0.000662038;0.000694596;0.113513;8.80957;108.345;153.345;0.000385072;7.47233e-05;5.41696e-05;0.00030253;-0.000904209;-0.00259603;0.00465944;0;0.0333441;0.000917777;3.16206
147000;148;25.7651;0.00758327;0.00029441;-2.29504;25.6437;0.986266;0.0088948;0.0168423;-0.1989;-0.0120081;-0.157539;-0.187717;0.245358;-7.35217;-0.000350604;-0.000837105;-5.90408e-05;0.000644882;-0.00105453;0.000849704;-5.93834;-0.168397;0.00099061;0.00113294;0.611537;1.63523;73.1088;118.109;0.000640408;-0.000350324;-0.00129897;-0.000375374;-5.95341e-05;-0.000369169;0.00622065;0;0.0199542;-0.00651522;-0.169756;-0.391756;0.427004;-6.40656;0.000150414;0.000234028;-0.000758383;0.000207138;-0.000815108;0.000511123;0.198335;5.04199;0.000624018;0.000681497;0.254124;3.93509;99.7655;144.766;0.000693319;0.000150422;0.000275198;0.000192821;-0.000758393;-0.00350633;0.00592622;0;0.0328559;0.00144162;3.17012
148000;149;25.7653;0.00778139;0.000302102;-2.29421;25.644;0.985133;0.00972733;0.0171594;-0.200034;-0.0125561;-0.157892;-0.193637;0.250166;-7.35809;-0.000103647;-0.000564068;-0.000105773;0.000459359;-0.000668779;0.000564069;-0.979902;-1.02051;0.000655061;0.000752093;0.686862;1.4559;83.692;128.692;0.00108455;-0.000103493;-0.00102728;-0.000100858;-0.000106142;-0.00215542;0.00688531;0;0.0213503;-0.00673817;-0.169402;-0.403822;0.437966;-6.41862;0.000116824;0.000313625;-0.00059482;0.000235311;-0.000713308;0.00047431;0.196401;5.09161;0.000570392;0.000632413;0.329887;3.03134;98.2016;143.202;0.00197229;0.000116852;0.000424952;0.000202219;-0.000594861;-0.00558415;0.00534382;0;0.032891;0.00149718;3.17752
149000;150;25.7638;0.00632414;0.000245526;-2.29362;25.6429;0.978622;0.0103161;0.0159973;-0.206544;-0.0114471;-0.160587;-0.190988;0.249791;-7.35545;-0.000313413;-0.000965452;-0.000389705;0.000614647;-0.00131776;0.000966205;-0.804232;-1.24342;0.00114003;0.00128827;0.466431;2.14394;72.9083;117.908;0.000235847;-0.000313067;-0.00144116;-0.000489712;-0.000390277;0.000550863;0.00709863;0;0.0234945;-0.00534991;-0.171768;-0.405209;0.440145;-6.42001;0.000143278;0.000258043;-0.000596332;0.000224407;-0.000677461;0.000450934;0.240265;4.16207;0.000542152;0.000601246;0.331247;3.01889;100.829;145.829;0.00135636;0.00014329;0.000311343;0.000204703;-0.000596347;-0.00587395;0.00679968;0;0.0366269;0.0018558;3.18516
150000;151;25.7635;0.00597402;0.000231933;-2.29294;25.6427;0.976942;0.0109944;0.0157702;-0.208224;-0.0118942;-0.162302;-0.193037;0.252481;-7.35749;-0.000168572;-0.000643069;-0.000359209;0.000386205;-0.000913986;0.000650095;-0.469287;-2.13089;0.000771005;0.000866794;0.42255;2.36658;81.3265;126.327;0.000955285;-0.00016837;-0.00118898;-9.70546e-05;-0.000359709;-0.00123557;0.00716123;0;0.0271563;-0.00533878;-0.1731;-0.410325;0.445375;-6.42513;0.000336445;0.000360254;-0.000433341;0.000478738;-0.000575634;0.000527186;0.776398;1.288;0.000609598;0.000702915;0.831671;1.2024;72.8297;117.83;0.00104717;0.000336499;0.000577631;0.000142709;-0.000433443;-0.00570923;0.00519244;0;0.0371321;0.00265801;3.19166
151000;152;25.765;0.00750352;0.000291314;-2.29188;25.6441;0.98105;0.0120607;0.0172454;-0.204116;-0.0115876;-0.16359;-0.195071;0.25485;-7.35953;-0.000163616;-0.000799201;-9.99238e-05;0.000668066;-0.000931606;0.000799836;-1.63741;-0.610722;0.000927739;0.00106645;0.717112;1.39448;81.1724;126.172;0.00132691;-0.000163348;-0.00127799;-0.000320439;-0.000100421;-0.00204429;0.00748418;0;0.0304418;-0.0049212;-0.175055;-0.414191;0.449691;-6.42899;0.000290661;0.000440654;-0.000396878;0.000505777;-0.000611994;0.000558886;0.732367;1.36543;0.000646316;0.000745181;0.82644;1.21001;77.1731;122.173;0.000654473;0.000290738;0.000683895;0.000197246;-0.000397015;-0.00633876;0.0074511;0;0.0378041;0.00297276;3.19897
152000;153;25.7654;0.00784079;0.000304408;-2.29188;25.6446;0.977042;0.0120542;0.0177367;-0.208124;-0.0120097;-0.163626;-0.198257;0.257339;-7.36271;-3.32658e-05;-0.000568462;-0.000128579;0.000489534;-0.000651378;0.000570456;-0.258719;-3.86519;0.000660911;0.000760608;0.751535;1.33061;86.7639;131.764;0.000980739;-3.31175e-05;-0.000974289;-0.000162595;-0.000128892;-0.00265974;0.0070813;0;0.0281214;-0.0051132;-0.175278;-0.419889;0.455034;-6.43469;0.000543889;0.000368264;-0.000332845;0.000678046;-0.000467002;0.000572524;1.63406;0.611973;0.000664826;0.000763365;1.45191;0.688747;40.3895;85.3895;0.00102827;0.000543918;0.000459148;0.0002773;-0.000332883;-0.00932719;0.00853239;0;0.0365938;0.00332844;3.20215
153000;154;25.7623;0.00475369;0.000184555;-2.29211;25.6418;0.969379;0.0118242;0.0149053;-0.215787;-0.0107629;-0.166527;-0.195587;0.257101;-7.36004;-0.000146874;-0.000600425;-0.000160073;0.000446988;-0.000753934;0.000600461;-0.917543;-1.08987;0.000700861;0.000800615;0.592874;1.6867;81.0551;126.055;0.000796127;-0.000146703;-0.0010582;-0.000142641;-0.000160452;-0.000909137;0.00811578;0;0.0313409;-0.00336355;-0.177935;-0.418222;0.454513;-6.43302;0.000475968;0.000416822;-0.000296761;0.000657951;-0.000478744;0.000568347;1.60388;0.62349;0.000658984;0.000757796;1.37433;0.727629;58.8523;103.852;0.00113337;0.000476042;0.000670335;0.000163114;-0.000296899;-0.0104597;0.0102273;0;0.0367857;0.00327288;3.20643
154000;155;25.7614;0.00383103;0.000148734;-2.29232;25.6411;0.961638;0.0116208;0.0142516;-0.223528;-0.0111247;-0.169259;-0.19616;0.259328;-7.36062;-4.42741e-05;-0.000541529;-0.00013414;0.000454183;-0.000632598;0.00054339;-0.330059;-3.02976;0.000630265;0.00072452;0.717965;1.39282;87.5622;132.562;0.00118966;-4.41276e-05;-0.00106701;-1.59979e-05;-0.000134563;-0.00235167;0.00802816;0;0.0281763;-0.00339609;-0.180537;-0.424124;0.460962;-6.43892;0.000403273;0.000296551;-0.000238312;0.000519345;-0.000354383;0.000436864;1.69221;0.590944;0.000507435;0.000582485;1.46549;0.682366;43.1176;88.1176;0.000720131;0.000403293;0.000374762;0.000218289;-0.000238338;-0.0067179;0.00911744;0;0.0319061;0.0036653;3.21948
155000;156;25.7613;0.00375154;0.000145648;-2.29204;25.641;0.962531;0.0119;0.0141632;-0.222636;-0.0113485;-0.170718;-0.198601;0.262137;-7.36306;-9.84367e-06;-0.000513427;0.000208868;0.000624456;-0.000425432;0.000524944;;;0.000609773;0.000699925;1.46782;0.681284;88.9355;133.936;0.000902583;-9.71355e-06;-0.00108496;5.79812e-05;0.000208411;-0.00108944;0.00991277;0;0.0318217;-0.00325188;-0.182203;-0.428984;0.466086;-6.44378;0.000426618;0.000208905;-0.000141139;0.0004952;-0.000209721;0.000352461;3.02268;0.330832;0.000417963;0.000469947;2.36123;0.423508;174.366;39.3663;0.00117892;0.000426573;5.25036e-05;0.000365396;-0.000141119;-0.00836319;0.00932934;0;0.0339383;0.00368943;3.22625
156000;157;25.7612;0.0036469;0.000141586;-2.29214;25.6411;0.958394;0.0117922;0.0142034;-0.226772;-0.0106614;-0.171201;-0.20111;0.264327;-7.36557;-4.5874e-05;-0.000443505;0.000419059;0.000687329;-0.000314145;0.000500737;0.109469;9.13499;0.000591431;0.000667649;2.18794;0.457051;85.273;130.273;0.000899261;-4.57834e-05;-0.0010115;0.000124228;0.000418646;-0.00213899;0.0095742;0;0.0312412;-0.00236125;-0.182927;-0.434313;0.47127;-6.44911;0.00029547;0.000258121;-0.000224792;0.000401801;-0.000331123;0.000366462;1.31441;0.760795;0.000423809;0.000488616;1.21345;0.824098;161.558;26.5581;0.000701579;0.000295378;1.68687e-05;0.000499499;-0.000224759;-0.00558086;0.00933943;0;0.0320054;0.00381463;3.22841
157000;158;25.762;0.00445468;0.000172947;-2.29267;25.6418;0.959022;0.0112705;0.0149449;-0.226144;-0.010612;-0.17334;-0.201564;0.266059;-7.36602;-2.40741e-05;-0.000565689;0.000279239;0.000713248;-0.000458083;0.000585666;0.0862134;11.5991;0.000681596;0.000780888;1.55703;0.64225;89.8602;134.86;0.00106368;-2.39173e-05;-0.00105162;-7.99034e-05;0.000278846;-0.00231606;0.00995067;0;0.0287811;-0.00215642;-0.185243;-0.436518;0.474202;-6.45132;0.000391044;0.000262843;-0.000233468;0.000486942;-0.000329367;0.000408155;1.67493;0.597039;0.000474214;0.000544206;1.47842;0.676398;161.05;26.0504;0.000784342;0.000390878;-0.000107688;0.000633606;-0.00023344;-0.00678838;0.00887878;0;0.0278349;0.00389652;3.23581
158000;159;25.762;0.004499;0.000174668;-2.29248;25.6422;0.951906;0.0114577;0.0152713;-0.23326;-0.0109099;-0.175922;-0.20079;0.267178;-7.36525;8.48562e-05;-0.000401127;0.000523419;0.000761289;-0.000153014;0.000457151;-0.162119;-6.16831;0.000565474;0.000609535;4.97529;0.200993;89.691;134.691;0.00102187;8.49222e-05;-0.00097263;0.000170125;0.000523027;-0.00191762;0.00934091;0;0.029301;-0.00221079;-0.187782;-0.440573;0.478928;-6.45537;0.000478185;0.000207997;-0.000386476;0.000525617;-0.000433908;0.000479763;1.2373;0.808215;0.000554825;0.000639683;1.21136;0.825522;151.825;16.8251;0.00109945;0.000478062;-0.00012029;0.000536567;-0.000386461;-0.00852596;0.0100276;0;0.0291209;0.00394148;3.24353
159000;160;25.7631;0.00556129;0.000215909;-2.29449;25.6432;0.946651;0.00945122;0.0163536;-0.238515;-0.0105414;-0.177931;-0.200993;0.268642;-7.36545;1.84088e-05;-0.000514364;0.000927766;0.0011596;-0.000213427;0.000686515;-0.0198421;-50.3979;0.000853156;0.000915353;5.43324;0.184052;90.1169;135.117;0.000945895;1.8541e-05;-0.00104582;1.66128e-05;0.000927352;-0.000945764;0.0105751;0;0.028608;-0.00178916;-0.19045;-0.44289;0.482106;-6.45769;0.000429534;0.000169718;-0.000614049;0.000456442;-0.000640956;0.000548699;0.699512;1.42957;0.000636561;0.000731599;0.712126;1.40425;139.379;4.37923;0.000372102;0.000429279;-0.000394867;0.000734893;-0.000614113;-0.00901587;0.0116366;0;0.0277617;0.00390127;3.25028
160000;161;25.7637;0.00618292;0.000240043;-2.29461;25.644;0.94201;0.0093303;0.0171383;-0.243156;-0.0115154;-0.179452;-0.205829;0.273316;-7.37029;-5.02065e-05;-0.000249748;0.00155129;0.00158933;-8.82503e-05;0.00083879;0.0323644;30.8981;0.00109016;0.00111839;18.0093;0.0555267;78.3547;123.355;0.000328092;-5.02529e-05;-0.000894509;0.000393981;0.00155092;-0.000748315;0.01027;0;0.0264215;-0.00243113;-0.19324;-0.450007;0.489749;-6.46481;0.000489327;0.000243046;-0.000666406;0.000538358;-0.000715438;0.000626898;0.734277;1.36188;0.000726282;0.000835864;0.752488;1.32893;142.014;7.01412;0.00161715;0.000489024;-0.00032857;0.000815324;-0.000666431;-0.0115522;0.00841659;0;0.0258336;0.00415698;3.25759
161000;162;25.7637;0.00615456;0.000238942;-2.29602;25.644;0.938656;0.00791995;0.0171065;-0.24651;-0.0108428;-0.181045;-0.208202;0.276122;-7.37266;1.21644e-05;-0.000453446;0.00152747;0.0016528;-0.000113161;0.00088298;-0.00796375;-125.569;0.00114146;0.00117731;14.6057;0.0684666;86.3328;131.333;0.000983989;1.22555e-05;-0.00106106;0.000153244;0.00152701;-0.000343775;0.00955221;0;0.0251247;-0.00197478;-0.193892;-0.456359;0.495844;-6.47116;0.000339536;0.000339101;-0.00076499;0.000435334;-0.000860789;0.000648062;0.443843;2.25305;0.000761637;0.000864082;0.505739;1.97731;143.147;8.14711;0.00140077;0.000338968;-0.000439113;0.00111818;-0.000765029;-0.0110504;0.0106809;0;0.0386079;0.004507;3.26524
162000;163;25.7653;0.0077369;0.000300374;-2.2943;25.6458;0.937878;0.00963211;0.0188779;-0.247288;-0.0112973;-0.181448;-0.213361;0.28031;-7.37782;-9.84379e-05;-0.000565163;0.00165352;0.00182002;-0.000264931;0.00104247;0.0595322;16.7976;0.00131061;0.00138997;6.86979;0.145565;88.3517;133.352;0.000184105;-9.82782e-05;-0.00113375;2.42973e-06;0.00165304;0.00125783;0.00951698;0;0.0327665;-0.00211716;-0.195766;-0.464688;0.504245;-6.47949;0.000286126;0.000165028;-0.000867975;0.000309261;-0.00089111;0.000600185;0.329648;3.03354;0.000719661;0.000800247;0.347051;2.88142;132.672;177.672;0.000685031;0.0002857;-0.000606822;0.00093777;-0.000868146;-0.00849846;0.0089389;0;0.0307468;0.00468685;3.27218
163000;164;25.7644;0.00687552;0.000266932;-2.29476;25.645;0.934906;0.00917609;0.0180803;-0.250261;-0.0113816;-0.184919;-0.214137;0.283159;-7.37859;-0.000114287;-0.000577248;0.00167783;0.00184767;-0.000284126;0.0010659;0.0681164;14.6808;0.00133659;0.00142119;6.50297;0.153776;85.6168;130.617;0.000832093;-0.000114128;-0.00127165;0.000115912;0.00167719;0.000434725;0.0108729;0;0.0250225;-0.00210291;-0.199053;-0.467224;0.507863;-6.48202;0.000198924;0.000211893;-0.000862102;0.000239675;-0.000902853;0.000571264;0.230743;4.33382;0.000695695;0.000761686;0.265464;3.76698;134.489;179.489;0.00138522;0.000198446;-0.000575746;0.00100037;-0.000862245;-0.0106349;0.0114051;0;0.0328937;0.00561207;3.27404
164000;165;25.7658;0.00824534;0.000320114;-2.29446;25.6464;0.935306;0.00947599;0.0194687;-0.24986;-0.0112125;-0.187485;-0.216579;0.286675;-7.38104;-0.000112429;-0.000580298;0.00143391;0.00162746;-0.000305974;0.000966716;0.0784072;12.7539;0.00120004;0.00128895;5.31895;0.188007;82.9851;127.985;0.00152527;-0.000112288;-0.00139549;0.000233631;0.00143311;-0.0016647;0.0118588;0;0.0339915;-0.00199085;-0.201375;-0.473;0.514087;-6.4878;0.000165566;0.000227082;-0.000885103;0.000212545;-0.000932082;0.000572314;0.187059;5.34591;0.000703029;0.000763085;0.228033;4.38533;131.052;176.052;0.000678851;0.000165257;-0.000364464;0.00081925;-0.000885144;-0.00910307;0.0086264;0;0.041157;0.00598549;3.28261
165000;166;25.7642;0.0066486;0.000258123;-2.29313;25.6451;0.928109;0.0108018;0.0182446;-0.257057;-0.0109906;-0.188175;-0.218313;0.288429;-7.38277;-0.000185146;-0.000724406;0.00138401;0.00166729;-0.000468429;0.00106786;0.133776;7.47521;0.0012962;0.00142381;3.55932;0.280952;84.5908;129.591;0.00121883;-0.000184888;-0.00153709;8.70101e-05;0.00138309;-0.00108205;0.0106004;0;0.0246022;-0.0014381;-0.20157;-0.479111;0.519789;-6.49391;0.00014663;0.000352862;-0.000889901;0.00025535;-0.000998621;0.000626986;0.164771;6.06904;0.0007652;0.000835981;0.255702;3.9108;128.8;173.8;0.00155654;0.000146444;2.39634e-06;0.000703692;-0.000889839;-0.0102125;0.0087767;0;0.0364186;0.00647936;3.28809
166000;167;25.7644;0.00685597;0.000266174;-2.29096;25.6454;0.932501;0.0129757;0.0184879;-0.252665;-0.010724;-0.19208;-0.216612;0.289707;-7.38107;-0.000172949;-0.000657713;0.00114837;0.00141995;-0.000444522;0.000932234;0.150603;6.63996;0.00112448;0.00124298;3.19432;0.313055;83.7668;128.767;0.000786011;-0.000172738;-0.00141985;0.000103413;0.00114758;0.000293869;0.0115545;0;0.0181992;-0.000940089;-0.205531;-0.47677;0.519186;-6.49157;0.000153711;0.000221337;-0.000792178;0.000202941;-0.000841408;0.000522174;0.194036;5.15369;0.000639412;0.000696232;0.241192;4.14607;131.092;176.092;0.00219094;0.00015348;-0.000271628;0.000714768;-0.00079219;-0.00973345;0.00891165;0;0.0320607;0.0070213;3.29527
167000;168;25.7641;0.00661169;0.00025669;-2.29189;25.6451;0.93002;0.0120492;0.0182498;-0.255146;-0.010272;-0.195051;-0.21474;0.290282;-7.3792;-0.00019391;-0.000551996;0.00103845;0.00124954;-0.000405001;0.00082727;0.186731;5.3553;0.000995866;0.00110303;3.08527;0.324121;78.4712;123.471;0.0014193;-0.000193819;-0.00145577;0.00035067;0.00103754;-0.000964954;0.00992356;0;0.0205726;-0.000333629;-0.207541;-0.479334;0.522335;-6.4916;0.000131064;0.000313243;-0.000538485;0.00025476;-0.00066218;0.00045847;0.243395;4.10855;0.000546538;0.000611294;0.384729;2.59923;136.774;1.77446;0.00323778;0.000130957;6.67138e-05;0.000559937;-0.000538438;-0.0125262;0.00813748;0;0.036858;0.00754002;3.30265
168000;169;25.7634;0.00591033;0.00022946;-2.29009;25.6448;0.925011;0.013846;0.0178868;-0.260155;-0.0100358;-0.196446;-0.214909;0.291338;-7.37937;-0.000182857;-0.00080702;0.00110199;0.00149106;-0.000571932;0.0010315;0.165933;6.02651;0.00122984;0.00137533;2.60707;0.383573;87.4079;132.408;0.00106943;-0.000182537;-0.00150679;-0.000108142;0.00110118;0.00032296;0.0104527;0;0.0255294;0.00086491;-0.20977;-0.479224;0.523125;-6.49402;0.000222604;0.000279076;-0.000823097;0.000292422;-0.000892915;0.000592669;0.270447;3.69758;0.000713027;0.000790225;0.327492;3.05351;109.304;154.304;0.00154701;0.000222587;0.000223384;0.000334827;-0.000823083;-0.00838259;0.0083028;0;0.0362552;0.0076612;3.31
169000;170;25.7648;0.00730731;0.000283696;-2.29055;25.646;0.927519;0.0133902;0.019159;-0.257647;-0.00990709;-0.196162;-0.22422;0.298081;-7.38868;-0.000173936;-0.000791833;0.000645101;0.00112704;-0.00065588;0.000891462;0.269626;3.70884;0.00104128;0.00118862;1.71837;0.581946;84.894;129.894;0.00158414;-0.000173623;-0.00155738;-2.69074e-05;0.000644203;-0.00180405;0.0108192;0;0.0245922;0.000344335;-0.208799;-0.493434;0.535793;-6.5057;7.84642e-05;0.000336354;-0.000444123;0.000243091;-0.00060875;0.000425921;0.176672;5.6602;0.00050669;0.000567894;0.399329;2.5042;143.974;8.97422;0.00362535;7.83376e-05;6.7603e-05;0.000605246;-0.000444069;-0.0137314;0.00849153;0;0.0352427;0.0077727;3.31665
170000;171;25.7638;0.00629601;0.000244434;-2.28874;25.6453;0.925106;0.0151987;0.0183916;-0.26006;-0.0107172;-0.19827;-0.220718;0.296887;-7.38517;-0.000105575;-0.000679167;0.000333087;0.00082746;-0.000599948;0.000713704;0.316958;3.15499;0.000827597;0.000951605;1.37922;0.725048;84.8647;129.865;0.00202788;-0.000105359;-0.0015317;0.000172991;0.000332145;-0.0019021;0.0113413;0;0.0328614;-0.0003327;-0.211042;-0.493043;0.536311;-6.50531;0.000153607;0.00028425;-0.000330986;0.000284815;-0.000462194;0.000373505;0.464089;2.15476;0.00043532;0.000498006;0.616224;1.62279;130.151;175.151;0.00367568;0.000153591;0.000231511;0.000337015;-0.000330972;-0.012869;0.0105359;0;0.0381776;0.00779865;3.32349
171000;172;25.7628;0.00531318;0.000206277;-2.28918;25.6444;0.919888;0.0147575;0.0175526;-0.265278;-0.0103929;-0.199519;-0.220559;0.297594;-7.38502;-0.00023433;-0.000809519;0.000507179;0.00102681;-0.000753958;0.000890382;0.462026;2.16438;0.00103214;0.00118718;1.36189;0.734274;82.4885;127.488;0.00160359;-0.000234002;-0.0016198;1.60136e-07;0.000506195;-0.00149138;0.010368;0;0.0314916;-0.000114614;-0.211852;-0.496307;0.539632;-6.51111;0.000289181;0.000220465;-0.00048756;0.000347393;-0.000545772;0.000446583;0.593119;1.686;0.000519892;0.000595443;0.636517;1.57105;127.875;172.875;0.00213184;0.000289153;0.000117204;0.000323806;-0.000487542;-0.0101163;0.0112025;0;0.0405312;0.00783557;3.33166
172000;173;25.7624;0.0049264;0.000191261;-2.2883;25.6442;0.917011;0.0156326;0.0173452;-0.268155;-0.0105135;-0.201063;-0.224253;0.301374;-7.38871;-0.000131224;-0.000536223;6.66148e-05;0.000512967;-0.000577576;0.000545271;1.96989;0.507642;0.000629993;0.000727028;0.888137;1.12595;83.6213;128.621;0.00183775;-0.000131114;-0.00133086;0.000258256;6.58731e-05;-0.00172008;0.0117024;0;0.036887;0.000215782;-0.213077;-0.502666;0.545963;-6.51747;0.000344125;0.000328427;-0.000522151;0.000454561;-0.000632587;0.000543574;0.659053;1.51733;0.000630464;0.000724766;0.718575;1.39164;122.867;167.867;0.00218665;0.000344108;0.000279997;0.000376899;-0.000522136;-0.0111623;0.0121734;0;0.0452382;0.00787981;3.3377
173000;174;25.7618;0.00422817;0.000164153;-2.28937;25.6435;0.916106;0.0145654;0.0165808;-0.269061;-0.00921329;-0.205534;-0.219354;0.300741;-7.38381;-0.000271349;-0.000666018;-5.32206e-05;0.000512605;-0.000837174;0.000674889;-5.09856;-0.196134;0.000786769;0.000899852;0.612304;1.63318;79.7488;124.749;0.0019644;-0.000271138;-0.00148371;0.000151491;-5.40996e-05;-0.000446564;0.0109539;0;0.020215;0.00160845;-0.217085;-0.500232;0.545308;-6.51503;0.000261332;0.000299566;-0.000410351;0.000375523;-0.000524542;0.000450032;0.636849;1.57023;0.000522021;0.000600043;0.715906;1.39683;144.07;9.07018;0.00312171;0.000261266;0.00012906;0.000470186;-0.000410314;-0.0128345;0.0138076;0;0.0296669;0.00795694;3.34349
174000;175;25.7603;0.00277367;0.000107684;-2.28905;25.6424;0.905527;0.0148867;0.0155241;-0.279639;-0.0105668;-0.201494;-0.231586;0.307154;-7.39604;-0.000219898;-0.000583074;2.28401e-05;0.000497043;-0.000694101;0.000595572;9.62772;0.103867;0.000690837;0.000794096;0.716096;1.39646;80.6125;125.613;0.0017531;-0.000219751;-0.00138105;0.000214711;2.20565e-05;-0.00103306;0.0104191;0;0.0323675;-0.000335514;-0.212338;-0.520625;0.562262;-6.53543;0.0002198;0.000177697;-0.000324433;0.000272682;-0.000377314;0.000324998;0.67749;1.47604;0.000376893;0.000433331;0.722691;1.38372;147.477;12.4772;0.0024281;0.00021967;-0.000185189;0.000540781;-0.000324434;-0.0118437;0.0146279;0;0.0378109;0.00830604;3.3516
175000;176;25.7601;0.00255028;9.9011e-05;-2.28769;25.6424;0.902233;0.0162471;0.0155372;-0.282933;-0.0110169;-0.205282;-0.225324;0.305013;-7.38978;-0.000213034;-0.000784977;-0.000192856;0.000582097;-0.000987986;0.000785041;-1.10463;-0.905283;0.000916529;0.00104672;0.589175;1.69729;83.0901;128.09;0.00184701;-0.00021273;-0.00165642;8.64481e-05;-0.00019392;-0.000517992;0.0121229;0;0.0349579;0.000142407;-0.217036;-0.514605;0.558501;-6.52941;0.000213245;0.000192656;-0.000241044;0.000283944;-0.000311744;0.000297844;0.884671;1.13036;0.000344046;0.000397125;0.910826;1.0979;153.604;18.604;0.00231497;0.000213162;-6.37045e-05;0.000449134;-0.000241028;-0.00855343;0.0133364;0;0.0457801;0.00879278;3.35711
176000;177;25.7611;0.00356131;0.000138263;-2.28776;25.6434;0.903339;0.0161812;0.016508;-0.281827;-0.0109331;-0.205443;-0.230844;0.309217;-7.3953;-0.000140582;-0.000658689;3.27361e-05;0.000610442;-0.000718288;0.000664365;4.29442;0.23286;0.000767985;0.00088582;0.849857;1.17667;84.0804;129.08;0.00168513;-0.000140367;-0.00136525;4.77467e-05;3.20211e-05;-0.00111051;0.0110689;0;0.0242882;-0.000176194;-0.21762;-0.523209;0.566663;-6.53801;0.000141477;0.000181211;-0.000225399;0.000215889;-0.000299811;0.00025785;0.627674;1.59318;0.000299051;0.0003438;0.720084;1.38873;154.961;19.9612;0.00163818;0.000141257;-0.000324503;0.00068711;-0.000225435;-0.00696822;0.0139778;0;0.0316051;0.00947455;3.36097
177000;178;25.7609;0.00335628;0.000130303;-2.28829;25.6434;0.895377;0.0156513;0.016534;-0.28979;-0.0107137;-0.206036;-0.233663;0.311711;-7.39812;-0.000169167;-0.000821155;-0.000231917;0.000621212;-0.0010223;0.000821754;-0.72943;-1.37093;0.000958252;0.00109567;0.607664;1.64565;82.9101;127.91;0.00150813;-0.00016884;-0.001503;-0.000139263;-0.00023271;-0.00107589;0.0116023;0;0.0232573;4.81957e-05;-0.218972;-0.52946;0.572954;-6.54426;0.000176917;0.000190235;-0.0001597;0.00026261;-0.000245394;0.000254002;1.1078;0.902687;0.000293352;0.000338669;1.07016;0.934441;159.895;24.8953;0.00183517;0.000176769;-0.000194952;0.000575551;-0.000159701;-0.0071777;0.0113494;0;0.0275651;0.0099516;3.36677
178000;179;25.7612;0.00369148;0.000143317;-2.28842;25.6438;0.892532;0.0155126;0.0169575;-0.292634;-0.0108485;-0.208086;-0.233356;0.312845;-7.39781;-0.000319072;-0.000679993;2.4773e-06;0.000540444;-0.000857039;0.000698741;;;0.000813709;0.000931655;0.630595;1.5858;77.6337;122.634;0.0018812;-0.000318846;-0.00146143;0.000101196;1.6406e-06;-0.00204382;0.0119968;0;0.0289338;-6.54305e-06;-0.221321;-0.532652;0.576803;-6.54492;0.000127515;0.00019262;-9.01009e-05;0.000239934;-0.000202521;0.000221228;1.41524;0.706592;0.000255756;0.00029497;1.18474;0.844067;166.215;31.2148;0.00305267;0.000127241;-0.000378888;0.000764252;-9.01542e-05;-0.0097007;0.0123891;0;0.0288146;0.0104021;3.37401
179000;180;25.7611;0.00361198;0.00014023;-2.28906;25.6438;0.88956;0.0148772;0.0169242;-0.295606;-0.0121983;-0.209772;-0.233014;0.313766;-7.39747;-0.000189423;-0.000614987;7.729e-05;0.000573213;-0.000685346;0.00062928;2.45081;0.408028;0.00072759;0.000839039;0.836385;1.19562;81.9883;126.988;0.00217465;-0.00018926;-0.00145637;0.000226177;7.64187e-05;-0.00193226;0.0115063;0;0.0374215;-0.00158051;-0.222742;-0.536172;0.580601;-6.55097;0.000216605;0.000330226;-0.000317637;0.000374223;-0.000475255;0.000424739;0.681926;1.46644;0.000491601;0.000566318;0.787415;1.26998;158.199;23.199;0.00157572;0.000216207;-0.000290623;0.000951408;-0.000317624;-0.00638102;0.0112475;0;0.0331477;0.010733;3.38105
180000;181;25.7627;0.00521649;0.000202523;-2.28886;25.6455;0.887581;0.0150741;0.0186222;-0.297585;-0.0113696;-0.208641;-0.238977;0.317443;-7.40343;-0.000204358;-0.000783356;-0.000136857;0.000613475;-0.00095469;0.000784082;-1.49322;-0.669693;0.000912497;0.00104544;0.642591;1.5562;83.0776;128.078;0.00165829;-0.000204053;-0.00162928;6.25158e-05;-0.000137878;-0.000534298;0.0111347;0;0.0325613;-0.000450705;-0.222306;-0.545961;0.589486;-6.56076;7.34467e-05;0.000279363;-0.000461537;0.000192731;-0.000580821;0.000386776;0.159135;6.28397;0.000464969;0.000515701;0.331825;3.01364;150.833;15.8331;0.00206781;7.2961e-05;-0.000465378;0.0010245;-0.000461606;-0.00735661;0.0108759;0;0.029878;0.0108035;3.38881
181000;182;25.7625;0.00502328;0.000195022;-2.28968;25.6455;0.879929;0.0142586;0.018619;-0.305237;-0.0109458;-0.210761;-0.236819;0.317212;-7.40128;-0.000112701;-0.000756308;0.000402797;0.00094407;-0.000653974;0.000799022;0.279795;3.57404;0.000927685;0.00106536;1.44359;0.692718;85.6201;130.62;0.0014345;-0.000112417;-0.00157619;6.31538e-05;0.000401841;-0.00072047;0.0119434;0;0.0388031;7.86353e-05;-0.22436;-0.548108;0.59225;-6.56291;-0.000110657;0.000219795;-0.00071099;-3.87891e-05;-0.000782859;0.000372035;-0.155638;-6.42515;0.000509469;0.000496046;-0.049548;-20.1825;139.387;4.38709;0.00223479;-0.000111144;-0.000570279;0.00101034;-0.000711129;-0.00893285;0.0131732;0;0.0361126;0.0109139;3.39612
182000;183;25.766;0.00844077;0.000327701;-2.29067;25.6489;0.877326;0.0132636;0.0220524;-0.30784;-0.0116689;-0.211278;-0.239422;0.319527;-7.40388;-7.87887e-05;-0.000506109;3.16797e-05;0.00048556;-0.000532669;0.000509114;2.48704;0.402084;0.000588084;0.000678819;0.91156;1.09702;86.1298;131.13;0.001546;-7.87297e-05;-0.00138382;0.000371504;3.08503e-05;-0.00115148;0.0122629;0;0.0366659;-0.000750496;-0.22699;-0.55347;0.598209;-6.56827;4.91748e-07;2.3309e-05;-0.000695627;1.27136e-06;-0.000696407;0.000348839;;;0.000464696;0.000465119;;;123.104;168.104;0.000629566;2.55973e-07;-0.00064001;0.00068709;-0.000695832;-0.00379439;0.0120647;0;0.0271123;0.0109167;3.40372
183000;184;25.7651;0.00759721;0.000294951;-2.29092;25.6481;0.875114;0.0130155;0.0212584;-0.310053;-0.0115541;-0.213289;-0.239305;0.320769;-7.40376;-7.60109e-05;-0.000538609;-0.000124124;0.000439078;-0.000639213;0.000539146;-0.612379;-1.63298;0.000626116;0.000718861;0.686904;1.45581;88.1168;133.117;0.00187957;-7.59309e-05;-0.00143782;0.000360644;-0.000125013;-0.000640917;0.0127541;0;0.0286886;-0.000455584;-0.229109;-0.557452;0.602697;-6.57225;-0.000156601;8.23664e-05;-0.000951853;-0.00014816;-0.000960294;0.000406067;-0.164523;-6.07819;0.00059697;0.000541423;-0.154286;-6.48147;123.652;168.652;0.00124108;-0.000156995;-0.00072582;0.000891197;-0.000952113;-0.00813485;0.0108204;0;0.024558;0.0111256;3.41096
184000;185;25.7658;0.00828889;0.000321805;-2.29088;25.6491;0.867836;0.0130535;0.022204;-0.31733;-0.0117447;-0.213304;-0.242317;0.323038;-7.40677;-9.09553e-05;-0.000533938;-3.16322e-05;0.000473467;-0.000596055;0.000534761;-2.8754;-0.347777;0.000618839;0.000713014;0.794335;1.25891;86.4245;131.425;0.00220653;-9.08717e-05;-0.00141127;0.000343345;-3.24855e-05;-0.00253598;0.0135633;0;0.0249133;-0.000570434;-0.229766;-0.564079;0.609079;-6.57888;-1.14027e-05;1.88161e-06;-0.0008962;-1.13987e-05;-0.000896204;0.000442403;-0.0127233;-78.5957;0.000593706;0.00058987;-0.0127188;-78.6237;120.795;165.795;0.000744633;-1.17485e-05;-0.000827227;0.000831725;-0.000896542;-0.00695962;0.0104564;0;0.0262414;0.0114794;3.41894
185000;186;25.7659;0.00838459;0.00032552;-2.29063;25.6493;0.865724;0.0133082;0.0223942;-0.319443;-0.0113232;-0.215372;-0.241053;0.32345;-7.40551;-1.84767e-05;-0.00039421;-8.43665e-05;0.000344162;-0.000447005;0.000395584;-0.219005;-4.5661;0.000458065;0.000527445;0.769929;1.29882;90.7367;135.737;0.00196041;-1.8519e-05;-0.00127817;0.000489809;-8.51057e-05;-0.000830295;0.0132722;0;0.0261979;-0.00012462;-0.232559;-0.566586;0.612457;-6.58139;-0.000186302;-4.44096e-05;-0.000885052;-0.000183491;-0.000887863;0.000352186;-0.210498;-4.75064;0.000541215;0.000469582;-0.206665;-4.83874;116.213;161.213;0.000913743;-0.00018668;-0.000958477;0.000870297;-0.00088551;-0.00699102;0.0115132;0;0.0280502;0.011989;3.42455
186000;187;25.7654;0.00784305;0.000304495;-2.28965;25.649;0.86103;0.0142886;0.0220957;-0.324136;-0.0115648;-0.216846;-0.240513;0.324041;-7.40497;-0.000111222;-0.000553635;0.000187165;0.000611356;-0.000535414;0.000573385;0.594249;1.6828;0.000662572;0.000764514;1.14184;0.87578;83.7235;128.724;0.00178224;-0.000111119;-0.00142209;0.00031456;0.000186307;-0.00193888;0.0137304;0;0.0324885;-0.000290707;-0.234178;-0.569497;0.615765;-6.5843;-0.000218515;6.85076e-06;-0.00096386;-0.000218452;-0.000963923;0.000372736;-0.226708;-4.41096;0.00058359;0.000496981;-0.226628;-4.41252;119.659;164.659;0.000908495;-0.000218978;-0.000947422;0.000961835;-0.000964309;-0.00686528;0.010501;0;0.0332022;0.0131548;3.42754
187000;188;25.7673;0.00977085;0.00037934;-2.28924;25.651;0.858768;0.014698;0.0241447;-0.326398;-0.0115156;-0.21692;-0.243689;0.326452;-7.40815;-3.99694e-05;-0.000500754;0.000459282;0.000769181;-0.000349868;0.000559525;0.0870257;11.4909;0.000661029;0.000746033;2.19849;0.454858;83.4604;128.46;0.00140021;-3.99161e-05;-0.00138167;0.000379721;0.000458454;-5.19686e-05;0.0129195;0;0.0286415;-0.000149492;-0.234752;-0.576206;0.622191;-6.59101;-0.000276654;-6.56567e-05;-0.00092748;-0.000270096;-0.000934038;0.000331971;-0.298286;-3.35249;0.000555017;0.000442628;-0.289171;-3.45816;113.433;158.433;0.00186554;-0.000277063;-0.00103776;0.000907084;-0.000928017;-0.00715869;0.0112958;0;0.0332863;0.0135501;3.43256
188000;189;25.7669;0.00937796;0.000364086;-2.2887;25.6509;0.851682;0.0152322;0.0240339;-0.333484;-0.0116916;-0.217704;-0.246793;0.3293;-7.41125;-1.47238e-05;-0.000489495;0.000332036;0.00067795;-0.000360638;0.000519294;0.0443441;22.5509;0.000608886;0.000692392;1.87986;0.531954;85.2189;130.219;0.00114412;-1.46914e-05;-0.00139729;0.000417988;0.00033118;-0.00104618;0.0144247;0;0.0254257;9.93519e-05;-0.235792;-0.583278;0.629135;-6.59808;-0.000191096;-1.28837e-05;-0.000863621;-0.000190849;-0.000863868;0.000336509;-0.221273;-4.5193;0.000524011;0.000448679;-0.220924;-4.52644;116.943;161.943;0.00141403;-0.000191393;-0.000795934;0.000770694;-0.000863938;-0.00600106;0.00980016;0;0.0347691;0.0139937;3.43942
189000;190;25.7668;0.00925324;0.000359244;-2.28829;25.6509;0.849257;0.0156497;0.0240263;-0.335909;-0.0118143;-0.219315;-0.247134;0.330626;-7.41159;0.000121199;-0.00039937;0.000282223;0.000609115;-0.000205694;0.000407404;-0.429443;-2.3286;0.000489273;0.000543206;2.96128;0.337692;90.1391;135.139;0.00167759;0.000121111;-0.00137804;0.000579141;0.000281353;-0.000599572;0.0148264;0;0.0297441;0.000173444;-0.237021;-0.58817;0.634132;-6.60297;-0.000249948;2.33846e-05;-0.00091786;-0.00024913;-0.000918678;0.000334774;-0.272316;-3.67221;0.0005486;0.000446365;-0.271183;-3.68754;118.721;163.721;0.00168825;-0.000250276;-0.000762725;0.000810019;-0.000918151;-0.00611716;0.0106292;0;0.0396337;0.0144043;3.44719
190000;191;25.7671;0.00956641;0.000371402;-2.28807;25.6512;0.849277;0.0158684;0.0243597;-0.33589;-0.011971;-0.220605;-0.248322;0.332376;-7.41278;-4.85245e-05;-0.000469845;0.000765643;0.000980228;-0.000263109;0.000621669;0.0633774;15.7785;0.000756595;0.000828891;3.72556;0.268416;79.9292;124.929;0.0013984;-4.85278e-05;-0.00141742;0.000476961;0.00076475;0.000129778;0.0145107;0;0.0257179;0.000221312;-0.238434;-0.592478;0.638656;-6.60728;-0.000341025;-6.68248e-05;-0.000714391;-0.000329425;-0.000725991;0.000198283;-0.477364;-2.09484;0.000419748;0.000264377;-0.453759;-2.20381;108.201;153.201;0.00152855;-0.00034128;-0.000851053;0.000717696;-0.000714751;-0.00522352;0.00941452;0;0.0367816;0.0145147;3.45375
191000;192;25.7669;0.00939724;0.000364835;-2.28762;25.6512;0.845399;0.0163137;0.0243576;-0.339767;-0.0117813;-0.22203;-0.248934;0.333773;-7.41339;5.54383e-05;-0.000627988;0.00108154;0.00137941;-0.00024243;0.00081092;-0.0512586;-19.5089;0.00101016;0.00108123;5.68994;0.175749;85.9154;130.915;0.00191538;5.55856e-05;-0.00157293;0.000315989;0.0010805;-0.000197689;0.0135802;0;0.0257769;0.000690421;-0.23978;-0.596359;0.642759;-6.61116;-0.000382439;-0.000140467;-0.00077051;-0.000336931;-0.000816017;0.000239543;-0.496345;-2.01473;0.000473505;0.000319391;-0.412897;-2.42191;97.136;142.136;0.00231165;-0.00038258;-0.000830912;0.000550245;-0.000770845;-0.0053378;0.00983324;0;0.0411417;0.0144938;3.46182
192000;193;25.7646;0.00711668;0.000276295;-2.28665;25.6493;0.836388;0.017286;0.0224489;-0.348778;-0.0117895;-0.223501;-0.248622;0.334522;-7.41308;5.00389e-05;-0.000259335;0.00147846;0.00152409;4.41294e-06;0.000759836;-0.0338453;-29.5462;0.00101459;0.00101312;;;72.7765;117.777;0.0015209;4.97452e-05;-0.00132934;0.000809139;0.00147761;0.000134578;0.0136945;0;0.025827;0.00103538;-0.240444;-0.60125;0.647546;-6.61605;-0.000277006;-6.81434e-05;-0.000713571;-0.000266617;-0.00072396;0.000228672;-0.388197;-2.57601;0.000422786;0.000304896;-0.368275;-2.71536;110.333;155.333;0.00223162;-0.000277266;-0.000859828;0.000723887;-0.000713938;-0.00498388;0.00943192;0;0.0402248;0.015005;3.46914
193000;194;25.7622;0.00467496;0.000181499;-2.2859;25.6471;0.831253;0.0180379;0.0202302;-0.353913;-0.0115216;-0.223274;-0.252777;0.337461;-7.41723;-1.22504e-05;-0.000561465;0.00160507;0.00178088;-0.000188056;0.000984467;0.00763233;131.022;0.00125464;0.00131262;9.46992;0.105598;82.4028;127.403;0.00108756;-1.21677e-05;-0.00151154;0.00038708;0.00160409;0.000685307;0.0139024;0;0.0281896;0.00187343;-0.239673;-0.610424;0.655793;-6.62522;-0.000208031;-3.48554e-05;-0.000668704;-0.000205408;-0.000671326;0.000232959;-0.311095;-3.21445;0.000397199;0.000310612;-0.305974;-3.26825;112.17;157.17;0.00196517;-0.000208179;-0.000614829;0.000545385;-0.000668892;-0.00351888;0.0111502;0;0.0400558;0.0152523;3.4767
194000;195;25.7636;0.0061045;0.000236999;-2.28556;25.6487;0.827097;0.0183817;0.0218311;-0.358069;-0.0117297;-0.224581;-0.252357;0.338021;-7.41681;4.59931e-05;-0.00025291;0.00125221;0.00130309;-4.8888e-06;0.000653988;-0.0367297;-27.2259;0.000870359;0.000871984;;;71.4981;116.498;0.00135905;4.56541e-05;-0.00136859;0.00086143;0.0012513;0.00160957;0.0144294;0;0.0291517;0.0017849;-0.241146;-0.613754;0.65943;-6.62855;-0.000292129;-1.93154e-05;-0.000584405;-0.000290858;-0.000585676;0.000147409;-0.499873;-2.00051;0.000338143;0.000196546;-0.496619;-2.01362;111.389;156.389;0.00185851;-0.000292258;-0.000546879;0.000508403;-0.000584555;-0.00221868;0.0118691;0;0.0466828;0.0165534;3.48347
195000;196;25.7621;0.00452921;0.00017584;-2.285;25.6472;0.82513;0.0189321;0.0203612;-0.360036;-0.0121306;-0.226706;-0.253831;0.340548;-7.41829;1.96393e-06;-0.000342393;0.00188586;0.00194616;-5.83351e-05;0.00100225;;;0.00131732;0.00133633;33.3617;0.0299745;75.4309;120.431;0.00159778;1.7424e-06;-0.00143537;0.000748526;0.00188489;0.0011467;0.014945;0;0.0234602;0.0016497;-0.242955;-0.618767;0.664757;-6.63357;-0.000134482;-9.00395e-05;-0.000294253;-9.39978e-05;-0.000334737;0.00012037;-0.457027;-2.18805;0.000199354;0.000160493;-0.280811;-3.56112;98.5534;143.553;0.00237057;-0.00013455;-0.00056062;0.000380616;-0.000294406;-0.00214881;0.0108508;0;0.040298;0.0172178;3.49097
196000;197;25.7607;0.00320024;0.000124245;-2.28462;25.6462;0.81726;0.0193203;0.0193128;-0.367906;-0.0124475;-0.227314;-0.25412;0.341179;-7.41858;1.33813e-05;-0.000437274;0.00200552;0.00209727;-7.8374e-05;0.00108782;-0.00667223;-149.875;0.00142503;0.00145043;26.7598;0.0373695;79.2932;124.293;0.00121174;1.33106e-05;-0.00145334;0.00057677;0.00200456;0.00258444;0.0143625;0;0.0265787;0.00163464;-0.243492;-0.623218;0.669098;-6.63802;-0.000186787;-3.41454e-05;-0.000237476;-0.000169608;-0.000254655;4.25235e-05;-0.786551;-1.27137;0.000149703;5.6698e-05;-0.666031;-1.50143;98.31;143.31;0.00236574;-0.000186937;-0.00061748;0.000549219;-0.000237666;-0.00293209;0.0114482;0;0.0427471;0.0176729;3.49805
197000;198;25.7611;0.0035291;0.000137012;-2.28484;25.6466;0.814188;0.0190985;0.0197211;-0.370978;-0.0123952;-0.228193;-0.256612;0.343621;-7.42107;3.03482e-05;-0.000337815;0.00203509;0.00209048;-2.50457e-05;0.00105776;-0.0149125;-67.058;0.00140208;0.00141035;83.4666;0.0119808;75.1429;120.143;0.00152711;3.0066e-05;-0.00150162;0.000823659;0.00203402;0.00103103;0.0154492;0;0.0262272;0.00199581;-0.243956;-0.62936;0.674991;-6.64416;-0.000156453;5.53363e-06;-0.000345465;-0.000156291;-0.000345627;9.46679e-05;-0.452877;-2.20811;0.000199852;0.000126224;-0.452196;-2.21143;126.461;171.461;0.00231688;-0.000156684;-0.000667402;0.000678596;-0.000345688;-0.00106467;0.0134386;0;0.039103;0.0178721;3.50093
198000;199;25.7603;0.00277077;0.000107571;-2.28353;25.6461;0.809314;0.0204023;0.0192298;-0.375852;-0.0126127;-0.229649;-0.256123;0.344234;-7.42058;-2.04096e-05;-0.000425572;0.00252429;0.00259357;-8.96952e-05;0.00134163;0.00808531;123.681;0.00175971;0.00178885;28.9154;0.0345836;77.5608;122.561;0.00177982;-2.06062e-05;-0.00161197;0.000757819;0.00252308;0.00140244;0.0150142;0;0.0230523;0.00219691;-0.245042;-0.633688;0.679419;-6.64849;-0.00013522;-8.23271e-05;-0.000188005;-7.51584e-05;-0.000248067;8.64541e-05;-0.719237;-1.39036;0.000146881;0.000115272;-0.302977;-3.30058;91.5998;136.6;0.00211676;-0.000135362;-0.000703009;0.000538388;-0.000188249;-0.00201497;0.00997332;0;0.0396573;0.0179333;3.50867
199000;200;25.7597;0.0022249;8.63788e-05;-2.28374;25.6455;0.80954;0.0201993;0.0186563;-0.375627;-0.0124929;-0.230485;-0.258853;0.34682;-7.42331;-0.000116291;-0.000537659;0.00245369;0.00256164;-0.00022424;0.00139294;0.0473945;21.0995;0.0017872;0.00185725;11.4237;0.0875376;78.3751;123.375;0.00192742;-0.000116372;-0.0017497;0.000671279;0.00245231;0.00125814;0.0156687;0;0.0229863;0.00300444;-0.245468;-0.640225;0.685676;-6.65503;-0.000102045;-3.11288e-06;-0.000119271;-0.0001015;-0.000119816;9.1582e-06;-0.855574;-1.16881;7.4526e-05;1.22109e-05;-0.847129;-1.18046;118.427;163.427;0.00165723;-0.000102153;-0.00047162;0.000465403;-0.000119382;-0.000146178;0.0108157;0;0.0367017;0.0182916;3.51325
200000;201;25.7583;0.00075726;2.93996e-05;-2.28355;25.6444;0.798945;0.0203857;0.017531;-0.386221;-0.012986;-0.232913;-0.258136;0.347924;-7.42259;-4.57533e-06;-0.000379175;0.00221379;0.00227681;-6.75955e-05;0.0011722;;;0.0015409;0.00156294;33.6829;0.0296887;74.3188;119.319;0.00161225;-4.95407e-06;-0.00171064;0.000949339;0.0022124;0.00135088;0.0167415;0;0.0238699;0.00262773;-0.247842;-0.643638;0.689711;-6.65844;5.49023e-05;-2.34187e-05;-0.000147975;5.75705e-05;-0.000150643;0.000104107;0.371025;2.69524;0.000124151;0.000138809;0.382165;2.61667;126.738;171.738;0.00204723;5.46378e-05;-0.000774447;0.000727762;-0.000148274;-0.00313501;0.0121211;0;0.0402518;0.0191227;3.52114
201000;202;25.7577;0.000214211;8.31646e-06;-2.28414;25.6438;0.798528;0.0197983;0.0169462;-0.386638;-0.0137284;-0.233445;-0.261061;0.350482;-7.42552;3.55058e-05;-0.00053041;0.00258234;0.00268839;-7.0543e-05;0.00137947;-0.0137495;-72.7302;0.00181623;0.00183929;38.11;0.0262398;79.1317;124.132;0.00208723;3.53652e-05;-0.00181406;0.000749976;0.00258084;0.00165418;0.0161326;0;0.0210006;0.00243514;-0.247435;-0.652658;0.697992;-6.66746;5.62944e-05;-9.4458e-05;-0.000244202;8.35197e-05;-0.000271427;0.000177473;0.230524;4.33794;0.000214287;0.000236631;0.307706;3.24986;114.594;159.594;0.00158445;5.61629e-05;-0.000710281;0.00052155;-0.00024445;2.3499e-06;0.0118559;0;0.0348364;0.020399;3.52842
202000;203;25.7546;-0.00296459;-0.000115096;-2.28304;25.6411;0.788399;0.0208926;0.0141642;-0.396767;-0.0132483;-0.234138;-0.263423;0.352687;-7.42788;-7.96431e-05;-0.000566805;0.00256088;0.0026774;-0.000196169;0.00143679;0.0310999;32.1544;0.00185379;0.00191572;13.6484;0.0732684;78.6815;123.682;0.00227439;-7.97365e-05;-0.00184987;0.00071288;0.00255933;0.000654649;0.0160136;0;0.022044;0.00340877;-0.247599;-0.659146;0.704124;-6.67395;4.6276e-05;2.41222e-05;-0.000245858;4.82544e-05;-0.000247837;0.000148046;0.188222;5.31287;0.000183437;0.000197394;0.194702;5.13604;136.186;1.1864;0.00119877;4.59288e-05;-0.000785199;0.00083368;-0.000246166;-0.00192153;0.0111043;0;0.0362902;0.0214802;3.53688
203000;204;25.7561;-0.00140339;-5.44845e-05;-2.28336;25.6426;0.787254;0.0205811;0.0157397;-0.397912;-0.0129548;-0.234676;-0.266047;0.354995;-7.4305;-9.99628e-05;-0.00054986;0.00200076;0.00213598;-0.000235184;0.00118558;0.0499625;20.015;0.0015085;0.00158077;9.08216;0.110106;75.5558;120.556;0.00250533;-0.000100206;-0.0019913;0.000888558;0.00199893;0.000835506;0.016464;0;0.0382021;0.00394691;-0.249095;-0.664469;0.709636;-6.67927;6.9362e-05;-5.8923e-05;-0.000448813;7.59778e-05;-0.000455429;0.000265703;0.154545;6.47059;0.000331857;0.000354271;0.166827;5.99423;122.339;167.339;0.00158434;6.9048e-05;-0.000912011;0.000794607;-0.000449227;-0.00251367;0.0110382;0;0.0400964;0.0217298;3.54321
204000;205;25.7576;6.02925e-05;2.34077e-06;-2.28338;25.6442;0.784693;0.0205553;0.0172861;-0.400473;-0.0141515;-0.237097;-0.263352;0.35464;-7.42781;-5.77553e-05;-0.000643094;0.00204296;0.0022242;-0.00023899;0.00123159;0.0282704;35.3727;0.00156854;0.00164212;9.30663;0.10745;79.3451;124.345;0.002108;-5.77697e-05;-0.001954;0.000665064;0.00204126;0.000570433;0.0155088;0;0.0471476;0.00320694;-0.251362;-0.667681;0.713436;-6.68248;9.24751e-05;-8.0484e-05;-0.000513303;0.000102986;-0.000523813;0.0003134;0.180157;5.55071;0.000388119;0.000417866;0.196608;5.08626;121.752;166.752;0.00133189;9.20359e-05;-0.00110106;0.000940707;-0.000513906;-0.00161431;0.00926061;0;0.0463688;0.0219431;3.55081
205000;206;25.7574;-0.000104026;-4.03867e-06;-2.28361;25.6443;0.775547;0.0203229;0.0173786;-0.409619;-0.0142199;-0.237821;-0.264973;0.356331;-7.42943;-0.000120756;-0.000681954;0.00209855;0.00229136;-0.000313558;0.00130246;0.0575424;17.3785;0.0016421;0.00173661;7.3076;0.136844;78.3001;123.3;0.00234797;-0.00012079;-0.00209722;0.000730183;0.00209659;0.000848842;0.0162087;0;0.0331716;0.00358295;-0.252662;-0.674973;0.720722;-6.68977;8.39557e-05;-4.70024e-05;-0.000599324;8.71739e-05;-0.000602542;0.000344858;0.140084;7.13857;0.000433683;0.000459811;0.144677;6.91196;124.924;169.924;0.00122134;8.33185e-05;-0.00122314;0.00112993;-0.000600071;-0.00173772;0.00970394;0;0.0335354;0.0223171;3.55759
206000;207;25.759;0.00143244;5.56126e-05;-2.28385;25.6459;0.7731;0.0200864;0.0189746;-0.412066;-0.0137956;-0.23814;-0.267807;0.358638;-7.43226;-0.000189289;-0.000714826;0.00196096;0.00217691;-0.000405237;0.00129107;0.0965285;10.3596;0.00160351;0.00172143;5.37195;0.186152;77.7328;122.733;0.00259141;-0.000189287;-0.00214539;0.000712667;0.00195892;-4.11434e-05;0.0168831;0;0.0220794;0.00418836;-0.25311;-0.68153;0.727025;-6.69633;0.000168454;-7.03629e-06;-0.000672088;0.000168513;-0.000672147;0.00042033;0.250642;3.98975;0.000513568;0.00056044;0.250708;3.98871;127.918;172.918;0.00102948;0.000167888;-0.00107709;0.00106392;-0.000672669;-0.00290489;0.00760181;0;0.0303727;0.0228351;3.5642
207000;208;25.7573;-0.000259252;-1.00651e-05;-2.28233;25.6447;0.761249;0.0216027;0.017765;-0.423917;-0.0140891;-0.239662;-0.269053;0.360591;-7.43351;-0.000105929;-0.000745827;0.00192551;0.00216993;-0.000350345;0.00126014;0.0550133;18.1774;0.00157643;0.00168018;6.19369;0.161455;79.45;124.45;0.00168994;-0.00010588;-0.00217217;0.000677621;0.00192344;0.00230616;0.0163185;0;0.0214324;0.00466246;-0.25437;-0.689807;0.735227;-6.70461;8.58849e-05;1.026e-05;-0.00103808;8.59785e-05;-0.00103818;0.000562078;0.082734;12.0869;0.000722485;0.000749438;0.0828168;12.0748;125.782;170.782;0.00097427;8.49689e-05;-0.00133157;0.00135359;-0.00103897;-0.00608615;0.00841632;0;0.0303993;0.0242971;3.5704
208000;209;25.7592;0.0016324;6.33755e-05;-2.28387;25.6464;0.760081;0.0200692;0.0195631;-0.425085;-0.0142018;-0.240908;-0.266656;0.359644;-7.43111;-0.000175924;-0.000774183;0.00176127;0.00203265;-0.000447303;0.00123997;0.0998852;10.0115;0.00152621;0.0016533;4.54422;0.22006;78.2667;123.267;0.0023282;-0.000175888;-0.00227612;0.000724854;0.00175898;0.00147479;0.0181069;0;0.0214236;0.00449241;-0.256648;-0.691302;0.737418;-6.7061;0.000120904;-7.54865e-05;-0.00112855;0.000125448;-0.00113309;0.000629269;0.107133;9.33423;0.000800493;0.000839026;0.110713;9.03234;121.512;166.512;0.00202263;0.000120062;-0.00144912;0.00129987;-0.00112959;-0.00835115;0.010016;0;0.0279181;0.0250041;3.57805
209000;210;25.7609;0.0033557;0.00013028;-2.284;25.6482;0.759285;0.0199358;0.0213057;-0.425881;-0.0141819;-0.24181;-0.269332;0.362233;-7.43379;-0.00016024;-0.00072077;0.00168306;0.00193143;-0.000408611;0.00117002;0.0952077;10.5034;0.00144324;0.00156003;4.72683;0.211558;77.9076;122.908;0.00195721;-0.000160244;-0.00217005;0.000725845;0.00168097;0.00175435;0.0172908;0;0.0198138;0.00454739;-0.258159;-0.698387;0.744588;-6.71319;0.000146523;-2.58961e-05;-0.00103723;0.000147089;-0.00103779;0.000592442;0.141264;7.07896;0.000745743;0.000789922;0.141732;7.05556;125.296;170.296;0.00209977;0.000145492;-0.00148638;0.00143632;-0.00103833;-0.00848701;0.00943098;0;0.0306747;0.0251268;3.58024
210000;211;25.7623;0.00482225;0.000187217;-2.28377;25.6498;0.75533;0.020168;0.0229161;-0.429836;-0.0143331;-0.243264;-0.269304;0.363191;-7.43376;-0.000202067;-0.000692578;0.00122235;0.00150358;-0.000483289;0.000993432;0.16531;6.04925;0.00119647;0.00132458;3.11113;0.321427;76.5756;121.576;0.00235384;-0.000202144;-0.00218324;0.000795969;0.00122021;-4.4392e-05;0.018106;0;0.0267696;0.00456958;-0.260189;-0.702454;0.749107;-6.71725;8.12694e-05;-2.83921e-05;-0.00103286;8.19924e-05;-0.00103358;0.000557788;0.0786838;12.7091;0.000717949;0.000743717;0.0793283;12.6058;123.503;168.503;0.00118289;8.04618e-05;-0.00132657;0.00127123;-0.00103374;-0.00614871;0.0103558;0;0.0354484;0.0255576;3.58662
211000;212;25.7642;0.00672169;0.00026096;-2.28257;25.6519;0.753097;0.0213699;0.0249965;-0.432069;-0.0144164;-0.244378;-0.269498;0.364085;-7.43396;-0.000245311;-0.00071623;0.00134327;0.00161851;-0.000520545;0.00106953;0.182622;5.4758;0.00128807;0.00142603;3.10926;0.32162;76.3641;121.364;0.00231236;-0.000245328;-0.00217486;0.000740092;0.00134117;0.00056383;0.0163894;0;0.0234493;0.00481527;-0.261769;-0.70832;0.755158;-6.72312;-2.8782e-06;7.66924e-05;-0.00115968;2.1841e-06;-0.00116474;0.000583464;;;0.000777226;0.000777953;;;125.332;170.332;0.00179295;-3.62156e-06;-0.00106701;0.00122172;-0.00116025;-0.00659712;0.0118343;0;0.0336534;0.0270079;3.5943
212000;213;25.7644;0.00688889;0.000267451;-2.28289;25.6521;0.749797;0.0210439;0.0252321;-0.435369;-0.0145064;-0.24476;-0.269369;0.364249;-7.43383;-0.000129276;-0.000669661;0.00126951;0.00153841;-0.000398179;0.000968295;0.101831;9.82015;0.00118093;0.00129106;3.86362;0.258825;77.2894;122.289;0.00202266;-0.000129398;-0.00217358;0.000832157;0.00126737;0.000892298;0.0179593;0;0.0210403;0.00486979;-0.262505;-0.712081;0.758941;-6.72688;7.90138e-05;5.09976e-05;-0.0010258;8.13628e-05;-0.00102815;0.000554758;0.0770262;12.9826;0.000714104;0.000739678;0.0791349;12.6367;126.564;171.564;0.00237464;7.828e-05;-0.00110929;0.00121257;-0.00102642;-0.00744603;0.0114756;0;0.0341927;0.0284497;3.60139
213000;214;25.763;0.00549989;0.000213526;-2.28218;25.651;0.743347;0.0217546;0.024088;-0.441819;-0.0145752;-0.245871;-0.269839;0.365347;-7.4343;-0.000234468;-0.000889931;0.000987003;0.00145561;-0.000703073;0.00107934;0.237556;4.20954;0.00127131;0.00143912;2.07035;0.48301;79.7171;124.717;0.00247845;-0.000234274;-0.00241715;0.000635421;0.00098448;-0.000260246;0.0167409;0;0.0246678;0.00487679;-0.263847;-0.716828;0.76386;-6.73163;0.000126745;6.67071e-05;-0.000916066;0.000130995;-0.000920316;0.000525656;0.138358;7.22764;0.000661546;0.000700874;0.142337;7.0256;128.424;173.424;0.00248163;0.000126115;-0.000989676;0.00112419;-0.000916554;-0.00917347;0.011163;0;0.0377276;0.0288218;3.60835
214000;215;25.7634;0.00588699;0.000228554;-2.28196;25.6514;0.741264;0.0219758;0.0245567;-0.443902;-0.015056;-0.247114;-0.270572;0.366745;-7.43503;-0.000270697;-0.000862318;0.00108037;0.00150026;-0.00069058;0.00109542;0.250559;3.99108;0.00129335;0.00146056;2.17246;0.460308;78.7658;123.766;0.00222928;-0.0002705;-0.00231698;0.000590386;0.00107806;-8.51217e-05;0.0169727;0;0.024251;0.00440591;-0.265137;-0.722204;0.769347;-6.737;0.000280354;7.27541e-05;-0.000973232;0.000284562;-0.000977441;0.000631001;0.288064;3.47145;0.000764347;0.000841335;0.29113;3.4349;128.787;173.787;0.00321161;0.000279779;-0.000928324;0.00107509;-0.000973661;-0.0102675;0.010774;0;0.0399649;0.0292437;3.6156
215000;216;25.7615;0.00401348;0.000155818;-2.28137;25.6499;0.732498;0.0225694;0.0229797;-0.452669;-0.0149936;-0.248076;-0.270925;0.367651;-7.43538;-0.000165308;-0.000531725;0.00070643;0.000958102;-0.000416981;0.000687542;0.234005;4.27341;0.000814137;0.000916722;2.29771;0.435215;75.5176;120.518;0.00241059;-0.00016562;-0.0020162;0.00095146;0.00070454;4.76891e-05;0.0171964;0;0.026901;0.0046522;-0.266102;-0.726694;0.773896;-6.74149;0.00013134;0.000126398;-0.000992994;0.000145374;-0.00100703;0.000576202;0.132267;7.56049;0.000724688;0.000768269;0.14436;6.92714;127.641;172.641;0.00244634;0.00013089;-0.000703621;0.000957352;-0.000993234;-0.00905364;0.0114249;0;0.0420484;0.0308989;3.623
216000;217;25.7621;0.00454558;0.000176476;-2.28115;25.6505;0.730121;0.0227891;0.0236014;-0.455045;-0.0153949;-0.249403;-0.272086;0.369418;-7.43654;-0.000227006;-0.000693859;0.000543851;0.000952145;-0.0006353;0.000793722;0.417405;2.39576;0.000922577;0.0010583;1.49873;0.66723;78.5457;123.546;0.00195249;-0.000227076;-0.00217684;0.000787978;0.000541724;0.00169349;0.0169096;0;0.0211885;0.00437678;-0.267606;-0.73127;0.77871;-6.74607;0.000283064;0.000141736;-0.000839033;0.00030069;-0.000856659;0.000578675;0.337369;2.96411;0.000693419;0.000771566;0.351003;2.84898;131.402;176.402;0.00293494;0.000282711;-0.000567284;0.000851553;-0.000839184;-0.0098553;0.0114341;0;0.0394685;0.0323246;3.62992
217000;218;25.7625;0.00499302;0.000193847;-2.28103;25.651;0.728202;0.0229028;0.0241155;-0.456964;-0.015542;-0.251179;-0.27112;0.369917;-7.43558;-0.00020704;-0.00081125;0.000647516;0.00113713;-0.000696655;0.000916893;0.319745;3.12749;0.00106887;0.00122252;1.63227;0.612643;80.4695;125.47;0.00220169;-0.000206911;-0.00225582;0.000632091;0.000645303;0.000510103;0.018335;0;0.0239116;0.00444125;-0.269269;-0.735277;0.783044;-6.75008;0.000425387;0.000229941;-0.000742797;0.000469018;-0.000786428;0.000627723;0.572683;1.74617;0.000732514;0.000836964;0.596391;1.67675;139.477;4.47684;0.00238795;0.000424969;-0.000482226;0.00094294;-0.000742887;-0.00756344;0.0123737;0;0.0396798;0.0326521;3.6375
218000;219;25.7594;0.00187478;7.27856e-05;-2.28057;25.6482;0.71962;0.0233672;0.0212672;-0.465546;-0.0157955;-0.252631;-0.271421;0.371135;-7.43588;-0.000156644;-0.000591338;0.000566338;0.000897924;-0.00048823;0.000693077;0.276591;3.61545;0.000811865;0.000924103;1.83914;0.543732;78.088;123.088;0.00199342;-0.00015692;-0.00213351;0.000949717;0.000564238;0.000677665;0.0171067;0;0.0252221;0.00428585;-0.270609;-0.740474;0.788384;-6.75527;0.000378835;0.000137206;-0.000715509;0.000395775;-0.000732449;0.000564112;0.529462;1.88871;0.000660977;0.000752149;0.540345;1.85067;133.243;178.243;0.0017271;0.000378621;-0.000392903;0.000667895;-0.000715577;-0.00584791;0.0101552;0;0.043877;0.0344181;3.64447
219000;220;25.7595;0.00197431;7.66497e-05;-2.28143;25.6483;0.716038;0.0225027;0.0213905;-0.469128;-0.0161417;-0.253762;-0.274007;0.373812;-7.43846;-0.00026985;-0.000482592;0.000509266;0.000739911;-0.000500494;0.000620202;0.529879;1.88722;0.000720581;0.000826936;1.47836;0.676425;72.8655;117.865;0.0024326;-0.000270238;-0.00197127;0.00100493;0.000507441;-0.000624411;0.0177468;0;0.0188838;0.00408443;-0.271992;-0.747592;0.795543;-6.76239;0.000434195;0.000209617;-0.000669811;0.000472655;-0.000708271;0.000590463;0.648235;1.54265;0.000686317;0.000787284;0.667336;1.4985;137.637;2.63656;0.00239371;0.000434016;-0.000213987;0.000633688;-0.000669812;-0.00658958;0.010883;0;0.0368185;0.03641;3.65274
220000;221;25.7586;0.00106405;4.13102e-05;-2.28044;25.6475;0.713904;0.0234925;0.0206238;-0.471262;-0.0168656;-0.256058;-0.273268;0.374867;-7.43773;-0.000152556;-0.000811939;0.000354618;0.000951649;-0.000749588;0.000850619;0.430199;2.3245;0.000984516;0.00113416;1.26956;0.787672;83.3983;128.398;0.00209404;-0.000152405;-0.0022215;0.000596909;0.00035248;0.000734538;0.0162214;0;0.0244738;0.00338086;-0.274369;-0.748494;0.797203;-6.76329;0.000462864;0.000205997;-0.000494283;0.000505316;-0.000536734;0.000521025;0.936437;1.06788;0.000601719;0.0006947;0.941464;1.06218;145.431;10.4307;0.00170589;0.00046272;-0.000162768;0.000575114;-0.000494275;-0.00482086;0.0120383;0;0.0395388;0.0367189;3.65364
221000;222;25.7574;-9.61618e-05;-3.73335e-06;-2.28029;25.6466;0.705014;0.0236494;0.0197185;-0.480152;-0.0168977;-0.257939;-0.273465;0.3763;-7.43792;-0.000268724;-0.000652883;8.77822e-05;0.000586309;-0.00076725;0.00067678;3.06126;0.326663;0.000783802;0.000902373;0.764169;1.30861;80.534;125.534;0.00161931;-0.000268789;-0.00205169;0.000745431;8.58908e-05;0.00227137;0.0175783;0;0.0269394;0.00362268;-0.27638;-0.754608;0.803637;-6.76941;0.000566383;0.000150326;-0.000529525;0.000586629;-0.000549771;0.0005682;1.06961;0.934923;0.000656216;0.0007576;1.06704;0.937169;143.666;8.66575;0.00132448;0.00056616;-0.000383785;0.000685022;-0.000529587;-0.00355558;0.0105497;0;0.0408292;0.0385946;3.66027
222000;223;25.7558;-0.00174859;-6.78864e-05;-2.27963;25.6452;0.698858;0.0243041;0.0182856;-0.486308;-0.0169488;-0.260152;-0.273425;0.377793;-7.43788;-0.00013776;-0.000496388;0.000265138;0.000599397;-0.000472019;0.000535708;0.519578;1.92464;0.000620038;0.000714277;1.26986;0.787489;80.2156;125.216;0.00277051;-0.000138112;-0.00196857;0.000975203;0.000263324;-0.000682534;0.0185016;0;0.0263895;0.00387481;-0.278405;-0.759646;0.809065;-6.77445;0.00062278;0.000166936;-0.000444982;0.000648271;-0.000470472;0.000559372;1.39956;0.714509;0.00064862;0.000745829;1.37791;0.725734;148.977;13.9769;0.00159043;0.000622587;-0.000308941;0.000643321;-0.000445016;-0.0041369;0.0102125;0;0.0368306;0.0397417;3.66715
223000;224;25.7555;-0.0020012;-7.76937e-05;-2.28012;25.6449;0.69671;0.0238159;0.0180469;-0.488456;-0.0169876;-0.261058;-0.275734;0.38009;-7.44019;-0.000154698;-0.000646955;0.000422963;0.000842633;-0.000574368;0.000708501;0.365748;2.73412;0.000822979;0.000944668;1.46706;0.681635;80.7081;125.708;0.00198985;-0.000154779;-0.00205753;0.000762807;0.000421056;0.000759523;0.0178045;0;0.0254859;0.00371258;-0.279859;-0.76455;0.814169;-6.77935;0.000535916;7.25664e-05;-0.000463823;0.000541156;-0.000469063;0.000505109;1.15543;0.865478;0.000583745;0.000673479;1.15369;0.866781;140.903;5.90342;0.00190879;0.000535703;-0.00051146;0.000657177;-0.000463952;-0.00589946;0.0118238;0;0.0360947;0.0398952;3.6744
224000;225;25.7549;-0.0026136;-0.000101469;-2.27945;25.6447;0.68564;0.0244884;0.0177901;-0.499526;-0.0188569;-0.264307;-0.272512;0.380101;-7.43697;-6.62776e-05;-0.000518675;0.000742415;0.000995731;-0.000319593;0.000657662;0.089273;11.2016;0.000792141;0.000876883;3.11562;0.320963;77.7531;122.753;0.00265193;-6.65477e-05;-0.00193804;0.000899542;0.000740673;-0.000483549;0.0191062;0;0.029567;0.00226465;-0.282864;-0.769474;0.819822;-6.78427;0.000608172;0.000110766;-0.000575321;0.000618449;-0.000585598;0.000602024;1.0571;0.945984;0.000695244;0.000802698;1.0561;0.946882;141.02;6.01996;0.0012401;0.000607878;-0.000552072;0.000774389;-0.000575467;-0.00480516;0.0121327;0;0.0362163;0.0426051;3.6815
225000;226;25.7578;0.000318151;1.23518e-05;-2.27977;25.6476;0.686425;0.0241666;0.0206848;-0.498741;-0.0184373;-0.264898;-0.276239;0.38317;-7.4407;-0.000114061;-0.000550827;0.000669372;0.000953564;-0.000398253;0.000675908;0.1704;5.86853;0.000802122;0.000901211;2.39437;0.417647;77.8185;122.819;0.00222236;-0.000114293;-0.00197808;0.000875308;0.000667568;-3.8416e-05;0.0181166;0;0.0329752;0.00262733;-0.284086;-0.777706;0.827973;-6.79251;0.000470744;0.000201114;-0.000779613;0.000502296;-0.000811165;0.000656731;0.603818;1.65613;0.000765285;0.000875641;0.619228;1.61491;137.466;2.46588;0.00126894;0.000470382;-0.000471629;0.000874699;-0.000779704;-0.00399995;0.0132768;0;0.0339204;0.0435983;3.68858
226000;227;25.7582;0.000637977;2.47686e-05;-2.2812;25.6479;0.682001;0.0227396;0.0209971;-0.503165;-0.0176462;-0.266073;-0.278417;0.385515;-7.44287;-0.000125017;-0.000535392;0.00058828;0.000874937;-0.000411674;0.000643306;0.212512;4.70561;0.000758707;0.000857741;2.12531;0.470519;77.7651;122.765;0.00232453;-0.000125279;-0.00197282;0.000901013;0.000586478;0.000398187;0.0187697;0;0.0321379;0.00343138;-0.286121;-0.783576;0.834187;-6.79838;0.000547699;0.000194914;-0.000910041;0.00057331;-0.000935652;0.000754481;0.60184;1.66157;0.000879533;0.00100598;0.612739;1.63202;137.85;2.8504;0.00165988;0.000546871;-0.000910216;0.00130166;-0.000910436;-0.00560195;0.0123822;0;0.0321024;0.0449021;3.69633
227000;228;25.7588;0.00124773;4.84414e-05;-2.28146;25.6487;0.671763;0.0224723;0.0218559;-0.513403;-0.0184037;-0.268108;-0.276709;0.385731;-7.44117;-8.60175e-05;-0.000474251;0.000940153;0.00112576;-0.000271624;0.000698692;0.091493;10.9298;0.000855544;0.000931589;4.14455;0.241281;74.683;119.683;0.00167165;-8.63658e-05;-0.00190994;0.000959965;0.000938444;0.00150132;0.0183059;0;0.0246442;0.00255487;-0.288818;-0.788815;0.84003;-6.80362;0.000326301;0.000277163;-0.00135635;0.000370779;-0.00140082;0.000885802;0.240573;4.15674;0.00107893;0.00118107;0.264686;3.77806;131.506;176.506;0.000516647;0.000325401;-0.000813484;0.00136965;-0.00135664;-0.00421843;0.0128452;0;0.0313671;0.046707;3.70368
228000;229;25.7621;0.0045749;0.000177614;-2.2822;25.6522;0.663131;0.0217395;0.0253568;-0.522035;-0.0189842;-0.271276;-0.276685;0.387951;-7.44114;-2.90727e-05;-0.000415759;0.00140289;0.00151485;-0.000141032;0.000827938;0.0207235;48.2544;0.00106004;0.00110392;10.7412;0.0930999;72.3485;117.349;0.00214986;-2.95806e-05;-0.00192388;0.00109021;0.00140112;0.00136139;0.016809;0;0.0248883;0.00197739;-0.292957;-0.795738;0.847954;-6.81054;0.000416504;0.000191278;-0.00138002;0.000436644;-0.00140016;0.000918403;0.30181;3.31334;0.00110805;0.00122454;0.311853;3.20664;127.693;172.693;0.000679851;0.00041586;-0.000767073;0.00115135;-0.0013803;-0.0051657;0.0122998;0;0.0310808;0.0485233;3.71124
229000;230;25.7646;0.00709714;0.000275536;-2.28304;25.6547;0.664332;0.0208993;0.027784;-0.520834;-0.0201404;-0.274292;-0.276142;0.389739;-7.4406;-1.04307e-06;-0.000448456;0.00220601;0.00229365;-8.86857e-05;0.00119117;;;0.0015595;0.00158823;25.8627;0.0386657;74.6391;119.639;0.00255489;-1.44994e-06;-0.00190753;0.0010074;0.00220429;0.00105653;0.0172526;0;0.0242761;0.000791296;-0.296544;-0.799719;0.85293;-6.81452;0.000428867;0.000237454;-0.00152905;0.000457253;-0.00155744;0.00100735;0.280479;3.56533;0.00121962;0.00134313;0.293593;3.40607;127.969;172.969;0.000950081;0.00042807;-0.000807861;0.00128482;-0.00152935;-0.00580628;0.0120503;0;0.0285873;0.0507322;3.71793
230000;231;25.7653;0.00781024;0.000303222;-2.28307;25.6555;0.66043;0.0208639;0.0285977;-0.524736;-0.0199339;-0.274711;-0.279211;0.392202;-7.44367;2.35536e-05;-0.000402515;0.00219111;0.00226344;-4.87797e-05;0.00115611;-0.0107496;-93.0265;0.00152548;0.00154148;46.4013;0.0215511;73.0715;118.072;0.0025698;2.2989e-05;-0.00194469;0.00113633;0.0021893;3.10732e-05;0.0176984;0;0.0255116;0.000788666;-0.297813;-0.80628;0.859524;-6.82108;0.00041104;0.000294718;-0.00140493;0.000457673;-0.00145156;0.000954618;0.29257;3.41799;0.00115101;0.00127282;0.315297;3.17162;129.314;174.314;0.00135679;0.00041039;-0.000586929;0.00117797;-0.00140506;-0.00378884;0.0143873;0;0.0298106;0.0511061;3.71841
231000;232;25.7638;0.0063077;0.000244888;-2.28225;25.6543;0.651552;0.0216845;0.0273888;-0.533614;-0.0204077;-0.276304;-0.280376;0.394171;-7.44483;-0.000109092;-0.000440306;0.00223846;0.00231833;-0.000188958;0.00125364;0.0487351;20.5191;0.00161223;0.00167152;12.269;0.0815063;72.349;117.349;0.00222981;-0.000109635;-0.00201605;0.00113175;0.00223653;0.00209918;0.0181615;0;0.0317645;0.000654296;-0.299788;-0.813616;0.86709;-6.82842;0.00038388;0.000159442;-0.00139416;0.000398064;-0.00140834;0.000903202;0.275349;3.63175;0.00109595;0.00120427;0.282648;3.53797;120.703;165.703;0.000894639;0.000383582;-0.000468562;0.000788563;-0.00139425;-0.00489331;0.0153878;0;0.035887;0.0541361;3.72811
232000;233;25.7635;0.00599387;0.000232704;-2.28208;25.6541;0.645134;0.0218559;0.0272511;-0.540032;-0.0203659;-0.277821;-0.280458;0.395292;-7.44492;-2.3705e-05;-0.000320561;0.00229711;0.00234057;-6.71684e-05;0.00120387;0.0103195;96.9037;0.00158324;0.00160516;34.8463;0.0286975;70.6878;115.688;0.00241925;-2.44343e-05;-0.00189426;0.0012495;0.00229537;0.00285545;0.0194451;0;0.0312926;0.000703324;-0.301228;-0.819717;0.873313;-6.83452;0.000359611;0.00018292;-0.0013548;0.00037891;-0.0013741;0.000876506;0.265434;3.76742;0.00106508;0.00116868;0.275751;3.62646;120.215;165.215;0.000927975;0.000359351;-0.000376279;0.00074308;-0.00135486;-0.00534435;0.0152692;0;0.0387791;0.0548825;3.73485
233000;234;25.7629;0.00532946;0.000206909;-2.28195;25.6536;0.641772;0.0219841;0.0266796;-0.543394;-0.0201761;-0.279445;-0.284022;0.398955;-7.44848;-0.000112232;-0.000379182;0.00252625;0.00257966;-0.000165644;0.00137265;0.0444262;22.5092;0.00177756;0.0018302;15.5736;0.0642114;70.8394;115.839;0.00236648;-0.000113013;-0.00206869;0.00130588;0.00252419;0.0028362;0.018138;0;0.0225538;0.00072195;-0.302814;-0.824779;0.878611;-6.83958;0.000364325;8.38905e-05;-0.00109518;0.000369132;-0.00109999;0.00073456;0.332662;3.00605;0.00088249;0.000979413;0.335578;2.97994;118.408;163.408;0.00105597;0.000364192;-0.000355006;0.000523428;-0.00109524;-0.00549098;0.0144316;0;0.0348632;0.057416;3.74076
234000;235;25.7608;0.00329293;0.000127844;-2.28074;25.6519;0.630849;0.0231998;0.0250134;-0.554317;-0.0192822;-0.282933;-0.278558;0.397514;-7.44302;-0.000101838;-0.000395116;0.00254978;0.00260741;-0.000159461;0.00138343;0.0399397;25.0377;0.00179379;0.00184458;16.3513;0.061157;71.1578;116.158;0.00225898;-0.000102616;-0.00210352;0.00130877;0.00254766;0.00401749;0.0190438;0;0.0233436;0.0020839;-0.305968;-0.826955;0.881746;-6.84176;0.000391637;0.000188403;-0.00106618;0.000415592;-0.00109013;0.000752862;0.367328;2.72236;0.000897937;0.00100382;0.381231;2.62308;122.287;167.287;0.00140333;0.00039148;-0.000214179;0.000591573;-0.00106618;-0.00603496;0.0158742;0;0.0460795;0.0586313;3.7479
235000;236;25.7626;0.00504526;0.000195875;-2.28033;25.6537;0.631047;0.023608;0.0268046;-0.554119;-0.0201447;-0.282074;-0.2813;0.398875;-7.44576;-0.000167509;-0.000367602;0.00270061;0.00274697;-0.000213874;0.00148042;0.0620262;16.1222;0.00190661;0.0019739;12.8439;0.077858;70.3331;115.333;0.00217073;-0.000168365;-0.0020992;0.00135905;0.00269848;0.00385298;0.0179832;0;0.0271357;0.000770706;-0.305321;-0.834699;0.888788;-6.8495;0.000357433;0.000213395;-0.00104;0.000389293;-0.00107186;0.000730575;0.343686;2.90963;0.000873739;0.0009741;0.363195;2.75335;120.974;165.974;0.00177232;0.000357302;-0.000127058;0.000554324;-0.00103998;-0.00642333;0.0176544;0;0.0397547;0.0622161;3.75516
236000;237;25.762;0.00449255;0.000174417;-2.28027;25.6533;0.626527;0.0236641;0.0263653;-0.558639;-0.0204881;-0.285215;-0.277164;0.39823;-7.44162;-4.84621e-05;-0.000299193;0.00284352;0.00287415;-7.90912e-05;0.00147662;0.017043;58.6751;0.001943;0.00196882;36.3397;0.0275181;70.2593;115.259;0.00262658;-4.94528e-05;-0.00204242;0.00143901;0.00284148;0.00198725;0.0180159;0;0.0239575;0.000633948;-0.30774;-0.835509;0.890382;-6.85031;0.000372815;0.000184868;-0.000928699;0.000398565;-0.000954449;0.000676507;0.401438;2.49104;0.000802838;0.000902009;0.417586;2.39471;110.284;155.284;0.00170082;0.000372784;5.71013e-05;0.000312802;-0.000928684;-0.00609179;0.0169123;0;0.038583;0.0645871;3.7627
237000;238;25.7626;0.00506319;0.000196571;-2.28146;25.6538;0.623404;0.0224728;0.0269086;-0.561762;-0.0202104;-0.286757;-0.278926;0.400546;-7.44338;-0.000121646;-0.000286909;0.00289298;0.00292004;-0.000148709;0.00153438;0.0420486;23.782;0.00199811;0.00204584;19.636;0.0509268;70.0317;115.032;0.00219442;-0.000122597;-0.00198735;0.00140842;0.00289105;0.00268741;0.0193112;0;0.0242902;0.000889761;-0.309238;-0.842087;0.897073;-6.85689;0.000423629;0.000235508;-0.000705427;0.000470783;-0.000752581;0.000611682;0.600528;1.6652;0.000712529;0.000815576;0.625558;1.59857;94.3976;139.398;0.00218455;0.000423636;0.00027022;0.000200756;-0.000705435;-0.00362079;0.0148315;0;0.0422178;0.0662928;3.77016
238000;239;25.7616;0.00406241;0.000157717;-2.27941;25.6531;0.618271;0.0245316;0.0262108;-0.566895;-0.020921;-0.289228;-0.280953;0.403764;-7.44541;-0.000324013;-0.000439738;0.00287985;0.00293911;-0.000383272;0.00166119;0.11251;8.88807;0.00209886;0.00221492;7.66847;0.130404;70.6772;115.677;0.00244668;-0.000324788;-0.00220555;0.00132044;0.00287752;0.00255602;0.0201767;0;0.0332282;0.000418115;-0.311584;-0.849337;0.904687;-6.86414;0.000407723;7.69802e-05;-0.000732445;0.000412897;-0.000737619;0.000575258;0.556661;1.79643;0.000673012;0.000767011;0.55977;1.78645;121.114;166.114;0.00166732;0.00040768;-0.000150755;0.000304976;-0.000732453;-0.00528674;0.0176733;0;0.0448233;0.0695278;3.77586
239000;240;25.7628;0.00532199;0.000206619;-2.27998;25.6544;0.61616;0.0239586;0.0274756;-0.569007;-0.0213573;-0.289009;-0.28595;0.407124;-7.45041;-0.000191019;-0.000511464;0.00278417;0.00286964;-0.000276489;0.00157307;0.0686088;14.5754;0.0020116;0.00209742;10.3789;0.0963497;72.1586;117.159;0.00258877;-0.000191758;-0.00234722;0.00131884;0.00278155;0.0022154;0.0197761;0;0.0408796;-9.30985e-05;-0.311374;-0.8596;0.914257;-6.8744;0.000530358;0.000217969;-0.000719341;0.000567284;-0.000756267;0.000661776;0.737283;1.35633;0.000766745;0.000882368;0.750111;1.33314;104.994;149.994;0.00196252;0.000530354;0.00020003;0.00023593;-0.000719337;-0.0083667;0.0198787;0;0.046769;0.0729063;3.78338
240000;241;25.76;0.00252213;9.79182e-05;-2.27969;25.6518;0.608619;0.0242444;0.0248693;-0.576547;-0.0211034;-0.294094;-0.279865;0.406523;-7.44432;-0.000281298;-0.000475317;0.00252911;0.00260733;-0.00035951;0.00148342;0.111224;8.99087;0.00186961;0.00197789;7.25244;0.137885;70.5339;115.534;0.00258365;-0.000282029;-0.00225469;0.00129907;0.00252669;0.00153105;0.0197065;0;0.0291131;0.000325867;-0.315591;-0.857452;0.913685;-6.87225;0.000350252;0.000112315;-0.00067299;0.000362435;-0.000685173;0.000523804;0.520441;1.92145;0.000614329;0.000698405;0.528968;1.89047;127.339;172.339;0.00157058;0.00035017;-0.000194694;0.000419638;-0.000673003;-0.00523001;0.0219748;0;0.0414766;0.074624;3.78665
241000;242;25.7575;-3.07915e-07;-1.19544e-08;-2.27941;25.6494;0.602627;0.0245252;0.0225026;-0.582539;-0.0221122;-0.295178;-0.283573;0.409918;-7.44803;-0.0002794;-0.000653464;0.00275874;0.00289333;-0.00041399;0.00165366;0.101278;9.87377;0.00208065;0.00220488;6.98888;0.143084;74.3298;119.33;0.00286372;-0.000279785;-0.00240588;0.00109365;0.00275606;0.000951585;0.0190619;0;0.0280172;-0.000617486;-0.316304;-0.867321;0.923198;-6.88212;0.000430432;0.000234058;-0.00073182;0.000475797;-0.000777184;0.00062649;0.588166;1.7002;0.000730351;0.000835321;0.612205;1.63344;134.509;179.509;0.00085576;0.000430285;-0.00012193;0.000590461;-0.0007318;-0.00251848;0.0228939;0;0.0334007;0.0773399;3.79166
242000;243;25.7593;0.00175467;6.81225e-05;-2.27948;25.6513;0.597487;0.0244585;0.0243793;-0.587679;-0.0222318;-0.298052;-0.282184;0.411044;-7.44664;-0.000281501;-0.000566359;0.00233609;0.00245338;-0.000398787;0.00142608;0.120501;8.29869;0.00178344;0.00190144;6.1521;0.162546;71.5877;116.588;0.00278032;-0.000282099;-0.00236891;0.00123148;0.00233345;0.00118627;0.0191132;0;0.0255506;-0.000316465;-0.31908;-0.872927;0.929416;-6.88773;0.000373828;0.000210113;-0.000826545;0.000409543;-0.00086226;0.000635902;0.452278;2.21103;0.000749622;0.000847869;0.474965;2.10542;133.343;178.343;-3.22937e-05;0.000373566;-0.000332665;0.000753542;-0.000826578;-0.000887815;0.0229655;0;0.0285022;0.0815175;3.80303
243000;244;25.7581;0.000533094;2.06966e-05;-2.28057;25.6501;0.592133;0.0233672;0.0231798;-0.593033;-0.0221041;-0.299394;-0.282878;0.412487;-7.44734;-0.000318473;-0.000502971;0.002342;0.00243391;-0.000410386;0.00142215;0.135984;7.35383;0.00177529;0.0018962;5.93078;0.168612;69.9179;114.918;0.0028888;-0.000319212;-0.0023262;0.00131542;0.00233943;0.00125194;0.0190331;0;0.0216573;-0.00036619;-0.321253;-0.876137;0.933177;-6.89094;0.000446951;0.000157373;-0.00124474;0.000461467;-0.00125925;0.000860361;0.359072;2.78496;0.00102844;0.00114715;0.36646;2.72881;121.455;166.455;0.000809602;0.000446736;-0.000359236;0.000674857;-0.00124479;-0.00317314;0.025337;0;0.0265596;0.0835634;3.80405
244000;245;25.7578;0.000262282;1.01827e-05;-2.28073;25.6501;0.579839;0.0232085;0.0231745;-0.605327;-0.021944;-0.302283;-0.280226;0.412775;-7.44468;-0.000228714;-0.000665991;0.00175567;0.00195846;-0.000431507;0.00119498;0.130272;7.67626;0.00147073;0.00159331;4.53866;0.220329;73.3018;118.302;0.00226248;-0.000229165;-0.00249539;0.00115978;0.00175278;0.00310879;0.0194178;0;0.0265361;-0.000242531;-0.324521;-0.880107;0.938031;-6.89491;0.00039715;0.000255646;-0.00158201;0.000429638;-0.0016145;0.00102207;0.251041;3.98341;0.00124452;0.00136276;0.266113;3.75781;122.584;167.584;0.000327539;0.000396704;-0.000466272;0.000978995;-0.00158209;-0.00213694;0.0253423;0;0.0245227;0.0879314;3.81176
245000;246;25.7605;0.00294194;0.000114217;-2.2809;25.6529;0.573696;0.0230368;0.0259883;-0.611471;-0.022306;-0.303284;-0.282328;0.414956;-7.44679;-0.000365543;-0.000790943;0.00195371;0.00219777;-0.000609599;0.00140368;0.187102;5.34469;0.0017051;0.00187158;3.60527;0.277372;73.9656;118.966;0.00197703;-0.000365757;-0.00261287;0.00102677;0.00195062;0.00318517;0.0184128;0;0.0380723;-0.000776978;-0.325805;-0.889741;0.947517;-6.90454;0.00035642;7.12684e-05;-0.00144996;0.000359227;-0.00145277;0.000905998;0.245813;4.06813;0.00110784;0.001208;0.247271;4.04415;117.414;162.414;0.00012562;0.000356156;-0.000586477;0.000730203;-0.00145013;-0.00451341;0.0246295;0;0.0293558;0.092468;3.8191
246000;247;25.7607;0.00314628;0.00012215;-2.2807;25.6532;0.569941;0.0232373;0.026295;-0.615225;-0.0230491;-0.307585;-0.278455;0.415544;-7.44291;-0.000367854;-0.000837205;0.00100202;0.00139877;-0.000764607;0.00108169;0.367113;2.72396;0.00126679;0.00144225;1.8294;0.546627;75.5194;120.519;0.00210003;-0.000367919;-0.00258763;0.000910823;0.000999024;0.00167438;0.0192302;0;0.0239376;-0.000977551;-0.330017;-0.895007;0.953912;-6.90728;0.000211515;0.000300067;-0.001427;0.000264739;-0.00148022;0.00087248;0.148224;6.74655;0.00108587;0.00116331;0.178851;5.59125;127.949;172.949;0.00244517;0.000210848;-0.000591719;0.00119332;-0.00142713;-0.00786042;0.0206311;0;0.0288094;0.0974039;3.82721
247000;248;25.763;0.00551699;0.000214189;-2.28113;25.6555;0.57017;0.0228103;0.0286326;-0.614996;-0.0227499;-0.307787;-0.28145;0.41769;-7.44591;-0.000342564;-0.000639592;0.0011891;0.00142106;-0.000574518;0.000997787;0.288086;3.47118;0.0011862;0.00133038;2.47348;0.404289;71.6933;116.693;0.00232138;-0.000342994;-0.0024086;0.00112671;0.00118641;0.00124831;0.018602;0;0.0285544;-0.00171689;-0.330711;-0.900694;0.959491;-6.91296;0.000158929;0.000130907;-0.00148623;0.000169281;-0.00149658;0.00083293;0.106935;9.3515;0.00105867;0.00111057;0.113112;8.84082;123.12;168.12;0.00288357;0.000158265;-0.000896435;0.00115994;-0.00148662;-0.0118751;0.0201924;0;0.027332;0.0988625;3.83354
248000;249;25.7656;0.008112;0.000314937;-2.2813;25.6581;0.572353;0.0226403;0.0311748;-0.612813;-0.0223397;-0.307768;-0.285226;0.420207;-7.44968;-0.000296709;-0.000360079;0.000857688;0.000960794;-0.000399815;0.000680305;0.34594;2.89067;0.000807497;0.000907073;2.4031;0.41613;65.3529;110.353;0.00275069;-0.000297729;-0.00219531;0.00147304;0.000855345;0.000257123;0.0186853;0;0.0230632;-0.000814729;-0.332755;-0.906819;0.965943;-6.91909;7.44686e-05;0.000160428;-0.00163015;8.94356e-05;-0.00164511;0.000867275;0.0456821;21.8904;0.00112774;0.00115637;0.0543643;18.3944;115.327;160.327;0.00277189;7.41511e-05;-0.000490884;0.000812851;-0.00163026;-0.0101307;0.0195905;0;0.0289532;0.104055;3.84084
249000;250;25.7639;0.00640557;0.000248687;-2.28074;25.6567;0.556967;0.0231999;0.0298496;-0.628199;-0.0221521;-0.309419;-0.285802;0.421798;-7.45026;-0.000249847;-0.000517119;0.00115749;0.00132707;-0.000419427;0.000873248;0.215853;4.63279;0.00105275;0.00116433;3.16401;0.316055;70.414;115.414;0.00242644;-0.000250484;-0.00227788;0.00124117;0.00115503;0.00122686;0.0178038;0;0.056166;-0.000937017;-0.334561;-0.915543;0.974757;-6.92781;-3.54982e-05;2.16002e-05;-0.00134422;-3.51418e-05;-0.00134458;0.000654717;-0.026408;-37.8673;0.000884903;0.000872956;-0.0261359;-38.2615;115.777;160.777;0.00297012;-3.58454e-05;-0.000789293;0.000833556;-0.00134453;-0.00836401;0.0220313;0;0.0536354;0.108954;3.84794
250000;251;25.7634;0.00586959;0.000227879;-2.28001;25.6564;0.551893;0.0239279;0.0294857;-0.633273;-0.0227973;-0.31059;-0.288;0.424181;-7.45246;-0.000343319;-0.000448616;0.000837798;0.00098887;-0.000494391;0.00074163;0.409788;2.44029;0.000872079;0.00098884;2.00018;0.499956;67.7842;112.784;0.00210505;-0.000343995;-0.00214504;0.00124581;0.0008356;0.00295097;0.0195581;0;0.0415154;-0.0017558;-0.334625;-0.924496;0.983194;-6.9393;-7.26143e-05;-1.68843e-06;-0.00137269;-7.26121e-05;-0.00137269;0.000650041;-0.0528992;-18.9039;0.000891911;0.000866721;-0.0528975;-18.9045;114.474;159.474;0.00169504;-7.29605e-05;-0.000834312;0.000832019;-0.00137304;-0.00646962;0.0226821;0;0.0439347;0.112614;3.85215
251000;252;25.7637;0.00613379;0.000238136;-2.27936;25.6568;0.548357;0.0245765;0.0298845;-0.636809;-0.0221628;-0.312628;-0.283702;0.422746;-7.44816;-0.000292414;-0.000480964;0.000989645;0.00115002;-0.000452787;0.000801402;0.295474;3.3844;0.000954118;0.00106854;2.53987;0.393722;69.068;114.068;0.0023302;-0.000293115;-0.00224226;0.00127808;0.000987249;0.00164719;0.0176607;0;0.0324075;-0.000745667;-0.33672;-0.925594;0.984939;-6.94039;-0.00015562;-6.1799e-06;-0.00151567;-0.000155592;-0.00151569;0.000680051;-0.102675;-9.73951;0.000962798;0.000906734;-0.102654;-9.74145;109.847;154.847;0.00193207;-0.000155865;-0.000711425;0.000700026;-0.00151592;-0.004476;0.0226707;0;0.0423915;0.118233;3.86132
252000;253;25.7635;0.00598799;0.000232476;-2.27888;25.6568;0.543567;0.0250584;0.0298828;-0.641599;-0.0236442;-0.316543;-0.278296;0.422146;-7.44275;-0.000318922;-0.000399736;0.00075247;0.000885174;-0.000451626;0.0006684;0.423833;2.35942;0.000785215;0.0008912;1.95997;0.510211;66.8687;111.869;0.00256151;-0.000319789;-0.00217758;0.0013762;0.000750181;0.000754859;0.0193832;0;0.0332273;-0.00242861;-0.340477;-0.925857;0.98648;-6.94066;-4.28473e-07;6.57441e-05;-0.00127175;2.96234e-06;-0.00127514;0.000639049;;;0.00085108;0.000852066;;;104.208;149.208;0.00153681;-4.80543e-07;-0.000197515;0.000329338;-0.00127176;-0.00571954;0.0244375;0;0.0429457;0.124128;3.86849
253000;254;25.7632;0.00564368;0.000219108;-2.27833;25.6566;0.537258;0.0256051;0.0297185;-0.647908;-0.0233084;-0.316713;-0.281912;0.424646;-7.44637;-0.000294585;-0.000488077;0.000890232;0.0010654;-0.000469748;0.000767572;0.330907;3.02199;0.000908283;0.00102343;2.26801;0.440914;69.8119;114.812;0.00289096;-0.000295167;-0.00216276;0.00118462;0.000888015;-2.01621e-05;0.0195514;0;0.0335378;-0.00202118;-0.340325;-0.936092;0.996039;-6.95089;-8.16234e-05;-1.12479e-05;-0.00116604;-8.15067e-05;-0.00116616;0.000542325;-0.0700005;-14.2856;0.000751743;0.0007231;-0.0698935;-14.3075;105.492;150.492;0.00131053;-8.1696e-05;-0.00040318;0.00038111;-0.00116612;-0.00201291;0.0273242;0;0.0445827;0.129393;3.87184
254000;255;25.7644;0.00692024;0.000268669;-2.27797;25.6579;0.535806;0.0259704;0.0310632;-0.649361;-0.0232833;-0.318437;-0.28234;0.426216;-7.4468;-0.000299408;-0.000330563;0.000641787;0.000746284;-0.000403906;0.000575095;0.466523;2.14352;0.000673798;0.000766793;1.84767;0.541222;65.3475;110.348;0.0017829;-0.000300373;-0.00209034;0.00142756;0.000639658;0.00325982;0.0199303;0;0.0601954;-0.00258006;-0.342759;-0.939092;0.999692;-6.95389;-2.52949e-05;2.23294e-05;-0.00089723;-2.47234e-05;-0.000897801;0.000436539;-0.0281922;-35.4708;0.000590466;0.000582052;-0.0275377;-36.3138;112.386;157.386;0.00197096;-2.53893e-05;-0.000390217;0.000435236;-0.000897306;-0.00356714;0.0291717;0;0.068764;0.134849;3.88149
255000;256;25.7636;0.0061252;0.000237802;-2.27754;25.6573;0.532277;0.0264001;0.0303764;-0.652889;-0.022722;-0.320406;-0.280727;0.426596;-7.44518;-0.000222351;-0.000670755;0.000487176;0.000891208;-0.000626382;0.000758795;0.456407;2.19103;0.000880617;0.00101173;1.42279;0.702847;78.2015;123.202;0.00241595;-0.000222754;-0.00246345;0.00112067;0.000484368;0.00229528;0.0190483;0;0.0339847;-0.00112921;-0.344068;-0.942776;1.0036;-6.95758;2.5834e-05;-8.23564e-05;-0.000798141;3.39849e-05;-0.000806292;0.000420138;0.0323677;30.895;0.000549207;0.000560185;0.0421496;23.725;93.8006;138.801;0.0019821;2.58361e-05;-0.0002145;4.98961e-05;-0.000798161;-0.0029744;0.0297973;0;0.0376584;0.141102;3.88562
256000;257;25.762;0.0045063;0.000174951;-2.27695;25.656;0.517996;0.0269837;0.0290949;-0.66717;-0.0238898;-0.319832;-0.286735;0.430209;-7.45119;-0.000165972;-0.000403509;0.000512869;0.00070073;-0.000353833;0.000527281;0.323614;3.0901;0.000619735;0.000703042;1.9804;0.504949;72.8182;117.818;0.00236319;-0.000166798;-0.00215561;0.0013474;0.000510628;0.00204415;0.0206752;0;0.0508651;-0.00229262;-0.342726;-0.95833;1.01777;-6.97313;-0.000126851;-0.000246002;-0.000717827;-3.78522e-05;-0.000806826;0.000384487;-0.176716;-5.6588;0.000525721;0.000512649;-0.046915;-21.3151;86.5548;131.555;0.00203949;-0.000126822;-0.000518881;2.70375e-05;-0.000717931;-0.00120818;0.0265851;0;0.0521247;0.148077;3.89248
257000;258;25.7632;0.00572351;0.000222207;-2.27661;25.6572;0.519566;0.0273316;0.0303163;-0.6656;-0.0237164;-0.322321;-0.28544;0.431195;-7.4499;-0.000120412;-0.000362653;0.000833192;0.000955437;-0.000242657;0.000599047;0.144519;6.91949;0.000731387;0.000798729;3.9374;0.253975;69.3194;114.319;0.00200878;-0.000121348;-0.00214227;0.00141527;0.000830965;0.00309971;0.0199249;0;0.0324959;-0.00183298;-0.345396;-0.960421;1.02064;-6.97522;-0.000174178;-0.000208492;-0.000501325;-7.27508e-05;-0.000602752;0.000265001;-0.347435;-2.87824;0.000379913;0.000353334;-0.120698;-8.28516;90.9523;135.952;0.00253533;-0.000174188;-0.0006694;0.000252567;-0.000501527;-0.00160633;0.0299186;0;0.0373225;0.156345;3.89966
258000;259;25.7612;0.00370935;0.00014401;-2.27723;25.6553;0.510456;0.0267019;0.0284208;-0.67471;-0.0241793;-0.323908;-0.283914;0.431402;-7.44837;-7.91204e-05;-0.000235657;0.00114845;0.00119213;-0.000122805;0.000657469;0.0688932;14.5152;0.000838693;0.000876626;9.70753;0.103013;64.2493;109.249;0.00217615;-8.01659e-05;-0.00193847;0.00146507;0.0011466;0.00348073;0.0186823;0;0.0358272;-0.00238628;-0.346245;-0.965248;1.02547;-6.98005;-0.0001123;-0.000123637;-0.000636002;-8.45792e-05;-0.000663723;0.000289572;-0.176572;-5.6634;0.000417157;0.000386096;-0.127431;-7.84736;86.4023;131.402;0.00192123;-0.000112293;-0.000245701;-1.50884e-06;-0.000636025;0.0011553;0.0287299;0;0.0441621;0.161161;3.90657
259000;260;25.7607;0.0032145;0.000124799;-2.27748;25.6549;0.503891;0.0264564;0.0280319;-0.681275;-0.0241148;-0.32414;-0.283747;0.431463;-7.4482;-0.000287762;-0.000421409;0.000870571;0.00100766;-0.000424849;0.000716254;0.330543;3.02532;0.000849569;0.000955005;2.3718;0.42162;67.7268;112.727;0.00266937;-0.000288578;-0.00219004;0.00134518;0.000868264;0.00167453;0.0193998;0;0.0293716;-0.00260682;-0.346725;-0.970897;1.03095;-6.9857;-0.000115839;-0.000333715;-0.000594548;5.54841e-05;-0.000765871;0.000410678;-0.194836;-5.13252;0.000530044;0.00054757;0.0724458;13.8034;85.4731;130.473;0.00295954;-0.000115784;-0.000692326;2.50679e-05;-0.000594732;0.000742215;0.0306106;0;0.0376332;0.171326;3.91439
260000;261;25.7603;0.00279282;0.000108427;-2.27702;25.6546;0.501325;0.0269198;0.0276999;-0.683841;-0.023289;-0.326367;-0.280946;0.431263;-7.4454;-0.000166572;-0.000246719;0.00102072;0.00106995;-0.000215799;0.000642874;0.163191;6.12781;0.000795055;0.000857165;4.95808;0.201691;63.175;108.175;0.00304389;-0.000167667;-0.0019958;0.00150028;0.00101876;0.00123648;0.0195511;0;0.0321484;-0.00146682;-0.348455;-0.973309;1.0338;-6.98811;-0.000118518;-0.000380261;-0.000578898;9.57981e-05;-0.000793215;0.000444507;-0.204731;-4.88446;0.000563464;0.000592675;0.120772;8.28007;82.948;127.948;0.00117583;-0.000118447;-0.000725168;-3.51956e-05;-0.000579089;0.00428183;0.0301966;0;0.035965;0.179128;3.92113
261000;262;25.7568;-0.000713342;-2.76945e-05;-2.27769;25.6513;0.488112;0.0262429;0.024374;-0.697054;-0.0246205;-0.32619;-0.287774;0.435683;-7.45223;-0.000147763;-0.000241528;0.00143886;0.00147481;-0.000183716;0.000829265;0.102695;9.73761;0.00104982;0.00110569;8.02769;0.124569;63.2519;108.252;0.00288097;-0.00014898;-0.00206466;0.00157872;0.00143676;0.00253621;0.0194817;0;0.0286446;-0.00330909;-0.348322;-0.987892;1.04751;-7.00269;-0.000110553;-0.000348014;-0.000595381;7.11538e-05;-0.000777088;0.000424121;-0.185684;-5.38549;0.000543332;0.000565494;0.0915647;10.9212;90.9938;135.994;0.00185693;-0.000110512;-0.000893644;0.000197881;-0.00059572;0.00487626;0.0287948;0;0.0360545;0.18991;3.92858
262000;263;25.7559;-0.00157489;-6.11429e-05;-2.27752;25.6505;0.484138;0.0264136;0.0235994;-0.701028;-0.024911;-0.329782;-0.281114;0.434053;-7.44557;-0.000219833;-0.00012437;0.00164689;0.00165514;-0.000228082;0.00094161;0.133484;7.49155;0.00118678;0.00125548;7.25675;0.137803;59.1889;104.189;0.00293544;-0.000221373;-0.00201173;0.00175948;0.00164488;0.00229652;0.0185698;0;0.0415513;-0.00354131;-0.351274;-0.984038;1.04486;-6.99884;-0.000276508;-0.000295553;-0.000668764;-0.000117928;-0.000827344;0.000354708;-0.413462;-2.4186;0.000516758;0.000472944;-0.142538;-7.01565;89.5822;134.582;0.00267815;-0.000276542;-0.000984918;0.000394083;-0.000669206;0.000294476;0.0276424;0;0.0428653;0.193954;3.9336
263000;264;25.7594;0.00186878;7.25529e-05;-2.27821;25.654;0.477614;0.0257257;0.0271184;-0.707553;-0.0242115;-0.33037;-0.284323;0.436543;-7.44878;-0.000116621;-8.11264e-05;0.00166162;0.00166531;-0.000120314;0.000892814;0.0701848;14.2481;0.00115241;0.00119042;13.8414;0.0722471;59.0059;104.006;0.00240465;-0.000118167;-0.00192607;0.00176054;0.00165977;0.00350516;0.0186623;0;0.028584;-0.00274678;-0.352179;-0.994099;1.05464;-7.0089;-0.000317532;-0.000343253;-0.0010404;-0.000180511;-0.00117742;0.000498455;-0.305201;-3.27652;0.000732232;0.000664607;-0.153311;-6.5227;91.7127;136.713;0.00208062;-0.000317546;-0.00106898;0.000382999;-0.00104091;0.00231083;0.0303176;0;0.0296706;0.207775;3.94287
264000;265;25.7595;0.00200601;7.78807e-05;-2.27933;25.6541;0.472671;0.0246021;0.027248;-0.712495;-0.0242223;-0.332282;-0.282592;0.436871;-7.44705;3.41315e-06;-1.81534e-05;0.00195659;0.00195675;3.24444e-06;0.000976755;;;0.00130342;0.00130234;;;59.3743;104.374;0.00303345;1.69632e-06;-0.00189306;0.0018531;0.0019548;0.00294319;0.0184524;0;0.0321283;-0.00280892;-0.355208;-0.995855;1.05731;-7.01066;-0.000325202;-0.000453932;-0.00110264;-0.000116295;-0.00131155;0.000597625;-0.294931;-3.39063;0.000838292;0.000796834;-0.08867;-11.2778;86.8801;131.88;0.00121419;-0.000325122;-0.00112306;0.000215718;-0.00110317;0.00204957;0.0289724;0;0.0292959;0.215212;3.94583
265000;266;25.7587;0.00121932;4.73386e-05;-2.28074;25.6534;0.461239;0.0231943;0.026541;-0.723928;-0.0246602;-0.333974;-0.282743;0.438281;-7.4472;-0.000116845;-0.00013615;0.00215958;0.0021677;-0.000124959;0.00114633;0.0541055;18.4824;0.00148853;0.00152844;17.3472;0.0576461;62.7394;107.739;0.00213278;-0.000118343;-0.00201225;0.00173569;0.00215757;0.00401571;0.0180579;0;0.0246556;-0.0039556;-0.356315;-1.00458;1.0659;-7.01938;-0.000447272;-0.000656467;-0.00132973;-9.75317e-05;-0.00167947;0.000790968;-0.336364;-2.97297;0.00108859;0.00105462;-0.058073;-17.2197;82.6444;127.644;6.71298e-05;-0.000447065;-0.001438;0.00012576;-0.00133055;0.00362789;0.0290953;0;0.028164;0.22785;3.95304
266000;267;25.7605;0.00298289;0.000115807;-2.2804;25.6552;0.460395;0.0235337;0.0283571;-0.724771;-0.024097;-0.33424;-0.288055;0.441897;-7.45251;-0.000202991;-0.000158123;0.00257335;0.00258233;-0.000211968;0.00139715;0.078882;12.6772;0.00179638;0.00186286;12.1826;0.082084;64.9122;109.912;0.00277883;-0.000204334;-0.00196773;0.00164647;0.00257143;0.00427998;0.0193102;0;0.0238822;-0.00298534;-0.35748;-1.01304;1.07427;-7.02784;-0.000442091;-0.000692789;-0.00129834;-5.58145e-05;-0.00168461;0.0008144;-0.340505;-2.93682;0.00110494;0.00108587;-0.0331319;-30.1824;83.7921;128.792;0.000750313;-0.000441871;-0.00158824;0.000203431;-0.00129936;0.00134709;0.0282863;0;0.0290895;0.237316;3.95838
267000;268;25.7613;0.00379204;0.000147221;-2.28151;25.656;0.459362;0.0224218;0.0290893;-0.725804;-0.0244623;-0.337213;-0.284795;0.442063;-7.44925;-5.86001e-05;-0.000172769;0.00279011;0.00280055;-6.90399e-05;0.00143479;0.0210028;47.6127;0.00189046;0.00191306;40.5642;0.0246523;65.9215;110.921;0.00255876;-6.01796e-05;-0.00213678;0.00178566;0.00278785;0.00433701;0.0202702;0;0.0306536;-0.00367582;-0.360508;-1.01392;1.07611;-7.02873;-0.000304677;-0.000677792;-0.00139972;1.91117e-05;-0.00172351;0.00087131;-0.21767;-4.5941;0.00115543;0.00116175;0.0110888;90.1809;86.3502;131.35;0.00114781;-0.000304457;-0.00149268;0.000137986;-0.0014006;0.00114766;0.0278443;0;0.0296812;0.248984;3.96628
268000;269;25.7637;0.00619167;0.000240383;-2.28128;25.6585;0.454279;0.02266;0.0316104;-0.730888;-0.0246757;-0.338717;-0.286223;0.444142;-7.45068;-0.000235617;-0.000117151;0.00250462;0.00250962;-0.000240616;0.00137512;0.0940729;10.6301;0.00175878;0.00183349;10.43;0.0958775;62.0666;107.067;0.00264034;-0.000237439;-0.00215204;0.00191218;0.00250232;0.00445538;0.0193506;0;0.0387529;-0.00394035;-0.362822;-1.02075;1.08332;-7.03555;-0.000525653;-0.000840337;-0.00137129;-7.75789e-06;-0.00188919;0.000940714;-0.383327;-2.60874;0.00125688;0.00125429;;;77.4677;122.468;0.000766359;-0.000525304;-0.00158616;-9.38785e-05;-0.0013722;0.00337876;0.0267592;0;0.0342223;0.262832;3.97391
269000;270;25.7637;0.0062029;0.000240819;-2.28195;25.6585;0.45029;0.0219835;0.0316319;-0.734876;-0.0245612;-0.342478;-0.283358;0.445181;-7.44782;-0.000266739;-0.000145914;0.00290841;0.0029151;-0.00027343;0.00159427;0.091713;10.9036;0.00204066;0.00212569;10.6612;0.0937979;64.5626;109.563;0.00238325;-0.000268392;-0.00212208;0.00182399;0.00290618;0.00563599;0.0199543;0;0.0231658;-0.00456305;-0.366895;-1.02231;1.08617;-7.03711;-0.000549058;-0.000794228;-0.0013402;-5.73432e-05;-0.00183191;0.000887284;-0.409685;-2.4409;0.00120262;0.00118305;-0.0313024;-31.9464;71.6521;116.652;0.00144516;-0.000548793;-0.00127129;-0.000316793;-0.00134069;0.00242618;0.0287987;0;0.033655;0.280424;3.98113
270000;271;25.7626;0.00511168;0.000198454;-2.28164;25.6576;0.441224;0.0222972;0.0307216;-0.743942;-0.0253611;-0.342763;-0.285748;0.446969;-7.45021;-0.000225944;-0.000175403;0.0031101;0.0031193;-0.000235141;0.00167722;0.0726483;13.765;0.00216218;0.00223629;13.2657;0.0753825;66.4302;111.43;0.00289394;-0.00022746;-0.00210751;0.00175028;0.0031079;0.00432241;0.0205202;0;0.024541;-0.00559348;-0.367207;-1.03017;1.09367;-7.04497;-0.000397072;-0.000814943;-0.00129158;8.5281e-05;-0.00177393;0.000929606;-0.307431;-3.25276;0.00121205;0.00123947;0.0480746;20.801;78.3229;123.323;0.00156574;-0.000396752;-0.00147091;-0.000158386;-0.00129233;0.00257539;0.0302956;0;0.0379301;0.291021;3.98828
271000;272;25.7631;0.00553881;0.000215037;-2.28164;25.6581;0.438252;0.0222926;0.031201;-0.746914;-0.0254833;-0.344529;-0.286827;0.449021;-7.45128;-0.000304183;-0.000167758;0.00317687;0.00318494;-0.000312249;0.00174859;0.0957492;10.4439;0.00223466;0.00233146;10.2;0.0980393;65.3369;110.337;0.00285024;-0.000305924;-0.00221573;0.00187311;0.00317444;0.0034898;0.0197256;0;0.027741;-0.00594878;-0.36955;-1.0336;1.0977;-7.0484;-0.000565843;-0.000735412;-0.00113056;-6.04471e-05;-0.00163595;0.000787754;-0.500499;-1.998;0.00107106;0.00105034;-0.0369491;-27.0642;61.9989;106.999;0.00163532;-0.000565719;-0.000930912;-0.000539801;-0.00113072;0.00413887;0.0310225;0;0.0439269;0.307407;3.99612
272000;273;25.7623;0.00475511;0.000184611;-2.28162;25.6574;0.431659;0.0223132;0.0305277;-0.753507;-0.0248356;-0.346371;-0.285476;0.44954;-7.44993;-0.000189187;2.43026e-05;0.00307549;0.00307567;-0.000189368;0.00163252;0.0615143;16.2564;0.0021164;0.00217669;16.2418;0.0615695;62.3513;107.351;0.00268883;-0.00019128;-0.00200386;0.00204586;0.00307349;0.00401557;0.0203665;0;0.0326365;-0.00594286;-0.371216;-1.03679;1.10126;-7.05159;-0.000541248;-0.0007884;-0.000961969;6.43736e-05;-0.00156759;0.000815982;-0.562645;-1.77732;0.00106717;0.00108798;0.0410653;24.3515;62.0859;107.086;0.00146887;-0.000541075;-0.00105035;-0.000526342;-0.000962211;0.00487868;0.0296386;0;0.0468602;0.324004;4.00378
273000;274;25.764;0.00649029;0.000251976;-2.28264;25.659;0.434883;0.0212963;0.032125;-0.750283;-0.0246018;-0.349126;-0.285455;0.45164;-7.44991;-0.000289108;-0.000159997;0.00306269;0.00307031;-0.000296728;0.00168352;0.0943967;10.5936;0.00215261;0.00224469;10.3472;0.0966443;64.8075;109.807;0.00273939;-0.000290874;-0.0022129;0.00188605;0.00306026;0.00483052;0.0201059;0;0.0308906;-0.00595341;-0.373936;-1.04091;1.10605;-7.05571;-0.000449232;-0.000733046;-0.000707838;0.000165828;-0.0013229;0.000744362;-0.634654;-1.57566;0.000942085;0.000992483;0.125352;7.97754;57.1006;102.101;0.00290231;-0.000449135;-0.000879306;-0.000586748;-0.000707956;0.00299999;0.0326992;0;0.0475996;0.345058;4.0108
274000;275;25.7629;0.00541802;0.000210347;-2.28305;25.6579;0.432729;0.0208852;0.0310482;-0.752437;-0.0246223;-0.350835;-0.287471;0.454237;-7.45193;-0.000358859;-0.000248662;0.00296726;0.00298575;-0.000377347;0.00168155;0.120939;8.2686;0.00212747;0.00224206;7.91249;0.126383;65.7287;110.729;0.002883;-0.000360388;-0.00226964;0.00176562;0.00296473;0.00386877;0.0205849;0;0.0308748;-0.0062108;-0.375131;-1.04578;1.11104;-7.06058;-0.000455991;-0.000770551;-0.000715206;0.000195776;-0.00136697;0.000781375;-0.637565;-1.56847;0.000983094;0.00104183;0.143219;6.98233;44.5718;89.5718;0.00254435;-0.000456079;-0.000663106;-0.000878024;-0.000715129;0.00295713;0.0329462;0;0.0482798;0.360142;4.01248
275000;276;25.7626;0.00510255;0.000198099;-2.28293;25.6577;0.427906;0.02101;0.0308235;-0.75726;-0.0239799;-0.35207;-0.284049;0.453004;-7.44851;-0.000218222;-0.000162117;0.00287698;0.00288544;-0.00022669;0.00155607;0.0758513;13.1837;0.00200347;0.00207476;12.7286;0.0785634;64.8142;109.814;0.00295473;-0.000219898;-0.0021681;0.00183768;0.00287465;0.00341213;0.0206633;0;0.0244507;-0.00609131;-0.376909;-1.04564;1.11152;-7.06044;-0.000432488;-0.00074204;-0.000530939;0.000261957;-0.00122539;0.000743671;-0.814572;-1.22764;0.000916803;0.000991562;0.213775;4.67781;40.5772;85.5772;0.00217091;-0.000432574;-0.000634061;-0.00085003;-0.000530865;0.00394073;0.0299784;0;0.0458014;0.380065;4.01854
276000;277;25.757;-0.000490819;-1.90554e-05;-2.28279;25.6523;0.414822;0.0211466;0.0254343;-0.770345;-0.0247791;-0.357897;-0.285194;0.458301;-7.44965;-0.000421319;-0.000292982;0.00221685;0.002249;-0.000453464;0.00135123;0.190053;5.2617;0.00167112;0.00180164;4.95959;0.201629;62.8115;107.812;0.00298596;-0.000422926;-0.00240762;0.0018161;0.002214;0.00357896;0.0223525;0;0.0238505;-0.00805509;-0.381646;-1.05497;1.12191;-7.06977;-0.000336761;-0.000776992;-0.000196903;0.000513301;-0.00104696;0.000780133;-1.71029;-0.584698;0.000918216;0.00104018;0.490275;2.03967;9.64849;54.6485;0.00177997;-0.000337389;-0.00019034;-0.00136356;-0.000196619;0.00526549;0.033537;0;0.0457509;0.441494;4.03878
277000;278;25.7573;-0.000213729;-8.29772e-06;-2.28329;25.6526;0.411797;0.0206449;0.0257166;-0.77337;-0.0242606;-0.359508;-0.286721;0.460482;-7.45118;-0.000389654;-0.000270511;0.0022576;0.00228496;-0.000417014;0.00135099;0.172596;5.79387;0.00167966;0.00180132;5.47935;0.182503;62.9807;107.981;0.0026023;-0.000391222;-0.00233776;0.00179128;0.00225491;0.00532871;0.021373;0;0.0237373;-0.00724933;-0.383949;-1.05797;1.12551;-7.07277;-0.000379484;-0.000712005;-0.00020882;0.000422948;-0.00101125;0.0007171;-1.81728;-0.550272;0.00085094;0.000956134;0.418242;2.39096;13.4487;58.4487;0.00134806;-0.000379895;-0.000271704;-0.00115223;-0.000208603;0.00630041;0.0343578;0;0.0432632;0.443077;4.03923
278000;279;25.756;-0.0015356;-5.96177e-05;-2.28266;25.6513;0.410787;0.0212747;0.0244616;-0.774379;-0.0240192;-0.362276;-0.283635;0.460727;-7.44809;-0.000446824;-0.000360932;0.00201439;0.00206622;-0.000498662;0.00128244;0.221816;4.50824;0.00157032;0.00170992;4.14354;0.24134;63.6439;108.644;0.00317776;-0.00044819;-0.00241864;0.00169173;0.00201153;0.00262801;0.020713;0;0.0336058;-0.00699985;-0.385349;-1.05654;1.12464;-7.07134;-0.000354813;-0.000691083;-0.000155711;0.000442954;-0.000953479;0.000698216;-2.27866;-0.438854;0.000823995;0.000930955;0.464566;2.15254;9.09907;54.0991;0.00162825;-0.000355301;-0.0001771;-0.00120496;-0.000155488;0.00642909;0.0334565;0;0.0451883;0.439314;4.03952
279000;280;25.757;-0.00056198;-2.18181e-05;-2.28274;25.6523;0.413494;0.0212007;0.0253891;-0.771672;-0.024186;-0.3606;-0.286766;0.461359;-7.45122;-0.000238857;-0.000101119;0.00242963;0.00243346;-0.000242683;0.00133807;0.0983097;10.1719;0.00170895;0.0017841;10.0273;0.0997275;61.3907;106.391;0.00265799;-0.000240703;-0.00213171;0.00192407;0.00242737;0.00414946;0.0222284;0;0.0294712;-0.00703132;-0.384292;-1.05939;1.12696;-7.07419;-0.000241478;-0.000696405;-0.000269373;0.000441119;-0.00095197;0.000696545;-0.896442;-1.11552;0.000822129;0.000928727;0.463375;2.15808;12.6427;57.6427;0.00150168;-0.000242037;-0.000126927;-0.0012659;-0.000269139;0.00598856;0.0323209;0;0.0514656;0.44155;4.03939
280000;281;25.7582;0.000719865;2.79477e-05;-2.28342;25.6536;0.407274;0.020513;0.0267145;-0.777892;-0.0235931;-0.365217;-0.284486;0.463544;-7.44894;-0.000429904;-0.000243746;0.00142659;0.00145806;-0.000461373;0.000959718;0.30135;3.3184;0.00115692;0.00127962;3.16027;0.316428;59.2434;104.243;0.00270344;-0.000431489;-0.00228808;0.00179679;0.00142401;0.00334748;0.021288;0;0.0299958;-0.00760194;-0.389601;-1.06156;1.13082;-7.07636;-0.000347625;-0.000700512;6.25401e-06;0.000551827;-0.000893198;0.000722512;;;0.00084201;0.00096335;0.61781;1.61862;1.06929;46.0693;0.00111539;-0.000348203;-0.000117925;-0.00128289;6.49242e-06;0.00583005;0.0333826;0;0.0404638;0.501152;4.05407
281000;282;25.7586;0.00111427;4.326e-05;-2.28431;25.654;0.404718;0.0196259;0.027072;-0.780448;-0.0240815;-0.367243;-0.285512;0.465794;-7.44997;-0.000368931;-0.000239985;0.00106504;0.00110414;-0.000408028;0.000756083;0.3464;2.88683;0.000903359;0.00100811;2.70604;0.369544;59.0028;104.003;0.00292372;-0.000370618;-0.0023353;0.00185233;0.00106235;0.00387678;0.019991;0;0.0315986;-0.00850469;-0.391979;-1.06562;1.13546;-7.08042;-0.000402342;-0.00061037;-0.000208856;0.000312391;-0.000923589;0.00061799;-1.92641;-0.519101;0.000742107;0.000823986;0.338235;2.95652;12.6426;57.6426;0.0012317;-0.000402716;-0.000162477;-0.00105818;-0.000208683;0.00512094;0.0322362;0;0.0369593;0.524437;4.06124
282000;283;25.7579;0.000350916;1.36238e-05;-2.2851;25.6532;0.402543;0.0188339;0.0262692;-0.782623;-0.0247264;-0.369711;-0.283139;0.466332;-7.4476;-0.000459351;-0.000298224;0.000913994;0.000975958;-0.000521315;0.000748637;0.502575;1.98975;0.000877635;0.000998182;1.87211;0.534157;60.1115;105.112;0.00214272;-0.000460649;-0.00223718;0.00163807;0.000911539;0.00404509;0.0196057;0;0.0388811;-0.00979116;-0.395572;-1.06419;1.13537;-7.07899;-0.000549649;-0.000742791;-0.000248904;0.000358582;-0.00115714;0.000757859;-2.20828;-0.452841;0.000914688;0.00101048;0.309888;3.22698;16.998;61.998;0.00194128;-0.000550019;-0.00034978;-0.00113568;-0.000248689;0.00521384;0.0352024;0;0.0377313;0.559986;4.06805
283000;284;25.7597;0.00213326;8.2821e-05;-2.28624;25.6549;0.396168;0.0176962;0.0280567;-0.788998;-0.0235814;-0.371746;-0.284567;0.468753;-7.44902;-0.0004383;-0.000182248;0.000847451;0.000872784;-0.000463633;0.000668209;0.517198;1.93349;0.000783542;0.000890945;1.88249;0.531212;55.9879;100.988;0.00270113;-0.000439786;-0.0021;0.00173304;0.000845264;0.0031715;0.0200284;0;0.0340775;-0.00937707;-0.398274;-1.07082;1.14253;-7.08562;-0.000812085;-0.000739504;-0.000370155;0.000180691;-0.00136293;0.000771811;-2.1939;-0.455809;0.000974451;0.00102908;0.132575;7.5429;15.7374;60.7374;0.000341858;-0.000812617;-0.000209649;-0.00126912;-0.000369904;0.00758637;0.0340057;0;0.0298549;0.594656;4.07551
284000;285;25.7617;0.00419784;0.000162975;-2.28732;25.657;0.393743;0.0166196;0.0300711;-0.791423;-0.0238262;-0.374065;-0.285062;0.470906;-7.44952;-0.000307291;-0.000196274;0.00072428;0.000760362;-0.000343374;0.000551868;0.424271;2.35698;0.000652225;0.000735824;2.21439;0.451592;58.5241;103.524;0.00242881;-0.000308777;-0.00212947;0.00173493;0.000722033;0.00364796;0.0206906;0;0.0344644;-0.0102247;-0.40196;-1.07342;1.14626;-7.08823;-0.000727948;-0.000737974;-0.000537704;0.000111254;-0.00137691;0.000744079;-1.35381;-0.738657;0.000957179;0.000992106;0.0807997;12.3763;15.2303;60.2303;0.000457834;-0.000728882;7.68391e-05;-0.00155263;-0.000537434;0.00876711;0.035242;0;0.0303816;0.631827;4.08263
285000;286;25.7637;0.00613922;0.000238347;-2.28848;25.6588;0.394068;0.0154612;0.0319121;-0.791098;-0.0240556;-0.377475;-0.282255;0.471947;-7.44671;-0.000383614;-8.60059e-05;0.000210947;0.000223139;-0.000395805;0.000309472;1.81853;0.549895;0.000361953;0.000412629;0.563759;1.77381;51.8098;96.8098;0.00257779;-0.000385296;-0.00200902;0.00183587;0.000208933;0.00387906;0.02138;0;0.0432982;-0.0112695;-0.406115;-1.07356;1.14786;-7.08836;-0.000671155;-0.00083696;-0.00060269;0.000200737;-0.00147458;0.00083766;-1.1136;-0.897989;0.00105634;0.00111688;0.136132;7.34582;23.9038;68.9038;-0.000115903;-0.000671741;-0.000305786;-0.0013681;-0.000602386;0.00562172;0.0325776;0;0.0327862;0.668334;4.08971
286000;287;25.7675;0.0100189;0.00038897;-2.28981;25.6625;0.395684;0.0141221;0.0356633;-0.789482;-0.0244084;-0.3788;-0.285723;0.475103;-7.45018;-0.000430815;-7.87971e-05;0.00063259;0.000638397;-0.000436623;0.00053751;0.681035;1.46835;0.000624296;0.000716679;1.46212;0.683936;50.7832;95.7832;0.00300546;-0.000432421;-0.00195307;0.00179348;0.000630687;0.00276521;0.0201617;0;0.0409242;-0.0121188;-0.40946;-1.07674;1.15203;-7.09154;-0.000779092;-0.000785849;-0.000665051;6.58431e-05;-0.00150999;0.000787915;-1.17148;-0.853623;0.00102931;0.00105055;0.0436051;22.9331;22.043;67.043;-0.000555222;-0.000779806;-0.000141672;-0.00142995;-0.000664752;0.00650329;0.0343008;0;0.0356332;0.70471;4.09351
287000;288;25.77;0.012445;0.000483158;-2.29017;25.665;0.39519;0.0137692;0.0380754;-0.789976;-0.0247778;-0.381997;-0.284595;0.477001;-7.44905;-0.000405203;-0.000283181;0.000820733;0.000882985;-0.000467454;0.00067522;0.493708;2.02549;0.000791884;0.000900293;1.88892;0.529402;60.6145;105.614;0.00280863;-0.000406402;-0.00214279;0.00157415;0.00081848;0.00378882;0.0206996;0;0.026216;-0.0132792;-0.413476;-1.07823;1.15487;-7.09303;-0.000734312;-0.000712596;-0.000464148;0.000126056;-0.00132452;0.000725286;-1.58207;-0.632085;0.000927888;0.000967048;0.0951714;10.5074;9.11793;54.1179;-0.000433407;-0.000735667;0.000368236;-0.00179313;-0.000463961;0.00779933;0.0386537;0;0.037003;0.744269;4.09891
288000;289;25.7717;0.0141501;0.000549358;-2.28985;25.6667;0.396365;0.0140906;0.0397981;-0.788801;-0.0246373;-0.384903;-0.2828;0.478261;-7.44726;-0.000421201;-4.82863e-05;0.000619944;0.000622179;-0.000423436;0.000522807;0.679418;1.47185;0.00060731;0.000697077;1.46936;0.68057;49.169;94.169;0.00293323;-0.000422925;-0.00195561;0.00185706;0.000618034;0.00308982;0.0214002;0;0.0250354;-0.013822;-0.417446;-1.07807;1.15616;-7.09287;-0.000747138;-0.000651911;-0.000233528;0.000210335;-0.001191;0.000700668;-3.19935;-0.312564;0.000872604;0.000934225;0.176603;5.6624;178.987;43.9873;-9.18673e-05;-0.000748997;0.000731604;-0.00203471;-0.000233584;0.00775622;0.0389258;0;0.0385735;0.786448;4.10583
289000;290;25.7719;0.014419;0.000559797;-2.2905;25.667;0.392782;0.0134381;0.0400649;-0.792384;-0.0244102;-0.386997;-0.285185;0.481345;-7.44964;-0.000195881;5.72192e-06;0.000932143;0.000932172;-0.00019591;0.000564041;0.21014;4.75872;0.000696004;0.000752055;4.75817;0.210165;50.2353;95.2353;0.00329499;-0.000197685;-0.00188998;0.00189928;0.000930359;0.00305243;0.0207491;0;0.0231012;-0.0139045;-0.420336;-1.08142;1.16033;-7.09623;-0.000734011;-0.000619497;4.09415e-06;0.000356135;-0.00108605;0.000721094;;;0.000867467;0.000961458;0.327917;3.04955;171.335;36.3351;-0.000220404;-0.000736109;0.000901258;-0.00213913;3.8799e-06;0.00841357;0.0368404;0;0.038216;0.82711;4.11338
290000;291;25.7714;0.0138528;0.000537815;-2.29058;25.6664;0.391199;0.0133594;0.0395136;-0.793967;-0.0241214;-0.389457;-0.281583;0.481193;-7.44604;-0.000449221;1.11364e-05;0.00109596;0.00109604;-0.000449301;0.000772671;0.409887;2.43969;0.000917879;0.00103023;2.43944;0.409931;49.7839;94.7839;0.00316638;-0.000450809;-0.00176236;0.00178189;0.00109441;0.00349969;0.020357;0;0.0312449;-0.0144397;-0.423099;-1.07969;1.15972;-7.09449;-0.000855566;-0.000602545;3.36637e-05;0.000337877;-0.00115978;0.000748828;25.4151;0.0393467;0.000907037;0.000998437;0.291328;3.43255;169.418;34.4184;-0.000656398;-0.000857599;0.000899673;-0.00210343;3.34406e-05;0.00891839;0.0366077;0;0.0484849;0.870499;4.12127
291000;292;25.7708;0.0132537;0.000514557;-2.29069;25.6658;0.388657;0.0132423;0.0389402;-0.79651;-0.0248451;-0.39129;-0.282305;0.483137;-7.44676;-0.000275371;0.000100454;0.00171225;0.00171732;-0.000280435;0.000998875;0.160824;6.21798;0.00124889;0.00133183;6.12376;0.163298;52.5386;97.5386;0.00347515;-0.000277348;-0.00179392;0.00199107;0.00171065;0.00319924;0.0201879;0;0.0328194;-0.0157144;-0.425753;-1.08144;1.16233;-7.09624;-0.000929227;-0.000508406;0.000352429;0.000529609;-0.00110641;0.000818008;2.63664;0.379271;0.000963924;0.00109068;0.478675;2.0891;158.517;23.517;0.000561842;-0.000931981;0.00138579;-0.00240017;0.000351598;0.00749357;0.0361568;0;0.0517147;0.921146;4.12791
292000;293;25.771;0.0134891;0.000523694;-2.29276;25.6659;0.387223;0.0111718;0.0390133;-0.797944;-0.0266124;-0.395958;-0.279324;0.485296;-7.44378;-0.000199401;-9.23371e-05;0.00218839;0.00219195;-0.000202967;0.00119746;0.0911181;10.9748;0.00153344;0.00159661;10.7995;0.0925965;60.9803;105.98;0.00282514;-0.00020105;-0.00200732;0.00181809;0.00218638;0.00557433;0.0201105;0;0.0339141;-0.0186284;-0.430707;-1.07787;1.16089;-7.09267;-0.000681163;-0.000437119;0.000520689;0.000662855;-0.000823329;0.000743092;1.3082;0.764411;0.000859714;0.000990789;0.805091;1.2421;154.049;19.049;-0.00016115;-0.000684439;0.00172409;-0.00259574;0.000519299;0.011452;0.0396254;0;0.0576772;0.965043;4.13527
293000;294;25.7691;0.0116088;0.000450695;-2.29276;25.6641;0.381202;0.0111797;0.0372162;-0.803964;-0.0267158;-0.397174;-0.283376;0.488634;-7.44783;-0.000375111;-6.81875e-05;0.00273585;0.00273734;-0.000376605;0.00155697;0.13711;7.29343;0.00196251;0.00207596;7.26847;0.137581;61.6616;106.662;0.00266258;-0.00037694;-0.00205596;0.00191341;0.00273374;0.00583488;0.0208037;0;0.0273461;-0.0186203;-0.432301;-1.08374;1.16693;-7.09854;-0.000724629;-0.000337363;0.00073847;0.000812513;-0.000798671;0.000805592;0.981256;1.0191;0.000930229;0.00107412;1.01733;0.982964;147.261;12.2606;-0.000611522;-0.000728172;0.0020112;-0.00268249;0.000736506;0.0124809;0.0421413;0;0.0480334;1.01957;4.14241
294000;295;25.7692;0.0116892;0.000453818;-2.2933;25.6642;0.378812;0.0106388;0.037284;-0.806354;-0.0264283;-0.398819;-0.2865;0.491769;-7.45096;-0.000281268;3.68596e-05;0.0026391;0.00263957;-0.000281733;0.00146065;0.106577;9.38288;0.00186075;0.00194754;9.36904;0.106734;59.8344;104.834;0.00286375;-0.000283253;-0.00192464;0.00199265;0.00263726;0.0052208;0.0195045;0;0.0307138;-0.0189403;-0.434693;-1.08926;1.17295;-7.10406;-0.000827555;-0.000311065;0.000764697;0.00082331;-0.000886167;0.000854739;1.0822;0.924045;0.000987189;0.00113965;0.929068;1.07635;146.049;11.0493;-0.00059122;-0.000830648;0.00188687;-0.0025055;0.000762967;0.0140259;0.0417899;0;0.0504562;1.08649;4.14977
295000;296;25.7675;0.00993426;0.000385684;-2.29338;25.6625;0.374714;0.0105581;0.0355748;-0.810452;-0.0267839;-0.401982;-0.28183;0.491666;-7.44629;-0.000440447;-1.10799e-06;0.00274721;0.00274721;-0.000440448;0.00159383;0.160325;6.23732;0.00199457;0.00212511;6.23731;0.160326;59.6162;104.616;0.00328684;-0.000442583;-0.00207498;0.00206617;0.00274506;0.00424493;0.0208577;0;0.0337249;-0.0198162;-0.437573;-1.08479;1.16988;-7.09959;-0.00081756;-0.000376906;0.000877901;0.000957912;-0.000897572;0.000927742;0.931267;1.07381;0.00107145;0.00123699;1.06723;0.937008;146.575;11.5746;-0.00115083;-0.000821038;0.00191309;-0.00266302;0.000876144;0.0148098;0.04462;0;0.0512588;1.11639;4.15619
296000;297;25.7663;0.00881146;0.000342093;-2.29459;25.6612;0.374558;0.00934787;0.0343415;-0.810608;-0.027331;-0.403353;-0.285356;0.494842;-7.44981;-0.000306005;-0.000135445;0.00279304;0.00279895;-0.000311913;0.00155543;0.10956;9.12745;0.00197815;0.00207391;8.97349;0.111439;63.0521;108.052;0.0036791;-0.000307855;-0.00220545;0.00192816;0.00279062;0.00250246;0.0215765;0;0.036834;-0.0208756;-0.439433;-1.08788;1.17346;-7.10268;-0.000868946;-0.000284694;0.00111175;0.00115185;-0.000909055;0.00103045;0.781606;1.27942;0.00119262;0.00137394;1.26709;0.78921;141.503;6.50267;-0.00160743;-0.000872356;0.0020609;-0.00262565;0.00110966;0.0166049;0.0431002;0;0.0504625;1.1705;4.15906
297000;298;25.7664;0.00883291;0.000342925;-2.29441;25.6613;0.369853;0.00953092;0.0344477;-0.815313;-0.0269683;-0.407709;-0.282259;0.496612;-7.44672;-0.000375893;-0.000124465;0.00322457;0.00322887;-0.000380191;0.00180453;0.116572;8.57841;0.00228985;0.00240604;8.49275;0.117748;63.8126;108.813;0.00298143;-0.000377919;-0.00227293;0.00201629;0.003222;0.0053887;0.0215671;0;0.0334017;-0.0207875;-0.4443;-1.08606;1.17361;-7.10086;-0.00106852;-0.000345263;0.00106212;0.00111667;-0.00112307;0.00111987;1.00603;0.994008;0.00129311;0.00149316;0.994299;1.00573;143.993;8.99253;-0.00231769;-0.00107142;0.00174777;-0.00243384;0.00106065;0.0147052;0.040412;0;0.0442902;1.22599;4.16519
298000;299;25.768;0.0104344;0.0004051;-2.29592;25.6628;0.369317;0.00801773;0.0359281;-0.815849;-0.0287513;-0.407757;-0.284063;0.497779;-7.44852;-0.000411862;8.53603e-05;0.00306148;0.00306358;-0.000413959;0.00173877;0.13453;7.43327;0.00219343;0.00231836;7.40069;0.135123;59.6912;104.691;0.00397272;-0.000414262;-0.00202868;0.00219208;0.00305944;0.00127701;0.0219407;0;0.0435283;-0.0230659;-0.445777;-1.08736;1.17542;-7.10216;-0.000958132;-0.00027406;0.00109383;0.0011298;-0.000994104;0.00106195;0.875946;1.14162;0.00122707;0.00141593;1.1365;0.879896;141.578;6.57839;-0.00242627;-0.000961252;0.00196852;-0.00251204;0.00109193;0.0158796;0.0404359;0;0.0499843;1.28298;4.17178
299000;300;25.7706;0.0130935;0.000508338;-2.29694;25.6654;0.372048;0.00699421;0.0384671;-0.813118;-0.0284071;-0.412403;-0.281292;0.500008;-7.44575;-0.000354834;-0.000258295;0.00301698;0.00303665;-0.000374505;0.00170558;0.117612;8.50251;0.00216012;0.0022741;8.10843;0.123328;65.2898;110.29;0.00285413;-0.000356579;-0.00240949;0.00188567;0.00301412;0.0052637;0.0216621;0;0.0264391;-0.0234936;-0.451106;-1.08689;1.17702;-7.10169;-0.00103986;-0.000186966;0.00103198;0.00104871;-0.0010566;0.00105266;1.00764;0.992416;0.00121551;0.00140354;0.992536;1.00752;140.147;5.1466;-0.00267188;-0.00104207;0.00173803;-0.00210798;0.00103049;0.0179393;0.0389586;0;0.0314779;1.34402;4.18012
300000;301;25.7721;0.0145561;0.000565118;-2.298;25.6668;0.366076;0.00594111;0.0399272;-0.819091;-0.0286691;-0.413216;-0.284249;0.502361;-7.44871;-0.000385176;-0.000344096;0.00311284;0.00314637;-0.000418703;0.00178254;0.123738;8.08161;0.00225017;0.00237672;7.51456;0.133075;66.7265;111.727;0.00298511;-0.000386763;-0.00250996;0.00181421;0.00310976;0.00498864;0.0210491;0;0.0265079;-0.0240899;-0.453033;-1.09091;1.18148;-7.10571;-0.00101108;-9.17663e-05;0.000904249;0.000908635;-0.00101546;0.00096205;1.11814;0.894341;0.00111145;0.00128273;0.894798;1.11757;138.489;3.48892;-0.00308183;-0.00101318;0.00187081;-0.00205059;0.000902504;0.0172234;0.0397105;0;0.0317511;1.40411;4.18696
301000;302;25.777;0.0194841;0.000756444;-2.29805;25.6716;0.374506;0.00588898;0.0447492;-0.81066;-0.0291568;-0.414452;-0.288311;0.505711;-7.45277;-0.000446951;-0.00012192;0.00287715;0.00288162;-0.000451417;0.00166652;0.155345;6.43728;0.00208788;0.00222202;6.38349;0.156654;61.8556;106.856;0.00315604;-0.000449;-0.00227849;0.0020275;0.00287457;0.00321231;0.0212469;0;0.0268408;-0.0247713;-0.456245;-1.09519;1.18669;-7.10999;-0.000962065;-0.000113464;0.000764812;0.000772235;-0.000969488;0.000870862;1.25791;0.79497;0.00100773;0.00116115;0.796539;1.25543;140.101;5.10076;-0.00259585;-0.000964366;0.00192403;-0.00214744;0.000762969;0.0144349;0.0411428;0;0.0309114;1.46715;4.19445
302000;303;25.7798;0.0222989;0.000865722;-2.29948;25.6743;0.377274;0.00445652;0.0474068;-0.807892;-0.0284553;-0.417104;-0.289172;0.508337;-7.45363;-0.00047137;-0.000316847;0.00290859;0.00293804;-0.000500816;0.00171943;0.162061;6.1705;0.00214521;0.00229257;5.8665;0.170459;65.6406;110.641;0.00322741;-0.000472837;-0.00238186;0.00174121;0.00290581;0.00400116;0.0222177;0;0.027034;-0.0244119;-0.459616;-1.09735;1.18996;-7.11215;-0.00110653;-0.000140989;0.000737795;0.000748511;-0.00111725;0.00093288;1.49978;0.666763;0.00108419;0.00124384;0.669959;1.49263;141.82;6.81973;-0.00286216;-0.00110904;0.00196508;-0.00224318;0.000735876;0.013143;0.0396137;0;0.0339946;1.52244;4.20198
303000;304;25.7808;0.0232327;0.000901978;-2.30004;25.6752;0.377736;0.00389604;0.0482874;-0.80743;-0.0288865;-0.419818;-0.28548;0.508508;-7.44994;-0.000558521;-0.000192085;0.00299891;0.00300925;-0.000568863;0.00178906;0.186241;5.36938;0.00222022;0.00238541;5.28994;0.189038;62.9728;107.973;0.00349673;-0.000560391;-0.00233461;0.00194284;0.00299621;0.00325919;0.0224912;0;0.0357826;-0.0255332;-0.462779;-1.09445;1.18854;-7.10925;-0.00113054;-1.08726e-05;0.000851694;0.000851754;-0.0011306;0.000991177;1.3274;0.753351;0.00114828;0.00132157;0.753364;1.32738;137.126;2.12573;-0.00197793;-0.00113291;0.00215595;-0.00217341;0.000849372;0.0124996;0.0390307;0;0.0371425;1.57756;4.20972
304000;305;25.7813;0.0237651;0.000922645;-2.30064;25.6757;0.372422;0.00329842;0.0488461;-0.812744;-0.0295512;-0.421594;-0.28667;0.510681;-7.45113;-0.000566991;-0.000177932;0.00260842;0.00261836;-0.00057693;0.00159764;0.21737;4.60046;0.0019663;0.00213019;4.53843;0.22034;61.0975;106.097;0.00283419;-0.000568852;-0.00229948;0.0019369;0.0026058;0.00467783;0.0213189;0;0.0378015;-0.0266094;-0.4666;-1.09666;1.19209;-7.11146;-0.000917318;-6.22678e-05;0.000872963;0.000875126;-0.000919481;0.000897304;1.05081;0.951648;0.00103622;0.0011964;0.951762;1.05068;137.217;2.2173;-0.0021166;-0.000920397;0.00236121;-0.00248141;0.00087018;0.0119667;0.0429602;0;0.0446452;1.65744;4.21676
305000;306;25.7836;0.0260332;0.0010107;-2.30051;25.678;0.376853;0.00343044;0.0510707;-0.808313;-0.0300695;-0.423631;-0.28464;0.51126;-7.4491;-0.000631155;-0.000323765;0.00247279;0.00250621;-0.000664566;0.00158539;0.255239;3.91789;0.00193083;0.00211385;3.77119;0.265168;62.4951;107.495;0.00292949;-0.000632774;-0.00248227;0.00182806;0.00246977;0.00431467;0.0218401;0;0.0345788;-0.0273846;-0.468959;-1.09447;1.19102;-7.10927;-0.000866455;-1.39233e-05;0.000883684;0.000883795;-0.000866566;0.000875181;0.980503;1.01988;0.00101059;0.00116691;1.01988;0.980506;135.317;0.317074;-0.00244437;-0.000869245;0.00233724;-0.00236097;0.000880956;0.0115996;0.0415675;0;0.042281;1.69164;4.22375
306000;307;25.7854;0.0279195;0.00108394;-2.29916;25.68;0.377068;0.00478074;0.0530825;-0.808098;-0.0299468;-0.425252;-0.286695;0.513741;-7.45115;-0.000593607;-0.000143012;0.00247266;0.00247932;-0.000600263;0.00153979;0.240068;4.16549;0.0018851;0.00205306;4.13039;0.242108;59.282;104.282;0.00323444;-0.000595699;-0.00234246;0.00204971;0.00246994;0.00336042;0.0224601;0;0.026793;-0.0272969;-0.472306;-1.09694;1.19461;-7.11174;-0.000993332;-4.59743e-05;0.000950903;0.000951989;-0.000994419;0.000973204;1.04462;0.957286;0.00112385;0.00129761;0.957333;1.04457;136.574;1.57422;-0.0022063;-0.000996288;0.00234354;-0.00243085;0.00094816;0.00804029;0.0442251;0;0.0424902;1.76455;4.23085
307000;308;25.7851;0.0275685;0.00107031;-2.29927;25.6796;0.375847;0.00466969;0.0527381;-0.809319;-0.0304362;-0.425814;-0.291181;0.516749;-7.45564;-0.000577294;-5.70147e-05;0.0018209;0.00182225;-0.000578649;0.00120045;0.317038;3.15419;0.00144682;0.0016006;3.14915;0.317546;54.3208;99.3208;0.00282881;-0.000579562;-0.00224946;0.00213018;0.00181837;0.00301188;0.0214628;0;0.0372123;-0.027996;-0.473972;-1.10121;1.19921;-7.11601;-0.000973391;-3.83579e-05;0.00116828;0.00116897;-0.000974078;0.00107152;0.833181;1.20022;0.00123899;0.0014287;1.20008;0.833279;134.877;179.877;-0.00173073;-0.00097663;0.00247276;-0.00254411;0.00116523;0.00850916;0.0444318;0;0.0498868;1.8241;4.23513
308000;309;25.7855;0.0279855;0.0010865;-2.2988;25.6801;0.375792;0.00513528;0.0531993;-0.809374;-0.0300872;-0.430239;-0.285775;0.517376;-7.45023;-0.000655578;-0.000354374;0.00155227;0.00160775;-0.000711063;0.00115941;0.422336;2.36778;0.00137173;0.00154588;2.26105;0.442272;60.128;105.128;0.0024087;-0.000656933;-0.0023962;0.00168295;0.00154946;0.00366;0.0227402;0;0.0258735;-0.0279154;-0.478256;-1.09744;1.19745;-7.11224;-0.000914824;8.09154e-05;0.00131351;0.00131645;-0.000917759;0.0011171;0.696472;1.43581;0.00129675;0.00148947;1.43442;0.697148;130.816;175.816;-0.00100463;-0.000918397;0.00284115;-0.00267318;0.00130949;0.00922152;0.0421539;0;0.0458774;1.88604;4.23961
309000;310;25.7857;0.028204;0.00109498;-2.29982;25.6803;0.37156;0.00411668;0.053389;-0.813606;-0.0302015;-0.431821;-0.285069;0.518311;-7.44953;-0.000669201;-0.000207328;0.00126855;0.00129049;-0.000691136;0.000990811;0.527532;1.89562;0.0011614;0.00132108;1.8672;0.535563;55.1279;100.128;0.00260467;-0.000670971;-0.0023108;0.00189208;0.00126591;0.00336634;0.0212239;0;0.0367503;-0.0287365;-0.481317;-1.09614;1.1975;-7.11094;-0.0010043;0.000108351;0.00142498;0.0014298;-0.00100913;0.00121946;0.704783;1.41888;0.00141508;0.00162595;1.41687;0.705779;130.347;175.347;-0.00128111;-0.00100823;0.00302819;-0.0028044;0.00142041;0.00940521;0.0416925;0;0.0515744;1.96483;4.24921
310000;311;25.7849;0.0273699;0.0010626;-2.29912;25.6795;0.370274;0.00482109;0.0526332;-0.814892;-0.0304442;-0.433172;-0.289905;0.52212;-7.45436;-0.000593185;-0.000129042;0.00154593;0.00155368;-0.000600942;0.00107731;0.383709;2.60614;0.00128387;0.00143642;2.58541;0.386786;55.1018;100.102;0.00321988;-0.000594964;-0.0021522;0.0018898;0.00154362;0.00231354;0.0200228;0;0.021824;-0.0286197;-0.482879;-1.10314;1.20453;-7.11794;-0.000965566;0.000115902;0.00154987;0.0015552;-0.000970895;0.00126305;0.622997;1.60514;0.00147139;0.00168406;1.60182;0.624289;129.606;174.606;-0.00167827;-0.00096992;0.0031912;-0.00295168;0.0015448;0.0111904;0.0415876;0;0.0444081;2.02211;4.25496
311000;312;25.7837;0.0261885;0.00101673;-2.29876;25.6784;0.36764;0.00517573;0.0515165;-0.817527;-0.030932;-0.435321;-0.290168;0.524079;-7.45463;-0.000563938;-0.0001834;0.00129997;0.00131784;-0.000581812;0.000949827;0.433809;2.30516;0.00112387;0.00126644;2.26506;0.441489;55.7641;100.764;0.0028348;-0.000565602;-0.00220321;0.00183265;0.00129756;0.00282793;0.0200149;0;0.0251831;-0.0291422;-0.485915;-1.10286;1.20551;-7.11766;-0.000912009;-1.00004e-05;0.0016972;0.00169724;-0.000912047;0.00130464;0.53736;1.86095;0.00152904;0.00173953;1.86091;0.53737;131.338;176.338;-0.00152039;-0.000916271;0.00290592;-0.00291832;0.00169299;0.0116431;0.0430938;0;0.0440442;2.0822;4.26103
312000;313;25.7846;0.0270389;0.00104975;-2.29894;25.6793;0.365311;0.00499501;0.0523874;-0.819855;-0.0306149;-0.437457;-0.290113;0.525805;-7.45457;-0.000479769;-7.65997e-05;0.00100244;0.00100638;-0.000483717;0.000745051;0.478603;2.08941;0.000877775;0.000993401;2.08052;0.480649;51.7737;96.7737;0.00296661;-0.000481541;-0.00203946;0.00188336;0.00100036;0.00338227;0.0207699;0;0.0273339;-0.0291612;-0.489066;-1.10335;1.20723;-7.11815;-0.000921764;-1.17964e-06;0.00181961;0.00181961;-0.000921764;0.00137069;0.506573;1.97405;0.00161078;0.00182758;1.97405;0.506573;130.482;175.482;-0.00250241;-0.000925775;0.00283632;-0.00283091;0.00181559;0.0136312;0.0429511;0;0.042603;2.15525;4.26921
313000;314;25.7841;0.0265801;0.00103193;-2.29881;25.6788;0.365109;0.00512227;0.051941;-0.820057;-0.0314058;-0.438472;-0.293158;0.52838;-7.45762;-0.000505546;-5.04065e-05;0.00159995;0.00160115;-0.000506752;0.00105395;0.315977;3.16479;0.0012705;0.00140527;3.15964;0.316492;54.1423;99.1423;0.0030202;-0.000507394;-0.00202793;0.00192296;0.00159789;0.00304597;0.0220767;0;0.0303251;-0.0300244;-0.490621;-1.10681;1.21105;-7.12161;-0.000967481;1.71181e-06;0.00181998;0.00181998;-0.000967482;0.00139373;0.531588;1.88115;0.00163424;0.00185831;1.88115;0.531589;130.692;175.692;-0.00307466;-0.000971575;0.00287118;-0.00285977;0.00181587;0.0130372;0.0462105;0;0.0435672;2.2234;4.27571
314000;315;25.7849;0.0274066;0.00106402;-2.29988;25.6796;0.363015;0.00406094;0.0527056;-0.822151;-0.0312775;-0.441724;-0.290105;0.529395;-7.45456;-0.000521486;-2.90119e-05;0.00139648;0.00139692;-0.000521925;0.00095942;0.37343;2.67788;0.00114559;0.00127923;2.67647;0.373627;52.1829;97.1829;0.00302607;-0.00052335;-0.00199228;0.0019305;0.0013945;0.00222026;0.0208654;0;0.0284038;-0.0298532;-0.494283;-1.10681;1.21254;-7.12161;-0.000940205;7.15773e-05;0.00209589;0.00209758;-0.000941892;0.00151974;0.448594;2.22919;0.00179663;0.00202631;2.22699;0.449037;127.908;172.908;-0.0031405;-0.000944098;0.00294172;-0.00278987;0.00209158;0.0152068;0.0438923;0;0.0413984;2.28955;4.28302
315000;316;25.7873;0.029738;0.00115454;-2.29901;25.682;0.366597;0.00493172;0.0550736;-0.818569;-0.032024;-0.443051;-0.291539;0.531333;-7.456;-0.000653569;-0.000234135;0.00156742;0.00159183;-0.000677983;0.00113491;0.416971;2.39825;0.00134542;0.00151321;2.3479;0.425913;57.3959;102.396;0.00303934;-0.00065511;-0.00224337;0.00177064;0.00156493;0.00382673;0.0200832;0;0.0282066;-0.0308503;-0.496352;-1.10686;1.21345;-7.12166;-0.00102896;3.77925e-05;0.00203251;0.00203298;-0.00102943;0.0015312;0.506249;1.97531;0.00179945;0.0020416;1.97487;0.506362;128.805;173.805;-0.00346219;-0.00103225;0.002648;-0.00256444;0.00202902;0.0131062;0.0459691;0;0.0371045;2.34965;4.29022
316000;317;25.7881;0.030599;0.00118796;-2.29972;25.6828;0.361022;0.00421764;0.0559532;-0.824144;-0.0314961;-0.444822;-0.293261;0.533723;-7.45772;-0.000464444;-8.26901e-05;0.00200751;0.00201028;-0.000467207;0.00123874;0.231353;4.3224;0.00152005;0.00165166;4.30275;0.232409;58.1123;103.112;0.00272108;-0.000466048;-0.00196289;0.00179287;0.00200559;0.00371144;0.0202007;0;0.0259916;-0.031011;-0.500114;-1.10862;1.2166;-7.12342;-0.000940669;0.000199053;0.00206219;0.00207533;-0.000953806;0.00151457;0.45615;2.19226;0.00178838;0.00201942;2.17584;0.459593;125.311;170.311;-0.00355038;-0.000943762;0.0029001;-0.0024939;0.00205801;0.0153845;0.0418832;0;0.0355301;2.41948;4.29822
317000;318;25.7879;0.0303396;0.00117789;-2.30001;25.6826;0.358979;0.00392965;0.0556956;-0.826187;-0.0316013;-0.4469;-0.29058;0.533999;-7.45504;-0.000567419;0.00016623;0.00187985;0.00189109;-0.000578659;0.00123487;0.301843;3.31298;0.00149151;0.0016465;3.26806;0.305992;50.4345;95.4345;0.00314929;-0.000569654;-0.00179243;0.00212011;0.00187826;0.00421971;0.0207449;0;0.0284469;-0.0311549;-0.502203;-1.10947;1.21824;-7.12427;-0.00109054;0.000132204;0.00202702;0.00203261;-0.00109614;0.00156438;0.538005;1.85872;0.00183316;0.00208584;1.85433;0.539277;126.948;171.948;-0.00315763;-0.00109303;0.00250362;-0.00223183;0.0020239;0.016009;0.0435535;0;0.0327982;2.48058;4.30414
318000;319;25.7901;0.0326181;0.00126635;-2.30117;25.6848;0.357356;0.00277138;0.0579023;-0.82781;-0.032438;-0.448467;-0.292872;0.536609;-7.45733;-0.000593363;-0.000136252;0.00239036;0.00239657;-0.000599572;0.00149807;0.248232;4.02849;0.0018306;0.00199743;3.99713;0.25018;60.5857;105.586;0.002731;-0.00059482;-0.00199022;0.0017122;0.00238839;0.00488192;0.02015;0;0.0376503;-0.0317792;-0.504987;-1.11312;1.22272;-7.12792;-0.0010579;2.97751e-05;0.00190265;0.00190295;-0.0010582;0.00148058;0.556015;1.79851;0.00173266;0.00197411;1.79829;0.556085;129.535;174.535;-0.0039362;-0.00106087;0.00250287;-0.00243602;0.00189953;0.0165854;0.041327;0;0.0332057;2.55472;4.30972
319000;320;25.7919;0.0343556;0.00133381;-2.30193;25.6865;0.357458;0.00200542;0.0595768;-0.827708;-0.0325494;-0.450279;-0.295941;0.539807;-7.4604;-0.000431397;6.92689e-05;0.00306012;0.00306149;-0.000432771;0.00174713;0.140974;7.0935;0.00219949;0.00232951;7.07416;0.141359;60.9595;105.96;0.00278784;-0.000433407;-0.00187408;0.00200585;0.00305837;0.00565323;0.0190817;0;0.0273878;-0.0324567;-0.508271;-1.11565;1.2264;-7.13045;-0.000958357;0.000170415;0.00178813;0.00179866;-0.00096889;0.00138378;0.535955;1.86583;0.00162161;0.00184504;1.85642;0.538672;126.504;171.504;-0.00299733;-0.000960801;0.002564;-0.00221661;0.00178486;0.0130394;0.0414829;0;0.0324606;2.62451;4.31359
320000;321;25.7957;0.0381685;0.00148184;-2.30237;25.6902;0.359195;0.00157073;0.0633422;-0.825971;-0.0319047;-0.452131;-0.297698;0.542277;-7.46216;-0.000531778;0.000193577;0.00304647;0.00305691;-0.00054222;0.00179957;0.174556;5.72883;0.00224066;0.00239942;5.63777;0.177375;58.3298;103.33;0.00321454;-0.000534059;-0.00176373;0.00214391;0.00304494;0.0054842;0.0210576;0;0.0322236;-0.0319112;-0.511405;-1.11973;1.2314;-7.13453;-0.00113145;0.000163807;0.0017319;0.00174124;-0.00114079;0.00144101;0.6533;1.53069;0.00167593;0.00192135;1.52634;0.65516;128.41;173.41;-0.00335038;-0.00113441;0.00277141;-0.00243634;0.00172808;0.0126799;0.0419261;0;0.0331726;2.6895;4.31936
321000;322;25.7945;0.0369747;0.00143549;-2.30243;25.6891;0.353317;0.00150805;0.0622195;-0.831849;-0.03222;-0.455306;-0.293123;0.54246;-7.45758;-0.000563852;-6.12177e-05;0.00355705;0.00355796;-0.000564761;0.00206136;0.158517;6.30848;0.0025809;0.00274848;6.29993;0.158732;64.1127;109.113;0.00261546;-0.000565774;-0.00209198;0.00196121;0.00355487;0.00658175;0.020386;0;0.0335522;-0.0325974;-0.515325;-1.1157;1.22939;-7.1305;-0.00113411;0.000174017;0.00171304;0.00172364;-0.0011447;0.00143417;0.662044;1.51047;0.00166724;0.00191223;1.50575;0.664121;128.184;173.184;-0.00271342;-0.00113681;0.0026833;-0.00232814;0.00170946;0.0131521;0.0422502;0;0.0321042;2.75775;4.32702
322000;323;25.7995;0.0419627;0.00162914;-2.30365;25.6939;0.3621;0.000283872;0.0669959;-0.823066;-0.0326381;-0.457386;-0.29358;0.544478;-7.45804;-0.00056027;-8.99602e-05;0.00322531;0.00322745;-0.000562407;0.00189493;0.17371;5.75671;0.00236153;0.00252657;5.73864;0.174257;62.8475;107.847;0.00313076;-0.0005622;-0.00215381;0.00196611;0.00322301;0.00451167;0.02105;0;0.0270321;-0.0332762;-0.518447;-1.11843;1.2332;-7.13323;-0.00121413;8.27229e-05;0.00176547;0.00176777;-0.00121643;0.0014921;0.687711;1.4541;0.0017327;0.00198946;1.45324;0.688117;130.598;175.598;-0.00318224;-0.00121792;0.00292665;-0.00275275;0.0017612;0.0120274;0.041458;0;0.0348396;2.82734;4.33413
323000;324;25.7983;0.0407694;0.00158282;-2.3036;25.6928;0.355776;0.000339448;0.0658911;-0.82939;-0.0322054;-0.460335;-0.292527;0.546367;-7.45698;-0.000577106;1.99896e-05;0.00339371;0.00339381;-0.000577207;0.00198551;0.170052;5.88056;0.00247746;0.00264734;5.87971;0.170076;62.0159;107.016;0.00262738;-0.000579234;-0.00203077;0.00206263;0.00339165;0.00554027;0.0221161;0;0.0300317;-0.0329188;-0.522068;-1.11795;1.23428;-7.13275;-0.00117937;0.000125691;0.00169141;0.00169691;-0.00118487;0.00144089;0.697271;1.43416;0.00167252;0.00192118;1.43215;0.698251;129.526;174.526;-0.00278144;-0.00118216;0.00261918;-0.00236066;0.001688;0.0104523;0.0447826;0;0.0385797;2.89021;4.3416
324000;325;25.8017;0.0441375;0.00171358;-2.30446;25.696;0.361128;-0.000519771;0.0691212;-0.824038;-0.0328666;-0.462044;-0.293798;0.548527;-7.45826;-0.000744612;-5.53791e-05;0.00358024;0.00358095;-0.000745321;0.00216314;0.207978;4.8082;0.00267064;0.00288418;4.80458;0.208135;63.2904;108.29;0.00297359;-0.000746537;-0.00208182;0.00196233;0.00357808;0.00505391;0.021301;0;0.0282765;-0.0342045;-0.525434;-1.11757;1.2354;-7.13237;-0.00100779;0.000184257;0.00183078;0.00184269;-0.0010197;0.00143119;0.550471;1.81662;0.00167521;0.00190826;1.80709;0.553377;126.737;171.737;-0.00332624;-0.00101064;0.00277068;-0.00239484;0.00182696;0.0105722;0.0456696;0;0.0400641;2.96318;4.34939
325000;326;25.8013;0.0437971;0.00170036;-2.30438;25.6958;0.353897;-0.000447651;0.0688865;-0.831269;-0.0332763;-0.463718;-0.297979;0.552207;-7.46244;-0.000660041;-0.000217663;0.00371092;0.00372174;-0.000670853;0.00219629;0.177864;5.62226;0.00273237;0.00292839;5.54777;0.180253;66.0701;111.07;0.00297868;-0.000661728;-0.00229332;0.00184895;0.00370833;0.0039788;0.0219575;0;0.0243536;-0.0344122;-0.528233;-1.12302;1.24153;-7.13782;-0.00109691;0.000196661;0.00170775;0.00172147;-0.00111063;0.00141605;0.642312;1.55688;0.00164774;0.00188807;1.55;0.645163;127.929;172.929;-0.00285609;-0.00110045;0.00306996;-0.00266859;0.00170307;0.0107149;0.044943;0;0.0433266;3.03881;4.35705
326000;327;25.8012;0.0436837;0.00169596;-2.30306;25.6958;0.354592;0.0008773;0.0688818;-0.830574;-0.0341907;-0.464476;-0.30284;0.555535;-7.4673;-0.00052639;-0.000219269;0.00395456;0.00396526;-0.000537094;0.00225118;0.13311;7.51261;0.00283952;0.00300157;7.38282;0.13545;68.1303;113.13;0.00307203;-0.000527945;-0.00222434;0.00177686;0.00395212;0.00379548;0.0218984;0;0.0360907;-0.035626;-0.529834;-1.12753;1.24632;-7.14233;-0.00116378;0.000287602;0.0018995;0.00192627;-0.00119055;0.00155841;0.612677;1.63218;0.00181613;0.00207788;1.61797;0.618059;126.093;171.093;-0.00253826;-0.00116729;0.00324831;-0.00266405;0.00189428;0.00869645;0.0457157;0;0.0525247;3.09735;4.36318
327000;328;25.8009;0.043396;0.00168479;-2.30352;25.6955;0.352371;0.000417652;0.0685823;-0.832795;-0.0339105;-0.467378;-0.299485;0.556133;-7.46394;-0.000638471;-0.000164271;0.00397302;0.00397886;-0.000644316;0.00231159;0.160702;6.22271;0.00289138;0.00308212;6.17533;0.161935;66.0757;111.076;0.00245304;-0.000640391;-0.0023038;0.00196543;0.00397039;0.00492867;0.0216837;0;0.0303531;-0.0355217;-0.533407;-1.12506;1.24561;-7.13986;-0.00123028;0.000130727;0.00213309;0.00213816;-0.00123536;0.00168676;0.576762;1.73382;0.00197081;0.00224901;1.7308;0.577767;128.422;173.422;-0.00208603;-0.00123431;0.00311196;-0.0028405;0.00212826;0.00821704;0.0455088;0;0.0468712;3.1677;4.37075
328000;329;25.802;0.0445108;0.00172807;-2.303;25.6966;0.352309;0.000940923;0.0697495;-0.832857;-0.0342521;-0.469926;-0.297234;0.557093;-7.46169;-0.000687941;-0.000265859;0.00345944;0.00347641;-0.000704914;0.00209066;0.198859;5.02869;0.00258482;0.00278755;4.93168;0.20277;65.2995;110.299;0.0028597;-0.000689611;-0.00238672;0.00184624;0.00345664;0.00445834;0.0235849;0;0.0457659;-0.0360637;-0.536262;-1.1232;1.24517;-7.138;-0.0011321;0.0002481;0.00216766;0.00218621;-0.00115065;0.00166843;0.52227;1.91472;0.00195722;0.00222458;1.89997;0.526323;125.762;170.762;-0.00253108;-0.00113581;0.00323918;-0.00273314;0.00216246;0.0116513;0.0418769;0;0.0612948;3.23808;4.37746
329000;330;25.8036;0.0460709;0.00178864;-2.30279;25.6982;0.356688;0.00114644;0.071274;-0.828478;-0.0345642;-0.471155;-0.298752;0.558958;-7.46321;-0.000737146;-0.000310924;0.00383238;0.00385344;-0.000758205;0.00230582;0.192347;5.19894;0.00285545;0.00307443;5.08232;0.196761;67.0579;112.058;0.00290434;-0.000738705;-0.00242372;0.00179226;0.0038295;0.00445639;0.0217771;0;0.0357494;-0.0364003;-0.538676;-1.12418;1.24711;-7.13898;-0.000910875;0.00030728;0.00226308;0.00229256;-0.000940349;0.00161645;0.402493;2.48451;0.00192017;0.00215527;2.43798;0.410175;123.334;168.334;-0.00233433;-0.000914733;0.00341803;-0.00279363;0.0022573;0.0111864;0.0453154;0;0.0555956;3.30785;4.3828
330000;331;25.801;0.0434307;0.00168614;-2.30341;25.6955;0.352838;0.000522047;0.0686202;-0.832328;-0.034774;-0.472343;-0.301482;0.561435;-7.46594;-0.000770421;-0.000246807;0.00408506;0.00409757;-0.000782934;0.00244025;0.188595;5.30237;0.00302664;0.00325367;5.23361;0.191073;67.2473;112.247;0.00306275;-0.000772055;-0.00232738;0.00182371;0.00408239;0.00386676;0.0214019;0;0.0355648;-0.0366035;-0.540224;-1.12774;1.25099;-7.14254;-0.00083774;0.000276924;0.00248239;0.00250533;-0.000860679;0.001683;0.337473;2.9632;0.00201921;0.00224401;2.91088;0.343539;122.82;167.82;-0.00254225;-0.000841714;0.00339572;-0.00283155;0.00247668;0.0125227;0.0444085;0;0.0546666;3.37176;4.38757
331000;332;25.8007;0.0431912;0.00167684;-2.30411;25.6952;0.352363;-0.000177884;0.0683235;-0.832803;-0.0348208;-0.475283;-0.301472;0.563908;-7.46593;-0.000791355;-0.000315114;0.00390621;0.00392725;-0.000812398;0.00236983;0.202589;4.9361;0.0029268;0.00315977;4.83415;0.206862;66.9728;111.973;0.00292031;-0.000792937;-0.00244632;0.00180612;0.00390328;0.00310536;0.021654;0;0.0398996;-0.0368371;-0.543728;-1.12806;1.25281;-7.14286;-0.000936585;0.000217733;0.00248458;0.00249838;-0.000950387;0.00172438;0.37696;2.6528;0.00205692;0.00229918;2.6288;0.380401;124.72;169.72;-0.00375323;-0.000941294;0.00352167;-0.00307493;0.00247842;0.0160215;0.0455982;0;0.0566855;3.44886;4.39347
332000;333;25.8012;0.0437237;0.00169751;-2.30393;25.6958;0.351069;6.52285e-06;0.0688924;-0.834097;-0.0348384;-0.476691;-0.303456;0.566157;-7.46791;-0.000988046;-0.000379036;0.00370453;0.00373494;-0.00101847;0.0023767;0.266713;3.74934;0.00288991;0.00316894;3.66723;0.272686;66.3557;111.356;0.00310979;-0.000989373;-0.0024392;0.00167149;0.00370163;0.00378743;0.0216735;0;0.0352043;-0.0371099;-0.546457;-1.12972;1.2555;-7.14452;-0.000988999;0.000150034;0.00258409;0.00259038;-0.000995288;0.00179283;0.382727;2.61283;0.00213737;0.00239044;2.60264;0.384225;125.027;170.027;-0.00398694;-0.00099294;0.00312053;-0.00280988;0.00257924;0.0143407;0.0490328;0;0.0493824;3.5194;4.40072
333000;334;25.8012;0.0436316;0.00169394;-2.30351;25.6957;0.349553;0.000428168;0.0688583;-0.835613;-0.034814;-0.478748;-0.300448;0.566286;-7.46491;-0.000860846;-0.000344879;0.00339741;0.00342516;-0.000888598;0.00215688;0.253383;3.94659;0.00263016;0.00287584;3.85457;0.259433;65.3214;110.321;0.00266556;-0.000862287;-0.00242984;0.00173123;0.00339452;0.0043613;0.0220169;0;0.0317986;-0.037331;-0.548956;-1.12962;1.25649;-7.14442;-0.00091197;0.000157758;0.00270359;0.00271046;-0.000918841;0.00181465;0.337319;2.96456;0.00217882;0.00241953;2.94987;0.338998;124.281;169.281;-0.00376832;-0.000916134;0.0032154;-0.00288886;0.00269844;0.0155769;0.0465581;0;0.043832;3.57693;4.40732
334000;335;25.8022;0.0446824;0.00173473;-2.30344;25.6969;0.343455;0.000499712;0.0700021;-0.841711;-0.0343651;-0.48157;-0.30156;0.569236;-7.46602;-0.000871207;-0.000198598;0.00319203;0.00320171;-0.000880891;0.0020413;0.272932;3.66391;0.0024808;0.00272173;3.63463;0.275131;62.5763;107.576;0.00266156;-0.000872897;-0.00225407;0.00184855;0.00318952;0.00416444;0.0233375;0;0.0264386;-0.0365455;-0.552627;-1.13284;1.26098;-7.14764;-0.00119518;2.95127e-06;0.00278786;0.00278786;-0.00119518;0.00199152;0.428708;2.33259;0.0023601;0.00265536;2.33259;0.428708;127.317;172.317;-0.00466082;-0.00119946;0.00294153;-0.00292396;0.00278355;0.014683;0.0476085;0;0.0365742;3.65475;4.41521
335000;336;25.8045;0.046967;0.00182343;-2.30346;25.6991;0.345854;0.00047898;0.0722621;-0.839312;-0.0346117;-0.484226;-0.299952;0.570652;-7.46441;-0.00079101;-3.83991e-05;0.00287499;0.00287539;-0.000791412;0.0018334;0.275135;3.63458;0.00222809;0.00244454;3.63324;0.275236;59.0421;104.042;0.00284238;-0.00079305;-0.0021038;0.00201945;0.00287278;0.00241316;0.0235283;0;0.0279631;-0.037103;-0.556129;-1.13202;1.26179;-7.14682;-0.00129771;0.000160302;0.00285794;0.00286411;-0.00130388;0.002084;0.454072;2.2023;0.00246195;0.00277866;2.1966;0.455249;125.218;170.218;-0.00419119;-0.00130143;0.00306485;-0.00273221;0.00285327;0.0172798;0.0438924;0;0.0315337;3.72012;4.42209
336000;337;25.8052;0.0476364;0.00184942;-2.3041;25.6998;0.341204;-0.000159126;0.0729392;-0.843962;-0.0348739;-0.485005;-0.299433;0.571057;-7.46389;-0.000921968;-2.93237e-05;0.00278633;0.00278656;-0.0009222;0.00185438;0.33089;3.02216;0.00222962;0.00247251;3.02165;0.330945;57.2014;102.201;0.00305544;-0.000924213;-0.00218483;0.00211821;0.00278395;0.00339803;0.0236044;0;0.019069;-0.0376356;-0.557856;-1.13187;1.26244;-7.14667;-0.0012764;0.000270571;0.00263693;0.00265555;-0.00129502;0.00197528;0.484049;2.06591;0.00232551;0.00263371;2.05058;0.487666;124.283;169.283;-0.00397231;-0.00127965;0.00311483;-0.00256258;0.00263213;0.0170591;0.0430538;0;0.0377813;3.78642;4.42995
337000;338;25.8075;0.0499739;0.00194017;-2.30443;25.7021;0.343258;-0.000493622;0.0752289;-0.841908;-0.0355424;-0.488694;-0.302744;0.575968;-7.4672;-0.000805131;-1.8508e-05;0.00228406;0.00228417;-0.000805242;0.00154471;0.352499;2.83688;0.00185055;0.00205961;2.83663;0.352531;55.39;100.39;0.00278591;-0.000807146;-0.00205016;0.00200688;0.00228197;0.0021879;0.0215792;0;0.03022;-0.0383594;-0.563001;-1.13718;1.2695;-7.15198;-0.00110728;0.000263379;0.00245625;0.00247561;-0.00112664;0.00180113;0.450803;2.21826;0.00212781;0.0024015;2.19733;0.455098;123.105;168.105;-0.00332435;-0.00110966;0.00273238;-0.00219685;0.00245256;0.0126984;0.0409618;0;0.0307835;3.85913;4.43643
338000;339;25.8093;0.0517582;0.00200944;-2.30435;25.7039;0.342492;-0.000416874;0.0770376;-0.842674;-0.0353288;-0.489864;-0.30192;0.576516;-7.46638;-0.000955229;-6.95548e-05;0.00209488;0.00209646;-0.000956815;0.00152664;0.455983;2.19306;0.00180328;0.00203552;2.19109;0.456395;54.0504;99.0504;0.00232575;-0.000957213;-0.00213775;0.00199234;0.0020926;0.00381846;0.0219749;0;0.0256961;-0.0378305;-0.565459;-1.13771;1.27105;-7.15251;-0.00116003;0.000287591;0.00239827;0.00242136;-0.00118313;0.00180224;0.483696;2.06741;0.00212159;0.00240299;2.04658;0.488621;123.245;168.245;-0.00343892;-0.00116229;0.00272891;-0.00214506;0.00239459;0.0118342;0.0430779;0;0.0322646;3.91999;4.44431
339000;340;25.8118;0.0543168;0.00210877;-2.3062;25.7063;0.342675;-0.00226135;0.0794388;-0.842491;-0.0351451;-0.492529;-0.303115;0.579396;-7.46757;-0.000950463;9.60226e-05;0.00193442;0.00193762;-0.000953655;0.00144564;0.491342;2.03524;0.00170119;0.00192751;2.03178;0.49218;49.8907;94.8907;0.00285744;-0.000952746;-0.00195175;0.0021379;0.00193253;0.00307764;0.0215147;0;0.030006;-0.0381691;-0.569082;-1.14016;1.27486;-7.15496;-0.00142705;0.000311435;0.00249973;0.00252428;-0.0014516;0.00198794;0.570882;1.75168;0.00232316;0.00265059;1.73896;0.575055;124.985;169.985;-0.00294108;-0.00143003;0.00309284;-0.00245908;0.00249501;0.0140678;0.0425259;0;0.0314277;4.00221;4.45087
340000;341;25.8159;0.0584047;0.00226748;-2.30539;25.7105;0.345968;-0.00145329;0.0835719;-0.839198;-0.0343015;-0.494722;-0.305749;0.582589;-7.47021;-0.000897618;-2.37424e-05;0.00203903;0.00203922;-0.00089781;0.00146852;0.440218;2.2716;0.00173786;0.00195802;2.27133;0.44027;53.5158;98.5158;0.00267607;-0.000899536;-0.00201118;0.00195787;0.00203701;0.00236418;0.0228883;0;0.0251265;-0.0373877;-0.573313;-1.14447;1.28059;-7.15927;-0.00139687;0.000141791;0.0024698;0.00247499;-0.00140206;0.00193853;0.565581;1.76809;0.00226681;0.0025847;1.76525;0.566492;127.059;172.059;-0.0031184;-0.0013999;0.00275796;-0.00246429;0.00246602;0.0121058;0.045487;0;0.0368906;4.07152;4.45761
341000;342;25.8169;0.0593385;0.00230373;-2.30624;25.7113;0.347425;-0.00230564;0.0844134;-0.837741;-0.0342043;-0.498689;-0.301455;0.583726;-7.46591;-0.000905174;-0.000141059;0.00181749;0.00182478;-0.000912463;0.00136862;0.498035;2.00789;0.00160934;0.00182483;1.99984;0.50004;54.7152;99.7152;0.00258682;-0.000906719;-0.00204998;0.00176267;0.0018154;0.00370326;0.0206851;0;0.0289776;-0.0376435;-0.577203;-1.14007;1.27841;-7.15487;-0.00140254;0.000149495;0.002474;0.00247976;-0.0014083;0.00194403;0.566911;1.76394;0.00227301;0.00259204;1.76082;0.567917;126.979;171.979;-0.00319909;-0.00140558;0.00277535;-0.0024662;0.00247017;0.0115097;0.0460679;0;0.0396334;4.14499;4.46369
342000;343;25.8178;0.0602771;0.00234017;-2.30521;25.7123;0.349323;-0.00127291;0.0854228;-0.835843;-0.0349226;-0.500361;-0.305821;0.587458;-7.47028;-0.000930133;-0.000167598;0.00257262;0.00258062;-0.000938134;0.00175938;0.36155;2.76587;0.00210404;0.00234584;2.75081;0.36353;59.3872;104.387;0.00259727;-0.000931636;-0.00208292;0.00174103;0.00257047;0.00457089;0.0198357;0;0.0232472;-0.0382625;-0.579339;-1.14676;1.28536;-7.16156;-0.00136563;0.000141177;0.00249766;0.00250281;-0.00137079;0.0019368;0.546765;1.82894;0.00226803;0.0025824;1.82582;0.547698;127.441;172.441;-0.00336027;-0.00136957;0.0030999;-0.00280615;0.00249288;0.0119497;0.046843;0;0.0362613;4.21001;4.46723
343000;344;25.8204;0.0628358;0.00243951;-2.30502;25.7149;0.3478;-0.00107871;0.08803;-0.837366;-0.0345589;-0.500134;-0.306817;0.587763;-7.47127;-0.000916138;-7.51164e-05;0.00217914;0.00218096;-0.00091796;0.00154946;0.420413;2.37861;0.00183803;0.00206595;2.37588;0.420897;55.3155;100.316;0.0027851;-0.000917922;-0.00204615;0.00188983;0.00217705;0.00572762;0.0206436;0;0.0319324;-0.0378322;-0.581355;-1.14706;1.28653;-7.16186;-0.00143686;0.000155086;0.00244109;0.00244729;-0.00144305;0.00194517;0.588612;1.69891;0.00227089;0.00259356;1.69591;0.589653;127.683;172.683;-0.00336298;-0.00144048;0.00301493;-0.00269369;0.00243657;0.0122238;0.0462515;0;0.0464001;4.28131;4.47451
344000;345;25.8195;0.0619386;0.00240468;-2.30478;25.7141;0.345442;-0.000844112;0.0871819;-0.839725;-0.0367131;-0.506145;-0.30027;0.589655;-7.46473;-0.000802448;7.74779e-05;0.00294918;0.00295078;-0.000804047;0.00187741;0.272092;3.67523;0.0022829;0.00250321;3.6699;0.272487;58.9035;103.904;0.00303591;-0.000804299;-0.0017772;0.00192522;0.0029476;0.00451719;0.0201148;0;0.0255989;-0.0404804;-0.587071;-1.14148;1.28424;-7.15628;-0.00113141;0.000354627;0.00262886;0.00266201;-0.00116456;0.00191329;0.430381;2.32352;0.00226496;0.00255105;2.28585;0.437475;122.97;167.97;-0.00272242;-0.0011353;0.00353215;-0.00281099;0.0026227;0.0139306;0.0439895;0;0.0436342;4.35699;4.48172
345000;346;25.8209;0.0633639;0.00246001;-2.30494;25.7155;0.345999;-0.00100142;0.0885915;-0.839167;-0.0354345;-0.50592;-0.303399;0.590984;-7.46786;-0.000966488;0.000113117;0.00324112;0.00324416;-0.000969527;0.00210684;0.298196;3.3535;0.00254819;0.00280912;3.34612;0.298854;59.3141;104.314;0.00292346;-0.000968395;-0.00173666;0.00195514;0.00323962;0.0048289;0.0202525;0;0.0288741;-0.0389815;-0.588465;-1.14629;1.2891;-7.16109;-0.00142989;0.00021173;0.00274774;0.00275845;-0.0014406;0.00209952;0.520389;1.92164;0.0024638;0.00279936;1.91479;0.52225;126.271;171.271;-0.00203775;-0.00143437;0.00343567;-0.00299878;0.00274188;0.0129507;0.0434031;0;0.0436778;4.42719;4.4891
346000;347;25.8209;0.0633739;0.0024604;-2.30513;25.7155;0.341661;-0.00119436;0.0886422;-0.843505;-0.0354578;-0.507124;-0.302892;0.591756;-7.46735;-0.000844339;8.34323e-05;0.00299157;0.00299338;-0.000846153;0.00191977;0.28224;3.54308;0.00232944;0.00255969;3.53763;0.282675;58.4855;103.486;0.00335872;-0.000846309;-0.00182602;0.00198559;0.00298991;0.00462491;0.0218379;0;0.0385523;-0.0392737;-0.59077;-1.14689;1.2907;-7.16169;-0.00132116;0.000254738;0.00289923;0.00291455;-0.00133648;0.00212551;0.455694;2.19445;0.00251007;0.00283402;2.18076;0.458555;124.868;169.868;-0.00324047;-0.00132588;0.003605;-0.00308142;0.00289278;0.0140285;0.045531;0;0.051033;4.49426;4.4959
347000;348;25.8178;0.0602393;0.00233871;-2.30348;25.7126;0.334492;0.000458317;0.0857372;-0.850674;-0.0333927;-0.510985;-0.305225;0.59614;-7.46968;-0.000940805;6.38925e-05;0.00344804;0.00344897;-0.000941735;0.00219535;0.272852;3.66499;0.00266919;0.00292714;3.66236;0.273048;61.0711;106.071;0.00286206;-0.00094268;-0.00181712;0.00193668;0.0034464;0.00661881;0.0203413;0;0.0248932;-0.0364498;-0.594249;-1.14878;1.29389;-7.16358;-0.00149944;7.73023e-05;0.00289814;0.00289949;-0.0015008;0.00220015;0.517382;1.93281;0.00258294;0.00293353;1.93196;0.517608;127.996;172.996;-0.00193609;-0.00150468;0.00340468;-0.00323549;0.00289236;0.0135452;0.0474369;0;0.0488842;4.56146;4.50363
348000;349;25.8186;0.0610725;0.00237105;-2.30568;25.7133;0.333659;-0.00174271;0.0863873;-0.851507;-0.0340547;-0.510653;-0.308961;0.597815;-7.47342;-0.000931019;7.34473e-06;0.00356875;0.00356877;-0.000931031;0.0022499;0.260881;3.83317;0.00274271;0.00299986;3.83313;0.260883;62.4627;107.463;0.00280372;-0.000932795;-0.00187756;0.0018838;0.003567;0.00628406;0.0219068;0;0.0322495;-0.0378667;-0.594931;-1.15526;1.30001;-7.17007;-0.00152228;9.79435e-05;0.00304175;0.00304385;-0.00152438;0.00228412;0.500463;1.99815;0.00268566;0.00304549;1.99677;0.500808;127.186;172.186;-0.00338605;-0.0015273;0.00337728;-0.00316647;0.00303607;0.0143953;0.051413;0;0.0548328;4.6316;4.51012
349000;350;25.8167;0.0591573;0.0022967;-2.30453;25.7115;0.331671;-0.000595046;0.0845929;-0.853495;-0.0346913;-0.516178;-0.301755;0.598915;-7.46621;-0.000923388;0.000172976;0.0035582;0.00356487;-0.000930055;0.00224746;0.25951;3.85342;0.00273973;0.00299661;3.83296;0.260895;60.1366;105.137;0.00320396;-0.000925533;-0.00173991;0.00207732;0.00355671;0.00586103;0.0219997;0;0.0243053;-0.0386395;-0.600186;-1.14861;1.29655;-7.16341;-0.00145128;0.000118118;0.00321309;0.00321608;-0.00145427;0.00233518;0.451678;2.21397;0.00275964;0.00311357;2.21147;0.452188;126.141;171.141;-0.0033233;-0.00145649;0.00347963;-0.00322777;0.00320706;0.0161904;0.0477103;0;0.043078;4.70541;4.51755
350000;351;25.8159;0.0584257;0.0022683;-2.30485;25.7108;0.324834;-0.000911858;0.0839172;-0.860332;-0.0344037;-0.517353;-0.300445;0.599253;-7.4649;-0.000844812;0.000102905;0.00376811;0.00377041;-0.000847106;0.00230876;0.2242;4.4603;0.00283843;0.00307834;4.45093;0.224672;62.4093;107.409;0.0027672;-0.000846843;-0.00182034;0.00201731;0.00376647;0.00582712;0.0226846;0;0.0249577;-0.0383205;-0.602806;-1.15016;1.29912;-7.16496;-0.00150406;8.2205e-05;0.0033681;0.00336948;-0.00150544;0.00243746;0.446559;2.23934;0.00288231;0.00324995;2.2382;0.446787;124.954;169.954;-0.00201583;-0.00150789;0.00294584;-0.00276753;0.00336378;0.0121192;0.0472572;0;0.0361118;4.76561;4.52391
351000;352;25.8173;0.0597295;0.00231891;-2.30497;25.7121;0.325863;-0.0010355;0.0852022;-0.859304;-0.0343553;-0.516537;-0.310745;0.603782;-7.4752;-0.000987749;0.0001123;0.00403643;0.00403894;-0.000990258;0.0025146;0.244708;4.0865;0.00307631;0.0033528;4.07868;0.245178;62.6045;107.605;0.00317196;-0.000989909;-0.00186555;0.00208025;0.00403471;0.00575191;0.0227795;0;0.0312569;-0.0378766;-0.603359;-1.15781;1.30614;-7.17261;-0.00157664;0.000106578;0.00348209;0.00348434;-0.00157889;0.00253161;0.452786;2.20855;0.00299146;0.00337548;2.20683;0.453138;125.175;170.175;-0.00398301;-0.00158107;0.00320337;-0.00297461;0.00347698;0.0168593;0.0485752;0;0.0476398;4.84419;4.53112
352000;353;25.8195;0.061927;0.00240423;-2.30509;25.7143;0.327713;-0.00115226;0.0873748;-0.857453;-0.0345094;-0.51951;-0.310871;0.606401;-7.47533;-0.000894003;0.000139294;0.00449057;0.00449417;-0.000897604;0.00269589;0.199085;5.02299;0.00333581;0.00359451;5.00685;0.199726;65.5674;110.567;0.00264632;-0.000895986;-0.00172674;0.00199532;0.00448909;0.00595156;0.0213899;0;0.0307428;-0.0382781;-0.607075;-1.16074;1.31047;-7.17554;-0.00156889;9.65336e-05;0.00347776;0.00347961;-0.00157074;0.00252517;0.451121;2.2167;0.00298444;0.0033669;2.21527;0.451412;124.871;169.871;-0.00401787;-0.00157292;0.00304568;-0.00283779;0.00347315;0.0182132;0.0459186;0;0.0354638;4.90992;4.53612
353000;354;25.8202;0.062723;0.00243513;-2.30632;25.7151;0.317771;-0.00238218;0.0881885;-0.867395;-0.0341729;-0.523424;-0.305632;0.607084;-7.47009;-0.00102186;-0.000166553;0.00412445;0.00412984;-0.00102725;0.00257854;0.247758;4.0362;0.00315194;0.00343806;4.02029;0.248739;65.9996;111;0.00266124;-0.00102347;-0.00214168;0.00179846;0.00412218;0.00596552;0.023608;0;0.0288595;-0.0384836;-0.612205;-1.15694;1.3095;-7.17174;-0.00174119;0.000212718;0.00351544;0.00352403;-0.00174978;0.00263691;0.495297;2.01899;0.00310174;0.00351587;2.01399;0.496528;124.092;169.092;-0.0038565;-0.00174472;0.00310397;-0.00266339;0.00351066;0.0171537;0.0413743;0;0.030723;4.97357;4.54043
354000;355;25.8199;0.0623763;0.00242167;-2.30695;25.7147;0.31172;-0.00301421;0.0878577;-0.873446;-0.0352569;-0.52363;-0.31432;0.611742;-7.47878;-0.0011466;-2.728e-05;0.00435316;0.0043533;-0.00114673;0.00275001;0.263394;3.79659;0.00335051;0.00366669;3.79626;0.263417;64.1672;109.167;0.00241946;-0.00114869;-0.00210854;0.00204258;0.00435095;0.00741146;0.0232355;0;0.0268718;-0.0392587;-0.613223;-1.16881;1.32049;-7.18361;-0.00168854;0.000183931;0.00322381;0.00323068;-0.00169542;0.00246305;0.523772;1.90923;0.00288976;0.00328407;1.90554;0.524786;125.192;170.192;-0.00404516;-0.00169198;0.00300711;-0.00262542;0.00321932;0.01634;0.0444434;0;0.0327621;5.05561;4.5473
355000;356;25.8257;0.068145;0.00264563;-2.30763;25.7203;0.325924;-0.00369311;0.093413;-0.859242;-0.0353116;-0.527862;-0.308482;0.612411;-7.47294;-0.000999249;4.92013e-05;0.00426336;0.00426382;-0.000999709;0.00263176;0.234381;4.26656;0.00322781;0.00350902;4.26506;0.234463;63.804;108.804;0.00287159;-0.00100143;-0.00200076;0.00208842;0.00426137;0.00637954;0.0218607;0;0.0230478;-0.0399846;-0.618453;-1.16273;1.31758;-7.17753;-0.0017737;0.000192757;0.00319971;0.00320717;-0.00178116;0.00249416;0.554331;1.80398;0.00291897;0.00332555;1.80061;0.555367;125.356;170.356;-0.00346275;-0.00177682;0.00290328;-0.00250433;0.00319552;0.0153421;0.0435337;0;0.0325932;5.122;4.55435
356000;357;25.8279;0.0704048;0.00273337;-2.30748;25.7226;0.327367;-0.00354664;0.095677;-0.8578;-0.0355182;-0.528716;-0.311239;0.614551;-7.4757;-0.00110771;-9.03936e-05;0.00421717;0.00421871;-0.00110924;0.00266397;0.262666;3.80712;0.00324602;0.00355197;3.80324;0.262934;64.367;109.367;0.00314838;-0.00110968;-0.00218112;0.00198925;0.00421481;0.00552392;0.022828;0;0.0333387;-0.0399463;-0.62085;-1.16633;1.32189;-7.18113;-0.00180154;0.00026661;0.00321695;0.00323108;-0.00181566;0.00252337;0.560015;1.78567;0.00295169;0.00336449;1.77956;0.561938;124.784;169.784;-0.0030496;-0.00180465;0.00305361;-0.00250645;0.00321234;0.0147478;0.0441366;0;0.0332646;5.18629;4.56183
357000;358;25.8289;0.0713774;0.00277113;-2.30841;25.7234;0.328016;-0.0044748;0.096562;-0.857151;-0.0350951;-0.532013;-0.308717;0.616097;-7.47317;-0.0010579;-2.33568e-05;0.00414568;0.00414578;-0.001058;0.00260189;0.25518;3.9188;0.00317582;0.00346919;3.91851;0.255199;64.097;109.097;0.00250788;-0.00105985;-0.00203327;0.00197614;0.00414362;0.00504804;0.0230072;0;0.0352152;-0.0397006;-0.624444;-1.16588;1.32317;-7.18068;-0.00171274;0.000170235;0.00328246;0.00328826;-0.00171854;0.0025034;0.521786;1.91649;0.00293765;0.00333786;1.9134;0.522629;125.115;170.115;-0.0030485;-0.00171611;0.00295354;-0.00259922;0.00327813;0.0129822;0.0413288;0;0.0358455;5.25367;4.56902
358000;359;25.8325;0.0750095;0.00291214;-2.30905;25.7269;0.335254;-0.00511393;0.100058;-0.849912;-0.0358841;-0.532592;-0.313203;0.6189;-7.47766;-0.00112641;-0.000239265;0.00429809;0.00430862;-0.00113695;0.00272278;0.262073;3.81573;0.00331699;0.00363038;3.78965;0.263877;66.6054;111.605;0.00284409;-0.00112797;-0.002268;0.00177851;0.00429555;0.00509477;0.0237055;0;0.0341571;-0.0407693;-0.626708;-1.16923;1.32722;-7.18403;-0.00159581;0.000105804;0.00322084;0.00322317;-0.00159813;0.00241065;0.495463;2.01832;0.00283579;0.0032142;2.01683;0.495826;126.065;171.065;-0.00353295;-0.00159991;0.0030907;-0.00286476;0.00321609;0.0118418;0.0457989;0;0.0384958;5.33;4.57664
359000;360;25.8339;0.0764067;0.00296638;-2.30853;25.7284;0.332583;-0.00459365;0.101543;-0.852583;-0.0359558;-0.535278;-0.311198;0.620209;-7.47566;-0.00119862;-0.000120896;0.00429239;0.00429505;-0.00120128;0.00274816;0.279242;3.58112;0.00333667;0.00366422;3.57541;0.279688;64.6432;109.643;0.00278983;-0.00120051;-0.00220307;0.0019499;0.00428998;0.00515758;0.0233423;0;0.0387431;-0.04109;-0.630726;-1.1683;1.32832;-7.1831;-0.00173595;0.000181225;0.00310417;0.00311095;-0.00174273;0.00242684;0.559232;1.78817;0.00283914;0.00323578;1.7851;0.560192;125.871;170.871;-0.0032199;-0.00173926;0.00295412;-0.00257829;0.00309984;0.01044;0.0454236;0;0.0462032;5.39797;4.58423
360000;361;25.8348;0.077319;0.0030018;-2.30843;25.7294;0.330949;-0.00449378;0.102489;-0.854217;-0.0365332;-0.536889;-0.312425;0.62225;-7.47688;-0.00110523;-4.84766e-06;0.00384394;0.00384395;-0.00110524;0.00247459;0.287526;3.47795;0.0029997;0.00329946;3.47793;0.287527;61.9609;106.961;0.00350073;-0.00110732;-0.00206063;0.0020408;0.00384183;0.00326521;0.0229663;0;0.0395097;-0.0417247;-0.633554;-1.17055;1.33166;-7.18535;-0.00171825;9.55068e-05;0.00315545;0.00315732;-0.00172012;0.00243872;0.544534;1.83643;0.00285645;0.00325163;1.83552;0.544804;126.943;171.943;-0.0027558;-0.00172225;0.00303227;-0.00282699;0.00315087;0.00881149;0.0474031;0;0.0468838;5.4664;4.59218
361000;362;25.8349;0.0773589;0.00300335;-2.30761;25.7295;0.329794;-0.00367113;0.102617;-0.855372;-0.0371066;-0.539019;-0.3134;0.624611;-7.47786;-0.0011847;-0.000213479;0.00415408;0.0041626;-0.00119323;0.00267791;0.28519;3.50643;0.00324674;0.00357055;3.48853;0.286654;65.7237;110.724;0.0030011;-0.00118624;-0.00220354;0.00176601;0.00415169;0.00411795;0.0237041;0;0.02561;-0.0425652;-0.637079;-1.17004;1.33292;-7.18484;-0.00164103;0.000171303;0.00318376;0.00318983;-0.0016471;0.00241847;0.515437;1.9401;0.00283956;0.00322462;1.93663;0.51636;125.743;170.743;-0.0025941;-0.00164503;0.00319131;-0.00283418;0.00317869;0.0116071;0.047425;0;0.041961;5.53912;4.59874
362000;363;25.836;0.0784996;0.00304764;-2.30805;25.7306;0.331366;-0.00411339;0.103703;-0.8538;-0.0366912;-0.541269;-0.3136;0.626629;-7.47806;-0.00135324;0.000131123;0.00328244;0.00328615;-0.00135694;0.00232154;0.412265;2.42562;0.00275674;0.00309539;2.42173;0.412928;55.636;100.636;0.00329619;-0.00135576;-0.00199643;0.00224885;0.00328046;0.00426465;0.0248398;0;0.0210179;-0.0424275;-0.639837;-1.17175;1.33574;-7.18655;-0.00176846;0.000330106;0.0034183;0.00343923;-0.00178939;0.00261431;0.517351;1.93292;0.00306843;0.00348575;1.92201;0.520288;123.899;168.899;-0.00219285;-0.00177226;0.00344847;-0.00277214;0.00341243;0.0128145;0.044844;0;0.0432545;5.59778;4.60335
363000;364;25.837;0.0794893;0.00308606;-2.30601;25.7318;0.328807;-0.00207801;0.104912;-0.856359;-0.0380581;-0.542065;-0.320762;0.631008;-7.48522;-0.00130097;1.16771e-05;0.00315073;0.00315076;-0.001301;0.00222588;0.412911;2.42183;0.00264315;0.00296784;2.4218;0.412917;56.8278;101.828;0.00342275;-0.00130317;-0.00208139;0.00209545;0.00314857;0.00308146;0.0240573;0;0.0237006;-0.0433514;-0.641876;-1.17847;1.34264;-7.19327;-0.00165191;0.00033228;0.00353706;0.00355825;-0.0016731;0.00261567;0.467028;2.1412;0.003085;0.00348757;2.12675;0.470202;123.768;168.768;-0.00260228;-0.00165686;0.00384493;-0.00316221;0.00352975;0.0136177;0.0464932;0;0.0477818;5.66459;4.60823
364000;365;25.8359;0.0783456;0.00304166;-2.30587;25.7307;0.327751;-0.00193499;0.10379;-0.857415;-0.039178;-0.542935;-0.324071;0.63351;-7.48853;-0.00110409;2.97773e-05;0.00334328;0.00334348;-0.00110429;0.00222389;0.330243;3.02808;0.0026742;0.00296518;3.02771;0.330282;58.5201;103.52;0.00271862;-0.00110642;-0.00210446;0.00215455;0.00334107;0.00417343;0.0225649;0;0.0374067;-0.0446361;-0.644397;-1.18013;1.34534;-7.19493;-0.0016354;0.000300268;0.00353531;0.00355269;-0.00165278;0.00260274;0.46259;2.16174;0.00307138;0.00347031;2.14953;0.465219;124.157;169.157;-0.00236569;-0.00164064;0.00386666;-0.00324775;0.00352791;0.0132567;0.0486063;0;0.0591317;5.75509;4.61653
365000;366;25.8336;0.0761067;0.00295473;-2.30708;25.7284;0.323643;-0.00314296;0.101485;-0.861523;-0.0388675;-0.54891;-0.314929;0.634029;-7.47939;-0.00126821;-4.68994e-05;0.00310329;0.00310379;-0.00126872;0.00218626;0.408668;2.44698;0.00259752;0.00291501;2.4464;0.408764;57.6407;102.641;0.00275988;-0.00127024;-0.00211384;0.00201103;0.00310106;0.00364823;0.0224712;0;0.0305362;-0.0448169;-0.649703;-1.17261;1.34132;-7.18741;-0.00160271;0.000163178;0.00367683;0.00368187;-0.00160774;0.00264481;0.435893;2.29414;0.00313124;0.00352641;2.29009;0.436665;124.463;169.463;-0.00389481;-0.0016076;0.00347431;-0.00313054;0.00367083;0.0128874;0.0520496;0;0.0550057;5.79853;4.62084
366000;367;25.8333;0.0757566;0.00294114;-2.30663;25.7281;0.321167;-0.00269053;0.101206;-0.863999;-0.0394505;-0.550687;-0.316983;0.636625;-7.48144;-0.00131027;7.73384e-05;0.00257693;0.00257847;-0.00131181;0.00194514;0.508462;1.96672;0.00228539;0.00259352;1.96558;0.508755;52.5201;97.5201;0.00345203;-0.0013125;-0.0019656;0.00211235;0.002575;0.00191586;0.0208337;0;0.0219982;-0.0454582;-0.651989;-1.17602;1.34543;-7.19082;-0.00157955;0.000192184;0.00408287;0.00408939;-0.00158606;0.00283772;0.386871;2.58484;0.0033813;0.00378363;2.57833;0.387848;122.539;167.539;-0.00368701;-0.00158425;0.00347338;-0.00307051;0.00407688;0.0174944;0.0501395;0;0.0493228;5.8681;4.62755
367000;368;25.8377;0.0801415;0.00311138;-2.30619;25.7325;0.323315;-0.00225023;0.105621;-0.861851;-0.0407073;-0.548729;-0.324823;0.638961;-7.48928;-0.00113819;0.000156011;0.0029898;0.00299569;-0.00114408;0.00206988;0.38069;2.62681;0.0024685;0.00275984;2.61843;0.381908;55.1547;100.155;0.00249527;-0.00114055;-0.00187365;0.00217732;0.00298806;0.00270975;0.0216296;0;0.0387778;-0.0467298;-0.65222;-1.18459;1.35308;-7.19939;-0.00151221;0.000309237;0.00428137;0.00429782;-0.00152867;0.00291325;0.353209;2.83119;0.00348827;0.00388433;2.81147;0.355685;120.464;165.464;-0.00427448;-0.00151656;0.00360106;-0.0029636;0.00427496;0.0143684;0.0519916;0;0.0481076;5.94349;4.63544
368000;369;25.8383;0.0807599;0.00313539;-2.30728;25.7331;0.320977;-0.00334269;0.106173;-0.864189;-0.0395831;-0.553567;-0.318879;0.640068;-7.48334;-0.00121362;0.000197174;0.00315285;0.00316173;-0.0012225;0.00219212;0.384927;2.59789;0.00261247;0.00292282;2.58628;0.386656;55.8955;100.895;0.00346058;-0.00121582;-0.0017194;0.00210541;0.00315139;0.00223106;0.0208592;0;0.0436771;-0.046;-0.657361;-1.17985;1.3514;-7.19465;-0.00168381;0.000249797;0.0042876;0.00429803;-0.00169424;0.00299614;0.392717;2.54636;0.00356685;0.00399485;2.53684;0.394191;121.863;166.863;-0.00494404;-0.00168849;0.00358466;-0.00306524;0.00428124;0.0183242;0.0507707;0;0.0409607;6.00479;4.6425
369000;370;25.8378;0.0802691;0.00311634;-2.30734;25.7326;0.315596;-0.00340644;0.105741;-0.86957;-0.0404633;-0.555664;-0.318489;0.641744;-7.48295;-0.00119296;8.77289e-05;0.00339374;0.00339542;-0.00119464;0.00229503;0.351517;2.84481;0.00274973;0.00306004;2.84222;0.351838;58.6626;103.663;0.00292852;-0.00119502;-0.0018659;0.00203243;0.00339201;0.00310225;0.0197858;0;0.0290184;-0.0474074;-0.661112;-1.18076;1.35407;-7.19556;-0.00181078;0.000404459;0.00424513;0.00427202;-0.00183767;0.00305485;0.426555;2.34436;0.00361956;0.00407313;2.32469;0.430165;120.896;165.896;-0.00437832;-0.00181474;0.00367069;-0.00284208;0.0042385;0.0168159;0.0496676;0;0.0320767;6.07209;4.65013
370000;371;25.8384;0.0808884;0.00314038;-2.3088;25.7332;0.310208;-0.00485966;0.106298;-0.874958;-0.0413639;-0.557545;-0.32072;0.644538;-7.48518;-0.00121105;-0.000102157;0.00414117;0.00414312;-0.001213;0.00267806;0.292441;3.4195;0.00324293;0.00357074;3.41561;0.292774;66.0337;111.034;0.00245349;-0.00121241;-0.00186463;0.00165093;0.00413945;0.00414781;0.0179533;0;0.026927;-0.0483513;-0.664163;-1.18153;1.35627;-7.19633;-0.00165769;0.000333328;0.00414574;0.00416483;-0.00167677;0.0029208;0.399854;2.50092;0.00347312;0.0038944;2.48383;0.402603;120.816;165.816;-0.0046556;-0.00166151;0.00346637;-0.00278161;0.00413982;0.0166747;0.0464148;0;0.0310497;6.1376;4.65712
371000;372;25.8416;0.0840895;0.00326466;-2.30851;25.7364;0.311956;-0.00457371;0.109517;-0.87321;-0.0417355;-0.561011;-0.315808;0.645144;-7.48027;-0.0011748;2.63141e-05;0.00349417;0.00349431;-0.00117494;0.00233463;0.336216;2.97428;0.00280447;0.00311284;2.97403;0.336244;60.251;105.251;0.00326091;-0.00117669;-0.00190227;0.00194592;0.00349236;0.00382072;0.0210055;0;0.0369033;-0.0491394;-0.668022;-1.18006;1.35692;-7.19486;-0.00160917;0.000412188;0.00412671;0.00415618;-0.00163864;0.00289741;0.389941;2.56449;0.00344928;0.00386321;2.53636;0.394266;119.515;164.515;-0.00436187;-0.00161244;0.00343103;-0.00258942;0.00412093;0.0151136;0.0445474;0;0.0318744;6.21102;4.66498
372000;373;25.8415;0.083984;0.00326056;-2.31002;25.7361;0.313942;-0.00607893;0.109252;-0.871224;-0.0417956;-0.562379;-0.318503;0.647658;-7.48296;-0.00118029;-1.61704e-05;0.00394688;0.00394693;-0.00118034;0.00256364;0.299043;3.344;0.00310055;0.00341818;3.3439;0.299052;63.6511;108.651;0.00352268;-0.00118195;-0.00186535;0.00182357;0.00394515;0.00324503;0.0200658;0;0.0276775;-0.0492559;-0.670238;-1.18272;1.36032;-7.19752;-0.0016193;0.000439279;0.00388225;0.00391711;-0.00165415;0.00278563;0.417103;2.39749;0.00330383;0.00371417;2.36804;0.422289;119.504;164.504;-0.00366754;-0.00162203;0.00327194;-0.00237787;0.00387702;0.0127567;0.0451966;0;0.0313082;6.26737;4.67192
373000;374;25.845;0.0874317;0.00339441;-2.31028;25.7396;0.314578;-0.00634754;0.112682;-0.870588;-0.041866;-0.563846;-0.322055;0.650687;-7.48651;-0.00110605;-7.09047e-05;0.00446916;0.00447006;-0.00110695;0.0027885;0.247485;4.04065;0.00340946;0.00371801;4.03817;0.247637;66.5146;111.515;0.00255084;-0.00110771;-0.00197726;0.00182487;0.00446721;0.00634092;0.0199663;0;0.02889;-0.0495471;-0.672659;-1.18972;1.36761;-7.20452;-0.00159818;0.0004327;0.0037729;0.00380754;-0.00163281;0.00272017;0.423593;2.36076;0.00322355;0.0036269;2.33189;0.428836;119.711;164.711;-0.00360429;-0.00160083;0.00322424;-0.0023439;0.00376782;0.0126271;0.04534;0;0.0328157;6.31629;4.67852
374000;375;25.8471;0.0895826;0.00347792;-2.3114;25.7416;0.316966;-0.00746385;0.114712;-0.8682;-0.0418596;-0.567082;-0.320931;0.65294;-7.48539;-0.00118997;0.000166867;0.00478193;0.00478659;-0.00119463;0.00299061;0.248847;4.01854;0.00365494;0.00398748;4.00677;0.249578;65.3335;110.333;0.00283094;-0.00119203;-0.00171245;0.00203501;0.00478049;0.00614815;0.0209385;0;0.0333666;-0.049937;-0.677506;-1.18692;1.36759;-7.20172;-0.00171576;0.000498919;0.00380396;0.00384869;-0.0017605;0.00280459;0.451047;2.21706;0.00331243;0.00373946;2.18614;0.457428;120.702;165.702;-0.00394594;-0.00171918;0.00367393;-0.00265864;0.00379736;0.0139881;0.0443434;0;0.0344956;6.39152;4.68429
375000;376;25.8485;0.0909538;0.00353116;-2.31188;25.7429;0.317619;-0.00794228;0.116038;-0.867547;-0.0411921;-0.571429;-0.320433;0.656434;-7.48489;-0.00108591;8.81994e-05;0.00489845;0.00489975;-0.00108721;0.00299348;0.221684;4.51093;0.00368279;0.0039913;4.50673;0.22189;65.7294;110.729;0.00309205;-0.00108816;-0.00195772;0.00212193;0.00489654;0.00529268;0.0223464;0;0.0327956;-0.0492347;-0.682212;-1.18976;1.37236;-7.20456;-0.00182257;0.000324163;0.00385963;0.00387806;-0.001841;0.00285953;0.472213;2.11769;0.003371;0.00381271;2.1065;0.474721;122.521;167.521;-0.00326251;-0.00182627;0.00340319;-0.00273744;0.00385392;0.0108251;0.0463004;0;0.0406668;6.43977;4.68923
376000;377;25.8497;0.0921866;0.00357902;-2.31086;25.7443;0.31474;-0.00692095;0.117403;-0.870426;-0.0420745;-0.572776;-0.320887;0.657884;-7.48534;-0.00119975;-5.83031e-05;0.00494111;0.00494167;-0.00120031;0.00307099;0.242811;4.11844;0.00375898;0.00409465;4.117;0.242895;68.2225;113.223;0.00322768;-0.00120135;-0.00191663;0.00178867;0.00493929;0.00445509;0.0219104;0;0.0274367;-0.0499037;-0.684777;-1.19176;1.3754;-7.20656;-0.001769;0.000314894;0.00402273;0.0040398;-0.00178607;0.00291293;0.439751;2.27401;0.00344644;0.00388391;2.26184;0.442119;122.131;167.131;-0.00216913;-0.00177308;0.00351876;-0.0028705;0.00401661;0.00953145;0.048793;0;0.0393969;6.49302;4.69487
377000;378;25.8499;0.0923904;0.00358693;-2.31164;25.7445;0.312308;-0.00770432;0.117567;-0.872858;-0.0408892;-0.574235;-0.327024;0.662089;-7.49148;-0.00123197;0.000176099;0.00519136;0.00519618;-0.0012368;0.00321649;0.237312;4.21386;0.00394161;0.00428865;4.20132;0.23802;66.2218;111.222;0.00315395;-0.0012342;-0.0017757;0.00211542;0.0051898;0.00469672;0.0218493;0;0.029299;-0.0488371;-0.686948;-1.199;1.38271;-7.2138;-0.00177821;0.000424889;0.00413742;0.00416778;-0.00180857;0.00298817;0.429787;2.32674;0.00353893;0.00398423;2.30446;0.433941;120.749;165.749;-0.00345296;-0.00178195;0.00363611;-0.00276742;0.00413092;0.0136717;0.0445853;0;0.0414387;6.53853;4.70194
378000;379;25.85;0.0924419;0.00358893;-2.31045;25.7447;0.305361;-0.00650839;0.117809;-0.879805;-0.040831;-0.57746;-0.325676;0.664223;-7.49013;-0.00117498;-2.95933e-05;0.00524432;0.00524446;-0.00117512;0.00320979;0.224049;4.46331;0.00394676;0.00427972;4.46291;0.224069;69.2763;114.276;0.00293352;-0.00117661;-0.00187117;0.00180022;0.00524258;0.00486027;0.0231713;0;0.0288786;-0.0489023;-0.691275;-1.19897;1.38484;-7.21377;-0.00179704;0.000410263;0.00412419;0.00415248;-0.00182533;0.0029889;0.435731;2.29499;0.00353739;0.0039852;2.27492;0.439575;121.384;166.384;-0.00362515;-0.00180121;0.00375464;-0.0029144;0.00411725;0.015338;0.0476298;0;0.0438594;6.5834;4.70968
379000;380;25.8489;0.091425;0.00354945;-2.31006;25.7437;0.307532;-0.00612702;0.116796;-0.877634;-0.0414087;-0.579447;-0.327755;0.667006;-7.49221;-0.00134332;7.20557e-05;0.00520831;0.00520911;-0.00134411;0.00327661;0.257918;3.8772;0.00399683;0.00436881;3.87551;0.258031;67.1858;112.186;0.00320231;-0.00134524;-0.0018299;0.00196162;0.00520665;0.00462886;0.0236524;0;0.0281341;-0.0495872;-0.693927;-1.19964;1.38677;-7.21444;-0.00197784;0.000282575;0.00409666;0.00410978;-0.00199096;0.00305037;0.482794;2.07128;0.00359238;0.00406716;2.06422;0.484444;123.5;168.5;-0.00277328;-0.00198247;0.00363622;-0.00305079;0.00409012;0.0101937;0.0503099;0;0.0496638;6.63072;4.71613
380000;381;25.8495;0.0920024;0.00357186;-2.3106;25.7442;0.312033;-0.0066625;0.117274;-0.873133;-0.041869;-0.582435;-0.331142;0.671296;-7.4956;-0.00127834;-4.53902e-06;0.00545864;0.00545865;-0.00127834;0.00336849;0.234186;4.27012;0.00413167;0.00449132;4.27011;0.234186;68.3902;113.39;0.00286975;-0.00128027;-0.00198657;0.00196421;0.00545668;0.00551864;0.0217777;0;0.0278917;-0.0501199;-0.696814;-1.20318;1.3913;-7.21798;-0.00189001;0.000303431;0.00422737;0.00424238;-0.00190502;0.0030737;0.447088;2.23669;0.00363372;0.00409827;2.22695;0.449045;122.701;167.701;-0.00305249;-0.00189482;0.00374215;-0.00311435;0.00422044;0.0100968;0.0534334;0;0.0487663;6.66943;4.72321
381000;382;25.8489;0.0913748;0.0035475;-2.3106;25.7435;0.310557;-0.00665925;0.116662;-0.874609;-0.0424601;-0.584446;-0.334468;0.674722;-7.49893;-0.00128468;-3.232e-05;0.00521298;0.00521314;-0.00128484;0.00324899;0.246438;4.05781;0.00397356;0.00433199;4.05743;0.246462;68.0562;113.056;0.00310542;-0.00128648;-0.00197151;0.00189434;0.00521105;0.00332623;0.023214;0;0.0290954;-0.0509461;-0.698598;-1.20897;1.39723;-7.22377;-0.00194702;0.000251626;0.00433844;0.0043485;-0.00195708;0.00315279;0.448784;2.22825;0.00372677;0.00420372;2.22193;0.450058;123.1;168.1;-0.00325264;-0.00195208;0.00371295;-0.00318804;0.00433161;0.0106809;0.0516302;0;0.0500454;6.71213;4.72995
382000;383;25.8509;0.0933679;0.00362488;-2.31066;25.7455;0.31215;-0.0067223;0.118638;-0.873016;-0.0451985;-0.58687;-0.337414;0.67846;-7.50187;-0.00133383;-0.000145092;0.00539491;0.00539804;-0.00133696;0.0033675;0.247238;4.04468;0.00411734;0.00448999;4.03756;0.247674;68.4948;113.495;0.00331598;-0.00133566;-0.00222325;0.00191916;0.00539246;0.0029316;0.0230966;0;0.0300372;-0.0540065;-0.702955;-1.20867;1.39927;-7.22347;-0.00172018;0.000439733;0.00475369;0.00478342;-0.00174991;0.00326667;0.361863;2.76348;0.00390521;0.00435556;2.73352;0.365829;119.563;164.563;-0.00406556;-0.00172496;0.00402088;-0.00311834;0.00474574;0.0146433;0.0517538;0;0.0430131;6.76041;4.73721
383000;384;25.8523;0.0947269;0.00367764;-2.31017;25.7469;0.315222;-0.00623287;0.120009;-0.869944;-0.0458728;-0.58691;-0.350005;0.684888;-7.51446;-0.00157228;-0.000380606;0.00541966;0.00544032;-0.00159294;0.00351663;0.290107;3.44701;0.00425836;0.00468884;3.41528;0.292802;69.4912;114.491;0.00234528;-0.00157365;-0.00247388;0.00169811;0.00541669;0.00417843;0.022929;0;0.0328954;-0.0547091;-0.703597;-1.2214;1.41063;-7.2362;-0.00183879;0.000537154;0.00491671;0.00495915;-0.00188123;0.00342019;0.373988;2.67388;0.00408039;0.00456026;2.63612;0.379346;118.836;163.836;-0.00459945;-0.00184329;0.00414456;-0.00304601;0.00490831;0.0136486;0.0556231;0;0.0383063;6.78496;4.74419
384000;385;25.8519;0.0943393;0.00366259;-2.31029;25.7465;0.313109;-0.00635501;0.119635;-0.872057;-0.0463735;-0.589632;-0.347826;0.686148;-7.51228;-0.00140782;-0.000234179;0.00494263;0.00495126;-0.00141644;0.00318385;0.284831;3.51085;0.00386059;0.00424513;3.49556;0.286077;66.7233;111.723;0.00304344;-0.00140966;-0.00241262;0.0019305;0.00493977;0.00295706;0.0250425;0;0.0304888;-0.0555748;-0.706767;-1.22061;1.41156;-7.23541;-0.00183317;0.000504566;0.00501307;0.00505006;-0.00187016;0.00346011;0.365678;2.73464;0.0041336;0.00461348;2.70034;0.370324;119.12;164.12;-0.0044901;-0.00183812;0.0042176;-0.00318318;0.00500435;0.0131217;0.0538938;0;0.0348164;6.8299;4.75163
385000;386;25.8499;0.0924116;0.00358775;-2.3108;25.7447;0.302695;-0.00686464;0.117778;-0.882471;-0.046552;-0.593373;-0.346082;0.6885;-7.51054;-0.0014405;-0.000156815;0.00458366;0.00458773;-0.00144458;0.00301616;0.314268;3.182;0.00363694;0.00402154;3.17584;0.314878;64.702;109.702;0.00317926;-0.00144243;-0.00229947;0.00197299;0.00458104;0.00216673;0.025657;0;0.0271697;-0.0559044;-0.710923;-1.22048;1.41354;-7.23528;-0.00174562;0.000610653;0.00488081;0.00493662;-0.00180142;0.00336902;0.357649;2.79604;0.00402813;0.00449202;2.7404;0.36491;116.54;161.54;-0.00523985;-0.00174866;0.00378334;-0.00254112;0.00487387;0.0138066;0.0542687;0;0.0296351;6.86459;4.75674
386000;387;25.8522;0.0946859;0.00367605;-2.31182;25.7469;0.297962;-0.00788203;0.120026;-0.887204;-0.0471102;-0.594648;-0.350952;0.692094;-7.51541;-0.00131492;2.32489e-05;0.00441105;0.00441114;-0.00131502;0.00286308;0.298097;3.35461;0.00346334;0.00381744;3.35444;0.298112;63.0614;108.061;0.00300763;-0.00131715;-0.00207428;0.00210882;0.00440891;0.00260358;0.0232516;0;0.0333109;-0.0566577;-0.713832;-1.22552;1.41939;-7.24032;-0.00177498;0.000756488;0.00498661;0.00507021;-0.00185859;0.0034644;0.35595;2.80938;0.00414111;0.0046192;2.72799;0.36657;115.888;160.888;-0.00394392;-0.00177808;0.00413498;-0.00259928;0.00497839;0.0125988;0.0504704;0;0.0286717;6.90023;4.7608
387000;388;25.8535;0.0960208;0.00372787;-2.31241;25.7482;0.302068;-0.00846936;0.121265;-0.883098;-0.0489262;-0.599114;-0.346886;0.694018;-7.51134;-0.0012717;-0.000161267;0.00395954;0.0039645;-0.00127666;0.00262058;0.321173;3.11358;0.00315584;0.00349411;3.10536;0.322024;62.7602;107.76;0.00274571;-0.00127367;-0.00232488;0.00199107;0.00395686;0.00197837;0.02301;0;0.0398681;-0.0585176;-0.718681;-1.22203;1.4189;-7.23683;-0.0018501;0.000854009;0.00457236;0.00468398;-0.00196172;0.00332285;0.404626;2.47142;0.00394273;0.00443046;2.38769;0.418814;114.868;159.868;-0.00406952;-0.00185177;0.0037463;-0.00201979;0.00456573;0.0112883;0.0495759;0;0.0282632;6.93554;4.7674
388000;389;25.8551;0.0975445;0.00378703;-2.31152;25.7498;0.301155;-0.0075844;0.122885;-0.884011;-0.0488199;-0.600285;-0.352548;0.697865;-7.51701;-0.00125063;-8.28651e-05;0.00431725;0.00431848;-0.00125187;0.00278517;0.289683;3.45205;0.00337459;0.00371357;3.44964;0.289885;64.4536;109.454;0.00319722;-0.00125251;-0.00211418;0.00193719;0.00431503;0.00084605;0.0205384;0;0.0270195;-0.0590239;-0.720974;-1.22889;1.42599;-7.24116;-0.00184701;0.000777269;0.00481685;0.00490631;-0.00193647;0.00342139;0.383448;2.60791;0.00407282;0.00456185;2.53363;0.39469;114.964;159.964;-0.00207067;-0.00184902;0.00372159;-0.00214753;0.00481026;0.00623652;0.047463;0;0.0344341;6.96773;4.77331
389000;390;25.8577;0.100195;0.00388995;-2.31198;25.7523;0.306561;-0.00803996;0.125443;-0.878605;-0.0498462;-0.603435;-0.351532;0.700138;-7.51599;-0.00141671;-0.000291319;0.00423028;0.00424527;-0.0014317;0.00283849;0.334897;2.98599;0.00340914;0.00378465;2.9652;0.337245;66.4188;111.419;0.0026751;-0.00141791;-0.00217205;0.00157884;0.00422798;0.00216207;0.0199146;0;0.0330211;-0.0600515;-0.724211;-1.2287;1.42751;-7.2435;-0.00189757;0.000893859;0.00440291;0.00452727;-0.00202193;0.0032746;0.43098;2.32029;0.0038723;0.00436613;2.23909;0.446611;116.114;161.114;-0.00422026;-0.00189964;0.00403098;-0.0022236;0.00439522;0.011663;0.046857;0;0.0312454;7.0096;4.78063
390000;391;25.8592;0.101711;0.0039488;-2.31188;25.7538;0.309018;-0.00794374;0.126944;-0.876148;-0.0494522;-0.606807;-0.351807;0.703156;-7.51626;-0.00131358;-0.000143279;0.00454264;0.00454614;-0.00131708;0.00293161;0.289167;3.45821;0.00355213;0.00390881;3.45167;0.289715;66.139;111.139;0.00336957;-0.00131522;-0.00211474;0.00181669;0.00454042;0.00173013;0.0193294;0;0.0430958;-0.0594769;-0.728417;-1.23046;1.43114;-7.24526;-0.00180636;0.0007699;0.00455608;0.00464792;-0.0018982;0.00327306;0.396473;2.52224;0.00388896;0.00436408;2.44859;0.408398;116.555;161.555;-0.00343911;-0.00180903;0.00399109;-0.00243089;0.00454845;0.00980877;0.0465594;0;0.0360854;7.03564;4.78781
391000;392;25.8627;0.105159;0.00408264;-2.31355;25.7571;0.313971;-0.00961071;0.130196;-0.871195;-0.0514048;-0.610521;-0.353223;0.707209;-7.51768;-0.00123258;-0.000180086;0.0047863;0.00479168;-0.00123797;0.00301482;0.257523;3.88314;0.00367724;0.00401977;3.87061;0.258357;67.2584;112.258;0.00251746;-0.00123429;-0.00222964;0.00185719;0.00478384;0.00409128;0.0187673;0;0.0412679;-0.0626198;-0.733964;-1.229;1.43285;-7.2438;-0.00164924;0.000942445;0.00455381;0.00469383;-0.00178927;0.00324155;0.362167;2.76115;0.00386621;0.00432207;2.62333;0.381195;115.094;160.094;-0.0034465;-0.00165193;0.00440852;-0.00250224;0.00454458;0.00894054;0.0472441;0;0.0447581;7.07688;4.79576
392000;393;25.8636;0.106064;0.00411777;-2.31235;25.7581;0.311536;-0.0084087;0.131242;-0.87363;-0.0511744;-0.610488;-0.359747;0.710445;-7.5242;-0.00116294;-0.000179151;0.00525455;0.00525955;-0.00116794;0.00321375;0.221321;4.51832;0.00395361;0.00428499;4.50326;0.222061;70.1423;115.142;0.00250522;-0.00116441;-0.00209264;0.00172213;0.00525239;0.00440968;0.0183233;0;0.0316623;-0.0617797;-0.734032;-1.23877;1.44124;-7.25357;-0.00177088;0.000834109;0.00471251;0.0048181;-0.00187647;0.00334728;0.375782;2.66112;0.00398755;0.00446304;2.56764;0.389462;116.783;161.783;-0.00365457;-0.0017745;0.00450765;-0.00281573;0.00470274;0.0113094;0.0498494;0;0.0371471;7.10876;4.80294
393000;394;25.8635;0.105989;0.00411487;-2.31213;25.7581;0.309756;-0.00819088;0.131208;-0.87541;-0.0513934;-0.612737;-0.360228;0.712638;-7.52469;-0.00124821;-0.000194074;0.00505174;0.00505771;-0.00125419;0.00315595;0.247086;4.04718;0.00385842;0.00420793;4.03266;0.247975;68.929;113.929;0.00290221;-0.00124973;-0.00215246;0.00175204;0.00504945;0.00461475;0.0191347;0;0.0353105;-0.0623755;-0.736723;-1.24075;1.44434;-7.25555;-0.00182118;0.000935862;0.00467907;0.00481112;-0.00195324;0.00338218;0.389219;2.56925;0.00401991;0.00450958;2.46315;0.405984;115.668;160.668;-0.00289843;-0.00182389;0.00439886;-0.00250474;0.00466987;0.00960711;0.0509858;0;0.0451231;7.14103;4.81052
394000;395;25.867;0.109521;0.00425198;-2.31217;25.7616;0.313553;-0.00822897;0.134705;-0.871613;-0.0520476;-0.615615;-0.362473;0.716294;-7.52693;-0.00116053;-0.000169212;0.00586842;0.0058725;-0.0011646;0.00351855;0.197758;5.05668;0.00435541;0.0046914;5.0425;0.198314;71.6332;116.633;0.00285252;-0.00116208;-0.00212192;0.00176985;0.0058662;0.00487548;0.0195981;0;0.0339806;-0.063079;-0.740569;-1.24252;1.44785;-7.25732;-0.00191607;0.000894967;0.0047588;0.00487671;-0.00203398;0.00345535;0.402637;2.48363;0.00410087;0.00460713;2.39762;0.417081;117.519;162.519;-0.00238133;-0.00192028;0.00485084;-0.00303464;0.00474749;0.0087962;0.0526408;0;0.0461438;7.17831;4.81879
395000;396;25.866;0.10852;0.00421315;-2.31202;25.7606;0.310877;-0.0080859;0.133746;-0.874289;-0.0523971;-0.618685;-0.362473;0.71896;-7.52693;-0.00125812;-9.20951e-05;0.00591539;0.00591658;-0.0012593;0.00358794;0.212685;4.70179;0.0044243;0.00478392;4.69832;0.212842;70.4406;115.441;0.00214216;-0.00125992;-0.00210076;0.00190225;0.0059132;0.00581753;0.0203849;0;0.0269242;-0.0641292;-0.743938;-1.24272;1.4498;-7.25752;-0.00170876;0.000914407;0.00473141;0.00485872;-0.00183608;0.0033474;0.361154;2.76891;0.00399441;0.0044632;2.64625;0.377894;115.804;160.804;-0.00270196;-0.0017121;0.00458939;-0.00273703;0.00472134;0.00586546;0.0517724;0;0.0444098;7.208;4.8261
396000;397;25.8649;0.107402;0.00416971;-2.31155;25.7596;0.309978;-0.00761041;0.132676;-0.875188;-0.0539548;-0.620919;-0.363694;0.721613;-7.52815;-0.00126269;-0.0001874;0.0059055;0.0059104;-0.00126759;0.00358899;0.213816;4.67692;0.00442375;0.00478532;4.66271;0.214467;71.5381;116.538;0.00251084;-0.00126421;-0.00214261;0.00175388;0.00590324;0.00514603;0.0222101;0;0.0362597;-0.0654061;-0.746835;-1.24457;1.45293;-7.25937;-0.00177124;0.000872271;0.00477993;0.00489408;-0.00188539;0.00338974;0.370558;2.69863;0.00404057;0.00451965;2.59579;0.385239;115.857;160.857;-0.00305135;-0.00177429;0.00438377;-0.00261634;0.00477075;0.00733937;0.0533033;0;0.0569954;7.24029;4.83217
397000;398;25.8626;0.105062;0.0040789;-2.31175;25.7573;0.303617;-0.00780904;0.130385;-0.881549;-0.0543889;-0.624502;-0.363897;0.724832;-7.52835;-0.001289;-0.000100035;0.00607406;0.00607542;-0.00129036;0.00368289;0.212214;4.71223;0.00454192;0.00491052;4.70832;0.21239;70.1078;115.108;0.00259128;-0.00129101;-0.0022197;0.00200411;0.00607162;0.00475574;0.0217254;0;0.0390819;-0.0663047;-0.750985;-1.24398;1.4546;-7.25878;-0.0018476;0.000947361;0.00510543;0.00523219;-0.00197437;0.00360328;0.361889;2.76328;0.00430009;0.00480437;2.65006;0.37735;114.527;159.527;-0.0025579;-0.00185014;0.00436102;-0.0024427;0.00509641;0.00665134;0.0564388;0;0.0541608;7.27695;4.83743
398000;399;25.8619;0.104343;0.00405098;-2.31309;25.7565;0.297401;-0.00915609;0.129614;-0.887765;-0.0547016;-0.626709;-0.367455;0.728547;-7.53191;-0.00126107;-0.000260231;0.00631547;0.0063244;-0.00127;0.0037972;0.19968;5.00802;0.00469718;0.00506293;4.97985;0.200809;72.6814;117.681;0.00276792;-0.00126258;-0.00228964;0.0017539;0.0063129;0.00325289;0.0226052;0;0.0368613;-0.0668007;-0.753822;-1.24805;1.45957;-7.26285;-0.00180741;0.000968594;0.00527693;0.00540698;-0.00193746;0.00367222;0.342512;2.9196;0.0043952;0.00489629;2.79076;0.358325;113.716;158.716;-0.00285035;-0.00180983;0.00436227;-0.00240118;0.00526794;0.00717569;0.0572018;0;0.0448996;7.30292;4.8403
399000;400;25.8616;0.104073;0.00404048;-2.31288;25.7563;0.297146;-0.00893904;0.129365;-0.88802;-0.0552153;-0.631517;-0.362195;0.730101;-7.52665;-0.00133361;-0.000293039;0.00648054;0.00649151;-0.00134459;0.00391805;0.205787;4.85939;0.00483855;0.00522407;4.82789;0.20713;73.2264;118.226;0.00253346;-0.00133502;-0.00230637;0.00170466;0.00647794;0.00406193;0.023164;0;0.041835;-0.0675462;-0.759236;-1.24188;1.45715;-7.25668;-0.00189353;0.00104898;0.00546249;0.00560915;-0.00204019;0.00382467;0.346642;2.88482;0.00457377;0.00509956;2.74932;0.363726;112.315;157.315;-0.00344564;-0.00189522;0.00423544;-0.00211418;0.00545411;0.00751936;0.0569007;0;0.0454874;7.34651;4.84698
400000;401;25.8616;0.104111;0.00404196;-2.3139;25.7563;0.291214;-0.00996129;0.12938;-0.893952;-0.0565796;-0.632186;-0.366844;0.7331;-7.5313;-0.00133289;-0.000510281;0.00645905;0.00649232;-0.00136616;0.00392924;0.20636;4.84591;0.00484819;0.00523899;4.75224;0.210427;73.8169;118.817;0.00286302;-0.00133408;-0.00266363;0.0016264;0.00645565;0.00324359;0.0222487;0;0.0422217;-0.069358;-0.760292;-1.24791;1.46292;-7.26271;-0.00183505;0.00100512;0.00541723;0.00555396;-0.00197178;0.00376287;0.338744;2.95208;0.00450607;0.00501716;2.81672;0.355023;110.793;155.793;-0.00365947;-0.0018361;0.00379251;-0.00176217;0.00541058;0.0085342;0.0597795;0;0.038385;7.35568;4.85465
401000;402;25.8639;0.106397;0.00413072;-2.31494;25.7585;0.287794;-0.0109991;0.13162;-0.897372;-0.056445;-0.63468;-0.370703;0.737174;-7.53516;-0.0012885;-0.000336421;0.00651953;0.006534;-0.00130297;0.00391848;0.197637;5.05978;0.00484903;0.00522464;5.0147;0.199414;73.212;118.212;0.00233427;-0.00128996;-0.00243229;0.00174319;0.00651665;0.00464875;0.0225177;0;0.0298687;-0.069343;-0.764027;-1.25317;1.46935;-7.26797;-0.0019348;0.00101386;0.00553735;0.00567247;-0.00206992;0.00387119;0.349408;2.86198;0.00462856;0.00516159;2.74043;0.364906;109.941;154.941;-0.00329699;-0.00193551;0.0036116;-0.00156459;0.00553137;0.0103178;0.0561183;0;0.0288747;7.40588;4.86122
402000;403;25.8645;0.106994;0.00415391;-2.31501;25.7591;0.28791;-0.0110694;0.132213;-0.897256;-0.0565062;-0.637943;-0.368394;0.738836;-7.53285;-0.00149136;-0.000300666;0.00619326;0.006205;-0.0015031;0.00385405;0.240803;4.15277;0.0047182;0.00513874;4.12813;0.24224;71.2397;116.24;0.00263407;-0.00149296;-0.00243224;0.00181463;0.00619036;0.00258457;0.0238326;0;0.0288828;-0.0695131;-0.768039;-1.25139;1.46993;-7.26619;-0.00191061;0.00104139;0.00524415;0.00539265;-0.00205911;0.00372588;0.364332;2.74475;0.00444345;0.00496784;2.61892;0.381837;109.968;154.968;-0.00390398;-0.00191112;0.00354575;-0.00144514;0.00523844;0.00825527;0.053857;0;0.0286414;7.42962;4.86876
403000;404;25.867;0.109492;0.00425088;-2.31534;25.7615;0.292633;-0.0114041;0.134637;-0.892533;-0.0572398;-0.640886;-0.367766;0.741123;-7.53222;-0.00139009;-0.00040513;0.00586786;0.0058904;-0.00141264;0.00365152;0.2369;4.2212;0.0044728;0.00486869;4.16979;0.23982;71.7444;116.744;0.00243628;-0.00139141;-0.00249847;0.00167311;0.00586484;0.00302908;0.022905;0;0.0293626;-0.0703181;-0.771334;-1.25234;1.4725;-7.26714;-0.00180342;0.00107951;0.00511729;0.00528177;-0.0019679;0.00362483;0.352418;2.83754;0.00432891;0.00483311;2.68396;0.372584;110.885;155.885;-0.00430823;-0.00180427;0.00386825;-0.00169004;0.00511043;0.00865911;0.0493664;0;0.0311079;7.46521;4.87613
404000;405;25.8694;0.11188;0.0043436;-2.31586;25.7638;0.296538;-0.0119273;0.136943;-0.888628;-0.0576599;-0.642836;-0.370061;0.743982;-7.53452;-0.00150696;-0.000535743;0.00587504;0.00591372;-0.00154564;0.00372968;0.256503;3.89859;0.00454614;0.00497291;3.82606;0.261366;72.0867;117.087;0.00252247;-0.00150807;-0.00266575;0.00157863;0.00587165;0.00325754;0.023271;0;0.0314537;-0.0711566;-0.774473;-1.25544;1.47682;-7.27024;-0.00195372;0.00116458;0.00504815;0.00523677;-0.00214234;0.00368955;0.387017;2.58387;0.00438342;0.00491941;2.44442;0.409095;110.758;155.758;-0.00344614;-0.00195418;0.00385498;-0.00150708;0.00504143;0.00694608;0.0469492;0;0.0289956;7.49382;4.88405
405000;406;25.8708;0.113306;0.00439895;-2.31611;25.7652;0.301234;-0.0121756;0.138298;-0.883932;-0.0587228;-0.644809;-0.372559;0.747012;-7.53702;-0.00148815;-0.000282698;0.00545945;0.00547093;-0.00149963;0.00348528;0.272582;3.66862;0.00423658;0.00464704;3.64819;0.274109;69.1072;114.107;0.00298059;-0.00148974;-0.00238432;0.0018044;0.00545666;0.0014574;0.0234553;0;0.0337972;-0.0723779;-0.777475;-1.25854;1.48109;-7.27334;-0.00201918;0.00102282;0.00507621;0.0052207;-0.00216368;0.00369219;0.397773;2.514;0.00438346;0.00492292;2.41289;0.414442;110.392;155.392;-0.00262718;-0.00201952;0.00338063;-0.00131836;0.00507104;0.00353434;0.0478394;0;0.0316948;7.52614;4.89129
406000;407;25.8725;0.114932;0.00446209;-2.31603;25.7668;0.304889;-0.0120894;0.139896;-0.880277;-0.0594783;-0.647224;-0.372013;0.748886;-7.53647;-0.00146642;-0.000202638;0.00564181;0.00564759;-0.00147219;0.00355989;0.259919;3.84735;0.00433984;0.00474652;3.83619;0.260676;68.9564;113.956;0.00251632;-0.00146822;-0.00233024;0.00190992;0.00563913;0.00145281;0.0237167;0;0.0342544;-0.0734824;-0.78099;-1.25794;1.48249;-7.27274;-0.00183094;0.00110487;0.00524814;0.00541658;-0.00199937;0.00370797;0.348873;2.86637;0.00443053;0.00494397;2.70914;0.36912;108.612;153.612;-0.0027085;-0.00183116;0.00352226;-0.00129551;0.00524258;0.00610314;0.047842;0;0.032925;7.55731;4.89875
407000;408;25.8749;0.117395;0.00455769;-2.31545;25.7693;0.30652;-0.0115174;0.1424;-0.878646;-0.059561;-0.649222;-0.375585;0.752396;-7.54004;-0.00150838;-0.000290529;0.0048596;0.00487283;-0.00152161;0.00319722;0.310391;3.22174;0.00385713;0.00426296;3.20243;0.312263;67.2843;112.284;0.00246768;-0.00150987;-0.00234622;0.00175214;0.00485691;0.00261714;0.023068;0;0.0294814;-0.0735132;-0.784387;-1.26297;1.48854;-7.27777;-0.00183276;0.00119053;0.00533816;0.00553065;-0.00202524;0.00377795;0.343331;2.91264;0.00451617;0.00503726;2.73086;0.366186;109.16;154.16;-0.00174545;-0.00183314;0.00387725;-0.00147703;0.00533139;0.00440694;0.0517803;0;0.0350815;7.58857;4.90543
408000;409;25.8752;0.117654;0.00456777;-2.31658;25.7695;0.304128;-0.01264;0.142589;-0.881038;-0.0607742;-0.652351;-0.373096;0.75396;-7.53755;-0.0014112;-0.00028462;0.00506676;0.00507924;-0.00142368;0.00325146;0.278522;3.59038;0.00394725;0.00433528;3.56767;0.280295;67.8495;112.85;0.00265128;-0.00141286;-0.00242475;0.00184172;0.00506387;0.00240394;0.0213338;0;0.0390232;-0.0750605;-0.78865;-1.26036;1.48866;-7.27516;-0.001892;0.00122112;0.00540732;0.00560618;-0.00209086;0.00384852;0.349896;2.85799;0.00459578;0.00513136;2.68128;0.372957;108.552;153.552;-0.00234391;-0.00189216;0.00380713;-0.00134614;0.00540085;0.00514895;0.0501922;0;0.0427094;7.6104;4.90948
409000;410;25.878;0.120523;0.00467914;-2.3155;25.7725;0.304215;-0.0115595;0.145565;-0.880951;-0.0611824;-0.653885;-0.375057;0.756291;-7.53951;-0.00140211;-0.000403601;0.00483146;0.00485748;-0.00142814;0.00314281;0.290205;3.44584;0.00380478;0.00419041;3.40128;0.294007;68.392;113.392;0.00238076;-0.00140345;-0.00250341;0.00168318;0.00482842;0.0013956;0.0218499;0;0.0374442;-0.0756701;-0.791655;-1.26299;1.49251;-7.27779;-0.00193914;0.00113272;0.00538974;0.00556082;-0.00211021;0.00383551;0.359783;2.77946;0.00457579;0.00511402;2.6352;0.379478;109.457;154.457;-0.00227689;-0.00193952;0.00371812;-0.00143385;0.00538351;0.00535582;0.049151;0;0.0462106;7.65425;4.91557
410000;411;25.8793;0.121745;0.00472659;-2.31576;25.7736;0.30467;-0.0118238;0.146763;-0.880496;-0.0619921;-0.656897;-0.373674;0.75828;-7.53813;-0.00144132;-0.000219707;0.00469716;0.00470502;-0.00144918;0.0030771;0.306849;3.25893;0.00371518;0.00410279;3.24669;0.308006;66.0033;111.003;0.00272009;-0.00144305;-0.0023226;0.00187033;0.0046945;0.00201149;0.0188694;0;0.0393132;-0.0767231;-0.796029;-1.26098;1.49319;-7.27579;-0.00197653;0.00111494;0.00543624;0.00560031;-0.00214059;0.00387045;0.363583;2.7504;0.00461561;0.0051606;2.61624;0.382228;109.433;154.433;-0.00281254;-0.0019769;0.0036606;-0.00141195;0.0054302;0.00501826;0.0506712;0;0.0527977;7.6737;4.92084
411000;412;25.8796;0.122083;0.00473971;-2.31496;25.7741;0.3025;-0.0110268;0.1472;-0.882666;-0.0618188;-0.658402;-0.376871;0.761148;-7.54133;-0.00148226;-0.000347766;0.00496324;0.00498194;-0.00150097;0.00324146;0.298648;3.34843;0.00391864;0.00432194;3.31915;0.301282;68.2631;113.263;0.00171319;-0.00148364;-0.00240784;0.0016991;0.00496041;0.00330643;0.0177892;0;0.0481384;-0.0766263;-0.798421;-1.26531;1.49812;-7.28011;-0.00188201;0.00106555;0.00548241;0.00563349;-0.00203309;0.00383329;0.343281;2.91306;0.00458611;0.00511105;2.77091;0.360893;110.058;155.058;-0.00167684;-0.00188277;0.00378053;-0.00162955;0.00547587;0.00206341;0.0517253;0;0.063193;7.70501;4.92837
412000;413;25.8788;0.121298;0.00470924;-2.31502;25.7733;0.29755;-0.0110833;0.146464;-0.887616;-0.0622296;-0.660806;-0.378757;0.764195;-7.54321;-0.00141288;-0.000571988;0.0051419;0.00519144;-0.00146241;0.00332692;0.274777;3.63931;0.00403769;0.0044359;3.54991;0.281697;71.5151;116.515;0.00214304;-0.00141372;-0.0025747;0.00141766;0.00513876;0.00374807;0.0181824;0;0.0362213;-0.0771481;-0.801714;-1.26795;1.50213;-7.28275;-0.0020724;0.000977109;0.00569678;0.00581778;-0.0021934;0.00400559;0.363784;2.74888;0.00478044;0.00534079;2.6524;0.377017;110.203;155.203;-0.00207826;-0.00207315;0.0035392;-0.00156519;0.00569102;0.00171874;0.0524021;0;0.0513487;7.72597;4.9357
413000;414;25.8795;0.121934;0.00473391;-2.31526;25.774;0.293527;-0.0113246;0.147127;-0.891639;-0.0628445;-0.663634;-0.382865;0.768729;-7.54732;-0.00133522;-0.000433754;0.00588981;0.00591576;-0.00136116;0.00363846;0.2267;4.41113;0.00446723;0.00485128;4.3461;0.230091;73.239;118.239;0.00242586;-0.00133625;-0.00238275;0.00150124;0.00588708;0.00349179;0.0195348;0;0.0432019;-0.0781721;-0.805713;-1.27407;1.50948;-7.28887;-0.0021231;0.00105203;0.0061435;0.00627528;-0.00225489;0.00426508;0.345585;2.89364;0.00510397;0.00568678;2.78297;0.359328;108.113;153.113;-0.00145297;-0.00212351;0.00350975;-0.0013855;0.00613792;0.00137305;0.0555427;0;0.0582381;7.76378;4.94352
414000;415;25.8804;0.122914;0.00477197;-2.31523;25.775;0.293762;-0.0112967;0.148111;-0.891404;-0.0643184;-0.666565;-0.376677;0.76833;-7.54113;-0.00147008;-0.000423995;0.00579303;0.0058177;-0.00149474;0.00365622;0.253766;3.94063;0.00446099;0.00487496;3.8921;0.256931;71.8987;116.899;0.00204465;-0.00147124;-0.00244339;0.00158082;0.00579015;0.00509532;0.0199925;0;0.0416882;-0.0797061;-0.809383;-1.26807;1.50647;-7.28287;-0.00195548;0.00102803;0.00647564;0.00659918;-0.00207902;0.0043391;0.301975;3.31153;0.00523201;0.00578547;3.17417;0.315043;107.243;152.243;-0.00207806;-0.00195608;0.00357498;-0.00149759;0.00646981;0.00152865;0.0556662;0;0.0469352;7.77968;4.95076
415000;416;25.8808;0.123286;0.0047864;-2.31596;25.7754;0.28924;-0.0120192;0.14847;-0.895926;-0.0655756;-0.669631;-0.37303;0.769323;-7.53749;-0.00151135;-0.000486256;0.00580604;0.00583821;-0.00154352;0.00369087;0.260307;3.84161;0.00449585;0.00492115;3.78239;0.264383;72.7851;117.785;0.00185355;-0.00151228;-0.00243267;0.001446;0.00580321;0.00608911;0.0198058;0;0.038118;-0.0812022;-0.814037;-1.26471;1.50624;-7.27951;-0.00182943;0.00103432;0.00679006;0.00691244;-0.0019518;0.00443212;0.269427;3.71158;0.00537827;0.0059095;3.54156;0.282361;106.093;151.093;-0.00234429;-0.00183002;0.00359497;-0.00150441;0.00678417;0.00340088;0.0532176;0;0.0427935;7.81507;4.95791
416000;417;25.882;0.124504;0.00483369;-2.31746;25.7766;0.277238;-0.0135217;0.14969;-0.907928;-0.0639763;-0.670646;-0.380295;0.773617;-7.54475;-0.00138062;-0.00025673;0.00603222;0.0060411;-0.0013895;0.0037153;0.228875;4.3692;0.00456166;0.00495374;4.34767;0.230008;72.268;117.268;0.00172753;-0.00138196;-0.002182;0.00165436;0.00602989;0.00583894;0.0192044;0;0.0337759;-0.0798074;-0.816258;-1.27513;1.51611;-7.28993;-0.00213539;0.00113374;0.00708255;0.00721995;-0.00227278;0.00474637;0.301499;3.31676;0.00572335;0.00632849;3.1767;0.314792;102.772;147.772;-0.00228401;-0.00213514;0.00317905;-0.000892845;0.00707817;0.00494425;0.0505296;0;0.0332682;7.83058;4.96507
417000;418;25.8845;0.126952;0.00492872;-2.31772;25.779;0.277242;-0.0137799;0.152125;-0.907924;-0.0651359;-0.674491;-0.374924;0.774434;-7.53938;-0.00158303;-0.000396761;0.00631347;0.00633335;-0.00160291;0.00396813;0.250738;3.98822;0.00484573;0.00529084;3.95115;0.253091;73.4081;118.408;0.00169905;-0.00158409;-0.00232031;0.00151169;0.00631087;0.00708293;0.0205491;0;0.0337928;-0.0811433;-0.821165;-1.27367;1.5176;-7.28847;-0.0021783;0.00114853;0.00660199;0.00674974;-0.00232605;0.0045379;0.329946;3.0308;0.00544344;0.00605053;2.9018;0.344613;105.037;150.037;-0.00304311;-0.00217818;0.00335681;-0.00104049;0.00659705;0.00530926;0.0469439;0;0.0300422;7.86974;4.97282
418000;419;25.888;0.13051;0.00506687;-2.31836;25.7824;0.284587;-0.0144202;0.15556;-0.900579;-0.0655033;-0.67476;-0.378517;0.776444;-7.54297;-0.0015114;-0.000314175;0.00671947;0.00673144;-0.00152337;0.00412741;0.224928;4.44587;0.00507225;0.00550321;4.41878;0.226307;73.6684;118.668;0.00211482;-0.00151271;-0.00229318;0.00164865;0.0067169;0.00582033;0.0206426;0;0.036068;-0.082336;-0.824566;-1.27418;1.51994;-7.28898;-0.00226939;0.00111967;0.00647852;0.00661955;-0.00241043;0.00451499;0.350295;2.85474;0.00539895;0.00601999;2.74622;0.364137;103.693;148.693;-0.00274172;-0.00226905;0.00301148;-0.000755711;0.00647464;0.00407404;0.0457287;0;0.0290563;7.89191;4.979
419000;420;25.8879;0.130356;0.00506088;-2.31885;25.7823;0.281029;-0.0149083;0.1554;-0.904137;-0.0673916;-0.680324;-0.371585;0.778111;-7.53604;-0.0014652;-0.000416361;0.0063481;0.00637023;-0.00148733;0.00392878;0.23081;4.33257;0.00481971;0.00523837;4.283;0.233481;73.0858;118.086;0.00195396;-0.00146644;-0.00247331;0.00162462;0.00634515;0.00668634;0.0228291;0;0.0399284;-0.0841861;-0.829795;-1.27157;1.5207;-7.28637;-0.00224091;0.00119207;0.00637106;0.00653302;-0.00240287;0.00446794;0.351733;2.84307;0.00533967;0.00595726;2.71884;0.367804;104.132;149.132;-0.00248083;-0.0022405;0.0031826;-0.00078144;0.00636673;0.00261406;0.0449277;0;0.0316263;7.91609;4.98335
420000;421;25.8914;0.133853;0.00519664;-2.32009;25.7857;0.28103;-0.0161561;0.158799;-0.904136;-0.0663132;-0.678096;-0.381564;0.780898;-7.54602;-0.00154883;-0.000609723;0.00679364;0.00683797;-0.00159316;0.00421556;0.227982;4.38631;0.00517215;0.00562075;4.29209;0.232987;76.0148;121.015;0.00143112;-0.00154951;-0.00254959;0.00131407;0.0067906;0.00738322;0.0210534;0;0.0298403;-0.0839003;-0.8316;-1.28059;1.52922;-7.29539;-0.00227482;0.00118337;0.00672869;0.00688163;-0.00242776;0.00465469;0.338077;2.9579;0.00557605;0.00620626;2.83456;0.352788;102.872;147.872;-0.00297165;-0.00227437;0.00309775;-0.000713901;0.00672462;0.00271241;0.0456946;0;0.0342895;7.93396;4.98683
421000;422;25.8959;0.138403;0.0053733;-2.32006;25.7902;0.288526;-0.0161224;0.163288;-0.89664;-0.0665441;-0.681239;-0.37801;0.781925;-7.54247;-0.00152329;-0.000373908;0.00689288;0.00690945;-0.00153987;0.00422466;0.220995;4.52498;0.00519621;0.00563289;4.48703;0.222865;74.2119;119.212;0.0023051;-0.00152454;-0.002387;0.00162236;0.00689012;0.00563311;0.0225675;0;0.0338558;-0.0845993;-0.83766;-1.27691;1.52949;-7.29171;-0.00224741;0.00115907;0.00716671;0.00730731;-0.00238802;0.00484766;0.31359;3.18887;0.00583283;0.00646355;3.05999;0.326798;102.729;147.729;-0.00235413;-0.0022471;0.00318779;-0.000850683;0.00716233;0.00149283;0.0500656;0;0.0371686;7.9647;4.99479
422000;423;25.8994;0.141864;0.00550767;-2.3217;25.7935;0.289933;-0.0177669;0.1666;-0.895233;-0.0665833;-0.681343;-0.38511;0.785475;-7.54957;-0.00145779;-0.000313076;0.00694895;0.00696059;-0.00146943;0.00421501;0.209785;4.76678;0.00519988;0.00562002;4.73693;0.211107;73.3626;118.363;0.00196015;-0.00145935;-0.00243884;0.00179494;0.00694605;0.00611406;0.0223299;0;0.0399324;-0.0855406;-0.841369;-1.28428;1.53772;-7.29908;-0.00226631;0.00117594;0.00754615;0.00768511;-0.00240527;0.00504519;0.300327;3.3297;0.00608572;0.00672692;3.19511;0.312979;100.451;145.451;-0.00183699;-0.00226582;0.00299703;-0.000627411;0.00754238;0.000869647;0.0489557;0;0.0415986;7.99053;5.00219
423000;424;25.9028;0.145252;0.0056392;-2.32049;25.797;0.289834;-0.0165551;0.170112;-0.895332;-0.0674785;-0.682885;-0.383423;0.786066;-7.54788;-0.00154767;-0.000462662;0.00702804;0.00705293;-0.00157256;0.00431274;0.220213;4.54105;0.00530442;0.00575032;4.48501;0.222965;75.4666;120.467;0.00228494;-0.00154864;-0.00241238;0.00147046;0.00702526;0.00478238;0.0215142;0;0.0300203;-0.0862342;-0.845136;-1.28329;1.539;-7.29809;-0.00241126;0.00120174;0.00764836;0.00778993;-0.00255283;0.00517138;0.315265;3.17194;0.00622133;0.00689517;3.05149;0.327709;101.76;146.76;-0.00178836;-0.00241083;0.0031885;-0.000765185;0.00764403;0.00183201;0.0477372;0;0.0410342;8.002;5.00877
424000;425;25.9047;0.147128;0.00571203;-2.32108;25.7988;0.288257;-0.0171389;0.171961;-0.896909;-0.0679538;-0.684311;-0.381998;0.786652;-7.54646;-0.00172187;-0.000524931;0.00684974;0.00688177;-0.0017539;0.00431783;0.251377;3.97808;0.00527067;0.00575711;3.9237;0.254861;73.983;118.983;0.00198361;-0.00172294;-0.00261841;0.00155073;0.00684647;0.00556412;0.0228363;0;0.0326989;-0.0873422;-0.849114;-1.28327;1.54123;-7.29807;-0.00239317;0.00105351;0.00789724;0.00800399;-0.00249991;0.00525195;0.303038;3.29991;0.00633588;0.0070026;3.20171;0.312333;101.77;146.77;-0.0015591;-0.002393;0.00300508;-0.000878146;0.00789331;0.00113456;0.0515411;0;0.0449296;8.02237;5.01643
425000;426;25.9071;0.149594;0.00580776;-2.321;25.8013;0.29015;-0.0170666;0.174422;-0.895017;-0.0681054;-0.685757;-0.382251;0.788046;-7.54671;-0.00162627;-0.000276808;0.0067343;0.00674346;-0.00163542;0.00418944;0.24149;4.14096;0.00512845;0.00558592;4.12338;0.24252;72.3258;117.326;0.00196769;-0.00162785;-0.00237089;0.00179989;0.00673155;0.00545087;0.022491;0;0.0335825;-0.0879054;-0.853803;-1.2836;1.54413;-7.2984;-0.00245843;0.00108928;0.00824266;0.00835242;-0.00256819;0.0054603;0.298257;3.35281;0.00659323;0.0072804;3.25226;0.307478;101.835;146.835;-0.00195207;-0.00245829;0.00314593;-0.000945553;0.00823834;0.00160377;0.0513098;0;0.0502329;8.04926;5.0238
426000;427;25.9072;0.14968;0.00581113;-2.32002;25.8016;0.283046;-0.016083;0.174676;-0.90212;-0.0688922;-0.687321;-0.381184;0.78896;-7.54564;-0.00168956;-0.000445328;0.00674292;0.00676637;-0.00171302;0.00423969;0.250568;3.99093;0.00517726;0.00565293;3.94998;0.253166;73.2384;118.238;0.00215456;-0.00169081;-0.00254794;0.00163967;0.00673979;0.00489047;0.0219927;0;0.0295767;-0.0889415;-0.85825;-1.28371;1.54674;-7.29851;-0.00243201;0.00121926;0.00858862;0.0087219;-0.00256529;0.0056436;0.283166;3.53149;0.00683216;0.00752479;3.39997;0.294121;100.567;145.567;-0.000787511;-0.0024316;0.00328426;-0.000823171;0.00858401;-0.000338104;0.0524935;0;0.0449701;8.06069;5.0315
427000;428;25.9121;0.154533;0.00599952;-2.32121;25.8063;0.281202;-0.0172768;0.179461;-0.903964;-0.0690442;-0.688327;-0.382959;0.790707;-7.54742;-0.00160943;-0.000507299;0.00680022;0.00683072;-0.00163992;0.00423532;0.236673;4.22523;0.00518759;0.00564709;4.16526;0.240081;74.1;119.1;0.00133641;-0.00161054;-0.00260094;0.00156886;0.00679699;0.0058274;0.0227936;0;0.0314389;-0.0898362;-0.862652;-1.28713;1.55208;-7.30193;-0.00244506;0.00116526;0.00939558;0.00950917;-0.00255864;0.0060339;0.260235;3.84269;0.00734246;0.00804521;3.71649;0.269071;100.266;145.266;-0.00200207;-0.00244485;0.00333037;-0.000974456;0.00939076;0.00282119;0.0536826;0;0.0417745;8.0885;5.03849
428000;429;25.9148;0.1573;0.00610697;-2.32191;25.8091;0.279651;-0.0179772;0.182194;-0.905515;-0.0691967;-0.689025;-0.383266;0.791478;-7.54772;-0.00164714;-0.000441215;0.00700463;0.00702707;-0.00166958;0.00434833;0.23515;4.25261;0.00532914;0.00579777;4.20889;0.237592;73.5683;118.568;0.00175568;-0.00164849;-0.00260319;0.00170219;0.00700136;0.00549907;0.0222501;0;0.0308702;-0.090368;-0.866752;-1.28893;1.55588;-7.30373;-0.00248781;0.00123285;0.00996035;0.0100813;-0.00260874;0.006345;0.249771;4.00366;0.00773842;0.00846;3.86443;0.258771;98.4146;143.415;-0.0017325;-0.00248733;0.00324311;-0.000752636;0.00995589;0.0038555;0.0518339;0;0.0380809;8.09751;5.04621
429000;430;25.917;0.159514;0.0061929;-2.32393;25.8113;0.266046;-0.0199969;0.184379;-0.91912;-0.0696234;-0.691077;-0.381216;0.792314;-7.54567;-0.00153218;-0.000659689;0.00693191;0.00698302;-0.00158329;0.00428315;0.221034;4.5242;0.0052631;0.00571087;4.41044;0.226735;75.3846;120.385;0.00180726;-0.00153303;-0.00279238;0.00145508;0.00692825;0.00510583;0.0222268;0;0.0305407;-0.0913983;-0.872358;-1.28919;1.55928;-7.30399;-0.00275165;0.0014063;0.0102932;0.0104431;-0.00290153;0.00667233;0.267325;3.74076;0.00810429;0.00889644;3.59918;0.277841;96.0731;141.073;-0.00174795;-0.0027507;0.00312815;-0.000293315;0.0102894;0.00221681;0.0473022;0;0.0323131;8.11873;5.05372
430000;431;25.9229;0.165397;0.00642132;-2.32359;25.8172;0.270922;-0.0196557;0.190266;-0.914244;-0.0701616;-0.691466;-0.383618;0.793858;-7.54808;-0.00179987;-0.000830941;0.0068779;0.00695675;-0.00187872;0.00441774;0.261689;3.82132;0.00537466;0.00589032;3.70291;0.270058;76.1831;121.183;0.00137002;-0.00180023;-0.00286428;0.00118488;0.00687417;0.00555221;0.022122;0;0.0310693;-0.0926011;-0.87653;-1.29438;1.56598;-7.30918;-0.00289459;0.00128883;0.0106763;0.0107977;-0.0030159;0.00690678;0.271122;3.68838;0.00838649;0.00920903;3.58024;0.279311;95.1118;140.112;-0.00166203;-0.00289377;0.00279705;-0.000199146;0.0106733;0.0020968;0.0426996;0;0.03216;8.14487;5.06094
431000;432;25.9317;0.174225;0.00676404;-2.32416;25.8259;0.275973;-0.0202247;0.199026;-0.909193;-0.0700278;-0.691832;-0.383901;0.794301;-7.54836;-0.00158506;-0.000592825;0.00668626;0.00672853;-0.00162733;0.00417793;0.237062;4.2183;0.00511516;0.00557058;4.1347;0.241855;74.3814;119.381;0.00178943;-0.00158601;-0.00270334;0.00150035;0.0066828;0.00503456;0.02225;0;0.0330572;-0.0931945;-0.881732;-1.29587;1.57016;-7.31067;-0.00311793;0.001344;0.0113309;0.0114549;-0.00324189;0.00734839;0.27517;3.63412;0.00891589;0.00979785;3.5334;0.283013;93.0139;138.014;-0.00151653;-0.00311704;0.00257965;0.000126003;0.0113285;-0.000514065;0.0438104;0;0.0355827;8.14876;5.06442
432000;433;25.9367;0.179183;0.00695653;-2.32486;25.8308;0.275364;-0.0209193;0.203948;-0.909802;-0.0705369;-0.693198;-0.380999;0.79414;-7.54546;-0.00161339;-0.000564479;0.00696931;0.00700627;-0.00165035;0.00432831;0.231499;4.31968;0.0053072;0.00577108;4.24532;0.235553;74.6689;119.669;0.00226855;-0.00161441;-0.00268489;0.00153786;0.00696588;0.00360585;0.0233593;0;0.0323457;-0.0941388;-0.887105;-1.29622;1.57354;-7.31103;-0.00338152;0.00130291;0.0117724;0.0118836;-0.00349273;0.00768816;0.287242;3.48139;0.00930771;0.0102509;3.40238;0.293912;93.4837;138.484;-0.00135104;-0.00338067;0.00257863;4.62876e-05;0.0117699;-0.000844725;0.0445453;0;0.0387702;8.16031;5.06816
433000;434;25.9418;0.184252;0.00715333;-2.32672;25.8358;0.27509;-0.0227867;0.208873;-0.910076;-0.0705628;-0.693455;-0.383482;0.795561;-7.54794;-0.00171445;-0.000798744;0.00686262;0.00693637;-0.0017882;0.00436229;0.249825;4.00281;0.00532143;0.00581638;3.87896;0.257801;76.5654;121.565;0.00183765;-0.00171482;-0.0027832;0.00116881;0.00685909;0.00487888;0.0222616;0;0.0308218;-0.0950418;-0.892479;-1.29768;1.57782;-7.31248;-0.00349055;0.00120878;0.0124355;0.0125267;-0.00358177;0.00805424;0.280692;3.56262;0.00976651;0.010739;3.49736;0.28593;96.5457;141.546;-0.00197507;-0.00348997;0.00301348;-0.000567526;0.0124317;-0.00147357;0.0445031;0;0.0382176;8.1776;5.07569
434000;435;25.9498;0.192238;0.00746336;-2.32794;25.8436;0.282212;-0.0240028;0.216705;-0.902954;-0.0707774;-0.693549;-0.384019;0.795921;-7.54848;-0.00170553;-0.000601265;0.00663589;0.00667901;-0.00174865;0.00421383;0.257016;3.89081;0.00513576;0.00561844;3.81953;0.261813;73.3152;118.315;0.0015339;-0.00170661;-0.00280453;0.00158374;0.00663216;0.00510363;0.022244;0;0.0377143;-0.0958209;-0.897703;-1.29991;1.58267;-7.31471;-0.00380574;0.00129813;0.012822;0.0129228;-0.00390648;0.00841463;0.296812;3.36913;0.0101706;0.0112195;3.30804;0.302294;96.4189;141.419;-0.00132988;-0.00380502;0.00311692;-0.000490808;0.0128181;-0.00191999;0.0475079;0;0.049157;8.20088;5.08266
435000;436;25.9533;0.195738;0.00759925;-2.32746;25.8472;0.276647;-0.0235198;0.220323;-0.908519;-0.0712705;-0.694602;-0.38231;0.79606;-7.54677;-0.0017094;-0.000781846;0.0063202;0.00639562;-0.00178482;0.00409022;0.270466;3.69732;0.00496676;0.00545363;3.58334;0.279069;74.3462;119.346;0.00214459;-0.00170996;-0.00289692;0.00131636;0.00631633;0.00321058;0.0239569;0;0.0375452;-0.0968114;-0.903858;-1.29894;1.58543;-7.31374;-0.00405378;0.00107428;0.0128644;0.0129323;-0.00412172;0.00852703;0.315116;3.17343;0.0102748;0.0113694;3.13761;0.318714;93.5169;138.517;-0.000117292;-0.0040532;0.00220943;-4.19046e-05;0.0128626;-0.00641467;0.0502227;0;0.0545304;8.21041;5.09029
436000;437;25.9576;0.200088;0.00776812;-2.327;25.8517;0.272881;-0.0230657;0.224771;-0.912285;-0.0711116;-0.694727;-0.381255;0.795649;-7.54571;-0.00182483;-0.000645432;0.00647823;0.0065281;-0.00187471;0.0042014;0.281687;3.55004;0.0050933;0.00560187;3.4822;0.287175;73.3267;118.327;0.00145242;-0.00182569;-0.00276962;0.00146124;0.00647463;0.00571646;0.0226555;0;0.0352472;-0.0972654;-0.909281;-1.29997;1.58939;-7.31477;-0.00399197;0.00133254;0.0134869;0.0135879;-0.00409298;0.00884044;0.295989;3.3785;0.0106875;0.0117873;3.31981;0.301222;95.1224;140.122;-0.00231349;-0.00399113;0.00298168;-0.000288158;0.0134834;-0.00133834;0.056566;0;0.0513096;8.21716;5.09718
437000;438;25.9626;0.205067;0.00796143;-2.33043;25.8565;0.259201;-0.0264923;0.229603;-0.925965;-0.0712213;-0.696051;-0.381887;0.797118;-7.54634;-0.00178272;-0.000709288;0.00655018;0.00661013;-0.00184266;0.00422639;0.272163;3.67427;0.00513244;0.00563519;3.58727;0.278763;73.946;118.946;0.00130367;-0.00178347;-0.00285428;0.00141795;0.00654639;0.00517972;0.0228143;0;0.0273441;-0.0981281;-0.915767;-1.30045;1.59356;-7.31525;-0.00425809;0.00127996;0.0141658;0.0142543;-0.00434659;0.00930044;0.30059;3.32679;0.0112356;0.0124006;3.27942;0.304932;92.9283;137.928;-0.00112464;-0.00425727;0.00251109;7.1195e-05;0.0141635;-0.00184769;0.0533939;0;0.0462233;8.23226;5.10481
438000;439;25.9686;0.211097;0.00819556;-2.32908;25.8626;0.261275;-0.0251465;0.235759;-0.923891;-0.0715407;-0.696745;-0.384411;0.798964;-7.54887;-0.00178333;-0.000670444;0.00703838;0.00708904;-0.00183399;0.00446152;0.253372;3.94677;0.00544137;0.00594869;3.86536;0.258708;75.0473;120.047;0.00185023;-0.00178411;-0.00278058;0.00142121;0.00703476;0.00313808;0.0227933;0;0.0299715;-0.0991389;-0.921795;-1.30653;1.60204;-7.32133;-0.00432616;0.00157808;0.0152367;0.0153632;-0.00445264;0.0099079;0.283931;3.52198;0.0120048;0.0132105;3.45034;0.289826;90.8896;135.89;-0.000983853;-0.00432505;0.00264913;0.000527672;0.0152344;0.00132483;0.0480896;0;0.0433759;8.25519;5.11196
439000;440;25.9751;0.217538;0.00844561;-2.33106;25.869;0.256822;-0.0271189;0.242093;-0.928344;-0.0724773;-0.697658;-0.378986;0.797252;-7.54344;-0.00172051;-0.00078676;0.00645746;0.00653246;-0.00179551;0.00416399;0.266437;3.75323;0.00506079;0.00555198;3.63822;0.27486;74.3339;119.334;0.00138019;-0.00172113;-0.00295211;0.001361;0.00645344;0.00562116;0.0245708;0;0.0302575;-0.100735;-0.927012;-1.3052;1.60407;-7.32;-0.00455362;0.00156369;0.0157201;0.01584;-0.00467352;0.0102567;0.289669;3.45221;0.0124146;0.0136757;3.3893;0.295046;90.1435;135.143;-0.00185214;-0.00455263;0.00246765;0.000677775;0.0157183;0.00302812;0.0475499;0;0.0463913;8.25738;5.11997
440000;441;25.9805;0.223018;0.00865837;-2.33149;25.8744;0.25936;-0.0275513;0.247531;-0.925806;-0.0725158;-0.69749;-0.381352;0.798235;-7.54581;-0.00185935;-0.000626907;0.00642598;0.00647315;-0.00190652;0.00418983;0.289349;3.45603;0.00507183;0.00558645;3.39527;0.294527;72.3446;117.345;0.00168985;-0.00186039;-0.0028419;0.00156985;0.00642217;0.00452166;0.0244571;0;0.0416112;-0.10144;-0.931505;-1.30951;1.61022;-7.32431;-0.00439084;0.0016546;0.0164136;0.0165444;-0.00452161;0.010533;0.267512;3.73816;0.0128057;0.014044;3.65897;0.273301;90.1382;135.138;-0.00109701;-0.00438969;0.0026568;0.000672914;0.0164115;0.00162421;0.0452096;0;0.0507394;8.26882;5.12468
441000;442;25.9877;0.230222;0.00893805;-2.33204;25.8816;0.262902;-0.0281041;0.254679;-0.922264;-0.0731254;-0.698524;-0.381415;0.799225;-7.54587;-0.00172118;-0.000666065;0.00637552;0.00642995;-0.0017756;0.00410278;0.269966;3.70417;0.00498505;0.00547037;3.62128;0.276146;73.1214;118.121;0.00115756;-0.0017221;-0.00285993;0.00151015;0.00637168;0.00430655;0.0239181;0;0.0322875;-0.102637;-0.938653;-1.30966;1.61456;-7.32446;-0.00468728;0.00146195;0.0168055;0.0169045;-0.00478627;0.0108454;0.278914;3.58534;0.0131585;0.0144605;3.53187;0.283136;88.4093;133.409;-0.00143011;-0.00468669;0.00195395;0.000980356;0.0168046;0.000718565;0.0427865;0;0.0454698;8.28937;5.13333
442000;443;25.9944;0.236923;0.00919822;-2.33329;25.8882;0.260235;-0.0293561;0.261322;-0.924931;-0.0737571;-0.699131;-0.380866;0.799552;-7.54532;-0.00200528;-0.000885164;0.0062073;0.00630162;-0.0020996;0.00420061;0.323052;3.09547;0.00504864;0.00560081;3.00134;0.333185;73.2538;118.254;0.00158492;-0.00200569;-0.00305065;0.00126265;0.00620306;0.00441648;0.0235835;0;0.0295112;-0.104091;-0.944699;-1.31287;1.62077;-7.32767;-0.00508196;0.00121834;0.0173719;0.0174378;-0.00514787;0.0112929;0.292539;3.41835;0.0136682;0.0150571;3.38739;0.295213;88.7306;133.731;-0.001414;-0.00508156;0.00161766;0.000827838;0.0173714;0.00174716;0.042773;0;0.0484676;8.30113;5.1381
443000;444;25.9989;0.241355;0.00937028;-2.33334;25.8927;0.258353;-0.0294022;0.265787;-0.926813;-0.0739167;-0.701718;-0.375291;0.799197;-7.53975;-0.00207528;-0.000874842;0.00586946;0.00596465;-0.00217048;0.00406757;0.353573;2.82827;0.00486412;0.00542342;2.74808;0.36389;71.7518;116.752;0.00134678;-0.00207575;-0.00306628;0.00129929;0.00586517;0.00446256;0.0247934;0;0.0341079;-0.104759;-0.952018;-1.30997;1.62276;-7.32477;-0.00538398;0.00143993;0.0179292;0.0180178;-0.00547258;0.0117452;0.300291;3.3301;0.0141922;0.0156603;3.29238;0.303732;89.6558;134.656;-0.00111156;-0.00538322;0.00215093;0.000745213;0.017928;-0.00431269;0.0482259;0;0.0525042;8.30928;5.14255
444000;445;26.0043;0.246733;0.00957906;-2.33434;25.898;0.259951;-0.0303987;0.27108;-0.925215;-0.0733683;-0.700788;-0.377467;0.799355;-7.54192;-0.00169612;-0.000603302;0.00627063;0.00631606;-0.00174154;0.0040288;0.270486;3.69705;0.00489559;0.00537174;3.6267;0.275733;73.0029;118.003;0.0014267;-0.00169706;-0.00272226;0.00149888;0.00626713;0.00329749;0.0243247;0;0.0295547;-0.10514;-0.957426;-1.31103;1.62681;-7.32583;-0.00555498;0.00139385;0.018504;0.0185844;-0.00563546;0.01211;0.300205;3.33106;0.0146344;0.0161466;3.29777;0.303235;88.9438;133.944;-0.00108386;-0.0055544;0.00191248;0.000887462;0.0185031;-0.00776644;0.053658;0;0.0585528;8.32061;5.14911
445000;446;26.0087;0.251179;0.00975166;-2.33367;25.9025;0.255686;-0.0297335;0.275647;-0.92948;-0.0739685;-0.701049;-0.377429;0.799621;-7.54189;-0.00180263;-0.000500929;0.00622869;0.00625981;-0.00183376;0.00404679;0.289408;3.45533;0.0049002;0.00539571;3.41365;0.292941;71.0207;116.021;0.00153252;-0.00180398;-0.00273561;0.00171591;0.0062251;0.00416506;0.0238106;0;0.0347293;-0.106573;-0.96312;-1.31318;1.63199;-7.32798;-0.00559646;0.0014503;0.0193142;0.0193983;-0.00568062;0.0125395;0.28976;3.45113;0.0151842;0.0167193;3.41482;0.292841;89.1167;134.117;-0.00204007;-0.00559579;0.00204662;0.000868554;0.0193131;-0.00215391;0.0528041;0;0.0609254;8.3348;5.15617
446000;447;26.0162;0.258666;0.0100424;-2.33569;25.91;0.246831;-0.0317521;0.283069;-0.938335;-0.0742298;-0.701606;-0.376104;0.79951;-7.54056;-0.00187579;-0.000844546;0.00618598;0.0062735;-0.00196331;0.00411841;0.303232;3.2978;0.00496782;0.00549121;3.19537;0.312953;72.8924;117.892;0.000609988;-0.0018764;-0.00309644;0.00138931;0.00618157;0.00636174;0.0238868;0;0.0336455;-0.107436;-0.97;-1.31391;1.63671;-7.32872;-0.00572843;0.00144494;0.0197193;0.0198011;-0.00581021;0.0128056;0.290499;3.44236;0.0155047;0.0170742;3.40798;0.293429;88.7212;133.721;-0.000606077;-0.00572785;0.0019339;0.000968177;0.0197185;-0.00595526;0.055864;0;0.0502905;8.35011;5.16368
447000;448;26.0211;0.263541;0.0102316;-2.3364;25.9148;0.241753;-0.0324631;0.287948;-0.943413;-0.0740892;-0.703568;-0.371136;0.798899;-7.53559;-0.00192017;-0.000543283;0.00602613;0.00606311;-0.00195715;0.00401013;0.318641;3.13833;0.00482853;0.00534683;3.09793;0.322796;70.0593;115.059;0.00117898;-0.00192149;-0.00281331;0.00170882;0.00602235;0.00502996;0.0233984;0;0.0335935;-0.107996;-0.97761;-1.31117;1.63907;-7.32597;-0.00587929;0.00182585;0.0203134;0.0204401;-0.00600596;0.013223;0.289429;3.45508;0.0160088;0.0176307;3.4033;0.293832;88.3496;133.35;-0.00110791;-0.00587839;0.00242297;0.00124405;0.0203122;-0.00514156;0.0569004;0;0.0491582;8.35858;5.17118
448000;449;26.0288;0.271291;0.0105325;-2.33694;25.9226;0.242037;-0.0330069;0.295678;-0.94313;-0.0743105;-0.702445;-0.374255;0.799386;-7.53871;-0.001847;-0.000631514;0.00629136;0.00634008;-0.00189571;0.0041179;0.293577;3.40626;0.00498037;0.00549053;3.34443;0.299005;72.2614;117.261;0.00165812;-0.00184798;-0.00281592;0.00153523;0.00628762;0.00402351;0.024034;0;0.0357365;-0.108683;-0.982113;-1.3147;1.64463;-7.3295;-0.00588594;0.00183483;0.0207511;0.0208769;-0.00601173;0.0134443;0.283645;3.52554;0.0162958;0.0179258;3.47269;0.287961;88.0126;133.013;-0.00166462;-0.00588514;0.00234797;0.00133508;0.02075;-0.00281669;0.052783;0;0.0531728;8.36708;5.17888
449000;450;26.0328;0.275264;0.0106867;-2.33772;25.9265;0.237664;-0.0337832;0.299637;-0.947503;-0.0746826;-0.702045;-0.376751;0.800241;-7.54121;-0.00191053;-0.000814441;0.00630573;0.00638569;-0.00199048;0.00418808;0.302982;3.30052;0.00505303;0.00558411;3.20811;0.31171;73.6972;118.697;0.000943343;-0.00191103;-0.00293873;0.0012925;0.00630177;0.00517734;0.024566;0;0.0358007;-0.109828;-0.986717;-1.32028;1.65191;-7.33508;-0.00590446;0.00177272;0.0214222;0.0215367;-0.00601898;0.0137778;0.275624;3.62813;0.016729;0.0183704;3.57813;0.279476;87.2579;132.258;-0.00183756;-0.00590404;0.00203676;0.00151574;0.0214217;0.00146628;0.0504192;0;0.0536531;8.37704;5.18551
450000;451;26.0416;0.284028;0.011027;-2.33868;25.9351;0.247481;-0.0347421;0.308259;-0.937685;-0.0756247;-0.70369;-0.378233;0.802471;-7.54269;-0.00182316;-0.000643349;0.00640234;0.00645235;-0.00187318;0.00416276;0.284765;3.51167;0.00504328;0.00555035;3.4446;0.290309;73.4874;118.487;0.00189959;-0.00182395;-0.00271389;0.00141027;0.00639888;0.00270449;0.0240514;0;0.023657;-0.11162;-0.993807;-1.32204;1.65768;-7.33684;-0.00619714;0.00155568;0.021713;0.0217994;-0.00628359;0.0140415;0.285412;3.50371;0.0170186;0.018722;3.46927;0.288245;88.472;133.472;-0.00237374;-0.00619655;0.0020134;0.00111046;0.0217122;0.00590286;0.0425413;0;0.0505345;8.39655;5.1925
451000;452;26.0471;0.289551;0.0112414;-2.34068;25.9406;0.241977;-0.0367424;0.313677;-0.943189;-0.0749163;-0.704498;-0.370714;0.799599;-7.53517;-0.00185523;-0.000709171;0.00610876;0.00617141;-0.00191789;0.00404465;0.303701;3.29271;0.00488083;0.00539287;3.21781;0.31077;72.8786;117.879;0.00160024;-0.00185592;-0.00280238;0.00136747;0.0061051;0.00412961;0.0243785;0;0.0216165;-0.112351;-0.999947;-1.31946;1.65936;-7.33426;-0.00646331;0.00165008;0.0223974;0.0224915;-0.00655734;0.0145244;0.288574;3.46532;0.0175923;0.0193659;3.42996;0.291548;87.1019;132.102;-0.00119186;-0.00646315;0.00175346;0.00154961;0.0223973;-0.00208907;0.0466713;0;0.0495153;8.40856;5.19913
452000;453;26.0519;0.294361;0.0114282;-2.33917;25.9455;0.241035;-0.0352348;0.318651;-0.944131;-0.07624;-0.707047;-0.367084;0.800299;-7.53154;-0.00198258;-0.000744191;0.00595296;0.00602215;-0.00205176;0.00403696;0.333041;3.00264;0.00484571;0.00538261;2.93511;0.340703;71.8575;116.858;0.00157131;-0.00198325;-0.00288126;0.00137602;0.00594911;0.00451447;0.0249393;0;0.0252098;-0.113325;-1.00755;-1.31714;1.66219;-7.33194;-0.00658714;0.00184385;0.0229406;0.0230553;-0.00670184;0.0148786;0.287139;3.48263;0.0180244;0.0198381;3.44015;0.290685;88.471;133.471;-0.00137195;-0.00658624;0.00243768;0.00126717;0.0229394;-0.000170048;0.0440422;0;0.0536447;8.41956;5.20494
453000;454;26.0588;0.301299;0.0116975;-2.34033;25.9524;0.244315;-0.0363905;0.325483;-0.940851;-0.0743441;-0.704921;-0.375114;0.801968;-7.53957;-0.00188586;-0.000716909;0.00626104;0.00632365;-0.00194847;0.00413606;0.301206;3.31999;0.00499362;0.00551474;3.24545;0.308124;72.4521;117.452;0.00153559;-0.00188669;-0.00292658;0.00147488;0.00625704;0.00523354;0.0234379;0;0.0303823;-0.1129;-1.01287;-1.32435;1.6711;-7.33915;-0.00698461;0.00152934;0.0234221;0.0234988;-0.00706133;0.0152801;0.298206;3.35338;0.0184751;0.0203734;3.32781;0.300498;88.499;133.499;-0.00213588;-0.00698408;0.00193222;0.00113842;0.0234214;-0.00149257;0.052934;0;0.0586559;8.4265;5.20921
454000;455;26.0634;0.305911;0.0118766;-2.34109;25.957;0.23859;-0.0371527;0.330098;-0.946576;-0.0758825;-0.706589;-0.368089;0.800322;-7.53255;-0.00195321;-0.000791791;0.00581796;0.00589782;-0.00203307;0.00396544;0.335721;2.97866;0.00475667;0.00528726;2.90094;0.344715;71.8345;116.834;0.00122626;-0.0019538;-0.00294151;0.00134133;0.00581397;0.00573119;0.0236623;0;0.0264216;-0.11499;-1.01931;-1.3201;1.67179;-7.3349;-0.00708476;0.00162372;0.0243985;0.024482;-0.00716828;0.0158252;0.290377;3.4438;0.019163;0.0211002;3.41533;0.292798;87.7774;132.777;-0.00163096;-0.00708443;0.00184727;0.00140705;0.0243981;-0.00501973;0.0561119;0;0.058503;8.43974;5.21322
455000;456;26.0708;0.313319;0.0121642;-2.342;25.9644;0.230746;-0.0380589;0.337526;-0.95442;-0.0749826;-0.706684;-0.369531;0.800985;-7.53399;-0.00197538;-0.000607196;0.00582625;0.00587323;-0.00202236;0.00394779;0.339049;2.94943;0.0047358;0.00526372;2.90415;0.344335;70.3269;115.327;0.00138594;-0.00197639;-0.00277537;0.00154416;0.00582261;0.00433267;0.0246962;0;0.0311294;-0.11504;-1.02642;-1.32174;1.67743;-7.33654;-0.00728342;0.00178306;0.0247114;0.0248105;-0.00738248;0.0160965;0.294739;3.39283;0.0194733;0.021462;3.36072;0.297555;87.0898;132.09;-0.00072559;-0.00728327;0.00186715;0.00170159;0.0247113;-0.00520623;0.0559242;0;0.0529346;8.45129;5.22094
456000;457;26.0782;0.320668;0.0124495;-2.3441;25.9716;0.229877;-0.0401634;0.344722;-0.955289;-0.0753538;-0.706272;-0.371756;0.801686;-7.53621;-0.00187727;-0.000663732;0.00596497;0.00602075;-0.00193305;0.0039769;0.314716;3.17747;0.00479001;0.00530253;3.11464;0.321065;71.3358;116.336;0.00132963;-0.00187821;-0.00286619;0.00152156;0.0059611;0.00306801;0.0234348;0;0.0274429;-0.116197;-1.03279;-1.32474;1.68377;-7.33954;-0.00743979;0.0018474;0.0249292;0.0250343;-0.00754488;0.0162896;0.298437;3.35079;0.0196923;0.0217194;3.31804;0.301382;86.6729;131.673;-0.00177469;-0.00743983;0.00182516;0.00186894;0.0249292;-0.00149592;0.0578157;0;0.0526933;8.46615;5.2285
457000;458;26.0814;0.323891;0.0125746;-2.34365;25.975;0.222189;-0.0397129;0.348066;-0.962978;-0.075976;-0.707223;-0.368027;0.800862;-7.53248;-0.00194882;-0.000758696;0.00618888;0.00625901;-0.00201895;0.00413898;0.314891;3.17571;0.00498389;0.00551864;3.10013;0.322567;72.4899;117.49;0.00103514;-0.00194952;-0.00293808;0.00140307;0.00618488;0.00399641;0.0235315;0;0.0357483;-0.117234;-1.03826;-1.32573;1.68799;-7.34053;-0.00765002;0.00186601;0.0251267;0.0252326;-0.00775591;0.0164942;0.304458;3.28453;0.0199169;0.0219923;3.25334;0.307377;86.5234;131.523;-0.000324634;-0.00765015;0.0017945;0.00193523;0.0251268;-0.00470445;0.0498274;0;0.0564323;8.47179;5.23622
458000;459;26.0896;0.33208;0.0128926;-2.34419;25.9831;0.225621;-0.0402496;0.356211;-0.959545;-0.0761048;-0.708159;-0.366557;0.801027;-7.53101;-0.0019465;-0.000752213;0.00577483;0.00584743;-0.0020191;0.00393326;0.337066;2.96678;0.00471761;0.00524435;2.89606;0.345297;71.6575;116.657;0.000270547;-0.00194713;-0.00287123;0.00135054;0.00577101;0.00659947;0.0237238;0;0.0345848;-0.118035;-1.04594;-1.32449;1.6918;-7.33929;-0.00773718;0.00165631;0.0254766;0.025559;-0.00781957;0.0166893;0.303698;3.29275;0.0201579;0.0222524;3.26859;0.305942;88.1094;133.109;-0.00223092;-0.00773673;0.00196035;0.00136212;0.025476;0.00404024;0.0457176;0;0.0671404;8.48485;5.24248
459000;460;26.0973;0.339803;0.0131924;-2.3457;25.9907;0.230848;-0.0417653;0.363783;-0.954318;-0.0760561;-0.708345;-0.368044;0.801869;-7.5325;-0.00199914;-0.000669969;0.00570094;0.0057588;-0.002057;0.0039079;0.350669;2.85169;0.00467812;0.00521053;2.79961;0.357193;70.3879;115.388;0.00070056;-0.00199999;-0.00282122;0.00146481;0.00569721;0.00496601;0.0227452;0;0.0315346;-0.118848;-1.05144;-1.32682;1.69709;-7.34162;-0.00758649;0.00188787;0.0268526;0.0269558;-0.00768967;0.0173227;0.282523;3.53953;0.0210082;0.023097;3.50546;0.285269;89.6933;134.693;-0.00344224;-0.00758514;0.00286535;0.00094317;0.0268504;0.00888085;0.0458659;0;0.0640742;8.4958;5.24943
460000;461;26.1026;0.345049;0.0133961;-2.3468;25.9959;0.227141;-0.0428626;0.368984;-0.958025;-0.0767015;-0.708629;-0.366114;0.801297;-7.53057;-0.00203176;-0.000592963;0.00586667;0.00591093;-0.00207602;0.00399348;0.346322;2.88748;0.00478517;0.00532464;2.84724;0.351218;69.6642;114.664;0.00122426;-0.00203291;-0.0028311;0.00162761;0.00586286;0.00472275;0.0237953;0;0.0361256;-0.120328;-1.05798;-1.32764;1.70188;-7.34244;-0.00809528;0.00174418;0.0272564;0.0273423;-0.00818112;0.0177617;0.297004;3.36696;0.021481;0.0236823;3.34212;0.299211;88.2805;133.281;-0.000409086;-0.0080947;0.00212166;0.0013797;0.0272557;0.00468811;0.0475875;0;0.0725848;8.51063;5.25683
461000;462;26.1069;0.349378;0.0135641;-2.34732;26.0002;0.221379;-0.0433823;0.373334;-0.963787;-0.0774961;-0.710113;-0.365193;0.802267;-7.52965;-0.00195725;-0.000686481;0.00536429;0.0054281;-0.00202106;0.00372458;0.364867;2.74073;0.00444819;0.0049661;2.68577;0.372333;69.3386;114.339;0.00124089;-0.00195812;-0.00287719;0.00148828;0.0053604;0.00625142;0.0251062;0;0.0321081;-0.121984;-1.06518;-1.3291;1.70763;-7.3439;-0.00824511;0.00169194;0.027557;0.0276368;-0.00832489;0.0179808;0.299202;3.34222;0.0217375;0.0239744;3.31978;0.301225;89.1371;134.137;-0.000160744;-0.00824425;0.00232897;0.00107711;0.0275557;0.00195653;0.0468381;0;0.0659704;8.51713;5.26474
462000;463;26.1114;0.353846;0.0137376;-2.34652;26.0048;0.217783;-0.0425828;0.377923;-0.967383;-0.0781305;-0.710357;-0.363158;0.80162;-7.52761;-0.00190055;-0.000644183;0.00552687;0.00558232;-0.00195601;0.00376917;0.343875;2.90804;0.004517;0.00502555;2.85394;0.350393;69.7404;114.74;0.000294714;-0.00190154;-0.0028478;0.00154316;0.00552304;0.0076909;0.0238292;0;0.0291493;-0.12313;-1.07172;-1.32896;1.71169;-7.34376;-0.00875817;0.00178446;0.0286271;0.0287121;-0.00884315;0.0187776;0.30594;3.26862;0.0226715;0.0250368;3.24682;0.307994;89.2987;134.299;-0.00260879;-0.00875716;0.00250811;0.00108712;0.0286256;0.00470605;0.0559257;0;0.0608248;8.5309;5.27181
463000;464;26.1175;0.359962;0.013975;-2.34932;26.0108;0.203791;-0.0453869;0.383923;-0.981375;-0.077663;-0.71024;-0.367319;0.803365;-7.53178;-0.00195451;-0.000828224;0.00544323;0.00553482;-0.0020461;0.00379046;0.359071;2.78496;0.0045287;0.00505395;2.70506;0.369677;70.9295;115.93;0.00102965;-0.00195502;-0.00297857;0.0013063;0.00543916;0.00486667;0.0234873;0;0.0351082;-0.123747;-1.07836;-1.33334;1.71929;-7.34814;-0.0088431;0.00174034;0.0293627;0.0294418;-0.00892222;0.019182;0.301168;3.32041;0.0231815;0.025576;3.29983;0.303046;88.1711;133.171;-0.00201243;-0.00884266;0.00202567;0.0014656;0.0293622;0.00189799;0.0582782;0;0.0603275;8.54226;5.27884
464000;465;26.1291;0.371529;0.0144241;-2.34841;26.0224;0.212729;-0.0444718;0.395549;-0.972438;-0.0775834;-0.709541;-0.365179;0.801763;-7.52964;-0.00205041;-0.000733796;0.00578294;0.00585109;-0.00211855;0.00398482;0.354561;2.82039;0.00476652;0.00531309;2.76183;0.362079;70.7846;115.785;0.000922636;-0.00205114;-0.00289901;0.00141456;0.00577903;0.0058569;0.0235041;0;0.0359534;-0.124595;-1.08417;-1.33324;1.72293;-7.34804;-0.00901719;0.00186174;0.029731;0.0298203;-0.00910643;0.0194634;0.303292;3.29715;0.0235111;0.0259511;3.27464;0.305377;86.6029;131.603;0.00062117;-0.00901765;0.00161874;0.00209559;0.0297314;-0.00291485;0.0556329;0;0.0599092;8.54536;5.28283
465000;466;26.132;0.374463;0.014538;-2.34956;26.0253;0.204777;-0.0456192;0.398455;-0.980389;-0.0782119;-0.711174;-0.361964;0.801812;-7.52642;-0.00200755;-0.0006643;0.00588802;0.00594352;-0.00206306;0.00400329;0.340956;2.93293;0.00480016;0.00533772;2.88093;0.34711;70.9222;115.922;0.000798509;-0.00200841;-0.00281221;0.00146676;0.00588431;0.00681916;0.0235958;0;0.0448849;-0.125742;-1.09149;-1.33244;1.72701;-7.34724;-0.00927329;0.00162376;0.0294673;0.0295352;-0.00934123;0.0194382;0.314698;3.17765;0.023433;0.0259177;3.16181;0.316274;88.3905;133.391;-0.00235995;-0.00927288;0.00190917;0.00134908;0.0294668;0.00436682;0.0542921;0;0.0624799;8.56105;5.28701
466000;467;26.137;0.379488;0.0147331;-2.35014;26.0303;0.204445;-0.0462058;0.40345;-0.980721;-0.0781011;-0.711418;-0.361085;0.801622;-7.52554;-0.00209336;-0.00073412;0.005497;0.00556735;-0.00216371;0.00386553;0.380819;2.62592;0.00460546;0.00515404;2.57305;0.388643;69.5221;114.522;0.000700271;-0.00209412;-0.00291976;0.00143503;0.00549302;0.00787336;0.0247868;0;0.0466918;-0.126585;-1.098;-1.33297;1.7316;-7.34777;-0.00916801;0.00197507;0.0298077;0.0299075;-0.00926784;0.0195877;0.307572;3.25127;0.0236411;0.0261169;3.22702;0.309884;89.187;134.187;-0.00292473;-0.00916681;0.00274827;0.00123114;0.0298059;0.00653608;0.0467209;0;0.0699359;8.57167;5.29561
467000;468;26.1488;0.391257;0.01519;-2.35163;26.0419;0.215637;-0.0476902;0.415043;-0.969529;-0.0794716;-0.711084;-0.359916;0.800934;-7.52437;-0.00198514;-0.000735759;0.00573873;0.0058082;-0.0020546;0.0039314;0.34592;2.89084;0.00470886;0.00524187;2.82692;0.353742;70.4909;115.491;0.000596866;-0.00198597;-0.00297271;0.00148402;0.00573461;0.00770316;0.0242113;0;0.0277893;-0.128532;-1.10424;-1.33366;1.73624;-7.34846;-0.00908494;0.00196354;0.0306246;0.0307215;-0.0091818;0.0199516;0.296655;3.37092;0.024131;0.0266022;3.34591;0.298872;90.7471;135.747;-0.00394744;-0.00908319;0.00335448;0.000626184;0.030621;0.00803013;0.0518062;0;0.0658822;8.57921;5.30109
468000;469;26.1521;0.394585;0.0153192;-2.3524;26.0453;0.208996;-0.0484595;0.41837;-0.97617;-0.0804128;-0.712491;-0.3529;0.799154;-7.51736;-0.002255;-0.000895043;0.0056823;0.00578197;-0.00235468;0.00406832;0.396847;2.51987;0.00483462;0.00542443;2.45553;0.407244;70.3604;115.36;0.000335038;-0.00225544;-0.00310305;0.00129555;0.00567791;0.00869023;0.0258598;0;0.030533;-0.129498;-1.11083;-1.3292;1.73709;-7.344;-0.00949147;0.00195501;0.0314482;0.0315413;-0.00958462;0.020563;0.301813;3.31331;0.0248465;0.0274173;3.29083;0.303875;90.3877;135.388;-0.00385595;-0.00948984;0.00319141;0.000767677;0.0314451;0.0087511;0.0571861;0;0.0712055;8.5856;5.30816
469000;470;26.158;0.400449;0.0155469;-2.35295;26.0511;0.207664;-0.0490173;0.424218;-0.977502;-0.0791549;-0.712982;-0.35873;0.802058;-7.52319;-0.00210916;-0.000888753;0.00567406;0.00577426;-0.00220935;0.0039918;0.371719;2.6902;0.00476005;0.00532241;2.61355;0.382621;70.582;115.582;0.000574579;-0.0021097;-0.00316182;0.00136672;0.00566948;0.00940637;0.0245726;0;0.0424275;-0.129754;-1.11801;-1.33509;1.7462;-7.34989;-0.00967937;0.00188003;0.0318348;0.0319198;-0.00976433;0.0208421;0.30405;3.28894;0.025174;0.0277894;3.26902;0.305902;90.3533;135.353;-0.00181659;-0.00967786;0.00305765;0.000749787;0.031832;0.0117528;0.0505723;0;0.0816358;8.59386;5.31515
470000;471;26.162;0.404469;0.015703;-2.3525;26.0552;0.201695;-0.0485625;0.428343;-0.983471;-0.0796876;-0.713813;-0.357655;0.802369;-7.52211;-0.0021368;-0.000840526;0.00560032;0.00569058;-0.00222706;0.00395882;0.381549;2.6209;0.00471479;0.00527843;2.5552;0.391358;69.9691;114.969;0.000365545;-0.00213743;-0.00309863;0.00140021;0.0055959;0.00960389;0.0236584;0;0.0456463;-0.13054;-1.12499;-1.33749;1.75257;-7.35229;-0.00982907;0.0017864;0.0324289;0.0325043;-0.00990445;0.0212044;0.303095;3.29929;0.0256174;0.0282725;3.28179;0.304712;90.593;135.593;-0.000282534;-0.00982764;0.00301652;0.000606636;0.0324261;0.00565949;0.0489787;0;0.0791157;8.61268;5.32274
471000;472;26.1696;0.412107;0.0159995;-2.35513;26.0627;0.189745;-0.0511957;0.435864;-0.995421;-0.0797252;-0.71497;-0.354853;0.802159;-7.51931;-0.0021569;-0.000894417;0.00541559;0.0055198;-0.00226111;0.00389045;0.398276;2.51082;0.00462177;0.00518727;2.44119;0.409636;69.6877;114.688;0.000927477;-0.0021574;-0.00314568;0.00133989;0.00541107;0.00770914;0.0246065;0;0.0359939;-0.13167;-1.13358;-1.33469;1.75606;-7.34949;-0.0104775;0.00185355;0.0330982;0.0331769;-0.0105562;0.0218665;0.316557;3.15899;0.0263512;0.0291554;3.14289;0.318179;89.9367;134.937;-0.00435933;-0.0104762;0.00282163;0.000926296;0.033096;0.00768226;0.0634163;0;0.0630851;8.62331;5.32998
472000;473;26.1774;0.419891;0.0163017;-2.35491;26.0706;0.190801;-0.050975;0.443691;-0.994365;-0.0794193;-0.713999;-0.359955;0.803536;-7.52441;-0.00208457;-0.00081428;0.00555279;0.00563864;-0.00217042;0.00390453;0.375409;2.66376;0.00465442;0.00520604;2.59795;0.384918;70.6286;115.629;0.000421473;-0.00208509;-0.00295359;0.00130878;0.00554878;0.00769636;0.0219537;0;0.034906;-0.132664;-1.13963;-1.3409;1.76476;-7.3557;-0.0103756;0.00184857;0.0334789;0.0335567;-0.0104534;0.0220051;0.309915;3.22669;0.0265507;0.0293401;3.21012;0.311515;88.9221;133.922;-0.00102833;-0.0103748;0.00240386;0.00131684;0.0334778;0.0038101;0.0565762;0;0.0583511;8.6245;5.33756
473000;474;26.1825;0.424987;0.0164995;-2.3555;26.0757;0.187463;-0.0515657;0.448779;-0.997703;-0.0794639;-0.714888;-0.3577;0.803324;-7.52216;-0.00199027;-0.000785514;0.00515136;0.00523674;-0.00207565;0.00365619;0.386359;2.58827;0.00435131;0.00487492;2.52294;0.396364;68.5746;113.575;0.000769589;-0.00199108;-0.00307998;0.00149266;0.00514694;0.00681402;0.0227664;0;0.0352855;-0.133463;-1.14601;-1.34068;1.76878;-7.35548;-0.0101556;0.00180519;0.0338683;0.0339422;-0.0102295;0.0220859;0.299856;3.33493;0.0266994;0.0294478;3.31806;0.301381;90.5263;135.526;-0.00169951;-0.0101542;0.00303761;0.000625245;0.0338654;0.00304371;0.0583582;0;0.0596125;8.63335;5.34445
474000;475;26.1914;0.433864;0.0168442;-2.35696;26.0844;0.192827;-0.0530212;0.457522;-0.992339;-0.0793906;-0.715624;-0.357465;0.803866;-7.52192;-0.00204981;-0.00072846;0.00567778;0.00574585;-0.00211788;0.00393186;0.361023;2.76991;0.00469842;0.00524248;2.71302;0.368593;70.3782;115.378;0.000558265;-0.00205056;-0.00289923;0.00142563;0.00567386;0.00788142;0.0223622;0;0.0316709;-0.134502;-1.15281;-1.34154;1.77392;-7.35634;-0.0103068;0.00188554;0.0342543;0.0343339;-0.0103865;0.0223602;0.300892;3.32345;0.0270251;0.0298136;3.30564;0.302514;90.8856;135.886;-0.00493405;-0.0103052;0.00332036;0.000512545;0.0342507;0.0133594;0.0566473;0;0.0631371;8.64138;5.35104
475000;476;26.1977;0.440136;0.0170877;-2.35718;26.0907;0.193198;-0.0532451;0.463797;-0.991968;-0.0800059;-0.716383;-0.355403;0.80369;-7.51986;-0.00207934;-0.000733534;0.00519403;0.00526727;-0.00215258;0.00370992;0.400332;2.49792;0.00440787;0.00494656;2.44696;0.408671;67.9957;112.996;0.000424681;-0.00208023;-0.00300754;0.00152402;0.00518979;0.00886859;0.0240646;0;0.0426644;-0.13547;-1.16074;-1.34182;1.77937;-7.35662;-0.0107016;0.00170877;0.0345026;0.0345671;-0.0107661;0.0226666;0.310167;3.22407;0.0273491;0.0302221;3.21075;0.311454;90.0345;135.034;-0.00403046;-0.0107004;0.00265445;0.000804412;0.0345006;0.00599838;0.0552654;0;0.0787878;8.66332;5.35846
476000;477;26.2055;0.447966;0.0173917;-2.35944;26.0983;0.198573;-0.0555058;0.471415;-0.986593;-0.0799431;-0.716943;-0.353269;0.803242;-7.51773;-0.00222094;-0.000872407;0.00500476;0.0051086;-0.00232478;0.00371669;0.443766;2.25344;0.00439084;0.00495559;2.19745;0.455072;67.8057;112.806;0.000516679;-0.00222148;-0.00311195;0.00135104;0.00500032;0.00764314;0.0234644;0;0.0349523;-0.136148;-1.16784;-1.34133;1.78369;-7.35613;-0.0103897;0.00208709;0.0353629;0.0354579;-0.0104847;0.0229713;0.293801;3.40366;0.0278005;0.0306284;3.38188;0.295693;92;137;-0.0037846;-0.0103875;0.00418432;8.2523e-05;0.0353566;0.00754676;0.0641881;0;0.0786386;8.6667;5.3642
477000;478;26.2118;0.454233;0.017635;-2.35986;26.1046;0.194574;-0.0559193;0.4777;-0.990592;-0.0806638;-0.718144;-0.351237;0.803496;-7.51569;-0.00223493;-0.000971882;0.0055157;0.00563571;-0.00235494;0.00399533;0.405195;2.46795;0.00474125;0.0053271;2.39314;0.417861;71.2838;116.284;0.00080887;-0.00223506;-0.00304902;0.00108925;0.00551155;0.00793887;0.0233679;0;0.0353509;-0.137289;-1.17503;-1.34078;1.78808;-7.35558;-0.0108403;0.00204702;0.0360599;0.0361491;-0.0109295;0.0235393;0.30062;3.32645;0.0284511;0.0313857;3.30747;0.302346;90.7054;135.705;-0.00369847;-0.0108384;0.00351245;0.000647926;0.036056;0.0116263;0.0614953;0;0.0815833;8.67055;5.36719
478000;479;26.2152;0.457638;0.0177671;-2.35953;26.1081;0.191128;-0.055595;0.481173;-0.994038;-0.080403;-0.718337;-0.349911;0.803064;-7.51437;-0.00204031;-0.000666911;0.00507372;0.0051357;-0.00210229;0.003619;0.402133;2.48674;0.00429945;0.00482533;2.44291;0.409348;67.8247;112.825;0.0005934;-0.00204121;-0.0028449;0.00149566;0.00506992;0.00853186;0.0235415;0;0.0327207;-0.13779;-1.1813;-1.34206;1.79321;-7.35686;-0.0109453;0.00179508;0.0368081;0.0368755;-0.0110126;0.023944;0.29736;3.36292;0.0289611;0.0319254;3.34847;0.298644;92.0775;137.077;-0.0023311;-0.0109436;0.00378821;-0.000106257;0.0368027;0.0103252;0.0557839;0;0.0730181;8.67543;5.37428
479000;480;26.2223;0.464825;0.0180462;-2.36299;26.1151;0.17733;-0.0590504;0.488175;-1.00784;-0.080301;-0.719586;-0.350294;0.804337;-7.51475;-0.00222913;-0.000811307;0.00529701;0.00538348;-0.00231559;0.00384953;0.420827;2.37627;0.00456118;0.00513271;2.32488;0.43013;68.7537;113.754;0.00107132;-0.00222971;-0.00298929;0.00135038;0.0052929;0.00743461;0.0244737;0;0.0336671;-0.139248;-1.18953;-1.34271;1.79923;-7.35751;-0.0111544;0.0020064;0.0370919;0.0371752;-0.0112377;0.0242065;0.300725;3.3253;0.0292578;0.0322753;3.30806;0.302292;89.7186;134.719;-0.00242247;-0.011153;0.00299218;0.00106648;0.0370895;0.00606566;0.0595188;0;0.0684074;8.69259;5.38193
480000;481;26.2319;0.474356;0.0184162;-2.36018;26.1249;0.178993;-0.0562403;0.497988;-1.00617;-0.0806076;-0.720133;-0.34858;0.804113;-7.51304;-0.00215351;-0.000762878;0.0052482;0.00532601;-0.00223132;0.00377867;0.410334;2.43704;0.00448351;0.00503822;2.38693;0.418948;68.5788;113.579;0.000966745;-0.00215421;-0.00294608;0.00140425;0.00524417;0.00705832;0.0243114;0;0.0261243;-0.140009;-1.19704;-1.34119;1.80313;-7.35599;-0.011352;0.00202094;0.037559;0.0376424;-0.0114354;0.0245389;0.302244;3.30858;0.0296511;0.0327185;3.29175;0.30379;88.5606;133.561;-0.00201108;-0.0113512;0.00245894;0.00160359;0.0375581;0.00377719;0.0607426;0;0.0653502;8.70031;5.38909
481000;482;26.237;0.479511;0.0186163;-2.3617;26.1299;0.175429;-0.0577643;0.50305;-1.00974;-0.0818113;-0.720556;-0.347967;0.804347;-7.51242;-0.00209228;-0.000720667;0.00566566;0.00573203;-0.00215866;0.00394535;0.369292;2.70788;0.00470884;0.00526046;2.65536;0.376596;70.5224;115.522;0.000426553;-0.00209296;-0.00282556;0.00136799;0.00566195;0.0087532;0.0230328;0;0.0318748;-0.142152;-1.20321;-1.34689;1.81164;-7.36169;-0.0111062;0.00151849;0.0375453;0.0375926;-0.0111536;0.0243731;0.295809;3.38056;0.0294912;0.0324975;3.37046;0.296696;91.857;136.857;-0.000251218;-0.0111051;0.00327228;-0.000153075;0.0375412;0.000117947;0.0576553;0;0.0582262;8.71842;5.39696
482000;483;26.2425;0.485016;0.0188301;-2.36219;26.1354;0.176786;-0.0582549;0.508524;-1.00838;-0.0802074;-0.722572;-0.342916;0.803825;-7.50737;-0.00220401;-0.000819236;0.00535878;0.00544651;-0.00229174;0.00386912;0.411289;2.43138;0.00458977;0.00515883;2.37659;0.420772;69.9407;114.941;0.000465934;-0.00220442;-0.00287696;0.00122302;0.005355;0.00826901;0.0232794;0;0.030472;-0.14147;-1.21224;-1.34056;1.81291;-7.35536;-0.01127;0.00183018;0.0384474;0.0385147;-0.0113372;0.024926;0.293127;3.41149;0.030174;0.0332346;3.39718;0.294362;90.0393;135.039;-0.00245197;-0.0112686;0.00288862;0.000822418;0.038445;-0.00233674;0.0632643;0;0.0633023;8.72243;5.40425
483000;484;26.2524;0.494858;0.0192122;-2.36238;26.1452;0.181674;-0.0584459;0.518356;-1.00349;-0.0818181;-0.722357;-0.344381;0.80442;-7.50884;-0.00213779;-0.000751987;0.00562685;0.00569901;-0.00220995;0.00395448;0.379927;2.63209;0.00471202;0.00527264;2.5788;0.387778;70.4949;115.495;2.53376e-05;-0.00213839;-0.00284327;0.00132315;0.00562311;0.00850286;0.0204277;0;0.034818;-0.143576;-1.21879;-1.34399;1.81999;-7.35879;-0.0111112;0.00181335;0.0390491;0.0391145;-0.0111766;0.0251456;0.284544;3.5144;0.0304925;0.0335274;3.49967;0.285742;90.8459;135.846;-0.00227589;-0.0111096;0.00329475;0.000403459;0.0390454;-0.00290398;0.0718306;0;0.075233;8.72723;5.4117
484000;485;26.2589;0.501393;0.0194659;-2.36549;26.1515;0.182617;-0.0615519;0.52463;-1.00255;-0.0826961;-0.722149;-0.346823;0.805372;-7.51128;-0.00213866;-0.000540669;0.00578729;0.00582401;-0.00217537;0.00399969;0.369544;2.70604;0.0047759;0.00533292;2.67724;0.373518;69.4971;114.497;0.00128985;-0.0021397;-0.00263725;0.00153939;0.00578398;0.00727928;0.0230054;0;0.0295276;-0.145322;-1.2247;-1.34973;1.82833;-7.36453;-0.0110577;0.00193419;0.0395402;0.039614;-0.0111315;0.0253728;0.279657;3.57582;0.0307979;0.0338303;3.55873;0.280999;91.9244;136.924;-0.0038666;-0.0110558;0.00407333;-0.000100839;0.039534;0.0101731;0.0693427;0;0.0756181;8.72988;5.419
485000;486;26.2642;0.506696;0.0196718;-2.36543;26.1569;0.176989;-0.0614974;0.529999;-1.00818;-0.0825625;-0.722146;-0.346091;0.80504;-7.51055;-0.00215704;-0.000798969;0.0054964;0.00557892;-0.00223956;0.00390924;0.392447;2.54812;0.00464922;0.00521232;2.49108;0.401433;70.2436;115.244;0.000964498;-0.00215755;-0.00289771;0.0012838;0.00549254;0.00681039;0.0219612;0;0.0315637;-0.145736;-1.23228;-1.34784;1.83205;-7.36264;-0.011416;0.0017675;0.0405259;0.040586;-0.0114761;0.026031;0.281697;3.54991;0.0315854;0.0347081;3.53656;0.28276;91.553;136.553;-0.00587059;-0.0114144;0.00362706;7.56335e-07;0.0405211;0.0118014;0.0710131;0;0.084025;8.74092;5.42323
486000;487;26.2707;0.513159;0.0199227;-2.36563;26.1634;0.176822;-0.0616966;0.536472;-1.00834;-0.0823865;-0.724094;-0.340653;0.804453;-7.50511;-0.00225164;-0.000909162;0.00542766;0.00553383;-0.00235781;0.00394582;0.414846;2.41053;0.00467762;0.00526109;2.34702;0.426072;70.2773;115.277;0.000596747;-0.00225192;-0.003013;0.00117862;0.00542355;0.00866868;0.0235434;0;0.0370579;-0.146769;-1.24047;-1.34628;1.83651;-7.36108;-0.0115135;0.00163334;0.0410982;0.0411489;-0.0115641;0.0263565;0.280145;3.56958;0.0319917;0.035142;3.55832;0.281032;91.1012;136.101;-0.00280299;-0.0115121;0.00318562;0.000159489;0.0410946;0.00962801;0.056581;0;0.0805113;8.75116;5.42901
487000;488;26.2776;0.520053;0.0201903;-2.36875;26.1701;0.160276;-0.0648128;0.543218;-1.02489;-0.082474;-0.724105;-0.341997;0.805041;-7.50645;-0.002074;-0.000737283;0.00533127;0.00540396;-0.00214669;0.00377533;0.389025;2.57053;0.00449255;0.00503377;2.51734;0.397244;69.7548;114.755;0.000141215;-0.00207461;-0.0028171;0.00132721;0.00532759;0.00826997;0.0209826;0;0.0344801;-0.14783;-1.24715;-1.34931;1.84334;-7.36411;-0.0117237;0.00140085;0.0409937;0.0410309;-0.0117609;0.0263959;0.285988;3.49665;0.0320028;0.0351945;3.48876;0.286635;90.3381;135.338;-0.00459192;-0.0117228;0.00239099;0.000460858;0.0409919;0.0112866;0.0545751;0;0.0715487;8.75929;5.43321
488000;489;26.2853;0.52775;0.0204891;-2.36737;26.1779;0.163859;-0.0634374;0.551049;-1.02131;-0.0822296;-0.726667;-0.335;0.804383;-7.49946;-0.00216222;-0.000813258;0.00580402;0.0058862;-0.0022444;0.0040653;0.372539;2.68429;0.00484862;0.0054204;2.62262;0.381298;71.5406;116.541;0.000966435;-0.00216266;-0.00288275;0.00123985;0.00580022;0.00791061;0.0207876;0;0.0273976;-0.148221;-1.25612;-1.3466;1.84746;-7.3614;-0.011851;0.0018595;0.0414259;0.0414908;-0.0119158;0.0267033;0.286077;3.49556;0.0323719;0.0356044;3.48198;0.287193;90.4249;135.425;-0.00421402;-0.0118495;0.00316433;0.000621417;0.0414228;0.00483818;0.0609035;0;0.0660869;8.76966;5.44055
489000;490;26.2925;0.534933;0.020768;-2.36842;26.1851;0.160674;-0.0644809;0.558187;-1.02449;-0.0830187;-0.7256;-0.339098;0.805217;-7.50356;-0.0021565;-0.000861402;0.00590514;0.00599615;-0.00224752;0.00412183;0.365191;2.73829;0.00492078;0.00549578;2.6679;0.374827;72.7711;117.771;0.000293004;-0.00215675;-0.00285169;0.00111294;0.00590146;0.0086944;0.0210828;0;0.0329245;-0.15;-1.26238;-1.35134;1.85532;-7.36614;-0.0116838;0.00157949;0.0417216;0.0417683;-0.0117305;0.0267494;0.280042;3.57089;0.0324698;0.0356658;3.56067;0.280846;92.0644;137.064;-0.00219723;-0.0116826;0.00364341;-0.000378618;0.0417164;0.00452786;0.0577069;0;0.0626724;8.77687;5.44728
490000;491;26.2994;0.541888;0.021038;-2.36862;26.192;0.161154;-0.0646823;0.565149;-1.02401;-0.0830536;-0.725763;-0.34036;0.8059;-7.50482;-0.00225608;-0.000700107;0.00579759;0.005858;-0.00231649;0.00408724;0.389141;2.56976;0.00486494;0.00544966;2.52883;0.39544;70.5596;115.56;0.000799167;-0.0022567;-0.00273287;0.00131638;0.00579413;0.0074256;0.021643;0;0.032001;-0.151088;-1.26966;-1.35308;1.86164;-7.36788;-0.0119878;0.00118189;0.0421242;0.04215;-0.0120136;0.0270818;0.284583;3.51392;0.0328453;0.0361091;3.50852;0.285021;92.4557;137.456;-0.00457808;-0.0119874;0.00322515;-0.000755266;0.0421199;-0.00368059;0.0701192;0;0.0717538;8.77975;5.45474
491000;492;26.3054;0.547878;0.0212706;-2.36997;26.1979;0.165726;-0.0660295;0.571014;-1.01944;-0.0840495;-0.729178;-0.335427;0.807017;-7.49988;-0.00216354;-0.000686233;0.0058125;0.00587111;-0.00222215;0.00404663;0.372222;2.68657;0.00482836;0.00539551;2.64208;0.378489;70.6399;115.64;0.000991563;-0.00216425;-0.00276164;0.00137272;0.00580895;0.00765402;0.0200672;0;0.0437319;-0.15225;-1.27826;-1.35118;1.86623;-7.36598;-0.0116128;0.00175104;0.0434976;0.0435532;-0.0116684;0.0276108;0.266975;3.74567;0.0336071;0.0368144;3.73259;0.26791;90.9411;135.941;-0.00310871;-0.0116113;0.00335838;0.000228579;0.0434937;-0.00143222;0.0777671;0;0.0806253;8.78834;5.46233
492000;493;26.3143;0.556817;0.0216176;-2.3711;26.2068;0.167509;-0.0671664;0.579875;-1.01766;-0.0833553;-0.727144;-0.339355;0.806751;-7.50381;-0.00215982;-0.000615219;0.00567627;0.00572428;-0.00220782;0.00396605;0.380499;2.62813;0.00472723;0.00528807;2.59273;0.385695;69.3916;114.392;0.000854288;-0.00216074;-0.00273569;0.00148873;0.00567274;0.00729753;0.019824;0;0.0384005;-0.152357;-1.28459;-1.35535;1.8736;-7.37015;-0.0119433;0.00166499;0.0441973;0.0442466;-0.0119926;0.0281196;0.270227;3.7006;0.0342035;0.0374929;3.68949;0.27104;90.7584;135.758;-0.00594053;-0.0119419;0.00311208;0.000295704;0.044194;0.010711;0.0684885;0;0.0887353;8.79989;5.46987
493000;494;26.3209;0.563383;0.0218726;-2.37176;26.2133;0.164198;-0.0678197;0.58643;-1.02097;-0.0835829;-0.728277;-0.33654;0.806618;-7.501;-0.00209879;-0.000727442;0.00613202;0.00619581;-0.00216259;0.0041792;0.342268;2.92169;0.0050095;0.00557227;2.865;0.349041;73.0654;118.065;0.000456514;-0.00209926;-0.00268135;0.00121048;0.00612871;0.00947373;0.0203791;0;0.0259127;-0.153385;-1.29374;-1.35211;1.87763;-7.36691;-0.0117546;0.00150995;0.0449143;0.0449545;-0.0117948;0.0283747;0.261713;3.82099;0.0345784;0.0378329;3.81137;0.262373;91.7117;136.712;-0.00400171;-0.0117535;0.003476;-0.000349485;0.0449096;0.00524786;0.0725312;0;0.0725732;8.80498;5.47639
494000;495;26.3275;0.570001;0.0221295;-2.37457;26.2198;0.146773;-0.0706333;0.592924;-1.03839;-0.0839687;-0.729272;-0.334337;0.806641;-7.49879;-0.00227557;-0.000764799;0.0064352;0.00650184;-0.00234221;0.00442202;0.353613;2.82795;0.00529102;0.00589603;2.77594;0.360238;73.7781;118.778;0.00116701;-0.00227592;-0.00267804;0.00113188;0.00643193;0.00733005;0.0208569;0;0.0365563;-0.154638;-1.30112;-1.3531;1.88354;-7.36791;-0.0116792;0.00137713;0.0450279;0.0450613;-0.0117126;0.0283869;0.259377;3.8554;0.0346121;0.0378493;3.84725;0.259926;91.2031;136.203;-0.00226105;-0.0116782;0.002959;-0.0001189;0.0450246;0.00762121;0.0562981;0;0.0804022;8.80799;5.4839
495000;496;26.3343;0.576796;0.0223933;-2.37449;26.2266;0.146704;-0.0705546;0.599754;-1.03846;-0.0841732;-0.729292;-0.33622;0.807462;-7.50068;-0.00214759;-0.000777997;0.00598348;0.00605725;-0.00222137;0.00413931;0.35892;2.78613;0.00494773;0.00551908;2.72682;0.366728;72.8868;117.887;0.000744272;-0.00214794;-0.00271332;0.00114168;0.00598012;0.0090699;0.0197188;0;0.032808;-0.15616;-1.30748;-1.35962;1.89274;-7.37442;-0.0117008;0.00131005;0.045036;0.0450662;-0.011731;0.0283986;0.25981;3.84897;0.0346234;0.0378648;3.84163;0.260306;90.3827;135.383;-0.00493111;-0.0117;0.00234781;0.000328634;0.0450342;0.0072258;0.0605511;0;0.0743066;8.82657;5.49127
496000;497;26.3414;0.583855;0.0226674;-2.37173;26.234;0.143865;-0.0677926;0.607108;-1.0413;-0.0839502;-0.730114;-0.333779;0.807169;-7.49824;-0.00208955;-0.000793817;0.00629172;0.00636625;-0.00216407;0.00426516;0.33211;3.01105;0.0051203;0.00568688;2.9418;0.339928;74.0156;119.016;0.00103255;-0.00208988;-0.00274626;0.00114236;0.00628829;0.00879182;0.0201373;0;0.0297103;-0.156533;-1.31529;-1.35979;1.89829;-7.37459;-0.0115358;0.00157868;0.0457991;0.0458425;-0.0115792;0.0287109;0.251878;3.97018;0.0350646;0.0382811;3.95903;0.252587;90.6165;135.616;-0.00671608;-0.0115346;0.00295261;0.000280076;0.0457961;0.0100762;0.0614974;0;0.0724412;8.82855;5.49912
497000;498;26.3491;0.591563;0.0229666;-2.37302;26.2416;0.143047;-0.06908;0.614735;-1.04212;-0.0846817;-0.730731;-0.332213;0.807158;-7.49667;-0.00213214;-0.000698199;0.00612262;0.00618126;-0.00219078;0.00418602;0.34824;2.87158;0.00501328;0.00558136;2.82149;0.354423;72.4137;117.414;0.00069865;-0.00213272;-0.00269184;0.00127909;0.00611926;0.00766167;0.0198029;0;0.041862;-0.158082;-1.32289;-1.36064;1.90431;-7.37544;-0.0115907;0.00105543;0.0459912;0.0460105;-0.0116101;0.0288103;0.25202;3.96793;0.0351881;0.0384137;3.96299;0.252335;91.8391;136.839;-0.00317269;-0.0115904;0.00287599;-0.000664909;0.0459878;0.00531109;0.0670394;0;0.0724323;8.82992;5.50447
498000;499;26.3567;0.599209;0.0232635;-2.37292;26.2493;0.151971;-0.0689836;0.622371;-1.0332;-0.0849471;-0.731607;-0.331837;0.807824;-7.49629;-0.00215645;-0.000693649;0.00626688;0.00632362;-0.00221319;0.00426841;0.344102;2.90611;0.00511563;0.00569121;2.85725;0.349987;73.536;118.536;0.00105337;-0.0021569;-0.00257578;0.00117273;0.00626383;0.00851206;0.0206234;0;0.0333455;-0.15875;-1.32934;-1.36237;1.91007;-7.37717;-0.011693;0.000788818;0.0466345;0.0466452;-0.0117037;0.0291744;0.250737;3.98825;0.0356444;0.0388992;3.98552;0.250908;92.1904;137.19;-0.00604759;-0.0116932;0.00268837;-0.00100488;0.0466314;-0.00612625;0.0711617;0;0.0773878;8.83284;5.50626
499000;500;26.3633;0.605741;0.0235171;-2.37496;26.2557;0.147327;-0.0710198;0.628773;-1.03784;-0.0846258;-0.73158;-0.332286;0.807951;-7.49674;-0.00233441;-0.000848937;0.0063052;0.00638782;-0.00241704;0.00440243;0.370236;2.70098;0.00525298;0.00586991;2.64283;0.378382;73.7383;118.738;0.000870135;-0.0023346;-0.00275601;0.00104177;0.00630178;0.00866496;0.0204248;0;0.0354907;-0.159102;-1.33686;-1.3627;1.91559;-7.3775;-0.0116127;0.00162347;0.0482246;0.0482687;-0.0116567;0.0299627;0.240805;4.15274;0.0366873;0.0399503;4.14083;0.241497;91.4083;136.408;-0.00578883;-0.0116114;0.00361425;-0.000253671;0.0482197;0.00485542;0.0732851;0;0.0828943;8.84703;5.51358
500000;501;26.3705;0.613015;0.0237994;-2.37561;26.2629;0.152153;-0.0716766;0.635989;-1.03301;-0.08502;-0.732809;-0.330082;0.808203;-7.49454;-0.00210051;-0.000538761;0.00595782;0.00599368;-0.00213637;0.00406502;0.352563;2.83637;0.0048668;0.00542003;2.80554;0.356437;71.2199;116.22;0.00146211;-0.00210135;-0.00249279;0.00139962;0.00595487;0.00666288;0.0209088;0;0.037551;-0.160132;-1.34594;-1.36138;1.92108;-7.37618;-0.0119119;0.00188404;0.0486243;0.0486829;-0.0119705;0.0303267;0.244979;4.08198;0.0370949;0.0404356;4.0669;0.245888;90.6192;135.619;-0.00704894;-0.0119102;0.00350054;0.000360858;0.0486202;0.00901577;0.0805503;0;0.0896704;8.86312;5.52117
501000;502;26.3774;0.619925;0.0240677;-2.37905;26.2696;0.132106;-0.075116;0.642725;-1.05306;-0.084973;-0.732649;-0.331825;0.808766;-7.49628;-0.0021123;-0.000699111;0.00636696;0.00642421;-0.00216955;0.00429688;0.331759;3.01423;0.00516032;0.00572918;2.96108;0.337715;73.8995;118.899;0.000964735;-0.00211276;-0.00259911;0.00118488;0.00636384;0.00891122;0.0225815;0;0.0414343;-0.160702;-1.35479;-1.36503;1.92992;-7.38155;-0.0118369;0.00108805;0.0482918;0.0483115;-0.0118566;0.030084;0.245112;4.07977;0.0368021;0.040112;4.07466;0.245419;91.8614;136.861;-0.00289489;-0.0118366;0.0030276;-0.000740247;0.048288;0.00215587;0.0731213;0;0.0882799;8.86539;5.52879
502000;503;26.3833;0.625784;0.0242952;-2.37861;26.2755;0.129503;-0.0746748;0.648661;-1.05566;-0.0848985;-0.733511;-0.329783;0.808705;-7.49424;-0.00206409;-0.000563541;0.00692509;0.00696028;-0.00209928;0.00452978;0.29806;3.35503;0.00547577;0.00603971;3.31555;0.301609;74.8604;119.86;0.0010381;-0.00206477;-0.00243774;0.00129393;0.0069223;0.00796686;0.0206658;0;0.0422376;-0.161916;-1.3613;-1.36618;1.93541;-7.38098;-0.0117575;0.00149659;0.0490446;0.0490815;-0.0117943;0.0304379;0.23973;4.17135;0.0372796;0.0405838;4.16145;0.240301;90.944;135.944;-0.00681629;-0.0117564;0.00310682;-2.0309e-05;0.0490411;0.016339;0.0660911;0;0.084669;8.86935;5.53552
503000;504;26.3923;0.634782;0.0246445;-2.37773;26.2846;0.132978;-0.0737963;0.657758;-1.05219;-0.0851425;-0.73518;-0.328529;0.809735;-7.49299;-0.00223374;-0.000672282;0.00701445;0.00706306;-0.00228236;0.00467271;0.318449;3.14022;0.00562599;0.00623028;3.09464;0.32314;75.8524;120.852;0.000587866;-0.00223412;-0.00245901;0.00109804;0.00701167;0.00844056;0.019817;0;0.0468817;-0.163943;-1.36906;-1.36766;1.94208;-7.38246;-0.011784;0.00138347;0.0494609;0.0494921;-0.0118152;0.0306536;0.238248;4.1973;0.0375578;0.0408715;4.18885;0.238729;91.1583;136.158;-0.00558809;-0.011783;0.00307969;-0.000213769;0.0494573;0.0107985;0.0620549;0;0.0813767;8.87658;5.54299
504000;505;26.4003;0.642735;0.0249533;-2.37779;26.2926;0.133585;-0.0738494;0.665736;-1.05158;-0.0859767;-0.73549;-0.32518;0.808752;-7.48964;-0.0021408;-0.000697785;0.00675702;0.00681141;-0.00219519;0.0045033;0.316827;3.1563;0.00542286;0.0060044;3.10287;0.322282;76.0342;121.034;0.000691455;-0.00214109;-0.00244015;0.00102918;0.00675431;0.0077668;0.019167;0;0.0354327;-0.16492;-1.37534;-1.37004;1.94828;-7.38484;-0.0118573;0.00129712;0.0500152;0.0500424;-0.0118845;0.0309634;0.237073;4.2181;0.0379486;0.0412846;4.21074;0.237488;90.9446;135.945;-0.00647019;-0.0118564;0.00280008;-0.000117269;0.0500123;0.0038615;0.0672934;0;0.0763213;8.88;5.55015
505000;506;26.4062;0.64865;0.0251829;-2.37754;26.2986;0.129508;-0.0735986;0.671718;-1.05566;-0.0864694;-0.736812;-0.321317;0.808463;-7.48577;-0.00211884;-0.000797726;0.00685895;0.00692928;-0.00218918;0.00455923;0.308917;3.23712;0.00549654;0.00607897;3.16525;0.315931;77.1636;122.164;0.00112813;-0.00211894;-0.00251665;0.000905876;0.00685612;0.00809221;0.0190326;0;0.0404455;-0.165836;-1.38425;-1.36799;1.95321;-7.38279;-0.0118558;0.00103362;0.051138;0.0511549;-0.0118728;0.0315139;0.23184;4.31331;0.0386732;0.0420185;4.30858;0.232095;91.8459;136.846;-0.00530139;-0.0118557;0.00304768;-0.000859738;0.0511341;-0.00164522;0.0752556;0;0.0770063;8.89134;5.55741
506000;507;26.4141;0.656613;0.0254921;-2.38021;26.3063;0.134462;-0.0762729;0.679447;-1.0507;-0.0862198;-0.736945;-0.323562;0.809453;-7.48802;-0.00204482;-0.000584667;0.00696519;0.00700297;-0.0020826;0.00454279;0.293577;3.40626;0.00549599;0.00605705;3.36261;0.297388;75.4302;120.43;0.0010749;-0.00204541;-0.00242132;0.00123556;0.00696245;0.00845437;0.017506;0;0.0376556;-0.166369;-1.39204;-1.37007;1.96024;-7.38487;-0.0120812;0.00142811;0.0521751;0.0522068;-0.0121129;0.0321599;0.231551;4.31871;0.0394667;0.0428798;4.31001;0.232018;90.7991;135.799;-0.00512929;-0.0120802;0.00295615;-6.61732e-06;0.0521719;-0.00480465;0.081628;0;0.0791248;8.89693;5.56472
507000;508;26.4222;0.664714;0.0258066;-2.37984;26.3145;0.136705;-0.0759059;0.687602;-1.04846;-0.0864475;-0.736648;-0.325745;0.810082;-7.4902;-0.00210668;-0.000485215;0.00758912;0.00761334;-0.0021309;0.00487212;0.277593;3.6024;0.00591521;0.00649616;3.57282;0.279891;75.9122;120.912;0.000905449;-0.00210748;-0.00234174;0.00135345;0.00758651;0.00791354;0.018019;0;0.0394441;-0.16721;-1.40013;-1.37261;1.96784;-7.38741;-0.012039;0.0013612;0.0525396;0.0525683;-0.0120677;0.032318;0.229142;4.36411;0.0396845;0.0430906;4.35612;0.229562;91.1256;136.126;-0.00714549;-0.0120381;0.00310061;-0.000271483;0.0525359;0.0024968;0.0765913;0;0.096005;8.90115;5.57187
508000;509;26.4288;0.671254;0.0260605;-2.3835;26.3208;0.116249;-0.0795651;0.693937;-1.06892;-0.086093;-0.737594;-0.322691;0.809683;-7.48715;-0.00208206;-0.000331587;0.00719606;0.00720789;-0.0020939;0.0046509;0.289334;3.45622;0.00563445;0.00620119;3.44234;0.2905;74.5277;119.528;0.000915731;-0.00208307;-0.00213825;0.00145844;0.00719384;0.00745445;0.0184963;0;0.0445901;-0.167516;-1.40891;-1.36939;1.97188;-7.38419;-0.0119349;0.00164555;0.0533358;0.0533772;-0.0119763;0.0326768;0.223769;4.4689;0.0401764;0.043569;4.45689;0.224372;89.6936;134.694;-0.0047183;-0.0119339;0.00251135;0.000833402;0.0533341;0.00671638;0.072206;0;0.0958262;8.90922;5.57698
509000;510;26.4364;0.678848;0.0263553;-2.38359;26.3285;0.112328;-0.0796528;0.701571;-1.07284;-0.0863188;-0.737499;-0.325824;0.810874;-7.49028;-0.00193183;-0.000379471;0.00747885;0.00749413;-0.00194711;0.00472062;0.258306;3.87138;0.00575597;0.00629416;3.84885;0.259818;76.0137;121.014;0.00107028;-0.00193273;-0.00216634;0.00139071;0.0074766;0.00781101;0.0194645;0;0.0377159;-0.169081;-1.41593;-1.37624;1.98179;-7.39104;-0.0114889;0.00161072;0.0537213;0.0537611;-0.0115286;0.0326448;0.21386;4.67595;0.0402379;0.0435264;4.66327;0.214442;91.2588;136.259;-0.00462145;-0.0114876;0.00369298;-0.000342689;0.0537161;0.0102214;0.0680451;0;0.0854004;8.91224;5.5842
510000;511;26.4448;0.687231;0.0266808;-2.38178;26.337;0.11744;-0.0778455;0.710129;-1.06773;-0.0866536;-0.738331;-0.324295;0.811054;-7.48875;-0.00200172;-0.000356929;0.00714446;0.00715837;-0.00201563;0.004587;0.280178;3.56916;0.00556711;0.00611599;3.55144;0.281576;75.1186;120.119;0.00117483;-0.00200262;-0.00211966;0.00138979;0.00714229;0.00761567;0.019997;0;0.0362051;-0.170609;-1.42224;-1.38183;1.99031;-7.39663;-0.0119048;0.00123172;0.0536121;0.0536353;-0.011928;0.0327816;0.222055;4.50339;0.0403252;0.0437088;4.4966;0.22239;91.7384;136.738;-0.00280469;-0.0119044;0.00339794;-0.000799806;0.0536073;0.00319684;0.0581112;0;0.0879974;8.91957;5.58738
511000;512;26.4514;0.693894;0.0269395;-2.38259;26.3436;0.11358;-0.0786546;0.716763;-1.07159;-0.0870385;-0.739176;-0.323391;0.811504;-7.48785;-0.00214917;-0.000509692;0.00736559;0.00739282;-0.00217639;0.0047846;0.291785;3.42718;0.00579195;0.00637947;3.39682;0.294393;76.0085;121.009;0.000463988;-0.00214982;-0.00228953;0.00125333;0.00736312;0.00903954;0.0205164;0;0.0360288;-0.171733;-1.42997;-1.38433;1.99767;-7.39913;-0.0121434;0.0010379;0.0538234;0.0538397;-0.0121598;0.0329997;0.225617;4.4323;0.0405586;0.0439996;4.42769;0.225851;92.3379;137.338;-0.00399371;-0.0121438;0.00353193;-0.00130001;0.0538179;0.0103714;0.0597491;0;0.0847746;8.92306;5.59436
512000;513;26.4586;0.70108;0.0272185;-2.38282;26.3508;0.114343;-0.0788797;0.723955;-1.07082;-0.0870803;-0.74076;-0.320741;0.811901;-7.4852;-0.00212954;-0.000382267;0.00744427;0.00745951;-0.00214477;0.00480214;0.286064;3.49573;0.00582116;0.00640286;3.47799;0.287522;75.7692;120.769;0.00100656;-0.00213037;-0.00212363;0.00134255;0.00744211;0.00757309;0.0208573;0;0.0339342;-0.172339;-1.43896;-1.38266;2.00301;-7.39746;-0.0126064;0.000878923;0.0550336;0.055045;-0.0126178;0.0338314;0.229066;4.36554;0.0415463;0.0451085;4.3625;0.229226;91.7749;136.775;-0.00506163;-0.0126064;0.00285235;-0.000967987;0.0550301;-0.00225264;0.0749971;0;0.0812169;8.93523;5.60174
513000;514;26.4658;0.708258;0.0274971;-2.38488;26.3579;0.115145;-0.0809451;0.730972;-1.07002;-0.0871479;-0.74208;-0.318251;0.812134;-7.48271;-0.00203639;-0.000356144;0.00805908;0.00807163;-0.00204894;0.00506029;0.252683;3.95752;0.00617837;0.00674705;3.93941;0.253845;77.7292;122.729;0.0010289;-0.00203715;-0.0020104;0.00128154;0.00805714;0.00836614;0.0188711;0;0.0335622;-0.173282;-1.44752;-1.38326;2.00967;-7.39806;-0.0121555;0.00125919;0.0562363;0.0562595;-0.0121786;0.0342191;0.216149;4.62643;0.0421564;0.0456254;4.61953;0.216472;90.8105;135.81;-0.00737314;-0.0121547;0.00277685;-0.000160207;0.0562334;0.0103161;0.0763724;0;0.0802112;8.93798;5.60847
514000;515;26.4755;0.717992;0.027875;-2.386;26.3675;0.125575;-0.0820663;0.740597;-1.05959;-0.0871424;-0.741457;-0.319317;0.811982;-7.48377;-0.00209026;-0.000274392;0.00783773;0.00784531;-0.00209784;0.00497157;0.266692;3.74964;0.00605192;0.00662876;3.73971;0.2674;76.8756;121.876;0.000816914;-0.00209113;-0.00190794;0.00134307;0.00783596;0.00866314;0.0195932;0;0.0415521;-0.173896;-1.45585;-1.38386;2.01613;-7.39866;-0.0122304;0.00151144;0.0569235;0.0569565;-0.0122634;0.0346099;0.214856;4.65428;0.0426506;0.0461466;4.64444;0.215311;91.0416;136.042;-0.00617114;-0.0122292;0.00340616;-0.000259309;0.0569191;0.01349;0.0777529;0;0.0869348;8.93778;5.61672
515000;516;26.481;0.723498;0.0280888;-2.38889;26.3729;0.100921;-0.08495;0.74597;-1.08425;-0.0873862;-0.74306;-0.31627;0.812282;-7.48073;-0.0021941;-0.000320469;0.00816189;0.00817179;-0.00220401;0.0051879;0.268822;3.71993;0.00631212;0.0069172;3.7077;0.269709;77.0684;122.068;0.00131097;-0.00219497;-0.00201667;0.00135831;0.00815992;0.00699045;0.0174507;0;0.0399468;-0.174609;-1.46483;-1.3809;2.02067;-7.3957;-0.012301;0.0014533;0.057066;0.0570964;-0.0123315;0.0347139;0.215558;4.63912;0.0427715;0.0462853;4.63014;0.215976;91.4978;136.498;-0.00606464;-0.0123002;0.00368791;-0.000634673;0.0570605;0.00859273;0.0692258;0;0.0878719;8.94158;5.62396
516000;517;26.4875;0.73002;0.028342;-2.38922;26.3794;0.094728;-0.085287;0.752511;-1.09044;-0.0868094;-0.74393;-0.317282;0.813409;-7.48174;-0.00208517;-0.000386328;0.00776634;0.00778146;-0.0021003;0.00494088;0.268488;3.72456;0.00601132;0.00658784;3.70493;0.26991;77.07;122.07;0.00169345;-0.00208591;-0.00206293;0.00127388;0.0077643;0.00755376;0.020031;0;0.048323;-0.175299;-1.47283;-1.38557;2.02972;-7.40037;-0.0121575;0.00193249;0.0581694;0.0582225;-0.0122105;0.0352165;0.209001;4.78466;0.0434607;0.0469553;4.76822;0.209722;91.2363;136.236;-0.00751814;-0.0121556;0.00432759;-0.00030344;0.0581623;0.0205874;0.0710343;0;0.09502;8.95195;5.63151
517000;518;26.4991;0.741578;0.0287907;-2.38839;26.391;0.10338;-0.0844498;0.76416;-1.08179;-0.0880502;-0.745334;-0.315746;0.81423;-7.4802;-0.00206446;-0.000369858;0.00842889;0.00844192;-0.00207749;0.0052597;0.244927;4.08285;0.00643324;0.00701293;4.06353;0.246092;78.5109;123.511;0.00165334;-0.00206518;-0.00200637;0.00124962;0.00842697;0.00652197;0.0189679;0;0.0404319;-0.177521;-1.48135;-1.39119;2.03993;-7.40679;-0.0130164;0.000154139;0.058129;0.0581293;-0.0130168;0.035573;0.223923;4.46582;0.0437422;0.0474307;4.46573;0.223928;93.2772;138.277;-0.0105224;-0.0130196;0.0030017;-0.00250196;0.0581247;-0.00542109;0.0759457;0;0.103235;8.95644;5.63877
518000;519;26.5053;0.747768;0.029031;-2.38766;26.3973;0.099497;-0.0837208;0.770456;-1.08567;-0.0876446;-0.744897;-0.316348;0.81402;-7.48081;-0.002094;-0.000543032;0.00803134;0.00806038;-0.00212304;0.00509171;0.260728;3.83541;0.00620356;0.00678894;3.79663;0.263392;77.8489;122.849;0.000988931;-0.00209457;-0.00230135;0.00119763;0.00802886;0.00839102;0.0199667;0;0.0378821;-0.178374;-1.48694;-1.39417;2.0461;-7.40897;-0.0126303;0.000961801;0.0589365;0.0589495;-0.0126432;0.0357963;0.214303;4.6663;0.044122;0.0477284;4.66255;0.214475;92.0545;137.055;-0.00476983;-0.0126306;0.00338711;-0.0012996;0.0589316;0.0112726;0.0681099;0;0.0913806;8.964;5.64587
519000;520;26.5113;0.753762;0.0292638;-2.38874;26.4033;0.0992222;-0.0848014;0.776378;-1.08594;-0.0874437;-0.745174;-0.316131;0.814168;-7.48059;-0.00194824;-0.000283317;0.00853464;0.00854229;-0.00195589;0.00524909;0.228275;4.38069;0.0064465;0.00699879;4.36746;0.228966;78.2661;123.266;0.000707841;-0.00194913;-0.00194442;0.00136052;0.00853281;0.00865098;0.0185419;0;0.0386548;-0.178899;-1.4954;-1.39602;2.05355;-7.41082;-0.0132548;0.000925947;0.0595548;0.0595666;-0.0132666;0.0364166;0.222564;4.49308;0.044793;0.0485554;4.48998;0.222718;91.98;136.98;-0.00699006;-0.0132551;0.00325218;-0.00124044;0.0595502;0.0177599;0.0688964;0;0.0843387;8.96422;5.6505
520000;521;26.5184;0.760866;0.0295395;-2.38983;26.4103;0.0979926;-0.0858931;0.783417;-1.08717;-0.0871833;-0.745714;-0.314089;0.813844;-7.47855;-0.00221661;-0.000442584;0.00837791;0.00839637;-0.00223507;0.00531572;0.264578;3.7796;0.00647254;0.00708762;3.75665;0.266195;78.5905;123.59;0.00115946;-0.00221719;-0.00206694;0.0011647;0.00837589;0.00887464;0.0199574;0;0.0400749;-0.179192;-1.50356;-1.3974;2.06047;-7.41488;-0.0129632;0.00160355;0.0610992;0.0611339;-0.0129979;0.0370659;0.212166;4.7133;0.0457088;0.0494212;4.70339;0.212613;90.7563;135.756;-0.00677216;-0.0129619;0.003386;-5.44858e-05;0.061095;0.0128693;0.0685247;0;0.0857465;8.97408;5.65392
521000;522;26.5278;0.770256;0.0299041;-2.39277;26.4195;0.0970126;-0.0888334;0.792583;-1.08815;-0.085735;-0.746303;-0.314592;0.814424;-7.47905;-0.00208837;-0.000300908;0.00832068;0.00832937;-0.00209707;0.00521322;0.250986;3.98428;0.00636809;0.00695096;3.97192;0.251768;77.9686;122.969;0.000473624;-0.00208919;-0.00192832;0.0013097;0.00831888;0.00821612;0.0193708;0;0.0352841;-0.178325;-1.5153;-1.39592;2.06798;-7.41433;-0.013792;0.000185058;0.0618464;0.0618468;-0.0137924;0.0378196;0.223003;4.48424;0.0465154;0.0504262;4.48412;0.223009;92.0824;137.082;-0.00797487;-0.0137933;0.00216858;-0.00165717;0.0618442;-0.0170178;0.0771135;0;0.0975557;8.97735;5.66068
522000;523;26.5341;0.776616;0.030151;-2.3943;26.4258;0.0860552;-0.0903635;0.798868;-1.09911;-0.0872094;-0.746959;-0.31398;0.814946;-7.47844;-0.00224905;-0.000453888;0.00864619;0.00866507;-0.00226793;0.0054665;0.26012;3.84437;0.00666262;0.00728866;3.8207;0.261732;79.5233;124.523;0.0014751;-0.00224954;-0.00200826;0.0010837;0.0086443;0.00779451;0.0203343;0;0.0369611;-0.180291;-1.5228;-1.39744;2.07467;-7.41388;-0.0129774;0.000966375;0.0614118;0.0614244;-0.01299;0.0372072;0.211318;4.73221;0.0458965;0.0496095;4.7286;0.211479;91.6873;136.687;-0.00836894;-0.0129775;0.00315344;-0.00106741;0.0614076;0.0269436;0.0699487;0;0.0912173;8.97931;5.66654
523000;524;26.5414;0.783852;0.0304319;-2.39522;26.433;0.0731934;-0.0912873;0.806089;-1.11197;-0.0888012;-0.747921;-0.310952;0.814839;-7.47541;-0.00216641;-0.000119029;0.00873046;0.00873176;-0.00216771;0.00544974;0.248144;4.02991;0.00666235;0.00726632;4.0281;0.248256;77.5875;122.587;0.00134381;-0.00216751;-0.00173987;0.0014843;0.00872897;0.00802959;0.0196657;0;0.0408382;-0.18269;-1.52996;-1.39993;2.08182;-7.41663;-0.0129816;0.00115069;0.0620121;0.0620298;-0.0129992;0.0375145;0.209339;4.77693;0.0462986;0.0500194;4.7718;0.209564;91.0482;136.048;-0.00937733;-0.012981;0.00290474;-0.0004795;0.0620088;0.0310265;0.0807985;0;0.101695;8.98144;5.67396
524000;525;26.5523;0.794769;0.0308558;-2.39359;26.444;0.0849452;-0.0896492;0.817164;-1.10022;-0.0885969;-0.748821;-0.309295;0.815012;-7.47375;-0.00212226;-0.00014851;0.00878218;0.0087842;-0.00212428;0.00545424;0.241655;4.13813;0.00667782;0.00727232;4.13514;0.24183;78.4111;123.411;0.0014551;-0.00212321;-0.00169682;0.00138307;0.00878076;0.00743094;0.0197609;0;0.0435949;-0.183727;-1.53942;-1.40041;2.08919;-7.41975;-0.0137594;-0.000467677;0.0628557;0.0628586;-0.0137622;0.0383104;0.218904;4.56821;0.0471672;0.0510805;4.56747;0.21894;93.6052;138.605;-0.0103005;-0.0137646;0.0025106;-0.00323126;0.0628529;-0.00759357;0.0740174;0;0.109091;8.98519;5.68066
525000;526;;;;;;;;;;-0.0893555;-0.750437;-0.308345;0.816221;-7.4728;-0.00208705;-0.000247603;0.00857664;0.00858239;-0.00209279;0.00533759;0.243341;4.10947;0.00653191;0.00711679;4.10093;0.243847;78.5165;123.517;0.00192894;-0.00208787;-0.00181798;0.00130617;0.00857503;0.00667677;0.0193376;0;0.0330517;-0.185789;-1.54571;-1.40496;2.09705;-7.42252;-0.0131955;0.00124118;0.0646803;0.0647;-0.0132153;0.0389576;0.204011;4.9017;0.0481468;0.0519435;4.89586;0.204254;90.7486;135.749;-0.00656618;-0.0131947;0.00283251;-0.000233759;0.0646772;0.0143942;0.0695887;0;0.0981601;8.98995;5.68827
526000;527;26.5646;0.807102;0.0313346;-2.39392;26.4564;0.0807775;-0.0899858;0.82953;-1.10439;-0.0891165;-0.750934;-0.310246;0.817372;-7.4747;-0.0021702;-0.000378792;0.00876876;0.00878186;-0.0021833;0.00548258;0.247493;4.04053;0.00670195;0.00731011;4.02228;0.248615;80.282;125.282;0.000943449;-0.00217068;-0.00181932;0.00104612;0.00876719;0.00872522;0.0190073;0;0.03679;-0.186468;-1.55379;-1.40762;2.10486;-7.42242;-0.014144;0.00135356;0.0646282;0.0646514;-0.0141673;0.0394094;0.218852;4.5693;0.0485178;0.0525458;4.56344;0.219133;90.195;135.195;-0.00668434;-0.0141431;0.00246035;0.000328656;0.0646262;0.00522954;0.0777817;0;0.0937371;9.00337;5.69578
527000;528;26.5736;0.816107;0.0316842;-2.39614;26.4653;0.0830255;-0.0921992;0.838365;-1.10214;-0.0889488;-0.751629;-0.309347;0.817652;-7.4738;-0.00211049;-0.00025423;0.00904202;0.00904781;-0.00211629;0.00558205;0.23341;4.28431;0.0068472;0.00744273;4.27533;0.2339;80.08;125.08;0.00142403;-0.00211115;-0.00169965;0.00117522;0.00904062;0.00750626;0.0200909;0;0.0365621;-0.185801;-1.56384;-1.40832;2.1127;-7.42548;-0.0132726;0.00121369;0.0661527;0.0661712;-0.0132912;0.0397312;0.200637;4.98414;0.0491473;0.0529749;4.97858;0.20086;90.0222;135.022;-0.00627631;-0.013272;0.00209711;0.000396079;0.0661513;-0.00615258;0.0637127;0;0.085685;9.00348;5.70362
528000;529;26.5819;0.824377;0.0320053;-2.39881;26.4733;0.0778217;-0.0948705;0.846442;-1.10734;-0.0892926;-0.751954;-0.30834;0.817607;-7.4728;-0.0022905;-0.000398529;0.00878546;0.00879979;-0.00230482;0.00555231;0.260715;3.8356;0.00676693;0.00740307;3.81798;0.261918;79.7489;124.749;0.000769616;-0.00229102;-0.00190017;0.00108663;0.00878375;0.00896901;0.0204184;0;0.0369425;-0.186799;-1.57212;-1.40762;2.11846;-7.42117;-0.0128443;0.00132886;0.067744;0.0677659;-0.0128662;0.040316;0.1896;5.27425;0.0500206;0.0537547;5.26698;0.189862;90.649;135.649;-0.00852216;-0.0128434;0.0029608;-0.00017992;0.0677407;-0.000749417;0.0856714;0;0.0959574;9.00364;5.70983
529000;530;;;;;;;;;;-0.0889596;-0.75343;-0.304971;0.817666;-7.46943;-0.00206959;-0.000164836;0.00895113;0.00895359;-0.00207206;0.00551283;0.23121;4.32507;0.00676634;0.00735043;4.32111;0.231422;78.8806;123.881;0.0014284;-0.00207051;-0.00170753;0.00136101;0.0089497;0.00816386;0.0210868;0;0.036111;-0.188161;-1.5827;-1.40839;2.12695;-7.42687;-0.0124782;0.00200614;0.0648566;0.0649086;-0.0125302;0.0387194;0.192396;5.1976;0.0479974;0.0516259;5.18018;0.193043;89.968;134.968;-0.00961577;-0.0124764;0.0034218;0.000693294;0.064853;0.0336051;0.0747455;0;0.104576;9.00381;5.71734
530000;531;;;;;;;;;;-0.0894563;-0.75361;-0.306685;0.818527;-7.47114;-0.00211262;-0.000262808;0.0092044;0.0092105;-0.00211872;0.00566461;0.229523;4.35687;0.00695499;0.00755282;4.3472;0.230033;79.7593;124.759;0.00187256;-0.00211337;-0.00179267;0.0012499;0.00920285;0.00579646;0.0200413;0;0.033145;-0.189215;-1.58837;-1.4116;2.13339;-7.42873;-0.0130251;0.00134288;0.0677235;0.0677459;-0.0130474;0.0403966;0.192327;5.19947;0.0500828;0.0538622;5.19228;0.192594;92.0093;137.009;-0.00281427;-0.0130253;0.00437314;-0.00145822;0.0677154;0.0183559;0.0805511;0;0.104619;9.00926;5.71972
531000;532;;;;;;;;;;-0.0906665;-0.755199;-0.303211;0.81883;-7.46767;-0.00206494;-0.000163115;0.00942599;0.00942831;-0.00206726;0.00574778;0.219069;4.56478;0.00707601;0.00766371;4.56079;0.21926;79.9267;124.927;0.0017171;-0.00206578;-0.00164749;0.00130437;0.00942466;0.00643066;0.0208019;0;0.0367044;-0.19227;-1.59647;-1.41289;2.14054;-7.42831;-0.0134645;0.000950042;0.0679965;0.0680075;-0.0134756;0.0407416;0.198018;5.05005;0.0504339;0.0543221;5.04673;0.198148;92.3747;137.375;-0.00514777;-0.0134659;0.00405509;-0.00191818;0.0679892;0.00906923;0.0801532;0;0.115694;9.0225;5.72719
532000;533;;;;;;;;;;-0.0899156;-0.755004;-0.30546;0.819404;-7.46992;-0.00217552;-0.000327277;0.00918197;0.00919139;-0.00218494;0.00568816;0.236934;4.22059;0.006971;0.00758422;4.2067;0.237716;79.9374;124.937;0.00172894;-0.00217617;-0.00185941;0.00118761;0.00918031;0.00665529;0.0214048;0;0.0325256;-0.192551;-1.60469;-1.41836;2.15031;-7.43591;-0.013077;0.00164149;0.070277;0.0703093;-0.0131093;0.0417093;0.186078;5.37409;0.0517986;0.0556124;5.36331;0.186452;90.0877;135.088;-0.00472691;-0.0130757;0.00294102;0.000443179;0.0702742;0.0174095;0.0670151;0;0.105615;9.02546;5.73376
533000;534;26.6193;0.861798;0.0334581;-2.39933;26.5109;0.0599602;-0.0953971;0.884016;-1.12521;-0.0903073;-0.755763;-0.304628;0.819836;-7.46909;-0.00224826;-0.000242886;0.0092346;0.00923974;-0.0022534;0.00574657;0.243461;4.10744;0.00703235;0.00766209;4.10036;0.243881;78.8762;123.876;0.00121985;-0.00224916;-0.00186277;0.00135857;0.00923291;0.0091576;0.0214555;0;0.0391847;-0.193476;-1.61431;-1.4177;2.15716;-7.43149;-0.014324;0.000450476;0.070301;0.0703034;-0.0143264;0.0423149;0.203752;4.90793;0.0523025;0.0564198;4.90728;0.203779;90.9579;135.958;-0.0105745;-0.0143241;0.00177198;-0.000766537;0.0702996;-0.00576094;0.0749877;0;0.0944014;9.02734;5.73934
534000;535;;;;;;;;;;-0.0898158;-0.756612;-0.302641;0.819829;-7.4671;-0.00232759;-0.000173035;0.00933441;0.00933698;-0.00233016;0.00583357;0.249356;4.01033;0.00712945;0.00777809;4.00701;0.249563;79.5763;124.576;0.000574593;-0.0023284;-0.00164159;0.00127855;0.00933309;0.00945379;0.020117;0;0.0300994;-0.193592;-1.62148;-1.41852;2.16307;-7.4307;-0.0135213;0.000889355;0.0724451;0.0724543;-0.0135305;0.0429924;0.186641;5.35787;0.0533876;0.0573232;5.3549;0.186745;91.4588;136.459;-0.0100871;-0.0135216;0.00315597;-0.00119558;0.0724408;-0.00335628;0.0707075;0;0.105609;9.02944;5.7467
535000;536;26.6356;0.878039;0.0340886;-2.40546;26.5267;0.0502708;-0.101521;0.899788;-1.1349;-0.0908642;-0.75831;-0.301383;0.821049;-7.46584;-0.00210715;-0.000161529;0.00932236;0.00932465;-0.00210943;0.00571704;0.226031;4.42417;0.00702593;0.00762272;4.42046;0.226221;79.6899;124.69;0.00185804;-0.00210799;-0.00165085;0.00131093;0.00932103;0.00600065;0.0230066;0;0.042684;-0.194566;-1.63104;-1.41994;2.17127;-7.43324;-0.0132069;0.00107815;0.0707492;0.070763;-0.0132207;0.0419919;0.186672;5.35699;0.052144;0.0559892;5.35243;0.186831;90.4411;135.441;-0.00732319;-0.0132063;0.0023443;-8.87183e-05;0.0707472;0.0229886;0.0860127;0;0.0926347;9.03253;5.7541
536000;537;;;;;;;;;;-0.0906907;-0.758045;-0.302892;0.821341;-7.46735;-0.00209965;6.07309e-05;0.00960954;0.00960985;-0.00209996;0.00585491;0.218496;4.57674;0.00720924;0.00780654;4.5762;0.218522;78.9827;123.983;0.00141276;-0.00210082;-0.00142846;0.00153265;0.00960853;0.00737514;0.020877;0;0.0321407;-0.194888;-1.63859;-1.4251;2.18034;-7.43938;-0.0132079;2.4195e-05;0.0710448;0.0710448;-0.0132079;0.0421264;0.18591;5.37894;0.0523245;0.0561685;5.37894;0.18591;93.4221;138.422;-0.0122912;-0.0132139;0.00376053;-0.00341823;0.0710382;0.00566865;0.0710658;0;0.104253;9.03574;5.76217
537000;538;;;;;;;;;;-0.0904776;-0.759324;-0.302193;0.822241;-7.46665;-0.00227864;-0.000265308;0.0095159;0.00952187;-0.00228461;0.00590324;0.239456;4.17613;0.00723077;0.00787098;4.16784;0.239933;80.0033;125.003;0.0015318;-0.00227937;-0.00178411;0.00123575;0.00951436;0.00636867;0.0221567;0;0.0333961;-0.19636;-1.64655;-1.42535;2.18662;-7.43811;-0.0144224;0.000241021;0.073333;0.0733337;-0.0144231;0.0438784;0.19667;5.08465;0.0543386;0.0585045;5.08446;0.196678;91.9084;136.908;-0.011948;-0.0144241;0.00252491;-0.00185614;0.07333;-0.00405558;0.0814649;0;0.111659;9.0398;5.76871
538000;539;;;;;;;;;;-0.0906058;-0.760819;-0.298559;0.822309;-7.46302;-0.00223919;-0.000154648;0.00969534;0.00969734;-0.00224119;0.00596927;0.230955;4.32984;0.00732712;0.00795902;4.32687;0.231114;79.9436;124.944;0.00134632;-0.00224005;-0.00164524;0.00131833;0.00969401;0.00777523;0.0218327;0;0.033643;-0.197645;-1.65642;-1.42503;2.19397;-7.43945;-0.0139125;0.000649573;0.074038;0.0740428;-0.0139173;0.0439801;0.187911;5.32168;0.0545955;0.0586401;5.32019;0.187963;91.6019;136.602;-0.00758856;-0.0139134;0.00293596;-0.00144959;0.0740342;-0.000319276;0.0752797;0;0.110743;9.0477;5.77569
539000;540;26.6634;0.905832;0.0351676;-2.40362;26.5548;0.0392499;-0.0996815;0.92788;-1.14592;-0.0906285;-0.761515;-0.295534;0.821863;-7.45999;-0.00221565;9.16768e-05;0.00945402;0.00945474;-0.00221637;0.00583556;0.234361;4.26692;0.00715727;0.00778074;4.26586;0.23442;78.1477;123.148;0.00121309;-0.00221695;-0.00144489;0.00161048;0.00945299;0.00803861;0.0211335;0;0.053426;-0.197922;-1.66426;-1.4264;2.2008;-7.44111;-0.0135507;0.000936609;0.0760465;0.0760563;-0.0135605;0.0448084;0.178189;5.61202;0.0557766;0.0597445;5.60869;0.178295;89.5729;134.573;-0.0132193;-0.0135505;0.00113825;0.000751755;0.0760463;0.00204966;0.0671233;0;0.114303;9.04824;5.78286
540000;541;;;;;;;;;;-0.090068;-0.759529;-0.305267;0.823519;-7.46972;-0.00232455;-0.000109212;0.00997036;0.00997133;-0.00232552;0.00614843;0.233146;4.28915;0.00754318;0.0081979;4.28778;0.233221;80.5163;125.516;0.000996918;-0.00232537;-0.00151373;0.00127821;0.00996923;0.00744329;0.0208075;0;0.0268821;-0.198954;-1.66996;-1.43383;2.21003;-7.44328;-0.0140349;0.00127889;0.0771274;0.0771453;-0.0140528;0.0455991;0.18197;5.49542;0.056698;0.0607988;5.48968;0.18216;89.265;134.265;-0.00665203;-0.0140348;0.00136019;0.00120447;0.0771273;-0.00703047;0.0707602;0;0.108743;9.05167;5.79013
541000;542;;;;;;;;;;-0.09128;-0.761368;-0.299816;0.823349;-7.46427;-0.00216476;-4.72665e-05;0.0101176;0.0101178;-0.00216494;0.00614138;0.213959;4.67379;0.00757075;0.0081885;4.67348;0.213973;80.0841;125.084;0.00130907;-0.00216577;-0.0015313;0.00141873;0.0101165;0.00775615;0.0225882;0;0.036301;-0.201002;-1.68189;-1.43394;2.21931;-7.45063;-0.0149294;0.00166925;0.0762379;0.0762685;-0.0149599;0.0456142;0.195826;5.10657;0.0564964;0.0608189;5.09819;0.196148;88.9766;133.977;0.00304518;-0.0149293;0.00169822;0.00164273;0.0762379;-0.00960733;0.0851496;0;0.107323;9.05854;5.79604
542000;543;;;;;;;;;;-0.0914197;-0.761801;-0.298678;0.823351;-7.46314;-0.0023405;-0.000159023;0.00994387;0.00994593;-0.00234256;0.00614425;0.235371;4.2486;0.00753387;0.00819233;4.24575;0.23553;80.0874;125.087;0.00150059;-0.00234137;-0.00165705;0.00132079;0.00994253;0.00724802;0.0213179;0;0.0336006;-0.200911;-1.68927;-1.43329;2.22448;-7.44763;-0.0127188;0.00126172;0.0753727;0.0753908;-0.0127369;0.0440638;0.168746;5.92607;0.055;0.0587518;5.91908;0.168945;90.3974;135.397;-0.00590866;-0.012718;0.00269471;-5.3883e-05;0.0753701;0.0150569;0.0877246;0;0.108939;9.05993;5.80095
543000;544;26.7013;0.943792;0.0366414;-2.40964;26.5923;0.0364933;-0.105703;0.965454;-1.14867;-0.0909999;-0.762931;-0.298336;0.824226;-7.46279;-0.00223278;-0.000111503;0.00995351;0.00995453;-0.0022338;0.00609417;0.224321;4.4579;0.00749278;0.00812555;4.45632;0.2244;80.2159;125.216;0.00161968;-0.00223367;-0.00157864;0.00133793;0.00995229;0.0064468;0.0221063;0;0.032869;-0.201266;-1.698;-1.43781;2.23406;-7.45512;-0.0128981;0.00157555;0.0764101;0.0764379;-0.0129259;0.0446819;0.168801;5.92415;0.0557688;0.0595758;5.91356;0.169103;90.7733;135.773;-0.00754538;-0.0128969;0.00370672;-0.000378805;0.0764048;0.00807691;0.0779291;0;0.1043;9.06958;5.80744
544000;545;;;;;;;;;;-0.0914674;-0.763446;-0.297401;0.824417;-7.46186;-0.00227125;-3.95513e-05;0.00997543;0.00997555;-0.00227137;0.00612346;0.227684;4.39205;0.00752268;0.00816462;4.39186;0.227694;79.9132;124.913;0.00172127;-0.00227223;-0.00149793;0.00140114;0.00997432;0.00617831;0.0212508;0;0.0373504;-0.20314;-1.70607;-1.44021;2.24191;-7.45294;-0.0139533;1.82782e-05;0.0800754;0.0800754;-0.0139533;0.0470143;0.174252;5.73882;0.0585912;0.0626858;5.73882;0.174252;92.3135;137.313;-0.00795434;-0.0139568;0.00292251;-0.00263312;0.0800714;0.00240632;0.073666;0;0.112063;9.07064;5.81621
545000;546;26.7128;0.955293;0.0370879;-2.40875;26.604;0.0226798;-0.104814;0.977098;-1.16249;-0.0916793;-0.764259;-0.297935;0.825386;-7.46239;-0.002325;-0.000295729;0.00997822;0.00998532;-0.0023321;0.00615871;0.233007;4.29171;0.0075552;0.00821162;4.28168;0.233553;81.4072;126.407;0.00159584;-0.00232555;-0.00169801;0.00108947;0.00997683;0.00656709;0.0216957;0;0.0316383;-0.204634;-1.71433;-1.44067;2.24863;-7.4547;-0.0143647;0.000898698;0.0800715;0.0800801;-0.0143732;0.0472266;0.179398;5.5742;0.0587666;0.0629689;5.57148;0.179486;91.029;136.029;-0.00678972;-0.0143646;0.00285057;-0.000882513;0.0800681;0.00128304;0.0729;0;0.103047;9.0687;5.82104
546000;547;;;;;;;;;;-0.0906325;-0.765045;-0.296497;0.825481;-7.46095;-0.00224419;-0.000102056;0.00977035;0.00977122;-0.00224506;0.00600814;0.229694;4.35362;0.00737726;0.00801085;4.35232;0.229762;79.6617;124.662;0.00147961;-0.00224515;-0.0016108;0.00138874;0.00976907;0.00724242;0.0222871;0;0.0298158;-0.204458;-1.72199;-1.44426;2.25675;-7.45372;-0.0146048;0.00134466;0.0824758;0.0824945;-0.0146234;0.0485589;0.17708;5.64716;0.0604631;0.0647453;5.64125;0.177266;89.5488;134.549;-0.0110835;-0.0146044;0.00178348;0.00094519;0.0824752;-0.00388611;0.0704463;0;0.116489;9.06438;5.82759
547000;548;;;;;;;;;;-0.0906225;-0.765518;-0.296086;0.825771;-7.46054;-0.00231843;-4.40703e-05;0.010398;0.0103981;-0.00231858;0.00635834;0.22297;4.48491;0.00782035;0.00847779;4.48468;0.222981;81.2795;126.28;0.00150352;-0.00231921;-0.00135785;0.00125317;0.010397;0.00567385;0.0213835;0;0.047877;-0.205253;-1.72977;-1.44727;2.26469;-7.45665;-0.014412;0.00176488;0.0824962;0.0825283;-0.0144441;0.0484862;0.174699;5.72413;0.060412;0.0646483;5.71362;0.17502;89.2469;134.247;-0.0114609;-0.0144115;0.00213775;0.00142539;0.0824955;0.00468178;0.0692364;0;0.119383;9.06623;5.83476
548000;549;26.7373;0.979754;0.0380376;-2.41456;26.628;0.0187243;-0.110624;1.00114;-1.16644;-0.0902796;-0.765956;-0.291726;0.824587;-7.45618;-0.0023322;-4.35955e-06;0.0100154;0.0100154;-0.00233221;0.00617379;0.232862;4.29438;0.00757495;0.00823172;4.29438;0.232863;79.8284;124.828;0.00215773;-0.00233321;-0.00144646;0.00142011;0.0100143;0.00533262;0.0213801;0;0.0397976;-0.204978;-1.73916;-1.44333;2.26934;-7.45762;-0.013823;0.00220217;0.0804209;0.0804723;-0.0138744;0.0471734;0.171883;5.8179;0.058821;0.0628979;5.80005;0.172412;88.7774;133.777;-0.0106065;-0.0138227;0.00234696;0.00207002;0.0804206;-0.000553909;0.0872519;0;0.103495;9.0696;5.84127
549000;550;26.7451;0.987604;0.0383423;-2.41598;26.6358;0.00660196;-0.11204;1.0089;-1.17856;-0.0904685;-0.766751;-0.292172;0.825503;-7.45663;-0.00231417;-9.24644e-05;0.0100796;0.0100803;-0.00231486;0.00619758;0.229589;4.35562;0.0076101;0.00826345;4.35462;0.229641;80.9109;125.911;0.0011157;-0.00231494;-0.00144571;0.00124418;0.0100786;0.00654846;0.0212018;0;0.0394538;-0.20618;-1.74801;-1.44861;2.27959;-7.46573;-0.0129258;0.00247062;0.0813884;0.0814531;-0.0129905;0.0472218;0.158816;6.29658;0.05911;0.0629624;6.27021;0.159484;88.9427;133.943;-0.00462705;-0.0129246;0.0030421;0.00194899;0.0813869;0.00298464;0.0774145;0;0.100255;9.0718;5.84922
550000;551;26.7539;0.996391;0.0386835;-2.41318;26.6449;0.00934567;-0.109247;1.01797;-1.17582;-0.0910968;-0.768241;-0.291945;0.826876;-7.4564;-0.00224525;-6.31061e-05;0.0101125;0.0101128;-0.00224557;0.00617918;0.222028;4.50394;0.00760175;0.0082389;4.50344;0.222053;80.3315;125.332;0.00209089;-0.00224617;-0.00150356;0.00135972;0.0101113;0.00485411;0.0221479;0;0.0384242;-0.207091;-1.75732;-1.45477;2.29073;-7.47508;-0.0141132;0.000626441;0.0823825;0.0823866;-0.0141173;0.0482519;0.171313;5.83727;0.0601846;0.0643359;5.83587;0.171354;91.4512;136.451;-0.00458461;-0.0141142;0.00298102;-0.00151822;0.0823786;0.000537467;0.0712606;0;0.113833;9.08109;5.85635
551000;552;;;;;;;;;;-0.0918026;-0.768717;-0.291324;0.827178;-7.45578;-0.00239701;-0.000192212;0.01009;0.010093;-0.00239997;0.00624648;0.237563;4.20942;0.0076551;0.00832864;4.20546;0.237786;80.4033;125.403;0.00175456;-0.00239781;-0.00168069;0.00127787;0.0100886;0.00606224;0.0228737;0;0.0372076;-0.208871;-1.7649;-1.45229;2.29513;-7.46354;-0.0152;-0.000344157;0.085403;0.0854041;-0.0152011;0.0503026;0.177979;5.61863;0.0626212;0.0670702;5.61828;0.177991;91.5788;136.579;-0.0156262;-0.015202;0.00149629;-0.00201401;0.085402;0.0179918;0.0714736;0;0.126989;9.09148;5.86438
552000;553;;;;;;;;;;-0.0920148;-0.769545;-0.291777;0.82813;-7.45623;-0.00239085;-8.25821e-05;0.0106155;0.010616;-0.00239138;0.00650368;0.225224;4.44003;0.00799457;0.00867158;4.43928;0.225262;81.4958;126.496;0.00185601;-0.00239161;-0.00141208;0.0012298;0.0106145;0.00469859;0.0211079;0;0.037987;-0.210851;-1.7739;-1.45551;2.30427;-7.46718;-0.0160989;-0.000196373;0.0865865;0.0865869;-0.0160993;0.0513431;0.185928;5.37841;0.0637721;0.0684575;5.37831;0.185932;91.3987;136.399;-0.0101111;-0.0161005;0.00152807;-0.00175785;0.0865855;-0.01484;0.0812016;0;0.128976;9.08914;5.8717
553000;554;26.7762;1.01871;0.0395501;-2.41494;26.6671;0.00756597;-0.110999;1.04023;-1.1776;-0.0917017;-0.767335;-0.298749;0.828531;-7.46321;-0.00237104;-0.000174735;0.0105395;0.0105418;-0.0023734;0.00645762;0.224967;4.44509;0.00793819;0.00861017;4.44166;0.225141;82.0997;127.1;0.00102153;-0.00237163;-0.00146453;0.00109858;0.0105384;0.00709101;0.0229077;0;0.0336304;-0.211545;-1.77981;-1.46624;2.31567;-7.48073;-0.0147854;0.00160422;0.0879512;0.0879762;-0.0148104;0.0513933;0.168109;5.94853;0.06416;0.0685244;5.94016;0.168346;89.243;134.243;-0.0113324;-0.0147851;0.00179501;0.00143144;0.0879509;-0.0018104;0.0816192;0;0.105426;9.08948;5.87569
554000;555;26.7827;1.0252;0.0398021;-2.41863;26.6733;-0.000159955;-0.114693;1.04641;-1.18533;-0.091462;-0.769386;-0.292306;0.828108;-7.45676;-0.00241223;-3.70722e-05;0.0106322;0.0106323;-0.00241233;0.0065223;0.22688;4.40761;0.00801424;0.0086964;4.40746;0.226888;81.0432;126.043;0.00222925;-0.00241309;-0.00140619;0.00131438;0.0106312;0.00459108;0.0222531;0;0.0297472;-0.211574;-1.79365;-1.46592;2.32613;-7.48853;-0.0150607;0.000822265;0.0841454;0.0841523;-0.0150675;0.0496099;0.178984;5.58709;0.06174;0.0661465;5.58501;0.179051;89.9068;134.907;-0.00607106;-0.0150604;0.00132122;0.000368967;0.084145;-0.00830252;0.073665;0;0.110729;9.08875;5.88165
555000;556;26.7912;1.03369;0.0401317;-2.42106;26.6816;-0.0145638;-0.117121;1.05471;-1.19973;-0.0910105;-0.77154;-0.287305;0.828312;-7.45176;-0.00244788;-8.80178e-05;0.0102482;0.0102488;-0.00244849;0.00634864;0.23886;4.18656;0.00777822;0.00846485;4.18576;0.238905;80.7653;125.765;0.00172784;-0.00244868;-0.00146536;0.00127201;0.0102471;0.00547165;0.022959;0;0.0334022;-0.212285;-1.80049;-1.4609;2.32831;-7.47719;-0.0140278;0.00250108;0.0853017;0.0853646;-0.0140907;0.0497276;0.164449;6.08092;0.0621414;0.0663035;6.05823;0.165065;88.1014;133.101;-0.00584722;-0.0140293;0.00188381;0.00306185;0.0853029;0.00402557;0.058234;0;0.105868;9.08977;5.88692
556000;557;26.801;1.04347;0.0405112;-2.42105;26.6914;-0.0146936;-0.117115;1.06453;-1.19986;-0.0915997;-0.771815;-0.288927;0.829197;-7.45338;-0.0025082;-0.000103625;0.0107788;0.0107796;-0.002509;0.00664433;0.232696;4.29745;0.00815249;0.0088591;4.29639;0.232754;81.6324;126.632;0.00181439;-0.00250892;-0.00143216;0.00120745;0.0107778;0.00561236;0.0237837;0;0.0338464;-0.213765;-1.80997;-1.46705;2.33964;-7.486;-0.0143942;0.00127868;0.0856792;0.0856955;-0.0144105;0.050053;0.168001;5.95236;0.0624902;0.0667373;5.94675;0.168159;89.4008;134.401;-0.00572921;-0.014394;0.00145795;0.00111594;0.085679;0.0112401;0.0834889;0;0.120961;9.092;5.89421
557000;558;;;;;;;;;;-0.0912465;-0.773124;-0.284051;0.828692;-7.44851;-0.00252554;-0.000136747;0.010714;0.0107154;-0.00252695;0.00662119;0.235723;4.24227;0.00811811;0.00882825;4.24046;0.235824;82.1534;127.153;0.00153822;-0.00252614;-0.00139239;0.00110244;0.0107131;0.00566408;0.0209936;0;0.0418093;-0.21435;-1.81705;-1.46281;2.34253;-7.47504;-0.0152623;0.00126808;0.0893858;0.0894012;-0.0152777;0.0523394;0.170746;5.85664;0.0652919;0.0697859;5.85176;0.170889;89.1518;134.152;-0.0142986;-0.0152626;0.00105102;0.00146429;0.0893861;4.2851e-05;0.0744044;0;0.124323;9.09756;5.90094
558000;559;26.8173;1.05977;0.0411442;-2.41894;26.708;-0.0075159;-0.114998;1.08109;-1.19268;-0.0909373;-0.77386;-0.283983;0.829322;-7.44844;-0.00264757;0.000114949;0.0105789;0.0105799;-0.00264857;0.00661422;0.25027;3.99568;0.00808208;0.00881896;3.99455;0.250341;80.2434;125.243;0.00126367;-0.00264861;-0.00122762;0.00143995;0.0105781;0.00628437;0.0220837;0;0.0395248;-0.214377;-1.82525;-1.46465;2.35004;-7.47818;-0.0158976;0.00156189;0.0925136;0.0925361;-0.0159201;0.0542281;0.17184;5.81935;0.067625;0.0723041;5.81254;0.172042;88.8495;133.85;-0.0145546;-0.0158983;0.00108671;0.00198992;0.0925142;0.00525203;0.0823595;0;0.122427;9.10561;5.90879
559000;560;26.8251;1.06755;0.0414462;-2.41857;26.7158;-0.00612947;-0.114631;1.08894;-1.1913;-0.0923112;-0.773048;-0.287323;0.829866;-7.45178;-0.00251449;-5.37022e-05;0.0107822;0.0107824;-0.00251471;0.00664857;0.233207;4.28804;0.00815678;0.00886476;4.28775;0.233222;81.9042;126.904;0.00109512;-0.00251518;-0.0013039;0.00118005;0.0107814;0.0054057;0.022003;0;0.0407236;-0.216261;-1.83404;-1.46799;2.35912;-7.48191;-0.0151763;0.000671245;0.0916219;0.0916261;-0.0151806;0.0534033;0.165641;6.03716;0.0667224;0.0712045;6.03576;0.165679;90.0384;135.038;-0.00659402;-0.0151761;0.00125165;0.000147619;0.0916214;-0.00731908;0.0802321;0;0.113774;9.10715;5.91559
560000;561;26.831;1.07348;0.0416764;-2.42255;26.7214;-0.0240012;-0.118617;1.09452;-1.20917;-0.0916038;-0.773152;-0.288214;0.830194;-7.45267;-0.00248601;-7.00721e-06;0.0106619;0.0106619;-0.00248602;0.00657398;0.233167;4.28877;0.00806537;0.0087653;4.28877;0.233167;81.1354;126.135;0.00149656;-0.00248686;-0.00133302;0.00130175;0.0106611;0.00460275;0.0221368;0;0.0396145;-0.217466;-1.84355;-1.47606;2.37165;-7.49555;-0.0159271;0.00166927;0.090518;0.0905441;-0.0159533;0.0532487;0.175955;5.68326;0.0663232;0.0709983;5.67558;0.176193;89.3228;134.323;-0.0124605;-0.0159267;0.00198306;0.00138611;0.0905174;-0.00604022;0.0801636;0;0.113436;9.10651;5.92328
561000;562;26.8418;1.08424;0.042094;-2.42404;26.7321;-0.019217;-0.120099;1.10519;-1.20438;-0.0916609;-0.775545;-0.282718;0.830543;-7.44718;-0.00251048;-2.15945e-05;0.0108509;0.0108509;-0.00251052;0.00668073;0.231362;4.32224;0.00819993;0.00890765;4.32219;0.231364;81.2337;126.234;0.00188955;-0.00251134;-0.00136866;0.00130766;0.01085;0.00355569;0.0226453;0;0.0400345;-0.218124;-1.85387;-1.4718;2.3771;-7.48865;-0.015388;0.00184881;0.090415;0.0904473;-0.0154203;0.0529338;0.170193;5.87567;0.0660412;0.0705784;5.86545;0.17049;88.6643;133.664;-0.00837342;-0.015389;0.00137055;0.00228066;0.0904157;0.00593929;0.0884924;0;0.116498;9.10614;5.93076
562000;563;26.8498;1.09228;0.0424061;-2.42556;26.74;-0.032798;-0.121628;1.11311;-1.21796;-0.0925456;-0.776147;-0.281162;0.830675;-7.44562;-0.00266038;0.000108306;0.0109829;0.0109838;-0.00266124;0.00682252;0.242228;4.12833;0.00835215;0.00909669;4.12732;0.242288;80.8883;125.888;0.00151472;-0.00266136;-0.0012034;0.00140231;0.0109822;0.00348185;0.0221347;0;0.0373143;-0.219289;-1.86024;-1.47337;2.38315;-7.48708;-0.0140472;0.00318659;0.0933963;0.0934907;-0.0141416;0.0538162;0.150404;6.64875;0.0675363;0.0717549;6.61103;0.151262;87.6729;132.673;0.00183928;-0.0140503;0.00223279;0.00404666;0.0933986;0.00418037;0.0799125;0;0.119157;9.10611;5.9379
563000;564;26.8596;1.10207;0.0427863;-2.42427;26.7499;-0.0294695;-0.120335;1.12306;-1.21464;-0.090983;-0.778321;-0.272898;0.82978;-7.43736;-0.00268766;0.000192583;0.0104471;0.0104499;-0.00269049;0.00657021;0.257264;3.88706;0.00801541;0.00876028;3.88403;0.257464;80.2191;125.219;0.00179496;-0.00268869;-0.00107253;0.00144125;0.0104466;0.00405238;0.0229497;0;0.0431913;-0.219242;-1.873;-1.47329;2.39307;-7.49411;-0.0162134;0.00194432;0.0953325;0.0953664;-0.0162473;0.0558068;0.170072;5.87985;0.0696281;0.0744091;5.86968;0.170367;88.4559;133.456;-0.00270929;-0.0162152;0.00111862;0.00268594;0.0953337;0.000822593;0.078443;0;0.121585;9.10657;5.94333
564000;565;26.8677;1.11017;0.0431007;-2.42285;26.7582;-0.0243267;-0.118915;1.13133;-1.20949;-0.0917714;-0.776133;-0.282036;0.830872;-7.44649;-0.0025066;3.72248e-06;0.0106117;0.0106117;-0.0025066;0.00655915;0.236212;4.23349;0.00804129;0.00874553;4.23349;0.236212;81.3661;126.366;0.00122809;-0.0025074;-0.00126707;0.00125802;0.0106109;0.00450679;0.02314;0;0.0342632;-0.220322;-1.87881;-1.48214;2.40317;-7.50066;-0.0151401;0.00132123;0.0950487;0.0950645;-0.0151559;0.0551102;0.159288;6.27795;0.0689855;0.0734803;6.27243;0.159428;89.195;134.195;-0.00635822;-0.0151403;0.00114077;0.00148352;0.0950489;0.0016115;0.105365;0;0.11013;9.10902;5.94669
565000;566;26.8736;1.11603;0.0433285;-2.42385;26.764;-0.0282922;-0.119916;1.13712;-1.21346;-0.0923796;-0.777119;-0.28226;0.831937;-7.44672;-0.00252397;-0.000231979;0.0109121;0.0109161;-0.00252797;0.00672206;0.231299;4.32341;0.00825021;0.00896274;4.31815;0.231581;82.218;127.218;0.000940864;-0.00252454;-0.00157247;0.00109069;0.0109109;0.00522067;0.0239143;0;0.0317365;-0.222471;-1.88465;-1.48731;2.41112;-7.50434;-0.0157405;0.00137024;0.0976722;0.0976888;-0.015757;0.0567229;0.161156;6.20516;0.0709637;0.0756305;6.19969;0.161298;89.7256;134.726;-0.00842095;-0.0157398;0.00202587;0.000782348;0.0976712;-0.00576887;0.0712206;0;0.11564;9.11074;5.9524
566000;567;26.8788;1.12123;0.0435301;-2.42572;26.769;-0.0385206;-0.121781;1.14216;-1.22369;-0.0921965;-0.779118;-0.284431;0.834521;-7.44889;-0.0025801;1.10466e-06;0.0105845;0.0105845;-0.0025801;0.00658229;0.243763;4.10235;0.00805529;0.00877639;4.10235;0.243763;80.4097;125.41;0.00182826;-0.00258107;-0.0014054;0.00138929;0.0105835;0.00220335;0.0247522;0;0.0241597;-0.222145;-1.89631;-1.487;2.42002;-7.50558;-0.0161275;0.00247294;0.0958801;0.0959347;-0.016182;0.0560584;0.168204;5.94515;0.0699769;0.0747445;5.92847;0.168678;88.419;133.419;-0.0118486;-0.0161286;0.00198964;0.00290684;0.0958811;-0.00160769;0.0795286;0;0.106504;9.12448;5.95975
567000;568;26.889;1.13148;0.0439281;-2.42833;26.7791;-0.0401636;-0.12439;1.15221;-1.22533;-0.093428;-0.777409;-0.284672;0.833146;-7.44913;-0.00263178;-0.000108754;0.0107905;0.0107914;-0.00263266;0.00671203;0.243898;4.10008;0.00821369;0.00894938;4.09904;0.243959;81.7222;126.722;0.000808921;-0.00263247;-0.00140785;0.00117309;0.0107895;0.00351288;0.0238379;0;0.0317248;-0.224043;-1.90336;-1.48829;2.42651;-7.50675;-0.0145617;0.00303293;0.0974918;0.0975739;-0.0146437;0.0561088;0.149363;6.69508;0.0704397;0.0748117;6.66318;0.150079;87.7199;132.72;-0.00439053;-0.0145655;0.00187175;0.00407555;0.0974944;-0.0077557;0.0807265;0;0.12027;9.12313;5.9684
568000;569;26.9005;1.14296;0.044374;-2.43059;26.7904;-0.0469987;-0.126651;1.16353;-1.23216;-0.0925494;-0.779792;-0.280173;0.833749;-7.44463;-0.0026219;0.000128043;0.0109411;0.0109423;-0.00262311;0.0067827;0.239638;4.17296;0.00830843;0.0090436;4.1715;0.239722;80.7523;125.752;0.000774377;-0.00262292;-0.00119114;0.00142953;0.0109404;0.00375391;0.0240604;0;0.0359538;-0.224755;-1.91427;-1.48862;2.43535;-7.50366;-0.0167751;0.00216987;0.0994849;0.0995254;-0.0168156;0.0581705;0.168619;5.93051;0.0726074;0.0775606;5.91864;0.168958;88.0994;133.099;-0.00999407;-0.0167784;0.000849343;0.00335076;0.0994867;0.00139632;0.0908892;0;0.125515;9.12097;5.97471
569000;570;26.9133;1.1558;0.0448722;-2.4279;26.8036;-0.0383722;-0.123967;1.17667;-1.22354;-0.0919902;-0.77963;-0.28028;0.833571;-7.44474;-0.00262601;-9.4841e-05;0.0111307;0.0111313;-0.00262667;0.00687899;0.235926;4.23861;0.00843389;0.00917198;4.23781;0.235971;82.2792;127.279;0.00107183;-0.00262666;-0.0013468;0.00114008;0.0111298;0.00360008;0.0223395;0;0.0311198;-0.224472;-1.92439;-1.49056;2.44447;-7.50822;-0.0174553;0.0014699;0.100642;0.100661;-0.0174736;0.0590671;0.173438;5.76573;0.0736261;0.0787562;5.76075;0.173589;88.7769;133.777;-0.0148212;-0.0174566;0.000654579;0.00219775;0.100643;0.0143531;0.0810655;0;0.112609;9.11689;5.98226
570000;571;26.9185;1.16097;0.0450729;-2.42746;26.8088;-0.0452233;-0.123527;1.18189;-1.23039;-0.0932444;-0.778678;-0.282291;0.833499;-7.44675;-0.00266198;-2.18217e-05;0.0112294;0.0112294;-0.00266202;0.0069457;0.237056;4.21842;0.00851348;0.00926094;4.21838;0.237058;82.1198;127.12;0.000790853;-0.0026627;-0.00125929;0.00119864;0.0112286;0.0041721;0.0228711;0;0.0435279;-0.227683;-1.93014;-1.49905;2.45447;-7.51662;-0.0181681;0.000835644;0.101216;0.101222;-0.018174;0.059698;0.179498;5.57108;0.0742842;0.0795974;5.56961;0.179546;89.4835;134.484;-0.0150117;-0.0181683;0.000651393;0.00099992;0.101216;-0.000115887;0.0892856;0;0.128281;9.11574;5.98987
571000;572;26.9211;1.16357;0.0451738;-2.42971;26.8112;-0.0576508;-0.125777;1.18427;-1.24282;-0.0913436;-0.781542;-0.268158;0.831301;-7.43262;-0.00276971;0.000238486;0.0109556;0.0109598;-0.00277385;0.0068668;0.252812;3.95551;0.00838547;0.00915574;3.9511;0.253094;80.3857;125.386;0.00129205;-0.00277082;-0.00104565;0.00150519;0.0109551;0.00327024;0.0227726;0;0.0776259;-0.22563;-1.9389;-1.48644;2.45352;-7.50497;-0.0172559;0.00135481;0.102105;0.102121;-0.0172713;0.0596961;0.169001;5.91712;0.0745079;0.0795948;5.91274;0.169126;88.5824;133.582;-0.00859561;-0.0172581;0.000102118;0.00247183;0.102106;-0.00288738;0.0739064;0;0.135909;9.11612;5.99762
572000;573;26.9308;1.17323;0.0455489;-2.42788;26.821;-0.0455342;-0.123942;1.19416;-1.2307;-0.0941813;-0.778209;-0.28332;0.833517;-7.44778;-0.00271029;-9.17437e-05;0.0109925;0.0109932;-0.0027109;0.00685203;0.246557;4.05586;0.00837986;0.00913603;4.05516;0.246599;81.89;126.89;0.000615611;-0.00271097;-0.00137094;0.00117012;0.0109916;0.00313845;0.0219795;0;0.0486488;-0.230204;-1.94241;-1.49949;2.46463;-7.51566;-0.0164786;0.00194125;0.102543;0.102575;-0.0165103;0.0595427;0.160699;6.22282;0.0744992;0.0793902;6.21281;0.160958;88.6182;133.618;-0.0100704;-0.0164801;0.0011998;0.00260265;0.102544;-0.00292986;0.0894904;0;0.140073;9.117;6.00386
573000;574;26.9344;1.17691;0.0456918;-2.43016;26.8245;-0.0613126;-0.126225;1.19762;-1.24648;-0.0922422;-0.781181;-0.274222;0.833036;-7.43868;-0.00280501;0.000130465;0.0110736;0.0110748;-0.00280624;0.00694051;0.253307;3.94777;0.00847492;0.00925402;3.94649;0.25339;80.9238;125.924;0.000969781;-0.00280598;-0.00115377;0.00139708;0.0110729;0.00346859;0.0231158;0;0.0425084;-0.22755;-1.95376;-1.49962;2.47342;-7.51891;-0.016028;0.00239688;0.102678;0.102726;-0.0160764;0.0594013;0.1561;6.40615;0.0744239;0.0792017;6.38988;0.156497;88.044;133.044;-0.00437601;-0.0160316;0.00106283;0.00358731;0.10268;-0.0159544;0.0926396;0;0.128753;9.12086;6.01051
574000;575;26.9469;1.18936;0.0461752;-2.43366;26.8367;-0.0567495;-0.12972;1.20981;-1.24192;-0.0935105;-0.782415;-0.273999;0.834262;-7.43846;-0.00280213;9.32749e-05;0.0112998;0.0113005;-0.00280275;0.00705161;0.24798;4.03259;0.00862112;0.00940214;4.03192;0.248021;81.6701;126.67;0.0010017;-0.00280298;-0.00113109;0.00130057;0.0112992;0.00330388;0.0227346;0;0.0554566;-0.231487;-1.96608;-1.49613;2.48142;-7.51542;-0.0162282;0.00125476;0.104685;0.104698;-0.0162412;0.0604696;0.155019;6.45082;0.0757946;0.0806261;6.44645;0.155124;89.3303;134.33;-0.0107712;-0.0162283;0.00112659;0.00136891;0.104685;-0.00791091;0.0865782;0;0.149245;9.12482;6.01395
575000;576;26.9545;1.19702;0.0464728;-2.43399;26.8443;-0.0678796;-0.130051;1.21746;-1.25305;-0.0940013;-0.78444;-0.271257;0.835322;-7.43571;-0.00274265;2.90639e-05;0.0110375;0.0110375;-0.00274271;0.00689012;0.248485;4.02439;0.00842278;0.00918683;4.02432;0.248489;81.8153;126.815;0.000234062;-0.0027434;-0.00118365;0.00122525;0.0110368;0.00421854;0.021589;0;0.0283676;-0.231428;-1.97381;-1.49947;2.48956;-7.51805;-0.0176922;0.00193866;0.106059;0.106089;-0.0177225;0.0619059;0.166815;5.99468;0.0773138;0.0825412;5.98612;0.167053;88.1147;133.115;-0.0115957;-0.0176963;0.000252452;0.0034362;0.106061;-0.00237619;0.087107;0;0.135765;9.12822;6.01954
576000;577;26.9622;1.20465;0.0467689;-2.4341;26.852;-0.0740975;-0.130168;1.22509;-1.25926;-0.0931088;-0.788319;-0.260581;0.835475;-7.42504;-0.00285107;0.000357943;0.0112668;0.0112759;-0.00286014;0.00706801;0.25305;3.95179;0.00863008;0.00942401;3.94243;0.253651;80.7292;125.729;0.000367801;-0.00285218;-0.000833458;0.00153271;0.0112665;0.00371696;0.0215773;0;0.0412493;-0.231861;-1.98528;-1.49447;2.4957;-7.51429;-0.0171152;0.00251448;0.107327;0.107378;-0.017166;0.062272;0.159468;6.27085;0.07794;0.0830293;6.25526;0.159866;88.0998;133.1;-0.00967951;-0.0171189;0.00121852;0.0036648;0.107329;0.00271381;0.0893353;0;0.128719;9.14842;6.0294
577000;578;26.9767;1.2192;0.0473336;-2.43168;26.8668;-0.0597728;-0.12774;1.23995;-1.24494;-0.092887;-0.783818;-0.272679;0.835077;-7.43714;-0.00277012;0.000334386;0.0114416;0.0114495;-0.00277798;0.00711372;0.242109;4.13036;0.00870794;0.00948496;4.1215;0.24263;81.5968;126.597;0.000237875;-0.00277107;-0.000768274;0.00142155;0.0114414;0.00347866;0.0207952;0;0.0564834;-0.232867;-1.99123;-1.50464;2.50662;-7.52277;-0.0179553;0.00184236;0.110232;0.110259;-0.0179817;0.0641203;0.162886;6.13928;0.0801748;0.0854937;6.13171;0.163087;88.5626;133.563;-0.00517593;-0.0179576;0.00074406;0.00281385;0.110234;-0.0152528;0.0838042;0;0.131096;9.14196;6.0391
578000;579;26.9821;1.22456;0.0475418;-2.43164;26.8722;-0.065182;-0.127699;1.24532;-1.25035;-0.0927061;-0.785612;-0.266049;0.834604;-7.43051;-0.00280628;0.000141316;0.0113333;0.0113347;-0.00280769;0.0070712;0.247613;4.03856;0.0086457;0.00942827;4.03703;0.247707;82.3571;127.357;0.00115225;-0.002807;-0.00094515;0.00121259;0.0113329;0.00332706;0.0230628;0;0.0399473;-0.233685;-2.00165;-1.5053;2.51538;-7.52616;-0.0172839;0.00260482;0.110541;0.110594;-0.0173369;0.0639657;0.156356;6.39564;0.0801362;0.0852876;6.37913;0.156761;87.7578;132.758;-0.00308642;-0.0172899;0.000660183;0.00432563;0.110544;0.0136419;0.0823384;0;0.126452;9.13586;6.04493
579000;580;26.9862;1.22874;0.0477043;-2.43458;26.8761;-0.0820049;-0.130642;1.24917;-1.26633;-0.0926724;-0.787433;-0.262427;0.835168;-7.42688;-0.00288733;0.000254435;0.0115211;0.0115256;-0.00289182;0.00720873;0.250611;3.99024;0.0088074;0.00961164;3.9856;0.250903;81.5673;126.567;0.000405916;-0.00288827;-0.000902948;0.00139533;0.0115208;0.00407096;0.0222814;0;0.0357312;-0.234138;-2.01153;-1.50785;2.52481;-7.52851;-0.0172317;0.00363173;0.110749;0.110852;-0.0173347;0.0640935;0.155592;6.42705;0.0803058;0.085458;6.39481;0.156377;86.9902;131.99;-0.00158389;-0.0172425;0.00111744;0.0058563;0.110755;-0.00727006;0.0994447;0;0.138615;9.12727;6.04885
580000;581;26.997;1.23952;0.0481227;-2.43742;26.8866;-0.0871317;-0.133479;1.25972;-1.27145;-0.0920746;-0.787393;-0.262369;0.835047;-7.42683;-0.00286644;0.000336332;0.0112666;0.0112746;-0.00287444;0.0070745;0.25442;3.93051;0.00863549;0.00943267;3.92236;0.254949;81.7058;126.706;0.000436268;-0.00286732;-0.000712056;0.00137007;0.0112664;0.00400819;0.0226605;0;0.0448439;-0.234471;-2.02381;-1.51199;2.5371;-7.53709;-0.0171597;0.00214676;0.110639;0.110675;-0.0171957;0.0639356;0.155095;6.44765;0.0801329;0.0852475;6.43622;0.155371;88.9682;133.968;-0.0108857;-0.0171599;0.00202044;0.00225854;0.11064;0.00327498;0.0851344;0;0.147843;9.12382;6.0553
581000;582;27.0088;1.25126;0.0485784;-2.43846;26.8983;-0.0896352;-0.134524;1.27145;-1.2748;-0.0940521;-0.785654;-0.269074;0.835762;-7.43353;-0.00293965;-1.93153e-06;0.0113129;0.0113129;-0.00293965;0.00712628;0.259849;3.84839;0.00868919;0.00950171;3.84839;0.259849;82.5721;127.572;0.000509407;-0.00294027;-0.00112642;0.0011067;0.0113123;0.00382684;0.0215382;0;0.0424678;-0.237277;-2.03021;-1.52097;2.54783;-7.54397;-0.01801;0.00256781;0.113678;0.113729;-0.01806;0.0658943;0.158429;6.31197;0.0825006;0.087859;6.29725;0.158799;88.4059;133.406;-0.0125866;-0.0180123;0.00167991;0.00335072;0.11368;0.00578613;0.0947422;0;0.16077;9.12431;6.06199
582000;583;27.0202;1.2627;0.0490224;-2.4349;26.9102;-0.0771245;-0.130961;1.28329;-1.26229;-0.0944766;-0.786756;-0.269989;0.837141;-7.43445;-0.00284314;0.000228577;0.0113799;0.0113835;-0.00284681;0.00711518;0.24984;4.00257;0.00869473;0.0094869;3.99869;0.250082;81.1853;126.185;0.000391494;-0.00284414;-0.000992262;0.00143225;0.0113794;0.00297122;0.0221814;0;0.0418925;-0.238628;-2.03763;-1.52941;2.5589;-7.55539;-0.0169563;0.00335563;0.11543;0.115515;-0.0170413;0.0662781;0.146897;6.80751;0.0832737;0.0883708;6.77854;0.147524;87.2583;132.258;0.00070527;-0.0169661;0.000879512;0.00553786;0.115435;0.0261144;0.0952701;0;0.140181;9.12506;6.06976
583000;584;27.0268;1.26931;0.049279;-2.43559;26.9168;-0.0766478;-0.131658;1.28987;-1.26181;-0.0943433;-0.78985;-0.260146;0.836923;-7.4246;-0.00298714;0.0001052;0.0110812;0.011082;-0.00298792;0.00703495;0.269568;3.70964;0.00855959;0.00937993;3.70892;0.26962;82.2028;127.203;2.18882e-06;-0.00298781;-0.000971309;0.00116673;0.0110807;0.00490577;0.0219215;0;0.0324686;-0.238149;-2.04732;-1.5182;2.55991;-7.54323;-0.0190347;0.00250915;0.115071;0.115118;-0.0190817;0.0671;0.165417;6.04533;0.0838331;0.0894666;6.03292;0.165757;87.5304;132.53;0.00989939;-0.0190433;-0.000106183;0.00480993;0.115074;-0.0318033;0.0900649;0;0.134303;9.12802;6.07741
584000;585;27.0329;1.27534;0.0495132;-2.43486;26.9229;-0.0835494;-0.130928;1.29597;-1.26872;-0.0936319;-0.786584;-0.267728;0.836157;-7.43219;-0.00303574;-4.18052e-05;0.011315;0.0113151;-0.00303586;0.0071755;0.268293;3.72727;0.00873307;0.00956733;3.72716;0.268301;83.1177;128.118;0.000818096;-0.00303623;-0.00109339;0.000994853;0.0113144;0.00376113;0.0239079;0;0.0354166;-0.24008;-2.05262;-1.52996;2.57132;-7.55936;-0.0196042;0.0028884;0.116879;0.11694;-0.0196653;0.0683025;0.167732;5.96191;0.0852742;0.09107;5.94649;0.168166;87.1188;132.119;0.00501949;-0.0196164;-0.00028081;0.00567031;0.116882;-0.0361108;0.0773487;0;0.146186;9.13219;6.08389
585000;586;27.0393;1.28186;0.0497664;-2.43501;26.9293;-0.0866224;-0.13107;1.30245;-1.27094;-0.0923632;-0.789015;-0.261806;0.836432;-7.42626;-0.0030299;0.000127865;0.0114772;0.0114783;-0.00303103;0.00725469;0.263993;3.78798;0.00883757;0.00967292;3.78694;0.264065;82.4722;127.472;0.000457596;-0.0030306;-0.000941061;0.00118146;0.0114768;0.00446795;0.0217571;0;0.0330962;-0.241118;-2.06249;-1.52802;2.57815;-7.5536;-0.018076;0.00374967;0.114319;0.114426;-0.0181821;0.0663039;0.158118;6.32438;0.0830109;0.0884051;6.29331;0.158899;87.4773;132.477;0.0153949;-0.0180828;0.00206123;0.0052375;0.114324;-0.0168898;0.0970963;0;0.169705;9.13589;6.08789
586000;587;27.0459;1.28838;0.0500196;-2.43905;26.9355;-0.0964472;-0.13511;1.30864;-1.28161;-0.0949537;-0.788215;-0.264459;0.836802;-7.42892;-0.00299047;0.000165924;0.0115844;0.0115863;-0.00299236;0.00728933;0.258146;3.87377;0.00889112;0.00971911;3.87196;0.258267;82.6016;127.602;0.000663794;-0.00299117;-0.000877158;0.00119398;0.011584;0.00215578;0.0219159;0;0.041921;-0.242843;-2.06926;-1.53214;2.58617;-7.55719;-0.0167455;0.00435793;0.117923;0.118064;-0.0168864;0.067475;0.142004;7.04205;0.0848995;0.0899666;6.99165;0.143028;87.0679;132.068;0.0019133;-0.0167556;0.0022236;0.00623514;0.117929;0.00180949;0.0932506;0;0.135719;9.13938;6.09373
587000;588;27.0576;1.30008;0.050474;-2.443;26.9469;-0.103587;-0.139066;1.32001;-1.28875;-0.0934265;-0.788573;-0.266673;0.83767;-7.43113;-0.00285791;0.000260465;0.0115449;0.0115496;-0.00286262;0.00720612;0.247548;4.03963;0.00881036;0.00960816;4.03463;0.247854;81.841;126.841;0.000648514;-0.00285881;-0.00085525;0.00136029;0.0115446;0.00348032;0.0216632;0;0.0371587;-0.241356;-2.07902;-1.53507;2.59557;-7.55867;-0.0186315;0.00322336;0.117381;0.117458;-0.0187079;0.0680827;0.158726;6.30015;0.0852282;0.090777;6.27852;0.159273;87.5961;132.596;-0.0100545;-0.0186389;0.00120589;0.00499524;0.117385;-0.00949078;0.103143;0;0.141871;9.1399;6.10107
588000;589;27.0707;1.31318;0.0509826;-2.43999;26.9603;-0.0965255;-0.136051;1.33346;-1.28169;-0.0941517;-0.790301;-0.261119;0.837629;-7.42558;-0.00287061;0.000171262;0.0113387;0.0113408;-0.00287268;0.00710673;0.253169;3.94992;0.00867804;0.00947563;3.9478;0.253305;82.1525;127.153;0.000820834;-0.00287138;-0.000921491;0.00124866;0.0113383;0.00339269;0.0209534;0;0.0318147;-0.243787;-2.0887;-1.53632;2.6043;-7.56138;-0.0178329;0.00429549;0.120519;0.120653;-0.0179661;0.0693094;0.147967;6.75827;0.087044;0.0924125;6.71557;0.148908;87.1368;132.137;0.00177471;-0.0178431;0.00211215;0.00620923;0.120526;-0.00142565;0.0942132;0;0.143901;9.1409;6.10723
589000;590;27.0749;1.31738;0.0511456;-2.44227;26.9643;-0.109962;-0.138334;1.33742;-1.29513;-0.0940246;-0.792629;-0.253535;0.837485;-7.41799;-0.00310124;0.000274097;0.0111121;0.0111173;-0.00310653;0.00711194;0.279088;3.5831;0.00863539;0.00948258;3.57871;0.279431;81.1691;126.169;0.000592109;-0.00310216;-0.000845642;0.0013781;0.0111117;0.00368068;0.0223516;0;0.0565167;-0.242648;-2.1028;-1.53387;2.61408;-7.56444;-0.0200034;0.0052265;0.120541;0.120735;-0.0201975;0.0704662;0.165947;6.02603;0.0879985;0.0939549;5.97773;0.167288;87.1637;132.164;-0.00289711;-0.0200106;0.00383103;0.00644694;0.120547;0.00146065;0.0756701;0;0.141841;9.13972;6.11541
590000;591;27.0861;1.32857;0.0515799;-2.4411;26.9757;-0.101846;-0.137163;1.34879;-1.28701;-0.0942584;-0.791271;-0.258183;0.837647;-7.42264;-0.00301136;0.000298442;0.011404;0.0114101;-0.00301753;0.00721384;0.264062;3.78698;0.00878704;0.00961845;3.78128;0.264461;81.9332;126.933;0.000515074;-0.00301219;-0.000741216;0.00132328;0.0114037;0.00348514;0.0214102;0;0.0378534;-0.244282;-2.11283;-1.54185;2.62698;-7.57922;-0.0199154;0.00553676;0.123101;0.123315;-0.0201294;0.0717224;0.161781;6.18121;0.0896763;0.0956298;6.12612;0.163236;86.1849;131.185;0.00998116;-0.0199355;0.00229417;0.00836638;0.123113;-0.0361253;0.0729836;0;0.159001;9.13966;6.12362
591000;592;27.0916;1.33409;0.0517942;-2.4397;26.9813;-0.108152;-0.135759;1.3544;-1.29247;-0.0942564;-0.790527;-0.26393;0.838735;-7.42839;-0.00283076;0.000407598;0.0117021;0.0117135;-0.00284218;0.00727786;0.241901;4.13392;0.00890885;0.00970382;4.12133;0.24264;81.4206;126.421;0.000696571;-0.00283181;-0.000707136;0.00150632;0.011702;0.00312413;0.0212873;0;0.0360976;-0.246381;-2.12574;-1.55773;2.64688;-7.60266;-0.0178516;0.00613468;0.121334;0.121604;-0.0181215;0.0698628;0.147128;6.79683;0.087736;0.0931504;6.7105;0.14902;86.7564;131.756;0.0107989;-0.0178605;0.00466653;0.00742059;0.121341;-0.0100707;0.0755367;0;0.169234;9.13598;6.13008
592000;593;27.0962;1.33873;0.0519746;-2.44274;26.9856;-0.121936;-0.138803;1.35873;-1.30626;-0.0928752;-0.793253;-0.255495;0.838543;-7.41995;-0.00302691;0.000297411;0.0115897;0.0115957;-0.00303296;0.00731434;0.261173;3.82887;0.00891513;0.00975245;3.82323;0.261559;82.1106;127.111;0.000913793;-0.00302774;-0.00073838;0.00131824;0.0115894;0.00274773;0.0208567;0;0.0284787;-0.246503;-2.13158;-1.55147;2.64792;-7.58847;-0.0182225;0.00610797;0.126322;0.126579;-0.0184802;0.0725298;0.144255;6.93218;0.0911728;0.0967064;6.84948;0.145997;86.629;131.629;0.00191358;-0.0182351;0.00407637;0.00787882;0.126331;0.00429633;0.0916531;0;0.153083;9.13324;6.13739
593000;594;27.1081;1.35059;0.0524348;-2.44637;26.9972;-0.128991;-0.142435;1.37031;-1.31416;-0.0942044;-0.790775;-0.262446;0.838498;-7.4269;-0.00303813;0.000311529;0.0120505;0.0120569;-0.00304456;0.00755073;0.252117;3.96641;0.00922186;0.0100676;3.96014;0.252516;82.7393;127.739;0.000539658;-0.0030389;-0.000670992;0.0012794;0.0120503;0.00261616;0.0223349;0;0.0267455;-0.248038;-2.13283;-1.55424;2.65069;-7.58074;-0.0176278;0.0066076;0.126851;0.127153;-0.0179293;0.072541;0.138964;7.19609;0.0913334;0.0967213;7.09188;0.141006;85.8682;130.868;0.000242229;-0.017651;0.00334185;0.00945457;0.126866;0.0142811;0.0905459;0;0.130331;9.13211;6.14519
594000;595;27.1175;1.36002;0.0528009;-2.44704;27.0066;-0.130831;-0.1431;1.37971;-1.316;-0.0940336;-0.792093;-0.257951;0.838327;-7.42241;-0.00306999;0.000272489;0.0115184;0.0115235;-0.00307508;0.00729929;0.266529;3.75194;0.00888652;0.00973239;3.74738;0.266853;82.3071;127.307;0.000479457;-0.00307076;-0.000733466;0.00126393;0.0115182;0.00327519;0.0210776;0;0.026173;-0.248338;-2.14294;-1.55254;2.65786;-7.58097;-0.0190267;0.00415969;0.128957;0.129074;-0.0191435;0.0741087;0.147543;6.77771;0.0930889;0.0988116;6.74244;0.148314;86.6316;131.632;-0.00217385;-0.0190463;0.000343074;0.00747599;0.128965;0.000320775;0.123851;0;0.163329;9.13061;6.15144
595000;596;27.1287;1.37119;0.0532346;-2.4454;27.018;-0.126341;-0.141458;1.3911;-1.31151;-0.0941513;-0.790857;-0.260601;0.837993;-7.42506;-0.0030364;0.000174993;0.0118034;0.0118055;-0.00303846;0.00742197;0.257248;3.88731;0.0090547;0.00989597;3.88534;0.257377;82.334;127.334;0.000217382;-0.00303719;-0.000929427;0.00126321;0.011803;0.00356082;0.0210435;0;0.030884;-0.250131;-2.14607;-1.55344;2.66109;-7.57751;-0.0166172;0.00668657;0.129018;0.129324;-0.0169235;0.0731238;0.128798;7.76412;0.0923754;0.0974984;7.64167;0.130861;85.0288;130.029;0.0144863;-0.0166585;0.00147344;0.0112271;0.129037;0.011187;0.117763;0;0.156512;9.12866;6.15866
596000;597;27.1318;1.3743;0.0533554;-2.44691;27.0209;-0.137741;-0.142971;1.39398;-1.32206;-0.0933087;-0.794482;-0.251871;0.838658;-7.41633;-0.00306641;0.000580746;0.0115882;0.0116112;-0.00308939;0.0073503;0.264614;3.77909;0.00895014;0.0098004;3.75842;0.266069;80.6848;125.685;0.00106396;-0.0030676;-0.00050197;0.00164778;0.0115883;0.00210614;0.0228998;0;0.0374568;-0.250688;-2.16264;-1.55848;2.67745;-7.5919;-0.0190654;0.00783985;0.12997;0.130381;-0.0194767;0.0749288;0.146691;6.81705;0.0940872;0.099905;6.69421;0.149383;84.9026;129.903;0.00623773;-0.0191053;0.00324999;0.0118242;0.129992;0.0184554;0.0498136;0;0.168143;9.12943;6.16526
597000;598;27.1416;1.38414;0.0537374;-2.44513;27.031;-0.127447;-0.14119;1.40408;-1.31177;-0.093526;-0.793895;-0.252753;0.838391;-7.41721;-0.00310685;0.000424684;0.0113223;0.0113348;-0.00311933;0.00722707;0.2744;3.64431;0.00878294;0.0096361;3.63373;0.2752;81.3489;126.349;0.000828295;-0.0031078;-0.000606092;0.00144075;0.0113222;0.0030725;0.022274;0;0.029397;-0.250896;-2.171;-1.55991;2.68505;-7.59509;-0.0190171;0.00784112;0.134616;0.135015;-0.0194163;0.0772158;0.141269;7.07867;0.0971314;0.102954;6.95371;0.143808;85.1988;130.199;0.0146998;-0.0190542;0.00351437;0.0115819;0.134638;0.0175185;0.0662432;0;0.165821;9.13066;6.17023
598000;599;27.1494;1.39195;0.0540404;-2.44399;27.0389;-0.125485;-0.140048;1.41203;-1.30981;-0.0940957;-0.794476;-0.25334;0.839183;-7.4178;-0.00317828;0.000362627;0.01176;0.0117688;-0.00318708;0.00747792;0.270263;3.7001;0.00909626;0.00997056;3.69265;0.270809;82.4174;127.417;0.000701901;-0.00317907;-0.00059083;0.00130201;0.0117599;0.00214889;0.0209674;0;0.0319942;-0.253564;-2.1809;-1.57203;2.70035;-7.60899;-0.0175797;0.00626223;0.133762;0.13402;-0.0178384;0.0759294;0.131426;7.60887;0.095848;0.101239;7.51303;0.133102;85.9709;130.971;0.0151065;-0.0176065;0.00243276;0.00958045;0.133776;0.0226842;0.0589713;0;0.172136;9.13219;6.17475
599000;600;27.154;1.39654;0.0542189;-2.45004;27.0428;-0.152179;-0.1461;1.41596;-1.3365;-0.093873;-0.793736;-0.255344;0.839065;-7.4198;-0.00310848;0.000474707;0.0114425;0.011458;-0.00312395;0.00729097;0.27166;3.68107;0.00886539;0.00972129;3.66779;0.272643;81.4155;126.415;0.00102052;-0.00310944;-0.000532294;0.00146722;0.0114425;0.0018491;0.0228671;0;0.0253659;-0.253784;-2.18992;-1.57408;2.70885;-7.60924;-0.0187169;0.00613497;0.135394;0.135637;-0.0189607;0.0772991;0.138241;7.23376;0.0973626;0.103065;7.15359;0.13979;86.4456;131.446;0.00809235;-0.0187362;0.00317712;0.0086913;0.135406;0.0404137;0.0786831;0;0.165752;9.13262;6.18008
600000;601;27.1669;1.40943;0.0547192;-2.45092;27.0557;-0.150147;-0.14698;1.42883;-1.33447;-0.0937873;-0.793108;-0.256254;0.838738;-7.42071;-0.00307839;0.000381628;0.0116452;0.0116551;-0.00308827;0.00737168;0.264348;3.78289;0.00897831;0.00982891;3.77398;0.264972;81.9338;126.934;0.00090455;-0.00307927;-0.000632054;0.00138056;0.0116451;0.00241048;0.0230521;0;0.0357051;-0.253853;-2.19508;-1.57561;2.71392;-7.60627;-0.019633;0.00593631;0.136369;0.136595;-0.0198586;0.0782267;0.14397;6.94591;0.0983534;0.104302;6.87838;0.145383;86.3877;131.388;0.00434962;-0.0196546;0.00260793;0.00880772;0.136382;0.0261432;0.0940128;0;0.171504;9.13245;6.18741
601000;602;27.1793;1.42185;0.0552013;-2.44948;27.0683;-0.146371;-0.145546;1.44145;-1.33069;-0.0936599;-0.793791;-0.250472;0.837623;-7.41493;-0.00296954;0.000630217;0.0117394;0.0117664;-0.00299649;0.00738143;0.252955;3.95328;0.00901071;0.0098419;3.92671;0.254666;81.064;126.064;0.00114772;-0.00297069;-0.000392023;0.0016376;0.0117395;0.00215314;0.0207192;0;0.0274116;-0.255232;-2.20153;-1.57619;2.71961;-7.60483;-0.0191082;0.00621888;0.137842;0.138088;-0.0193542;0.0787211;0.138624;7.21375;0.0991417;0.104961;7.13476;0.140159;86.7495;131.75;0.00789985;-0.019123;0.0038954;0.00822184;0.137852;0.0166661;0.0916993;0;0.168578;9.12936;6.19491
602000;603;27.1842;1.42675;0.0553916;-2.45169;27.073;-0.160227;-0.14775;1.44609;-1.34455;-0.094476;-0.792967;-0.253357;0.837802;-7.41781;-0.00302361;0.000457181;0.0119777;0.0119916;-0.00303753;0.00751456;0.252437;3.96138;0.00917604;0.0100194;3.94781;0.253305;81.8884;126.888;0.000479694;-0.00302458;-0.000566884;0.00146607;0.0119776;0.00371887;0.0219928;0;0.0316461;-0.25806;-2.21135;-1.57408;2.72661;-7.60529;-0.0194245;0.007599;0.139651;0.140013;-0.0197867;0.0798999;0.139093;7.18941;0.100588;0.106533;7.07612;0.14132;84.6901;129.69;0.00549203;-0.0194803;0.00140811;0.0129255;0.139675;0.0541731;0.0677072;0;0.176604;9.12543;6.2026
603000;604;27.1948;1.43729;0.0558009;-2.4484;27.0839;-0.148277;-0.144465;1.45704;-1.3326;-0.0932621;-0.796033;-0.244339;0.837895;-7.4088;-0.00313881;0.00058385;0.011428;0.0114513;-0.00316217;0.00730676;0.27466;3.64086;0.00887803;0.00974234;3.62135;0.27614;80.5851;125.585;0.000638343;-0.00313998;-0.000480646;0.00163301;0.011428;0.00405008;0.0223506;0;0.0294782;-0.256902;-2.221;-1.57351;2.73401;-7.6028;-0.0213607;0.00809483;0.142719;0.143117;-0.0217591;0.082438;0.14967;6.68137;0.10343;0.109917;6.57734;0.152037;85.2007;130.201;0.00151701;-0.0214034;0.00328989;0.0122097;0.142743;0.0246117;0.0555329;0;0.170728;9.12523;6.20974
604000;605;27.204;1.44651;0.0561588;-2.44946;27.0931;-0.147859;-0.145525;1.4662;-1.33218;-0.0942437;-0.796418;-0.244716;0.838481;-7.40917;-0.00320091;0.000565426;0.0115816;0.0116032;-0.0032225;0.00741285;0.276379;3.61822;0.00900395;0.0098838;3.60068;0.277726;81.051;126.051;0.000730631;-0.00320198;-0.000454193;0.00157014;0.0115817;0.00270722;0.0220474;0;0.0245633;-0.258752;-2.22697;-1.57136;2.73779;-7.59362;-0.0207443;0.00820592;0.145324;0.145728;-0.0211488;0.0834385;0.142745;7.00548;0.104915;0.111251;6.89062;0.145125;85.4947;130.495;-0.0039982;-0.0207809;0.00400875;0.0117944;0.145346;0.0224113;0.0599465;0;0.181467;9.12138;6.21727
605000;606;27.207;1.44956;0.0562771;-2.45346;27.0956;-0.174213;-0.149525;1.46875;-1.35853;-0.0943743;-0.795988;-0.245404;0.838288;-7.40986;-0.0029575;0.000349173;0.0114997;0.0115081;-0.00296593;0.00723701;0.257181;3.8883;0.00882837;0.00964935;3.8801;0.257726;82.1047;127.105;0.00111035;-0.00295833;-0.000650328;0.00133439;0.0114995;0.00228243;0.0228353;0;0.0287693;-0.259411;-2.24202;-1.58503;2.75795;-7.61694;-0.0217798;0.00692528;0.148595;0.148876;-0.0220608;0.0854686;0.146571;6.82262;0.107363;0.113958;6.74845;0.148182;86.2426;131.243;-0.00247957;-0.0218067;0.00327739;0.010032;0.148612;0.01352;0.0868599;0;0.171993;9.11774;6.22486
606000;607;27.2202;1.46269;0.056787;-2.45552;27.1086;-0.177535;-0.151583;1.48172;-1.36186;-0.0945296;-0.795144;-0.247045;0.837986;-7.4115;-0.00303037;0.00039641;0.0117743;0.011785;-0.00304098;0.00741296;0.257371;3.88545;0.00904238;0.00988395;3.87538;0.258039;81.9085;126.908;0.00120829;-0.00303129;-0.000634526;0.00141226;0.0117742;0.00129022;0.022206;0;0.0303349;-0.260051;-2.25118;-1.59036;2.76852;-7.62321;-0.0201612;0.00716868;0.146397;0.146705;-0.0204691;0.0835868;0.137716;7.26132;0.105291;0.111449;7.16711;0.139526;85.991;130.991;0.00765877;-0.0201914;0.00325193;0.0105163;0.146414;0.0362214;0.0928906;0;0.178984;9.11555;6.23282
607000;608;27.2304;1.47296;0.0571856;-2.4564;27.1188;-0.179689;-0.152464;1.49194;-1.36401;-0.0933796;-0.795774;-0.242946;0.837257;-7.4074;-0.00317121;0.000649107;0.0118744;0.0119023;-0.00319916;0.00755074;0.267063;3.74444;0.00918882;0.0100677;3.72046;0.268784;81.4818;126.482;0.000531943;-0.00317225;-0.000295349;0.00157952;0.0118745;0.00266846;0.0222856;0;0.0362457;-0.25975;-2.26092;-1.59073;2.77662;-7.62423;-0.0205555;0.00638723;0.146973;0.147217;-0.0207987;0.0840076;0.139859;7.15008;0.105761;0.11201;7.07817;0.141279;86.0695;131.069;0.0161617;-0.0205875;0.00195169;0.0101748;0.14699;0.0292718;0.0912231;0;0.180333;9.11137;6.23884
608000;609;27.2389;1.48137;0.0575121;-2.45585;27.1273;-0.185922;-0.151911;1.50039;-1.37024;-0.0936458;-0.795882;-0.242943;0.837389;-7.4074;-0.00330047;0.000356508;0.0114842;0.0114928;-0.00330906;0.00740093;0.287392;3.47957;0.00897069;0.00986791;3.47313;0.287925;81.6062;126.606;0.000670372;-0.00330135;-0.000677591;0.00137549;0.011484;0.0035039;0.0227244;0;0.0300653;-0.262216;-2.27593;-1.59956;2.79414;-7.64263;-0.0227034;0.00719863;0.150653;0.150951;-0.0230018;0.0869764;0.1507;6.63568;0.109112;0.115969;6.56257;0.152379;86.3351;131.335;-0.00735424;-0.0227282;0.0038785;0.0100185;0.150669;0.0295612;0.0728405;0;0.197284;9.10649;6.24648
609000;610;27.2489;1.49146;0.057904;-2.45238;27.1378;-0.170279;-0.148447;1.51094;-1.3546;-0.0935734;-0.796358;-0.24362;0.838029;-7.40808;-0.00309161;0.000551061;0.0120055;0.0120255;-0.0031117;0.00756862;0.257518;3.88323;0.00923077;0.0100915;3.86462;0.258758;81.6562;126.656;0.00134452;-0.00309265;-0.000450004;0.00153719;0.0120055;0.000531182;0.0209301;0;0.0240668;-0.263292;-2.27872;-1.59985;2.79668;-7.63548;-0.0225215;0.00763848;0.153271;0.153602;-0.0228527;0.0882274;0.146939;6.80555;0.110807;0.117637;6.72139;0.148779;85.5788;130.579;-0.0019047;-0.0225649;0.00252976;0.0119683;0.153293;0.0212412;0.0635629;0;0.158071;9.09925;6.25241
610000;611;27.2561;1.49859;0.0581807;-2.45389;27.1448;-0.179942;-0.149958;1.5179;-1.36426;-0.0939752;-0.796335;-0.239916;0.836983;-7.40437;-0.00325912;0.000646964;0.0116725;0.0117005;-0.0032871;0.0074938;0.279213;3.58149;0.00909621;0.00999173;3.55952;0.280937;80.679;125.679;0.00103542;-0.00326031;-0.000389773;0.0016684;0.0116727;0.00176266;0.02088;0;0.0369081;-0.265056;-2.28423;-1.59736;2.79992;-7.62792;-0.0219798;0.00872383;0.156002;0.156428;-0.0224063;0.0894173;0.140894;7.09751;0.112501;0.119223;6.98142;0.143237;85.3457;130.346;-0.0144054;-0.0220269;0.00370049;0.0129736;0.156029;0.018528;0.0711003;0;0.165941;9.09643;6.25568
611000;612;27.2608;1.50332;0.0583644;-2.45807;27.149;-0.200386;-0.15413;1.52213;-1.38471;-0.093946;-0.796044;-0.2416;0.837187;-7.40606;-0.00319966;0.000724519;0.0118796;0.0119144;-0.00323439;0.00757439;0.26934;3.71278;0.0092123;0.0100992;3.68365;0.27147;81.1329;126.133;0.000973716;-0.00320078;-0.000228692;0.00166352;0.0118799;0.00223853;0.0202228;0;0.0297716;-0.265162;-2.29174;-1.60119;2.80824;-7.62895;-0.0221934;0.00813067;0.158363;0.158728;-0.0225588;0.0906435;0.140143;7.13558;0.114084;0.120858;7.0362;0.142122;85.5399;130.54;-0.00661832;-0.0222398;0.00292767;0.0125225;0.158388;0.0250806;0.0951411;0;0.185463;9.09683;6.2611
612000;613;27.2753;1.5178;0.0589266;-2.45951;27.1635;-0.196952;-0.155577;1.53657;-1.38127;-0.0938979;-0.79474;-0.246686;0.837426;-7.41114;-0.00300028;0.000525464;0.0120296;0.0120479;-0.00301863;0.00753328;0.249408;4.00949;0.00920467;0.0100444;3.9912;0.250551;82.422;127.422;0.000860309;-0.00300114;-0.000375672;0.00141322;0.0120297;0.0026048;0.0208567;0;0.034942;-0.264999;-2.30687;-1.61379;2.82775;-7.65132;-0.0212011;0.00761628;0.154899;0.155228;-0.0215299;0.0883788;0.136871;7.30616;0.111358;0.117838;7.20985;0.138699;86.7553;131.755;-0.0121144;-0.0212165;0.00553301;0.00938187;0.154911;0.0207651;0.0762352;0;0.178975;9.09324;6.26767
613000;614;27.2863;1.5288;0.0593535;-2.4582;27.1746;-0.197026;-0.154259;1.54773;-1.38135;-0.0943365;-0.796435;-0.238563;0.836732;-7.40302;-0.00336177;0.000817538;0.0119058;0.0119494;-0.00340542;0.00767742;0.282365;3.54152;0.00931136;0.0102366;3.50894;0.284986;80.8133;125.813;0.00150042;-0.00336296;-0.000121973;0.00174287;0.0119061;0.00128964;0.0208648;0;0.0330655;-0.26791;-2.31566;-1.61458;2.83566;-7.65697;-0.0208215;0.00616746;0.159182;0.159393;-0.0210325;0.090213;0.130803;7.64511;0.113922;0.120284;7.57842;0.131954;87.1463;132.146;0.00201653;-0.0208371;0.00366502;0.00828129;0.159193;0.0379987;0.0617304;0;0.19458;9.09203;6.27531
614000;615;27.2927;1.53518;0.0596014;-2.45907;27.1809;-0.20261;-0.155129;1.55402;-1.38693;-0.0944569;-0.798364;-0.235622;0.83775;-7.40008;-0.00321179;0.000728659;0.0119533;0.0119882;-0.00324672;0.00761745;0.268696;3.72168;0.00926594;0.0101566;3.6924;0.270826;80.6012;125.601;0.000826989;-0.00321307;-0.000317713;0.00175935;0.0119535;0.00350804;0.0213508;0;0.0256628;-0.268691;-2.33185;-1.6163;2.84994;-7.66439;-0.0220334;0.00550723;0.159889;0.160056;-0.0221999;0.091128;0.137804;7.25669;0.114822;0.121504;7.20975;0.138701;86.8033;131.803;-0.0080041;-0.0220589;0.00141664;0.00895616;0.159902;0.046704;0.0931674;0;0.180293;9.08771;6.28259
615000;616;27.2997;1.5422;0.0598738;-2.45888;27.1879;-0.211278;-0.154945;1.56101;-1.3956;-0.0943751;-0.796205;-0.237326;0.836165;-7.40178;-0.00326658;0.000650893;0.0118685;0.0118965;-0.00329452;0.0075955;0.27523;3.63333;0.00922734;0.0101273;3.61099;0.276932;80.9342;125.934;0.00102572;-0.00326775;-0.000371239;0.00165774;0.0118687;0.0021339;0.0209956;0;0.0356241;-0.270328;-2.33667;-1.6206;2.85647;-7.65801;-0.0226205;0.00762856;0.161883;0.162198;-0.0229354;0.0925665;0.139734;7.15647;0.116532;0.123422;7.07194;0.141404;85.4586;130.459;-0.0131005;-0.0226747;0.00146499;0.0128132;0.161907;0.037443;0.0870656;0;0.196814;9.08476;6.29049
616000;617;27.3109;1.55344;0.0603104;-2.45757;27.1994;-0.200681;-0.153631;1.57251;-1.385;-0.0946186;-0.796979;-0.236153;0.836599;-7.40061;-0.00325136;0.000767253;0.0120002;0.0120387;-0.00328986;0.00766429;0.270942;3.69083;0.00931807;0.010219;3.65934;0.273273;80.4779;125.478;0.000996295;-0.00325269;-0.000279254;0.00179799;0.0120005;0.00228889;0.0208658;0;0.0301924;-0.273462;-2.33323;-1.61262;2.84943;-7.63843;-0.0191113;0.00653053;0.167479;0.167707;-0.0193396;0.0935233;0.114112;8.76334;0.118777;0.124698;8.6717;0.115318;86.1528;131.153;-0.00565253;-0.0191538;0.000943513;0.0112245;0.167497;0.0462985;0.0848827;0;0.182521;9.08111;6.29716
617000;618;27.3175;1.55997;0.0605637;-2.46273;27.2053;-0.225799;-0.158792;1.57839;-1.41012;-0.0958621;-0.798043;-0.231179;0.836365;-7.39564;-0.00324746;0.000779228;0.0118873;0.0119273;-0.00328747;0.00760738;0.273188;3.66048;0.00924429;0.0101432;3.6281;0.275627;80.1036;125.104;0.00111367;-0.00324887;-0.000303797;0.00184605;0.0118875;0.00154233;0.0210552;0;0.0437922;-0.272435;-2.35473;-1.61685;2.86935;-7.65737;-0.0212077;0.00809499;0.167513;0.16786;-0.0215543;0.094707;0.126604;7.89867;0.11974;0.126276;7.78774;0.128407;86.4668;131.467;-0.00370557;-0.0212338;0.00486883;0.0107996;0.167531;0.0482737;0.0968687;0;0.190201;9.07458;6.30413
618000;619;27.3305;1.57298;0.061069;-2.46353;27.2183;-0.226403;-0.159592;1.59139;-1.41072;-0.0933337;-0.797735;-0.229369;0.835286;-7.39383;-0.00341629;0.0010511;0.0115251;0.0115987;-0.00348987;0.00754428;0.296421;3.37358;0.00912108;0.010059;3.32354;0.300884;79.8857;124.886;0.000645754;-0.00341759;0.000162826;0.00192624;0.0115257;0.00287248;0.0222531;0;0.0318205;-0.272254;-2.36902;-1.62468;2.88547;-7.67125;-0.0204581;0.00807234;0.166173;0.166521;-0.0208066;0.093664;0.123113;8.1226;0.11856;0.124885;8.0033;0.124949;86.5413;131.541;-0.00976008;-0.0204815;0.00514481;0.0105313;0.16619;0.0530249;0.0783918;0;0.186543;9.06245;6.31218
619000;620;27.3403;1.58278;0.0614493;-2.46433;27.228;-0.229081;-0.160393;1.60113;-1.4134;-0.0936098;-0.79722;-0.232503;0.835692;-7.39696;-0.00338417;0.000817098;0.0117525;0.0117965;-0.00342815;0.00761233;0.287953;3.47279;0.00922195;0.0101498;3.44106;0.290608;80.0356;125.036;0.000705828;-0.00338554;-0.000220244;0.00183892;0.0117528;0.00368681;0.0214043;0;0.0325199;-0.272236;-2.37293;-1.62733;2.89017;-7.66867;-0.0237164;0.00644286;0.171129;0.171342;-0.0239293;0.0976356;0.138588;7.21563;0.122983;0.130181;7.16035;0.139658;87.7792;132.779;-0.00843579;-0.0237223;0.00545143;0.00726933;0.171134;0.0141359;0.0692323;0;0.182792;9.0587;6.31907
620000;621;27.3488;1.59133;0.0617811;-2.46382;27.2366;-0.232329;-0.159883;1.60973;-1.41665;-0.0932824;-0.79802;-0.228084;0.8352;-7.39254;-0.00334295;0.000966118;0.0116751;0.011737;-0.00340485;0.0075709;0.286333;3.49244;0.00917271;0.0100945;3.44713;0.290096;79.9659;124.966;0.0010398;-0.0033443;1.33469e-05;0.00190474;0.0116755;0.00249308;0.0215625;0;0.0395362;-0.27402;-2.37839;-1.63099;2.89689;-7.66766;-0.0245218;0.00712941;0.173275;0.173531;-0.0247785;0.0991549;0.14152;7.06615;0.12477;0.132207;7.00332;0.14279;86.1113;131.111;-0.0156377;-0.0245667;0.00155548;0.0117635;0.173295;0.0468251;0.065817;0;0.194455;9.05386;6.32442
621000;622;27.356;1.59854;0.0620612;-2.46257;27.244;-0.232402;-0.158632;1.61708;-1.41672;-0.0944419;-0.796765;-0.229583;0.834543;-7.39404;-0.00340031;0.000832117;0.0117243;0.01177;-0.00344596;0.00760797;0.290022;3.44802;0.0092127;0.010144;3.41559;0.292775;80.5222;125.522;0.00135127;-0.00340153;-0.000115106;0.00176518;0.0117247;0.00127246;0.0221869;0;0.0394335;-0.275038;-2.39463;-1.63483;2.91248;-7.67568;-0.0249161;0.00884166;0.176154;0.176542;-0.0253041;0.100923;0.141445;7.06989;0.126973;0.134564;6.9768;0.143332;85.2891;130.289;-0.0125368;-0.024984;0.00200312;0.0145108;0.176185;0.0286716;0.0804134;0;0.186574;9.05218;6.32709
622000;623;27.366;1.60854;0.0624495;-2.46149;27.2542;-0.226688;-0.157554;1.62727;-1.41101;-0.0930427;-0.797283;-0.228722;0.834644;-7.39318;-0.00347253;0.000855968;0.0116161;0.0116645;-0.00352093;0.0075927;0.298942;3.34513;0.00917791;0.0101236;3.31289;0.301851;80.4669;125.467;0.000935698;-0.00347372;-6.43269e-05;0.00176254;0.0116164;0.0023083;0.0218025;0;0.0538673;-0.274539;-2.39238;-1.62965;2.90768;-7.66329;-0.0215634;0.00830468;0.182278;0.182616;-0.0219011;0.102258;0.118299;8.45314;0.129662;0.136345;8.33819;0.11993;84.7689;129.769;0.00950232;-0.0216639;-0.00135656;0.0162997;0.182306;-0.00208271;0.116491;0;0.18805;9.04781;6.33406
623000;624;27.3738;1.61636;0.0627529;-2.46707;27.2613;-0.252122;-0.163135;1.63439;-1.43644;-0.0937784;-0.795881;-0.232783;0.834511;-7.39724;-0.00329898;0.000833553;0.0118408;0.0118866;-0.00334473;0.00761566;0.27861;3.58925;0.00924328;0.0101542;3.55383;0.281387;80.0767;125.077;0.000964751;-0.00330036;-0.000209098;0.0018606;0.0118412;0.0029598;0.0216343;0;0.0432054;-0.278066;-2.40898;-1.64188;2.92852;-7.68486;-0.0172318;0.00678241;0.178905;0.179139;-0.017466;0.0983027;0.0963181;10.3823;0.125654;0.13107;10.2564;0.0974998;85.2116;130.212;0.00782151;-0.0173169;-0.00260016;0.0146036;0.178922;0.0499542;0.093591;0;0.171975;9.04673;6.34222
624000;625;27.3885;1.63103;0.0633225;-2.46812;27.2759;-0.250334;-0.164182;1.64904;-1.43466;-0.0933698;-0.797004;-0.227075;0.833965;-7.39153;-0.00342157;0.000694157;0.0115162;0.0115483;-0.00345376;0.00750105;0.297111;3.36575;0.009072;0.0100014;3.3437;0.29907;80.4252;125.425;0.000967917;-0.00342276;-0.000314545;0.00168796;0.0115163;0.00317195;0.0221646;0;0.0322278;-0.276743;-2.41679;-1.64331;2.93563;-7.68225;-0.0219156;0.00637818;0.18375;0.183947;-0.0221132;0.10303;0.119269;8.38441;0.130628;0.137374;8.31842;0.120215;86.7828;131.783;-0.0162319;-0.0219498;0.00155018;0.0103673;0.183766;0.0678711;0.0321955;0;0.186977;9.04134;6.34933
625000;626;27.397;1.63953;0.0636526;-2.46746;27.2844;-0.259042;-0.163524;1.65756;-1.44336;-0.0932257;-0.796904;-0.224804;0.833237;-7.38926;-0.00344564;0.00102771;0.0114736;0.0115441;-0.0035161;0.00753008;0.30031;3.32989;0.00909746;0.0100401;3.2832;0.304581;78.8752;123.875;0.0013051;-0.00344723;-1.52803e-05;0.00205531;0.0114741;0.00320333;0.0218861;0;0.0399617;-0.283918;-2.44042;-1.6525;2.96091;-7.70425;-0.0132176;0.00557744;0.177808;0.177971;-0.0133803;0.0956754;0.0743364;13.4524;0.123349;0.127567;13.3009;0.0751827;85.2176;130.218;-0.02087;-0.0133074;-0.00499683;0.0144363;0.17781;0.0264489;0.0725851;0;0.191693;9.03339;6.35675
626000;627;27.4084;1.65091;0.0640945;-2.46671;27.296;-0.256084;-0.16277;1.66909;-1.44041;-0.0935682;-0.796989;-0.223899;0.833113;-7.38836;-0.00346617;0.00103727;0.0116006;0.0116717;-0.00353724;0.00760446;0.298792;3.34681;0.00918998;0.0101393;3.29965;0.303062;78.8129;123.813;0.00109175;-0.00346782;-2.9566e-05;0.00208821;0.0116011;0.00270382;0.0231744;0;0.0306684;-0.279594;-2.44213;-1.65328;2.96235;-7.69314;-0.0262763;0.0070878;0.18487;0.185107;-0.026514;0.105811;0.142134;7.0356;0.133126;0.141081;6.9815;0.143236;85.7109;130.711;-0.0238216;-0.0263439;-0.000700773;0.0134882;0.184891;0.0816469;0.107766;0;0.187076;9.0257;6.36388
627000;628;27.4168;1.65931;0.0644205;-2.46547;27.3045;-0.256731;-0.161536;1.67762;-1.44105;-0.0926161;-0.797243;-0.219015;0.83195;-7.38347;-0.00351595;0.00089629;0.0113499;0.0114038;-0.00356979;0.00748677;0.309778;3.22812;0.00903076;0.00998236;3.19451;0.313037;80.4466;125.447;0.000894267;-0.00351707;3.74755e-05;0.00174248;0.0113503;0.00287317;0.0207905;0;0.0326094;-0.280135;-2.44986;-1.64935;2.96659;-7.69087;-0.0261753;0.0076786;0.186815;0.187091;-0.0264517;0.106771;0.140113;7.13707;0.134415;0.142362;7.07293;0.141384;85.8906;130.891;-0.0131846;-0.0262355;0.00085292;0.0132791;0.186839;0.042017;0.106995;0;0.199216;9.01254;6.37055
628000;629;27.4235;1.66604;0.0646819;-2.46961;27.3107;-0.273608;-0.165673;1.68385;-1.45793;-0.0930139;-0.797345;-0.218311;0.831908;-7.38277;-0.00345066;0.000950458;0.0114817;0.011542;-0.00351091;0.00752645;0.300535;3.3274;0.00909375;0.0100353;3.28746;0.304186;80.3906;125.391;0.0015287;-0.00345183;8.97175e-05;0.00179849;0.0114822;0.002451;0.0209633;0;0.0318096;-0.280162;-2.46322;-1.65577;2.98119;-7.70177;-0.0253981;0.00985486;0.191044;0.191492;-0.0258459;0.108669;0.132944;7.52198;0.137091;0.144892;7.40899;0.134971;85.8703;130.87;-0.0163543;-0.0254513;0.0045872;0.0141651;0.191076;0.0447244;0.0397274;0;0.197536;9.0037;6.3785
629000;630;27.4384;1.68088;0.065258;-2.47217;27.3254;-0.273382;-0.168231;1.69852;-1.4577;-0.0930125;-0.797369;-0.218681;0.832028;-7.38314;-0.00340284;0.00101753;0.0114544;0.0115238;-0.0034722;0.00749799;0.297077;3.36613;0.00906437;0.00999732;3.31886;0.301308;79.0305;124.031;0.000764168;-0.00340439;-8.36644e-06;0.00202836;0.0114549;0.00251428;0.0211115;0;0.0477459;-0.279988;-2.46093;-1.65751;2.98025;-7.69129;-0.0251167;0.00742931;0.194445;0.194696;-0.0253678;0.110032;0.129172;7.74164;0.139027;0.146709;7.67491;0.130295;86.2413;131.241;-0.00579775;-0.025171;0.00098454;0.0126892;0.194467;0.036995;0.0265326;0;0.188449;9.00003;6.38528
630000;631;27.4506;1.69312;0.0657332;-2.47078;27.3378;-0.274013;-0.166839;1.71093;-1.45833;-0.0932205;-0.796588;-0.216091;0.830625;-7.38055;-0.00347115;0.00111952;0.0113157;0.0114;-0.00355543;0.00747773;0.306754;3.25994;0.00902179;0.00997031;3.20637;0.311879;78.8045;123.804;0.00127527;-0.00347269;0.000146501;0.0020783;0.0113164;0.00196856;0.0211845;0;0.0379029;-0.281919;-2.47244;-1.65957;2.99109;-7.69623;-0.0257411;0.00774124;0.194954;0.195225;-0.0260123;0.110619;0.132037;7.57364;0.139631;0.147491;7.5051;0.133243;86.2054;131.205;-0.0304855;-0.0257956;0.00142151;0.0128936;0.194978;0.0689411;0.0574914;0;0.174528;8.99469;6.39163
631000;632;27.4589;1.70138;0.0660538;-2.47309;27.3458;-0.284254;-0.169158;1.7189;-1.46858;-0.0933873;-0.79597;-0.215539;0.829907;-7.38;-0.00347871;0.00100597;0.0116077;0.0116744;-0.00354549;0.00760997;0.299691;3.33677;0.00919553;0.0101466;3.29276;0.303697;79.9009;124.901;0.00131739;-0.00348003;8.66684e-05;0.00191156;0.0116082;0.00254153;0.02057;0;0.0400858;-0.283043;-2.48876;-1.6649;3.00765;-7.70674;-0.0263728;0.00750841;0.195774;0.196028;-0.0266262;0.111327;0.13471;7.42335;0.140405;0.148436;7.3622;0.135829;87.3387;132.339;-0.0200972;-0.0263912;0.00493504;0.00960369;0.195788;0.0513615;0.0678185;0;0.186491;8.99298;6.39738
632000;633;27.4711;1.71357;0.066527;-2.47158;27.3582;-0.278766;-0.167644;1.73134;-1.46309;-0.0931131;-0.794998;-0.21546;0.828924;-7.37992;-0.00346324;0.000809571;0.0116612;0.0117044;-0.00350645;0.00760542;0.296989;3.36713;0.00919732;0.0101406;3.33796;0.299584;80.8234;125.823;0.000562544;-0.00346436;-9.03116e-05;0.001696;0.0116615;0.00402426;0.0185427;0;0.0430347;-0.284209;-2.50801;-1.67412;3.02879;-7.72326;-0.0275588;0.00986045;0.195856;0.196291;-0.0279931;0.112142;0.140709;7.10686;0.14112;0.149523;7.0121;0.142611;86.1793;131.179;-0.020754;-0.0276035;0.00529571;0.0135722;0.195885;0.0452613;0.0539622;0;0.215244;8.98301;6.40493
633000;634;27.4766;1.71907;0.0667407;-2.47301;27.3634;-0.29636;-0.169072;1.73655;-1.48068;-0.0932168;-0.79503;-0.211634;0.82798;-7.37609;-0.00357533;0.00106229;0.0117622;0.0118354;-0.00364855;0.00774199;0.303968;3.28982;0.00934692;0.0103226;3.24387;0.308274;80.315;125.315;0.000957477;-0.00357655;0.000220858;0.00189097;0.0117627;0.00223794;0.0209613;0;0.0394864;-0.287212;-2.51887;-1.67555;3.03886;-7.72624;-0.0245924;0.0110115;0.200632;0.201169;-0.0251295;0.113149;0.122575;8.15829;0.143226;0.150865;8.0053;0.124917;84.9962;129.996;-0.0206118;-0.02469;0.00283504;0.0176536;0.200679;0.0395108;0.0691568;0;0.187914;8.96703;6.40896
634000;635;27.4947;1.73725;0.0674463;-2.47421;27.3817;-0.288877;-0.170277;1.75477;-1.4732;-0.0929844;-0.794169;-0.217322;0.828601;-7.38178;-0.00349117;0.00104052;0.0113355;0.0114081;-0.00356384;0.00748599;0.307986;3.2469;0.0090309;0.00998132;3.20109;0.312394;79.3926;124.393;0.00131409;-0.00349255;0.000108232;0.00195914;0.011336;0.00270822;0.0201914;0;0.0420501;-0.292432;-2.52872;-1.68005;3.05;-7.72998;-0.0131486;0.00638364;0.203377;0.203565;-0.0133366;0.108451;0.0646514;15.4676;0.140367;0.144601;15.2636;0.0655154;84.4934;129.493;-0.0191243;-0.0133105;-0.00898081;0.0189826;0.20336;0.00208148;0.0977055;0;0.184116;8.95208;6.41464
635000;636;27.5028;1.74533;0.0677601;-2.47735;27.3894;-0.300117;-0.173412;1.76248;-1.48444;-0.0925022;-0.793146;-0.214878;0.826927;-7.37933;-0.00339244;0.00108944;0.0114469;0.0115264;-0.00347199;0.00749921;0.296364;3.37423;0.009066;0.00999894;3.31983;0.301221;79.7036;124.704;0.000833318;-0.00339377;0.000205716;0.00196019;0.0114474;0.00382459;0.0212085;0;0.0392067;-0.287323;-2.53006;-1.68228;3.05186;-7.7275;-0.02753;0.0111817;0.207043;0.207574;-0.0280618;0.117818;0.132968;7.52062;0.148623;0.157091;7.39704;0.135189;84.9252;129.925;-0.0275978;-0.0276391;0.00226464;0.0183654;0.207092;0.0188235;0.0798825;0;0.176866;8.945;6.42157
636000;637;27.512;1.7545;0.0681162;-2.47735;27.3985;-0.304915;-0.173412;1.77164;-1.48924;-0.0921078;-0.795381;-0.210731;0.827963;-7.37519;-0.00362162;0.00106748;0.01084;0.0109184;-0.00369999;0.00730919;0.334097;2.99314;0.0087762;0.00974558;2.95092;0.338877;78.5576;123.558;0.000978747;-0.00362305;0.00012473;0.00199674;0.0108406;0.0037185;0.0212852;0;0.0303388;-0.289333;-2.52653;-1.67047;3.04262;-7.70325;-0.0257776;0.00893351;0.212634;0.212969;-0.0261119;0.11954;0.12123;8.24881;0.151435;0.159387;8.15601;0.122609;84.6829;129.683;0.00752439;-0.0259232;-0.0036787;0.0190652;0.212662;-0.00213884;0.102825;0;0.178984;8.94512;6.42876
637000;638;27.5227;1.76519;0.068531;-2.47714;27.4092;-0.308985;-0.173204;1.78234;-1.49331;-0.092063;-0.795908;-0.205577;0.827168;-7.37003;-0.00356;0.00137396;0.0111268;0.0112542;-0.00368743;0.00747082;0.319949;3.1255;0.00898773;0.00996109;3.05205;0.327649;77.7552;122.755;0.001496;-0.00356172;0.00042771;0.00230647;0.0111276;0.00256605;0.02018;0;0.033042;-0.290099;-2.55662;-1.68426;3.07526;-7.7364;-0.0263993;0.0109043;0.213547;0.214041;-0.0268938;0.120468;0.123623;8.08911;0.152452;0.160623;7.95875;0.125648;84.4879;129.488;-0.00507286;-0.026548;-0.000698494;0.020212;0.213596;-0.00808343;0.084445;0;0.1719;8.93859;6.43705
638000;639;27.5356;1.77814;0.0690337;-2.47849;27.4221;-0.309434;-0.174557;1.79522;-1.49376;-0.0916477;-0.795148;-0.203035;0.825762;-7.36749;-0.00348912;0.00134161;0.011259;0.0113801;-0.00361018;0.00749513;0.309896;3.22689;0.00903385;0.0099935;3.15222;0.317236;78.5443;123.544;0.000478749;-0.00349067;0.000463361;0.00220706;0.0112598;0.00472763;0.0205731;0;0.0409408;-0.293011;-2.5689;-1.6856;3.08648;-7.73375;-0.0237224;0.0107862;0.211904;0.212396;-0.0242152;0.118306;0.111949;8.93263;0.150321;0.157741;8.77122;0.114009;84.2689;129.269;0.0188244;-0.0238849;-0.00167177;0.020821;0.211951;-0.0317654;0.0716456;0;0.169764;8.9252;6.44408
639000;640;27.5525;1.79505;0.0696903;-2.48205;27.4387;-0.317324;-0.178118;1.81179;-1.50164;-0.0917128;-0.794543;-0.202404;0.825032;-7.36686;-0.00360042;0.00123875;0.0112721;0.0113746;-0.00370289;0.00753872;0.31941;3.13077;0.00907281;0.0100516;3.07181;0.325541;78.7467;123.747;0.00139298;-0.00360191;0.0003396;0.00212467;0.0112728;0.00242849;0.0206792;0;0.0451795;-0.290215;-2.57281;-1.68954;3.09162;-7.73002;-0.0297744;0.0121005;0.218296;0.218885;-0.0303633;0.124624;0.136395;7.33167;0.157026;0.166166;7.20888;0.138718;85.138;130.138;-0.0265734;-0.02988;0.00376172;0.0187409;0.21835;0.0107211;0.0719825;0;0.172661;8.89563;6.45142
640000;641;27.566;1.80851;0.0702131;-2.48186;27.4521;-0.323038;-0.177925;1.82526;-1.50736;-0.0912086;-0.794266;-0.202096;0.824634;-7.36655;-0.00355291;0.00112247;0.0108962;0.0109829;-0.00363959;0.00731125;0.326068;3.06685;0.00879;0.00974834;3.01762;0.331387;78.7337;123.734;0.000504777;-0.00355432;0.000217475;0.00201453;0.0108968;0.0054068;0.0200074;0;0.0315497;-0.292674;-2.57053;-1.68681;3.08846;-7.71934;-0.0305158;0.0102683;0.224699;0.225111;-0.0309283;0.12802;0.135808;7.36336;0.161374;0.170693;7.2785;0.137391;84.9856;129.986;-0.0137154;-0.0306519;-0.00103638;0.0192165;0.224741;0.0236348;0.0726659;0;0.152966;8.86076;6.45839
641000;642;27.5725;1.81503;0.0704661;-2.48267;27.4586;-0.325438;-0.178731;1.8317;-1.50976;-0.0906129;-0.793709;-0.204925;0.82473;-7.36938;-0.00371934;0.00125318;0.0111231;0.0112281;-0.00382441;0.00752627;0.334381;2.9906;0.00903421;0.010035;2.93592;0.340609;77.9505;122.951;0.000874784;-0.003721;0.00028406;0.00220808;0.0111238;0.00354446;0.0202239;0;0.0318499;-0.293635;-2.5811;-1.69192;3.10015;-7.72824;-0.0267005;0.00891749;0.224817;0.225133;-0.0270162;0.126074;0.118765;8.41997;0.159857;0.168099;8.33324;0.120001;85.3447;130.345;0.013462;-0.0268221;-0.00224575;0.0177877;0.224847;0.00500248;0.0882683;0;0.157253;8.86566;6.45902
642000;643;27.5839;1.82643;0.0709087;-2.48139;27.4702;-0.319552;-0.177454;1.84333;-1.50387;-0.0924095;-0.795442;-0.197867;0.824875;-7.36232;-0.00361354;0.00124018;0.0108734;0.0109788;-0.00371895;0.00734888;0.332328;3.00907;0.00882407;0.00979851;2.95213;0.338738;77.8064;122.806;0.00073559;-0.00361517;0.000279357;0.00218724;0.0108741;0.00453782;0.019265;0;0.0391366;-0.29591;-2.60559;-1.69206;3.12086;-7.73782;-0.02696;0.0100641;0.225909;0.226309;-0.0273599;0.126834;0.11934;8.37942;0.16077;0.169113;8.27156;0.120896;85.1769;130.177;0.000830877;-0.0270876;-0.000813349;0.0186972;0.22595;0.0178068;0.0600272;0;0.17727;8.87044;6.46628
643000;644;27.5939;1.83642;0.0712967;-2.48267;27.4801;-0.323498;-0.178729;1.85321;-1.50782;-0.0909187;-0.798828;-0.187631;0.82559;-7.35209;-0.00367661;0.00122047;0.0113228;0.0114215;-0.00377527;0.00759838;0.324708;3.07969;0.00913655;0.0101312;3.02534;0.330541;78.6924;123.692;0.00115107;-0.00367813;0.000301252;0.00212606;0.0113235;0.00302192;0.020859;0;0.0441397;-0.301488;-2.62221;-1.69455;3.13662;-7.74209;-0.0198829;0.0123119;0.226701;0.227314;-0.0204962;0.123905;0.0877056;11.4018;0.158816;0.165207;11.0906;0.0901666;83.1478;128.148;-0.0143278;-0.0201659;-0.00553959;0.0265726;0.22675;0.00911515;0.0730826;0;0.167486;8.86547;6.47281
644000;645;27.6167;1.85918;0.0721801;-2.48519;27.5026;-0.331187;-0.181257;1.87573;-1.51551;-0.0909129;-0.794892;-0.194526;0.823383;-7.35898;-0.00352756;0.00122991;0.0109721;0.0110757;-0.00363114;0.0073534;0.321503;3.11039;0.00884616;0.00980454;3.05019;0.327849;78.6501;123.65;0.000884657;-0.00352899;0.000356104;0.00209118;0.0109728;0.00400119;0.0215772;0;0.0338468;-0.300726;-2.63108;-1.70272;3.14837;-7.74608;-0.0216008;0.0135764;0.227564;0.228301;-0.0223383;0.12532;0.0949218;10.535;0.160167;0.167093;10.2202;0.0978458;83.2127;128.213;-0.00858253;-0.021868;-0.00275694;0.0265924;0.227636;0.0393933;0.040732;0;0.161883;8.84745;6.48439
645000;646;27.6375;1.88004;0.0729899;-2.48649;27.5234;-0.333557;-0.182556;1.89653;-1.51788;-0.0909746;-0.793936;-0.192237;0.821929;-7.35669;-0.00358795;0.00131836;0.0112673;0.0113834;-0.00370404;0.0075437;0.31844;3.14031;0.00907904;0.0100583;3.07323;0.325391;78.4565;123.457;0.000454876;-0.00358951;0.000420253;0.00220328;0.011268;0.0056001;0.0194517;0;0.0330303;-0.306409;-2.64803;-1.70847;3.1662;-7.75308;-0.0136561;0.00559449;0.237416;0.237541;-0.0137807;0.125661;0.0575196;17.3854;0.163148;0.167548;17.2372;0.058014;85.2349;130.235;-0.0100359;-0.0138254;-0.0113662;0.0191129;0.237377;0.0194346;0.0374529;0;0.1628;8.81375;6.49541
646000;647;27.6547;1.89723;0.0736573;-2.48644;27.5405;-0.345081;-0.182504;1.91366;-1.5294;-0.0907308;-0.793398;-0.192469;0.821436;-7.35693;-0.00360107;0.00126862;0.0114991;0.0116049;-0.00370691;0.00765593;0.313161;3.19325;0.00922399;0.0102079;3.13063;0.319425;78.5166;123.517;0.000474045;-0.00360271;0.000314795;0.0022082;0.0114999;0.00541439;0.0189823;0;0.0408838;-0.306358;-2.67478;-1.71663;3.19298;-7.77024;-0.0135967;0.00817833;0.233707;0.233977;-0.0138668;0.123922;0.0581783;17.1885;0.160806;0.165229;16.8731;0.0592658;84.0265;129.027;-0.00233198;-0.0138491;-0.0113206;0.0237668;0.233682;-0.00416408;0.0479826;0;0.203597;8.71846;6.49515
647000;648;27.659;1.90151;0.0738238;-2.48629;27.5448;-0.348822;-0.182352;1.91793;-1.53314;-0.0903748;-0.793639;-0.187851;0.82056;-7.35231;-0.00369471;0.00126228;0.0111416;0.0112482;-0.00380134;0.00752477;0.331615;3.01554;0.00903648;0.010033;2.95901;0.337951;78.378;123.378;1.98717e-05;-0.00369625;0.00035226;0.00215895;0.0111423;0.00764908;0.0204442;0;0.0395836;-0.304327;-2.65946;-1.70723;3.17489;-7.74567;-0.0253778;0.0127069;0.242698;0.243299;-0.0259788;0.134639;0.104565;9.5634;0.171516;0.179519;9.3653;0.106777;83.382;128.382;-0.0268754;-0.0256764;-0.00586006;0.0272661;0.242749;0.00222524;0.048813;0;0.197098;8.71116;6.50093
648000;649;27.6616;1.90408;0.0739233;-2.48903;27.547;-0.359677;-0.18509;1.92012;-1.544;-0.0903852;-0.792678;-0.194102;0.821087;-7.35856;-0.00354914;0.00124217;0.0113493;0.0114521;-0.003652;0.00755207;0.31272;3.19775;0.00909974;0.0100694;3.13585;0.318892;78.8255;123.825;0.000437708;-0.00355065;0.000340004;0.00213104;0.01135;0.00544442;0.0183774;0;0.0372866;-0.307458;-2.66175;-1.71432;3.18093;-7.75225;-0.0214837;0.0133014;0.244299;0.244963;-0.0221478;0.133555;0.0879403;11.3714;0.17117;0.178074;11.0604;0.0904126;82.5856;127.586;-0.0117809;-0.0218785;-0.00896912;0.0308111;0.244338;0.008774;0.0515965;0;0.172817;8.7517;6.50255
649000;650;27.6789;1.92145;0.0745978;-2.492;27.5643;-0.352778;-0.188066;1.93738;-1.5371;-0.090595;-0.794579;-0.189113;0.821783;-7.35357;-0.00351834;0.00129615;0.0114532;0.0115646;-0.00362972;0.00759717;0.307192;3.2553;0.00916252;0.0101296;3.18609;0.313865;78.7787;123.779;0.000671415;-0.00351988;0.000397662;0.00218135;0.011454;0.00456486;0.0181302;0;0.0369609;-0.309107;-2.6918;-1.72005;3.20935;-7.77023;-0.0132053;0.00899592;0.243192;0.243508;-0.0135206;0.128514;0.0542999;18.4162;0.167028;0.171352;18.0102;0.0555242;83.7097;128.71;-0.0088782;-0.0135098;-0.0125692;0.026111;0.243161;-0.0104829;0.0450424;0;0.174907;8.79182;6.51759
650000;651;27.7166;1.95908;0.0760587;-2.49292;27.602;-0.352124;-0.188984;1.97509;-1.53645;-0.0895517;-0.790241;-0.185592;0.816667;-7.35005;-0.00359989;0.00118063;0.0110999;0.0111941;-0.00369411;0.00744411;0.324318;3.0834;0.0089519;0.00992548;3.03026;0.330005;79.6361;124.636;0.000577093;-0.0036011;0.000402103;0.00194783;0.0111005;0.0040361;0.0195567;0;0.0459915;-0.312524;-2.7249;-1.72701;3.24119;-7.7751;-0.0139873;0.0107744;0.252063;0.252498;-0.0144229;0.133461;0.0554912;18.0209;0.17334;0.177948;17.5068;0.0571207;83.4479;128.448;0.00118347;-0.0143341;-0.0114611;0.028282;0.252057;0.000724061;0.0575032;0;0.168645;8.6867;6.53181
651000;652;27.7273;1.96985;0.0764767;-2.49529;27.6124;-0.364163;-0.191358;1.98554;-1.54848;-0.08877;-0.789347;-0.182566;0.815033;-7.34702;-0.00350314;0.00143081;0.0111487;0.0112871;-0.00364156;0.00746435;0.314219;3.18249;0.00898797;0.00995246;3.09954;0.322629;78.0377;123.038;-5.58702e-05;-0.00350477;0.000547314;0.00230151;0.0111496;0.00505501;0.0178595;0;0.0361897;-0.311605;-2.74116;-1.7316;3.25722;-7.78438;-0.0161154;0.00974728;0.251326;0.25168;-0.0164702;0.134075;0.0641216;15.5954;0.173538;0.178767;15.281;0.0654409;83.7827;128.783;-0.0224127;-0.0164261;-0.011659;0.0265759;0.251309;-0.0125368;0.0525193;0;0.172004;8.58665;6.53221
652000;653;27.7318;1.97432;0.0766505;-2.49596;27.6168;-0.368529;-0.19202;1.98991;-1.55285;-0.088154;-0.788491;-0.185756;0.814859;-7.35021;-0.00351832;0.00145513;0.0112353;0.0113774;-0.00366047;0.00751894;0.31315;3.19336;0.00905517;0.0100253;3.10818;0.321731;77.7899;122.79;0.000804371;-0.00352006;0.000535446;0.00236139;0.0112362;0.00395757;0.0187984;0;0.0324177;-0.311499;-2.73754;-1.73491;3.25593;-7.78532;-0.0145245;0.0101725;0.254376;0.25476;-0.0149088;0.134834;0.0570987;17.5135;0.175021;0.179779;17.0879;0.0585209;83.635;128.635;-0.0114998;-0.01486;-0.0120806;0.0276523;0.254359;-0.000293321;0.0541664;0;0.168093;8.56417;6.53196
653000;654;27.7399;1.98243;0.0769651;-2.49729;27.6249;-0.363904;-0.193356;1.99799;-1.54823;-0.0892836;-0.788828;-0.184155;0.814944;-7.34861;-0.00361723;0.00126395;0.0112292;0.011336;-0.00372407;0.00753005;0.322127;3.10436;0.00905761;0.0100401;3.04399;0.328516;78.7574;123.757;0.000230569;-0.0036187;0.00038789;0.00212714;0.0112299;0.00504219;0.0170762;0;0.038111;-0.313473;-2.73707;-1.73621;3.25642;-7.78466;-0.0140145;0.00894358;0.25694;0.257235;-0.0143094;0.135772;0.0545438;18.3339;0.176454;0.18103;17.9767;0.0556277;84.1753;129.175;-0.0205998;-0.0143043;-0.0121925;0.0255212;0.256913;-0.0192813;0.052784;0;0.175753;8.60939;6.53924
654000;655;27.7568;1.99935;0.0776221;-2.49691;27.6418;-0.369818;-0.192971;2.01494;-1.55414;-0.0891075;-0.788988;-0.182515;0.814711;-7.34697;-0.00361708;0.00142965;0.0112261;0.0113626;-0.00375352;0.00755804;0.322202;3.10364;0.00908836;0.0100774;3.02717;0.330341;77.9026;122.903;0.000252224;-0.00361876;0.000520727;0.00232523;0.011227;0.00537279;0.0187007;0;0.0400399;-0.316994;-2.76101;-1.7419;3.27992;-7.79618;-0.0148517;0.00927923;0.259023;0.259337;-0.0151657;0.137251;0.0573372;17.4407;0.178162;0.183002;17.1003;0.0584787;84.2424;129.242;0.00415383;-0.0151361;-0.0113594;0.0254261;0.259006;0.00691235;0.0314026;0;0.162504;8.64975;6.54648
654001;656;;;;;;;;;;;;;;;;;;;;;;;;;;;;;;;;;;;;;;;;;;;;;;;;;;;;;;;;;;;;;;;;;;-0.022238;6.63087
654002;657;;;;;;;;;;;;;;;;;;;;;;;;;;;;;;;;;;;;;;;;;;;;;;;;;;;;;;;;;;;;;;;;;;-0.022238;6.63087
