Time;Image index (Image index);Distance L(t) (Extensometer 1);Change in distance (Extensometer 1);Strain - RC (Extensometer 1);Distance x L(t) (Extensometer 1);Distance y L(t) (Extensometer 1);Distance z L(t) (Extensometer 1);Change in distance x (Extensometer 1);Change in distance y (Extensometer 1);Change in distance z (Extensometer 1);X-displacement (Strain Gauge 1);Y-displacement (Strain Gauge 1);Z-displacement (Strain Gauge 1);Displacement (Strain Gauge 1);Height (Strain Gauge 1);Exx - RC (Strain Gauge 1);Exy - RC (Strain Gauge 1);Eyy - RC (Strain Gauge 1);Max. principal strain - RC (Strain Gauge 1);Min. principal strain - RC (Strain Gauge 1);Max. shear strain - RC (Strain Gauge 1);Poisson ratio -Exx/Eyy (Strain Gauge 1);Poisson ratio -Eyy/Exx (Strain Gauge 1);Von Mises - RC (Strain Gauge 1);Tresca - RC (Strain Gauge 1);Poisson ratio -strain max/min (Strain Gauge 1);Poisson ratio -strain min/max (Strain Gauge 1);Max. strain angle (Strain Gauge 1);Max. shear angle (Strain Gauge 1);Vorticity-z (Strain Gauge 1);du/dx (Strain Gauge 1);du/dy (Strain Gauge 1);dv/dx (Strain Gauge 1);dv/dy (Strain Gauge 1);dw/dx (Strain Gauge 1);dw/dy (Strain Gauge 1);Ezz plane stress state (Strain Gauge 1);Stereo reconstruction error (Strain Gauge 1);X-displacement (Strain Gauge 2);Y-displacement (Strain Gauge 2);Z-displacement (Strain Gauge 2);Displacement (Strain Gauge 2);Height (Strain Gauge 2);Exx - RC (Strain Gauge 2);Exy - RC (Strain Gauge 2);Eyy - RC (Strain Gauge 2);Max. principal strain - RC (Strain Gauge 2);Min. principal strain - RC (Strain Gauge 2);Max. shear strain - RC (Strain Gauge 2);Poisson ratio -Exx/Eyy (Strain Gauge 2);Poisson ratio -Eyy/Exx (Strain Gauge 2);Von Mises - RC (Strain Gauge 2);Tresca - RC (Strain Gauge 2);Poisson ratio -strain max/min (Strain Gauge 2);Poisson ratio -strain min/max (Strain Gauge 2);Max. strain angle (Strain Gauge 2);Max. shear angle (Strain Gauge 2);Vorticity-z (Strain Gauge 2);du/dx (Strain Gauge 2);du/dy (Strain Gauge 2);dv/dx (Strain Gauge 2);dv/dy (Strain Gauge 2);dw/dx (Strain Gauge 2);dw/dy (Strain Gauge 2);Ezz plane stress state (Strain Gauge 2);Stereo reconstruction error (Strain Gauge 2);Load ADC 1 channel 1;Position ADC 1 channel 2
ms;;mm;mm;S;mm;mm;mm;mm;mm;mm;mm;mm;mm;mm;mm;S;S;S;S;S;S;;;S;S;;;°;°;S;S;S;S;S;S;S;S;pixel;mm;mm;mm;mm;mm;S;S;S;S;S;S;;;S;S;;;°;°;S;S;S;S;S;S;S;S;pixel;kN;mm
0.02515;1;25.7551;0;0;-2.25023;25.6534;0.404193;0;0;0;0;0;0;0;-6.83218;0;6.93889e-18;0;6.93889e-18;-6.93889e-18;6.93889e-18;;;8.01234e-18;9.25186e-18;;;0;45;0;0;-2.77556e-17;4.16334e-17;0;0;0;0;0;0;0;0;0;-6.40116;-1.11022e-16;7.28584e-17;0;3.60849e-17;-1.47107e-16;9.1596e-17;;;1.12054e-16;1.22128e-16;;;0;45;0;-1.11022e-16;4.85723e-17;9.71445e-17;0;0;0;0;0;-0.00977329;2.18973
1000.03;2;25.7526;-0.00251241;-9.755e-05;-2.24679;25.6512;0.407757;0.0034367;-0.00227753;0.00356427;-0.000176034;-0.00162722;0.0046527;0.00493218;-6.82752;4.60655e-05;-7.27272e-05;-2.9943e-05;9.01196e-05;-7.39971e-05;8.20583e-05;1.53844;0.650009;9.49051e-05;0.000109411;1.21788;0.821099;7.74734;52.7473;-0.00089108;4.6062e-05;-3.51067e-05;-0.000110351;-2.99409e-05;0.000755036;-0.00178799;0;0.0153376;0.000382334;-0.000791057;0.00697121;0.00702636;-6.39419;0.00019445;-4.07696e-05;0.000197727;0.000236891;0.000155286;4.08025e-05;-0.983431;-1.01685;0.000138957;5.44033e-05;-1.52551;-0.655517;118.792;163.792;-7.63501e-06;0.000194449;-0.000154533;7.29937e-05;0.000197715;-0.000483408;-0.00439447;0;0.0205183;-0.00979431;2.19623
2000.03;3;25.7542;-0.000958523;-3.72168e-05;-2.24752;25.6526;0.409795;0.00270586;-0.000813984;0.00560174;0.000640285;0.000566014;-0.000897553;0.00123933;-6.83307;-1.77901e-05;6.58368e-05;-0.000113966;1.56508e-05;-0.000147406;8.15286e-05;-0.1561;-6.40613;0.000103882;0.000108705;0.106174;9.41847;98.7186;143.719;-0.00067617;-1.7788e-05;0.000114432;1.7237e-05;-0.00011397;-0.000673987;-0.00381322;0;0.0104769;0.000537974;0.000525036;0.00241269;0.00252709;-6.39875;0.000101012;-2.45448e-06;9.44709e-05;0.00010183;9.36523e-05;4.08908e-06;-1.06924;-0.935245;6.53317e-05;5.45211e-06;-1.08732;-0.919688;165.182;30.1819;0.000171409;0.000101012;9.98376e-06;-1.48928e-05;9.44708e-05;-0.00112521;-0.00376104;0;0.0201106;-0.00964662;2.20352
3000.03;4;25.7553;0.000183368;7.11965e-06;-2.24761;25.6538;0.410438;0.00262063;0.000314674;0.00624516;0.000739317;0.000157986;0.000616416;0.000975458;-6.83156;0.000194245;0.000173773;0.000304543;0.000431708;6.70794e-05;0.000182315;-0.637825;-1.56783;0.000268256;0.000243086;-6.43579;-0.155381;45.4461;90.4461;0.000132864;0.000194229;9.88563e-05;0.000248682;0.000304553;-5.75602e-05;-0.00215468;0;0.0162798;0.000837869;0.000694661;0.00190521;0.00219417;-6.39926;0.000274897;-1.18472e-05;0.000251799;0.000279892;0.000246803;1.65449e-05;-1.09173;-0.915976;0.000176601;2.20598e-05;-1.13407;-0.881777;149.427;14.4272;0.00015609;0.000274895;-8.44799e-05;6.07873e-05;0.000251795;0.000916339;-0.00450581;0;0.0225219;-0.00959526;2.2108
4000.03;5;25.7554;0.000299933;1.16456e-05;-2.24727;25.6539;0.412383;0.00296118;0.000430351;0.00818962;0.00187882;0.000348088;0.00227354;0.00296987;-6.8299;0.000126318;0.000159109;0.000130101;0.00028733;-3.0911e-05;0.000159121;-0.970928;-1.02994;0.000202645;0.000212161;9.29539;0.10758;61.5261;106.526;-0.000945684;0.000126328;0.000240396;7.7823e-05;0.000130085;0.000113334;-0.00366648;0;0.0101854;0.00150707;2.99444e-07;0.00556746;0.00576784;-6.3956;3.54547e-05;7.93432e-06;0.000163191;0.000163682;3.49637e-05;6.43594e-05;-0.217258;-4.60282;9.95355e-05;8.58125e-05;-4.68149;-0.213607;115.293;160.293;0.000717137;3.54436e-05;0.000164897;-0.000149008;0.000163178;-0.00278984;-0.00480616;0;0.0198798;-0.00984969;2.2189
5000.03;6;25.7553;0.000172482;6.69698e-06;-2.24788;25.6537;0.409754;0.0023459;0.000290607;0.00556115;0.00113004;0.000248074;0.00301515;0.0032295;-6.82916;3.95939e-05;0.00012064;0.000108697;0.000199635;-5.13448e-05;0.00012549;-0.364261;-2.74529;0.000153102;0.00016732;3.88813;0.257193;26.2994;71.2994;-0.000382971;3.95769e-05;2.08473e-05;0.000220425;0.000108704;0.000212231;-0.00217936;0;0.01336;0.00110855;0.000357324;0.00593676;0.00604993;-6.39523;2.30445e-05;3.15087e-05;0.000133158;0.000141537;1.46659e-05;6.34354e-05;-0.173061;-5.77831;8.98689e-05;8.45805e-05;-9.65075;-0.103619;97.1155;142.116;0.000124843;2.3044e-05;0.000106978;-4.39525e-05;0.000133153;-0.00236199;-0.00381851;0;0.0217366;-0.0095949;2.22606
6000.03;7;25.7541;-0.00103253;-4.00904e-05;-2.248;25.6525;0.410676;0.00222702;-0.000944342;0.00648333;0.0022198;0.00137116;-0.0011805;0.00286377;-6.83336;0.000170572;9.16065e-06;8.724e-05;0.000171567;8.62449e-05;4.26612e-05;-1.9552;-0.511455;9.90549e-05;5.68816e-05;-1.9893;-0.502688;4.02952;49.0295;-0.00110413;0.000170572;-6.24735e-07;1.89469e-05;8.724e-05;0.000964332;-0.00153732;0;0.0207244;0.00163042;0.000756644;0.00277741;0.00330829;-6.39839;6.24579e-05;-2.22568e-05;6.62364e-05;8.6684e-05;4.20103e-05;2.23368e-05;-0.942955;-1.0605;5.00549e-05;2.97824e-05;-2.0634;-0.484638;165.345;30.3448;0.000518802;6.24448e-05;0.000119242;-0.000163755;6.62295e-05;-0.00110312;-0.00510792;0;0.022183;-0.00974989;2.23355
7000.03;8;25.7555;0.00038227;1.48425e-05;-2.2465;25.654;0.411691;0.0037265;0.000591146;0.00749836;0.00259901;-0.000492865;0.00167694;0.00313208;-6.8305;7.04269e-05;0.000366903;5.30199e-05;0.00042873;-0.000305283;0.000367006;-1.32831;-0.752836;0.000425775;0.000489342;1.40437;0.712064;11.9443;56.9443;0.000106736;7.03703e-05;0.00023599;0.000497818;5.30594e-05;-0.00228829;-0.00131595;0;0.00988811;0.00224514;-0.000639621;0.00576035;0.00621542;-6.3954;7.56663e-05;-2.95318e-05;0.000240548;0.000245677;7.05365e-05;8.75705e-05;-0.314559;-3.17906;0.000146065;0.000116761;-3.48298;-0.28711;70.0078;115.008;0.00038694;7.56377e-05;-0.000300149;0.000241041;0.000240503;-0.000969454;-0.00521206;0;0.0199951;-0.00977018;2.24108
8000.03;9;25.7549;-0.000199529;-7.74716e-06;-2.2469;25.6534;0.413443;0.00332555;-5.62378e-05;0.00924995;0.00165853;-0.00258681;0.00861374;0.00914543;-6.82356;5.90797e-05;6.12511e-05;0.00055337;0.000560847;5.16028e-05;0.000254622;-0.106764;-9.36649;0.000357939;0.000339496;-10.8685;-0.0920086;79.9914;124.991;-0.000461592;5.90772e-05;2.85187e-05;9.39674e-05;0.000553371;-0.00028739;-0.00394942;0;0.0106502;0.00141048;-0.00201649;0.0119618;0.0122123;-6.3892;6.68315e-05;6.65835e-05;8.11264e-05;0.000140945;7.013e-06;6.6966e-05;-0.823795;-1.21389;9.17151e-05;8.9288e-05;;;79.0514;124.051;0.00135083;6.68311e-05;0.000205605;-7.24364e-05;8.11075e-05;-0.00459654;-0.0055808;0;0.0199348;-0.00970292;2.24854
9000.03;10;25.7555;0.000406558;1.57855e-05;-2.24826;25.6539;0.413377;0.00196943;0.000434504;0.00918366;0.00342255;-0.00238804;0.00353589;0.00546983;-6.82864;0.000125017;-0.000196698;-6.74746e-06;0.000266573;-0.000148303;0.000207438;;;0.000242751;0.000276584;1.79749;0.556333;110.776;155.776;-0.000962015;0.000125035;-0.000335798;-5.75795e-05;-6.78449e-06;0.00191891;-0.00211855;0;0.0117316;0.00283785;-0.00185708;0.00693125;0.0077165;-6.39423;7.75692e-05;2.99191e-05;0.000119665;0.000135198;6.2036e-05;3.65809e-05;-0.648222;-1.54268;7.81445e-05;4.87745e-05;-2.17934;-0.458854;36.0347;81.0347;0.00126012;7.75566e-05;-0.000101246;0.000161079;0.00011966;-0.00492169;-0.00510466;0;0.0194344;-0.00984677;2.25347
10000;11;25.755;-9.9965e-05;-3.88137e-06;-2.24847;25.6534;0.411023;0.00175944;-5.46146e-05;0.0068302;0.00233384;-0.00137263;0.00150998;0.00310016;-6.83067;0.000227382;0.000266117;0.00021415;0.000486965;-4.54327e-05;0.000266199;-1.06179;-0.941807;0.000340799;0.000354932;10.7184;0.0932977;38.8933;83.8933;-0.000618874;0.00022737;0.000224037;0.000308197;0.00021416;0.00080753;-0.00252256;0;0.00864656;0.00127492;-0.00151386;0.00530236;0.0056597;-6.39586;-6.46943e-05;2.83632e-05;8.7219e-05;9.23419e-05;-6.98171e-05;8.10795e-05;0.741745;1.34817;9.39231e-05;0.000108106;1.32262;0.756072;123.696;168.696;0.000879569;-6.47318e-05;0.000332053;-0.00027528;8.71643e-05;-0.00389732;-0.0047382;0;0.019335;-0.00948615;2.25727
11000;12;25.7557;0.000574757;2.23162e-05;-2.24909;25.654;0.413058;0.00114413;0.000536155;0.00886539;0.00105427;-0.001806;0.00441546;0.00488564;-6.82776;-0.000146044;-4.4665e-05;0.000452382;0.000455697;-0.00014936;0.000302528;0.322834;3.09756;0.000363948;0.000403371;3.05101;0.327761;116.903;161.903;-0.000760162;-0.000146063;0.000110282;-0.000199519;0.000452377;0.000128734;-0.00204098;0;0.0143925;-0.000583808;-0.00170239;0.00936665;0.00953798;-6.3918;5.97288e-05;1.88142e-05;9.45617e-05;0.000102783;5.15073e-05;2.5638e-05;-0.631639;-1.58318;5.9342e-05;3.4184e-05;-1.99551;-0.501125;91.5484;136.548;0.000368768;5.97263e-05;0.00011177;-7.41388e-05;9.45556e-05;-0.00353571;-0.00612553;0;0.0201084;-0.009666;2.26448
12000;13;25.7559;0.000769197;2.98658e-05;-2.25099;25.6539;0.417295;-0.000760215;0.000495775;0.0131022;-1.43772e-05;-0.000250071;0.000149148;0.000291526;-6.83203;3.55019e-05;-5.59594e-05;0.000138617;0.000163149;1.09698e-05;7.60897e-05;-0.256115;-3.90449;0.0001053;0.000101453;-14.8726;-0.0672378;135.939;0.938648;-0.000250584;3.54934e-05;2.97073e-05;-0.000141617;0.000138618;-0.000590786;-0.00251785;0;0.0125546;-0.00302425;7.90267e-05;0.00676248;0.00740834;-6.3944;0.000204828;4.10704e-05;-0.000104802;0.000210183;-0.000110157;0.00016017;1.95443;0.511659;0.00018793;0.00021356;1.90803;0.524101;44.8307;89.8307;-0.000716647;0.000204818;0.000225239;-0.000143156;-0.000104827;0.00246039;-0.00517196;0;0.0217923;-0.00932713;2.26982
13000;14;25.7556;0.000454567;1.76496e-05;-2.25274;25.6534;0.419261;-0.00251427;-6.13409e-06;0.0150683;-0.000916568;-0.00176154;0.00783625;0.00808393;-6.82434;-3.70864e-05;0.000229385;0.000423671;0.000518395;-0.00013181;0.000325103;0.0875358;11.4239;0.000396898;0.00043347;3.93288;0.254266;83.1576;128.158;-0.000892627;-3.70664e-05;0.000346461;0.000112363;0.000423637;0.000912971;-0.00117442;0;0.0117602;-0.00439559;-0.00094373;0.0144641;0.0151466;-6.3867;0.000119281;3.8876e-05;8.79838e-05;0.00014554;6.17252e-05;4.19073e-05;-1.35572;-0.737616;8.43495e-05;5.58764e-05;-2.35787;-0.424112;63.9042;108.904;-0.000182613;0.000119272;0.000216511;-0.000138765;8.79611e-05;-0.0010731;-0.00675853;0;0.0212301;-0.00940536;2.27733
14000;15;25.755;-0.000105818;-4.10863e-06;-2.25391;25.6529;0.414154;-0.00368227;-0.000588377;0.00996064;-0.00242261;0.00205096;0.00544784;0.00630511;-6.82673;-2.37097e-05;3.99634e-05;-0.000425564;-1.9774e-05;-0.0004295;0.000204863;-0.0557136;-17.9489;0.000279975;0.00027315;-0.0460396;-21.7204;74.6832;119.683;-0.00103071;-2.37219e-05;0.000241292;-0.000161446;-0.000425592;7.91769e-05;-0.00241783;0;0.00982307;-0.00651792;0.00286698;0.0122659;0.0141829;-6.3889;8.16139e-05;0.000150382;-7.48236e-05;0.000172903;-0.000166113;0.000169508;1.09075;0.916799;0.000195744;0.000226011;1.04088;0.960727;74.8089;119.809;-0.0012523;8.16217e-05;0.000217403;8.33511e-05;-7.48359e-05;0.00149437;-0.00441953;0;0.019548;-0.00943643;2.28421
15000;16;25.7564;0.00129249;5.01838e-05;-2.25329;25.6543;0.417636;-0.00306534;0.000813232;0.0134434;-0.00337206;0.00530738;0.00352672;0.0072095;-6.82865;8.27727e-05;0.000297793;-0.000146103;0.00028736;-0.00035069;0.000319025;0.566535;1.76511;0.000368983;0.000425367;0.819412;1.22039;105.002;150.002;-0.00101155;8.278e-05;0.000323408;0.000272173;-0.000146111;-1.1767e-05;-0.00335522;0;0.0109972;-0.00768832;0.00541578;0.0121124;0.0153346;-6.38905;0.000206268;0.000184683;-0.000121818;0.000289243;-0.000204793;0.000247018;1.69325;0.590582;0.000286618;0.000329358;1.41237;0.708032;63.7374;108.737;-0.00177749;0.000206284;0.000403797;-3.45026e-05;-0.000121882;0.00214146;-0.00285411;0;0.021745;-0.0094697;2.29207
16000;17;25.7537;-0.00139713;-5.42468e-05;-2.25333;25.6516;0.41251;-0.00309854;-0.00180707;0.00831727;-0.00433056;0.00451962;0.0080577;0.0102033;-6.82412;1.74172e-05;0.00032228;-0.000358392;0.000202571;-0.000543545;0.000373058;0.0485981;20.5769;0.000445512;0.000497411;0.372684;2.68324;110.55;155.55;-0.00104133;1.7434e-05;0.000379817;0.00026472;-0.000358412;-0.000793988;-0.00352554;0;0.0181258;-0.00885432;0.00536525;0.0158689;0.0189474;-6.38529;0.000371571;0.000292291;-0.000317923;0.000478803;-0.000425155;0.000451979;1.16874;0.855619;0.000522206;0.000602638;1.12618;0.887954;61.6254;106.625;-0.00196465;0.000371611;0.000509566;7.48662e-05;-0.00031801;0.00344426;-0.00319726;0;0.0244248;-0.0097764;2.29954
17000;18;25.7555;0.000339367;1.31767e-05;-2.25503;25.6531;0.41751;-0.00479994;-0.000294044;0.0133168;-0.00437696;0.00570849;0.00428436;0.00837259;-6.82789;7.42984e-05;0.000285314;0.000107387;0.000376636;-0.00019495;0.000285793;-0.691877;-1.44534;0.000335516;0.000381057;1.93196;0.51761;72.5023;117.502;-0.00167774;7.43246e-05;0.000400303;0.000170328;0.000107347;-0.000131292;-0.0030527;0;0.0104456;-0.00954488;0.00598001;0.0135924;0.0176528;-6.38757;0.000239896;0.00027585;-0.000186664;0.000375301;-0.000322069;0.000348685;1.28518;0.778103;0.000403018;0.000464913;1.16528;0.858161;178.188;43.1877;-0.001935;0.000239884;0.000236523;0.000315193;-0.000186653;0.00398815;-0.00440788;0;0.0237569;-0.00952782;2.30709
18000;19;25.7557;0.000581499;2.2578e-05;-2.2547;25.6535;0.415304;-0.0044743;1.34851e-05;0.0111107;-0.00324318;0.00480812;0.00495211;0.00762625;-6.82722;1.38817e-05;0.000454685;-0.000121866;0.000405731;-0.000513715;0.000459723;0.113909;8.77891;0.000532061;0.000612964;0.789797;1.26615;94.6026;139.603;-0.000988524;1.39443e-05;0.000623846;0.000285501;-0.000121957;-0.000470804;-0.0025331;0;0.0101797;-0.00810104;0.00511245;0.0124704;0.015725;-6.38869;0.000261135;0.00021605;-0.00016339;0.000351746;-0.000254002;0.000302874;1.59823;0.625693;0.000351243;0.000403832;1.38482;0.722116;62.3815;107.381;-0.00184058;0.000261157;0.000473756;-4.17659e-05;-0.000163479;0.00330157;-0.00485577;0;0.0222689;-0.00943935;2.3139
19000;20;25.7527;-0.00238114;-9.24532e-05;-2.25332;25.6507;0.410418;-0.00308786;-0.00276049;0.00622462;-0.00283929;0.00214203;0.0113714;0.0119146;-6.8208;-0.000123442;0.000219666;-7.79345e-05;0.000120153;-0.000321529;0.000220841;-1.58392;-0.631345;0.000263692;0.000294455;0.373691;2.67601;126.763;171.763;-0.000904832;-0.000123434;0.000261138;0.000178195;-7.79445e-05;-0.000850393;-0.00345129;0;0.01019;-0.00754117;0.00414347;0.0161599;0.0183079;-6.385;0.000158709;0.000245018;-0.000148844;0.00029421;-0.000284345;0.000289277;1.06628;0.937843;0.000334045;0.000385703;1.03469;0.96647;72.6871;117.687;-0.00155798;0.000158731;0.000357535;0.000132467;-0.000148878;0.00245795;-0.00349862;0;0.0208218;-0.00945087;2.32054
20000;21;25.7546;-0.000523176;-2.03135e-05;-2.254;25.6525;0.412751;-0.00376949;-0.000992449;0.00855772;-0.00441039;0.0040952;0.00279652;0.00663647;-6.82938;1.77338e-05;3.79857e-05;0.000124602;0.000136728;5.60789e-06;6.55599e-05;-0.142324;-7.02622;8.93412e-05;8.74132e-05;;;111.36;156.36;-0.00172475;1.76893e-05;0.000376884;-0.000300876;0.000124532;0.000715294;-0.00526644;0;0.0128533;-0.00975628;0.00394548;0.011582;0.0156491;-6.38958;0.000204563;0.000128527;-0.000315049;0.000234616;-0.000345103;0.000289859;0.649304;1.54011;0.000336721;0.000386479;0.679845;1.47092;64.0731;109.073;-0.0016937;0.000204562;0.000392152;-0.000135234;-0.000315118;0.00221275;-0.00370999;0;0.0257631;-0.00904602;2.3261
21000;22;25.7549;-0.000222337;-8.63274e-06;-2.25538;25.6526;0.413855;-0.00515277;-0.000829779;0.00966168;-0.00677213;0.00498423;-0.00171432;0.00858156;-6.83389;-0.000151736;9.47422e-05;-0.000431298;-0.000122653;-0.00046038;0.000168863;-0.351812;-2.84243;0.000275299;0.000225151;-0.266418;-3.75351;83.8223;128.822;-0.00127378;-0.000151754;0.000401587;-0.000212188;-0.000431374;-0.000601735;-0.00301229;0;0.0119196;-0.0128134;0.00599078;0.00462984;0.0148832;-6.39653;0.000135397;0.000198002;-0.00035772;0.00020506;-0.000427383;0.000316222;0.3785;2.64201;0.000372586;0.000421629;0.479804;2.08419;77.8195;122.82;-0.00168457;0.000135416;0.000417251;-2.1354e-05;-0.000357788;0.00305061;-0.00423632;0;0.0230988;-0.00969817;2.33009
22000;23;25.7569;0.00180071;6.99166e-05;-2.25695;25.6544;0.422434;-0.00672249;0.000923457;0.0182406;-0.00884726;0.00477383;-0.000943575;0.0100972;-6.83312;-0.000110313;0.000356101;-0.000382837;0.000134707;-0.000627856;0.000381281;-0.288146;-3.47046;0.000469953;0.000508375;0.21455;4.66092;97.0861;142.086;-0.00109374;-0.000110249;0.000706571;5.53574e-06;-0.000383023;-0.00115993;-0.00356676;0;0.0188189;-0.0165076;0.00571576;0.00574017;0.018388;-6.39542;2.17459e-05;0.000156441;-0.000297353;8.56459e-05;-0.000361253;0.00022345;0.0731314;13.674;0.000273885;0.000297933;0.23708;4.21799;77.5308;122.531;-0.001621;2.17362e-05;0.000522283;-0.000209518;-0.000297478;0.00228032;-0.00321679;0;0.0239187;-0.008974;2.33656
23000;24;25.7545;-0.000648049;-2.5162e-05;-2.25835;25.6519;0.416632;-0.00812521;-0.00156367;0.0124394;-0.0113047;0.00439671;0.00339132;0.0125948;-6.82878;-0.000141758;0.00020724;-0.000660401;-6.91216e-05;-0.000733037;0.000331958;-0.214655;-4.65865;0.000467358;0.00044261;-0.0942948;-10.605;90.0183;135.018;-0.00222136;-0.000141743;0.000527096;-0.000112782;-0.000660518;0.00100119;-0.0032899;0;0.0172423;-0.019451;0.00560433;0.00962495;0.022414;-6.39154;1.53488e-05;0.000265398;-0.000348191;0.000155257;-0.000488099;0.000321678;0.0440816;22.6852;0.000387657;0.000428904;0.318084;3.14382;91.1864;136.186;-0.00100564;1.53831e-05;0.000487911;4.28046e-05;-0.000348275;-0.000221901;-0.00321725;0;0.0262018;-0.00935235;2.34359
24000;25;25.7568;0.00168321;6.53544e-05;-2.25864;25.6541;0.419538;-0.00840998;0.0007045;0.0153445;-0.0133542;0.0105021;-0.00267455;0.0171983;-6.83485;-2.45912e-05;0.000588442;-0.000290821;0.000445604;-0.000761016;0.00060331;-0.0845579;-11.8262;0.000704532;0.000804414;0.585538;1.70783;103.599;148.599;-0.00254862;-2.44981e-05;0.000776682;0.000400152;-0.000290949;0.000664771;-0.00375247;0;0.0117201;-0.0225276;0.0109703;0.00588994;0.0257397;-6.39527;-0.000233557;0.000403763;4.18518e-06;0.000306212;-0.000535584;0.000420898;;;0.000491988;0.000561197;0.571735;1.74906;115.455;160.455;-0.000751628;-0.000233504;0.000570586;0.00023698;4.10391e-06;-0.00279137;-0.000436486;0;0.0246146;-0.00930848;2.35135
25000;26;25.7553;0.000182961;7.10385e-06;-2.2593;25.6526;0.416141;-0.00906923;-0.000804489;0.0119483;-0.0153618;0.0114789;-0.00267678;0.0193627;-6.83485;-4.22284e-06;0.000402138;-0.000396526;0.000247052;-0.0006478;0.000447426;;;0.000533633;0.000596568;0.381371;2.62212;94.5588;139.559;-0.00233738;-4.14886e-06;0.000686866;0.000117298;-0.000396681;0.000609231;-0.00426367;0;0.0132502;-0.0251962;0.0119946;0.00514759;0.0283763;-6.39602;-0.000228049;0.000355393;6.4101e-05;0.000302268;-0.000466216;0.000384242;3.55765;0.281084;0.000447037;0.000512323;0.648343;1.54239;110.475;155.475;-0.00110275;-0.000227992;0.000598823;0.000112033;6.39849e-05;-0.00260972;-0.000511641;0;0.0244905;-0.00867534;2.35879
26000;27;25.757;0.00186354;7.2356e-05;-2.26019;25.6542;0.418491;-0.00995822;0.00076628;0.0142982;-0.0160487;0.00981399;-0.00538409;0.0195669;-6.83756;-5.69242e-05;0.000389551;-0.00062052;0.000142069;-0.000819513;0.000480791;-0.0917362;-10.9008;0.000599337;0.000641054;0.173358;5.76842;96.7561;141.756;-0.00264133;-5.68532e-05;0.000679717;9.92205e-05;-0.000620675;0.000572912;-0.00565818;0;0.0133106;-0.0263715;0.010496;0.000834841;0.0283957;-6.40033;-0.000111906;0.000225952;-2.1276e-05;0.00016386;-0.000297042;0.000230451;-5.25971;-0.190124;0.00026978;0.000307268;0.55164;1.81278;101.527;146.527;-0.00033734;-0.000111885;0.000546839;-9.49068e-05;-2.14e-05;-0.00505264;-0.00180503;0;0.0260401;-0.00854996;2.36635
27000;28;25.7558;0.000634542;2.46375e-05;-2.26045;25.653;0.416883;-0.0102204;-0.000464546;0.0126897;-0.0167682;0.00867817;-0.0093623;0.0210745;-6.84154;-9.58948e-05;0.000300925;-0.000568105;5.04937e-05;-0.000714493;0.000382493;-0.168798;-5.92425;0.000494021;0.000509991;0.0706707;14.1501;88.3966;133.397;-0.00261696;-9.58647e-05;0.000776212;-0.000174587;-0.000568361;0.000917609;-0.00419854;0;0.0236029;-0.0278421;0.00954276;-0.005102;0.029871;-6.40626;-0.000209408;0.000145797;-8.06648e-05;1.43389e-05;-0.000304412;0.000159375;-2.59603;-0.385203;0.000207886;0.0002125;0.0471035;21.2299;111.471;156.471;-0.000606912;-0.000209435;0.000563893;-0.000272246;-8.08131e-05;-0.00647597;-0.00282658;0;0.0276851;-0.00807491;2.37502
28000;29;25.7568;0.00171867;6.67313e-05;-2.26151;25.6539;0.420472;-0.011278;0.000472134;0.0162795;-0.0158667;0.00814285;-0.0093406;0.0201322;-6.84152;-0.000227069;0.000110202;-0.000664664;-0.000200883;-0.00069085;0.000244984;-0.341629;-2.92715;0.000410337;0.000326645;-0.290776;-3.43907;77.8633;122.863;-0.0023148;-0.000227159;0.000660375;-0.000440212;-0.000664876;0.00103203;-0.00421653;0;0.0134019;-0.0276039;0.00864374;-0.00664835;0.0296798;-6.40781;-0.000144999;0.000155571;2.10887e-05;0.000114393;-0.000238303;0.000176348;6.87566;0.145441;0.000207776;0.000235131;0.480032;2.08319;108.682;153.682;-0.00105967;-0.000145011;0.000534673;-0.000223468;2.09578e-05;-0.00382115;-0.00130485;0;0.025869;-0.00771539;2.3821
29000;30;25.757;0.0018664;7.24672e-05;-2.26203;25.6541;0.417305;-0.011804;0.000625791;0.0131123;-0.0166681;0.00883684;-0.0150621;0.0241409;-6.84724;-0.000106913;0.000294612;-0.000574624;3.53756e-05;-0.000716913;0.000376144;-0.186057;-5.37469;0.000490159;0.000501525;0.0493444;20.2657;88.5999;133.6;-0.0026257;-0.000106886;0.000769434;-0.000180434;-0.000574877;0.00118714;-0.00279965;0;0.0137084;-0.0289008;0.00921673;-0.0130266;0.0330136;-6.41419;-0.00028504;6.25155e-05;3.79048e-05;4.95841e-05;-0.000296719;0.000173152;7.51989;0.132981;0.000216244;0.000230869;0.167108;5.98416;132.388;177.388;-0.000516369;-0.000285106;0.000494816;-0.000369645;3.77843e-05;-0.0054359;-0.00250754;0;0.0260868;-0.00771283;2.38863
30000;31;25.7544;-0.000706892;-2.74467e-05;-2.26263;25.6516;0.407215;-0.0124017;-0.00184838;0.00302203;-0.0158229;0.00550628;-0.0133907;0.0214475;-6.84557;-0.000180262;5.15096e-05;-0.00015311;-0.000113417;-0.000219954;5.32685e-05;-1.17733;-0.849377;0.000127011;7.10247e-05;-0.51564;-1.93934;103.926;148.926;-0.00228127;-0.000180481;0.00076727;-0.000664232;-0.000153403;0.000344921;-0.00355642;0;0.0250685;-0.0291751;0.00730362;-0.0144418;0.033363;-6.4156;-0.000358526;9.73954e-05;-2.292e-05;3.29686e-06;-0.000384743;0.00019402;-15.6425;-0.0639284;0.000257601;0.000258693;;;131.681;176.681;-0.000301928;-0.00035858;0.000535934;-0.000340996;-2.30589e-05;-0.00645027;-0.00296068;0;0.035694;-0.00753535;2.3961
31000;32;25.7568;0.00167204;6.49206e-05;-2.2634;25.6539;0.41051;-0.0131672;0.00042005;0.00631687;-0.0157437;0.00640361;-0.0142365;0.0221709;-6.84641;-0.0001616;0.000217056;-0.00011889;7.78588e-05;-0.000358349;0.000218104;-1.35923;-0.735708;0.00026864;0.000290805;0.217271;4.60255;98.3871;143.387;-0.00206384;-0.000161698;0.000926891;-0.000492749;-0.000119297;-0.000461799;-0.00334855;0;0.0156292;-0.0294501;0.00735703;-0.0154865;0.0340773;-6.41665;-0.000215023;8.24393e-05;-2.02195e-05;9.98494e-06;-0.000245228;0.000127606;-10.6344;-0.0940341;0.000166913;0.000170142;;;119.889;164.889;-0.000347011;-0.000215189;0.00074671;-0.000581702;-2.04949e-05;-0.00678135;-0.00285023;0;0.0276709;-0.00753663;2.39882
32000;33;25.7563;0.00119916;4.65602e-05;-2.26503;25.6532;0.410782;-0.0148033;-0.000203487;0.00658921;-0.0160388;0.00763661;-0.0218873;0.0281889;-6.85406;-9.39169e-05;0.000149169;-0.000375269;-2.95535e-05;-0.000439632;0.000205039;-0.250266;-3.99575;0.00028375;0.000273386;-0.0672233;-14.8758;76.6824;121.682;-0.00253937;-9.41058e-05;0.000930468;-0.00063235;-0.000375691;0.000992853;-0.0033563;0;0.0134595;-0.0311425;0.00818753;-0.0228029;0.0394571;-6.42397;-0.000274497;-1.59508e-05;-4.47098e-06;-3.53201e-06;-0.000275436;0.000135952;;;0.000182458;0.00018127;;;145.045;10.045;-0.000634015;-0.000274679;0.000570992;-0.000602735;-4.63387e-06;-0.00587348;-0.00482056;0;0.0261226;-0.00741161;2.40405
33000;34;25.7579;0.00276687;0.00010743;-2.26568;25.6548;0.410974;-0.0154529;0.00131009;0.00678068;-0.0154607;0.00625516;-0.0234558;0.0287808;-6.85563;-1.50125e-05;8.65868e-05;-0.000206609;1.83193e-05;-0.000239941;0.00012913;-0.0726613;-13.7625;0.000166404;0.000172174;0.076349;13.0978;70.4316;115.432;-0.00219211;-1.5208e-05;0.000804334;-0.000631298;-0.000206929;0.000532804;-0.00321136;0;0.016112;-0.0313911;0.00676153;-0.0257567;0.0411647;-6.42692;-0.000166879;-2.63785e-05;2.26948e-05;2.62968e-05;-0.000170481;9.83889e-05;7.3532;0.135995;0.000123358;0.000131185;0.15425;6.48297;145.917;10.9167;-0.000365897;-0.000167109;0.000626588;-0.000679221;2.24988e-05;-0.00664443;-0.00569329;0;0.0272107;-0.00709157;2.4115
34000;35;25.7571;0.00200005;7.76564e-05;-2.2671;25.654;0.404456;-0.0168678;0.000518781;0.000262603;-0.0139621;0.00494806;-0.0230481;0.0273978;-6.85522;-0.000130192;0.000126715;2.09899e-05;9.29481e-05;-0.00020215;0.000147549;6.2026;0.161223;0.00017422;0.000196732;0.459798;2.17487;107.172;152.172;-0.00244666;-0.000130467;0.00100667;-0.000753108;2.04912e-05;0.000253588;-0.00234744;0;0.0125671;-0.0311245;0.00596865;-0.027428;0.0419124;-6.42859;-0.000203337;1.51225e-05;-1.81438e-05;-1.6917e-05;-0.000204564;9.38233e-05;-11.207;-0.08923;0.000131101;0.000125098;-0.082698;-12.0922;135.512;0.511734;-0.000483991;-0.000203513;0.000623524;-0.000593166;-1.8338e-05;-0.00696838;-0.0055155;0;0.025978;-0.00699232;2.41862
35000;36;25.7576;0.00248184;9.63631e-05;-2.26847;25.6543;0.408583;-0.0182437;0.000815491;0.00438948;-0.0137052;0.00584908;-0.0316017;0.0349387;-6.86378;5.4225e-05;0.000296074;0.000198808;0.000431289;-0.000178255;0.000304772;-0.27275;-3.66636;0.000361886;0.000406362;2.4195;0.413308;92.3895;137.389;-0.00259439;5.41387e-05;0.00110232;-0.000510059;0.000198245;0.000626246;-0.00293462;0;0.0174385;-0.0320444;0.00680055;-0.0353509;0.0481952;-6.43651;-0.000244832;9.7689e-05;0.00010309;0.000128643;-0.000270384;0.000199513;2.37493;0.421066;0.000235173;0.000266018;0.475777;2.10182;122.891;167.891;-0.000779367;-0.000245067;0.000888572;-0.000692919;0.0001027;-0.00657596;-0.00568495;0;0.026609;-0.00691135;2.42543
36000;37;25.7582;0.00305921;0.000118781;-2.26833;25.655;0.400663;-0.0181014;0.00153268;-0.00353052;-0.00913924;0.00252971;-0.0240557;0.0258574;-6.85623;-7.28979e-05;0.000112434;0.000392725;0.000418453;-9.86257e-05;0.000258539;0.185621;5.38733;0.000317;0.000344719;4.24284;0.235691;117.598;162.598;-0.00211931;-7.32943e-05;0.00112273;-0.000897392;0.000392102;6.07561e-05;-0.00264522;0;0.0126499;-0.0285625;0.00357638;-0.029849;0.0414677;-6.43101;-0.000268344;-5.0384e-05;6.12357e-05;6.87661e-05;-0.000275874;0.00017232;4.38214;0.228199;0.000210614;0.00022976;0.249266;4.01178;147.455;12.4548;-0.0011344;-0.000268657;0.000693119;-0.000793642;6.09968e-05;-0.00545811;-0.00498209;0;0.0259212;-0.00696746;2.43206
37000;38;25.7604;0.00532971;0.000206938;-2.27072;25.657;0.402196;-0.0204925;0.00357682;-0.00199748;-0.00639432;0.00372635;-0.0322694;0.0331072;-6.86445;-1.16676e-05;0.000127728;0.000316392;0.000360257;-5.55325e-05;0.000207895;0.0368771;27.1171;0.000260661;0.000277193;6.48732;0.154147;112.012;157.012;-0.00248355;-1.21117e-05;0.00120686;-0.000951053;0.000315672;0.000220837;-0.00227446;0;0.0121252;-0.0279356;0.00277758;-0.0352757;0.0450831;-6.43644;-0.000182021;-3.31272e-06;-9.73816e-05;-9.72522e-05;-0.000182151;4.24492e-05;-1.86915;-0.535002;0.000105245;5.65989e-05;-0.533911;-1.87297;142.928;7.92806;-0.00120601;-0.000182263;0.000689505;-0.000696071;-9.76194e-05;-0.00743709;-0.00492701;0;0.0272632;-0.00692944;2.43904
38000;39;25.7594;0.00431795;0.000167654;-2.2724;25.6559;0.400915;-0.022168;0.00243268;-0.00327821;-0.00647773;0.00235628;-0.0386861;0.0392954;-6.87086;-3.48082e-05;4.18177e-05;0.00057185;0.000574719;-3.76771e-05;0.000306198;0.0608694;16.4286;0.000396303;0.000408264;15.2538;0.0655575;124.123;169.123;-0.00235433;-3.53535e-05;0.00112948;-0.00104518;0.000571214;0.000995302;-0.00208299;0;0.0176585;-0.0288213;0.00233746;-0.0432639;0.0520374;-6.44443;-0.000241544;9.18338e-05;5.59873e-06;3.59862e-05;-0.000271931;0.000153959;;;0.000194396;0.000205278;0.132336;7.55654;121.012;166.012;-0.00129023;-0.000241772;0.000866099;-0.00068224;5.22788e-06;-0.0068642;-0.00559795;0;0.0257192;-0.0069002;2.44635
39000;40;25.7599;0.00479719;0.000186262;-2.27245;25.6563;0.401453;-0.0222239;0.00290048;-0.00273975;-0.00663664;0.00197805;-0.039644;0.0402443;-6.87182;1.77399e-05;0.000186786;0.000257649;0.000359681;-8.42919e-05;0.000221986;-0.068853;-14.5237;0.000272269;0.000295982;4.26709;0.234352;102.866;147.866;-0.0030843;1.73122e-05;0.00131737;-0.000943525;0.000256799;0.00177846;-0.00274776;0;0.0234797;-0.0294147;0.000943551;-0.0431384;0.052221;-6.4443;-0.000281645;0.000181784;3.55217e-05;0.000118173;-0.000364297;0.000241235;7.92883;0.126122;0.000290384;0.000321646;0.324387;3.08274;116.221;161.221;-0.00124586;-0.000281721;0.000794476;-0.000430714;3.52226e-05;-0.00789138;-0.00541422;0;0.0282327;-0.00686017;2.4545
40000;41;25.7598;0.00466554;0.00018115;-2.2737;25.6561;0.401981;-0.0234748;0.00264921;-0.00221205;-0.0046231;0.0014165;-0.0487332;0.0489724;-6.88091;8.41746e-05;1.07763e-05;6.11467e-05;8.84309e-05;5.68904e-05;1.57703e-05;-1.3766;-0.726426;5.17501e-05;2.1027e-05;-1.55441;-0.643332;64.6408;109.641;-0.00352309;8.35854e-05;0.0011072;-0.00108567;6.05338e-05;0.00353825;-0.00263066;0;0.0169184;-0.0290436;0.000520533;-0.0529445;0.0603897;-6.45411;-0.000294731;0.000214868;0.00015492;0.000241084;-0.000380895;0.00031099;1.90247;0.525631;0.000362111;0.000414653;0.632941;1.57993;115.634;160.634;-0.00154576;-0.000294879;0.00101517;-0.000585072;0.000154428;-0.0066767;-0.00570424;0;0.0273747;-0.00681539;2.4607
41000;42;25.7598;0.00465558;0.000180763;-2.2737;25.6562;0.396079;-0.0234677;0.00273163;-0.00811418;-0.00471121;-0.00128863;-0.0450189;0.0452831;-6.87719;0.00016183;7.20528e-05;-4.16216e-05;0.000184763;-6.45543e-05;0.000124658;3.88812;0.257193;0.000149416;0.000166211;2.86213;0.349391;61.0016;106.002;-0.00361054;0.000161354;0.00112173;-0.000977841;-4.22482e-05;0.00267088;-0.00144606;0;0.0232912;-0.0289062;-0.00222683;-0.0515962;0.0591836;-6.45276;-0.000208724;0.000297615;9.12036e-05;0.000274502;-0.000392023;0.000333263;2.28855;0.436958;0.000386807;0.00044435;0.700221;1.42812;105.913;150.913;-0.00107544;-0.000208745;0.00095572;-0.000360292;9.07912e-05;-0.00765351;-0.00468295;0;0.0270244;-0.00673552;2.46847
42000;43;25.76;0.0048976;0.00019016;-2.27462;25.6564;0.395034;-0.0243906;0.00290893;-0.0091591;-0.00507808;-0.0019662;-0.0492378;0.049538;-6.88141;0.000147081;0.000376104;-0.000135075;0.000407696;-0.00039569;0.000401693;1.08888;0.918375;0.000463852;0.000535591;1.03034;0.970553;79.5393;124.539;-0.00329201;0.00014693;0.00141701;-0.000665099;-0.000136009;0.00106786;-0.00279064;0;0.0139113;-0.0297104;-0.00276562;-0.058387;0.0655698;-6.45955;-0.000233891;0.000368312;6.28427e-05;0.000311548;-0.000482597;0.000397073;3.72185;0.268684;0.000462031;0.00052943;0.645567;1.54903;105.299;150.299;-0.000803946;-0.000233842;0.000929013;-0.000192222;6.2479e-05;-0.00788286;-0.00531857;0;0.0258005;-0.00654634;2.47328
43000;44;25.7602;0.00510514;0.000198218;-2.27474;25.6566;0.390992;-0.0245074;0.00316887;-0.013201;-0.00416463;-0.000545226;-0.0611499;0.061294;-6.89333;0.0002415;0.00043452;5.73682e-05;0.0005936;-0.000294733;0.000444166;-4.20965;-0.23755;0.000522465;0.000592222;2.01403;0.496517;79.8028;124.803;-0.00332771;0.000241428;0.00144615;-0.000577296;5.6417e-05;0.00108129;-0.00193673;0;0.0127618;-0.0297124;-0.00246827;-0.070188;0.0762579;-6.47135;-0.00028209;0.000327992;0.000149519;0.000326335;-0.000458905;0.00039262;1.88664;0.530042;0.000455507;0.000523494;0.711116;1.40624;109.206;154.206;-0.00109975;-0.000282123;0.0010724;-0.000416091;0.000148998;-0.00958884;-0.00497548;0;0.0253656;-0.00649461;2.47802
44000;45;25.76;0.00485707;0.000188587;-2.27631;25.6563;0.386783;-0.0260764;0.00284445;-0.0174104;-0.00491825;-0.00471653;-0.0554733;0.0558902;-6.88765;0.000186063;0.000350315;-0.000239849;0.000383071;-0.000436857;0.000409964;0.77575;1.28907;0.000473725;0.000546619;0.876879;1.14041;75.1262;120.126;-0.00372948;0.000185928;0.00132764;-0.000627423;-0.00024067;0.00226133;-0.00118417;0;0.0127931;-0.0312372;-0.00581606;-0.0685836;0.0755864;-6.46975;-0.000318537;0.000407198;5.43104e-05;0.000315731;-0.000579957;0.000447844;5.86512;0.1705;0.000524572;0.000597125;0.544403;1.83687;107.005;152.005;-0.00158504;-0.000318529;0.00120237;-0.000387675;5.36705e-05;-0.00879621;-0.00414841;0;0.0267018;-0.00650777;2.48468
45000;46;25.763;0.0078903;0.000306359;-2.27869;25.659;0.392889;-0.0284572;0.00558585;-0.011304;-0.00329152;-0.00515166;-0.0608326;0.0611391;-6.89301;0.00039114;0.000477057;-0.000186329;0.000660035;-0.000455224;0.000557629;2.09919;0.476375;0.000647504;0.000743506;1.44991;0.689697;71.3517;116.352;-0.00384163;0.000391136;0.00143744;-0.000483882;-0.000187249;0.00280467;-0.00183726;0;0.0159051;-0.0322861;-0.00867408;-0.0706316;0.0781439;-6.47179;-0.000198737;0.000581501;0.000122995;0.000565471;-0.000641213;0.000603342;1.61581;0.618883;0.000697136;0.000804455;0.881877;1.13395;99.3967;144.397;-0.00165522;-0.00019857;0.00122887;-6.56645e-05;0.000122409;-0.00879363;-0.00430683;0;0.0278916;-0.00569222;2.49114
46000;47;25.7605;0.00536488;0.000208303;-2.27729;25.6568;0.380951;-0.0270556;0.00335467;-0.0232423;-0.00403124;-0.0052672;-0.0662272;0.0665585;-6.8984;0.000433829;0.000551168;-0.000458738;0.000696739;-0.000721648;0.000709193;0.9457;1.05742;0.000818948;0.000945591;0.965483;1.03575;70.8833;115.883;-0.00358434;0.000433918;0.00145432;-0.000352788;-0.000459644;0.00202618;-0.00116676;0;0.0141238;-0.0319379;-0.00700353;-0.0826779;0.0889085;-6.48384;-0.000224675;0.000408536;0.000147657;0.000410444;-0.000487463;0.000448953;1.52161;0.6572;0.000519042;0.000598604;0.842001;1.18765;103.829;148.829;-0.00192067;-0.000224632;0.00110194;-0.000284609;0.000147133;-0.00800972;-0.00480594;0;0.0270298;-0.00578598;2.498
47000;48;25.7597;0.00461891;0.000179339;-2.27787;25.656;0.378828;-0.0276373;0.00258547;-0.0253646;-0.00403769;-0.00751877;-0.0658888;0.0664392;-6.89806;0.000406887;0.000678828;-0.000119772;0.000871671;-0.000584557;0.000728114;3.39718;0.294362;0.000846183;0.000970819;1.49117;0.670616;75.1265;120.126;-0.00358643;0.000407078;0.00163721;-0.000280054;-0.000120882;0.00157088;-0.00193652;0;0.0133227;-0.0326731;-0.00879223;-0.0858397;0.0922675;-6.487;-0.000311546;0.000482298;0.000175871;0.000472538;-0.000608213;0.000540375;1.77145;0.56451;0.000625608;0.0007205;0.776928;1.28712;106.17;151.17;-0.00215425;-0.000311453;0.00118032;-0.00021538;0.000175291;-0.00797109;-0.00210468;0;0.0260948;-0.00532666;2.50495
48000;49;25.7615;0.0064164;0.000249131;-2.27835;25.6578;0.38052;-0.0281206;0.00432228;-0.0236727;-0.00328047;-0.00830645;-0.0692054;0.0697793;-6.90138;0.000315459;0.000471957;-0.000582862;0.000517826;-0.00078523;0.000651528;0.541223;1.84767;0.000757582;0.000868704;0.659458;1.5164;72.4124;117.412;-0.00366491;0.000315477;0.00137334;-0.000430236;-0.000583694;0.00157058;-0.00192501;0;0.0174385;-0.0322707;-0.0109117;-0.0888356;0.0951432;-6.49;-0.000176119;0.000465672;0.000320138;0.000599662;-0.000455643;0.000527653;0.550134;1.81774;0.000611169;0.000703537;1.31608;0.759833;101.497;146.497;-0.00235747;-0.000176072;0.00128356;-0.000351812;0.000319423;-0.00709523;-0.00305133;0;0.0274301;-0.00544839;2.51274
49000;50;25.7598;0.00468908;0.000182064;-2.27889;25.656;0.376071;-0.0286595;0.00260572;-0.0281223;-0.00356544;-0.00988931;-0.0707301;0.071507;-6.90291;0.000282724;0.000543333;-0.000454152;0.000570759;-0.000742187;0.000656473;0.622532;1.60634;0.000760181;0.000875297;0.769023;1.30035;75.65;120.65;-0.00389513;0.000282809;0.00143853;-0.000352521;-0.000455039;0.00218754;-0.00215249;0;0.0134565;-0.0331214;-0.0118154;-0.0930344;0.0994587;-6.4942;-0.000281085;0.000484801;0.000204684;0.00050404;-0.000580441;0.000542241;1.37326;0.728192;0.000626644;0.000722988;0.868374;1.15158;104.394;149.394;-0.002063;-0.000281096;0.00147654;-0.000506454;0.000203712;-0.00767974;-0.00259148;0;0.02544;-0.0046661;2.51959
50000;51;25.757;0.00185049;7.18496e-05;-2.27902;25.6533;0.367874;-0.0287874;-0.000136853;-0.036319;-0.00243436;-0.0121026;-0.0678909;0.0690042;-6.90007;0.000359479;0.000602712;-0.000657738;0.000639505;-0.000937764;0.000788635;0.546538;1.8297;0.000916048;0.00105151;0.681947;1.46639;74.6599;119.66;-0.00380193;0.000359619;0.00149286;-0.00028834;-0.000658671;0.00132387;-0.000557005;0;0.0123919;-0.0324763;-0.0134507;-0.0941118;0.100462;-6.49527;-0.000208011;0.000533561;0.00040782;0.00071594;-0.00051613;0.000616035;0.510055;1.96057;0.000714447;0.00082138;1.38713;0.720913;102.066;147.066;-0.00227673;-0.000207967;0.00151269;-0.000444962;0.000406819;-0.00678272;-0.00282236;0;0.0253154;-0.0042395;2.52733
51000;52;25.7584;0.00325712;0.000126465;-2.27891;25.6547;0.369014;-0.0286801;0.00126861;-0.0351793;-0.00339259;-0.0122441;-0.0751057;0.0761728;-6.90728;0.000393165;0.000647659;-0.000523068;0.000728354;-0.000858257;0.000793305;0.751653;1.3304;0.000917053;0.00105774;0.848644;1.17835;74.3218;119.322;-0.0041199;0.000393332;0.0015893;-0.000294848;-0.000524122;0.0014573;-0.00138977;0;0.013821;-0.0333535;-0.0138235;-0.105432;0.111442;-6.50659;-0.00024931;0.000512982;0.000320469;0.000622362;-0.000551202;0.000586782;0.777951;1.28543;0.000677972;0.000782376;1.1291;0.885662;103.384;148.384;-0.00273284;-0.000249255;0.00141814;-0.00039166;0.000319596;-0.00464447;-0.00280151;0;0.0239802;-0.00414207;2.53445
52000;53;25.7587;0.00361065;0.000140191;-2.27902;25.655;0.369998;-0.0287873;0.00159988;-0.0341955;-0.00334829;-0.0148666;-0.072896;0.0744719;-6.90507;0.0002945;0.000702804;-0.000848814;0.000628782;-0.0011831;0.000905939;0.346955;2.88222;0.00106228;0.00120792;0.531472;1.88157;79.5402;124.54;-0.00375027;0.000294737;0.00154374;-0.000139092;-0.00084976;0.00116538;-0.00177442;0;0.0129611;-0.0338776;-0.0164401;-0.104539;0.111114;-6.5057;-0.000148086;0.000427593;0.000280025;0.000544149;-0.000412209;0.000478179;0.52883;1.89097;0.000553902;0.000637572;1.32008;0.757531;101.822;146.822;-0.00311289;-0.000148372;0.00172528;-0.000869543;0.000278628;-0.00407223;-0.00253212;0;0.0228607;-0.00396752;2.54135
53000;54;25.7591;0.00399246;0.000155016;-2.27927;25.6554;0.368771;-0.0290411;0.00197835;-0.035422;-0.00268142;-0.0142834;-0.0828038;0.0840694;-6.91498;0.000430827;0.000721006;-0.00101884;0.000728361;-0.00131637;0.00102236;0.422862;2.36484;0.00119669;0.00136315;0.55331;1.8073;76.7871;121.787;-0.00401745;0.000431076;0.00158633;-0.000145572;-0.00101983;0.0014015;-0.00192288;0;0.0141419;-0.0331153;-0.0165363;-0.116083;0.121841;-6.51725;-5.24807e-05;0.000354172;0.000176367;0.00043414;-0.000310253;0.000372197;0.297565;3.36062;0.000431755;0.000496262;1.39931;0.714639;97.4748;142.475;-0.00257108;-5.27879e-05;0.00156877;-0.000860154;0.0001752;-0.00553658;-0.00227112;0;0.0272942;-0.00363377;2.54774
54000;55;25.7614;0.00630225;0.000244699;-2.27934;25.6577;0.373411;-0.0291104;0.0042242;-0.0307816;-0.000404165;-0.0154412;-0.0832073;0.0846289;-6.91538;0.000395154;0.000771509;-0.00109136;0.000723185;-0.00141939;0.00107129;0.362075;2.76186;0.0012586;0.00142838;0.509504;1.96269;79.9961;124.996;-0.0031671;0.000395452;0.00155463;-1.27739e-05;-0.00109227;-0.00130171;-0.000770977;0;0.0128842;-0.0313832;-0.0190945;-0.115521;0.121221;-6.51668;4.32408e-05;0.00035624;0.000142546;0.000452577;-0.00026679;0.000359683;-0.303346;-3.29656;0.000419918;0.000479578;1.69638;0.589491;91.966;136.966;-0.00203387;4.28199e-05;0.00169681;-0.000984201;0.00014117;-0.00698785;-0.0056571;0;0.0215187;-0.00342613;2.55118
55000;56;25.759;0.00386084;0.000149906;-2.27972;25.6554;0.359635;-0.0294889;0.00193611;-0.0445581;-0.00332309;-0.0120381;-0.100345;0.101119;-6.93252;0.000420932;0.000678561;-0.00029088;0.00083126;-0.000701208;0.000766234;1.4471;0.691037;0.000885832;0.00102165;1.18547;0.843548;73.8483;118.848;-0.00403815;0.000421154;0.00148594;-0.000129388;-0.000291754;0.00156018;-0.0016569;0;0.023154;-0.0348509;-0.015123;-0.143455;0.1484;-6.54462;0.000180024;0.000238804;2.20332e-05;0.000352559;-0.000150503;0.000251531;-8.17057;-0.12239;0.00029815;0.000335375;2.34255;0.426886;78.7849;123.785;-0.00312112;0.000179361;0.0016531;-0.00117571;2.06953e-05;-0.000140699;-0.00586908;0;0.0250062;-0.0033501;2.55904
56000;57;25.7613;0.00613249;0.000238108;-2.2789;25.6576;0.37096;-0.0286744;0.00412804;-0.0332326;-0.00156849;-0.018168;-0.0883019;0.0901652;-6.92048;0.000375256;0.000704725;-0.000555183;0.00075447;-0.000934397;0.000844433;0.675914;1.47948;0.00097691;0.00112591;0.80744;1.23848;76.9388;121.939;-0.00364845;0.000375504;0.00140391;4.88909e-06;-0.000555921;0.0010297;-0.000110086;0;0.0142652;-0.0331289;-0.0218108;-0.12792;0.133928;-6.52908;0.000156997;0.000134236;-5.12085e-05;0.000222767;-0.000116978;0.000169872;3.06584;0.326175;0.000199296;0.000226497;1.90434;0.525115;70.1168;115.117;-0.00188319;0.000155972;0.00170623;-0.00143808;-5.26551e-05;-0.00613781;-0.00460985;0;0.022285;-0.00330568;2.56383
57000;58;25.759;0.00391868;0.000152151;-2.28009;25.6553;0.366835;-0.0298584;0.0018594;-0.0373579;-0.000384779;-0.0208507;-0.0862589;0.088744;-6.91843;0.000201028;0.000683568;-0.00057599;0.000598779;-0.000973741;0.00078626;0.349013;2.86523;0.000916458;0.00104835;0.614926;1.62621;81.1861;126.186;-0.00378713;0.000201242;0.00156446;-0.000198008;-0.000576981;0.000851801;-0.00162649;0;0.0149194;-0.0318823;-0.0231545;-0.131899;0.137659;-6.53306;-0.000147542;0.000168812;-8.20974e-05;5.71347e-05;-0.000286774;0.000171954;-1.79716;-0.556434;0.0002128;0.000229273;0.199233;5.01926;97.6253;142.625;-0.00163466;-0.000148439;0.0016873;-0.00134958;-8.35067e-05;-0.0081125;-0.00372351;0;0.0211985;-0.00325578;2.5718
58000;59;25.7594;0.00427598;0.000166025;-2.28055;25.6557;0.360853;-0.0303178;0.00226215;-0.04334;-0.000881717;-0.0201221;-0.0989542;0.100983;-6.93113;0.000238475;0.000656406;-0.000511706;0.000619401;-0.000892632;0.000756017;0.466039;2.14574;0.000877711;0.00100802;0.693904;1.44112;79.4215;124.422;-0.0038849;0.00023866;0.00155785;-0.00024572;-0.000512705;0.000626866;-0.000443391;0;0.0126319;-0.0328469;-0.024115;-0.145611;0.151205;-6.54677;0.000122428;-0.000149017;-0.000315591;0.000168317;-0.00036148;0.000264898;0.387932;2.57777;0.000312582;0.000353198;0.465632;2.14762;29.6177;74.6177;-0.00244506;0.000120955;0.00142409;-0.00172281;-0.000316594;-0.00491931;-0.00418567;0;0.0213789;-0.00327205;2.57885
59000;60;25.7619;0.00676172;0.000262539;-2.28133;25.6582;0.359107;-0.0311051;0.00471245;-0.0450864;0.00113143;-0.021206;-0.101425;0.103624;-6.9336;0.000317913;0.000641574;-0.000918313;0.000590687;-0.00119109;0.000890887;0.346192;2.88857;0.001048;0.00118785;0.495923;2.01644;77.0718;122.072;-0.00349273;0.00031808;0.00155917;-0.000277163;-0.000919323;-0.000426314;0.00103138;0;0.0176855;-0.0313378;-0.0251578;-0.152971;0.158162;-6.55413;5.99114e-06;-2.29872e-06;-0.000267197;6.01048e-06;-0.000267216;0.000136613;;;0.000180181;0.000182151;;;46.7217;91.7217;-0.00299285;4.58249e-06;0.00167343;-0.00167849;-0.000268598;-0.0039469;-0.00446968;0;0.022621;-0.00318395;2.58638
60000;61;25.7636;0.00851173;0.000330487;-2.28149;25.6599;0.35705;-0.0312628;0.00648421;-0.0471432;-0.00101863;-0.0224154;-0.105095;0.107464;-6.93727;0.000134314;0.000639086;-0.000844888;0.000449784;-0.00116036;0.000805071;0.158973;6.29039;0.000959316;0.00107343;0.387625;2.57981;80.49;125.49;-0.00392397;0.000134428;0.00170231;-0.000425179;-0.000846133;0.000546342;0.000715244;0;0.0143574;-0.0331965;-0.0270264;-0.157518;0.163231;-6.55868;8.25888e-05;-6.928e-05;-0.000296522;9.48525e-05;-0.000308786;0.000201819;0.278525;3.59035;0.000243708;0.000269092;0.307179;3.25543;36.755;81.755;-0.00297163;8.10542e-05;0.00161415;-0.00175335;-0.000297823;-0.00239208;-0.00504165;0;0.0198619;-0.00306533;2.59379
61000;62;25.7628;0.00769428;0.000298748;-2.28195;25.6591;0.355468;-0.0317176;0.00564499;-0.0487252;-0.000769386;-0.0227454;-0.107631;0.110011;-6.93981;0.000222125;0.000617633;-0.000802286;0.000512307;-0.00109247;0.000802387;0.276865;3.61187;0.000946484;0.00106985;0.468945;2.13245;77.8927;122.893;-0.00364961;0.000222223;0.00166404;-0.00042985;-0.00080348;0.000282801;0.00107574;0;0.0177687;-0.0332098;-0.0268241;-0.162705;0.168212;-6.56387;0.000291043;-5.95055e-05;-0.000104774;0.000299795;-0.000113526;0.000206661;2.77783;0.359994;0.000246576;0.000275547;2.64077;0.378678;34.8138;79.8138;-0.00398763;0.000289856;0.00142254;-0.00154213;-0.000105784;-0.000887381;-0.00425183;0;0.027267;-0.00307666;2.60149
62000;63;25.7627;0.0075784;0.000294248;-2.28225;25.6589;0.355675;-0.0320198;0.00549888;-0.048518;-0.000546638;-0.0257742;-0.102921;0.106101;-6.9351;0.000268826;0.000604697;-0.000233825;0.000672346;-0.000637345;0.000654846;1.14969;0.869802;0.000756241;0.000873128;1.05492;0.947942;78.2488;123.249;-0.00375283;0.00026888;0.00171628;-0.000507442;-0.000235116;0.000498424;0.000364633;0;0.0219073;-0.0327097;-0.0300431;-0.158074;0.164195;-6.55924;-1.89221e-06;4.28759e-05;-0.000129729;1.11563e-05;-0.000142777;7.69667e-05;;;9.91131e-05;0.000102622;0.078138;12.7979;63.2256;108.226;-0.00360878;-2.85069e-06;0.00147077;-0.0013852;-0.000130809;-0.00227189;-0.00322473;0;0.0283775;-0.00281949;2.60892
63000;64;25.7621;0.00694002;0.000269462;-2.28095;25.6585;0.347857;-0.0307252;0.00508023;-0.0563364;0.000525219;-0.0273331;-0.110429;0.113763;-6.9426;0.000150226;0.000207166;-0.00024232;0.000239332;-0.000331425;0.000285379;0.61995;1.61303;0.000330954;0.000380505;0.722129;1.38479;69.3438;114.344;-0.00346775;0.000149743;0.00141896;-0.0010051;-0.000243306;-0.000800107;0.000641405;0;0.0218154;-0.0314336;-0.0296271;-0.175351;0.180593;-6.57651;0.000238401;4.05451e-05;-9.76948e-06;0.000244857;-1.62256e-05;0.000130541;;;0.000168906;0.000174055;15.0907;0.0662658;51.4093;96.4093;-0.0044208;0.000237674;0.0012868;-0.00120602;-1.05966e-05;0.00157981;-0.00201383;0;0.0227414;-0.00247733;2.6157
64000;65;25.7608;0.00571621;0.000221945;-2.28087;25.6573;0.345372;-0.0306369;0.0038929;-0.0588209;0.00115484;-0.0301952;-0.111285;0.115314;-6.94346;7.64349e-05;0.000347643;-0.000399566;0.000259742;-0.000582872;0.000421307;0.191295;5.22752;0.000498265;0.000561743;0.445624;2.24405;76.3241;121.324;-0.00340111;7.60412e-05;0.00164778;-0.000953117;-0.000400863;-0.000135036;0.00307161;0;0.0162198;-0.0306213;-0.0320534;-0.176514;0.181995;-6.57768;5.30865e-05;0.000142161;-0.000117246;0.00013364;-0.000197799;0.000165719;0.452779;2.20858;0.000192548;0.000220959;0.675633;1.48009;75.0758;120.076;-0.00478074;5.19812e-05;0.00177768;-0.00149364;-0.000118816;0.00171529;-0.000311854;0;0.0259698;-0.00249744;2.62233
65000;66;25.7604;0.00528438;0.000205178;-2.28068;25.657;0.338499;-0.0304535;0.00356723;-0.0656943;0.000768331;-0.035048;-0.107803;0.113359;-6.93998;2.49968e-05;0.000346659;-0.000374348;0.000225376;-0.000574727;0.000400052;0.0667743;14.9758;0.000476392;0.000533402;0.392145;2.55008;78.7066;123.707;-0.00320485;2.45573e-05;0.00169244;-0.000999664;-0.000375721;-0.000830509;0.00147918;0;0.0140783;-0.0303988;-0.0355449;-0.176435;0.182529;-6.5776;-0.00012713;0.000193549;-5.92144e-05;0.000103333;-0.000289678;0.000196505;-2.14694;-0.465779;0.000235253;0.000262007;0.356718;2.80333;96.9669;141.967;-0.0045875;-0.000127752;0.00151909;-0.00113191;-6.03496e-05;-0.000571336;-0.00102501;0;0.0257768;-0.00169924;2.62939
66000;67;25.7601;0.00500047;0.000194155;-2.28008;25.6568;0.336223;-0.0298497;0.00336576;-0.0679696;0.00237819;-0.0319828;-0.119183;0.123422;-6.95136;0.000145709;0.000453126;-0.000540486;0.000370977;-0.000765753;0.000568365;0.269589;3.70935;0.000669354;0.00075782;0.48446;2.06416;75.7337;120.734;-0.00280332;0.000145454;0.00175207;-0.000846709;-0.000541919;-0.00161735;0.000901478;0;0.0216508;-0.0282365;-0.0323638;-0.192069;0.196813;-6.59323;7.55856e-05;0.000139455;2.30312e-05;0.000191218;-9.26011e-05;0.00014191;-3.28188;-0.304704;0.000167128;0.000189213;2.06496;0.48427;83.6533;128.653;-0.00452074;7.47688e-05;0.00156454;-0.0012857;2.18171e-05;0.000907468;0.000165605;0;0.0259577;-0.00142453;2.63031
67000;68;25.7584;0.00328713;0.00012763;-2.27953;25.6553;0.327479;-0.0292966;0.00180778;-0.0767141;0.00137599;-0.0320162;-0.128195;0.13214;-6.96037;0.00026939;0.000306747;-0.000163056;0.000428461;-0.000322128;0.000375295;1.65213;0.60528;0.0004348;0.000500393;1.3301;0.751825;71.115;116.115;-0.00268889;0.000269046;0.00149741;-0.000884434;-0.00016413;-0.00139547;0.0012483;0;0.0330036;-0.0290646;-0.0312472;-0.206621;0.210982;-6.60778;0.000216349;9.97998e-05;-0.000180909;0.000240011;-0.000204572;0.000222292;1.1959;0.836192;0.000256952;0.000296389;1.17324;0.852341;57.8792;102.879;-0.00476238;0.000215806;0.00124588;-0.00104674;-0.00018168;0.00171519;0.000296285;0;0.0275906;-0.00128434;2.64027
68000;69;25.7602;0.00507243;0.000196948;-2.27985;25.657;0.332301;-0.0296169;0.0035098;-0.0718922;0.00379928;-0.0356294;-0.119497;0.124753;-6.95167;8.96458e-05;0.00021353;-0.000234921;0.000195562;-0.000340837;0.0002682;0.381599;2.62055;0.000313454;0.0003576;0.57377;1.74286;72.9755;117.975;-0.0029769;8.9089e-05;0.00150328;-0.00107664;-0.000236028;-0.000605556;0.00141235;0;0.0136923;-0.0265296;-0.0353344;-0.196825;0.201723;-6.59799;0.000110391;0.000238047;-0.000116382;0.000260676;-0.000266667;0.000263672;0.94853;1.05426;0.000304468;0.000351562;0.977537;1.02298;77.3296;122.33;-0.00444895;0.000110069;0.0013135;-0.00083765;-0.000117216;-0.000179393;0.0016617;0;0.0279484;-0.000553589;2.64429
69000;70;25.7586;0.00344078;0.000133596;-2.2788;25.6555;0.322122;-0.0285677;0.00209462;-0.0820714;0.00382996;-0.0349123;-0.130888;0.135518;-6.96306;0.000302266;0.000224734;-0.000408238;0.000367382;-0.000473354;0.000420368;0.740415;1.35059;0.000486683;0.000560491;0.776124;1.28845;62.4271;107.427;-0.00300543;0.000301834;0.00140461;-0.00095598;-0.0004092;-0.00105933;0.00206718;0;0.0140286;-0.0259315;-0.0338466;-0.213444;0.217661;-6.61461;0.000138431;0.00026701;-6.8319e-05;0.000321379;-0.000251267;0.000286323;2.02625;0.493524;0.000331442;0.000381763;1.27903;0.78184;78.5769;123.577;-0.00506765;0.000138013;0.00148607;-0.000952306;-6.93876e-05;0.00282971;0.00195756;0;0.0284742;-0.000499121;2.65164
70000;71;25.7573;0.00219365;8.51734e-05;-2.27923;25.6543;0.31889;-0.0290029;0.000844206;-0.0853035;0.00413343;-0.0359523;-0.131062;0.135967;-6.96324;0.000193636;0.000249034;-0.000629003;0.000263152;-0.000698518;0.000480835;0.307847;3.24837;0.000573872;0.000641113;0.376728;2.65443;65.6463;110.646;-0.00337722;0.000193198;0.00146622;-0.000969152;-0.000630047;-0.000770112;0.00196124;0;0.0193567;-0.0258297;-0.0346474;-0.215311;0.219605;-6.61647;0.000187132;0.000358573;-0.000191416;0.00040332;-0.000407604;0.000405462;0.977619;1.02289;0.000468189;0.000540616;0.98949;1.01062;76.1296;121.13;-0.00513697;0.000186957;0.00140898;-0.000692233;-0.000192345;0.00381391;0.00308535;0;0.0278851;0.000142614;2.65949
71000;72;25.7565;0.00142331;5.52633e-05;-2.27866;25.6536;0.316516;-0.0284303;0.000151034;-0.087677;0.00621039;-0.0380728;-0.129904;0.135511;-6.96208;0.000319821;0.000385575;-0.000405225;0.000486534;-0.000571938;0.000529236;0.789244;1.26704;0.000611772;0.000705648;0.850676;1.17554;69.4251;114.425;-0.00270912;0.0003196;0.00153961;-0.000769296;-0.000406337;-0.00224589;0.0019291;0;0.014129;-0.0233813;-0.0361976;-0.215429;0.219697;-6.61659;7.29776e-05;0.000323751;-4.73216e-05;0.00034212;-0.000316464;0.000329292;1.54216;0.64844;0.000380329;0.000439055;1.08107;0.925009;84.4264;129.426;-0.00463825;7.25978e-05;0.00157712;-0.000929765;-4.85129e-05;0.00101268;0.00266073;0;0.0266173;0.000224864;2.66587
72000;73;25.7571;0.00197336;7.662e-05;-2.27968;25.6541;0.312884;-0.0294542;0.000656873;-0.091309;0.0057703;-0.0379533;-0.134697;0.140061;-6.96687;0.000186309;0.000267791;-0.000308372;0.000303509;-0.000425571;0.00036454;0.604171;1.65516;0.000422896;0.000486053;0.71318;1.40217;70.0458;115.046;-0.00295609;0.000185887;0.00149203;-0.000957057;-0.000309449;-0.00180513;0.00359546;0;0.0246171;-0.0242136;-0.0358341;-0.225486;0.229596;-6.62665;0.000174601;0.000373232;-2.95107e-05;0.000459478;-0.000314388;0.000386933;5.91651;0.169018;0.000449402;0.000515911;1.4615;0.684229;80.5974;125.597;-0.0044006;0.000174334;0.00156679;-0.000820572;-3.06685e-05;0.00333281;0.00380982;0;0.0302212;0.000554048;2.67332
73000;74;25.7556;0.000450658;1.74978e-05;-2.27907;25.6527;0.309709;-0.0288388;-0.000778728;-0.0944836;0.00668181;-0.0406505;-0.133525;0.139736;-6.9657;0.000192825;0.000317965;-0.000699315;0.000294551;-0.000801041;0.000547796;0.275733;3.62669;0.000654684;0.000730395;0.36771;2.71954;69.0808;114.081;-0.00289706;0.000192551;0.00143997;-0.000805042;-0.000700302;-0.00140017;0.0026422;0;0.0250228;-0.0230669;-0.038567;-0.222411;0.226906;-6.62357;5.87306e-05;0.000423641;3.11931e-05;0.000468827;-0.000378903;0.000423865;-1.88281;-0.531121;0.000490354;0.000565153;1.23733;0.808194;87.8255;132.826;-0.00434304;5.86256e-05;0.0014713;-0.00062405;3.02005e-05;0.00176033;0.00177603;0;0.0348792;0.000446574;2.68057
74000;75;25.7536;-0.00148168;-5.75293e-05;-2.27813;25.6509;0.305647;-0.0279031;-0.00258697;-0.0985462;0.00595978;-0.0402332;-0.138623;0.144466;-6.9708;0.000183161;0.000251351;-0.000605519;0.000256455;-0.000678813;0.000467634;0.302486;3.30594;0.000558028;0.000623512;0.377799;2.64691;66.3794;111.379;-0.00276782;0.000182775;0.00141527;-0.000913483;-0.000606489;-0.00185844;0.0021781;0;0.0136228;-0.02291;-0.0365912;-0.232578;0.23655;-6.63374;0.000168376;0.000381555;-4.61957e-05;0.000457441;-0.000335261;0.000396351;3.64484;0.27436;0.000459475;0.000528468;1.36443;0.732905;80.3653;125.365;-0.00446219;0.000168264;0.00137006;-0.00060716;-4.70615e-05;0.00279571;0.00392148;0;0.0255848;0.000462293;2.68811
75000;76;25.7562;0.00106745;4.1446e-05;-2.27915;25.6533;0.306883;-0.0289168;-0.00013243;-0.0973099;0.00984007;-0.0426467;-0.140159;0.146834;-6.97233;0.000173;0.000269902;-0.00034432;0.000288174;-0.000459494;0.000373834;0.50244;1.99029;0.000435428;0.000498446;0.627156;1.5945;70.2069;115.207;-0.00294975;0.000172641;0.0014281;-0.000888897;-0.000345303;-0.00107599;0.00157618;0;0.0144295;-0.0196911;-0.0393636;-0.240211;0.24421;-6.64137;0.000301405;0.000289226;6.30858e-05;0.000495056;-0.000130566;0.000312811;-4.77769;-0.209306;0.000381089;0.000417081;3.79162;0.263739;74.0594;119.059;-0.0050631;0.000301123;0.00138311;-0.000804919;6.21712e-05;0.00418348;0.00205385;0;0.0294981;0.000516944;2.69536
76000;77;25.7552;3.82513e-05;1.48519e-06;-2.27969;25.6523;0.303606;-0.0294567;-0.00117474;-0.100587;0.00699694;-0.043009;-0.138158;0.144866;-6.97033;4.10233e-05;0.000329029;-0.000704121;0.000165513;-0.000828611;0.000497062;0.0582617;17.1639;0.000615047;0.000662749;0.199747;5.00633;73.7894;118.789;-0.00260433;4.07452e-05;0.00147238;-0.000815173;-0.000705152;-0.00160429;0.00232055;0;0.0150904;-0.022663;-0.0400566;-0.237241;0.241664;-6.6384;0.000289983;0.000453065;-1.04755e-05;0.000617076;-0.000337569;0.000477322;27.682;0.0361245;0.000558984;0.00063643;1.828;0.547046;76.8077;121.808;-0.00460417;0.00028994;0.00144595;-0.000540119;-1.14183e-05;0.00405635;0.00241017;0;0.0244421;0.000640685;2.70096
77000;78;25.7538;-0.00132001;-5.12525e-05;-2.28117;25.6508;0.298305;-0.0309399;-0.00260811;-0.105888;0.00978439;-0.0434786;-0.142243;0.149061;-6.97442;0.000114373;0.000238321;-0.000615719;0.00018528;-0.000686626;0.000435953;0.185755;5.38343;0.00053041;0.000581271;0.269842;3.70588;68.0379;113.038;-0.00305586;0.00011404;0.0013263;-0.000850454;-0.000616571;-0.00102312;0.00170161;0;0.0147761;-0.0203641;-0.0397041;-0.243324;0.247382;-6.64449;0.000458111;0.000393025;3.17635e-05;0.000692052;-0.000202178;0.000447115;-14.4225;-0.0693359;0.000541491;0.000596153;3.42299;0.292142;70.5935;115.594;-0.00509525;0.000457732;0.0017408;-0.000955325;3.03256e-05;0.00531489;0.000774559;0;0.0246603;0.000623321;2.70547
78000;79;25.7557;0.000552089;2.14361e-05;-2.28027;25.6527;0.30502;-0.0300442;-0.00072783;-0.0991729;0.0118964;-0.0441399;-0.144368;0.151433;-6.97654;0.000207915;0.00038481;-0.000415029;0.000391512;-0.000598626;0.000495069;0.500966;1.99615;0.00057581;0.000660092;0.654018;1.52901;73.3449;118.345;-0.0024448;0.000207777;0.00142069;-0.000651716;-0.000415964;-0.00226923;0.00189985;0;0.0189459;-0.0183074;-0.0405932;-0.247719;0.25169;-6.64888;0.000412873;0.000411211;-6.20581e-05;0.000650259;-0.000299444;0.000474852;6.65301;0.150308;0.000560642;0.000633136;2.17155;0.4605;70.8662;115.866;-0.00472087;0.000412635;0.00162416;-0.000802317;-6.32926e-05;0.00393241;0.00186287;0;0.025779;0.000589689;2.71153
79000;80;25.7558;0.000657023;2.55104e-05;-2.27965;25.6529;0.304578;-0.0294169;-0.000561463;-0.0996154;0.0124589;-0.0446719;-0.148763;0.155825;-6.98094;0.000105983;0.000387867;-0.000638711;0.0002713;-0.000804028;0.000537664;0.165932;6.02657;0.000645737;0.000716885;0.337426;2.96362;75.1334;120.133;-0.00279748;0.000105833;0.00144561;-0.000670667;-0.000639681;-0.00152592;0.00273421;0;0.0127877;-0.0178442;-0.0422705;-0.251915;0.25606;-6.65308;0.000231111;0.000410652;8.79833e-05;0.000576388;-0.000257293;0.000416841;-2.62676;-0.380696;0.000492939;0.000555788;2.2402;0.446389;81.0238;126.024;-0.00388089;0.000230937;0.00154098;-0.000719843;8.68804e-05;0.00166925;0.00117951;0;0.0241368;0.000826022;2.71854
80000;81;25.7557;0.000597189;2.31872e-05;-2.2808;25.6527;0.304673;-0.0305673;-0.000724921;-0.0995204;0.0142612;-0.0442293;-0.151636;0.158597;-6.98381;0.000146717;0.000314086;-0.000445935;0.0002822;-0.000581418;0.000431809;0.329009;3.03943;0.000508488;0.000575746;0.485365;2.06031;72.2473;117.247;-0.00268267;0.00014647;0.00139754;-0.000770012;-0.000446863;-0.0020774;0.00276872;0;0.0185877;-0.0161399;-0.0416014;-0.257484;0.261322;-6.65865;0.000404283;0.000337464;0.000110738;0.000625511;-0.00011049;0.000368001;-3.65082;-0.273911;0.000458299;0.000490667;5.66123;0.17664;73.4001;118.4;-0.00426642;0.000403647;0.00185175;-0.00117727;0.00010908;0.00237629;0.000697067;0;0.0288984;0.00115374;2.72531
81000;82;25.756;0.000896347;3.48027e-05;-2.28011;25.6531;0.301818;-0.0298805;-0.000329762;-0.102375;0.0145906;-0.0460546;-0.153853;0.16126;-6.98603;0.000130458;0.000420706;-0.00063371;0.000316689;-0.000819941;0.000568315;0.205864;4.85758;0.000677335;0.000757753;0.386234;2.58911;75.548;120.548;-0.00310101;0.000130343;0.00147868;-0.000638081;-0.000634716;-0.00111213;0.00221982;0;0.0174469;-0.0159782;-0.0435671;-0.262614;0.266682;-6.66378;0.00027082;0.000298268;4.01641e-05;0.00047528;-0.000164296;0.000319788;-6.74285;-0.148305;0.000383534;0.000426384;2.89283;0.345682;76.1862;121.186;-0.00416173;0.000270284;0.00167389;-0.00107767;3.88077e-05;0.00259955;-0.00072114;0;0.0256677;0.00124312;2.73255
82000;83;25.7535;-0.00162004;-6.29015e-05;-2.2796;25.6507;0.296621;-0.0293661;-0.0027499;-0.107572;0.0151225;-0.0473905;-0.155872;0.163618;-6.98805;0.000246954;0.000426812;-0.000592124;0.000425898;-0.000771068;0.000598483;0.417065;2.39771;0.000700581;0.000797977;0.552348;1.81045;72.6478;117.648;-0.00317279;0.000246883;0.00142217;-0.000569381;-0.000593044;-0.00154774;0.00227862;0;0.0134036;-0.0154394;-0.0445355;-0.267953;0.272067;-6.66912;0.000299593;0.000200289;2.24106e-05;0.000404565;-8.25621e-05;0.000243564;-13.3683;-0.0748036;0.000301029;0.000324752;4.90014;0.204076;69.126;114.126;-0.00370834;0.000299002;0.00150598;-0.00110576;2.12967e-05;0.00198631;-0.000865629;0;0.0227874;0.00195303;2.7397
83000;84;25.756;0.000896908;3.48245e-05;-2.2795;25.6532;0.300579;-0.0292683;-0.00026025;-0.103614;0.0171013;-0.0471572;-0.158331;0.166088;-6.99051;0.000154645;0.000547915;-0.000617862;0.000438767;-0.000901984;0.000670375;0.25029;3.99536;0.000789332;0.000893834;0.486446;2.05572;78.8624;123.862;-0.00266942;0.000154689;0.00155578;-0.000460733;-0.000618923;-0.00184025;0.00323215;0;0.0156993;-0.0137703;-0.0451298;-0.271052;0.275128;-6.67221;0.000179466;0.000229691;1.27975e-05;0.000340473;-0.000148209;0.000244341;-14.0235;-0.0713086;0.000289327;0.000325788;2.29725;0.435303;78.1044;123.104;-0.00354307;0.000178755;0.00167378;-0.00121464;1.14231e-05;0.000431694;-0.00368273;0;0.0258135;0.00230689;2.74759
84000;85;25.7575;0.00239368;9.29402e-05;-2.27981;25.6547;0.299636;-0.0295817;0.00122572;-0.104557;0.0169411;-0.0475918;-0.160964;0.168705;-6.99314;0.000270657;0.000590542;-0.00111719;0.000487926;-0.00133445;0.00091119;0.242267;4.12768;0.00108933;0.00121492;0.365637;2.73495;76.1714;121.171;-0.00274432;0.000270726;0.00163856;-0.000458931;-0.00111836;-0.00191618;0.00362372;0;0.0120934;-0.0138823;-0.0458807;-0.27648;0.280604;-6.67764;0.000218353;0.000116536;-7.60663e-05;0.000258897;-0.00011661;0.000187754;2.87057;0.348363;0.000221926;0.000250338;2.2202;0.450411;62.7199;107.72;-0.00330848;0.000217522;0.00152757;-0.00129491;-7.72263e-05;0.00178095;-0.00379768;0;0.0217752;0.00286126;2.75425
85000;86;25.758;0.00287325;0.00011156;-2.28011;25.6552;0.295979;-0.0298795;0.00172318;-0.108214;0.0177574;-0.049618;-0.16192;0.17028;-6.9941;7.99159e-06;0.000440644;-0.00118666;0.000152937;-0.0013316;0.000742269;;;0.000942856;0.000989692;0.114852;8.70688;79.7649;124.765;-0.00286121;7.98182e-06;0.00134251;-0.000462301;-0.00118746;-0.000995111;0.00329675;0;0.0142805;-0.0132324;-0.0492028;-0.27933;0.283939;-6.68049;7.81367e-05;3.31744e-05;-0.00033894;8.07589e-05;-0.000341562;0.00021116;0.230533;4.33778;0.000258861;0.000281547;0.23644;4.2294;52.0546;97.0546;-0.00223039;7.71225e-05;0.00149041;-0.00142467;-0.00034005;-0.00392128;-0.00228611;0;0.0232208;0.0032451;2.76188
86000;87;25.7594;0.00431551;0.000167559;-2.27978;25.6567;0.292858;-0.0295468;0.00323661;-0.111335;0.0193028;-0.0539364;-0.163119;0.172886;-6.99529;0.000103197;0.000396597;-0.000862804;0.000245159;-0.00100477;0.000624963;0.119607;8.36075;0.000764776;0.000833283;0.243996;4.09842;75.0169;120.017;-0.00298169;0.000103089;0.00140248;-0.000610264;-0.000863709;-0.00145536;0.00499343;0;0.0199265;-0.0116733;-0.0559786;-0.280335;0.286108;-6.6815;1.86783e-05;-7.8624e-05;-0.0003918;3.32227e-05;-0.000406345;0.000219784;0.0476729;20.9763;0.000282622;0.000293045;0.0817599;12.2309;38.2931;83.2931;-0.00249001;1.75871e-05;0.00132152;-0.00147934;-0.000392671;-0.00525348;-0.00183831;0;0.0268016;0.00335056;2.76852
87000;88;25.759;0.00384278;0.000149204;-2.28111;25.6562;0.286241;-0.0308759;0.00271851;-0.117952;0.0209234;-0.0517379;-0.17331;0.182074;-7.00549;0.000102693;0.000455916;-0.000951291;0.000272537;-0.00112114;0.000696836;0.107951;9.26344;0.000852909;0.000929115;0.24309;4.1137;76.7321;121.732;-0.00304484;0.000102639;0.00147301;-0.000562249;-0.000952273;-0.00144767;0.00406259;0;0.0120875;-0.0113078;-0.0532143;-0.295915;0.300875;-6.69708;0.000242037;-0.000112059;-0.000535737;0.00025786;-0.00055156;0.00040471;0.451782;2.21345;0.000477463;0.000539613;0.46751;2.13899;39.8562;84.8562;-0.00307471;0.00024084;0.00132595;-0.00155119;-0.00053661;-0.00184156;-0.0042109;0;0.0228035;0.00380074;2.77372
88000;89;25.7604;0.00527023;0.000204628;-2.28019;25.6577;0.280879;-0.029958;0.00429254;-0.123314;0.0231524;-0.0539023;-0.175442;0.18499;-7.00762;9.14963e-05;0.000389685;-0.00134809;0.000190212;-0.00144681;0.000818509;0.0678711;14.7338;0.00103379;0.00109135;0.13147;7.60629;75.5305;120.53;-0.0031357;9.13977e-05;0.0013689;-0.000590942;-0.00134895;-0.000493264;0.00499414;0;0.0164478;-0.00870755;-0.0564207;-0.302672;0.308009;-6.70383;0.000264263;-6.82809e-05;-0.000177161;0.000274584;-0.000187482;0.000231033;1.49166;0.670396;0.000268349;0.000308043;1.46459;0.682785;35.5604;80.5604;-0.00447367;0.00026301;0.00144754;-0.00158477;-0.000178206;-0.00258412;-0.00299767;0;0.0235294;0.00392594;2.7807
89000;90;25.7621;0.00693822;0.000269392;-2.2812;25.6593;0.283096;-0.0309707;0.00585283;-0.121097;0.0202447;-0.0548828;-0.1782;0.187556;-7.01038;4.17122e-05;0.00050187;-0.000860701;0.000265384;-0.00108437;0.000674879;0.0484631;20.6343;0.000825717;0.000899838;0.244735;4.08605;81.1938;126.194;-0.00274511;4.17572e-05;0.00140523;-0.000402311;-0.000861563;-0.00133967;0.00503957;0;0.0115081;-0.0114198;-0.0578851;-0.306022;0.311657;-6.70718;0.000202092;9.76121e-06;-0.000105578;0.000202402;-0.000105887;0.000154145;1.91416;0.522424;0.000180875;0.000205526;1.91148;0.523154;45.6975;90.6975;-0.00435085;0.000201315;0.00126589;-0.00124675;-0.000106379;-0.000241482;-0.00206071;0;0.0232334;0.00415204;2.78427
90000;91;25.7629;0.00780084;0.000302885;-2.28085;25.6602;0.28507;-0.0306188;0.00672833;-0.119123;0.0226678;-0.0588692;-0.174342;0.185404;-7.00652;6.72821e-05;0.000315224;-0.000891339;0.000161648;-0.000985705;0.000573676;0.0754843;13.2478;0.000717118;0.000764902;0.163992;6.09785;72.805;117.805;-0.0033589;6.70942e-05;0.00131879;-0.000689308;-0.00089216;8.35587e-05;0.00576859;0;0.0127266;-0.00931374;-0.0611027;-0.305844;0.312027;-6.70701;1.43716e-05;0.000206756;-0.000165046;0.000150042;-0.000300716;0.000225379;0.0870765;11.4842;0.000265047;0.000300505;0.498949;2.00421;79.8522;124.852;-0.00394401;1.37414e-05;0.0015548;-0.00114153;-0.000166233;-0.00255774;-0.00175979;0;0.0233375;0.00430612;2.79106
91000;92;25.7604;0.00524039;0.00020347;-2.28188;25.6576;0.277821;-0.031648;0.00414563;-0.126372;0.0247128;-0.0613468;-0.179206;0.191021;-7.01138;0.000125399;1.21693e-05;-0.000272751;0.00012577;-0.000273123;0.000199447;0.459754;2.17508;0.000235481;0.000265929;0.460489;2.1716;48.5122;93.5122;-0.00377704;0.000124712;0.00119605;-0.00117218;-0.000273467;0.00179643;0.0046698;0;0.0345606;-0.00828234;-0.0626133;-0.31173;0.318063;-6.71289;7.51669e-05;0.000248367;-0.000183118;0.00022596;-0.000333911;0.000279936;0.410484;2.43615;0.000325239;0.000373248;0.676708;1.47774;77.4473;122.447;-0.00424495;7.46598e-05;0.0015337;-0.0010373;-0.000184263;-0.00271003;-0.000983774;0;0.03273;0.00424891;2.79834
92000;93;25.7624;0.00731645;0.000284078;-2.28125;25.6598;0.275903;-0.0310244;0.00630616;-0.12829;0.0233006;-0.0590102;-0.182736;0.193436;-7.01491;-7.52945e-05;0.000216039;-0.000765897;-1.32805e-05;-0.000827911;0.000407315;-0.098309;-10.172;0.000547567;0.000543087;-0.016041;-62.3404;70.5399;115.54;-0.00357177;-7.57712e-05;0.00143118;-0.000999947;-0.000766898;0.000833844;0.00755965;0;0.0168145;-0.00881193;-0.0614864;-0.319175;0.325163;-6.72034;-6.84405e-06;9.05387e-05;-0.000146996;3.75696e-05;-0.00019141;0.00011449;;;0.000141799;0.000152653;0.196278;5.0948;72.7268;117.727;-0.00469044;-7.64842e-06;0.00145247;-0.00127158;-0.000148047;-0.0013471;-0.00116664;0;0.0299695;0.00436717;2.80629
93000;94;25.7617;0.00657904;0.000255446;-2.28085;25.659;0.279212;-0.0306194;0.005566;-0.124981;0.0260296;-0.0621934;-0.186273;0.198099;-7.01845;-8.07398e-05;8.24721e-05;-0.000566346;-6.71155e-05;-0.000579971;0.000256428;-0.142563;-7.01447;0.00036633;0.000341903;-0.115722;-8.64138;62.2229;107.223;-0.00349117;-8.1306e-05;0.00123167;-0.00106728;-0.000567102;0.00180839;0.0066799;0;0.0140543;-0.00564094;-0.0642516;-0.323672;0.330036;-6.72484;-9.83735e-06;0.00027858;-0.000173764;0.000198587;-0.000382189;0.000290388;;;0.00034085;0.000387184;0.519604;1.92454;84.0044;129.004;-0.00450507;-1.02075e-05;0.00146136;-0.000904395;-0.000174794;-0.00307305;-0.00174663;0;0.0251921;0.0043732;2.81345
94000;95;25.7577;0.00253836;9.85576e-05;-2.27895;25.6553;0.262875;-0.0287236;0.00185022;-0.141318;0.0264571;-0.0640623;-0.187045;0.199474;-7.01922;7.35785e-06;0.000141191;8.30527e-05;0.000191381;-0.000100971;0.000146176;;;0.000171459;0.000194901;1.89542;0.527589;96.3886;141.389;-0.00297188;6.82882e-06;0.00132074;-0.00103827;8.21906e-05;0.000527469;0.00720127;0;0.01567;-0.00377375;-0.063287;-0.333031;0.339012;-6.73419;-0.000172991;0.000289635;-4.36576e-05;0.000188442;-0.000405091;0.000296767;-3.96246;-0.252368;0.000350204;0.000395689;0.465185;2.14968;98.6854;143.685;-0.00480714;-0.000173444;0.00157383;-0.000994394;-4.48541e-05;-0.00308779;-9.27772e-05;0;0.0246205;0.00448982;2.82096
95000;96;25.7593;0.00415929;0.000161494;-2.28092;25.6567;0.269617;-0.0306869;0.00323318;-0.134576;0.0262583;-0.067355;-0.180537;0.194473;-7.01271;0.000144739;-1.28441e-05;-0.000121131;0.000145358;-0.00012175;0.000133554;1.19489;0.836896;0.000154416;0.000178072;1.1939;0.837591;41.943;86.943;-0.00311939;0.000143996;0.00119297;-0.00121898;-0.000121843;0.00088068;0.00680528;0;0.0215827;-0.0057768;-0.0683618;-0.321658;0.328893;-6.72282;-0.000146678;0.000286589;-0.000159768;0.00013344;-0.000439887;0.000286663;-0.918068;-1.08924;0.000346413;0.000382218;0.303351;3.29651;93.1056;138.106;-0.00416179;-0.000147015;0.00144214;-0.000868977;-0.000160767;-0.00537678;-0.0018781;0;0.0245875;0.00480036;2.82832
96000;97;25.7581;0.00298869;0.000116043;-2.28037;25.6557;0.258552;-0.030144;0.00222006;-0.145641;0.0312793;-0.0657549;-0.195469;0.208591;-7.02764;0.000126597;-7.43478e-05;0.000185382;0.000235936;7.60423e-05;7.9947e-05;-0.682895;-1.46435;0.000139056;0.000106596;-3.1027;-0.3223;165.253;30.2532;-0.00397691;0.00012588;0.0010513;-0.00119993;0.000184832;0.00176336;0.00621773;0;0.0196048;-0.000622612;-0.0672644;-0.340096;0.346685;-6.74126;-4.3619e-05;0.000483411;-7.44445e-06;0.000458217;-0.000509281;0.000483749;;;0.000558845;0.000644999;0.899734;1.11144;91.6095;136.609;-0.00344869;-4.38464e-05;0.00179665;-0.000829784;-8.9416e-06;-0.00712119;-0.00244335;0;0.0259889;0.00511017;2.83602
97000;98;25.7575;0.00238589;9.26375e-05;-2.27982;25.6552;0.253479;-0.029586;0.00171507;-0.150714;0.0313411;-0.0649764;-0.198985;0.211659;-7.03116;8.89539e-05;-0.000220845;-2.60066e-05;0.000259676;-0.000196729;0.000228203;3.42043;0.292361;0.00026434;0.00030427;1.31997;0.757594;6.55267;51.5527;-0.00389487;8.79036e-05;0.00102429;-0.00146612;-2.65068e-05;0.00195419;0.007792;0;0.011312;-0.000492558;-0.0658285;-0.347122;0.353309;-6.74828;1.51584e-05;0.000428008;-7.18403e-06;0.000432141;-0.000424166;0.000428153;;;0.000494396;0.000570871;1.0188;0.981547;89.1402;134.14;-0.00404297;1.49501e-05;0.00163047;-0.000774478;-8.42166e-06;-0.00460611;0.00108994;0;0.0282162;0.00571589;2.84206
98000;99;25.756;0.000901004;3.49835e-05;-2.27862;25.6538;0.252042;-0.0283921;0.000344493;-0.152151;0.0335325;-0.0664121;-0.202794;0.21601;-7.03497;0.00014852;1.09868e-05;0.000412905;0.000413361;0.000148065;0.000132648;-0.359696;-2.78012;0.000241832;0.000176864;-2.79176;-0.358197;125.85;170.85;-0.00351055;0.000147851;0.00117924;-0.00115696;0.00041221;0.00122778;0.00681243;0;0.0118686;0.00183759;-0.0655118;-0.354261;0.360272;-6.75542;2.31955e-05;0.000370555;1.7372e-06;0.000383177;-0.000358244;0.00037071;;;0.00042814;0.00049428;1.0696;0.934932;88.9187;133.919;-0.00438109;2.25641e-05;0.0019243;-0.00118322;-4.56118e-08;-0.00269411;0.000333015;0;0.0257073;0.00575227;2.84721
99000;100;25.7539;-0.00125313;-4.86554e-05;-2.2781;25.6518;0.240095;-0.0278698;-0.00165723;-0.164098;0.0341035;-0.0686121;-0.204277;0.218173;-7.03645;0.00014167;-1.8767e-06;0.000272489;0.000272516;0.000141643;6.54364e-05;-0.519911;-1.92341;0.000157378;8.72486e-05;-1.92396;-0.519761;130.722;175.722;-0.00384625;0.000141001;0.00115307;-0.00115667;0.000271824;0.00193524;0.00650689;0;0.022373;0.00329871;-0.0681692;-0.359309;0.365734;-6.76047;-1.10828e-05;0.000407772;5.34475e-05;0.000430229;-0.000387864;0.000409046;0.207359;4.82256;0.000472537;0.000545395;1.10923;0.90153;91.6561;136.656;-0.00329785;-1.11909e-05;0.00143398;-0.000618369;5.25025e-05;-0.00443191;0.00173071;0;0.0254887;0.00643896;2.84985
100000;101;25.7542;-0.000870025;-3.37807e-05;-2.27766;25.6522;0.241964;-0.0274339;-0.00125146;-0.162229;0.0354105;-0.0691308;-0.209144;0.223101;-7.04132;0.000278805;-7.3728e-05;0.000455678;0.00048238;0.000252103;0.000115138;-0.611847;-1.6344;0.000278597;0.000153518;-1.91342;-0.522624;146.469;11.4686;-0.00296649;0.00027798;0.00113949;-0.00128674;0.000455032;0.0002153;0.00586217;0;0.0211731;0.00481477;-0.0675547;-0.365905;0.37212;-6.76707;0.000151225;0.00036052;5.18906e-05;0.000465482;-0.000262367;0.000363925;-2.9143;-0.343136;0.000425643;0.000485233;1.77416;0.563645;82.6613;127.661;-0.00328882;0.00015117;0.00121107;-0.000490116;5.12223e-05;-0.00157211;0.00328847;0;0.025895;0.00710245;2.85647
101000;102;25.7541;-0.000985228;-3.82537e-05;-2.27798;25.6521;0.239608;-0.027752;-0.00137325;-0.164585;0.0355444;-0.0703169;-0.213187;0.22728;-7.04536;0.000346938;-2.81914e-05;0.000529075;0.000533338;0.000342674;9.53323e-05;-0.655744;-1.52499;0.000312064;0.00012711;-1.5564;-0.642507;133.649;178.649;-0.0033246;0.000346169;0.00118423;-0.00124039;0.000528374;0.000779882;0.00720898;0;0.0131777;0.00485887;-0.068835;-0.370763;0.37713;-6.77193;0.000156587;0.00040841;4.10948e-05;0.000511313;-0.000313631;0.000412472;-3.81038;-0.262441;0.000480818;0.000549963;1.6303;0.613384;82.9426;127.943;-0.00292863;0.000156532;0.0013425;-0.000525787;4.02771e-05;-0.00538782;0.00295403;0;0.0262074;0.00753984;2.8638
102000;103;25.7559;0.00074576;2.89558e-05;-2.27725;25.6538;0.243698;-0.0270211;0.000390987;-0.160495;0.0378025;-0.0691894;-0.220887;0.234536;-7.05306;0.000289281;-0.000125007;0.000499251;0.00055751;0.000231022;0.000163244;-0.579431;-1.72583;0.000323448;0.000217658;-2.41323;-0.414382;151.808;16.8079;-0.00350063;0.000288206;0.00122185;-0.00147158;0.000498512;0.000409078;0.00632259;0;0.0136864;0.0077921;-0.0683802;-0.379431;0.385622;-6.78059;0.000158749;0.000420368;7.17493e-05;0.000537862;-0.000307363;0.000422613;-2.21256;-0.451966;0.000494003;0.000563483;1.74992;0.571454;83.0383;128.038;-0.00251829;0.000158758;0.00124126;-0.000400599;7.10674e-05;-0.00414491;0.00221355;0;0.0265771;0.00782881;2.86985
103000;104;25.7551;2.93574e-05;1.13987e-06;-2.27823;25.6531;0.239803;-0.0279975;-0.000378255;-0.16439;0.0393762;-0.0685553;-0.227389;0.240741;-7.05956;0.000226942;-0.000201282;0.000784899;0.000849931;0.00016191;0.000344011;-0.289136;-3.45858;0.000521104;0.000458681;-5.24941;-0.190497;142.203;7.20303;-0.00335599;0.000225846;0.00109253;-0.00149438;0.000784323;0.000119421;0.00561532;0;0.0146065;0.0090826;-0.0673251;-0.389266;0.395149;-6.79043;7.12638e-05;0.000519917;0.000161752;0.000638389;-0.000405374;0.000521881;-0.440575;-2.26976;0.000607602;0.000695842;1.57482;0.634995;88.2285;133.228;-0.00250271;7.1365e-05;0.00130012;-0.000260212;0.000161042;-0.00457199;0.00309709;0;0.0247973;0.00809731;2.87801
104000;105;25.7565;0.00141784;5.50508e-05;-2.27907;25.6544;0.243435;-0.0288434;0.000906407;-0.160758;0.0399596;-0.069251;-0.230005;0.243505;-7.06218;0.000335664;-8.36836e-05;0.00087732;0.000889954;0.00032303;0.000283462;-0.382602;-2.61368;0.000520207;0.000377949;-2.75502;-0.362974;129.734;174.734;-0.00328541;0.000334899;0.00107371;-0.00124045;0.000876748;-0.000715393;0.00431358;0;0.0137027;0.00982406;-0.0676487;-0.393693;0.399584;-6.79486;0.000190714;0.000427072;0.000108747;0.000578764;-0.000279303;0.000429034;-1.75375;-0.570207;0.000505362;0.000572045;2.07217;0.482586;82.7435;127.743;-0.0022967;0.000190671;0.001372;-0.00051793;0.000107897;-0.00516289;0.00256478;0;0.0249642;0.00809841;2.88532
105000;106;25.7544;-0.00073429;-2.85105e-05;-2.27826;25.6523;0.23925;-0.0280289;-0.00114256;-0.164943;0.0404353;-0.0719515;-0.22775;0.242244;-7.05993;0.000512531;-0.000100945;0.000217176;0.000543735;0.000185972;0.000178881;-2.35999;-0.423731;0.000319106;0.000238509;-2.92375;-0.342027;18.5307;63.5307;-0.00306201;0.000511831;0.000986177;-0.00118839;0.000216694;-0.000643145;0.00513723;0;0.0133636;0.0103987;-0.0689756;-0.394563;0.400682;-6.79573;0.000345398;0.000342623;7.15434e-05;0.000577442;-0.000160501;0.000368971;-4.82781;-0.207133;0.000448146;0.000491961;3.59775;0.277951;73.9352;118.935;-0.00316516;0.000345134;0.00148826;-0.000803327;7.04947e-05;-0.00253671;0.00268543;0;0.0246308;0.0081739;2.89308
106000;107;25.7548;-0.000300121;-1.16529e-05;-2.2786;25.6528;0.232703;-0.0283693;-0.000676675;-0.17149;0.0426209;-0.0706775;-0.234027;0.248154;-7.0662;0.00026916;-0.000130303;0.000346442;0.000443712;0.00017189;0.000135911;-0.776924;-1.28713;0.000258334;0.000181215;-2.58138;-0.38739;163.96;28.96;-0.00321723;0.000268402;0.000977512;-0.00123803;0.000345973;-0.000169766;0.00472582;0;0.0151333;0.0124747;-0.0678597;-0.404794;0.410632;-6.80596;0.000284337;0.000302571;0.000209122;0.000551629;-5.81697e-05;0.000304899;-1.35967;-0.735473;0.000388597;0.000406533;9.4831;0.105451;79.4999;124.5;-0.00337523;0.000284141;0.00130066;-0.000695594;0.000208322;-0.00167118;0.00245068;0;0.0252954;0.00818358;2.89925
107000;108;25.7542;-0.000900392;-3.49597e-05;-2.27771;25.6522;0.235351;-0.0274808;-0.00122458;-0.168842;0.0437998;-0.0748202;-0.226155;0.242204;-7.05833;0.000416253;-5.82072e-05;0.000452809;0.00049554;0.000373522;6.10094e-05;-0.91927;-1.08782;0.00029813;8.13459e-05;-1.32667;-0.753766;160.167;25.1669;-0.00324747;0.000415625;0.00100668;-0.00112306;0.000452304;0.000787474;0.00497106;0;0.0149045;0.0143241;-0.0705239;-0.400455;0.40687;-6.80162;0.00017012;0.000285946;0.000150722;0.000446532;-0.000125689;0.00028611;-1.1287;-0.885975;0.000347251;0.00038148;3.55268;0.281478;83.6921;128.692;-0.00236159;0.00017;0.0011392;-0.00056732;0.000150115;-0.0050162;0.00330705;0;0.0246161;0.00844587;2.90697
108000;109;25.7548;-0.000293954;-1.14134e-05;-2.27859;25.6528;0.234031;-0.0283627;-0.000681973;-0.170162;0.0456035;-0.0726053;-0.23645;0.251515;-7.06863;0.00032706;-1.7557e-05;0.000644232;0.0006452;0.000326091;0.000159555;-0.507675;-1.96977;0.000372514;0.00021274;-1.97859;-0.505411;125.766;170.766;-0.00304626;0.000326487;0.00103602;-0.0010708;0.000643695;-0.000717812;0.00533711;0;0.0147408;0.0158883;-0.0700767;-0.408715;0.414983;-6.80988;9.65261e-05;0.000337245;0.000180522;0.000478375;-0.000201326;0.00033985;-0.534705;-1.87019;0.000403145;0.000453134;2.37612;0.420855;89.96;134.96;-0.00232882;9.62885e-05;0.00144211;-0.00076753;0.000179539;-0.00547092;5.99378e-06;0;0.0246374;0.00861805;2.91455
109000;110;25.7546;-0.000534551;-2.07551e-05;-2.27814;25.6526;0.229172;-0.0279091;-0.000839381;-0.175021;0.0474904;-0.0718306;-0.244477;0.259199;-7.07665;0.000377075;-6.22548e-05;0.00015367;0.000393252;0.000137494;0.000127879;-2.45379;-0.407533;0.000230441;0.000170506;-2.86015;-0.349632;22.5638;67.5638;-0.00286951;0.000376572;0.000881018;-0.00100574;0.000153284;-0.000385357;0.00426686;0;0.0150054;0.0178992;-0.0694773;-0.419512;0.425603;-6.82067;0.000115671;0.000318691;2.30138e-05;0.000391383;-0.000252699;0.000322041;-5.02617;-0.198959;0.000374723;0.000429388;1.54881;0.645655;84.0972;129.097;-0.0020316;0.00011539;0.00145182;-0.000814544;2.20107e-05;-0.00708509;-0.000452088;0;0.0238172;0.00876829;2.91943
110000;111;25.7563;0.00122654;4.76232e-05;-2.2786;25.6543;0.236513;-0.0283709;0.000821073;-0.16768;0.0497933;-0.0742843;-0.240402;0.256497;-7.07258;0.000409252;-0.000124965;0.000854185;0.00088688;0.000376557;0.000255162;-0.479114;-2.08719;0.000513978;0.000340216;-2.35524;-0.424586;133.29;178.29;-0.00298401;0.000408646;0.000858952;-0.00110845;0.000853824;-0.00104473;0.00524491;0;0.0168443;0.020509;-0.0719805;-0.41557;0.422257;-6.81673;0.000190401;0.000295157;-1.86664e-05;0.000398988;-0.000227254;0.000313121;10.2002;0.0980373;0.000366065;0.000417495;1.75569;0.569575;77.8698;122.87;-0.00142118;0.000190168;0.00133322;-0.000743128;-1.95116e-05;-0.00877521;-0.000932208;0;0.0238142;0.00928537;2.92393
111000;112;25.7564;0.00127465;4.94911e-05;-2.27815;25.6544;0.234588;-0.027917;0.000927357;-0.169605;0.0510163;-0.0757589;-0.241138;0.257856;-7.07331;0.000259611;1.34631e-05;0.000704905;0.000705311;0.000259204;0.000223054;-0.368292;-2.71524;0.00041195;0.000297405;-2.72107;-0.367503;119.347;164.347;-0.00312897;0.000259205;0.000927789;-0.000900456;0.000704475;0.000183128;0.00422066;0;0.0145635;0.0215874;-0.072982;-0.421212;0.428033;-6.82237;4.87846e-05;0.000194589;-2.98504e-08;0.000220491;-0.000171737;0.000196114;;;0.000227035;0.000261485;1.28389;0.778881;85.8249;130.825;-0.00232913;4.83012e-05;0.00139151;-0.00100239;-9.79066e-07;-0.00672253;-0.00130343;0;0.0229748;0.00960158;2.92948
112000;113;25.7565;0.00133836;5.19648e-05;-2.27869;25.6544;0.232381;-0.0284574;0.000963421;-0.171812;0.0512132;-0.0762028;-0.24067;0.257588;-7.07285;0.000398385;2.87397e-05;0.000688894;0.00069171;0.000395569;0.00014807;-0.578296;-1.72922;0.000400732;0.000197427;-1.74865;-0.571871;115.256;160.256;-0.00331812;0.000397903;0.0010402;-0.000982432;0.000688353;0.000394121;0.00397552;0;0.0174104;0.0219028;-0.0740823;-0.421362;0.428385;-6.82252;4.58775e-05;0.000164108;-0.000201414;0.000127706;-0.000283243;0.000205475;0.227777;4.39026;0.00024286;0.000273966;0.450873;2.21792;73.3754;118.375;-0.00125698;4.53779e-05;0.00134088;-0.00101295;-0.0002023;-0.00823636;-0.002224;0;0.0254647;0.00996969;2.93613
113000;114;25.7538;-0.00136358;-5.29442e-05;-2.27635;25.652;0.226606;-0.0261204;-0.00149012;-0.177587;0.0522456;-0.0784387;-0.240149;0.257981;-7.07233;0.000312831;0.00015165;0.000878969;0.000917032;0.000274768;0.000321132;-0.355906;-2.80973;0.000543435;0.000428176;-3.33748;-0.299627;105.432;150.432;-0.00345685;0.000312487;0.00114681;-0.000842948;0.000878324;0.000697792;0.00454712;0;0.016225;0.0239978;-0.075161;-0.425317;0.432573;-6.82648;-0.000179612;0.000208494;-0.00016938;3.40606e-05;-0.000383053;0.000208557;-1.06041;-0.94303;0.000267446;0.000278076;0.0889187;11.2462;95.2961;140.296;-0.00174369;-0.000179966;0.00128372;-0.000866723;-0.000170182;-0.00766129;-0.00307706;0;0.0231547;0.0107708;2.94354
114000;115;25.7568;0.00169115;6.56625e-05;-2.27779;25.6549;0.231366;-0.0275634;0.00140617;-0.172827;0.0542511;-0.0774068;-0.245629;0.26319;-7.07781;0.000163409;-0.00032288;0.000287836;0.000554441;-0.000103197;0.000328819;-0.567714;-1.76145;0.000408396;0.000438425;5.37267;0.186127;167.326;32.3258;-0.00375793;0.00016274;0.000554931;-0.00120058;0.000287734;0.00143264;0.00453237;0;0.0147034;0.0259012;-0.0747287;-0.433268;0.440428;-6.83443;-0.00015005;4.45609e-05;-0.000299674;-0.000137784;-0.000311939;8.70777e-05;-0.50071;-1.99716;0.000180506;0.000116104;-0.441701;-2.26397;66.6221;111.622;-0.00182747;-0.000150519;0.0010592;-0.000970228;-0.000300234;-0.00825399;-0.0019989;0;0.0265807;0.0110155;2.95126
115000;116;25.7539;-0.0012608;-4.89534e-05;-2.27645;25.6521;0.221467;-0.0262227;-0.00135111;-0.182726;0.0551388;-0.0795972;-0.245259;0.263681;-7.07743;0.000259491;4.28775e-05;0.000171088;0.000276871;0.000153708;6.15814e-05;-1.51671;-0.65932;0.000160175;8.21086e-05;-1.80128;-0.555161;59.575;104.575;-0.00308305;0.000259201;0.000848891;-0.000763207;0.000170728;0.000928952;0.00510113;0;0.0153911;0.0274613;-0.0768343;-0.43565;0.443225;-6.83681;-0.000243237;8.45767e-05;-0.000428203;-0.000210395;-0.000461045;0.000125325;-0.56804;-1.76044;0.000266522;0.0001671;-0.456344;-2.19133;74.8211;119.821;-0.00165395;-0.000243731;0.00116682;-0.00099787;-0.000428881;-0.0100052;-0.00177486;0;0.025318;0.0112681;2.95797
116000;117;25.7541;-0.000973338;-3.7792e-05;-2.27708;25.6524;0.217049;-0.0268508;-0.0010805;-0.187144;0.0570556;-0.0775427;-0.253871;0.271512;-7.08605;0.00022106;-3.906e-05;0.000230481;0.000265113;0.000186427;3.9343e-05;-0.959125;-1.04262;0.00015722;5.24573e-05;-1.42207;-0.703199;169.126;34.126;-0.00290868;0.000220664;0.000812705;-0.000890817;0.000230151;0.000452378;0.00458338;0;0.0144552;0.0292266;-0.0759849;-0.445383;0.452762;-6.84655;-0.000192591;-2.19604e-05;-0.000574705;-0.000191333;-0.000575963;0.000192315;-0.335113;-2.98407;0.000338717;0.00025642;-0.332197;-3.01026;49.4276;94.4276;-0.00155689;-0.000193585;0.00136542;-0.00140987;-0.000575638;-0.009224;-0.00353834;0;0.0261818;0.0113849;2.96534
117000;118;25.7577;0.00257831;0.000100109;-2.27732;25.6559;0.222867;-0.0270938;0.00241378;-0.181326;0.0596554;-0.0752791;-0.262265;0.2793;-7.09444;0.00022766;6.37083e-05;0.000496547;0.000510878;0.000213329;0.000148774;-0.458486;-2.18109;0.000296288;0.000198366;-2.39479;-0.417573;109.564;154.564;-0.00329088;0.00022742;0.000823272;-0.000695651;0.00049621;0.00120748;0.00487796;0;0.0146746;0.0315948;-0.0750985;-0.455735;0.462961;-6.8569;-0.000170921;2.11758e-05;-0.000588588;-0.00016985;-0.000589659;0.000209905;-0.290391;-3.44363;0.000350488;0.000279873;-0.288048;-3.47165;56.208;101.208;-0.00207207;-0.000171699;0.00128949;-0.00124767;-0.00058942;-0.00959427;-0.00271604;0;0.0262011;0.0113979;2.97214
118000;119;25.756;0.000895401;3.4766e-05;-2.27529;25.6544;0.213121;-0.025061;0.00098738;-0.191072;0.0613862;-0.0752972;-0.266651;0.283797;-7.09883;0.000208049;-1.0963e-05;0.000360298;0.000361083;0.000207264;7.69097e-05;-0.577437;-1.73179;0.000209231;0.000102546;-1.74214;-0.574006;128.923;173.923;-0.00302498;0.000207747;0.000756306;-0.000778115;0.000360012;0.00100737;0.00396394;0;0.015084;0.0341351;-0.0754549;-0.462403;0.469761;-6.86357;-2.91751e-05;-6.2233e-05;-0.00070972;-2.3531e-05;-0.000715364;0.000345917;-0.0411079;-24.3262;0.000469263;0.000461222;-0.0328937;-30.4009;47.024;92.024;-0.00232318;-3.02919e-05;0.00137037;-0.00149581;-0.000710658;-0.00696645;-0.00290213;0;0.0262201;0.0113957;2.97953
119000;120;25.7558;0.000699464;2.71582e-05;-2.2749;25.6543;0.208813;-0.0246667;0.000861066;-0.19538;0.0634053;-0.0747599;-0.271838;0.288972;-7.10401;0.000231375;-5.57257e-05;0.000353699;0.000375278;0.000209795;8.27414e-05;-0.654158;-1.52868;0.00021717;0.000110322;-1.78878;-0.55904;145.437;10.4366;-0.00337037;0.000231056;0.000689262;-0.000800622;0.000353463;0.00217862;0.00457171;0;0.0145119;0.0368635;-0.0742782;-0.473214;0.480424;-6.87438;-6.03797e-05;-0.000144598;-0.000608471;-2.45711e-05;-0.00064428;0.000309854;-0.0992318;-10.0774;0.000421568;0.000413139;-0.0381373;-26.221;37.9631;82.9631;-0.00192968;-6.15063e-05;0.00121806;-0.00150801;-0.000609203;-0.00782313;-0.00148536;0;0.0307781;0.0115951;2.98601
120000;121;25.7562;0.00106113;4.12008e-05;-2.2744;25.6548;0.201976;-0.0241753;0.00132247;-0.202217;0.0660489;-0.0758865;-0.273306;0.291234;-7.10548;0.00017726;-8.48856e-05;-8.45383e-05;0.000202374;-0.000109652;0.000156013;2.0968;0.476917;0.000182781;0.000208018;1.84559;0.541831;26.532;71.532;-0.00361549;0.000176978;0.000585732;-0.000755679;-8.47063e-05;0.00320941;0.00431319;0;0.0149696;0.0403419;-0.0752384;-0.479319;0.486863;-6.88048;-9.22067e-05;-0.000188308;-0.000471511;-1.45991e-05;-0.000549119;0.00026726;-0.195556;-5.11363;0.000361311;0.000356346;-0.0265863;-37.6133;28.6664;73.6664;-0.00182422;-9.33076e-05;0.00111861;-0.00149572;-0.000472119;-0.00628574;-0.000432591;0;0.0265852;0.0119483;2.9941
121000;122;25.7559;0.000796233;3.09155e-05;-2.27362;25.6546;0.197729;-0.0233944;0.00115883;-0.206464;0.0690441;-0.0762218;-0.274271;0.292919;-7.10645;0.000138019;-8.66867e-05;-0.000288887;0.00015495;-0.000305818;0.000230384;0.477762;2.09309;0.000270736;0.000307179;0.506674;1.97365;37.0431;82.0431;-0.00416524;0.000137719;0.000606527;-0.000780197;-0.000289068;0.0053279;0.00460664;0;0.0159389;0.0436268;-0.0761622;-0.480258;0.488212;-6.88142;-2.55969e-05;-0.000251637;-0.000634736;6.49081e-05;-0.000725241;0.000395074;-0.0403269;-24.7973;0.000506518;0.000526766;0.0894987;11.1733;33.3116;78.3116;-0.0020287;-2.65269e-05;0.000882824;-0.00138679;-0.000635094;-0.00442769;0.000423962;0;0.0271251;0.0124745;2.99796
122000;123;25.7583;0.00313431;0.000121697;-2.27462;25.6569;0.197619;-0.0243899;0.00341875;-0.206574;0.0710654;-0.0749045;-0.283236;0.301469;-7.11541;0.000268229;-0.000165387;-0.000467809;0.000303684;-0.000503264;0.000403474;0.573373;1.74406;0.000470617;0.000537965;0.603429;1.6572;37.2013;82.2013;-0.00402047;0.000267904;0.000492582;-0.00082384;-0.000467917;0.00477498;0.00503778;0;0.0170221;0.0451135;-0.0756208;-0.491387;0.499214;-6.89255;8.28497e-05;-0.000202229;-0.000503155;0.000145863;-0.000566168;0.000356015;0.164661;6.0731;0.000434309;0.000474687;0.257632;3.88151;33.5116;78.5116;-0.00122136;8.21257e-05;0.000815225;-0.00122028;-0.000503467;-0.00628849;-0.000870223;0;0.0289088;0.0133277;3.00341
123000;124;25.7573;0.00218063;8.46677e-05;-2.27351;25.6561;0.191103;-0.023282;0.00260886;-0.21309;0.0731329;-0.0736125;-0.290681;0.308647;-7.12286;0.000312712;7.55034e-05;-0.000550401;0.000319267;-0.000556956;0.000438111;0.568153;1.76009;0.000512054;0.000584149;0.573236;1.74448;56.9379;101.938;-0.00405419;0.000312634;0.000553149;-0.000402554;-0.000550551;0.00449751;0.00576735;0;0.0160656;0.0470885;-0.0753302;-0.499221;0.507063;-6.90038;7.23078e-05;-0.000126736;-0.000508454;9.87597e-05;-0.000534906;0.000316833;0.142211;7.0318;0.000393675;0.000422444;0.18463;5.41623;40.7946;85.7946;-0.0012858;7.18834e-05;0.000676084;-0.000930022;-0.000508674;-0.00604894;0.00169492;0;0.0319907;0.0142003;3.01035
124000;125;25.7589;0.00378047;0.000146785;-2.27511;25.6575;0.192199;-0.0248786;0.0040653;-0.211994;0.0754594;-0.0734669;-0.29612;0.314291;-7.1283;0.000268405;7.58026e-05;-0.000908257;0.000273268;-0.000913121;0.000593195;0.295517;3.3839;0.0007174;0.000790926;0.299269;3.34148;65.4664;110.466;-0.00364699;0.000268326;0.000556883;-0.000405844;-0.00090841;0.00381021;0.00627409;0;0.0160379;0.0491764;-0.0754739;-0.505282;0.513249;-6.90645;0.000163638;-0.000120259;-0.000465771;0.000185833;-0.000487966;0.000336899;0.351327;2.84635;0.000401843;0.000449199;0.380832;2.62583;39.3375;84.3375;-0.00168471;0.000163133;0.000771221;-0.0010123;-0.000466061;-0.00545777;0.00105024;0;0.0279248;0.0142154;3.01668
125000;126;25.7604;0.00525157;0.000203904;-2.27517;25.659;0.191303;-0.0249372;0.00554372;-0.21289;0.0778561;-0.0716611;-0.304351;0.322221;-7.13653;0.000373783;0.000301613;-0.000931463;0.000440109;-0.000997788;0.000718949;0.401286;2.49199;0.000850728;0.000958598;0.441084;2.26714;71.1471;116.147;-0.00416656;0.000373801;0.000836714;-0.000234187;-0.000931767;0.00410458;0.00546424;0;0.0156233;0.0512434;-0.0750273;-0.513643;0.521616;-6.91481;0.00031091;-0.000241792;-0.000358141;0.000389144;-0.000436375;0.000412759;0.868121;1.15191;0.000476873;0.000550346;0.891765;1.12137;27.6267;72.6267;-0.00219849;0.000309928;0.000938046;-0.00142242;-0.000358552;-0.00501968;-9.97137e-05;0;0.0274885;0.0148744;3.02419
126000;127;25.7604;0.00530733;0.000206069;-2.27501;25.6591;0.189638;-0.0247757;0.00562639;-0.214555;0.0803074;-0.0734149;-0.302892;0.321842;-7.13507;0.000455424;0.000385116;-0.000727685;0.000569739;-0.000842;0.000705869;0.625853;1.59782;0.000820104;0.000941159;0.676649;1.47787;69.3009;114.301;-0.00329024;0.000455493;0.000873978;-0.000104325;-0.000727993;0.00223561;0.00610868;0;0.0149133;0.0540419;-0.0771047;-0.513908;0.522463;-6.91507;0.000374033;-0.000215282;-0.000472993;0.000425609;-0.00052457;0.000475089;0.790779;1.26458;0.000549577;0.000633453;0.81135;1.23251;32.7096;77.7096;-0.0021684;0.000373081;0.000965536;-0.0013971;-0.000473437;-0.00508234;0.00242991;0;0.026278;0.0149356;3.03122
127000;128;25.7615;0.00636091;0.000246976;-2.27494;25.6601;0.190933;-0.0247109;0.00668025;-0.21326;0.0804983;-0.0717335;-0.31053;0.328716;-7.14271;0.000451816;0.000322275;-0.000902717;0.000524583;-0.000975485;0.000750034;0.500507;1.99798;0.00087901;0.00100005;0.537767;1.85954;72.1737;117.174;-0.00329271;0.000451864;0.000730156;-8.61596e-05;-0.000902932;0.00219917;0.00681513;0;0.0140993;0.0543654;-0.0764199;-0.522745;0.531091;-6.92391;0.000319884;-0.000100583;-0.000173142;0.000339615;-0.000192873;0.000266244;1.84752;0.541265;0.000311299;0.000354992;1.76082;0.567916;32.0033;77.0033;-0.00246544;0.00031915;0.0010142;-0.00121591;-0.000173651;-0.00435261;0.0012754;0;0.0264305;0.015029;3.03933
128000;129;25.7624;0.00731122;0.000283875;-2.27634;25.661;0.189845;-0.0261054;0.00751873;-0.214348;0.084165;-0.0725631;-0.312346;0.331525;-7.14452;0.000455595;0.000424733;-0.000807737;0.000585112;-0.000937254;0.000761183;0.564038;1.77293;0.000886742;0.00101491;0.624283;1.60184;71.203;116.203;-0.00373836;0.00045568;0.000950451;-0.00010165;-0.000808099;0.00239804;0.00578834;0;0.0150895;0.0579423;-0.0768736;-0.526473;0.535202;-6.92764;0.000327625;-0.000107317;-0.000252854;0.00034683;-0.000272059;0.000309444;1.29571;0.77178;0.000358184;0.000412592;1.27483;0.784417;33.9378;78.9378;-0.00269282;0.000326788;0.00108313;-0.00129845;-0.000253435;-0.00416994;0.000587677;0;0.0252538;0.0152056;3.04646
129000;130;25.763;0.00783413;0.000304177;-2.27516;25.6616;0.188455;-0.0249257;0.00815857;-0.215738;0.0866431;-0.0726858;-0.31777;0.337295;-7.14995;0.000371493;0.000370171;-0.000538971;0.000503;-0.000670479;0.00058674;0.689263;1.45082;0.000679805;0.000782319;0.750211;1.33296;68.8791;113.879;-0.0035903;0.000371545;0.000919855;-0.000180013;-0.000539326;0.00206415;0.00671707;0;0.0144903;0.0606149;-0.0780983;-0.533495;0.542577;-6.93466;0.00025322;-5.12811e-05;-6.42515e-05;0.000261298;-7.23293e-05;0.000166814;3.94108;0.253738;0.000202657;0.000222418;3.61261;0.276808;33.6275;78.6275;-0.00286265;0.000252532;0.00107158;-0.0011745;-6.48243e-05;-0.00495643;0.000929825;0;0.0262458;0.015956;3.05393
130000;131;25.7655;0.0104068;0.000404066;-2.27556;25.6641;0.191582;-0.0253274;0.0106826;-0.212611;0.0886617;-0.0751242;-0.314984;0.335737;-7.14716;0.000370531;0.000502607;-0.000918509;0.000543336;-0.00109131;0.000817325;0.403405;2.4789;0.000961279;0.00108977;0.497873;2.00854;79.7387;124.739;-0.00287774;0.000370656;0.000948624;5.60142e-05;-0.000918833;0.000234599;0.00670087;0;0.0134468;0.062879;-0.0810234;-0.532555;0.542341;-6.93372;0.000319011;-2.0524e-05;-0.000157437;0.000319894;-0.000158319;0.000239106;2.02628;0.493514;0.0002813;0.000318809;2.02056;0.494911;40.5323;85.5323;-0.00406388;0.000318313;0.00114098;-0.00118259;-0.000158087;-0.000212061;0.00106547;0;0.0265761;0.0171744;3.06151
131000;132;25.7654;0.0103267;0.000400957;-2.27576;25.6641;0.186548;-0.0255298;0.0106214;-0.217646;0.0891593;-0.0705822;-0.327609;0.346783;-7.15978;0.000345294;0.00055357;-0.00103626;0.000539736;-0.0012307;0.000885218;0.333212;3.00109;0.00104779;0.00118029;0.43856;2.28019;84.0191;129.019;-0.00329108;0.000345438;0.000974664;0.000131894;-0.00103658;0.000915088;0.00543257;0;0.0167171;0.0636182;-0.0767302;-0.54907;0.558044;-6.95023;0.000231128;0.000109966;-0.000156772;0.000260133;-0.000185778;0.000222955;1.47429;0.678294;0.000258637;0.000297274;1.40024;0.714165;58.6741;103.674;-0.00261119;0.000230756;0.00108817;-0.000868618;-0.000157358;-0.00601727;9.6735e-05;0;0.0252018;0.0180571;3.06773
132000;133;25.7638;0.00864749;0.000335758;-2.27533;25.6625;0.178684;-0.0250967;0.00902988;-0.225509;0.0911021;-0.0754149;-0.315872;0.337286;-7.14805;0.000309206;0.000740652;-0.000664915;0.000708595;-0.0010643;0.00088645;0.465031;2.1504;0.00103043;0.00118193;0.665783;1.50199;85.0464;130.046;-0.00278199;0.000309426;0.00115075;0.000330157;-0.000665303;-0.000339735;0.00670326;0;0.0146261;0.0663226;-0.080528;-0.543347;0.553272;-6.94451;0.000356949;7.41958e-05;-0.000191009;0.000366818;-0.000200877;0.000283848;1.86876;0.535114;0.000332394;0.000378464;1.82608;0.547621;50.1787;95.1787;-0.00389206;0.000356528;0.00106896;-0.000921113;-0.000191577;-0.00180259;0.00222551;0;0.0263254;0.0182589;3.07096
133000;134;25.7641;0.00900825;0.000349766;-2.27442;25.6629;0.180498;-0.024187;0.00946001;-0.223695;0.0917255;-0.074171;-0.327255;0.347866;-7.15943;0.000226173;0.000377678;-0.000649986;0.0003665;-0.000790313;0.000578407;0.347965;2.87385;0.000682664;0.000771209;0.46374;2.15638;78.0632;123.063;-0.00278893;0.000226241;0.000824238;-6.92727e-05;-0.000650254;9.86239e-05;0.00679227;0;0.0198493;0.0671732;-0.0797801;-0.552734;0.562488;-6.9539;0.000369243;6.94016e-05;-0.000116335;0.000378968;-0.00012606;0.000252514;3.17395;0.315064;0.00030352;0.000336685;3.00625;0.33264;49.8589;94.8589;-0.0044994;0.000368647;0.00123295;-0.00109471;-0.000117093;0.000786414;-6.23702e-05;0;0.032184;0.0183665;3.07697
134000;135;25.7632;0.00809614;0.000314351;-2.27364;25.6621;0.17016;-0.0234096;0.00868382;-0.234033;0.0950133;-0.0766159;-0.323702;0.345949;-7.15588;0.00017154;0.0005808;-0.000524196;0.000500681;-0.000853337;0.000677009;0.327244;3.05582;0.000790532;0.000902679;0.586733;1.70435;83.4097;128.41;-0.00281437;0.000171708;0.00113126;2.99561e-05;-0.000524668;-0.000672892;0.00724858;0;0.0147522;0.0717163;-0.0812655;-0.559807;0.570203;-6.96097;0.000170977;0.000129227;-0.000196896;0.000211834;-0.000237753;0.000224793;0.868362;1.15159;0.000259713;0.000299725;0.890983;1.12236;62.9078;107.908;-0.00378175;0.000170619;0.00111449;-0.000856397;-0.000197509;-0.000414094;0.000909073;0;0.0272052;0.018705;3.08336
135000;136;25.7627;0.00759595;0.00029493;-2.27265;25.6617;0.165439;-0.0224159;0.00830055;-0.238754;0.096658;-0.0791642;-0.317375;0.341082;-7.14955;0.000267127;0.000932811;-0.000694849;0.000835655;-0.00126338;0.00104952;0.384438;2.6012;0.00122024;0.00139936;0.661445;1.51184;88.6586;133.659;-0.0022131;0.000267453;0.00139948;0.00046569;-0.000695394;-0.00171181;0.00814622;0;0.0157982;0.0747833;-0.0831323;-0.560799;0.571838;-6.96196;1.87203e-05;0.000209156;-0.000242686;0.000134654;-0.000358619;0.000246637;0.077138;12.9638;0.000294414;0.000328849;0.375479;2.66326;76.4519;121.452;-0.00465297;1.81525e-05;0.00150389;-0.00108592;-0.000243795;0.00264476;0.00205886;0;0.0266948;0.0198668;3.09015
136000;137;25.76;0.00483748;0.000187826;-2.27042;25.6592;0.15754;-0.0201884;0.00577814;-0.246653;0.0991214;-0.0792372;-0.320501;0.344709;-7.15268;0.000168407;0.000585372;-0.000555666;0.000494652;-0.000881911;0.000688281;0.303073;3.29954;0.000805174;0.000917708;0.560886;1.78289;86.3982;131.398;-0.00211083;0.000168566;0.00100919;0.000161247;-0.000556004;-0.00141815;0.00831805;0;0.0190976;0.0789349;-0.0823862;-0.568803;0.580133;-6.96997;0.000167826;0.000231755;-0.000264283;0.000268615;-0.000365072;0.000316844;0.635023;1.57474;0.00036727;0.000422459;0.735786;1.35909;69.7075;114.707;-0.00448239;0.000167447;0.00136359;-0.000900573;-0.000265186;0.00171628;0.00412682;0;0.0276425;0.020839;3.09792
137000;138;25.7571;0.00200612;7.78923e-05;-2.26955;25.6565;0.146849;-0.0193247;0.0030755;-0.257344;0.10201;-0.0823816;-0.318781;0.344695;-7.15096;6.69182e-05;0.000844663;-0.000547631;0.000658462;-0.00113917;0.000898818;0.122196;8.18359;0.00105016;0.00119842;0.578017;1.73005;93.4201;138.42;-0.00138357;6.72065e-05;0.00131937;0.000369662;-0.000548145;-0.00469163;0.0101107;0;0.0149316;0.0809065;-0.0831727;-0.576555;0.588115;-6.97772;0.000196741;0.000319527;-0.000193259;0.00037607;-0.000372588;0.000374329;1.01802;0.982301;0.00043224;0.000499105;1.00935;0.990741;74.2399;119.24;-0.00488942;0.00019653;0.00136296;-0.000724317;-0.000194137;0.00482443;0.00594376;0;0.0264239;0.0219676;3.10424
138000;139;25.7563;0.00115689;4.4919e-05;-2.26908;25.6558;0.138793;-0.0188544;0.00230939;-0.2654;0.103449;-0.0827197;-0.323906;0.349942;-7.15608;-7.56598e-06;0.000550572;-0.000799514;0.000274638;-0.00108172;0.000678178;;;0.000828015;0.000904237;0.25389;3.93871;92.7048;137.705;-0.00189749;-7.41834e-06;0.00101212;8.86553e-05;-0.000799875;-0.00126473;0.0108473;0;0.0147488;0.0831946;-0.0835056;-0.586089;0.597825;-6.98725;0.000571948;0.000154723;-0.000317515;0.000598094;-0.000343661;0.000470878;1.80132;0.555147;0.000550297;0.000627837;1.74036;0.574594;50.9651;95.9651;-0.00600237;0.0005716;0.00115799;-0.000849433;-0.000318174;0.0102793;0.00584643;0;0.0253945;0.0222893;3.11205
139000;140;25.7566;0.00147562;5.72942e-05;-2.2683;25.6562;0.13401;-0.0180754;0.00272368;-0.270183;0.105852;-0.082751;-0.320315;0.347353;-7.15249;-2.11014e-05;0.000646494;-0.000296579;0.000502164;-0.000819844;0.000661004;-0.0711495;-14.0549;0.000770572;0.000881339;0.612512;1.63262;92.9926;137.993;-0.00169253;-2.0905e-05;0.00113448;0.000158372;-0.000297013;-0.00326592;0.00908883;0;0.0173761;0.0870255;-0.0845594;-0.586984;0.599394;-6.98815;0.000404723;0.000340558;-0.000320862;0.000539523;-0.000455662;0.000497592;1.26136;0.792794;0.00057525;0.000663457;1.18404;0.844565;65.3825;110.382;-0.00412604;0.000404562;0.00134245;-0.00066206;-0.000321706;0.0042205;0.00623529;0;0.0278739;0.0224995;3.11938
140000;141;25.7533;-0.00183736;-7.13398e-05;-2.26798;25.6529;0.12919;-0.0177498;-0.000548767;-0.275003;0.109383;-0.0890564;-0.311149;0.341628;-7.14333;-5.80634e-05;0.000253881;5.90931e-05;0.000261066;-0.000260037;0.000260551;0.982576;1.01773;0.000300859;0.000347402;1.00396;0.996056;96.4521;141.452;-0.00168281;-5.80394e-05;0.000635426;-0.000127619;5.89234e-05;-0.00120472;0.00888965;0;0.0139914;0.0908075;-0.0882271;-0.583321;0.596903;-6.98448;0.000247034;0.000421941;-0.000379022;0.000459382;-0.00059137;0.000525376;0.651767;1.53429;0.000608245;0.000700502;0.77681;1.28732;75.0974;120.097;-0.00427717;0.000247114;0.000976703;-0.000133169;-0.00037941;0.00375762;0.00836351;0;0.0240591;0.0236188;3.12726
141000;142;25.7525;-0.00266541;-0.00010349;-2.26626;25.6522;0.124602;-0.0160273;-0.00120512;-0.279591;0.110411;-0.0909335;-0.310824;0.342157;-7.143;-8.64218e-05;4.63536e-05;0.000305436;0.000310845;-9.18304e-05;0.000201338;0.282945;3.53425;0.000243678;0.00026845;3.38499;0.295422;116.991;161.991;-0.00194423;-8.64439e-05;0.00030821;-0.0002154;0.00030539;4.41113e-05;0.00916633;0;0.0230379;0.0923505;-0.0892998;-0.586679;0.600579;-6.98784;0.00039812;0.000416714;-0.00028265;0.000595799;-0.000480329;0.000538064;1.40853;0.709962;0.000622494;0.000717418;1.2404;0.806193;67.9769;112.977;-0.00490143;0.000398169;0.00110643;-0.000273471;-0.000283175;0.00676743;0.00723313;0;0.0304339;0.0246534;3.13409
142000;143;25.7532;-0.00196528;-7.63063e-05;-2.26613;25.6529;0.126288;-0.0158969;-0.000498976;-0.277905;0.115859;-0.0941066;-0.309005;0.343167;-7.14118;-0.000125178;-0.000109849;0.000822144;0.000834715;-0.000137749;0.000486232;0.152257;6.56782;0.00060762;0.000648309;6.0597;0.165025;113.144;158.144;-0.00206948;-0.000125229;0.000118666;-0.000338148;0.000822143;0.000756258;0.0100977;0;0.017076;0.0985991;-0.0928663;-0.588593;0.603977;-6.98976;0.00033174;0.000333421;-0.000173575;0.000497419;-0.000339254;0.000418336;1.91122;0.523226;0.000485922;0.000557782;1.46622;0.682028;67.9893;112.989;-0.00356427;0.000331743;0.000991744;-0.000325235;-0.000174011;0.000153431;0.00722204;0;0.0270049;0.0255175;3.14059
143000;144;25.7532;-0.00189794;-7.36917e-05;-2.26546;25.6531;0.123914;-0.0152279;-0.000360707;-0.280279;0.120232;-0.0947729;-0.313455;0.348843;-7.14563;-8.0763e-05;-0.00018336;0.000655685;0.000698813;-0.00012389;0.000411351;0.123173;8.11864;0.000512191;0.000548468;5.64059;0.177287;121.347;166.347;-0.00244713;-8.08238e-05;2.73637e-05;-0.000393928;0.000655702;0.00424908;0.00995091;0;0.0169157;0.103085;-0.0951385;-0.589358;0.605823;-6.99052;5.43202e-05;0.00036781;-0.000138497;0.000338147;-0.000422323;0.000380235;0.392213;2.54964;0.000439953;0.00050698;0.800682;1.24894;85.3235;130.323;-0.00137942;5.43845e-05;0.000817397;-8.18645e-05;-0.000138763;-0.00676858;0.00385421;0;0.0259575;0.0257718;3.14559
144000;145;25.756;0.000931513;3.61681e-05;-2.26442;25.656;0.131441;-0.0141942;0.00253358;-0.272752;0.121878;-0.0957593;-0.319579;0.355182;-7.15175;-3.99105e-05;-0.000183882;0.00096714;0.000999665;-7.24359e-05;0.000536051;0.0412666;24.2327;0.000691854;0.000714734;13.8007;0.0724601;110.703;155.703;-0.00207394;-3.99603e-05;-2.53093e-06;-0.00036505;0.000967157;0.00267088;0.0111674;0;0.019977;0.104805;-0.096888;-0.594614;0.611504;-6.99578;-0.000132874;0.000413009;-0.00011913;0.000287064;-0.000539069;0.000413066;-1.11537;-0.896564;0.000484309;0.000550755;0.532518;1.87787;98.9123;143.912;-0.000808337;-0.000132789;0.000828143;-2.11852e-06;-0.000119388;-0.00949196;0.00396157;0;0.0230579;0.026383;3.14929
145000;146;25.7576;0.00249017;9.66863e-05;-2.26448;25.6575;0.132224;-0.0142466;0.00408967;-0.271969;0.124963;-0.0943211;-0.331175;0.366318;-7.16335;6.24519e-05;-0.000345077;0.000319389;0.000559136;-0.000177295;0.000368215;-0.195536;-5.11416;0.000443821;0.000490953;3.15371;0.317087;145.29;10.2898;-0.00227732;6.23809e-05;-0.000179051;-0.00051106;0.000319432;0.00397704;0.011174;0;0.0222081;0.107918;-0.097932;-0.60383;0.621166;-7.00499;4.6659e-05;0.000406277;-0.000304858;0.000313565;-0.000571764;0.000442665;0.153051;6.53375;0.00051834;0.00059022;0.548417;1.82343;87.5583;132.558;-0.000905522;4.67413e-05;0.000791547;2.0871e-05;-0.000305089;-0.00895247;0.00130152;0;0.0213766;0.0285696;3.15673
146000;147;25.7578;0.00267132;0.00010372;-2.2658;25.6576;0.135671;-0.0155741;0.00413633;-0.268522;0.128617;-0.0967232;-0.33378;0.370549;-7.16596;-2.96308e-05;-0.000221629;0.000368586;0.00046741;-0.000128455;0.000297932;0.0803905;12.4393;0.000362101;0.000397243;3.63871;0.274822;141.087;6.0866;-0.00200811;-2.97102e-05;1.26989e-05;-0.000455864;0.000368611;0.00276643;0.00992193;0;0.0250263;0.111192;-0.099663;-0.611557;0.629523;-7.01272;3.2499e-05;0.000136011;-0.00042525;6.98621e-05;-0.000462613;0.000266237;0.0764234;13.085;0.000334139;0.000354983;0.151016;6.6218;68.31;113.31;-0.0013976;3.23556e-05;0.000824326;-0.000552621;-0.00042558;-0.00703719;0.000579054;0;0.0348155;0.029331;3.16391
147000;148;25.7585;0.00340258;0.000132113;-2.26488;25.6584;0.134351;-0.0146553;0.00495852;-0.269842;0.131388;-0.0970257;-0.335172;0.37285;-7.16735;4.36352e-05;-0.000214387;0.00119478;0.00123342;5.00458e-06;0.000614205;-0.0365214;-27.3812;0.000820614;0.000818941;;;112.959;157.959;-0.00299637;4.35284e-05;8.11746e-05;-0.00050961;0.0011948;0.0034519;0.00940549;0;0.0487013;0.114315;-0.101489;-0.612239;0.631034;-7.0134;-6.72298e-05;0.000125031;-0.000756273;-4.52438e-05;-0.000778259;0.000366508;-0.0888963;-11.2491;0.000504435;0.000488677;-0.0581347;-17.2014;71.1688;116.169;-0.00122096;-6.73591e-05;0.000773245;-0.00052363;-0.000756564;-0.00965062;-0.00105556;0;0.053818;0.0294213;3.17129
148000;149;25.7585;0.00342403;0.000132945;-2.26342;25.6586;0.132011;-0.0131917;0.00512134;-0.272182;0.131631;-0.102985;-0.328414;0.368495;-7.16059;0.00016549;-2.8592e-05;0.000929985;0.000931053;0.000164422;0.000383315;-0.177949;-5.61958;0.000573802;0.000511087;-5.66257;-0.176598;107.499;152.499;-0.00266641;0.000165428;0.00029723;-0.000354165;0.000929942;0.00355442;0.0110524;0;0.0202017;0.115428;-0.107426;-0.608307;0.628412;-7.00947;-2.42794e-05;9.8869e-07;-0.000928557;-2.42783e-05;-0.000928558;0.00045214;-0.0261475;-38.2446;0.000611107;0.000602853;-0.0261463;-38.2463;62.8143;107.814;-0.00152161;-2.45015e-05;0.00066789;-0.000666516;-0.00092878;-0.00992936;0.000812008;0;0.0346532;0.0306136;3.17885
149000;150;25.7617;0.00662647;0.000257287;-2.26383;25.6617;0.130958;-0.0135977;0.00830584;-0.273235;0.137179;-0.10321;-0.339313;0.380268;-7.17149;0.000289034;0.000146838;0.00105588;0.00108304;0.000261879;0.00041058;-0.273737;-3.65314;0.000652492;0.000547439;-4.13564;-0.2418;91.9047;136.905;-0.00205629;0.000289032;0.0004574;-0.000163487;0.00105579;0.0010039;0.0101151;0;0.0159823;0.12128;-0.109568;-0.619791;0.64098;-7.02095;9.5694e-05;-0.000148013;-0.000970161;0.000115867;-0.000990333;0.0005531;0.0986373;10.1382;0.000702039;0.000737467;0.116998;8.54718;52.4867;97.4867;-0.00125103;9.53089e-05;0.000593215;-0.000890033;-0.000970326;-0.00922522;-0.00114784;0;0.0253688;0.0323456;3.18661
150000;151;25.761;0.00585758;0.000227434;-2.26355;25.6611;0.11577;-0.013319;0.00763156;-0.288423;0.13993;-0.102264;-0.351129;0.391574;-7.1833;0.000261496;0.000235319;0.0015002;0.0015434;0.000218299;0.000662551;-0.174307;-5.73699;0.000964438;0.000883401;-7.07012;-0.14144;93.126;138.126;-0.00256934;0.000261501;0.000685946;-0.000214751;0.0015;0.00118136;0.00891804;0;0.0191701;0.125236;-0.108212;-0.642445;0.663422;-7.04361;0.000136938;-8.54159e-05;-0.000666858;0.000145914;-0.000675835;0.000410874;0.205347;4.8698;0.000506253;0.000547832;0.215902;4.63173;51.9638;96.9638;-0.00109491;0.000136743;0.000458945;-0.000630215;-0.00066696;-0.0077079;0.000370589;0;0.0274721;0.033071;3.19337
151000;152;25.7626;0.0075074;0.000291491;-2.26235;25.6628;0.115586;-0.0121214;0.00939423;-0.288607;0.142652;-0.10841;-0.339847;0.384185;-7.17202;0.000236978;0.000188639;0.0010253;0.00106811;0.000194163;0.000436975;-0.23113;-4.32656;0.000656988;0.000582633;-5.50111;-0.181782;94.6754;139.675;-0.00233085;0.000236964;0.00062987;-0.000252246;0.00102512;0.000587284;0.0079473;0;0.0325846;0.129625;-0.114075;-0.634563;0.657637;-7.03573;0.000119365;-8.76507e-05;-0.000743694;0.000128176;-0.000752506;0.000440341;0.160502;6.23044;0.000549403;0.000587121;0.170333;5.87087;51.1187;96.1187;-0.00164229;0.00011905;0.00062174;-0.000797654;-0.000743884;-0.00449887;0.00133735;0;0.0265303;0.0336099;3.20038
152000;153;25.7613;0.00614036;0.000238413;-2.26121;25.6616;0.106323;-0.0109776;0.00816274;-0.29787;0.144782;-0.111031;-0.340357;0.386177;-7.17253;0.000147574;0.000215481;0.00036521;0.000497791;1.49928e-05;0.000241399;-0.40408;-2.47476;0.000326977;0.000321865;-33.2019;-0.0301187;88.3289;133.329;-0.00183115;0.000147571;0.000657471;-0.000226412;0.000365017;-0.000444174;0.00869041;0;0.0167151;0.132342;-0.114479;-0.643182;0.666561;-7.04434;0.000497944;-0.000227489;-0.000474221;0.000548543;-0.00052482;0.000536682;1.05002;0.952359;0.000619757;0.000715576;1.0452;0.956753;32.0048;77.0048;-0.00189877;0.000497477;0.000536854;-0.000992575;-0.000474339;-0.00339813;0.00455645;0;0.032578;0.0355751;3.20728
153000;154;25.7606;0.00551853;0.000214269;-2.2601;25.6611;0.095184;-0.00987001;0.00767981;-0.309009;0.145853;-0.112494;-0.34546;0.391498;-7.17764;0.000345017;0.000370306;0.000290015;0.000688842;-5.38101e-05;0.000371326;-1.18965;-0.84058;0.000478175;0.000495101;12.8013;0.0781168;68.5136;113.514;-0.00225423;0.000345085;0.000766482;-2.58913e-05;0.00028979;0.000706218;0.00959768;0;0.0137534;0.135045;-0.115041;-0.658715;0.682185;-7.05988;0.000625464;-0.000213173;-0.000375633;0.000668967;-0.000419135;0.000544051;1.66509;0.600566;0.000633712;0.000725401;1.59606;0.626541;27.5112;72.5112;-0.0014114;0.000625162;0.000379723;-0.000806662;-0.000375682;-0.00418577;0.00537169;0;0.025226;0.0367548;3.21275
154000;155;25.7589;0.00381515;0.000148132;-2.26029;25.6594;0.0856334;-0.0100609;0.00598666;-0.31856;0.148593;-0.114221;-0.344475;0.39216;-7.17665;0.000247497;0.000550614;0.000373683;0.000864807;-0.000243628;0.000554217;-0.662318;-1.50985;0.000672619;0.000738956;3.54971;0.281713;71.4101;116.41;-0.00145023;0.000247623;0.000875617;0.000225653;0.000373451;-0.00131297;0.00882001;0;0.0141214;0.13842;-0.116869;-0.662952;0.687258;-7.06411;0.000520012;-2.3848e-05;-0.000249875;0.00052075;-0.000250613;0.000385682;2.08109;0.480518;0.000454359;0.000514242;2.0779;0.481254;37.639;82.639;-0.00206685;0.000519762;0.000660756;-0.000708979;-0.000250093;-0.00451399;0.00628491;0;0.0255549;0.037586;3.22018
155000;156;25.7593;0.00416049;0.00016154;-2.2596;25.6598;0.0832828;-0.00937276;0.00640168;-0.32091;0.152012;-0.119072;-0.339274;0.390374;-7.17145;7.52772e-05;0.000437127;0.000104302;0.000527158;-0.000347578;0.000437368;-0.721723;-1.38557;0.000508564;0.000583157;1.51666;0.659344;82.8736;127.874;-0.001477;7.53647e-05;0.000747308;0.000126956;0.000104118;-0.00182046;0.0102552;0;0.0164693;0.14268;-0.121251;-0.662429;0.688383;-7.06359;0.000404633;8.51954e-05;-0.000453636;0.000413008;-0.000462011;0.000437509;0.891977;1.12111;0.000505456;0.000583346;0.893935;1.11865;52.5566;97.5566;-0.00265396;0.000404598;0.000444927;-0.000274845;-0.000453731;-0.000591063;0.00558178;0;0.0264804;0.0388388;3.22403
156000;157;25.7605;0.00542065;0.000210469;-2.25894;25.6612;0.0796594;-0.00871336;0.00773629;-0.324534;0.154307;-0.12086;-0.341878;0.394079;-7.17405;1.71861e-05;0.000498485;0.000120195;0.000569829;-0.000432448;0.000501139;-0.142985;-6.99373;0.000580475;0.000668185;1.31768;0.758909;86.4159;131.416;-0.00115462;1.72899e-05;0.000794656;0.000202345;0.000120003;-0.00261837;0.00915222;0;0.0227941;0.145462;-0.123536;-0.667974;0.694701;-7.06914;0.000301323;5.68319e-05;-0.000394806;0.000305932;-0.000399415;0.000352673;0.763218;1.31024;0.000408423;0.000470231;0.76595;1.30557;53.2863;98.2863;-0.0029972;0.000301277;0.00042109;-0.00030768;-0.000394893;0.000882924;0.00627907;0;0.0281704;0.0401351;3.22976
157000;158;25.7593;0.00414482;0.000160932;-2.259;25.6599;0.0782864;-0.00877499;0.00645431;-0.325907;0.155792;-0.124559;-0.33755;0.392079;-7.16973;4.90822e-05;0.000618587;-0.000402014;0.000481957;-0.000834889;0.000658423;0.122091;8.19063;0.00076933;0.000877898;0.577271;1.73229;97.3849;142.385;-0.000629041;4.9207e-05;0.000872314;0.000364744;-0.000402203;-0.00415563;0.0105872;0;0.0149576;0.146508;-0.127172;-0.666149;0.693824;-7.06731;0.00039302;0.00022088;-0.000348707;0.000453813;-0.000409501;0.000431657;1.12708;0.887251;0.000498653;0.000575543;1.10821;0.902355;58.4711;103.471;-0.00351629;0.000393038;0.000552097;-0.000110583;-0.000348835;0.00232585;0.00743453;0;0.0292477;0.040607;3.23719
158000;159;25.7561;0.00095661;3.71425e-05;-2.25951;25.6567;0.0661946;-0.00927878;0.00324344;-0.337998;0.159697;-0.129944;-0.330652;0.389512;-7.16283;6.94551e-05;0.000450056;-0.000668662;0.000282423;-0.00088163;0.000582026;0.103872;9.62725;0.000701118;0.000776035;0.320342;3.12167;101.625;146.625;-0.000302974;6.9513e-05;0.000605232;0.000294764;-0.000668744;-0.00443626;0.01088;0;0.0146191;0.150629;-0.129895;-0.669991;0.698891;-7.07115;0.000265093;0.000390821;-0.000470959;0.000433896;-0.000639761;0.000536828;0.56288;1.77658;0.000623663;0.000715771;0.678215;1.47446;80.1754;125.175;-0.00379081;0.000265158;0.000625914;0.000155556;-0.000471079;0.00397964;0.00752073;0;0.0269915;0.0429349;3.24484
159000;160;25.7569;0.00173252;6.72688e-05;-2.25849;25.6576;0.064475;-0.00826419;0.00411606;-0.339718;0.159913;-0.13108;-0.336704;0.395125;-7.16888;-4.43596e-07;0.000521152;-0.000505995;0.000326;-0.000832438;0.000579219;;;0.0006898;0.000772292;0.39162;2.55349;106.975;151.975;-0.000476708;-3.7771e-07;0.000668296;0.000373933;-0.000506083;-0.00408247;0.011097;0;0.0175825;0.152107;-0.131478;-0.68162;0.710654;-7.08278;0.000382075;0.000469761;-0.000568683;0.000575023;-0.000761631;0.000668327;0.671859;1.48841;0.00077422;0.000891103;0.754989;1.32452;76.366;121.366;-0.00388397;0.000382168;0.000755401;0.00018385;-0.000568858;0.00314045;0.00759333;0;0.0322983;0.0439304;3.25151
160000;161;25.7555;0.000375458;1.4578e-05;-2.25781;25.6563;0.0587235;-0.00758411;0.00282742;-0.34547;0.164536;-0.135191;-0.331919;0.394359;-7.16409;0.000179951;7.34251e-05;-3.97678e-05;0.000202229;-6.20459e-05;0.000132138;4.52504;0.220992;0.000159574;0.000176183;3.25935;0.30681;24.5865;69.5865;-0.00100516;0.000179952;9.27518e-05;5.4094e-05;-3.97694e-05;-0.00150832;0.0102062;0;0.0131312;0.156761;-0.13571;-0.680248;0.711146;-7.08141;0.000207307;0.000564193;-0.000722862;0.000473398;-0.000988953;0.000731175;0.286786;3.48692;0.000861601;0.0009749;0.478686;2.08905;96.7887;141.789;-0.00366946;0.000207397;0.000757743;0.000370463;-0.00072299;0.00297287;0.00651142;0;0.0250966;0.0453234;3.25881
161000;162;25.7532;-0.00191081;-7.41914e-05;-2.25759;25.654;0.0515849;-0.0073595;0.000567427;-0.352608;0.167486;-0.138887;-0.320448;0.387335;-7.15262;8.50722e-05;-5.47631e-05;2.63197e-06;0.000112395;-2.46906e-05;6.85427e-05;;;8.4373e-05;9.13902e-05;4.55213;0.219677;126.87;171.87;-0.00131779;8.50737e-05;-0.000113447;3.92529e-06;2.62704e-06;-0.00148649;0.0091725;0;0.0223203;0.159646;-0.138173;-0.673371;0.705696;-7.07453;0.000212575;0.000549527;-0.000631952;0.000483339;-0.000902716;0.000693027;0.336379;2.97284;0.000812357;0.000924036;0.535428;1.86767;91.0741;136.074;-0.00423239;0.000212682;0.000802014;0.000296827;-0.000632123;0.00336805;0.00681843;0;0.0272974;0.0473819;3.2663
162000;163;25.756;0.000864763;3.35764e-05;-2.25696;25.6568;0.0556036;-0.0067336;0.0034004;-0.348589;0.168124;-0.140513;-0.32685;0.393497;-7.15903;0.000110041;0.000170135;-0.000203619;0.000184601;-0.000278179;0.00023139;0.540425;1.8504;0.000269001;0.00030852;0.663605;1.50692;152.749;17.7492;-0.00118615;0.000109978;-5.30455e-05;0.000393385;-0.000203606;-0.00104634;0.0100031;0;0.0154897;0.160968;-0.141976;-0.682525;0.715477;-7.08369;5.38598e-05;0.000471187;-0.000828797;0.000258123;-0.00103306;0.000645591;0.0649856;15.388;0.00078895;0.000860788;0.249862;4.0022;107.634;152.634;-0.00349387;5.38941e-05;0.000550701;0.000391603;-0.000828837;0.00195536;0.00469754;0;0.023075;0.0481144;3.27409
163000;164;25.7567;0.00155709;6.04576e-05;-2.25557;25.6577;0.0526974;-0.00533921;0.00422416;-0.351496;0.171693;-0.14301;-0.330317;0.398798;-7.16249;0.000159221;0.000163118;0.000163388;0.000324435;-1.82655e-06;0.000163131;-0.974498;-1.02617;0.000216902;0.000217508;;;15.6213;60.6213;-0.00141217;0.000159139;-0.000110712;0.000436946;0.000163395;0.00142868;0.0109549;0;0.0139062;0.1655;-0.144938;-0.689884;0.724111;-7.09105;0.00023632;0.000345776;-0.000868862;0.000335586;-0.000968128;0.000651857;0.271988;3.67664;0.000781674;0.000869143;0.346634;2.88489;102.689;147.689;-0.00218024;0.000236332;0.000382662;0.00030885;-0.000868875;-0.00238939;0.00240153;0;0.019165;0.0498645;3.28196
164000;165;25.758;0.00292464;0.000113556;-2.25403;25.6592;0.0542241;-0.00380113;0.00572896;-0.349969;0.173344;-0.143079;-0.339213;0.406922;-7.17139;6.32242e-05;-8.39235e-05;-0.000234489;8.52519e-05;-0.000256517;0.000170884;0.269625;3.70886;0.000205413;0.000227846;0.332344;3.00893;113.186;158.186;-0.000918515;6.31955e-05;-0.000421664;0.000253918;-0.000234575;0.00159183;0.0132647;0;0.0161234;0.167194;-0.147082;-0.700511;0.735053;-7.10167;0.000132539;0.000226321;-0.00108365;0.00017329;-0.0011244;0.000648846;0.122308;8.17608;0.000813541;0.000865128;0.154117;6.48857;89.9448;134.945;-0.0013207;0.000132564;0.000404157;4.82676e-05;-0.00108371;-0.00436871;0.0025173;0;0.0226581;0.0514437;3.28877
165000;166;25.7572;0.00210578;8.17617e-05;-2.25353;25.6584;0.0474784;-0.00330213;0.00496415;-0.356715;0.177456;-0.149467;-0.329163;0.402715;-7.16134;0.000105441;-0.000196623;-0.00101844;0.000138847;-0.00105185;0.000595347;0.103532;9.65888;0.000751799;0.000793795;0.132003;7.57558;105.608;150.608;-0.00081765;0.000105396;-0.000749684;0.00035706;-0.0010187;0.00276466;0.0145598;0;0.0176604;0.172571;-0.15376;-0.695268;0.73268;-7.09643;0.000143613;7.67368e-05;-0.00114423;0.000148169;-0.00114879;0.000648477;0.125511;7.96746;0.000819723;0.000864637;0.128979;7.75321;81.3937;126.394;-0.000249569;0.000143605;0.000299312;-0.000146125;-0.00114427;-0.0111957;0.00501584;0;0.0209422;0.0526089;3.29239
166000;167;25.7577;0.00253921;9.85907e-05;-2.25143;25.659;0.04232;-0.00119757;0.00559302;-0.361873;0.179753;-0.146624;-0.348167;0.418366;-7.18034;0.000224711;-0.000206061;-0.000882286;0.000261824;-0.000919399;0.000590611;0.254692;3.92632;0.000716339;0.000787482;0.284777;3.51152;110.101;155.101;-0.000852757;0.000224661;-0.000789244;0.000377768;-0.000882577;0.00264995;0.0139365;0;0.0159911;0.175172;-0.153052;-0.717099;0.753884;-7.11826;9.83198e-05;6.6074e-05;-0.00101106;0.000102241;-0.00101498;0.000558609;0.0972447;10.2833;0.000713179;0.000744812;0.100733;9.92727;86.8945;131.895;-0.000198292;9.83212e-05;0.00017136;-3.9329e-05;-0.00101107;-0.0102172;0.00690333;0;0.0206167;0.0549247;3.29968
167000;168;25.7593;0.00417471;0.000162092;-2.25205;25.6606;0.0397451;-0.00181947;0.00718435;-0.364448;0.182912;-0.153344;-0.343977;0.418678;-7.17615;4.42331e-05;-0.000290967;0.000105046;0.000367192;-0.000217912;0.000292552;-0.421082;-2.37483;0.000341455;0.000390069;1.68505;0.593456;91.6812;136.681;-0.00086771;4.4262e-05;-0.000746038;0.000164076;0.00010481;0.00276587;0.0144652;0;0.0163795;0.179115;-0.159973;-0.713885;0.753196;-7.11505;0.000276177;1.56556e-05;-0.000614889;0.000276452;-0.000615164;0.000445808;0.44915;2.22643;0.000527011;0.00059441;0.449396;2.22521;75.8773;120.877;5.07168e-05;0.000276174;0.000114388;-8.31652e-05;-0.000614895;-0.00844763;0.00775572;0;0.0226173;0.0551814;3.30343
168000;169;25.7592;0.00409516;0.000159004;-2.25097;25.6607;0.0300373;-0.000744687;0.00721199;-0.374156;0.183582;-0.155022;-0.34482;0.42028;-7.177;8.88637e-05;-2.66214e-05;0.000101524;0.000122558;6.78302e-05;2.73637e-05;-0.875297;-1.14247;7.08933e-05;3.64849e-05;-1.80683;-0.553456;87.5127;132.513;-0.00113566;8.86722e-05;-0.000672667;0.000619416;0.000101298;0.00385948;0.0146829;0;0.023963;0.181075;-0.161679;-0.723055;0.762716;-7.12422;0.000256304;6.72686e-06;-0.000451876;0.000256368;-0.00045194;0.000354154;0.5672;1.76305;0.000414106;0.000472206;0.567261;1.76286;108.381;153.381;-0.000264005;0.000256301;-6.34367e-05;7.69401e-05;-0.000451878;-0.00868855;0.00929177;0;0.0255473;0.058709;3.31081
169000;170;25.76;0.00488034;0.00018949;-2.25271;25.6613;0.0286316;-0.00248364;0.0078492;-0.375561;0.186776;-0.159492;-0.346093;0.424386;-7.17827;3.51214e-05;-0.00010936;0.000571802;0.000593231;1.36928e-05;0.000289769;-0.0614223;-16.2807;0.000391003;0.000386359;-43.3243;-0.0230817;76.5927;121.593;-0.00150768;3.50987e-05;-0.000458569;0.000239662;0.000571703;0.00320984;0.0135199;0;0.0210135;0.183366;-0.166862;-0.722085;0.763461;-7.12325;0.000113119;0.000113396;-0.000416205;0.000136389;-0.000439475;0.000287932;0.271786;3.67937;0.000347486;0.000383909;0.310344;3.22223;101.765;146.765;0.000981264;0.000113119;0.000112506;0.000114287;-0.000416205;-0.0127348;0.00656037;0;0.025706;0.05939;3.31768
170000;171;25.7562;0.00109746;4.26113e-05;-2.2509;25.6577;0.0169259;-0.00067367;0.00422101;-0.387267;0.188271;-0.165235;-0.342839;0.424602;-7.17501;-3.15548e-05;-0.000136897;0.00109027;0.00110674;-4.80188e-05;0.000577377;0.0289421;34.5517;0.00075434;0.000769837;23.048;0.0433877;82.9466;127.947;-0.00171302;-3.15556e-05;-0.000416586;0.000142479;0.00109019;0.00295327;0.0140187;0;0.0166372;0.186274;-0.170504;-0.723443;0.76625;-7.12461;0.000228277;0.000207919;-0.000340866;0.000296141;-0.000408731;0.000352436;0.669696;1.49321;0.000408685;0.000469915;0.724539;1.38019;138.898;3.89756;-0.000114766;0.00022825;0.000103668;0.000312229;-0.00034085;-0.0105161;0.00755605;0;0.0268768;0.0624347;3.32446
171000;172;25.7562;0.00111188;4.31713e-05;-2.25008;25.6578;0.00997982;0.000150672;0.00431144;-0.394213;0.18962;-0.165652;-0.346155;0.428042;-7.17833;0.000301408;0.000127617;0.00111668;0.00113619;0.000281899;0.000427146;-0.269914;-3.70488;0.000683164;0.000569527;-4.03049;-0.248109;67.4616;112.462;-0.00184279;0.000301291;-0.000244984;0.000499915;0.00111666;0.00347491;0.0126322;0;0.0472749;0.188354;-0.169776;-0.73733;0.779716;-7.13849;0.00018375;0.000270592;-0.000279798;0.000308261;-0.000404309;0.000356285;0.656723;1.52271;0.000412646;0.000475047;0.762439;1.31158;148.751;13.7506;0.000625081;0.00018371;0.000151283;0.000389955;-0.000279773;-0.0115887;0.00823212;0;0.029401;0.0633446;3.33205
172000;173;25.7586;0.00343743;0.000133466;-2.25085;25.66;0.0125198;-0.000618451;0.00657734;-0.391673;0.192104;-0.167768;-0.354236;0.436501;-7.18641;0.000244715;0.00011561;0.00103802;0.00105453;0.000228211;0.000413158;-0.235752;-4.24175;0.000640643;0.000550877;-4.62085;-0.21641;75.0734;120.073;-0.00155673;0.000244685;-3.97628e-05;0.000270859;0.00103803;0.00191298;0.0120183;0;0.0173035;0.19052;-0.172932;-0.743024;0.786313;-7.14419;0.000160989;0.000314177;-0.000278992;0.000324539;-0.000442542;0.00038354;0.577038;1.73299;0.000444617;0.000511387;0.733351;1.3636;154.675;19.6753;8.94096e-05;0.000160901;0.000103693;0.000524754;-0.000278948;-0.0105525;0.00811776;0;0.0267802;0.0663274;3.33879
173000;174;25.7564;0.00130043;5.04921e-05;-2.25052;25.6579;0.00398358;-0.000295389;0.00446322;-0.400209;0.193916;-0.174029;-0.356354;0.44145;-7.18853;0.000207994;0.00017739;0.000493684;0.000578593;0.000123085;0.000227754;-0.421311;-2.37355;0.000351949;0.000303672;-4.70077;-0.212731;50.9476;95.9476;-0.00126817;0.000207947;-1.06447e-06;0.000355794;0.000493699;0.000973817;0.0107799;0;0.0307405;0.192964;-0.177398;-0.750712;0.795157;-7.15188;0.000116844;0.000350586;-0.000361997;0.000301961;-0.000547115;0.000424538;0.322776;3.09812;0.000496979;0.000566051;0.551916;1.81187;152.266;17.2663;0.000189814;0.000116683;3.3785e-05;0.000667538;-0.000361937;-0.0105184;0.00795231;0;0.0311353;0.0695072;3.34649
174000;175;25.7567;0.00158932;6.17089e-05;-2.25069;25.6582;0.00355088;-0.000464094;0.00473849;-0.400642;0.195852;-0.176219;-0.352374;0.439975;-7.18455;0.00019445;0.00030976;0.000260441;0.000538958;-8.40672e-05;0.000311513;-0.746621;-1.33937;0.000390357;0.00041535;6.41104;0.155981;28.7881;73.7881;-0.00101199;0.000194378;0.000128757;0.000490752;0.00026048;-0.000710371;0.0108589;0;0.0205285;0.195128;-0.18029;-0.749071;0.794788;-7.15023;0.000154666;0.000288661;-0.000353653;0.000285113;-0.0004841;0.000384607;0.437338;2.28656;0.000449032;0.000512809;0.588955;1.69792;148.579;13.5789;-0.000861679;0.000154561;3.59809e-05;0.00054147;-0.000353612;-0.00722818;0.00812066;0;0.0298855;0.0702096;3.35395
175000;176;25.757;0.00184553;7.16567e-05;-2.24972;25.6585;0.00336695;0.000510402;0.00508116;-0.400826;0.198082;-0.180413;-0.353137;0.443273;-7.18531;0.000244763;0.000428782;0.000226307;0.000664417;-0.000193346;0.000428881;-1.08155;-0.924596;0.000519527;0.000571841;3.43642;0.291001;33.8501;78.8501;-0.00110431;0.00024472;0.00033803;0.000519535;0.000226342;-0.000835858;0.0110789;0;0.0163557;0.197665;-0.184172;-0.753311;0.800293;-7.15447;6.67449e-06;0.000299594;-0.000445883;0.000155841;-0.000595049;0.000375445;;;0.00045758;0.000500593;0.261895;3.81832;135.003;0.00310798;-0.000646994;6.61103e-06;0.000133778;0.000465486;-0.000445847;-0.00776803;0.00778046;0;0.029429;0.0733252;3.35939
176000;177;25.7578;0.00273175;0.000106066;-2.24964;25.6594;0.000952473;0.000589753;0.00597794;-0.403241;0.199204;-0.182022;-0.358052;0.448347;-7.19023;0.00017627;0.000368909;0.000165409;0.000539788;-0.000198109;0.000368949;-1.06567;-0.938381;0.000440986;0.000491931;2.7247;0.367013;23.6935;68.6935;-0.000953275;0.000176202;0.000216288;0.000521531;0.000165453;-0.0013296;0.0115783;0;0.0160939;0.199255;-0.186769;-0.763203;0.810595;-7.16437;8.22682e-05;0.000240933;-0.000761777;0.0001462;-0.000825709;0.000485955;0.107995;9.25968;0.000605122;0.000647939;0.17706;5.64779;113.738;158.738;-0.000849871;8.22361e-05;0.000132234;0.000349725;-0.000761756;-0.00733066;0.00836822;0;0.0267553;0.0761424;3.3655
177000;178;25.7576;0.00245782;9.54305e-05;-2.2493;25.6592;-0.00262234;0.00093095;0.00573276;-0.406815;0.201233;-0.183424;-0.361604;0.452655;-7.19378;0.000185442;0.0004329;7.65482e-05;0.000567306;-0.000305316;0.000436311;-2.42256;-0.412787;0.000511321;0.000581748;1.8581;0.538185;9.91954;54.9195;-0.000727275;0.000185298;0.000175809;0.00069002;7.66264e-05;-0.00105253;0.0105026;0;0.0145779;0.201596;-0.188653;-0.77209;0.819972;-7.17325;0.000203992;0.000196273;-0.000939747;0.000236736;-0.000972492;0.000604614;0.217071;4.6068;0.000739972;0.000806152;0.243432;4.10792;105.284;150.284;-0.000471632;0.000203974;0.000120661;0.000271972;-0.000939735;-0.0077022;0.00694565;0;0.0255683;0.0773619;3.3694
178000;179;25.7576;0.00248186;9.63637e-05;-2.24797;25.6593;-0.00428814;0.00226123;0.00587324;-0.408481;0.202537;-0.189136;-0.356242;0.451333;-7.18842;0.00021818;0.000383534;-7.07873e-05;0.000483542;-0.000336149;0.000409846;3.08219;0.324445;0.000475793;0.000546461;1.43847;0.695182;175.586;40.5862;-0.00109216;0.000217982;3.09472e-05;0.000736222;-7.07142e-05;-0.00064822;0.010038;0;0.0159149;0.203226;-0.19435;-0.773677;0.823194;-7.17484;7.37055e-05;2.02888e-05;-0.00144442;7.39766e-05;-0.0014447;0.000759336;0.0510276;19.5972;0.000988712;0.00101245;0.0512057;19.5291;86.2546;131.255;-0.000795609;7.37018e-05;0.000128948;-8.85358e-05;-0.00144443;-0.00802535;0.00694162;0;0.0244786;0.0807283;3.37525
179000;180;25.7615;0.00641274;0.000248989;-2.24892;25.6632;-0.0104811;0.00130527;0.00973365;-0.414674;0.202768;-0.18965;-0.361576;0.455872;-7.19375;0.00018363;0.000624061;-7.29454e-05;0.000692453;-0.000581769;0.000637111;2.51735;0.397242;0.000736597;0.000849481;1.19025;0.840157;178.461;43.4606;-0.000309181;0.000183331;0.00025499;0.000993227;-7.27832e-05;-0.00181436;0.0109391;0;0.0144772;0.203782;-0.196377;-0.785922;0.835323;-7.18708;0.000274461;-0.000288853;-0.00152235;0.000319755;-0.00156764;0.000943697;0.180288;5.54668;0.00116638;0.00125826;0.203972;4.90263;76.181;121.181;-0.00096209;0.000274424;-0.000181084;-0.000396816;-0.00152232;-0.00752101;0.00592223;0;0.0247322;0.083958;3.38261
180000;181;25.7619;0.00681626;0.000264657;-2.24892;25.6636;-0.019758;0.00131255;0.0101339;-0.423951;0.206194;-0.196497;-0.347424;0.449255;-7.1796;7.09299e-05;0.000624633;-0.000244235;0.000557552;-0.000730857;0.000644204;0.290417;3.44332;0.000746103;0.000858939;0.762875;1.31083;166.662;31.6624;-4.80097e-05;7.06102e-05;0.000234726;0.00101466;-0.000244067;-0.00331872;0.0118415;0;0.0174231;0.207497;-0.20337;-0.780266;0.832604;-7.18143;0.000190597;-0.000342068;-0.000989976;0.000282548;-0.00108193;0.000682238;0.192526;5.19409;0.000831624;0.000909651;0.261152;3.82918;55.6229;100.623;-0.00122835;0.000190436;-2.26458e-05;-0.000661868;-0.000989918;-0.00651273;0.00693332;0;0.0381636;0.0876702;3.39034
181000;182;25.7634;0.00827834;0.000321425;-2.24987;25.665;-0.0209631;0.000355647;0.0115167;-0.425156;0.206798;-0.199077;-0.347044;0.450374;-7.17922;1.34001e-06;0.000857602;-0.000250651;0.000742153;-0.000991464;0.000866808;;;0.00100435;0.00115574;0.748543;1.33593;167.887;32.8866;-0.000392696;8.68233e-07;0.00041954;0.00129578;-0.000250371;-0.00214481;0.0120744;0;0.0151269;0.208123;-0.205697;-0.785125;0.837883;-7.18629;0.000358635;-0.000346585;-0.000911628;0.000447046;-0.00100004;0.000723542;0.393401;2.54193;0.000855568;0.000964723;0.447029;2.23699;87.8935;132.894;-0.00118627;0.000358671;-0.000471938;-0.000221074;-0.000911679;-0.00590754;0.00658702;0;0.0234876;0.0905082;3.39721
182000;183;25.7628;0.00768546;0.000298405;-2.2484;25.6645;-0.0307899;0.00183313;0.0110412;-0.434983;0.209242;-0.200202;-0.352217;0.455983;-7.18439;-0.000125816;0.000710228;-0.00020342;0.00054667;-0.000875905;0.000711288;-0.618505;-1.6168;0.000828624;0.000948383;0.624119;1.60226;169.193;34.1933;0.000644104;-0.000126287;0.000218307;0.00120219;-0.000203191;-0.00526415;0.0123039;0;0.0197285;0.211398;-0.20637;-0.79918;0.852036;-7.20034;0.000273177;-0.000207184;-0.000682576;0.000316156;-0.000725556;0.000520856;0.400214;2.49866;0.000616721;0.000694475;0.435744;2.29493;58.1084;103.108;-0.000692497;0.000273126;-3.34472e-05;-0.000381087;-0.000682555;-0.00647539;0.00835248;0;0.0254121;0.0933458;3.4051
183000;184;25.7598;0.00472153;0.000183324;-2.24754;25.6616;-0.0493039;0.00268974;0.00811202;-0.453497;0.211962;-0.205304;-0.34463;0.453705;-7.17681;4.01548e-05;0.000424215;-0.000331699;0.000317399;-0.000608943;0.000463171;0.121058;8.26051;0.000543581;0.000617561;0.521229;1.91854;159.232;24.2318;0.000160751;3.9861e-05;-2.74657e-05;0.000876064;-0.00033161;-0.00269336;0.0124591;0;0.0155233;0.214706;-0.209823;-0.806218;0.860298;-7.20738;0.000242879;-0.000174591;-0.000508131;0.000281483;-0.000546735;0.000414109;0.477985;2.09212;0.000486277;0.000552145;0.514843;1.94234;94.379;139.379;-0.00130116;0.000242891;-0.000262974;-8.61411e-05;-0.000508151;-0.00398956;0.0121143;0;0.0248802;0.0986159;3.41224
184000;185;25.759;0.00393222;0.000152677;-2.24656;25.6608;-0.057852;0.00367405;0.00738803;-0.462045;0.213974;-0.206318;-0.344697;0.455157;-7.17687;-4.18421e-05;0.000240164;0.000349097;0.000463284;-0.000156029;0.000309656;0.119858;8.34319;0.000371939;0.000412875;2.96922;0.336789;27.5409;72.5409;0.000418738;-4.21164e-05;-0.000298431;0.000778548;0.000349081;-0.0037881;0.0121369;0;0.0153118;0.217616;-0.209931;-0.812808;0.867228;-7.21397;0.000280156;-0.000146399;-0.000462006;0.000307991;-0.000489841;0.000398916;0.60639;1.6491;0.000464599;0.000531887;0.628757;1.59044;65.9737;110.974;-0.00190522;0.000280148;-0.000101042;-0.000191789;-0.000462;-0.000288912;0.011762;0;0.0256408;0.102105;3.42022
185000;186;25.7581;0.00294545;0.000114364;-2.24598;25.6599;-0.0664848;0.00425096;0.00642708;-0.470678;0.215731;-0.208232;-0.344153;0.456445;-7.17633;-0.00012237;0.000498061;0.000594904;0.000850014;-0.00037748;0.000613747;0.205698;4.8615;0.000725987;0.000818329;2.25181;0.444088;28.8526;73.8526;0.000354346;-0.000122835;-8.9002e-05;0.0010847;0.000595024;-0.00279063;0.0115078;0;0.0143792;0.219531;-0.210803;-0.820036;0.874694;-7.2212;0.000452673;-0.000130895;-0.000505784;0.000470228;-0.000523339;0.000496783;0.894993;1.11733;0.000573909;0.000662377;0.898515;1.11295;124.264;169.264;-0.00227565;0.000452675;-0.000375104;0.000113548;-0.000505846;0.00164293;0.0128942;0;0.0270472;0.10564;3.42651
186000;187;25.7559;0.00073815;2.86603e-05;-2.24503;25.6577;-0.0752395;0.00520324;0.00427049;-0.479433;0.217475;-0.210914;-0.342904;0.457562;-7.17508;-3.90708e-05;0.000279341;0.000709666;0.000802398;-0.000131803;0.0004671;0.0550553;18.1636;0.000583847;0.000622801;6.08786;0.164261;40.2425;85.2425;0.000787594;-3.94659e-05;-0.000373562;0.000931754;0.000709635;-0.00232617;0.0129878;0;0.0174916;0.222226;-0.212872;-0.824621;0.880169;-7.22578;0.000420156;1.81694e-05;-0.000509533;0.000420511;-0.000509888;0.000465199;0.82459;1.21272;0.000537991;0.000620266;0.824712;1.21254;132.058;177.058;-0.00213572;0.000420101;-0.000294417;0.000331047;-0.000509576;0.000517818;0.0134975;0;0.0293329;0.109908;3.43346
187000;188;25.7566;0.00149251;5.795e-05;-2.24472;25.6585;-0.078849;0.00550602;0.00504339;-0.483042;0.21859;-0.213416;-0.339708;0.456869;-7.17188;0.000110184;9.98769e-05;0.000919309;0.000931455;9.80382e-05;0.000416708;-0.119856;-8.34336;0.000591007;0.000555611;-9.50094;-0.105253;54.7734;99.7734;0.00032151;0.000109802;-0.000681529;0.000880651;0.000919082;-0.00104613;0.0121689;0;0.0160783;0.223933;-0.214467;-0.827837;0.884;-7.229;0.0004866;4.11227e-05;-0.000474021;0.000488357;-0.000475778;0.000482068;1.02654;0.974148;0.00055666;0.000642757;1.02644;0.974241;138.374;3.37403;-0.00257008;0.000486573;-0.000153626;0.000236059;-0.000474032;0.00132539;0.0147367;0;0.0271013;0.1146;3.43932
188000;189;25.754;-0.00114905;-4.46142e-05;-2.24528;25.6558;-0.0871697;0.00495164;0.0023163;-0.491363;0.219294;-0.213976;-0.346206;0.462314;-7.17838;8.0594e-05;0.00015812;0.000868291;0.000898846;5.00386e-05;0.000424404;-0.0928191;-10.7736;0.000583267;0.000565872;-17.9631;-0.0556698;51.3162;96.3162;0.000364066;8.02464e-05;-0.000532974;0.00084867;0.000868162;-0.00133704;0.0133562;0;0.0164564;0.224696;-0.214313;-0.837833;0.893523;-7.239;0.000439421;0.000127642;-0.000661881;0.000454022;-0.000676481;0.000565251;0.663898;1.50626;0.000656895;0.000753669;0.671152;1.48998;130.925;175.925;-0.00247591;0.000439344;-0.000158818;0.000414418;-0.000661885;0.00225867;0.0138271;0;0.0277828;0.118985;3.44097
189000;190;25.7542;-0.000914349;-3.55017e-05;-2.24443;25.6561;-0.0894672;0.00580295;0.00261847;-0.49366;0.221828;-0.217788;-0.340131;0.460791;-7.17231;7.31665e-05;0.000111647;0.00149477;0.00150349;6.44517e-05;0.000719517;-0.0489483;-20.4297;0.000981545;0.000959356;-23.3273;-0.0428682;61.9277;106.928;0.000276674;7.27127e-05;-0.000737154;0.000959242;0.00149451;-8.02492e-05;0.013046;0;0.0147271;0.227584;-0.218494;-0.834399;0.892052;-7.23556;0.000425857;0.000309771;-0.000586037;0.000513155;-0.000673335;0.000593245;0.726672;1.37614;0.000687098;0.000790994;0.762109;1.31215;140.801;5.80057;-0.00287633;0.000425764;8.84355e-05;0.00053133;-0.000585993;0.0045933;0.0161753;0;0.0270058;0.125208;3.44845
190000;191;25.7523;-0.00284163;-0.000110333;-2.24474;25.6541;-0.101084;0.00549088;0.000613366;-0.505277;0.223729;-0.220548;-0.336768;0.460552;-7.16894;-3.82543e-05;-6.87413e-05;0.00166757;0.00167034;-4.102e-05;0.00085568;0.0229401;43.5918;0.00112748;0.00114091;40.7201;0.0245579;72.0846;117.085;0.000355362;-3.84477e-05;-0.000764381;0.000625714;0.00166728;0.000224648;0.0127276;0;0.0154195;0.229557;-0.220182;-0.837443;0.895817;-7.23861;0.000390787;0.000371939;-0.000525562;0.00052275;-0.000657525;0.000590138;0.74356;1.34488;0.000682912;0.00078685;0.795027;1.25782;150.048;15.0482;-0.00258365;0.000390538;-5.404e-05;0.000798309;-0.000525494;0.00274295;0.015865;0;0.026827;0.131519;3.45529
191000;192;25.753;-0.00207762;-8.06681e-05;-2.24378;25.6549;-0.101026;0.00644661;0.00146414;-0.505219;0.225046;-0.216788;-0.352497;0.47106;-7.18467;-1.48349e-05;-0.000156586;0.00110158;0.00112313;-3.63814e-05;0.000579756;0.0134669;74.256;0.00076117;0.000773007;30.871;0.0323929;70.0883;115.088;0.000555674;-1.50238e-05;-0.00094832;0.000634265;0.00110115;-0.000328715;0.0150149;0;0.0162595;0.230376;-0.218027;-0.854412;0.911388;-7.25557;0.000429941;0.000415374;-0.000642333;0.000572021;-0.000784413;0.000678217;0.669343;1.494;0.000786331;0.000904289;0.729234;1.3713;146.881;11.8806;-0.00304117;0.000429674;-9.73711e-06;0.000840941;-0.000642246;0.00499106;0.0144656;0;0.0257466;0.137155;3.46282
192000;193;25.7536;-0.00148239;-5.75572e-05;-2.24433;25.6555;-0.0986917;0.00590362;0.00202323;-0.502885;0.227632;-0.221405;-0.348838;0.471725;-7.18101;-2.0059e-05;-0.000110234;0.00131525;0.00132429;-2.9098e-05;0.000676695;0.015251;65.5694;0.000892719;0.00090226;45.5115;0.0219725;69.0625;114.063;0.000315644;-2.02958e-05;-0.0009186;0.000697053;0.00131484;0.00122285;0.0146837;0;0.0150445;0.233021;-0.222049;-0.852154;0.910918;-7.25332;0.000329278;0.000414603;-0.000648476;0.000481414;-0.000800611;0.000641012;0.507772;1.96939;0.000747786;0.000854683;0.601307;1.66304;146.216;11.2163;-0.00332266;0.000328951;-7.97749e-05;0.000909465;-0.000648393;0.00477367;0.0161066;0;0.0318297;0.142422;3.47017
193000;194;25.75;-0.00515442;-0.000200132;-2.24293;25.6519;-0.111558;0.00729493;-0.00159389;-0.515751;0.22736;-0.225612;-0.332426;0.461628;-7.1646;-0.000139027;2.23077e-05;0.00149333;0.00149364;-0.000139332;0.000816484;0.0930986;10.7413;0.0010453;0.00108864;10.72;0.0932837;61.9578;106.958;0.000220183;-0.0001395;-0.000929735;0.000972799;0.0014929;0.00144193;0.0129419;0;0.0193843;0.234434;-0.22453;-0.843988;0.904261;-7.24515;0.000206858;0.000479461;-0.00073896;0.000407392;-0.000939494;0.000673443;0.279931;3.57231;0.000797597;0.000897924;0.43363;2.30612;133.247;178.247;-0.00402175;0.00020672;0.000247567;0.000711576;-0.000738875;0.00655739;0.0164763;0;0.0257882;0.153816;3.47791
194000;195;25.7495;-0.00559615;-0.000217283;-2.24266;25.6514;-0.111683;0.00756798;-0.00201398;-0.515876;0.229165;-0.225211;-0.338528;0.466731;-7.1707;-0.000207935;-0.000230383;0.000849961;0.000897956;-0.000255929;0.000576942;0.24464;4.08764;0.000699726;0.000769256;3.50861;0.285013;66.1461;111.146;-0.000399468;-0.000208165;-0.00117782;0.000716056;0.000849295;0.00335256;0.0137845;0;0.0204977;0.236203;-0.224683;-0.850596;0.910927;-7.25176;0.000190276;0.000642518;-0.000820456;0.00050236;-0.00113254;0.00081745;0.231915;4.31192;0.000967002;0.00108993;0.44357;2.25444;145.258;10.258;-0.00285079;0.000189809;0.000124882;0.00116068;-0.000820258;0.00269418;0.016304;0;0.0323265;0.158295;3.48487
195000;196;25.7524;-0.00272736;-0.000105896;-2.24215;25.6544;-0.106145;0.00807953;0.000934014;-0.510338;0.2313;-0.225267;-0.343182;0.471189;-7.17536;-0.000190748;-0.000368159;0.000879176;0.000993618;-0.00030519;0.000649404;0.216963;4.60909;0.000784194;0.000865872;3.25574;0.30715;72.9677;117.968;-0.000172544;-0.000190811;-0.00124826;0.000511003;0.000878465;0.00284524;0.014674;0;0.0162121;0.237821;-0.226324;-0.855221;0.91607;-7.25638;0.000333723;0.000542346;-0.000789232;0.000552884;-0.00100839;0.000780638;0.422846;2.36493;0.000914102;0.00104085;0.548282;1.82388;133.277;178.277;-0.00297652;0.000333588;0.000333481;0.000751445;-0.00078914;0.00397781;0.0141207;0;0.0245461;0.166756;3.49237
196000;197;25.7529;-0.00226394;-8.79025e-05;-2.24232;25.6548;-0.110376;0.00790896;0.00136644;-0.514569;0.233001;-0.227614;-0.342406;0.472588;-7.17458;-0.00011165;-0.000417522;0.000589274;0.000783926;-0.000306301;0.000545113;0.18947;5.27789;0.000649265;0.000726818;2.55933;0.390727;77.9214;122.921;9.26439e-05;-0.000111653;-0.00126028;0.000424643;0.000588568;0.00284881;0.015393;0;0.0175013;0.239646;-0.229824;-0.855738;0.917898;-7.2569;0.000349462;0.000493669;-0.000995139;0.000511246;-0.00115692;0.000834084;0.351169;2.84763;0.000986873;0.00111211;0.441901;2.26295;135.142;0.141874;-0.00290747;0.000349144;4.99944e-05;0.00093794;-0.000995019;0.00245654;0.0134404;0;0.0215683;0.176181;3.4993
197000;198;25.7534;-0.00170132;-6.60576e-05;-2.24194;25.6554;-0.110915;0.00828573;0.00196181;-0.515108;0.233179;-0.228555;-0.347591;0.476896;-7.17977;-0.000122831;-0.000572911;-3.98596e-05;0.000493066;-0.000655756;0.000574411;-3.08159;-0.324508;0.000665486;0.000765881;0.751904;1.32996;85.1506;130.151;-0.000357523;-0.0001227;-0.00140538;0.000259488;-4.0683e-05;0.00404326;0.0160124;0;0.0214354;0.239948;-0.230591;-0.863573;0.925476;-7.26474;0.000350505;0.00055259;-0.0012175;0.000525676;-0.00139267;0.000959175;0.287888;3.47357;0.00114464;0.0012789;0.377458;2.6493;117.952;162.952;-0.00182879;0.000350401;0.000388755;0.000716681;-0.00121743;0.00122956;0.0136545;0;0.0222017;0.186548;3.50575
198000;199;25.753;-0.0021547;-8.36612e-05;-2.24053;25.6551;-0.10959;0.00969759;0.00163573;-0.513783;0.236285;-0.23169;-0.337564;0.472716;-7.16974;-0.000119865;-0.00025688;-0.000130499;0.000131752;-0.000382117;0.000256935;-0.918514;-1.08871;0.000308197;0.00034258;0.344796;2.90027;87.0031;132.003;-0.000450091;-0.000120101;-0.00124663;0.00073288;-0.000131243;0.00384778;0.0158802;0;0.0178999;0.243777;-0.233287;-0.857412;0.921415;-7.25857;6.06433e-05;0.000529698;-0.00104908;0.000272888;-0.00126132;0.000767105;0.0578063;17.2991;0.000945069;0.00102281;0.216351;4.62213;133.484;178.484;-0.000712921;6.02883e-05;6.46229e-05;0.000995289;-0.00104894;-0.00503112;0.0119273;0;0.0249536;0.200986;3.51449
199000;200;25.7543;-0.00076823;-2.98283e-05;-2.24017;25.6565;-0.110937;0.0100626;0.00305358;-0.51513;0.235629;-0.232854;-0.339555;0.474383;-7.17173;-0.000222032;-0.000228929;0.000247744;0.000340851;-0.000315139;0.000327995;0.896217;1.1158;0.000378833;0.000437327;1.08159;0.924566;67.556;112.556;-0.00037496;-0.000222228;-0.00112472;0.000666442;0.000247137;0.00383298;0.0145661;0;0.0260116;0.243616;-0.234761;-0.865389;0.929171;-7.26655;0.000304577;0.000321924;-0.00151039;0.000359986;-0.0015658;0.000962892;0.201655;4.95897;0.00118227;0.00128386;0.229906;4.34961;99.479;144.479;-0.00173778;0.000304579;0.000327953;0.000315883;-0.00151039;-0.000371525;0.0131102;0;0.0244856;0.205764;3.51672
200000;201;25.7568;0.00170404;6.6163e-05;-2.24049;25.6589;-0.113551;0.00974131;0.00549579;-0.517744;0.238874;-0.230557;-0.352835;0.484469;-7.18501;-1.47512e-05;-0.0001104;0.000527876;0.000549478;-3.63526e-05;0.000292915;0.0279444;35.7853;0.000379018;0.000390554;15.1152;0.0661585;64.7205;109.721;-0.000738502;-1.50003e-05;-0.000935695;0.000714448;0.000527445;0.003351;0.0151847;0;0.0205354;0.245042;-0.236321;-0.873816;0.937789;-7.27498;0.000158026;0.000351689;-0.00173017;0.000221403;-0.00179355;0.00100747;0.0913354;10.9487;0.00127592;0.0013433;0.123444;8.10083;111.524;156.524;-0.00124866;0.000157857;2.47834e-05;0.000679212;-0.00173011;-0.00328178;0.0132894;0;0.0211889;0.219495;3.52281
201000;202;25.7574;0.00224537;8.71814e-05;-2.24136;25.6594;-0.114144;0.00886619;0.00596012;-0.518337;0.239288;-0.235734;-0.345525;0.481889;-7.1777;7.26858e-05;-0.000295135;-0.000127501;0.000284238;-0.000339054;0.000311646;0.57008;1.75414;0.000360321;0.000415528;0.838328;1.19285;98.5137;143.514;-0.000504551;7.25427e-05;-0.0012011;0.000611013;-0.000128179;0.00380419;0.0159761;0;0.023994;0.2458;-0.240766;-0.871129;0.936617;-7.27229;7.02786e-05;0.000118571;-0.00164964;7.84144e-05;-0.00165777;0.000868094;0.0426024;23.4728;0.00113223;0.00115746;0.0473011;21.1412;109.411;154.411;-0.000982806;7.01101e-05;-0.000354521;0.000592479;-0.00164969;-0.00633002;0.015159;0;0.0223006;0.23029;3.5301
202000;203;25.7573;0.00220947;8.57874e-05;-2.23979;25.6595;-0.119372;0.0104442;0.00603809;-0.523565;0.239655;-0.237492;-0.342407;0.480707;-7.17458;7.57184e-05;-0.000182769;-0.000123525;0.000184253;-0.00023206;0.000208156;0.61298;1.63138;0.000240886;0.000277542;0.79399;1.25946;103.585;148.585;-0.000371753;7.5445e-05;-0.00112703;0.000761677;-0.000124144;0.00217439;0.0144888;0;0.0156067;0.247685;-0.242203;-0.875308;0.941368;-7.27647;6.31598e-05;-3.59907e-05;-0.00144047;6.40208e-05;-0.00144133;0.000752677;0.0438466;22.8068;0.000982925;0.00100357;0.0444177;22.5135;104.612;149.612;-0.00109315;6.30829e-05;-0.000465035;0.0003937;-0.00144058;-0.00599671;0.0145962;0;0.0223463;0.244628;3.53747
203000;204;25.7586;0.0035105;0.000136303;-2.24248;25.6605;-0.125741;0.00775389;0.0070787;-0.529934;0.243171;-0.237038;-0.348137;0.486332;-7.18031;9.0973e-05;-4.31762e-05;9.73732e-05;0.000137468;5.08785e-05;4.32946e-05;-0.934271;-1.07035;8.02547e-05;5.77261e-05;-2.70188;-0.370112;91.1413;136.141;-0.00034354;9.06668e-05;-0.000870038;0.00078368;9.69957e-05;0.00308513;0.0154052;0;0.0155234;0.249178;-0.243297;-0.880399;0.946776;-7.28156;0.000192863;-5.85574e-05;-0.00128161;0.000195184;-0.00128393;0.000739556;0.150485;6.64518;0.000927882;0.000986075;0.152021;6.57802;99.0078;144.008;-0.00103104;0.00019285;-0.000284379;0.000167597;-0.00128164;-0.0069497;0.0135811;0;0.0214981;0.25732;3.54446
204000;205;25.7601;0.00496871;0.000192921;-2.24261;25.662;-0.126534;0.00762195;0.00852705;-0.530727;0.243304;-0.238898;-0.349573;0.488334;-7.18175;0.000240139;0.000201147;0.000227332;0.000434985;3.24859e-05;0.000201249;-1.05634;-0.946667;0.00027979;0.000268332;-13.3899;-0.074683;8.35774;53.3577;-0.000364775;0.000239755;-0.000496725;0.000899029;0.000227229;0.00215296;0.0139252;0;0.0153389;0.249542;-0.245387;-0.885048;0.951733;-7.28621;-1.71263e-05;-6.28847e-05;-0.000901281;-1.26761e-05;-0.000905731;0.000446528;-0.0190022;-52.6254;0.00059964;0.00059537;-0.0139955;-71.4517;99.9254;144.925;-0.00121946;-1.71407e-05;-0.000306264;0.00018071;-0.000901326;-0.00627491;0.0155645;0;0.0206445;0.273453;3.55176
205000;206;25.7606;0.0054729;0.000212498;-2.24187;25.6625;-0.131439;0.00835834;0.00907286;-0.535632;0.24489;-0.239072;-0.353388;0.491945;-7.18556;0.000265554;0.000120228;0.000349217;0.000434683;0.000180088;0.000127298;-0.760426;-1.31505;0.00025219;0.00016973;-2.41372;-0.414297;23.738;68.738;-0.00086153;0.000265322;-0.000451358;0.000691767;0.000349123;0.00241047;0.0132648;0;0.0143575;0.251267;-0.246535;-0.89138;0.95837;-7.29254;0.000226049;-0.000113049;-0.000617666;0.000240933;-0.000632551;0.000436742;0.365972;2.73245;0.000520927;0.000582323;0.380892;2.62542;106.792;151.792;-0.00139929;0.000226049;-0.00033488;0.000108968;-0.000617716;-0.00537251;0.0168992;0;0.0210415;0.289998;3.55837
206000;207;25.7603;0.00515253;0.000200058;-2.24252;25.6621;-0.138768;0.00771405;0.00865638;-0.542961;0.24547;-0.240109;-0.35589;0.494536;-7.18807;0.000376637;7.31165e-05;-0.000190599;0.00038591;-0.000199872;0.000292891;1.97608;0.506054;0.00034384;0.000390521;1.93079;0.517923;145.946;10.9456;-0.000212046;0.000376329;-0.000641489;0.000788128;-0.000190802;0.00122072;0.0129664;0;0.0142493;0.251642;-0.247053;-0.899845;0.966478;-7.30101;4.81527e-05;-0.000103364;-0.000518122;6.64301e-05;-0.0005364;0.000301415;0.092937;10.76;0.000381675;0.000401886;0.123844;8.07465;91.4329;136.433;-0.00093381;4.81581e-05;-0.000202675;-3.99672e-06;-0.000518137;-0.00566438;0.0192466;0;0.0220697;0.301589;3.56604
207000;208;25.7613;0.00614485;0.000238587;-2.24316;25.663;-0.139919;0.00706506;0.00958953;-0.544112;0.2469;-0.24349;-0.347145;0.49067;-7.17932;0.000120078;0.000186471;4.54043e-06;0.000257523;-0.000132905;0.000195214;;;0.000229209;0.000260285;1.93766;0.516087;173.992;38.9921;-5.12458e-05;0.000119714;-0.000501161;0.000874181;4.43223e-06;0.00113123;0.013092;0;0.0145066;0.252714;-0.251241;-0.894522;0.962889;-7.29568;0.000209007;-6.45445e-05;-0.000255004;0.000217818;-0.000263815;0.000240817;0.819623;1.22007;0.000278493;0.000321089;0.825647;1.21117;108.568;153.568;-0.000578499;0.000209009;-9.47076e-05;-3.43674e-05;-0.000255007;-0.00811726;0.0186722;0;0.023409;0.318063;3.57269
208000;209;25.7608;0.00571212;0.000221786;-2.24191;25.6627;-0.141811;0.00831848;0.0092543;-0.546004;0.245798;-0.246092;-0.343752;0.489022;-7.17593;0.000105031;6.06054e-05;9.26306e-06;0.000134386;-2.00921e-05;7.72392e-05;;;9.69845e-05;0.000102986;6.68852;0.14951;163.41;28.4101;-0.000644448;0.000104789;-0.000577948;0.00069922;9.09789e-06;0.00213657;0.0132626;0;0.0203419;0.252614;-0.253385;-0.893064;0.962071;-7.29423;0.000219585;-4.89967e-05;-0.000269733;0.000224443;-0.000274591;0.000249517;0.814082;1.22838;0.000288602;0.000332689;0.817372;1.22343;120.018;165.018;-0.000675422;0.000219586;-0.000123308;2.53513e-05;-0.000269739;-0.0072597;0.020526;0;0.0281172;0.33994;3.57953
209000;210;25.7579;0.00279892;0.000108674;-2.24236;25.6596;-0.158424;0.00786564;0.00619319;-0.562617;0.247908;-0.246734;-0.347716;0.493196;-7.17989;0.000229339;0.000165585;-0.000464555;0.000266827;-0.000502044;0.000384436;0.493674;2.02563;0.000450779;0.000512581;0.531482;1.88153;142.835;7.83458;-0.000783767;0.000228998;-0.000510534;0.000842175;-0.000464672;0.00186761;0.0124943;0;0.0138669;0.254542;-0.253125;-0.906214;0.974725;-7.30738;5.6747e-07;-0.000150542;-0.00026698;6.81845e-05;-0.000334597;0.000201391;;;0.000248925;0.000268521;0.203781;4.90723;82.8822;127.882;-0.000967305;5.76988e-07;-0.000240836;-6.02229e-05;-0.000266998;-0.00584886;0.0240037;0;0.0264768;0.3628;3.58723
210000;211;25.7578;0.00269743;0.000104734;-2.24266;25.6595;-0.163956;0.00757164;0.00603087;-0.568149;0.248984;-0.250811;-0.342735;0.492308;-7.17491;0.000413535;0.000410754;-0.000741966;0.000544667;-0.000873098;0.000708882;0.557351;1.7942;0.000825836;0.000945177;0.623833;1.60299;145.847;10.8475;0.00016492;0.000413033;-0.000260639;0.00108292;-0.000741915;-0.000998793;0.013218;0;0.019557;0.255075;-0.257418;-0.902768;0.972789;-7.30393;-1.10178e-05;-0.000116519;-0.000257744;3.53107e-05;-0.000304072;0.000169691;-0.042747;-23.3935;0.000215452;0.000226255;0.116126;8.61133;104.227;149.227;-0.000469559;-1.10537e-05;-0.000525358;0.000292421;-0.000257875;-0.00818314;0.0241775;0;0.0357122;0.373369;3.5878
211000;212;25.758;0.00291172;0.000113054;-2.24361;25.6596;-0.167908;0.00661767;0.00613702;-0.572101;0.248674;-0.250393;-0.347639;0.495367;-7.17981;0.00011214;0.000367854;-0.000413074;0.000301505;-0.000602439;0.000451972;0.271478;3.68355;0.000531446;0.00060263;0.500474;1.9981;156.294;21.2936;-0.000147695;0.000111623;-0.000345271;0.00108135;-0.000413066;7.41559e-06;0.0111042;0;0.0158963;0.253864;-0.256813;-0.912544;0.981395;-7.31371;-0.000144519;-0.000101985;-0.000130246;-3.51481e-05;-0.000239617;0.000102234;-1.10959;-0.901234;0.000149413;0.000136312;-0.146685;-6.81734;72.5111;117.511;-0.000963896;-0.000144522;-0.000330781;0.000126808;-0.000130295;-0.00554615;0.0258588;0;0.0271883;0.401661;3.59618
212000;213;25.7585;0.00339857;0.000131957;-2.24377;25.66;-0.170316;0.0064605;0.00659614;-0.574509;0.249541;-0.25224;-0.350736;0.49891;-7.18291;0.000241949;0.000613316;-0.000635904;0.000557219;-0.000951175;0.000754197;0.380479;2.62826;0.000880717;0.0010056;0.585822;1.707;154.399;19.3991;-0.000281401;0.000241269;-9.02758e-05;0.00131753;-0.00063572;0.000277929;0.0116191;0;0.0152127;0.254543;-0.258325;-0.919608;0.988536;-7.32077;-5.6492e-05;-5.89045e-05;-0.000130252;-2.38746e-05;-0.000162869;6.94973e-05;-0.433713;-2.30567;0.000101561;9.26631e-05;-0.146588;-6.82186;97.2741;142.274;-0.00148514;-5.65183e-05;-0.000354822;0.000237035;-0.000130313;-0.00277186;0.0272787;0;0.0286687;0.424816;3.60218
213000;214;25.7568;0.00165373;6.42097e-05;-2.24397;25.6582;-0.177535;0.00625916;0.00477805;-0.581728;0.249845;-0.253437;-0.351626;0.500293;-7.1838;0.000196812;0.000486889;-0.000318001;0.00049015;-0.000611339;0.000550744;0.618905;1.61576;0.000637227;0.000734326;0.801765;1.24725;163.809;28.8093;6.90637e-05;0.000196149;-0.00027618;0.00125035;-0.00031792;-0.00111888;0.0125451;0;0.0128972;0.254988;-0.259689;-0.920377;0.989722;-7.32154;-8.60146e-05;-6.14752e-05;-3.63038e-05;5.15061e-06;-0.000127469;6.63098e-05;-2.3693;-0.422066;8.67472e-05;8.84131e-05;;;73.7538;118.754;-0.00107956;-8.60489e-05;-0.000391855;0.000268889;-3.63787e-05;-0.00472815;0.0263654;0;0.0259959;0.445998;3.60964
214000;215;25.7581;0.00299753;0.000116386;-2.24474;25.6595;-0.180043;0.00548715;0.00604202;-0.584236;0.250347;-0.255658;-0.349239;0.500002;-7.18142;0.00010557;0.000429749;-0.00094211;0.000259294;-0.00109583;0.000677564;0.112057;8.92406;0.00083059;0.000903418;0.236618;4.22623;140.956;5.95551;0.000252473;0.0001049;-0.000373942;0.00123428;-0.000942087;-0.000451595;0.0119225;0;0.0169151;0.255107;-0.261787;-0.925418;0.994993;-7.32658;1.43104e-05;-0.00013915;9.94738e-05;0.000202412;-8.86275e-05;0.00014552;-0.143861;-6.95117;0.000172259;0.000194026;2.28385;0.437858;85.059;130.059;-0.00169073;1.427e-05;-0.00059466;0.000316322;9.93067e-05;-0.00120962;0.0277858;0;0.0261505;0.468806;3.61655
215000;216;25.757;0.00183236;7.11453e-05;-2.24433;25.6583;-0.187666;0.00590404;0.00485421;-0.591859;0.251256;-0.259436;-0.341738;0.497214;-7.17391;0.000174102;0.000526346;-0.000928906;0.000384961;-0.00113976;0.000762363;0.187427;5.3354;0.00091555;0.00101648;0.337755;2.96073;144.074;9.07366;-0.000186026;0.000173374;-0.000262952;0.00131652;-0.000928802;-0.00045452;0.0133139;0;0.0160943;0.255698;-0.265452;-0.922713;0.993603;-7.32388;-2.48388e-05;-7.54572e-05;-8.90607e-06;5.90041e-05;-9.27489e-05;7.58765e-05;;;8.83338e-05;0.000101169;0.63617;1.57191;85.8091;130.809;-0.000656428;-2.48913e-05;-0.000483675;0.000332755;-9.02019e-06;-0.00453265;0.0284746;0;0.0292015;0.494051;3.62445
216000;217;25.7581;0.00296121;0.000114976;-2.24503;25.6594;-0.185786;0.00520439;0.00593988;-0.589979;0.253719;-0.260002;-0.349154;0.503868;-7.18133;0.000140261;0.000694836;-0.000297867;0.000649748;-0.000807354;0.000728551;0.470885;2.12366;0.000842897;0.000971401;0.804787;1.24257;168.356;33.3561;0.000127384;0.000139423;-7.92595e-05;0.00146927;-0.000297629;-0.00168363;0.0107719;0;0.0306615;0.257613;-0.266781;-0.931537;1.00265;-7.3327;0.000377943;-2.52009e-05;5.1421e-05;0.000379876;4.94875e-05;0.000165194;-7.34997;-0.136055;0.000238473;0.000220259;-7.67621;-0.130273;176.98;41.9797;-0.00142298;0.000377942;-1.49474e-05;-3.54578e-05;5.14212e-05;-0.00224003;0.0270632;0;0.0392736;0.530536;3.63144
217000;218;25.758;0.00292474;0.000113559;-2.24402;25.6594;-0.189222;0.00620971;0.0059661;-0.593415;0.25044;-0.25974;-0.358489;0.508625;-7.19066;0.000289195;0.000872288;-0.000798336;0.000773324;-0.00128246;0.00102789;0.362247;2.76055;0.00119898;0.00137053;0.602998;1.65838;155.856;20.8556;0.000105979;0.000288063;6.5249e-06;0.00173899;-0.000797955;-0.000336182;0.0118717;0;0.0141576;0.254039;-0.267409;-0.943027;1.01259;-7.34419;0.000327719;4.66566e-05;-0.000224413;0.000331634;-0.000228328;0.000279981;1.46034;0.684773;0.000325123;0.000373308;1.45244;0.688495;40.3307;85.3307;-0.00236851;0.000327714;0.000197253;-0.000104023;-0.000224431;0.00411739;0.0282303;0;0.0217521;0.549163;3.63911
218000;219;25.7583;0.00318949;0.000123839;-2.2454;25.6596;-0.186639;0.00482924;0.00613002;-0.590832;0.251558;-0.265781;-0.344837;0.502826;-7.17701;0.000124126;0.000560123;-0.000597394;0.000429614;-0.000902882;0.000666248;0.207779;4.8128;0.000785325;0.000888331;0.475825;2.10161;156.477;21.477;0.000255425;0.000123174;-0.000368589;0.00148951;-0.000597305;9.35769e-05;0.0114832;0;0.0122761;0.254189;-0.273405;-0.930968;1.00303;-7.33213;0.000183255;-5.93997e-05;-0.000271998;0.000190877;-0.000279621;0.000235249;0.673736;1.48426;0.000273248;0.000313665;0.68263;1.46492;121.867;166.867;-0.00109445;0.000183244;-0.000274628;0.000155927;-0.000272034;0.00023673;0.0286193;0;0.0200219;0.577102;3.64638
219000;220;25.7614;0.00629222;0.000244309;-2.24522;25.6627;-0.18366;0.00500643;0.00928168;-0.587854;0.251605;-0.268886;-0.344195;0.504058;-7.17637;-1.79677e-05;0.000726767;-0.000476306;0.000514906;-0.00100918;0.000762042;-0.0377229;-26.5091;0.000895223;0.00101606;0.510222;1.95993;163.911;28.9112;0.000301938;-1.90958e-05;-0.000214721;0.00166869;-0.000476065;-0.000918153;0.0119314;0;0.0226369;0.253685;-0.279124;-0.933043;1.0064;-7.33421;0.000145797;-0.000158172;-0.000591612;0.000178293;-0.000624107;0.0004012;0.246441;4.05777;0.000486517;0.000534933;0.285676;3.50046;53.0728;98.0728;-0.000570279;0.000145717;0.000113335;-0.000429879;-0.000591606;-0.000181869;0.0262906;0;0.0259778;0.614637;3.65446
220000;221;25.7627;0.00754935;0.00029312;-2.246;25.6639;-0.182577;0.00423375;0.0104838;-0.58677;0.251669;-0.270973;-0.341787;0.503569;-7.17396;0.000167215;0.000791277;-0.000430974;0.000714039;-0.000977797;0.000845918;0.387994;2.57736;0.000980731;0.00112789;0.730252;1.36939;165.672;30.6722;1.34748e-05;0.000166027;-0.00014954;0.00173266;-0.000430672;-0.000786901;0.0131204;0;0.0122215;0.253212;-0.281712;-0.931776;1.00583;-7.33294;0.000210389;-0.000254808;-0.000824036;0.000269749;-0.000883396;0.000576572;0.255315;3.91673;0.000696482;0.000768763;0.305354;3.27489;69.8747;114.875;-0.000244799;0.000210366;-0.00017824;-0.000331455;-0.000824019;-0.00212869;0.0274306;0;0.0172885;0.644362;3.65891
221000;222;25.7635;0.00836564;0.000324815;-2.24728;25.6646;-0.182775;0.00295124;0.0111895;-0.586968;0.251137;-0.274421;-0.338268;0.502794;-7.17044;-6.12308e-05;0.000513307;-0.000768121;0.000208547;-0.0010379;0.000623223;-0.0797151;-12.5447;0.000770909;0.000830965;0.200932;4.9768;150.005;15.0053;9.07179e-05;-6.20572e-05;-0.000356981;0.00138421;-0.000768053;0.000697972;0.0146882;0;0.0132583;0.251385;-0.286133;-0.929808;1.00479;-7.33097;0.000220962;-0.000335101;-0.000908546;0.000312896;-0.00100048;0.000656688;0.243204;4.11178;0.000792159;0.000875585;0.312746;3.19748;52.5708;97.5708;-0.000487635;0.000220794;-1.42374e-06;-0.000669156;-0.00090849;-0.00202012;0.0289308;0;0.0227852;0.673792;3.66208
222000;223;25.7661;0.0109693;0.000425906;-2.24857;25.6671;-0.188955;0.00166301;0.0136456;-0.593148;0.250226;-0.276334;-0.338044;0.503237;-7.17022;-9.16326e-05;0.000799467;-0.000204276;0.000653494;-0.000949403;0.000801449;-0.448572;-2.2293;0.000930675;0.0010686;0.688321;1.45281;173.861;38.8612;0.000356763;-9.2963e-05;-0.000217468;0.00181652;-0.00020398;-0.000331823;0.0127207;0;0.0180377;0.250473;-0.289063;-0.93497;1.01018;-7.33613;-0.000126112;-0.000363948;-0.000529897;8.81904e-05;-0.0007442;0.000416195;-0.237994;-4.20179;0.000527991;0.000554927;0.118504;8.43856;31.9178;76.9178;-0.000668938;-0.000126395;0.00010728;-0.000835365;-0.000529837;-0.00268981;0.0301683;0;0.0209726;0.717641;3.67231
223000;224;25.767;0.0119026;0.000462146;-2.24886;25.668;-0.192961;0.00137187;0.0145273;-0.597154;0.251174;-0.277234;-0.348542;0.511301;-7.18072;-5.3926e-05;0.000721376;0.000246417;0.000833087;-0.000640596;0.000736842;0.21884;4.56955;0.000853247;0.000982455;1.30049;0.768942;8.63517;53.6352;0.000764032;-5.51522e-05;-0.000281661;0.00172411;0.000246638;-0.000456477;0.0153377;0;0.0149694;0.250887;-0.291218;-0.94751;1.02251;-7.34867;0.000269782;-0.000369974;-0.000121774;0.000492585;-0.000344577;0.000418581;2.21543;0.45138;0.000485847;0.000558108;1.42953;0.699528;8.94798;53.948;-0.00227025;0.000269538;5.05874e-05;-0.000790701;-0.000121707;0.00159508;0.0304738;0;0.022575;0.746641;3.67546
224000;225;25.7687;0.0136195;0.000528809;-2.25186;25.6695;-0.190095;-0.00163486;0.0160086;-0.594288;0.249023;-0.28292;-0.339077;0.506981;-7.17125;-9.51316e-05;0.000928578;0.000448302;0.0011441;-0.00079093;0.000967515;0.212205;4.71243;0.00112338;0.00129002;1.44652;0.691312;12.7632;57.7632;0.00126956;-9.67418e-05;-0.000163926;0.00202049;0.000448719;-0.00115887;0.0156464;0;0.0125177;0.247607;-0.296737;-0.939401;1.01579;-7.34056;-6.05122e-05;-0.000200291;0.000205013;0.000312547;-0.000168046;0.000240297;0.295162;3.38797;0.000281621;0.000320396;1.85989;0.537666;158.848;23.8477;-0.0017572;-6.07163e-05;0.000269061;-0.000669519;0.000204997;-0.00133786;0.0320785;0;0.0242891;0.788317;3.683
225000;226;25.7673;0.0121624;0.000472233;-2.25143;25.668;-0.195835;-0.00119566;0.0145412;-0.600028;0.249253;-0.285749;-0.341568;0.510342;-7.17374;-4.69585e-05;0.000664182;0.000952016;0.00128357;-0.00037851;0.000831038;0.0493253;20.2736;0.00100591;0.00110805;3.39111;0.294889;31.0055;76.0055;0.000764105;-4.80708e-05;-0.000305259;0.00163265;0.00095219;-0.000335543;0.014873;0;0.0128536;0.24725;-0.299469;-0.943152;1.01998;-7.34431;-8.4645e-05;-0.000235306;0.000321455;0.000429208;-0.000192397;0.000310802;0.263318;3.79769;0.000367462;0.000414403;2.23084;0.448261;149.475;14.4745;-0.00195284;-8.4772e-05;8.57263e-05;-0.000556207;0.000321479;-0.000945937;0.034042;0;0.0260173;0.812918;3.68964
226000;227;25.7698;0.0146724;0.000569688;-2.25302;25.6704;-0.189517;-0.00279477;0.016968;-0.59371;0.247721;-0.290973;-0.336245;0.509011;-7.16842;-0.000104671;0.000525422;0.00095347;0.00117004;-0.000321243;0.000745643;0.109779;9.10923;0.00090629;0.00099419;3.64223;0.274557;33.5763;78.5763;0.000756065;-0.00010578;-0.000529799;0.00157953;0.000953467;-0.000986743;0.0148601;0;0.0149814;0.245241;-0.305332;-0.936488;1.01508;-7.33765;-1.09277e-07;-0.000184716;0.000511781;0.000571474;-5.98028e-05;0.000315639;;;0.000402401;0.000420851;9.55598;0.104647;142.123;7.12262;-0.00387329;-4.38589e-07;0.000463213;-0.000832312;0.000511691;0.00158988;0.0306101;0;0.0260836;0.859013;3.69784
227000;228;25.7659;0.0108088;0.000419676;-2.25135;25.6666;-0.203707;-0.00112427;0.0131273;-0.6079;0.247521;-0.293911;-0.333463;0.508772;-7.16564;-0.000254126;0.00057037;0.00141572;0.00159195;-0.00043035;0.00101115;0.179502;5.57096;0.0012301;0.0013482;3.6992;0.270329;44.8106;89.8106;0.00116115;-0.00025499;-0.000293782;0.00143308;0.00141584;-0.00107024;0.0152042;0;0.0122352;0.245009;-0.30563;-0.942257;1.02043;-7.34342;-3.48234e-05;-0.000102401;0.000567723;0.00058465;-5.17506e-05;0.0003182;0.0613387;16.3029;0.000408112;0.000424267;11.2975;0.0885155;135.326;0.326167;-0.00446407;-3.52391e-05;0.000713305;-0.000917616;0.000567474;0.00401631;0.0345101;0;0.0254618;0.896811;3.70495
228000;229;25.7668;0.0116861;0.000453741;-2.25341;25.6672;-0.206955;-0.00318208;0.0138015;-0.611148;0.246833;-0.294343;-0.340412;0.513269;-7.17259;-0.000184281;0.000612123;0.00154194;0.00173697;-0.000379307;0.00105814;0.119512;8.36735;0.00130295;0.00141085;4.57932;0.218373;45.9902;90.9902;0.000772639;-0.000185223;-0.000280065;0.00150277;0.00154209;-0.00081454;0.0151716;0;0.0140535;0.243292;-0.308479;-0.9465;1.0248;-7.34766;2.16585e-05;4.48261e-05;0.000671368;0.000674447;1.85803e-05;0.000327933;-0.0322602;-30.998;0.000443567;0.000437244;-36.299;-0.027549;118.071;163.071;-0.00443319;2.14376e-05;0.000756249;-0.000666134;0.000671084;0.0031398;0.0348036;0;0.0255269;0.931131;3.71289
229000;230;25.7661;0.0109863;0.000426568;-2.25543;25.6663;-0.215073;-0.00520539;0.0128545;-0.619266;0.246169;-0.297299;-0.342341;0.51593;-7.17452;-0.000207402;0.000330139;0.000881892;0.000974138;-0.000299647;0.000636893;0.235178;4.2521;0.00076902;0.00084919;3.25095;0.307602;41.1814;86.1814;0.000255331;-0.000207956;-0.000443702;0.00110314;0.000881848;-0.000450149;0.0155915;0;0.0135349;0.241123;-0.310803;-0.949752;1.02799;-7.35091;-0.000343879;0.000252956;0.000723141;0.000780072;-0.000400809;0.00059044;0.475534;2.1029;0.000693403;0.000787254;1.94624;0.51381;114.156;159.156;-0.00386639;-0.000343925;0.000901777;-0.000395174;0.000722767;0.00192383;0.0343929;0;0.0246812;0.973633;3.71972
230000;231;25.7653;0.0101584;0.000394421;-2.2551;25.6655;-0.216859;-0.00487004;0.0120378;-0.621052;0.244761;-0.301257;-0.347576;0.52103;-7.17975;-0.000162325;0.000438744;0.00109627;0.00123412;-0.000300173;0.000767145;0.148071;6.75353;0.000938934;0.00102286;4.11135;0.243229;46.2766;91.2766;-6.04582e-05;-0.000162779;-0.000172118;0.00104884;0.00109635;-0.000110157;0.0131109;0;0.0202362;0.239647;-0.313487;-0.955816;1.03406;-7.35698;-0.000268701;0.000268045;0.000662063;0.000733737;-0.000340375;0.000537056;0.405854;2.46394;0.000633849;0.000716074;2.15567;0.463892;110.573;155.573;-0.00402704;-0.000268712;0.000842908;-0.000306284;0.000661744;0.00385177;0.0340549;0;0.0266992;1.01922;3.72679
231000;232;25.7663;0.0111941;0.000434636;-2.25503;25.6665;-0.217238;-0.00479726;0.0130807;-0.621431;0.242576;-0.304956;-0.339787;0.517008;-7.17196;1.61995e-05;0.000359181;0.000207147;0.000483327;-0.00025998;0.000371654;-0.0782029;-12.7873;0.000435558;0.000495538;1.85909;0.537897;11.5499;56.5499;0.000431077;1.562e-05;-0.000416659;0.00113487;0.000207125;0.000436089;0.0157599;0;0.0128151;0.237006;-0.317325;-0.953079;1.0321;-7.35424;-0.000234607;0.000426935;0.000782925;0.000938325;-0.000390006;0.000664166;0.299654;3.33718;0.000788391;0.000885554;2.40592;0.415641;103.332;148.332;-0.00424377;-0.000234537;0.00106346;-0.000208945;0.000782451;0.00393864;0.0315985;0;0.0242401;1.06484;3.73368
232000;233;25.7684;0.0132917;0.00051608;-2.25633;25.6685;-0.217088;-0.00610175;0.0150731;-0.621281;0.241454;-0.305726;-0.344718;0.520191;-7.17689;0.000211939;0.000299103;0.000414678;0.000629122;-2.50537e-06;0.000315814;-0.511094;-1.95659;0.000420253;0.000421085;;;21.2978;66.2978;-0.00042826;0.000211476;-0.000409659;0.00100772;0.000414639;0.00163196;0.0134023;0;0.0134332;0.234571;-0.319933;-0.958502;1.03736;-7.35966;-7.5264e-05;0.000302574;0.000636574;0.000747805;-0.000186495;0.00046715;0.118233;8.45788;0.000570947;0.000622867;4.00978;0.249391;95.5021;140.502;-0.00343236;-7.52194e-05;0.000654102;-4.87032e-05;0.000636405;0.00242428;0.0312876;0;0.0220154;1.10496;3.73822
233000;234;25.7657;0.010566;0.000410248;-2.25686;25.6657;-0.2216;-0.0066277;0.012252;-0.625793;0.243057;-0.311331;-0.333853;0.517167;-7.16603;6.46339e-06;0.000215352;-0.000384614;0.000101806;-0.000479956;0.000290881;;;0.000358754;0.000387841;0.212115;4.71442;152.155;17.1553;0.000563058;5.98193e-06;-0.000573625;0.00100464;-0.000384755;-0.000966523;0.0142994;0;0.0191224;0.235214;-0.323978;-0.95187;1.03264;-7.35303;-0.000128689;0.000298782;0.00061932;0.000724012;-0.00023338;0.000478696;0.20779;4.81254;0.000576437;0.000638262;3.10228;0.322343;104.784;149.784;-0.00419049;-0.000128694;0.000912607;-0.000314584;0.000618949;0.00425636;0.0322504;0;0.0225882;1.14451;3.74224
234000;235;25.7695;0.014402;0.000559191;-2.25646;25.6696;-0.216765;-0.00623196;0.0161791;-0.620958;0.239091;-0.314003;-0.338155;0.519722;-7.17033;9.33295e-06;0.000144389;-0.000814974;3.38931e-05;-0.000839534;0.000436714;;;0.000571323;0.000582285;0.0403713;24.7701;130.053;175.053;0.000229947;8.96955e-06;-0.000575301;0.000864673;-0.00081513;0.000689932;0.0144349;0;0.0152119;0.231558;-0.329802;-0.957397;1.03875;-7.35856;-0.000107113;-4.08155e-05;0.000398495;0.000401768;-0.000110387;0.000256078;0.268795;3.72031;0.000311236;0.000341437;3.63964;0.274752;134.433;179.433;-0.00356693;-0.000107468;0.000762545;-0.00084377;0.000398205;0.00247645;0.0271827;0;0.0240981;1.19982;3.75132
235000;236;25.7669;0.0117468;0.000456098;-2.25643;25.6669;-0.226964;-0.00619649;0.0134285;-0.631157;0.234855;-0.318885;-0.325182;0.512433;-7.15736;-0.0001684;-1.29175e-05;-0.000673038;-0.000168069;-0.000673369;0.00025265;-0.250208;-3.99668;0.000404695;0.000336866;-0.249594;-4.0065;118.546;163.546;-0.000141793;-0.000168656;-0.000741344;0.000715877;-0.000673313;0.00203518;0.0145641;0;0.0252074;0.226504;-0.332268;-0.952375;1.03379;-7.35354;-0.000120802;-4.2532e-05;0.000418266;0.000421601;-0.000124137;0.000272869;0.288815;3.46242;0.000330316;0.000363825;3.39627;0.294441;134.855;179.855;-0.00301289;-0.000121259;0.000873032;-0.000957603;0.000417886;0.00095706;0.0278213;0;0.0363447;1.24279;3.75652
236000;237;25.7744;0.0192727;0.000748306;-2.2585;25.6743;-0.216004;-0.00826737;0.0208961;-0.620197;0.233482;-0.319091;-0.332298;0.516483;-7.16447;-0.000155463;0.000165432;-0.000887477;-0.000119813;-0.000923127;0.000401657;-0.175175;-5.70859;0.000579623;0.000535543;-0.12979;-7.70476;130.965;175.965;0.000254233;-0.000155936;-0.000655232;0.000986698;-0.000887678;0.00117423;0.0149125;0;0.0138308;0.224309;-0.337186;-0.955305;1.0376;-7.35647;5.74819e-05;-0.000251133;0.000458368;0.000579243;-6.3393e-05;0.000321318;-0.125405;-7.97413;0.000408934;0.000428424;9.13733;0.109441;155.449;20.449;-0.00337484;5.61569e-05;0.00114549;-0.00164719;0.000457744;0.00112343;0.0269212;0;0.024323;1.28879;3.76393
237000;238;25.7754;0.0202565;0.000786504;-2.25944;25.6752;-0.222248;-0.00921181;0.0217474;-0.626441;0.233636;-0.322898;-0.332564;0.519083;-7.16474;3.56054e-05;0.000425569;-0.00133588;0.000156926;-0.0014572;0.000807065;0.0266531;37.5191;0.00102778;0.00107609;0.10769;9.28591;133.967;178.967;-0.000104873;3.4726e-05;-0.00054036;0.00139282;-0.00133594;0.00183084;0.0151396;0;0.0134953;0.223728;-0.340943;-0.961247;1.04417;-7.36241;1.83547e-05;-0.000398691;0.000727368;0.000906368;-0.000160645;0.000533507;-0.0252345;-39.6284;0.0006643;0.000711342;5.64204;0.177241;149.999;14.999;-0.00357895;1.72727e-05;0.000727572;-0.00152416;0.000727183;0.000354581;0.0270619;0;0.0242178;1.33601;3.77147
238000;239;25.7788;0.0236354;0.000917696;-2.25971;25.6786;-0.220355;-0.00948538;0.0251317;-0.624548;0.230374;-0.323009;-0.335778;0.519764;-7.16795;-0.000144069;-6.90551e-06;-0.000585471;-0.000143961;-0.000585579;0.000220809;-0.246074;-4.06383;0.000352342;0.000294412;-0.245844;-4.06762;122.627;167.627;-0.000357268;-0.000144433;-0.000866769;0.000853338;-0.000585846;0.00261551;0.0137629;0;0.0147482;0.220991;-0.343688;-0.964577;1.04755;-7.36574;-5.14059e-05;-0.000239479;0.000837583;0.00089799;-0.000111813;0.000504901;0.0613742;16.2935;0.000639199;0.000673202;8.03118;0.124515;141.153;6.15262;-0.0033042;-5.26778e-05;0.001135;-0.00161274;0.000836968;-0.00213068;0.0265694;0;0.0281362;1.38834;3.77732
239000;240;25.777;0.0218474;0.000848273;-2.26027;25.6766;-0.229725;-0.0100406;0.0232057;-0.633918;0.230808;-0.327591;-0.330385;0.519367;-7.16256;-0.000136471;9.51738e-05;-0.000509605;-0.000113597;-0.000532478;0.00020944;-0.267797;-3.73417;0.000323831;0.000279254;-0.213337;-4.68742;138.193;3.19312;-6.48066e-05;-0.000136919;-0.000760965;0.000951632;-0.00050989;0.00231747;0.0135342;0;0.0135705;0.220456;-0.347714;-0.963017;1.04733;-7.36418;-2.38012e-05;-0.000148953;0.00103191;0.00105252;-4.44151e-05;0.000548468;0.0230653;43.3552;0.000716944;0.00073129;23.6974;0.0421988;131.806;176.806;-0.00321678;-2.47551e-05;0.00109264;-0.00138924;0.00103132;-0.00290004;0.0274043;0;0.0247841;1.43727;3.7847
240000;241;25.7775;0.022335;0.000867206;-2.26148;25.677;-0.236995;-0.0112502;0.0235227;-0.641188;0.228322;-0.327905;-0.335567;0.521783;-7.16774;-0.000167262;0.000139841;-0.00045622;-0.00011067;-0.000512812;0.000201071;-0.366627;-2.72757;0.000311606;0.000268095;-0.21581;-4.6337;147.348;12.3476;-0.000333411;-0.000167778;-0.000745343;0.00102528;-0.000456488;0.00178225;0.0139914;0;0.0140192;0.217683;-0.349524;-0.969677;1.05348;-7.37084;0.000107694;-7.19526e-05;0.000994245;0.00100005;0.000101892;0.000449077;-0.108317;-9.23216;0.000635463;0.00059877;-9.81478;-0.101887;127.883;172.883;-0.00281635;0.000106793;0.0012011;-0.00134387;0.000993527;-0.00489575;0.0266311;0;0.0232308;1.49021;3.79089
241000;242;25.7782;0.023105;0.000897103;-2.26177;25.6777;-0.237898;-0.0115381;0.024262;-0.642091;0.226711;-0.330513;-0.337529;0.523988;-7.16971;-0.000116067;0.000183606;-0.00022377;2.14219e-05;-0.000361259;0.00019134;-0.518687;-1.92795;0.000248288;0.00025512;0.059298;16.864;166.258;31.2582;-0.000257172;-0.000116596;-0.000677441;0.00104474;-0.000223983;0.00200526;0.0138264;0;0.0137478;0.215722;-0.352619;-0.974802;1.05883;-7.37597;8.75061e-05;7.0656e-05;0.00139046;0.00139428;8.36858e-05;0.000655298;-0.0629331;-15.8899;0.00090292;0.000873731;-16.6609;-0.0600207;118.334;163.334;-0.00359402;8.65661e-05;0.00151617;-0.00137298;0.00138932;-0.00132445;0.0270379;0;0.0268481;1.54176;3.79883
242000;243;25.7796;0.0244389;0.000948895;-2.26363;25.6789;-0.238489;-0.013404;0.0254312;-0.642682;0.224356;-0.333893;-0.332126;0.521659;-7.1643;-0.000221066;0.00018308;0.000261795;0.000323361;-0.000282632;0.000302997;0.844424;1.18424;0.000350134;0.000403996;1.14411;0.874045;27.137;72.137;-0.000362117;-0.000221551;-0.000636245;0.00100201;0.000261609;0.00262204;0.0130033;0;0.0152336;0.212864;-0.355939;-0.972393;1.05714;-7.37356;0.00015043;0.000186814;0.00131601;0.00134522;0.00012122;0.000611999;-0.114308;-8.74831;0.00085926;0.000815998;-11.0973;-0.090112;110.665;155.665;-0.00277537;0.000149907;0.00141499;-0.00103993;0.00131503;-0.00288081;0.0273066;0;0.0262659;1.59489;3.80439
243000;244;25.7792;0.0240658;0.000934409;-2.26323;25.6785;-0.238464;-0.013002;0.0250923;-0.642657;0.221857;-0.336829;-0.332556;0.52275;-7.16473;-0.000359278;8.83845e-05;0.00114985;0.00115501;-0.000364436;0.000759723;0.312456;3.20045;0.000915979;0.00101296;3.1693;0.315527;54.9396;99.9396;-0.000427568;-0.000359661;-0.000703897;0.000879472;0.00114961;0.00205279;0.011898;0;0.0179737;0.209991;-0.3597;-0.971115;1.05667;-7.37228;-0.000137853;0.000301728;0.00143202;0.00148801;-0.000193847;0.00084093;0.0962646;10.388;0.00106254;0.00112124;7.67622;0.130273;108.928;153.928;-0.00234275;-0.000138104;0.00137616;-0.000771018;0.00143112;-0.00490189;0.0294244;0;0.0272624;1.6425;3.80753
244000;245;25.7782;0.0230494;0.000894945;-2.26292;25.6775;-0.244361;-0.0126942;0.0240436;-0.648554;0.22077;-0.340963;-0.329603;0.5231;-7.16178;-0.000352798;0.000350638;0.00157446;0.00163627;-0.000414609;0.00102544;0.224076;4.46278;0.00125214;0.00136725;3.94653;0.253387;51.9051;96.9051;-0.000402751;-0.000353534;-0.000563688;0.00126321;0.00157436;0.0027932;0.0128093;0;0.0207586;0.20894;-0.362671;-0.974217;1.06032;-7.37538;-7.80406e-05;0.000338529;0.00141017;0.00148356;-0.000151428;0.000817494;0.0553412;18.0697;0.00104319;0.00108999;9.79713;0.102071;108.577;153.577;-0.00342482;-7.83843e-05;0.00157441;-0.000895512;0.00140899;-0.00118198;0.0296376;0;0.0311838;1.69675;3.81462
245000;246;25.78;0.0249125;0.000967284;-2.2644;25.6793;-0.239959;-0.0141701;0.0258254;-0.644152;0.218234;-0.34269;-0.330176;0.523525;-7.16235;-0.000247536;0.00041433;0.00238641;0.00245005;-0.000311174;0.00138061;0.103727;9.64067;0.00174636;0.00184082;7.87357;0.127007;63.022;108.022;-0.000149437;-0.000248177;-0.000378906;0.00120548;0.00238643;0.00201882;0.012378;0;0.024156;0.205673;-0.365061;-0.974567;1.06083;-7.37573;1.00509e-05;0.000317962;0.00147942;0.00154528;-5.58023e-05;0.00080054;-0.00679381;-147.193;0.00104928;0.00106739;27.692;0.0361115;107.02;152.02;-0.00240503;9.74062e-06;0.00148717;-0.000849536;0.00147837;-0.00544315;0.030783;0;0.0318407;1.74997;3.82057
246000;247;25.7804;0.0253232;0.00098323;-2.26398;25.6797;-0.240434;-0.0137503;0.0262703;-0.644627;0.217222;-0.346136;-0.335001;0.528414;-7.16718;-0.000298439;0.000477371;0.00280706;0.00287879;-0.000370163;0.00162447;0.106317;9.40581;0.00205373;0.00216597;7.77707;0.128583;66.636;111.636;-0.000127954;-0.000299035;-0.000238447;0.00119097;0.00280715;0.00200448;0.0132095;0;0.0183984;0.203919;-0.369358;-0.9781;1.06522;-7.37926;0.000150921;0.000196753;0.0016876;0.00171239;0.000126129;0.000793132;-0.0894294;-11.182;0.00110196;0.00105751;-13.5765;-0.0736568;109.893;154.893;-0.00261361;0.000150361;0.00147225;-0.00107679;0.00168654;-0.0066677;0.0334632;0;0.026632;1.80376;3.82841
247000;248;25.7803;0.0252275;0.000979514;-2.26367;25.6796;-0.24144;-0.0134453;0.0261917;-0.645633;0.214861;-0.347769;-0.335962;0.52913;-7.16814;-0.00019445;0.000295809;0.00312184;0.00314802;-0.000220629;0.00168432;0.062287;16.0547;0.00217595;0.00224577;14.2684;0.0700851;72.327;117.327;-0.000639886;-0.000194892;-0.000396183;0.000985514;0.00312181;0.00259276;0.0129131;0;0.0212699;0.201411;-0.371154;-0.98203;1.06897;-7.38319;-8.70432e-06;0.000319684;0.00176656;0.00182238;-6.45172e-05;0.000943447;;;0.00123698;0.00125793;28.2464;0.0354028;107.573;152.573;-0.00264832;-9.08986e-06;0.00157609;-0.000934494;0.00176538;-0.00636587;0.033055;0;0.0262783;1.85994;3.83452
248000;249;25.7786;0.0235133;0.000912957;-2.26234;25.678;-0.241506;-0.0121126;0.0245876;-0.645699;0.213685;-0.354556;-0.333519;0.531607;-7.1657;-0.000413515;0.000471062;0.00364524;0.0036992;-0.00046747;0.00208333;0.11344;8.81526;0.00263581;0.00277778;7.91323;0.126371;74.3399;119.34;-0.00105617;-0.000413908;-6.38272e-05;0.00100379;0.00364535;0.00205195;0.0120636;0;0.0274273;0.200303;-0.377159;-0.983932;1.07261;-7.38509;0.000134934;7.60299e-05;0.0015519;0.00155597;0.000130866;0.000712553;-0.0869475;-11.5012;0.000996561;0.000950071;-11.8898;-0.0841059;115.707;160.707;-0.00220201;0.000134154;0.00140542;-0.00125148;0.00155092;-0.00543572;0.0333392;0;0.0309071;1.91174;3.84225
249000;250;25.7789;0.0237913;0.000923752;-2.26187;25.6784;-0.235435;-0.0116409;0.0249646;-0.639628;0.211026;-0.358498;-0.324413;0.527538;-7.15659;-0.000254292;0.000173884;0.00357093;0.00357882;-0.00026218;0.0019205;0.0712117;14.0426;0.0024779;0.00256067;13.6502;0.0732588;81.0924;126.092;-0.000947246;-0.000254426;-0.00019876;0.000545107;0.00357093;0.00143428;0.0118326;0;0.0164882;0.19697;-0.382201;-0.970274;1.06128;-7.37144;-6.26217e-06;-0.000146785;0.00143616;0.00145095;-2.10479e-05;0.000735998;;;0.000974391;0.000981331;68.9356;0.0145063;127.888;172.888;-0.00223547;-7.58434e-06;0.00134132;-0.00163275;0.00143528;-0.00809054;0.0331431;0;0.0338836;1.97243;3.84945
250000;251;25.7817;0.026562;0.00103133;-2.26444;25.681;-0.235346;-0.0142121;0.0275204;-0.639539;0.208736;-0.358657;-0.334747;0.533161;-7.16692;-0.000126431;0.000269476;0.00360554;0.00362489;-0.000145789;0.00188534;0.0350657;28.5179;0.00246663;0.00251379;24.8641;0.0402187;77.5851;122.585;-0.000564096;-0.000126705;-0.00025142;0.000788436;0.00360554;-8.32846e-05;0.0110881;0;0.0238764;0.193193;-0.383582;-0.982973;1.0727;-7.38414;9.94252e-05;-0.00021071;0.00144875;0.00148089;6.72863e-05;0.000706803;-0.0686281;-14.5713;0.000965614;0.000942403;-22.0088;-0.0454364;131.265;176.265;-0.00278443;9.76651e-05;0.00146896;-0.00188811;0.0014477;-0.00400581;0.033887;0;0.0339914;2.0311;3.85715
251000;252;25.7829;0.0278176;0.00108008;-2.26367;25.6823;-0.238298;-0.0134443;0.0288213;-0.642491;0.206815;-0.361408;-0.335978;0.535041;-7.16815;-0.000137362;0.00024004;0.00344458;0.0034606;-0.000153377;0.00180699;0.0398778;25.0766;0.00235985;0.00240932;22.5627;0.0443209;80.2424;125.242;-0.000804657;-0.000137506;-0.000109081;0.000587914;0.0034446;0.00072872;0.0119253;0;0.0170985;0.190948;-0.387639;-0.987095;1.07753;-7.38826;7.96958e-05;-0.000326346;0.00121075;0.00129816;-7.71111e-06;0.000652934;-0.0658236;-15.1921;0.000868019;0.000870578;;;139.853;4.85289;-0.00335916;7.75932e-05;0.00142587;-0.00207658;0.00120979;-0.00108942;0.0325942;0;0.0235509;2.08684;3.86425
252000;253;25.7867;0.0316261;0.00122796;-2.26661;25.6858;-0.239976;-0.0163755;0.0323707;-0.644169;0.20396;-0.363124;-0.335825;0.535011;-7.168;-6.39948e-05;0.000179161;0.00357844;0.00358723;-7.27859e-05;0.00183001;0.0178834;55.9177;0.00241612;0.00244001;49.2847;0.0202903;83.926;128.926;-0.00119259;-6.4051e-05;-2.26911e-05;0.00038028;0.00357846;0.000676863;0.012734;0;0.0163568;0.186738;-0.391597;-0.986196;1.07741;-7.38736;-0.000195674;-0.000204592;0.00159604;0.00161911;-0.000218739;0.000918922;0.1226;8.15662;0.00115922;0.00122523;7.40199;0.135099;130.966;175.966;-0.00368142;-0.000197733;0.00163317;-0.00203907;0.00159473;0.00275454;0.0370842;0;0.0248251;2.13336;3.8711
253000;254;25.7862;0.0310718;0.00120643;-2.26629;25.6853;-0.242274;-0.0160612;0.0318204;-0.646467;0.202603;-0.365185;-0.338753;0.537737;-7.17093;-7.48084e-05;0.000171325;0.00289667;0.00290651;-8.46538e-05;0.00149558;0.0258257;38.7212;0.0019665;0.00199411;34.3341;0.0291255;82.1596;127.16;-0.00103969;-7.48727e-05;-5.5402e-05;0.000397381;0.00289668;0.000496015;0.0111937;0;0.017755;0.185156;-0.391693;-0.995404;1.0856;-7.39657;-0.0001395;-0.000168405;0.00174829;0.00176319;-0.000154405;0.000958798;0.0797925;12.5325;0.00123016;0.0012784;11.4192;0.0875716;128.245;173.245;-0.0048571;-0.000141508;0.00167762;-0.00201096;0.00174689;0.00522446;0.036831;0;0.0263644;2.2036;3.8786
254000;255;25.7894;0.0343301;0.00133294;-2.26895;25.6883;-0.243911;-0.0187179;0.0348414;-0.648104;0.200356;-0.368224;-0.339518;0.539448;-7.17169;-3.9801e-06;0.000254696;0.00264887;0.0026731;-2.82116e-05;0.00135066;;;0.00179155;0.00180088;94.7518;0.0105539;78.0908;123.091;-0.000737669;-4.10378e-06;-5.01922e-05;0.000558777;0.0026489;-0.000554306;0.0102352;0;0.0154443;0.181207;-0.397828;-0.994659;1.08649;-7.39582;-0.000437239;-9.1686e-05;0.00217735;0.00218056;-0.000440451;0.0013105;0.200813;4.97976;0.0016206;0.00174734;4.95074;0.20199;123.326;168.326;-0.00498854;-0.000438811;0.00159612;-0.00177509;0.00217608;0.0048305;0.0394109;0;0.0324681;2.24662;3.88034
255000;256;25.7932;0.0381133;0.00147983;-2.2702;25.6921;-0.235553;-0.0199683;0.0386071;-0.639746;0.197297;-0.36871;-0.341696;0.540027;-7.17387;-6.06005e-05;0.000452203;0.00256046;0.00263628;-0.000136424;0.00138635;0.0236678;42.2514;0.00180471;0.00184847;19.3241;0.0517487;73.2905;118.29;-0.000512016;-6.07968e-05;0.000130863;0.000772702;0.00256055;-0.000676118;0.011959;0;0.0210315;0.176942;-0.401494;-0.990485;1.08331;-7.39165;-0.000579786;2.57004e-05;0.00221373;0.00221397;-0.000580022;0.00139699;0.261904;3.81819;0.00170258;0.00186266;3.81704;0.261983;121.204;166.204;-0.0053276;-0.000581085;0.00166794;-0.00161197;0.00221234;0.00412764;0.0389795;0;0.0279599;2.31638;3.88862
256000;257;25.7902;0.0350365;0.00136037;-2.27247;25.6886;-0.249653;-0.0222355;0.0351845;-0.653846;0.196855;-0.372921;-0.334688;0.538366;-7.16686;4.27891e-05;0.000263794;0.00186854;0.00190589;5.43884e-06;0.000950225;-0.0228998;-43.6685;0.00126878;0.00126697;;;70.6185;115.618;-0.00143266;4.26045e-05;-0.000135675;0.000662535;0.00186856;0.000877563;0.0107337;0;0.0231974;0.174894;-0.404441;-0.990592;1.08417;-7.39175;-0.000686814;0.00019822;0.00224721;0.00226054;-0.000700145;0.00148034;0.30563;3.27193;0.00178673;0.00197379;3.22867;0.309725;117.826;162.826;-0.00468141;-0.000687716;0.00175854;-0.00135754;0.00224568;0.0022101;0.0385555;0;0.0295632;2.36969;3.89388
257000;258;25.79;0.0348874;0.00135458;-2.27425;25.6883;-0.253343;-0.0240198;0.0348408;-0.657536;0.196717;-0.377025;-0.335499;0.541669;-7.16768;2.87693e-05;0.000257244;0.00196017;0.00199385;-4.90608e-06;0.000999376;-0.0146769;-68.1342;0.00133087;0.0013325;;;72.7269;117.727;-0.000931531;2.86151e-05;-9.81759e-05;0.000611979;0.0019602;0.000414412;0.011972;0;0.0151352;0.173388;-0.40903;-0.990939;1.08597;-7.3921;-0.000636174;0.000348028;0.00226316;0.00230436;-0.000677365;0.00149086;0.281099;3.55746;0.0018049;0.00198781;3.40194;0.29395;113.782;158.782;-0.0048863;-0.000636746;0.00182473;-0.0011244;0.00226156;0.00225418;0.0400704;0;0.0267613;2.42658;3.90117
258000;259;25.7921;0.0369704;0.00143546;-2.27483;25.6903;-0.25356;-0.0246032;0.0368782;-0.657753;0.194309;-0.375255;-0.346541;0.5465;-7.17872;-0.000123574;0.000347644;0.00168813;0.00175255;-0.000187992;0.000970269;0.0732017;13.6609;0.0012358;0.00129369;9.32244;0.107268;66.5722;111.572;-0.000574897;-0.000123778;-3.2209e-05;0.000726811;0.00168819;-0.000619664;0.011695;0;0.0253673;0.170278;-0.407333;-1.00489;1.0976;-7.40605;-0.000635938;0.000365445;0.00238345;0.00242705;-0.000679539;0.00155329;0.266814;3.74793;0.00188581;0.00207106;3.57161;0.279986;113.505;158.505;-0.0051431;-0.000636576;0.00192305;-0.00118747;0.00238167;0.00433966;0.0376142;0;0.0254246;2.49224;3.90833
259000;260;25.7931;0.0380036;0.00147558;-2.27582;25.6913;-0.255597;-0.0255896;0.037808;-0.65979;0.189707;-0.379332;-0.341721;0.54466;-7.1739;-0.000103216;0.000549613;0.00137901;0.00156057;-0.000284775;0.000922674;0.0748479;13.3604;0.00114715;0.00123023;5.48002;0.182481;51.6934;96.6934;-0.000668572;-0.000103655;1.24952e-05;0.00108594;0.00137916;0.000509963;0.0135293;0;0.0135867;0.164965;-0.413316;-0.998858;1.09351;-7.40002;-0.000510742;0.000454941;0.00232041;0.00239172;-0.000582051;0.00148688;0.220109;4.54321;0.00181979;0.00198251;4.10912;0.243361;108.566;153.566;-0.00540453;-0.000510987;0.00174889;-0.000835357;0.00231898;0.00274547;0.0348651;0;0.025244;2.55619;3.91567
260000;261;25.7938;0.0386994;0.00150259;-2.27665;25.6919;-0.256605;-0.0264207;0.0384229;-0.660798;0.187414;-0.379853;-0.346867;0.547475;-7.17904;-0.000243786;0.00043489;0.000802951;0.000960056;-0.000400891;0.000680473;0.303613;3.29367;0.000807547;0.000907298;2.39481;0.41757;38.4618;83.4618;-0.000188816;-0.000244184;-0.000123006;0.000992203;0.000803038;-0.00142281;0.0131039;0;0.0130801;0.162107;-0.415471;-1.00106;1.09591;-7.40222;-0.000565097;0.000448069;0.0022857;0.00235446;-0.000633862;0.00149416;0.247232;4.04479;0.00181814;0.00199222;3.71447;0.269217;111.383;156.383;-0.00520605;-0.000565554;0.00195669;-0.00105626;0.00228389;0.00260393;0.0336636;0;0.0255858;2.59823;3.92274
261000;262;25.7938;0.0386489;0.00150063;-2.27486;25.692;-0.254338;-0.0246292;0.0385534;-0.658531;0.185691;-0.383533;-0.343794;0.547515;-7.17597;-0.000271406;0.000901134;0.00105036;0.00150698;-0.000728024;0.0011175;0.258393;3.87007;0.00131624;0.00149;2.06996;0.483102;35.0176;80.0176;-1.00445e-05;-0.0002721;0.00031802;0.00148348;0.00105071;-0.00169709;0.0139116;0;0.0144957;0.159571;-0.419088;-1.0027;1.09841;-7.40387;-0.00050839;0.000505581;0.00239409;0.00247963;-0.000593936;0.00153678;0.212352;4.70915;0.00188256;0.00204905;4.17492;0.239526;108.98;153.98;-0.00516802;-0.00050872;0.00197191;-0.000956501;0.00239228;0.00208052;0.0324095;0;0.0256723;2.67501;3.93045
262000;263;25.7964;0.0412379;0.00160115;-2.27493;25.6947;-0.243612;-0.0247045;0.0412499;-0.647806;0.181625;-0.384518;-0.347848;0.5494;-7.18002;-0.000275438;0.000738508;0.000374816;0.000856597;-0.00075722;0.000806909;0.734864;1.3608;0.000932326;0.00107588;1.13124;0.883986;14.1149;59.1149;-0.000487776;-0.000276114;9.98248e-05;0.00137678;0.000375083;-0.000551588;0.0157912;0;0.0127244;0.155646;-0.42239;-1.00337;1.09972;-7.40453;-0.00027645;0.000342623;0.00246719;0.00250933;-0.00031859;0.00141396;0.112051;8.92454;0.00178857;0.00188528;7.87638;0.126962;110.353;155.353;-0.0043657;-0.000277121;0.00189683;-0.00120733;0.00246546;0.00104348;0.0307881;0;0.0289989;2.72632;3.93773
263000;264;25.7956;0.040518;0.0015732;-2.27362;25.694;-0.251871;-0.0233919;0.0405637;-0.656064;0.180511;-0.391017;-0.337461;0.547136;-7.16964;-0.000503697;0.000538035;0.000175051;0.000471803;-0.000800449;0.000636126;2.87743;0.347533;0.000742659;0.000848168;0.589423;1.69657;9.4746;54.4746;0.000340155;-0.000504311;-0.000156574;0.00123217;0.000175184;-0.00135853;0.0167299;0;0.0158304;0.154516;-0.428305;-0.996639;1.09572;-7.3978;-0.000332025;0.000272366;0.00228365;0.00231171;-0.000360085;0.0013359;0.145392;6.87794;0.00167413;0.0017812;6.41989;0.155766;114.503;159.503;-0.00462651;-0.000333074;0.00202299;-0.00147369;0.00228164;0.000606948;0.0309277;0;0.0239557;2.79126;3.94546
264000;265;25.797;0.0418595;0.00162529;-2.27453;25.6952;-0.255587;-0.0242975;0.0417937;-0.65978;0.178327;-0.38836;-0.353703;0.554734;-7.18588;-0.000543116;0.000744922;0.000670948;0.00102485;-0.000897019;0.000960935;0.809476;1.23537;0.00111041;0.00128125;1.14251;0.875268;22.5804;67.5804;0.00102411;-0.000543759;0.00013302;0.00135608;0.000671216;-0.00238757;0.0164229;0;0.0175492;0.151819;-0.429072;-1.01048;1.10825;-7.41165;-0.000404883;-1.67226e-05;0.0023667;0.0023668;-0.000404983;0.00138589;0.171075;5.84539;0.00172875;0.00184785;5.84418;0.17111;121.186;166.186;-0.003586;-0.000406575;0.00181101;-0.00183941;0.00236506;-0.00449526;0.0303297;0;0.0307586;2.84717;3.95141
265000;266;25.7963;0.0411405;0.00159737;-2.27352;25.6946;-0.259433;-0.0232943;0.0411221;-0.663626;0.17373;-0.393149;-0.347239;0.55256;-7.17941;-0.000628969;0.000359209;0.000373729;0.000489131;-0.000744371;0.000616751;1.68295;0.594193;0.000717227;0.000822335;0.657107;1.52182;22.8838;67.8838;0.000333341;-0.000629623;-0.000481495;0.00119907;0.000373678;0.000906788;0.0180348;0;0.019842;0.147918;-0.4338;-1.00688;1.10629;-7.40805;-0.000297342;-0.000212607;0.00230266;0.00231993;-0.000314613;0.00131727;0.12913;7.74415;0.00166145;0.00175636;7.37393;0.135613;125.236;170.236;-0.00393856;-0.000299396;0.00161721;-0.00203767;0.00230138;-0.00422025;0.0290989;0;0.0263886;2.90117;3.95364
266000;267;25.7988;0.0436947;0.00169655;-2.27551;25.697;-0.258988;-0.0252796;0.0435152;-0.663181;0.171406;-0.394402;-0.352139;0.555819;-7.18432;-0.000716023;0.000180514;0.000806066;0.000827182;-0.000737138;0.00078216;0.888292;1.12576;0.000903659;0.00104288;1.12215;0.891144;40.273;85.273;-0.000208893;-0.000716364;-0.000485458;0.000845474;0.000805965;0.0020528;0.0183922;0;0.0154815;0.14498;-0.43671;-1.01268;1.11232;-7.41384;-0.000266784;-0.00024373;0.00225169;0.00227506;-0.000290154;0.00128261;0.118482;8.44014;0.0016221;0.00171014;7.84087;0.127537;127.12;172.12;-0.00367723;-0.000269217;0.00173671;-0.00221919;0.00225022;-0.00363601;0.0291446;0;0.0382517;2.95997;3.95982
267000;268;25.8015;0.0463863;0.00180105;-2.27458;25.6998;-0.258163;-0.0243509;0.046308;-0.662356;0.16952;-0.395892;-0.355096;0.558177;-7.18727;-0.000748628;0.00028398;0.00106026;0.00110379;-0.000792162;0.000947977;0.706082;1.41627;0.00109955;0.00126397;1.39339;0.717674;43.3205;88.3205;0.000434444;-0.000748998;-0.000339036;0.000905871;0.00106024;0.000846159;0.0195355;0;0.0153928;0.144143;-0.439549;-1.01921;1.11927;-7.42038;-0.000287641;-0.000159293;0.00226075;0.00227067;-0.00029756;0.00128412;0.127232;7.85963;0.00162209;0.00171215;7.63098;0.131045;124.884;169.884;-0.00386279;-0.000289769;0.00175521;-0.00206893;0.00225923;-0.00546298;0.0282266;0;0.0242972;3.02616;3.96771
268000;269;25.8019;0.0467529;0.00181528;-2.275;25.7001;-0.2605;-0.0247712;0.0466152;-0.664693;0.164529;-0.401607;-0.34648;0.555344;-7.17866;-0.0007331;0.000238394;0.00203613;0.00205651;-0.000753472;0.00140499;0.360045;2.77743;0.00167948;0.00187332;2.72937;0.366385;68.8065;113.807;-1.67659e-05;-0.000733286;-0.000179461;0.000655094;0.00203615;0.000703272;0.0165462;0;0.031717;0.139956;-0.44553;-1.01501;1.11729;-7.41617;-0.000240917;-3.19031e-05;0.00243943;0.00243981;-0.000241296;0.00134055;0.0987595;10.1256;0.00171264;0.0017874;10.1112;0.0988998;119.579;164.579;-0.00383386;-0.000242499;0.00172;-0.00177912;0.00243795;-0.00473798;0.0292748;0;0.0368917;3.07666;3.97528
269000;270;25.799;0.0439256;0.00170551;-2.2742;25.6972;-0.270001;-0.0239725;0.0437493;-0.674194;0.162565;-0.407825;-0.335425;0.552502;-7.1676;-0.00102025;0.000214989;0.00255287;0.00256576;-0.00103314;0.00179945;0.399649;2.5022;0.00213971;0.00239927;2.48346;0.402665;74.2372;119.237;-0.000107702;-0.00102039;-0.000137814;0.000566536;0.00255289;0.000105853;0.0150305;0;0.0137062;0.138344;-0.449893;-1.00933;1.11368;-7.41049;-0.000367674;8.13006e-05;0.00243854;0.00244089;-0.000370027;0.00140546;0.150776;6.63234;0.00176359;0.00187395;6.59652;0.151595;119.254;164.254;-0.00367665;-0.000369391;0.00202263;-0.00185459;0.0024365;-0.00375105;0.0292687;0;0.02306;3.15687;3.98251
270000;271;25.8033;0.0481862;0.00187094;-2.27488;25.7015;-0.260617;-0.0246534;0.0480635;-0.66481;0.159859;-0.405857;-0.349986;0.559254;-7.18216;-0.000934408;-2.84318e-05;0.00292112;0.00292133;-0.000934618;0.00192797;0.31988;3.12617;0.00232264;0.00257063;3.12569;0.319929;85.1707;130.171;-0.00149157;-0.00093442;-0.000213143;0.000155569;0.0029211;0.00251511;0.0155371;0;0.019233;0.135283;-0.450397;-1.0218;1.12482;-7.42296;-0.000244248;0.000151978;0.00270343;0.00271124;-0.000252063;0.00148165;0.0903474;11.0684;0.00189711;0.00197554;10.7562;0.0929695;114.881;159.881;-0.00396059;-0.000245596;0.00195826;-0.001649;0.00270153;-0.00407417;0.0324664;0;0.0267506;3.21419;3.99018
271000;272;25.8011;0.0459745;0.00178506;-2.27538;25.6992;-0.266172;-0.0251515;0.0457419;-0.670365;0.158129;-0.410113;-0.345797;0.559261;-7.17797;-0.000682785;5.09492e-05;0.00225238;0.00225326;-0.000683669;0.00146847;0.30314;3.29881;0.00177452;0.00195795;3.29584;0.303413;81.3167;126.317;-0.000943895;-0.000682819;-0.000165394;0.000266659;0.00225236;0.000719654;0.0151;0;0.0203516;0.133028;-0.45386;-1.01915;1.12355;-7.42032;-0.000256341;0.000272864;0.00249195;0.00251878;-0.000283171;0.00140097;0.102868;9.7212;0.00178109;0.00186796;8.8949;0.112424;113.89;158.89;-0.00393504;-0.00025757;0.00214161;-0.00159076;0.0024897;-0.0054443;0.0324032;0;0.0280092;3.26888;3.99765
272000;273;25.8035;0.0484065;0.00187949;-2.27656;25.7015;-0.266239;-0.0263305;0.0480785;-0.670433;0.159026;-0.410871;-0.360377;0.569189;-7.19255;-0.000452564;-9.34938e-06;0.00253582;0.00253585;-0.000452593;0.00149422;0.178468;5.60323;0.00185988;0.00199229;5.60294;0.178478;86.8337;131.834;-0.00162591;-0.00045257;-0.000131859;0.000112795;0.00253581;0.00259317;0.0152908;0;0.0160859;0.132446;-0.455982;-1.02789;1.13226;-7.42905;-0.000370411;0.00039244;0.00271207;0.00276125;-0.000419589;0.00159042;0.136578;7.3218;0.00199546;0.00212056;6.58085;0.151956;110.278;155.278;-0.00430285;-0.000371142;0.00206121;-0.0012712;0.00271003;-0.00395134;0.0341884;0;0.0281837;3.32443;4.00537
273000;274;25.8027;0.0475756;0.00184723;-2.2769;25.7006;-0.269074;-0.0266747;0.0471842;-0.673267;0.153082;-0.418326;-0.343206;0.562335;-7.17538;-0.00045311;0.000517949;0.00271342;0.00279599;-0.000535678;0.00166583;0.166989;5.98843;0.00206583;0.00222111;5.21952;0.191588;79.5822;124.582;-0.00128086;-0.00045314;0.0004641;0.000571627;0.00271344;-0.00030087;0.01213;0;0.0381106;0.126972;-0.463023;-1.01734;1.12494;-7.4185;-0.00038724;0.000384612;0.00287871;0.00292339;-0.000431922;0.00167766;0.134519;7.43391;0.0021077;0.00223687;6.76832;0.147747;111.06;156.06;-0.00465966;-0.000388176;0.00219621;-0.00142108;0.00287638;-0.00223157;0.0352786;0;0.0527103;3.39533;4.01246
274000;275;25.8029;0.0477583;0.00185432;-2.27681;25.7008;-0.272726;-0.0265799;0.0473376;-0.676919;0.152616;-0.417839;-0.353787;0.568372;-7.18596;-0.000447362;7.36075e-05;0.0029026;0.00290422;-0.000448979;0.0016766;0.154124;6.48827;0.00210185;0.00223547;6.46851;0.154595;88.7081;133.708;-0.00134538;-0.000447362;7.2158e-05;7.50521e-05;0.0029026;-0.000293533;0.0113301;0;0.0157231;0.126239;-0.462385;-1.03306;1.13884;-7.43422;-0.000450157;0.000573601;0.00286032;0.00295689;-0.000546727;0.00175181;0.15738;6.35406;0.00217652;0.00233575;5.40836;0.184899;105.838;150.838;-0.00463677;-0.000450401;0.00205616;-0.000904068;0.00285838;-0.00217591;0.0369337;0;0.0344923;3.45882;4.01931
275000;276;25.8034;0.0483293;0.00187649;-2.27639;25.7014;-0.27206;-0.0261566;0.0479554;-0.676253;0.149943;-0.420065;-0.350365;0.56718;-7.18254;-0.000471869;-4.17864e-05;0.00288863;0.00288914;-0.000472389;0.00168077;0.163354;6.12166;0.00210133;0.00224102;6.11603;0.163505;92.1961;137.196;-0.00163103;-0.000471874;2.10376e-05;-0.0001044;0.00288863;0.000919579;0.0113343;0;0.01791;0.122863;-0.465191;-1.0288;1.13575;-7.42996;-0.000461379;0.000673526;0.00291496;0.00304436;-0.000590778;0.00181757;0.15828;6.31793;0.00225248;0.00242343;5.15314;0.194056;106.295;151.295;-0.00479345;-0.000461691;0.00239032;-0.00103749;0.00291234;-0.000498591;0.03675;0;0.0253772;3.51699;4.02546
276000;277;25.8026;0.047455;0.00184255;-2.27632;25.7005;-0.275961;-0.0260864;0.0470423;-0.680154;0.147026;-0.423503;-0.347626;0.567288;-7.1798;-0.000399556;0.000128244;0.00230985;0.00231591;-0.000405613;0.00136076;0.172979;5.78104;0.00169539;0.00181435;5.70965;0.175142;86.65;131.65;-0.00125901;-0.000399559;0.000106649;0.00014978;0.00230985;0.000614972;0.0112863;0;0.0155858;0.119183;-0.468458;-1.0295;1.13733;-7.43066;-0.000464213;0.000598807;0.00288821;0.00299196;-0.000567961;0.00177996;0.160727;6.22173;0.00220844;0.00237328;5.26789;0.189829;110.105;155.105;-0.00597764;-0.000465148;0.00269686;-0.00149224;0.00288476;0.00554903;0.0383522;0;0.0270508;3.57976;4.02807
277000;278;25.8021;0.0469511;0.00182298;-2.27723;25.6998;-0.283986;-0.0269991;0.0463681;-0.688179;0.14513;-0.42286;-0.356345;0.571713;-7.18852;-0.000163682;0.000320413;0.00279793;0.0028322;-0.000197951;0.00151508;0.0585011;17.0937;0.00195746;0.0020201;14.3076;0.0698928;84.3634;129.363;-0.00159155;-0.000163675;0.000341994;0.000298895;0.00279793;0.000615308;0.0101609;0;0.01768;0.116909;-0.468204;-1.04319;1.1494;-7.44435;-0.0007254;0.000668651;0.00286316;0.0029837;-0.00084594;0.00191482;0.253356;3.94701;0.00232304;0.0025531;3.52709;0.28352;110.354;155.354;-0.00548481;-0.000725988;0.00261769;-0.00127341;0.00285997;0.0045316;0.0379471;0;0.0229392;3.64486;4.03758
278000;279;25.8038;0.0486408;0.00188859;-2.27871;25.7014;-0.277927;-0.0284823;0.0479993;-0.68212;0.141757;-0.427132;-0.35083;0.57063;-7.18301;-0.000241173;9.56174e-05;0.00250559;0.00250892;-0.000244498;0.00137671;0.0962539;10.3892;0.00175978;0.00183561;10.2615;0.0974515;88.7443;133.744;-0.00159183;-0.000241171;0.000124767;6.65475e-05;0.00250559;0.000214187;0.0107767;0;0.0161768;0.111598;-0.474119;-1.03437;1.14331;-7.43553;-0.00101195;0.000363253;0.00306108;0.00309322;-0.0010441;0.00206866;0.330587;3.02492;0.00248442;0.00275821;2.96258;0.337543;114.212;159.212;-0.00497462;-0.00101275;0.00204501;-0.00131167;0.00305906;0.00541137;0.0398417;0;0.0191566;3.70268;4.04066
279000;280;25.8068;0.0516333;0.00200478;-2.28043;25.7043;-0.274699;-0.0302019;0.0508859;-0.678892;0.141619;-0.428075;-0.352679;0.572439;-7.18485;-0.00023124;0.000248983;0.00235724;0.00238097;-0.000254972;0.00131797;0.0980978;10.1939;0.00167877;0.00175729;9.33818;0.107087;84.5373;129.537;-0.00174169;-0.00023124;0.000248312;0.000249652;0.00235724;0.000587319;0.0112141;0;0.0357593;0.111068;-0.477128;-1.036;1.14598;-7.43716;-0.000889205;0.000153539;0.0031064;0.00311229;-0.000895097;0.00200369;0.28625;3.49345;0.00242884;0.00267159;3.47704;0.287601;117.46;162.46;-0.00523865;-0.000890667;0.00203048;-0.00171593;0.00310435;0.00729125;0.0400851;0;0.0233412;3.76931;4.04824
280000;281;25.8118;0.0566692;0.00220031;-2.28259;25.7093;-0.267648;-0.0323637;0.0558244;-0.671841;0.139016;-0.429884;-0.356505;0.575519;-7.18868;-0.000227133;0.000239225;0.00223796;0.00226096;-0.000250134;0.00125555;0.101491;9.85309;0.00159723;0.00167407;9.03901;0.110632;82.9899;127.99;-0.00186169;-0.000227147;0.000185778;0.000292541;0.00223797;0.000332645;0.0103671;0;0.0161595;0.106084;-0.480914;-1.04057;1.15122;-7.44173;-0.00106333;-0.000141888;0.00301487;0.0030198;-0.00106826;0.00204403;0.352694;2.83532;0.00244825;0.00272537;2.82685;0.353751;126.213;171.213;-0.0051144;-0.00106675;0.0023436;-0.00261727;0.00301214;0.00568427;0.0371304;0;0.0263551;3.83059;4.05577
281000;282;25.8104;0.0552872;0.00214665;-2.28234;25.7078;-0.279659;-0.0321075;0.0543318;-0.683852;0.137047;-0.433248;-0.349416;0.573217;-7.18159;-0.000255238;0.000375559;0.00245737;0.00250841;-0.000306274;0.00140734;0.103866;9.62776;0.00178315;0.00187646;8.19009;0.122099;79.7762;124.776;-0.00187866;-0.000255279;0.000279569;0.000471289;0.00245741;-2.56185e-05;0.0116519;0;0.0166503;0.104496;-0.484856;-1.03945;1.15172;-7.44061;-0.000997519;-0.000223073;0.00317977;0.00319165;-0.0010094;0.00210052;0.313708;3.18768;0.0025322;0.0028007;3.16193;0.316262;124.187;169.187;-0.00509817;-0.00100015;0.00186391;-0.00230137;0.00317806;0.00636607;0.0367395;0;0.0234274;3.88384;4.06349
282000;283;25.8128;0.0577242;0.00224127;-2.28387;25.7101;-0.276754;-0.0336416;0.0566737;-0.680947;0.13427;-0.433579;-0.355378;0.576465;-7.18755;-0.0003068;0.00039353;0.00253479;0.00258828;-0.000360293;0.00147429;0.121036;8.26202;0.0018573;0.00196571;7.18383;0.139202;79.451;124.451;-0.00135191;-0.000306849;0.000283702;0.000503047;0.00253482;-0.00132114;0.0113381;0;0.0163993;0.0997956;-0.487098;-1.04164;1.15423;-7.44281;-0.000969709;-0.000273202;0.00299345;0.00301219;-0.000988454;0.00200032;0.323944;3.08695;0.00240627;0.0026671;3.04738;0.328151;128.444;173.444;-0.00432147;-0.000973942;0.0023852;-0.0029211;0.00299065;0.00122581;0.0344954;0;0.0248178;3.94763;4.07029
283000;284;25.8162;0.0611237;0.00237327;-2.28357;25.7135;-0.279171;-0.0333377;0.0600877;-0.683364;0.135485;-0.437636;-0.358062;0.581455;-7.19024;-0.000331344;0.000366301;0.0028542;0.00289578;-0.000372921;0.00163435;0.11609;8.61401;0.00206607;0.00217913;7.76511;0.128781;81.853;126.853;-0.00128376;-0.000331373;0.000292421;0.000439947;0.00285422;0.000412722;0.0115213;0;0.0208873;0.101361;-0.49362;-1.04722;1.16215;-7.44838;-0.000965152;-0.000236316;0.00326277;0.00327594;-0.00097832;0.00212713;0.295807;3.38058;0.00257283;0.00283617;3.34854;0.298638;124.733;169.733;-0.00446744;-0.000968258;0.00203936;-0.0025024;0.00326073;0.00147408;0.0385926;0;0.0250182;4.0176;4.07767
284000;285;25.8194;0.0642935;0.00249634;-2.28628;25.7165;-0.276383;-0.0360523;0.0630591;-0.680576;0.13044;-0.43815;-0.359734;0.58172;-7.19191;-0.000209001;0.000454745;0.00260607;0.0026777;-0.000280638;0.00147917;0.080198;12.4691;0.00188566;0.00197223;9.54149;0.104805;76.5567;121.557;-0.00116104;-0.000209105;0.000264806;0.000644152;0.00260614;-0.00119666;0.0123004;0;0.0242146;0.0944905;-0.495791;-1.04853;1.16368;-7.44969;-0.000500984;-0.000145803;0.0031153;0.00312117;-0.000506853;0.00181401;0.160814;6.21836;0.00226868;0.00241868;6.15793;0.162392;121.897;166.897;-0.0051666;-0.000503713;0.00205636;-0.00234003;0.0031132;-0.00105253;0.0309581;0;0.0334032;4.08264;4.08501
285000;286;25.8205;0.0653772;0.00253841;-2.28705;25.7176;-0.273635;-0.036822;0.064108;-0.677828;0.128709;-0.439506;-0.354356;0.579051;-7.18653;-0.000248709;0.00051116;0.00227519;0.00237478;-0.000348303;0.00136154;0.109313;9.14801;0.00171115;0.00181539;6.81816;0.146667;72.2059;117.206;-0.000982478;-0.000248863;0.000266641;0.000755064;0.00227529;-0.00113125;0.012821;0;0.0181738;0.0923658;-0.497644;-1.04187;1.15831;-7.44304;-0.000733274;-7.25845e-05;0.0031274;0.00312876;-0.000734639;0.0019317;0.234468;4.26498;0.002369;0.0025756;4.25891;0.234802;121.382;166.382;-0.00508801;-0.000735694;0.00206349;-0.00220044;0.00312528;-0.000997879;0.0313884;0;0.0244603;4.13672;4.09262
286000;287;25.8212;0.0660994;0.00256646;-2.28816;25.7181;-0.278801;-0.0379277;0.0646793;-0.682994;0.127578;-0.440742;-0.362827;0.584955;-7.195;-0.000386679;0.000483542;0.00271973;0.00279325;-0.000460207;0.00162673;0.142176;7.03354;0.00203301;0.00216897;6.06956;0.164757;75.3786;120.379;-0.000451722;-0.000386829;0.000235966;0.000730352;0.00271982;-0.00144307;0.0130586;0;0.0181379;0.0909171;-0.500419;-1.05077;1.16739;-7.45193;-0.000677555;0.000195947;0.00315046;0.00316046;-0.000687559;0.00192401;0.215066;4.64974;0.00236965;0.00256535;4.59664;0.21755;116.054;161.054;-0.00443139;-0.000679123;0.00218051;-0.00178104;0.00314811;-0.00342837;0.0290883;0;0.0275995;4.20168;4.09782
287000;288;25.8217;0.0665817;0.00258518;-2.28823;25.7186;-0.282016;-0.0379977;0.0651222;-0.686209;0.125663;-0.441866;-0.364178;0.586227;-7.19635;-0.000506483;0.00053638;0.00264812;0.00273683;-0.000595189;0.00166601;0.191261;5.22846;0.00205193;0.00222135;4.59825;0.217474;73.8157;118.816;-8.99247e-06;-0.000506655;0.000276877;0.000795066;0.00264823;-0.00223009;0.014829;0;0.0187181;0.0885118;-0.502784;-1.05105;1.16847;-7.45221;-0.00066442;0.000201541;0.00336773;0.00337777;-0.000674469;0.00202612;0.197291;5.06867;0.0025071;0.0027015;5.00805;0.199679;114.712;159.712;-0.00450782;-0.000665914;0.00215065;-0.00173974;0.00336544;-0.00273243;0.0299866;0;0.0360283;4.26276;4.10443
288000;289;25.8222;0.0670727;0.00260425;-2.28775;25.7191;-0.280862;-0.037524;0.0656699;-0.685055;0.122448;-0.447662;-0.358085;0.586191;-7.19026;-0.000441271;0.00054464;0.00297095;0.00305577;-0.000526095;0.00179093;0.148529;6.7327;0.0022333;0.00238791;5.8084;0.172164;77.1557;122.156;-0.000719612;-0.000441384;0.000366711;0.000721964;0.00297103;-0.00115931;0.0158418;0;0.0170311;0.0849918;-0.508934;-1.0443;1.16482;-7.44546;-0.000509728;0.000439342;0.00325975;0.00331028;-0.000560257;0.00193527;0.15637;6.39507;0.00241536;0.00258036;5.9085;0.169248;110.974;155.974;-0.00479694;-0.000510805;0.00241741;-0.0015313;0.00325693;-0.0016714;0.0304859;0;0.027346;4.33063;4.10953
289000;290;25.8232;0.0680695;0.00264295;-2.28611;25.7203;-0.27619;-0.0358802;0.0668675;-0.680383;0.119857;-0.447501;-0.371935;0.594103;-7.20411;-0.000738495;0.000883434;0.00286038;0.00306555;-0.00094366;0.0020046;0.258181;3.87326;0.00242037;0.0026728;3.24857;0.307828;72.0842;117.084;-0.000265339;-0.000738671;0.000701888;0.00106433;0.00286052;-0.00247863;0.017525;0;0.0182361;0.0826006;-0.510533;-1.05484;1.1748;-7.45601;-0.000452342;0.000454894;0.00334474;0.00339848;-0.000506078;0.00195228;0.13524;7.39428;0.00245182;0.00260304;6.71532;0.148913;110.623;155.623;-0.00510756;-0.000453505;0.00250875;-0.00159119;0.00334171;-0.00148258;0.0318817;0;0.027065;4.39462;4.1158
290000;291;25.8194;0.0643047;0.00249678;-2.28551;25.7164;-0.288587;-0.0352759;0.0630053;-0.69278;0.116363;-0.45246;-0.359508;0.589497;-7.19168;-0.000927774;0.000590491;0.00275212;0.00284455;-0.00102021;0.00193238;0.337113;2.96637;0.0023127;0.0025765;2.78821;0.358653;74.9231;119.923;0.000124424;-0.000927912;0.000390035;0.000790212;0.00275222;-0.00284344;0.0187337;0;0.0266854;0.0798509;-0.51369;-1.04932;1.17104;-7.45049;-0.000437738;0.000471338;0.00343289;0.00348946;-0.000494307;0.00199188;0.127513;7.84234;0.00250737;0.00265584;7.05929;0.141657;109.324;154.324;-0.00474169;-0.000438708;0.00242058;-0.00147038;0.00343008;-0.00366941;0.0315534;0;0.0299;4.4493;4.12297
291000;292;25.8215;0.0663873;0.00257764;-2.28533;25.7187;-0.28007;-0.0350976;0.0652062;-0.684263;0.114862;-0.452434;-0.371769;0.596743;-7.20394;-0.000929104;0.000727177;0.00299472;0.00312515;-0.00105953;0.00209234;0.310247;3.22323;0.00251222;0.00278978;2.94955;0.339034;80.7926;125.793;-6.22236e-05;-0.000929079;0.000761944;0.000692547;0.00299469;-0.00325937;0.0195412;0;0.0139238;0.0779662;-0.51591;-1.0566;1.1784;-7.45776;-0.000496707;0.000466922;0.00354367;0.00359693;-0.000549964;0.00207345;0.140167;7.13433;0.00260073;0.0027646;6.5403;0.152898;108.974;153.974;-0.0037187;-0.000497597;0.00235454;-0.0014131;0.00354102;-0.00738437;0.0331109;0;0.0293572;4.51592;4.13008
292000;293;25.8226;0.0674478;0.00261881;-2.28461;25.7198;-0.278248;-0.0343817;0.0663543;-0.682441;0.111633;-0.454103;-0.371815;0.597426;-7.20399;-0.00104912;0.000478969;0.00276711;0.0028263;-0.00110832;0.00196731;0.37914;2.63755;0.00234272;0.00262308;2.55008;0.392144;82.2184;127.218;-0.000793142;-0.00104913;0.000456833;0.000501022;0.00276712;-0.00181487;0.01934;0;0.0155418;0.0754801;-0.519445;-1.05558;1.17888;-7.45674;-0.00046054;0.000433976;0.00345483;0.00350235;-0.000508065;0.00200521;0.133303;7.50169;0.00252138;0.00267361;6.89352;0.145064;109.649;154.649;-0.00373712;-0.000461527;0.00234526;-0.00146985;0.00345218;-0.00676154;0.0324109;0;0.0254541;4.57557;4.13721
293000;294;25.8221;0.0669579;0.00259979;-2.28253;25.7195;-0.279352;-0.0323049;0.0660349;-0.683545;0.109507;-0.456285;-0.373971;0.600035;-7.20615;-0.000933752;0.000362945;0.00256174;0.00259903;-0.00097104;0.00178504;0.364499;2.74349;0.00213142;0.00238005;2.67654;0.373616;84.5416;129.542;-0.000671485;-0.000933748;0.000374551;0.00035138;0.00256174;-0.0014508;0.0203451;0;0.013083;0.0735418;-0.521984;-1.05751;1.18161;-7.45867;-0.000461249;0.000461874;0.0035277;0.00358048;-0.00051403;0.00204725;0.130751;7.64814;0.00257548;0.00272967;6.9655;0.143565;109.032;154.032;-0.00313788;-0.000462179;0.00237119;-0.00143986;0.003525;-0.00911346;0.0322916;0;0.0239587;4.64311;4.14414
294000;295;25.8214;0.0663168;0.0025749;-2.28227;25.7188;-0.284977;-0.0320394;0.0653531;-0.68917;0.107544;-0.460114;-0.373151;0.60209;-7.20533;-0.000917589;1.98632e-05;0.00223709;0.00223721;-0.000917714;0.00157746;0.410171;2.43801;0.00187385;0.00210328;2.43781;0.410204;88.2551;133.255;-0.000433111;-0.00091759;-1.21105e-05;5.17362e-05;0.00223709;-0.00263926;0.020885;0;0.0145196;0.0715049;-0.525786;-1.06092;1.18622;-7.46208;-0.000435462;0.000238339;0.00345271;0.00346726;-0.000450017;0.00195864;0.126122;7.92884;0.00247519;0.00261152;7.70473;0.12979;114.477;159.477;-0.00348164;-0.000437427;0.00248162;-0.00199625;0.00344967;-0.00897941;0.0322194;0;0.0249962;4.70431;4.1518
295000;296;25.8217;0.0665917;0.00258557;-2.28147;25.7192;-0.284059;-0.0312387;0.0657103;-0.688252;0.103482;-0.461749;-0.372812;0.60242;-7.20499;-0.00106411;-1.55967e-06;0.00237819;0.00237819;-0.00106412;0.00172115;0.447448;2.2349;0.00203511;0.00229487;2.2349;0.447448;91.2637;136.264;-0.00141372;-0.00106411;2.69134e-05;-2.9935e-05;0.00237819;0.000501329;0.0189405;0;0.0165262;0.0681311;-0.528605;-1.06135;1.18766;-7.46251;-0.000356207;0.000153894;0.00340357;0.00340986;-0.000362496;0.00188618;0.104657;9.55505;0.0024032;0.00251491;9.40663;0.106308;115.417;160.417;-0.00381386;-0.000358332;0.00238315;-0.00206701;0.00340076;-0.00737488;0.0324296;0;0.023964;4.76269;4.15882
296000;297;25.8204;0.0653004;0.00253543;-2.28163;25.7178;-0.290016;-0.0314014;0.0643329;-0.694209;0.100679;-0.467258;-0.365971;0.601997;-7.19815;-0.00089836;0.000222523;0.0018941;0.00191172;-0.000915981;0.00141385;0.474294;2.1084;0.00166597;0.00188513;2.08707;0.47914;90.7703;135.77;-0.00165308;-0.000898344;0.000315838;0.000129468;0.00189407;0.000754163;0.0177964;0;0.0151883;0.066042;-0.533303;-1.05858;1.18717;-7.45974;-0.000323205;3.09591e-05;0.00334558;0.00334584;-0.000323466;0.00183465;0.0966064;10.3513;0.00234583;0.0024462;10.3437;0.096677;117.506;162.506;-0.00391756;-0.000325648;0.00228081;-0.00221066;0.00334299;-0.00572253;0.0322722;0;0.0248288;4.83406;4.16625
297000;298;25.8232;0.0681202;0.00264492;-2.28256;25.7205;-0.288947;-0.0323298;0.0670936;-0.69314;0.0979971;-0.468933;-0.367063;0.603521;-7.19924;-0.000753423;0.000323328;0.00270972;0.00273964;-0.000783351;0.0017615;0.278045;3.59654;0.00213598;0.00234866;3.49734;0.285932;92.0479;137.048;-0.00191688;-0.000753373;0.000580143;6.74e-05;0.0027096;7.89838e-05;0.0169529;0;0.0164655;0.0632546;-0.53615;-1.06213;1.19146;-7.46329;-0.000454883;7.74323e-05;0.00338697;0.00338853;-0.000456443;0.00192249;0.134304;7.44581;0.00242553;0.00256332;7.42378;0.134702;117.714;162.714;-0.00467578;-0.000457408;0.00241183;-0.00224803;0.00338408;-0.000851934;0.032606;0;0.0246994;4.89183;4.17347
298000;299;25.8249;0.0697676;0.00270888;-2.28363;25.7221;-0.289779;-0.0334042;0.0686429;-0.693972;0.0964624;-0.470946;-0.365693;0.604009;-7.19787;-0.000919079;-5.00306e-05;0.0023033;0.00230408;-0.000919855;0.00161197;0.399027;2.5061;0.00191768;0.00214929;2.50483;0.399229;99.8019;144.802;-0.00195511;-0.000919115;0.000173038;-0.000272382;0.00230329;0.000610856;0.0155764;0;0.0194636;0.0614614;-0.538782;-1.06454;1.1947;-7.4657;-0.000494525;0.000169557;0.00342774;0.00343506;-0.000501841;0.00196845;0.144271;6.93138;0.00247434;0.0026246;6.84491;0.146094;116.983;161.983;-0.0056266;-0.00049708;0.0026147;-0.00226603;0.00342435;0.00254054;0.0344107;0;0.0247971;4.95355;4.17895
299000;300;25.826;0.0709312;0.00275406;-2.28373;25.7232;-0.296293;-0.033497;0.0697286;-0.700486;0.0933883;-0.47358;-0.365812;0.605655;-7.19799;-0.000704117;0.000142708;0.00258837;0.00259454;-0.00071029;0.00165242;0.272031;3.67605;0.00200876;0.00220322;3.65279;0.273763;94.0305;139.031;-0.00174133;-0.000704109;0.000361053;-7.49198e-05;0.00258831;-0.000806997;0.0139316;0;0.0197585;0.0584641;-0.542391;-1.06623;1.19769;-7.46739;-0.000624993;0.000157211;0.00366461;0.00367036;-0.000630747;0.00215056;0.170548;5.86344;0.002682;0.00286741;5.81908;0.171849;116.542;161.542;-0.00518559;-0.000627426;0.0025354;-0.00221081;0.00366142;0.00225429;0.0366756;0;0.0280868;5.00182;4.18182
300000;301;25.8285;0.0733677;0.00284867;-2.28578;25.7254;-0.297844;-0.0355544;0.0719743;-0.702037;0.0912934;-0.475531;-0.367229;0.607718;-7.19941;-0.000687222;0.000363035;0.00257914;0.002619;-0.000727084;0.00167304;0.266454;3.75299;0.00203219;0.00223072;3.60206;0.277619;91.9562;136.956;-0.00151278;-0.000687159;0.000642982;8.40003e-05;0.002579;-0.00187303;0.0132707;0;0.0258532;0.0555872;-0.545841;-1.07091;1.20328;-7.47207;-0.000893776;0.000245687;0.00387669;0.00388931;-0.000906396;0.00239785;0.230551;4.33743;0.00294192;0.00319714;4.29096;0.233048;114.24;159.24;-0.0062848;-0.000895432;0.00233698;-0.00183567;0.003874;0.00419498;0.0392342;0;0.0335184;5.08084;4.18926
301000;302;25.8283;0.0732314;0.00284337;-2.28616;25.7252;-0.305934;-0.0359353;0.0717087;-0.710127;0.0884362;-0.476664;-0.369444;0.609523;-7.20162;-0.000776536;0.000206043;0.00279923;0.00281106;-0.000788369;0.00179971;0.277411;3.60476;0.00218477;0.00239962;3.56566;0.280453;95.4944;140.494;-0.00174872;-0.000776521;0.00052705;-0.000113821;0.00279911;-0.000298085;0.0137866;0;0.0226182;0.0522523;-0.546818;-1.07834;1.21019;-7.4795;-0.000841016;0.000292107;0.00396369;0.00398138;-0.00085871;0.00242005;0.21218;4.71297;0.00298199;0.00322673;4.63647;0.215681;113.108;158.108;-0.00701685;-0.000842581;0.00238652;-0.00179228;0.00396089;0.00727557;0.0380102;0;0.0326724;5.14424;4.19642
302000;303;25.831;0.0758831;0.00294633;-2.28873;25.7276;-0.305533;-0.0385024;0.0741475;-0.709726;0.0869101;-0.477822;-0.370877;0.611079;-7.20305;-0.000661674;0.000230902;0.00306213;0.0030764;-0.000675937;0.00187617;0.216083;4.62786;0.00230945;0.00250156;4.55131;0.219717;93.5999;138.6;-0.00192126;-0.00066165;0.000537094;-7.41544e-05;0.00306202;-0.0002324;0.0126942;0;0.0170624;0.0498801;-0.549444;-1.08064;1.21332;-7.4818;-0.00104443;0.000429465;0.00401463;0.00405082;-0.00108063;0.00256573;0.260157;3.84384;0.0031237;0.00342097;3.74857;0.266768;112.61;157.61;-0.00613611;-0.00104575;0.00255066;-0.00168104;0.00401148;0.00619071;0.041088;0;0.0298282;5.20718;4.20368
303000;304;25.8328;0.0776417;0.00301461;-2.28862;25.7294;-0.303866;-0.0383893;0.075943;-0.708059;0.0845565;-0.479774;-0.373147;0.613654;-7.20532;-0.000677372;0.000389655;0.00293189;0.00297348;-0.000718959;0.00184622;0.231035;4.32834;0.00226041;0.00246163;4.13581;0.24179;91.606;136.606;-0.0019968;-0.000677299;0.000700997;7.94337e-05;0.00293173;-0.000440647;0.0123711;0;0.0225093;0.0472926;-0.551541;-1.08539;1.2184;-7.48655;-0.00105211;0.000481237;0.00402731;0.0040725;-0.0010973;0.0025849;0.261245;3.82783;0.00314523;0.00344654;3.71137;0.269442;108.731;153.731;-0.00598042;-0.0010527;0.00215273;-0.0011818;0.00402512;0.00552856;0.0402109;0;0.0322444;5.25655;4.21151
304000;305;25.83;0.0748653;0.00290681;-2.28853;25.7265;-0.316725;-0.0383033;0.073008;-0.720918;0.0828498;-0.48233;-0.372311;0.614916;-7.20449;-0.000571444;0.000294819;0.00287408;0.00289912;-0.000596488;0.00174781;0.198827;5.0295;0.00215922;0.00233041;4.86032;0.205748;89.834;134.834;-0.00178216;-0.000571406;0.000485534;0.00010476;0.002874;-0.000612457;0.0126002;0;0.02558;0.0449035;-0.554483;-1.087;1.22108;-7.48817;-0.00119114;0.000504656;0.00411674;0.00416429;-0.0012387;0.0027015;0.289341;3.45613;0.0032683;0.00360199;3.36184;0.297457;111.08;156.08;-0.0064438;-0.00119204;0.00245112;-0.00143153;0.00411387;0.00595109;0.0393449;0;0.0360333;5.32086;4.21867
305000;306;25.8334;0.0782719;0.00303908;-2.29107;25.7298;-0.307918;-0.0408355;0.0763099;-0.712111;0.0803546;-0.48641;-0.368202;0.615325;-7.20038;-0.000506024;0.000444089;0.00333685;0.0033875;-0.000556676;0.00197209;0.151647;6.59425;0.00246494;0.00262945;6.08523;0.164332;88.2883;133.288;-0.00190017;-0.000505946;0.000684051;0.000205047;0.00333672;0.000182344;0.0114208;0;0.0213632;0.0409888;-0.560403;-1.07895;1.21649;-7.48011;-0.00131551;0.000490306;0.00418926;0.00423259;-0.00135884;0.00279571;0.314019;3.18452;0.00336734;0.00372762;3.11486;0.321042;111.025;156.025;-0.00581213;-0.00131631;0.00234942;-0.00135862;0.00418663;0.00728177;0.0404549;0;0.0338277;5.37483;4.22616
306000;307;25.8336;0.078493;0.00304767;-2.29092;25.7299;-0.313773;-0.0406908;0.076474;-0.717966;0.0774629;-0.489177;-0.367136;0.616509;-7.19931;-0.000552184;0.000434601;0.00337973;0.00342719;-0.000599648;0.00201342;0.163381;6.12065;0.00250868;0.00268456;5.71533;0.174968;86.3568;131.357;-0.00167227;-0.000552137;0.00056318;0.000306526;0.00337966;-0.000598929;0.0114826;0;0.0207889;0.0375143;-0.563575;-1.07936;1.21821;-7.48052;-0.00136007;0.000425526;0.00431021;0.00434196;-0.00139183;0.00286689;0.315546;3.16911;0.00345338;0.00382253;3.11962;0.320552;111.91;156.91;-0.00566398;-0.00136109;0.00234855;-0.00148665;0.00430755;0.00549229;0.0403359;0;0.0296975;5.44463;4.23343
307000;308;25.8346;0.0795223;0.00308763;-2.2906;25.7311;-0.306519;-0.0403749;0.077623;-0.710712;0.0752198;-0.492096;-0.366425;0.618129;-7.1986;-0.000536513;0.000427486;0.00386638;0.0039075;-0.000577634;0.00224257;0.138764;7.20649;0.00281735;0.00299009;6.76466;0.147827;88.868;133.868;-0.00183365;-0.000536436;0.000684;0.000172097;0.00386623;-4.45479e-05;0.0132014;0;0.0248781;0.0343325;-0.56685;-1.08041;1.22057;-7.48158;-0.00139074;0.000472554;0.00415571;0.00419568;-0.00143071;0.0028132;0.334657;2.98813;0.00337662;0.00375093;2.93259;0.340996;112.756;157.756;-0.00489449;-0.00139178;0.00247157;-0.00151542;0.00415278;0.00331542;0.036902;0;0.0274987;5.50682;4.24095
308000;309;25.8362;0.081074;0.00314788;-2.2912;25.7326;-0.301219;-0.0409708;0.0791905;-0.705412;0.0740388;-0.497322;-0.359891;0.618331;-7.19207;-0.000677814;0.00041808;0.00408422;0.00412064;-0.00071424;0.00241744;0.165959;6.02557;0.00301352;0.00322325;5.76927;0.173332;87.1403;132.14;-0.00163738;-0.000677769;0.000544856;0.000291905;0.00408415;-0.000325648;0.0124045;0;0.0181542;0.0326695;-0.573224;-1.07185;1.21594;-7.47302;-0.0013544;0.000366358;0.00420261;0.00422665;-0.00137845;0.00280255;0.322276;3.10294;0.0033725;0.00373673;3.06625;0.326132;114.155;159.155;-0.0053817;-0.00135583;0.00247559;-0.00173121;0.00419962;0.00373395;0.0383589;0;0.0228467;5.56165;4.24815
309000;310;25.8385;0.0834193;0.00323894;-2.29101;25.735;-0.302233;-0.0407805;0.0815503;-0.706426;0.0720453;-0.495413;-0.371199;0.623228;-7.20338;-0.000666644;0.000450072;0.00428218;0.00432277;-0.000707242;0.00251501;0.155679;6.42348;0.00314422;0.00335334;6.11215;0.163608;86.2174;131.217;-0.00135552;-0.000666608;0.000537073;0.000363499;0.00428213;-0.000675096;0.0126119;0;0.0183121;0.0297297;-0.573276;-1.08505;1.22755;-7.48622;-0.00115;0.000171671;0.00431013;0.00431552;-0.0011554;0.00273546;0.266815;3.74792;0.00332965;0.00364728;3.7351;0.267731;115.832;160.832;-0.00483372;-0.00115221;0.00246387;-0.00210806;0.00430712;0.00263672;0.0348458;0;0.0245899;5.63108;4.25543
310000;311;25.8383;0.0831607;0.0032289;-2.29176;25.7346;-0.303899;-0.0415286;0.0812044;-0.708092;0.0687358;-0.499656;-0.3663;0.623343;-7.19848;-0.000516995;0.000416504;0.00442406;0.00445892;-0.000551858;0.00250539;0.11686;8.55725;0.00317261;0.00334052;8.07983;0.123765;87.6415;132.642;-0.00157988;-0.00051694;0.000583083;0.000250744;0.00442398;-0.000537399;0.0141989;0;0.0185579;0.0260171;-0.578114;-1.07944;1.22478;-7.4806;-0.00122532;-3.35648e-05;0.00433304;0.00433324;-0.00122552;0.00277938;0.282786;3.53625;0.0033724;0.00370584;3.53583;0.282819;117.925;162.925;-0.00466404;-0.00122789;0.00221194;-0.00226664;0.0043306;-0.000161894;0.031984;0;0.0291923;5.68524;4.25758
311000;312;25.8418;0.0867096;0.00336669;-2.29335;25.7381;-0.304542;-0.0431214;0.0846181;-0.708735;0.0657898;-0.502558;-0.365862;0.625098;-7.19804;-0.00069526;0.000550271;0.0045249;0.00458227;-0.000752635;0.00266745;0.153652;6.50822;0.00333417;0.00355661;6.08831;0.164249;87.0427;132.043;-0.00169953;-0.000695169;0.000752115;0.000349477;0.00452477;-0.000311111;0.015023;0;0.016823;0.0217714;-0.583278;-1.078;1.22588;-7.47917;-0.00101236;3.64257e-08;0.00423475;0.00423475;-0.00101236;0.00262355;0.23906;4.18306;0.00321421;0.00349807;4.18306;0.23906;116.913;161.913;-0.00373941;-0.00101479;0.00221635;-0.0022047;0.0042323;-0.00587738;0.0292283;0;0.0312989;5.75027;4.26426
312000;313;25.8427;0.0875626;0.00339981;-2.29384;25.7389;-0.30473;-0.0436087;0.0854289;-0.708923;0.0622959;-0.501516;-0.376306;0.630083;-7.20848;-0.00066146;0.000462905;0.00452222;0.00456323;-0.000702473;0.00263285;0.146269;6.83673;0.00330132;0.00351047;6.49596;0.153942;88.4159;133.416;-0.00107314;-0.000661378;0.00069956;0.000227472;0.00452208;-0.00160232;0.0175317;0;0.0156199;0.0183733;-0.584022;-1.08816;1.23512;-7.48933;-0.00107927;-6.20502e-05;0.00406796;0.00406871;-0.00108002;0.00257436;0.26531;3.76917;0.00313511;0.00343248;3.76725;0.265445;118.922;163.922;-0.00381297;-0.00108196;0.00220554;-0.00231802;0.00406554;-0.00546618;0.0273639;0;0.0308985;5.80906;4.27111
313000;314;25.8432;0.0880902;0.0034203;-2.29311;25.7395;-0.304284;-0.0428782;0.086029;-0.708477;0.06078;-0.505641;-0.374347;0.632062;-7.20652;-0.000820124;0.000467549;0.00470887;0.00474813;-0.000859383;0.00280376;0.174166;5.74165;0.00348736;0.00373834;5.52504;0.180994;88.0014;133.001;-0.00120332;-0.000820053;0.000659175;0.000276978;0.00470876;-0.000542072;0.0162127;0;0.0190378;0.0166543;-0.589269;-1.08464;1.23449;-7.4858;-0.00106216;-4.19681e-05;0.00425573;0.00425606;-0.00106249;0.00265928;0.249583;4.00668;0.00324996;0.0035457;4.00575;0.249641;117.01;162.01;-0.00423173;-0.00106452;0.00209803;-0.00217063;0.00425354;-0.00387577;0.0292759;0;0.0358649;5.86743;4.27738
314000;315;25.8431;0.0879487;0.0034148;-2.29365;25.7392;-0.310875;-0.0434244;0.0857594;-0.715068;0.0589779;-0.509385;-0.371527;0.633232;-7.2037;-0.000766769;0.000217929;0.0049032;0.00491157;-0.000775133;0.00284335;0.156381;6.39463;0.00356099;0.00379113;6.33642;0.157818;91.2387;136.239;-0.00211891;-0.000766746;0.000468451;-3.11795e-05;0.00490312;-0.000232253;0.017849;0;0.0191107;0.01451;-0.593582;-1.08411;1.23606;-7.48528;-0.000844219;-5.51427e-06;0.00417654;0.00417654;-0.000844225;0.00251038;0.202134;4.94722;0.00310427;0.00334718;4.94719;0.202135;116.465;161.465;-0.00350703;-0.000846646;0.00220224;-0.00220223;0.00417412;-0.00558785;0.0291125;0;0.0307634;5.93007;4.28478
315000;316;25.8434;0.0883319;0.00342968;-2.29341;25.7396;-0.307847;-0.0431853;0.086202;-0.71204;0.0535789;-0.513816;-0.368052;0.634303;-7.20023;-0.000945625;0.000283068;0.00428455;0.00429983;-0.0009609;0.00263037;0.220706;4.53092;0.00323478;0.00350715;4.47479;0.223474;91.2174;136.217;-0.00138263;-0.000945585;0.000537019;3.04393e-05;0.00428445;-0.00124182;0.0194513;0;0.0153705;0.0101001;-0.598465;-1.08217;1.23667;-7.48333;-0.000878;0.000151983;0.0042403;0.00424481;-0.000882509;0.00256366;0.207061;4.8295;0.00316532;0.00341821;4.80994;0.207903;114.412;159.412;-0.00360101;-0.000880027;0.00233328;-0.0020182;0.0042376;-0.00637299;0.0299878;0;0.0248593;5.99226;4.29213
316000;317;25.8458;0.0906763;0.00352071;-2.2939;25.7419;-0.309421;-0.0436744;0.0884934;-0.713614;0.0521991;-0.514188;-0.368824;0.634937;-7.201;-0.00104189;-7.61748e-05;0.00381418;0.00381538;-0.00104309;0.00242923;0.273163;3.66082;0.00295333;0.00323898;3.65778;0.27339;97.1845;142.184;-0.0010531;-0.00104196;0.000234145;-0.000384994;0.00381416;-0.0019295;0.0201124;0;0.024763;0.00856789;-0.600239;-1.08425;1.23934;-7.48541;-0.000804058;0.000220929;0.00435238;0.00436183;-0.000813506;0.00258767;0.18474;5.41302;0.00321356;0.00345022;5.36176;0.186506;112.161;157.161;-0.00417102;-0.000805722;0.00228916;-0.00183669;0.00434979;-0.00595048;0.0324931;0;0.0252014;6.04582;4.30042
317000;318;25.8466;0.0914823;0.003552;-2.29491;25.7427;-0.308672;-0.0446807;0.0892218;-0.712865;0.050734;-0.517241;-0.378472;0.642925;-7.21065;-0.00108536;0.000353697;0.00351975;0.00354675;-0.00111237;0.00232956;0.308364;3.24292;0.00280968;0.00310608;3.18847;0.313631;94.0757;139.076;-0.00137003;-0.0010853;0.000724466;-1.53716e-05;0.00351955;-0.00188529;0.018905;0;0.014048;0.00647139;-0.603541;-1.08989;1.24585;-7.49105;-0.000639621;0.000398155;0.00426362;0.00429574;-0.000671742;0.00248374;0.150018;6.66585;0.003112;0.00331165;6.39493;0.156374;108.709;153.709;-0.00425203;-0.0006407;0.00232722;-0.00152149;0.004261;-0.00620703;0.0307431;0;0.0258296;6.10544;4.30649
318000;319;25.8456;0.0904621;0.00351239;-2.29196;25.7418;-0.315233;-0.0417293;0.088381;-0.719426;0.0437346;-0.519116;-0.375147;0.641973;-7.20732;-0.00124476;0.000229559;0.00248484;0.00249892;-0.00125883;0.00187888;0.500939;1.99625;0.00220857;0.00250517;1.98511;0.50375;103.04;148.04;-0.00179072;-0.00124474;0.000634774;-0.000174149;0.00248467;-0.000121047;0.0207937;0;0.0195293;0.00153478;-0.606531;-1.08998;1.24737;-7.49114;-0.00078789;0.000425481;0.00425775;0.00429338;-0.000823517;0.00255845;0.185048;5.40399;0.00317259;0.00341126;5.21346;0.191811;108.257;153.257;-0.00434503;-0.000788748;0.00223686;-0.0013768;0.00425535;-0.00545172;0.0350347;0;0.0353692;6.16554;4.31404
319000;320;25.8458;0.0906344;0.00351908;-2.2911;25.742;-0.32397;-0.0408726;0.0885218;-0.728163;0.0391619;-0.520006;-0.373542;0.641462;-7.20572;-0.00127265;1.99605e-05;0.00279357;0.00279367;-0.00127275;0.00203321;0.455565;2.19508;0.00240186;0.00271095;2.19498;0.455584;104.095;149.095;-0.00192554;-0.00127273;0.000438426;-0.000396808;0.00279347;0.00026447;0.0197025;0;0.0198122;-0.00199855;-0.608299;-1.0921;1.25009;-7.49327;-0.000768521;0.00050434;0.00448848;0.00453642;-0.000816468;0.00267645;0.171221;5.84041;0.00332997;0.0035686;5.55615;0.179981;107.688;152.688;-0.00507575;-0.000769429;0.00245712;-0.00143822;0.0044856;-0.00167658;0.0359515;0;0.0287703;6.22022;4.32071
320000;321;25.8477;0.0925743;0.0035944;-2.28973;25.7441;-0.317182;-0.0395023;0.0906759;-0.721375;0.0352753;-0.524938;-0.370886;0.643709;-7.20306;-0.00132187;3.51416e-05;0.00277755;0.00277785;-0.00132217;0.00205001;0.475912;2.10123;0.00241637;0.00273335;2.10098;0.475968;106.514;151.514;-0.00210725;-0.00132197;0.000527696;-0.000455399;0.00277741;-0.000613802;0.0192165;0;0.0157499;-0.00425674;-0.613622;-1.09035;1.25116;-7.49151;-0.00087059;0.0005674;0.00441129;0.00447155;-0.000930855;0.0027012;0.197355;5.06701;0.00333491;0.0036016;4.8037;0.208173;106.719;151.719;-0.00439082;-0.000871196;0.00238254;-0.0012382;0.00440862;-0.00265719;0.0366283;0;0.0311098;6.27348;4.32787
321000;322;25.8456;0.0904561;0.00351216;-2.28959;25.7419;-0.324221;-0.0393609;0.0884741;-0.728414;0.0313137;-0.524272;-0.377975;0.647076;-7.21015;-0.00104588;0.000590518;0.00324442;0.00332421;-0.00112567;0.00222494;0.322361;3.10211;0.00267162;0.00296659;2.9531;0.338627;96.0477;141.048;-0.00145823;-0.0010457;0.00116438;1.91123e-05;0.00324392;-0.00186838;0.0186576;0;0.0190665;-0.0087439;-0.612758;-1.1037;1.26242;-7.50486;-0.000817033;0.000848247;0.0045134;0.00464512;-0.000948761;0.00279694;0.181024;5.52413;0.00345668;0.00372926;4.89599;0.204249;103.297;148.297;-0.00543044;-0.000817126;0.00265823;-0.000952134;0.00451024;0.00225413;0.0394867;0;0.0265637;6.32762;4.33093
322000;323;25.8446;0.0894388;0.00347266;-2.29048;25.7408;-0.328606;-0.0402537;0.0873177;-0.732799;0.0285602;-0.528681;-0.370911;0.646447;-7.20309;-0.0011341;0.000557152;0.00329826;0.00336722;-0.00120307;0.00228514;0.343849;2.90825;0.00273549;0.00304686;2.79887;0.357287;97.5876;142.588;-0.00167551;-0.00113395;0.00116617;-4.91755e-05;0.00329774;-0.00193608;0.0165475;0;0.0198656;-0.0118939;-0.615981;-1.09898;1.2599;-7.50015;-0.000953684;0.000793356;0.00451523;0.00462799;-0.00106645;0.00284722;0.211215;4.73451;0.00349547;0.00379629;4.33963;0.230434;105.899;150.899;-0.00564317;-0.00095407;0.00278069;-0.00118316;0.00451169;0.00472096;0.0384495;0;0.0391343;6.37434;4.33689
323000;324;25.846;0.0908586;0.00352779;-2.29105;25.7421;-0.331972;-0.040824;0.0886493;-0.736165;0.0272855;-0.527913;-0.382941;0.652748;-7.21512;-0.00115587;-3.12529e-05;0.00351343;0.00351364;-0.00115608;0.00233486;0.328987;3.03963;0.00280826;0.00311314;3.03926;0.329027;104.136;149.136;-0.00287259;-0.00115608;0.00058477;-0.000644409;0.00351326;0.00112173;0.0137818;0;0.0175841;-0.0134186;-0.617065;-1.11338;1.27301;-7.51454;-0.00103893;0.000797588;0.00456605;0.00467733;-0.00115022;0.00291378;0.227534;4.39494;0.00356404;0.00388503;4.06647;0.245913;106.748;151.748;-0.00629324;-0.00103941;0.00286571;-0.001259;0.00456227;0.00635102;0.0395569;0;0.0222964;6.42856;4.34373
324000;325;25.8467;0.0916263;0.0035576;-2.29058;25.7429;-0.330878;-0.0403548;0.0894759;-0.735071;0.0255958;-0.527944;-0.393539;0.658978;-7.22571;-0.00091329;0.000189527;0.00326359;0.00327218;-0.000921873;0.00209702;0.279842;3.57345;0.00254502;0.00279603;3.54949;0.281731;97.8313;142.831;-0.00238521;-0.000913306;0.00063855;-0.000257627;0.00326341;0.000743705;0.0155835;0;0.021312;-0.015344;-0.616882;-1.127;1.28488;-7.52816;-0.00108401;0.00061146;0.00454346;0.00460913;-0.00114969;0.00287941;0.238588;4.19133;0.00351915;0.00383921;4.00903;0.249437;108.172;153.172;-0.00588827;-0.00108474;0.0025848;-0.00135083;0.00454032;0.00604019;0.0379423;0;0.0215107;6.47216;4.35094
325000;326;25.8491;0.0940108;0.00365018;-2.29118;25.7453;-0.331291;-0.0409553;0.0918112;-0.735484;0.0221503;-0.529904;-0.390438;0.658583;-7.22261;-0.000873717;0.000358539;0.00368176;0.00370981;-0.000901764;0.00230579;0.237309;4.21391;0.00282223;0.00307438;4.11395;0.243075;93.9577;138.958;-0.00201167;-0.000873655;0.000785661;-6.66444e-05;0.00368152;-0.000639452;0.0136962;0;0.018628;-0.0196693;-0.620312;-1.1254;1.28519;-7.52656;-0.00123674;0.000271549;0.00475406;0.00476634;-0.00124902;0.00300768;0.260143;3.84403;0.00366554;0.00401024;3.81606;0.26205;111.266;156.266;-0.00453103;-0.00123808;0.00221642;-0.00166173;0.00475165;0.00370715;0.038969;0;0.0227904;6.51054;4.35937
326000;327;25.8506;0.0955304;0.00370918;-2.29283;25.7466;-0.333129;-0.0425961;0.0931672;-0.737322;0.0193987;-0.534144;-0.386363;0.659517;-7.21854;-0.000902546;0.000285936;0.00371671;0.00373435;-0.000920178;0.00232726;0.242834;4.11804;0.00284631;0.00310302;4.05829;0.246409;95.9891;140.989;-0.00219744;-0.000902525;0.000773259;-0.000199145;0.00371646;-9.93859e-05;0.0133163;0;0.0222309;-0.0233586;-0.625216;-1.12518;1.28743;-7.52635;-0.00124931;4.66266e-05;0.00494369;0.00494404;-0.00124966;0.00309685;0.252707;3.95715;0.00378204;0.00412914;3.95632;0.25276;116.264;161.264;-0.00466783;-0.00125229;0.00254952;-0.00244085;0.00494046;0.00399961;0.0359248;0;0.0243511;6.55022;4.36526
327000;328;25.8517;0.096565;0.00374935;-2.29367;25.7476;-0.333829;-0.0434379;0.0941219;-0.738022;0.0181341;-0.533637;-0.39501;0.664176;-7.22719;-0.000739621;0.000359305;0.00380158;0.00382984;-0.000767873;0.00229885;0.194556;5.13991;0.00284395;0.00306514;4.98759;0.200498;93.0261;138.026;-0.00201842;-0.000739557;0.000772383;-5.19051e-05;0.00380135;-0.000191808;0.0138826;0;0.0207576;-0.0256173;-0.625957;-1.13376;1.29533;-7.53492;-0.00126633;-0.000152753;0.00492292;0.00492669;-0.0012701;0.00309839;0.257231;3.88755;0.00377964;0.00413119;3.87898;0.257799;116.945;161.945;-0.00419786;-0.00126924;0.00212449;-0.00241597;0.00492069;0.00224065;0.0378916;0;0.0282104;6.58944;4.37287
328000;329;25.8528;0.0976328;0.00379081;-2.2943;25.7485;-0.33798;-0.0440701;0.0950836;-0.742173;0.0164551;-0.541616;-0.387964;0.666434;-7.22014;-0.000800778;0.000380612;0.00478143;0.00480726;-0.000826609;0.00281694;0.167476;5.97099;0.00351295;0.00375592;5.81564;0.17195;92.8593;137.859;-0.00212761;-0.00080071;0.000860166;-9.62781e-05;0.00478114;0.000689416;0.0139119;0;0.0316824;-0.0279019;-0.634809;-1.12537;1.29237;-7.52654;-0.00146041;2.80566e-05;0.00479828;0.00479841;-0.00146053;0.00312947;0.30436;3.28558;0.00378101;0.00417263;3.28538;0.304378;117.409;162.409;-0.00397628;-0.00146326;0.00245698;-0.00238573;0.00479528;0.000875684;0.0390995;0;0.0643878;6.62734;4.37999
329000;330;25.8561;0.100966;0.00392023;-2.29489;25.7519;-0.329177;-0.0446637;0.0984915;-0.73337;0.0132647;-0.539857;-0.396442;0.669916;-7.22862;-0.000762107;0.000313691;0.00455328;0.00457173;-0.000780556;0.00267614;0.167375;5.97459;0.00333856;0.00356819;5.85702;0.170735;92.6478;137.648;-0.00204515;-0.000762062;0.000719404;-8.98758e-05;0.00455307;0.000293384;0.0139274;0;0.0194472;-0.0315382;-0.634339;-1.13324;1.29908;-7.5344;-0.00138163;-0.000323102;0.00478115;0.00479805;-0.00139852;0.00309828;0.288973;3.46053;0.00375276;0.00413104;3.43081;0.291477;120.747;165.747;-0.00395222;-0.00138549;0.00216708;-0.00279801;0.00477887;0.0029819;0.0377867;0;0.0293185;6.66183;4.38736
330000;331;25.8578;0.102635;0.00398502;-2.29846;25.7533;-0.329177;-0.0482329;0.0998486;-0.73337;0.0102623;-0.541781;-0.400567;0.673859;-7.23274;-0.000741538;0.000564449;0.00485189;0.00490828;-0.00079793;0.0028531;0.152835;6.543;0.00356803;0.00380414;6.15127;0.162568;90.2333;135.233;-0.00233597;-0.000741388;0.000998802;0.000132513;0.00485155;0.000207457;0.015125;0;0.0223236;-0.0369702;-0.638888;-1.13433;1.3024;-7.53549;-0.00145669;-0.000174747;0.00478645;0.00479134;-0.00146158;0.00312646;0.304336;3.28584;0.00377689;0.00416861;3.2782;0.305046;118.88;163.88;-0.00307666;-0.00145984;0.00217925;-0.00251412;0.0047841;-0.0016563;0.0363973;0;0.0343876;6.695;4.39417
331000;332;25.8592;0.104033;0.00403931;-2.29845;25.7547;-0.331228;-0.0482192;0.101227;-0.735421;0.00875624;-0.542478;-0.406705;0.678062;-7.23888;-0.000747996;0.000397686;0.00502624;0.0050535;-0.000775257;0.00291438;0.148818;6.7196;0.00365493;0.00388584;6.51848;0.15341;91.4562;136.456;-0.00203559;-0.000747917;0.000806069;-8.35157e-06;0.00502599;0.000313204;0.0163475;0;0.0194026;-0.0384238;-0.640998;-1.14174;1.30993;-7.5429;-0.00136949;-2.36279e-05;0.00476459;0.00476468;-0.00136958;0.00306713;0.287431;3.4791;0.00371804;0.00408951;3.47893;0.287444;116.928;161.928;-0.00232037;-0.00137216;0.00227783;-0.00231104;0.00476201;-0.00562513;0.036141;0;0.0273978;6.73615;4.40138
332000;333;25.8612;0.10612;0.00412033;-2.29964;25.7567;-0.325073;-0.0494137;0.103294;-0.729267;0.00630493;-0.54475;-0.406378;0.679659;-7.23855;-0.000782496;0.000569945;0.00558133;0.00563198;-0.000833137;0.00323256;0.140199;7.13274;0.00406095;0.00431007;6.75997;0.14793;90.0619;135.062;-0.00176694;-0.000782342;0.00100753;0.000135129;0.00558099;-0.001615;0.015368;0;0.0207992;-0.0409713;-0.643952;-1.1399;1.30985;-7.54106;-0.00120982;7.97852e-05;0.00473476;0.00473583;-0.00121089;0.00297336;0.255519;3.91361;0.00362883;0.00396448;3.91103;0.255687;114.442;159.442;-0.00264045;-0.00121193;0.0022248;-0.00205254;0.0047323;-0.00595487;0.0355963;0;0.0262152;6.76225;4.40705
333000;334;25.8598;0.104705;0.00406541;-2.30066;25.7552;-0.329284;-0.0504328;0.10173;-0.733477;0.00478613;-0.550011;-0.401757;0.681134;-7.23393;-0.000881975;0.000510873;0.00563244;0.00567226;-0.000921795;0.00329703;0.156588;6.38617;0.00412326;0.00439603;6.15349;0.162509;91.1919;136.192;-0.00225545;-0.000881845;0.000988083;3.67552e-05;0.00563208;-0.000628716;0.0161217;0;0.0186435;-0.0432302;-0.648336;-1.13644;1.30908;-7.5376;-0.000932414;0.000212515;0.00486912;0.0048769;-0.000940188;0.00290854;0.191495;5.22206;0.00360575;0.00387806;5.18715;0.192784;112.478;157.478;-0.0036654;-0.000934525;0.00250272;-0.00206447;0.00486603;-0.0060661;0.0338508;0;0.0290231;6.79221;4.40988
334000;335;25.8606;0.105523;0.00409718;-2.29973;25.7561;-0.324602;-0.0495009;0.102694;-0.728795;0.00228327;-0.551496;-0.407546;0.685745;-7.23972;-0.000959275;0.000445253;0.00590582;0.00593458;-0.000988033;0.00346131;0.162429;6.15655;0.00432353;0.00461507;6.00646;0.166487;92.2291;137.229;-0.00247864;-0.000959179;0.000967249;-7.31808e-05;0.00590546;-0.000164994;0.0177723;0;0.0185424;-0.045428;-0.650277;-1.14304;1.31585;-7.5442;-0.000949551;0.000226928;0.00497313;0.00498182;-0.000958233;0.00297002;0.190936;5.23735;0.00368242;0.00396003;5.19896;0.192346;109.39;154.39;-0.00447962;-0.000950904;0.00212474;-0.00165971;0.00497091;-0.00365617;0.0355842;0;0.0275614;6.82693;4.41731
335000;336;25.8618;0.10673;0.00414404;-2.30108;25.7572;-0.326495;-0.0508489;0.103761;-0.730688;6.19004e-05;-0.551555;-0.414556;0.689978;-7.24673;-0.000979965;0.000668715;0.00580995;0.00587518;-0.0010452;0.00346019;0.16867;5.92873;0.00430766;0.00461359;5.62112;0.1779;91.1196;136.12;-0.00194684;-0.000979746;0.00124664;9.46946e-05;0.0058094;-0.00237004;0.0186818;0;0.0256401;-0.0486579;-0.651251;-1.15028;1.32274;-7.55144;-0.00097414;0.000458691;0.00477035;0.00480675;-0.00101054;0.00290864;0.204207;4.89699;0.00358908;0.00387819;4.75663;0.210233;108.266;153.266;-0.00415425;-0.000975131;0.00240852;-0.00147999;0.00476757;-0.00620457;0.0326496;0;0.0540529;6.8596;4.424
336000;337;25.8617;0.106598;0.00413891;-2.29964;25.7573;-0.321367;-0.049413;0.103821;-0.72556;-0.00277308;-0.557388;-0.409823;0.691842;-7.242;-0.000898254;0.000505019;0.00595786;0.00599486;-0.000935254;0.00346506;0.150768;6.63271;0.00434203;0.00462007;6.40987;0.156009;91.7;136.7;-0.00195173;-0.000898126;0.0010358;-2.21419e-05;0.00595745;-0.00211346;0.0183878;0;0.0167906;-0.0516941;-0.658134;-1.1428;1.31978;-7.54396;-0.000932736;0.000465254;0.00496432;0.0050008;-0.000969217;0.00298501;0.187888;5.32232;0.0036995;0.00398001;5.15963;0.193812;108.057;153.057;-0.00541926;-0.00093384;0.0024988;-0.00155636;0.00496132;-0.00330595;0.0339471;0;0.0312532;6.88909;4.43138
337000;338;25.8623;0.107153;0.00416047;-2.29964;25.7578;-0.319594;-0.0494075;0.104402;-0.723788;-0.0037474;-0.560766;-0.413003;0.696451;-7.24518;-0.000860709;0.000239924;0.00569429;0.00570306;-0.000869479;0.00328627;0.151153;6.61581;0.00412254;0.00438169;6.55917;0.152458;95.821;140.821;-0.00238407;-0.00086078;0.000929082;-0.000444742;0.00569389;-0.00180711;0.0184673;0;0.017937;-0.052782;-0.66231;-1.14405;1.32299;-7.54522;-0.00104488;0.000544529;0.00496606;0.00501499;-0.00109381;0.0030544;0.210404;4.75277;0.00376132;0.00407253;4.58489;0.218108;109.417;154.417;-0.00418345;-0.00104621;0.00282238;-0.0017197;0.00496225;-0.00775248;0.0328358;0;0.0274134;6.92495;4.43884
338000;339;25.8623;0.107171;0.00416115;-2.29857;25.7579;-0.322577;-0.0483359;0.104477;-0.72677;-0.0050808;-0.56291;-0.413824;0.698673;-7.246;-0.000939209;0.000639947;0.00538745;0.00545153;-0.00100329;0.00322741;0.174333;5.73615;0.00401083;0.00430321;5.43364;0.184039;92.8276;137.828;-0.00247683;-0.000939005;0.00132759;-4.33674e-05;0.00538677;-0.00207572;0.0188025;0;0.0185192;-0.0539298;-0.664309;-1.14791;1.32737;-7.54908;-0.00113421;0.000454316;0.00513124;0.00516401;-0.00116698;0.0031655;0.221041;4.52406;0.00389045;0.00422066;4.42509;0.225984;109.986;154.986;-0.00424595;-0.0011357;0.00270563;-0.00178297;0.0051277;-0.00782907;0.035247;0;0.0289258;6.95088;4.44657
339000;340;25.8614;0.106248;0.0041253;-2.29827;25.757;-0.324336;-0.0480355;0.103555;-0.728529;-0.00651284;-0.566887;-0.412957;0.701383;-7.24513;-0.00087124;0.000704329;0.00507232;0.00515465;-0.000953565;0.00305411;0.171763;5.82196;0.00379444;0.00407214;5.40566;0.184991;91.7321;136.732;-0.00200645;-0.000870994;0.00134171;7.07225e-05;0.00507167;-0.00274057;0.0177359;0;0.0187653;-0.0561602;-0.669679;-1.1446;1.3273;-7.54576;-0.000949416;0.000385835;0.0050659;0.00509054;-0.000974063;0.0030323;0.187413;5.3358;0.00376067;0.00404307;5.22609;0.191348;110.831;155.831;-0.00396481;-0.000951304;0.0027664;-0.00198048;0.00506216;-0.00809646;0.0345425;0;0.024784;6.98534;4.45367
340000;341;25.8626;0.107509;0.00417428;-2.29803;25.7583;-0.319324;-0.0478039;0.104905;-0.723517;-0.0094834;-0.570946;-0.409841;0.70288;-7.24202;-0.00101117;0.000700253;0.00431203;0.00440261;-0.00110174;0.00275218;0.234499;4.26441;0.00336302;0.00366957;3.99604;0.250248;92.8785;137.879;-0.00190958;-0.00101093;0.00131997;8.38248e-05;0.00431141;-0.00225673;0.0177095;0;0.0191571;-0.058961;-0.67434;-1.14172;1.32731;-7.54289;-0.00105893;0.000254451;0.00501028;0.00502093;-0.00106958;0.00304525;0.211352;4.73143;0.00375494;0.00406034;4.69428;0.213025;113.354;158.354;-0.00388366;-0.00106139;0.00275462;-0.00223063;0.00500653;-0.00897054;0.0329054;0;0.0298783;7.01127;4.46139
341000;342;25.863;0.107844;0.00418728;-2.29766;25.7586;-0.326086;-0.0474305;0.10519;-0.730279;-0.0110417;-0.572496;-0.412258;0.705571;-7.24443;-0.000885319;0.000929398;0.00393548;0.00410845;-0.00105829;0.00258337;0.224958;4.44527;0.00315153;0.00344449;3.88216;0.257589;90.1437;135.144;-0.00205513;-0.000884943;0.00152866;0.000333011;0.00393475;-0.00238279;0.0185328;0;0.0173123;-0.0610486;-0.67702;-1.14635;1.33274;-7.54751;-0.00101082;0.000353927;0.00494908;0.00497003;-0.00103176;0.00300089;0.204243;4.89612;0.00370547;0.00400119;4.81703;0.207597;111.874;156.874;-0.00429309;-0.00101283;0.00275978;-0.00203766;0.00494535;-0.00670809;0.0319966;0;0.0341873;7.04303;4.46873
342000;343;25.8649;0.109797;0.00426313;-2.29851;25.7605;-0.326803;-0.0482768;0.107067;-0.730996;-0.0127519;-0.573602;-0.419751;0.710895;-7.25193;-0.00109134;0.000666901;0.00350241;0.00359727;-0.00118619;0.00239173;0.311596;3.20929;0.0028763;0.00318897;3.03261;0.329749;97.7294;142.729;-0.00263064;-0.00109112;0.00141276;-7.55474e-05;0.00350164;-0.00168031;0.019544;0;0.0172979;-0.0628287;-0.680279;-1.15049;1.33804;-7.55166;-0.00103853;0.000481148;0.00494721;0.00498564;-0.00107696;0.0030313;0.209923;4.76365;0.00373487;0.00404173;4.62936;0.216013;110.45;155.45;-0.00506407;-0.00104013;0.0028278;-0.00185153;0.00494335;-0.00249178;0.0324417;0;0.0395485;7.07136;4.47543
343000;344;25.8658;0.11073;0.00429933;-2.29988;25.7613;-0.328493;-0.0496513;0.107859;-0.732686;-0.0143491;-0.57421;-0.426602;0.715481;-7.25878;-0.000969409;0.00104141;0.00271243;0.00298658;-0.00124356;0.00211507;0.357395;2.79802;0.00251043;0.00282009;2.40164;0.416383;93.2816;138.282;-0.00184624;-0.000968949;0.00167787;0.000407294;0.00271157;-0.00338738;0.0196222;0;0.0183378;-0.0645774;-0.682855;-1.15587;1.34406;-7.55704;-0.0011611;0.000531107;0.00507;0.00511494;-0.00120604;0.00316049;0.229014;4.36655;0.00387505;0.00421399;4.24109;0.235788;109.467;154.467;-0.00546417;-0.00116238;0.00276261;-0.00168657;0.00506634;-0.00137738;0.0345991;0;0.0320439;7.10488;4.48284
344000;345;25.8652;0.110094;0.00427466;-2.29908;25.7606;-0.335325;-0.0488473;0.107204;-0.739518;-0.0166931;-0.576131;-0.425749;0.716566;-7.25792;-0.00103401;0.00104562;0.00248302;0.00277041;-0.0013214;0.0020459;0.416434;2.40134;0.00241127;0.00272787;2.09657;0.476968;96.8773;141.877;-0.0020574;-0.00103352;0.00175936;0.000334377;0.00248203;-0.00282396;0.0202931;0;0.0200689;-0.0673853;-0.685247;-1.15831;1.34751;-7.55948;-0.00133422;0.00061536;0.00527844;0.00533522;-0.001391;0.00336311;0.252768;3.9562;0.0040999;0.00448415;3.83553;0.26072;108.23;153.23;-0.00641071;-0.00133516;0.00274406;-0.00149934;0.00527489;0.00236152;0.0351215;0;0.0294324;7.1324;4.4861
345000;346;25.8687;0.113572;0.00440968;-2.29934;25.7641;-0.333404;-0.0491149;0.110697;-0.737597;-0.0183382;-0.577077;-0.43166;0.720891;-7.26384;-0.00109825;0.000946127;0.00274731;0.00296748;-0.00131842;0.00214295;0.399755;2.50153;0.00253479;0.00285727;2.25078;0.44429;96.5042;141.504;-0.00225292;-0.00109784;0.00162083;0.000274009;0.00274645;-0.00130999;0.0195632;0;0.021094;-0.0685917;-0.687372;-1.16588;1.35516;-7.56704;-0.00131945;0.000583656;0.00531447;0.00536543;-0.00137041;0.00336792;0.248275;4.02778;0.00411062;0.00449056;3.9152;0.255415;110.051;155.051;-0.007016;-0.00132091;0.00298715;-0.00180398;0.0053102;0.00463529;0.0372501;0;0.0304869;7.15424;4.49081
346000;347;25.8705;0.115382;0.00447997;-2.30048;25.7659;-0.33088;-0.0502487;0.112446;-0.735073;-0.0195443;-0.57972;-0.432157;0.723337;-7.26433;-0.00117977;0.00096306;0.00291744;0.00313252;-0.00139485;0.00226369;0.404387;2.47288;0.00267729;0.00301825;2.24577;0.445281;93.287;138.287;-0.00177598;-0.0011794;0.00150242;0.000425904;0.00291678;-0.00122312;0.0191436;0;0.0215475;-0.0709449;-0.692271;-1.16016;1.35286;-7.56132;-0.00124758;0.000584036;0.00541376;0.00546458;-0.0012984;0.00338149;0.230446;4.33942;0.00414422;0.00450865;4.20871;0.237602;108.385;153.385;-0.00707265;-0.00124873;0.00281044;-0.00162761;0.00541;0.00394569;0.0388479;0;0.0313939;7.18373;4.49749
347000;348;25.8711;0.116021;0.00450477;-2.30227;25.7662;-0.342124;-0.0520443;0.11278;-0.746317;-0.0217678;-0.583347;-0.430788;0.725497;-7.26296;-0.00111686;0.000965121;0.00266945;0.00290127;-0.00134867;0.00212497;0.418385;2.39014;0.00250769;0.00283329;2.1512;0.464857;88.8218;133.822;-0.00177394;-0.00111658;0.00132243;0.000609158;0.00266904;-0.00168399;0.0206378;0;0.0264382;-0.0729285;-0.696478;-1.16565;1.35983;-7.56681;-0.00122002;0.000732835;0.00536615;0.0054467;-0.00130057;0.00337364;0.227354;4.39842;0.00413344;0.00449819;4.18792;0.238782;107.762;152.762;-0.00735798;-0.00122099;0.00305621;-0.00157532;0.00536177;0.00474508;0.0383182;0;0.0304914;7.21265;4.50534
348000;349;25.8736;0.118463;0.00459961;-2.30365;25.7686;-0.340014;-0.053419;0.115138;-0.744207;-0.0213073;-0.582928;-0.443855;0.732985;-7.27603;-0.0010381;0.00101966;0.0030867;0.00332499;-0.00127639;0.00230069;0.336314;2.97342;0.00274297;0.00306759;2.60499;0.383879;83.2753;128.275;-0.00208831;-0.00103789;0.0012542;0.00078608;0.00308643;-0.000130098;0.0197971;0;0.0274708;-0.0735585;-0.698067;-1.17803;1.3713;-7.5792;-0.00123797;0.000838019;0.00533703;0.00544216;-0.0013431;0.00339263;0.231959;4.31111;0.00414892;0.00452351;4.05194;0.246795;104.815;149.815;-0.00708932;-0.00123826;0.0028249;-0.00113587;0.00533341;0.0046861;0.0386403;0;0.0347837;7.24066;4.51199
349000;350;25.8729;0.117797;0.00457372;-2.30401;25.7677;-0.351051;-0.0537853;0.114287;-0.755244;-0.0236081;-0.587702;-0.435143;0.731642;-7.26732;-0.00124381;0.00088438;0.00340675;0.00356925;-0.00140631;0.00248778;0.365103;2.73896;0.00296174;0.00331704;2.53802;0.394008;89.1849;134.185;-0.00195256;-0.00124355;0.00126215;0.000508359;0.00340634;0.000807092;0.0208642;0;0.0184117;-0.0764427;-0.702274;-1.17683;1.37257;-7.57799;-0.00124993;0.000883492;0.00542285;0.00553784;-0.00136492;0.00345138;0.230493;4.33853;0.00422108;0.00460184;4.05726;0.246472;103.26;148.26;-0.00718265;-0.00124999;0.00273124;-0.000951992;0.00541952;0.00382503;0.0410951;0;0.039024;7.26723;4.51946
350000;351;25.8747;0.119595;0.00464353;-2.30374;25.7696;-0.346313;-0.0535062;0.116182;-0.750506;-0.025895;-0.588924;-0.436455;0.733482;-7.26863;-0.00148516;0.000526929;0.00329707;0.00335445;-0.00154253;0.00244849;0.450448;2.22001;0.00289106;0.00326465;2.17464;0.459847;93.9337;138.934;-0.00178153;-0.00148504;0.000863087;0.000192373;0.00329684;0.000861317;0.0216391;0;0.0255502;-0.0782032;-0.704315;-1.17813;1.37484;-7.5793;-0.00134285;0.000899133;0.00544742;0.00556446;-0.00145989;0.00351218;0.246512;4.0566;0.00428008;0.0046829;3.81155;0.26236;103.804;148.804;-0.00662228;-0.00134292;0.00278764;-0.000976623;0.00544396;0.00411778;0.0405732;0;0.0334802;7.29208;4.52698
351000;352;25.8749;0.119811;0.00465195;-2.30252;25.7699;-0.346759;-0.052293;0.116502;-0.750952;-0.0261532;-0.593482;-0.430513;0.733652;-7.26269;-0.00154929;0.000477589;0.00322049;0.00326784;-0.00159664;0.00243224;0.481072;2.07869;0.00286322;0.00324299;2.0467;0.488591;96.721;141.721;-0.00158151;-0.00154918;0.000864365;9.2651e-05;0.00322023;0.000748456;0.0221823;0;0.0191767;-0.0788169;-0.70919;-1.17686;1.37629;-7.57803;-0.00115162;0.000798669;0.00557806;0.00567155;-0.0012451;0.00345832;0.206454;4.84368;0.0042572;0.0046111;4.55509;0.219535;105.152;150.152;-0.00708222;-0.00115216;0.00292431;-0.00131275;0.00557412;0.00557575;0.0404095;0;0.0319244;7.31969;4.53459
352000;353;25.8758;0.120656;0.00468475;-2.3029;25.7707;-0.34904;-0.0526709;0.117286;-0.753233;-0.0275736;-0.594951;-0.431277;0.735342;-7.26345;-0.00160037;0.000410634;0.00364728;0.00367922;-0.00163231;0.00265576;0.438784;2.27903;0.0031416;0.00354102;2.254;0.443656;97.8742;142.874;-0.00234272;-0.00160029;0.000881904;-5.81713e-05;0.00364698;0.00224487;0.0226382;0;0.0277641;-0.0812158;-0.713301;-1.17568;1.37754;-7.57684;-0.00130172;0.000751274;0.00559149;0.00567242;-0.00138265;0.00352753;0.232804;4.29546;0.00431694;0.00470338;4.10257;0.24375;105.721;150.721;-0.0067581;-0.00130228;0.00281727;-0.00130057;0.00558782;0.00550492;0.0401871;0;0.0411883;7.3434;4.54194
353000;354;25.8778;0.122638;0.0047617;-2.30128;25.773;-0.34199;-0.0510492;0.119515;-0.746183;-0.0306104;-0.598232;-0.432276;0.738702;-7.26445;-0.00168133;8.70937e-05;0.00454275;0.00454397;-0.00168255;0.00311326;0.370113;2.70188;0.00371927;0.00415102;2.70065;0.370282;95.739;140.739;-0.00198911;-0.00168136;0.000421054;-0.000244798;0.00454267;0.00307699;0.0213014;0;0.0181065;-0.0832586;-0.717822;-1.17446;1.37897;-7.57562;-0.00148884;0.000443417;0.0056545;0.00568192;-0.00151625;0.00359909;0.263301;3.79794;0.0043817;0.00479878;3.74734;0.266856;109.599;154.599;-0.00574121;-0.00149024;0.00263582;-0.00173342;0.00565114;0.00490115;0.0370931;0;0.0248926;7.36329;4.54799
354000;355;25.8797;0.124603;0.00483797;-2.30229;25.7748;-0.346103;-0.052063;0.121342;-0.750296;-0.0295947;-0.599017;-0.433748;0.740158;-7.26592;-0.001643;0.000357492;0.00419878;0.00422057;-0.0016648;0.00294269;0.391305;2.55555;0.00350309;0.00392358;2.53518;0.394449;93.7846;138.785;-0.00224843;-0.00164294;0.000690503;2.64186e-05;0.0041986;0.00330051;0.0215897;0;0.0179168;-0.0835305;-0.720178;-1.1798;1.38476;-7.58097;-0.0014674;0.000368396;0.005883;0.00590142;-0.00148582;0.00369362;0.24943;4.00914;0.00451185;0.00492482;3.97184;0.251773;109.438;154.438;-0.00634862;-0.00146897;0.00256079;-0.00180798;0.00587981;0.00550712;0.0364605;0;0.025922;7.38803;4.55081
355000;356;25.8822;0.127104;0.00493511;-2.30349;25.7772;-0.347906;-0.0532626;0.123722;-0.752099;-0.0305527;-0.60037;-0.441189;0.745671;-7.27336;-0.0015669;0.000130357;0.00461871;0.00462146;-0.00156964;0.00309555;0.33925;2.94768;0.00371637;0.0041274;2.94427;0.339642;95.8437;140.844;-0.00270305;-0.00156692;0.000515452;-0.000252366;0.00461859;0.00412996;0.0218277;0;0.041987;-0.0855605;-0.723584;-1.18956;1.39497;-7.59072;-0.00139892;0.000160837;0.00611932;0.00612276;-0.00140236;0.00376256;0.228607;4.37431;0.00462078;0.00501675;4.36604;0.229041;109.766;154.766;-0.00462569;-0.00140084;0.00229967;-0.00196201;0.00611671;0.00199142;0.0354384;0;0.0324266;7.41382;4.55896
356000;357;25.8858;0.130683;0.00507405;-2.30298;25.7808;-0.350787;-0.0527456;0.127323;-0.75498;-0.0315009;-0.600096;-0.443299;0.746741;-7.27548;-0.00178146;5.23178e-05;0.00507825;0.00507865;-0.00178185;0.00343025;0.350801;2.85062;0.00411053;0.00457367;2.85021;0.350852;95.0776;140.078;-0.00266531;-0.00178149;0.000375242;-0.000268402;0.00507818;0.00455757;0.0230808;0;0.0176791;-0.0869358;-0.727719;-1.19005;1.39762;-7.59121;-0.00124679;0.000175027;0.00615317;0.00615731;-0.00125093;0.00370412;0.202626;4.9352;0.00457916;0.00493883;4.92218;0.203162;109.625;154.625;-0.00488811;-0.00124884;0.0023965;-0.00203011;0.00615033;0.00263038;0.0364481;0;0.0279623;7.4433;4.56441
357000;358;25.8868;0.131725;0.00511453;-2.30425;25.7817;-0.351026;-0.0540168;0.128252;-0.755219;-0.0333955;-0.605286;-0.438691;0.748289;-7.27087;-0.00173769;-0.000397082;0.00468053;0.004705;-0.00176216;0.00323358;0.371259;2.69353;0.00386052;0.00431144;2.67001;0.37453;100.124;145.124;-0.0027174;-0.00173789;-5.04974e-05;-0.000741453;0.0046806;0.00446668;0.0211673;0;0.0234327;-0.0888218;-0.732962;-1.18887;1.39947;-7.59003;-0.00138182;6.02171e-05;0.00602621;0.0060267;-0.00138231;0.00370451;0.229303;4.36105;0.00454912;0.00493934;4.35986;0.229365;111.732;156.732;-0.00512799;-0.00138427;0.00235017;-0.00221288;0.00602346;0.00246118;0.0387099;0;0.0336825;7.46121;4.57111
358000;359;25.8901;0.134985;0.00524111;-2.30519;25.7848;-0.357479;-0.0549608;0.131353;-0.761672;-0.0341636;-0.603646;-0.44325;0.749684;-7.27543;-0.00169501;-0.000186272;0.00487353;0.00487881;-0.00170029;0.00328955;0.347799;2.87523;0.00394344;0.00438607;2.8694;0.348504;99.5938;144.594;-0.00311237;-0.0016952;0.00026993;-0.000639491;0.00487352;0.00451902;0.0219865;0;0.028317;-0.0908103;-0.734971;-1.19732;1.40783;-7.59848;-0.0012518;6.57188e-05;0.0061118;0.00611239;-0.00125238;0.00368238;0.204816;4.88243;0.0045502;0.00490985;4.88061;0.204892;111.222;156.222;-0.00466655;-0.0012543;0.00238565;-0.00223723;0.00610898;0.0023442;0.0372508;0;0.0275092;7.48139;4.57843
359000;360;25.8912;0.136127;0.00528544;-2.30649;25.7858;-0.358641;-0.0562571;0.132367;-0.762834;-0.0363866;-0.607859;-0.44008;0.751323;-7.27226;-0.00156408;-9.84049e-05;0.00572453;0.00572586;-0.00156541;0.00364563;0.273224;3.66;0.00443217;0.00486084;3.65774;0.273393;97.2878;142.288;-0.00296906;-0.00156424;0.000385742;-0.000579043;0.00572446;0.00389269;0.0215149;0;0.0199624;-0.0931936;-0.740022;-1.19595;1.40947;-7.59711;-0.00132683;-3.50543e-05;0.00617684;0.006177;-0.001327;0.003752;0.214808;4.65532;0.00462424;0.00500266;4.65487;0.214829;111.758;156.758;-0.00518902;-0.00132947;0.00224113;-0.00229426;0.00617434;0.00439142;0.0390974;0;0.026735;7.50472;4.58593
360000;361;25.895;0.139926;0.00543293;-2.31004;25.7892;-0.364885;-0.0598092;0.135776;-0.769078;-0.0394149;-0.610372;-0.435784;0.75101;-7.26796;-0.00153869;4.02114e-05;0.00600165;0.00600187;-0.00153891;0.00377039;0.256378;3.90049;0.00460082;0.00502718;3.90009;0.256405;97.0208;142.021;-0.00287589;-0.00153884;0.000627209;-0.000542386;0.00600146;0.00221658;0.0192837;0;0.0264013;-0.0966548;-0.746039;-1.19357;1.41086;-7.59474;-0.00144711;-5.33756e-06;0.00652763;0.00652764;-0.00144711;0.00398737;0.22169;4.51081;0.0049058;0.0053165;4.5108;0.22169;111.747;156.747;-0.00512122;-0.00145001;0.00241674;-0.00240823;0.00652473;0.00531058;0.0393449;0;0.0293981;7.52353;4.59363
361000;362;25.8993;0.144225;0.00559985;-2.30837;25.7938;-0.358919;-0.0581443;0.140325;-0.763112;-0.0411229;-0.607678;-0.44949;0.756971;-7.28167;-0.00149897;5.10335e-06;0.00629633;0.00629633;-0.00149897;0.00389765;0.238071;4.20043;0.00477627;0.00519687;4.20042;0.238071;96.2755;141.275;-0.00289017;-0.00149911;0.000545827;-0.000531432;0.00629618;0.00250921;0.0197551;0;0.0216539;-0.0996164;-0.746636;-1.20901;1.42446;-7.61017;-0.00114819;1.67055e-05;0.00649089;0.00649093;-0.00114823;0.00381958;0.176893;5.65315;0.00475645;0.00509277;5.653;0.176897;111.334;156.334;-0.00504826;-0.00115124;0.00251965;-0.00246724;0.00648774;0.00511078;0.0389802;0;0.0278093;7.54203;4.60027
362000;363;25.8998;0.144648;0.0056163;-2.31125;25.7938;-0.369423;-0.0610179;0.140345;-0.773616;-0.0425497;-0.615678;-0.431255;0.752895;-7.26343;-0.00154986;3.50535e-05;0.00692904;0.00692919;-0.00155;0.0042396;0.223676;4.47076;0.0052135;0.00565279;4.47043;0.223692;97.615;142.615;-0.00307301;-0.00155012;0.000796572;-0.000720053;0.00692873;0.00208195;0.0178069;0;0.0224586;-0.101913;-0.756535;-1.18993;1.41374;-7.59109;-0.00148662;0.00017136;0.00655469;0.00655834;-0.00149027;0.00402431;0.226803;4.40912;0.00494442;0.00536574;4.40077;0.227233;110.915;155.915;-0.00509093;-0.00148925;0.00266093;-0.00229832;0.00655119;0.00352417;0.0410368;0;0.0425804;7.56717;4.60741
363000;364;25.9059;0.150757;0.00585348;-2.31116;25.8;-0.363878;-0.0609264;0.146566;-0.768071;-0.0411566;-0.612793;-0.440077;0.755564;-7.27225;-0.00160231;0.000111365;0.00667625;0.00667775;-0.00160381;0.00414078;0.240002;4.16664;0.00507168;0.00552104;4.16368;0.240172;97.6659;142.666;-0.00322582;-0.00160252;0.000886076;-0.000656975;0.00667586;0.00288954;0.0185369;0;0.018701;-0.100803;-0.758662;-1.2004;1.42362;-7.60156;-0.00141966;0.000209862;0.00690156;0.00690685;-0.00142495;0.0041659;0.205702;4.8614;0.00514575;0.00555454;4.84707;0.20631;107.779;152.779;-0.00504519;-0.00142158;0.00240284;-0.001965;0.00689872;0.00221645;0.0403523;0;0.0323875;7.5771;4.61431
364000;365;25.9092;0.154042;0.00598102;-2.30902;25.8036;-0.356554;-0.0587907;0.150158;-0.760747;-0.0441949;-0.616666;-0.439602;0.758604;-7.27178;-0.00151487;-0.000166374;0.0067452;0.00674855;-0.00151822;0.00413339;0.224585;4.45266;0.00508128;0.00551118;4.44504;0.22497;98.9735;143.973;-0.00344815;-0.00151526;0.000570781;-0.000897481;0.00674506;0.00264254;0.0165082;0;0.020362;-0.103808;-0.766023;-1.20018;1.42758;-7.60134;-0.00169156;-3.27304e-05;0.00713174;0.00713186;-0.00169168;0.00441177;0.237187;4.21608;0.00540741;0.00588236;4.21585;0.2372;111.647;156.647;-0.00504141;-0.00169483;0.00251317;-0.00255632;0.00712861;0.00281424;0.039926;0;0.0269924;7.60218;4.62183
365000;366;25.9126;0.157493;0.00611501;-2.31038;25.807;-0.352138;-0.0601539;0.153561;-0.756331;-0.0451792;-0.617904;-0.439568;0.759649;-7.27174;-0.00140988;3.00409e-05;0.00735255;0.00735265;-0.00140998;0.00438132;0.191754;5.21501;0.0054331;0.00584176;5.2147;0.191765;96.8697;141.87;-0.00331788;-0.00141014;0.000783734;-0.000717096;0.00735225;0.00198124;0.0151242;0;0.0240527;-0.106805;-0.771157;-1.19829;1.42899;-7.59946;-0.00179738;-0.000151708;0.00720339;0.00720595;-0.00179994;0.00450295;0.249519;4.00771;0.00550296;0.00600393;4.00344;0.249785;113.11;158.11;-0.00410066;-0.00180126;0.00250744;-0.00278709;0.00720029;-0.00056374;0.0401925;0;0.027906;7.61471;4.62919
366000;367;25.9185;0.163348;0.00634235;-2.311;25.8127;-0.358757;-0.060767;0.159294;-0.76295;-0.0460182;-0.614373;-0.449243;0.76249;-7.28142;-0.00157077;-3.30386e-05;0.0075267;0.00752682;-0.00157089;0.00454885;0.208693;4.79174;0.00561524;0.00606514;4.79145;0.208705;97.4587;142.459;-0.00334979;-0.00157109;0.000743063;-0.000802133;0.00752643;0.0023022;0.0168085;0;0.0211548;-0.108255;-0.772815;-1.21206;1.44154;-7.61322;-0.00195507;-0.00022409;0.00710851;0.00711405;-0.00196061;0.00453733;0.275032;3.63593;0.00551368;0.00604977;3.62849;0.275597;113.874;158.874;-0.00401036;-0.00195895;0.00236685;-0.00279171;0.00710576;-0.000468715;0.039314;0;0.0297584;7.62778;4.63058
367000;368;25.9258;0.170634;0.00662523;-2.31219;25.82;-0.355741;-0.0619643;0.166544;-0.759934;-0.0463814;-0.614614;-0.445896;0.76074;-7.27807;-0.00146688;3.40703e-05;0.00792794;0.00792806;-0.00146701;0.00469754;0.185027;5.40461;0.00583616;0.00626338;5.40424;0.18504;96.2435;141.244;-0.0036402;-0.00146713;0.000780043;-0.000704949;0.00792764;0.00328403;0.0153688;0;0.0218919;-0.109318;-0.779249;-1.20574;1.43979;-7.6069;-0.00198302;-0.000203815;0.00706251;0.0070671;-0.00198761;0.00452736;0.280781;3.56149;0.0054951;0.00603648;3.55557;0.281248;113.012;158.012;-0.00276064;-0.00198641;0.00222126;-0.00260711;0.00706008;-0.00491211;0.03624;0;0.0415108;7.64299;4.63691
368000;369;25.929;0.173842;0.00674982;-2.31343;25.823;-0.359711;-0.0631964;0.169601;-0.763904;-0.0453872;-0.617962;-0.442354;0.761324;-7.27453;-0.00144812;-6.46711e-05;0.00739146;0.00739194;-0.00144859;0.00442027;0.195918;5.10418;0.00547508;0.00589369;5.10284;0.195969;97.0835;142.083;-0.00378374;-0.00144841;0.000644632;-0.000767751;0.00739126;0.0033753;0.0155052;0;0.0198338;-0.109137;-0.785653;-1.20364;1.44149;-7.6048;-0.00201364;-0.000255515;0.00729138;0.00729839;-0.00202066;0.00465952;0.276168;3.62099;0.00566067;0.0062127;3.61189;0.276863;111.425;156.425;-0.00335087;-0.0020166;0.00195381;-0.00244443;0.00728952;-0.00053113;0.0372173;0;0.0330629;7.65807;4.64398
369000;370;25.9366;0.181444;0.00704495;-2.31687;25.8304;-0.35586;-0.066643;0.176978;-0.760053;-0.0466643;-0.618188;-0.442158;0.761471;-7.27433;-0.00148775;0.000414134;0.00752544;0.00754443;-0.00150674;0.00452558;0.197696;5.05827;0.00559985;0.00603411;5.00713;0.199715;94.2029;139.203;-0.00358447;-0.00148771;0.0011532;-0.000318317;0.00752486;0.00128132;0.014644;0;0.0212939;-0.112315;-0.792241;-1.20244;1.44434;-7.6036;-0.00217467;-0.000153133;0.00752294;0.00752536;-0.00217709;0.00485123;0.289072;3.45934;0.00587855;0.0064683;3.45661;0.289301;114.343;159.343;-0.00357955;-0.00217919;0.00272817;-0.00300671;0.00751926;-0.00276737;0.0356789;0;0.0271452;7.66964;4.65151
370000;371;25.938;0.182865;0.00710013;-2.31654;25.8318;-0.360182;-0.0663077;0.178375;-0.764375;-0.0470076;-0.618412;-0.442385;0.761806;-7.27456;-0.00155744;0.00012879;0.00749984;0.00750167;-0.00155927;0.00453047;0.207663;4.81549;0.00559379;0.00604063;4.81101;0.207857;96.1935;141.193;-0.00355232;-0.00155762;0.000876102;-0.000611804;0.00749947;0.00218613;0.0157258;0;0.0198784;-0.112834;-0.7954;-1.20516;1.44838;-7.60632;-0.0019379;-6.99146e-05;0.00778774;0.00778824;-0.00193841;0.00486332;0.24884;4.01864;0.00594459;0.00648443;4.01786;0.248889;111.827;156.827;-0.00285244;-0.00194177;0.00266598;-0.0027794;0.00778421;-0.00316393;0.03703;0;0.0264028;7.68316;4.65861
371000;372;25.9479;0.192829;0.007487;-2.32044;25.8416;-0.352231;-0.070209;0.188139;-0.756424;-0.0484161;-0.617845;-0.444677;0.762768;-7.27685;-0.00165652;0.00018281;0.0083398;0.00834314;-0.00165986;0.0050015;0.198628;5.03454;0.00619001;0.00666867;5.02641;0.198949;95.6338;140.634;-0.00382107;-0.00165669;0.000983273;-0.000609717;0.00833934;0.0023618;0.0143143;0;0.0225377;-0.115999;-0.803016;-1.20301;1.45104;-7.60417;-0.00168714;-0.000116278;0.00814446;0.00814583;-0.00168852;0.00491718;0.207152;4.82736;0.00607216;0.00655623;4.82425;0.207286;110.019;155.019;-0.00497252;-0.00169079;0.00249253;-0.00269965;0.00814138;0.00048407;0.03825;0;0.0271648;7.69403;4.66607
372000;373;25.9537;0.198552;0.00770922;-2.32054;25.8473;-0.356292;-0.0703136;0.193821;-0.760485;-0.0504355;-0.61889;-0.444067;0.76339;-7.27624;-0.00158893;0.000271916;0.0086647;0.00867191;-0.00159613;0.00513402;0.183379;5.45318;0.00638022;0.00684536;5.43308;0.184058;94.9672;139.967;-0.00387705;-0.00158904;0.00109391;-0.000541721;0.00866415;0.00134289;0.0134343;0;0.022347;-0.118624;-0.809446;-1.20666;1.45784;-7.60783;-0.00195696;0.000133568;0.00817289;0.00817465;-0.00195872;0.00506668;0.239445;4.17633;0.00620657;0.00675558;4.17347;0.239609;107.586;152.586;-0.00414655;-0.00195933;0.00246961;-0.002179;0.00816987;-0.00560749;0.0393299;0;0.033552;7.70343;4.67309
373000;374;25.9587;0.203576;0.0079043;-2.32147;25.8522;-0.3573;-0.07124;0.198769;-0.761494;-0.0503011;-0.618223;-0.445926;0.763924;-7.2781;-0.00164241;0.000254378;0.0085134;0.00851977;-0.00164878;0.00508427;0.192921;5.18348;0.00630175;0.00677903;5.16732;0.193524;94.7957;139.796;-0.00377504;-0.00164251;0.00101997;-0.000503501;0.00851292;0.00146691;0.0141291;0;0.0304083;-0.120294;-0.814641;-1.20874;1.46259;-7.6099;-0.00173883;0.000216522;0.00846364;0.00846823;-0.00174342;0.00510583;0.205447;4.86743;0.00630746;0.00680777;4.85724;0.205878;106.731;151.731;-0.00490586;-0.00174126;0.0026726;-0.00221471;0.00846012;-0.00298825;0.0377521;0;0.0475608;7.7126;4.68104
374000;375;25.9653;0.210224;0.00816242;-2.32028;25.8591;-0.35265;-0.070048;0.205615;-0.756843;-0.0510281;-0.617016;-0.446387;0.763265;-7.27856;-0.00168229;-6.94575e-05;0.00897784;0.00897829;-0.00168274;0.00533052;0.187382;5.33668;0.00661814;0.00710736;5.33552;0.187423;97.3518;142.352;-0.00405186;-0.00168276;0.000845367;-0.000974617;0.00897749;0.00182976;0.0138243;0;0.0212544;-0.120948;-0.820108;-1.21208;1.46845;-7.61324;-0.00194248;-5.28771e-05;0.00863498;0.00863525;-0.00194274;0.00528899;0.224954;4.44534;0.00650189;0.00705199;4.44488;0.224978;108.835;153.835;-0.00408282;-0.00194581;0.00250191;-0.00258087;0.00863188;-0.0081306;0.0385875;0;0.026901;7.72369;4.68819
375000;376;25.9704;0.215293;0.00835922;-2.32043;25.864;-0.358925;-0.0701985;0.210605;-0.763118;-0.050049;-0.616894;-0.446299;0.76305;-7.27847;-0.00171067;0.000274104;0.00925829;0.00926513;-0.00171752;0.00549133;0.184772;5.41207;0.00682172;0.00732177;5.39448;0.185375;94.962;139.962;-0.0037314;-0.00171081;0.00113847;-0.000580874;0.00925768;0.00179744;0.0144918;0;0.0220101;-0.121133;-0.825862;-1.21308;1.47251;-7.61424;-0.00198397;-0.000251195;0.00893238;0.00893815;-0.00198974;0.00546395;0.22211;4.50228;0.00672092;0.00728527;4.49211;0.222612;110.487;155.487;-0.00412648;-0.00198843;0.00252389;-0.00299625;0.00892925;-0.00734485;0.0370474;0;0.0281726;7.72763;4.69533
376000;377;25.9827;0.227584;0.00883647;-2.32276;25.8762;-0.356191;-0.0725345;0.222775;-0.760384;-0.0513688;-0.615349;-0.451033;0.764673;-7.28321;-0.0017453;0.000339927;0.00909815;0.00910879;-0.00175595;0.00543237;0.191831;5.21293;0.00673459;0.00724316;5.18739;0.192775;94.746;139.746;-0.00359227;-0.00174538;0.00120193;-0.000512817;0.00909749;-6.84211e-06;0.014336;0;0.0217916;-0.123798;-0.834142;-1.21322;1.4775;-7.61438;-0.00210761;-0.000254577;0.00913961;0.00914537;-0.00211337;0.00562937;0.230602;4.33648;0.00690995;0.00750583;4.32739;0.231086;108.935;153.935;-0.0046519;-0.00211134;0.00225787;-0.00273902;0.00913712;-0.00574794;0.0347353;0;0.0286002;7.73938;4.70175
377000;378;25.9878;0.232728;0.00903619;-2.32285;25.8813;-0.360223;-0.0726184;0.227876;-0.764416;-0.0508835;-0.61279;-0.454913;0.764884;-7.28709;-0.00186148;0.00015446;0.00927422;0.00927637;-0.00186362;0.00556999;0.200715;4.98218;0.00688998;0.00742666;4.9776;0.2009;96.1677;141.168;-0.00464651;-0.00186176;0.001082;-0.000762846;0.00927366;0.00191404;0.0150433;0;0.0277662;-0.123726;-0.837414;-1.22203;1.48658;-7.62319;-0.00214504;-0.000221094;0.00925921;0.00926349;-0.00214932;0.0057064;0.231665;4.31658;0.00700292;0.00760854;4.30996;0.232021;109.496;154.496;-0.00391644;-0.00214916;0.00246455;-0.00287639;0.00925622;-0.00739505;0.032871;0;0.0269629;7.74462;4.70791
378000;379;25.9977;0.242592;0.00941917;-2.32554;25.891;-0.359007;-0.0753111;0.237556;-0.7632;-0.0521595;-0.612916;-0.451894;0.76328;-7.28407;-0.0019314;0.000166652;0.00984304;0.00984539;-0.00193376;0.00588958;0.19622;5.09633;0.00729413;0.00785277;5.09133;0.196412;96.8775;141.877;-0.00435798;-0.00193181;0.00126538;-0.00091927;0.00984226;0.00204339;0.0146954;0;0.0236982;-0.126074;-0.844632;-1.22005;1.48923;-7.62121;-0.00235168;-0.000121464;0.00965334;0.00965457;-0.00235291;0.00600374;0.243613;4.10488;0.00734736;0.00800499;4.10326;0.243709;109.055;154.055;-0.00491954;-0.00235578;0.00265405;-0.00286397;0.00964986;-0.00522315;0.0325349;0;0.0274838;7.74702;4.71083
379000;380;26.0073;0.25217;0.00979107;-2.3272;25.9005;-0.360208;-0.0769717;0.247008;-0.764401;-0.0537471;-0.611217;-0.45477;0.763734;-7.28695;-0.00190233;0.000315342;0.0100078;0.0100161;-0.00191067;0.00596338;0.190085;5.26079;0.007397;0.00795118;5.24219;0.19076;95.95;140.95;-0.00463621;-0.00190257;0.00140702;-0.000763464;0.0100068;0.00167413;0.0156384;0;0.021201;-0.128673;-0.851404;-1.22272;1.49549;-7.62388;-0.00227916;-6.91403e-05;0.0101119;0.0101123;-0.00227954;0.00619591;0.225393;4.43669;0.00761595;0.00826122;4.43611;0.225423;108.255;153.255;-0.00525625;-0.00228336;0.00279429;-0.00289744;0.010108;-0.00603316;0.0328867;0;0.0272664;7.76335;4.71727
380000;381;26.018;0.26285;0.0102058;-2.32848;25.911;-0.361559;-0.0782544;0.257598;-0.765752;-0.0540577;-0.611215;-0.452315;0.762296;-7.28449;-0.00193839;0.000447294;0.0106582;0.010674;-0.00195425;0.00631413;0.181869;5.49846;0.00784895;0.00841885;5.46194;0.183085;94.971;139.971;-0.0043472;-0.00193849;0.00154641;-0.000638124;0.0106571;0.00115973;0.0151181;0;0.0220333;-0.130032;-0.859155;-1.22186;1.49933;-7.62302;-0.00197808;0.000192586;0.0103255;0.0103285;-0.0019811;0.00615481;0.191572;5.21996;0.00763225;0.00820642;5.21354;0.191808;104.793;149.793;-0.00526988;-0.00198083;0.00276643;-0.00234991;0.0103217;-0.00563273;0.0333518;0;0.0299914;7.76446;4.7244
381000;382;26.024;0.268924;0.0104416;-2.32845;25.9172;-0.359027;-0.0782186;0.263736;-0.763221;-0.0533189;-0.610416;-0.45278;0.76188;-7.28496;-0.00199388;0.000269519;0.0105575;0.0105633;-0.00199966;0.00628149;0.188859;5.29496;0.00779473;0.00837532;5.28254;0.189303;96.1808;141.181;-0.00417568;-0.00199422;0.00141461;-0.000861348;0.0105566;-0.000192399;0.0145969;0;0.021125;-0.130336;-0.865421;-1.22212;1.50317;-7.62329;-0.00203296;0.000188674;0.010724;0.0107268;-0.00203575;0.0063813;0.18957;5.27509;0.00791753;0.00850839;5.26923;0.189781;103.991;148.991;-0.00528578;-0.00203556;0.00269336;-0.0022844;0.0107205;-0.00683561;0.0360903;0;0.0339797;7.7638;4.73095
382000;383;26.0327;0.277563;0.010777;-2.32915;25.9258;-0.358114;-0.0789162;0.272359;-0.762307;-0.0536589;-0.606766;-0.456649;0.761296;-7.28882;-0.00221489;0.000548015;0.0106573;0.0106806;-0.00223818;0.00645941;0.207828;4.81168;0.00797191;0.00861254;4.77202;0.209555;95.0353;140.035;-0.00381857;-0.00221491;0.00168632;-0.000575791;0.0106561;-0.000233028;0.015537;0;0.0208884;-0.131424;-0.869238;-1.22758;1.5099;-7.62874;-0.00200549;0.000182984;0.0109408;0.0109433;-0.00200808;0.00647571;0.183305;5.45539;0.00804885;0.00863428;5.44965;0.183498;103.501;148.501;-0.00527296;-0.00200802;0.00264931;-0.00225176;0.0109373;-0.00600369;0.036062;0;0.0299968;7.77495;4.7388
383000;384;26.0405;0.285333;0.0110787;-2.32897;25.9337;-0.354143;-0.0787449;0.280232;-0.758336;-0.055754;-0.607261;-0.453337;0.759861;-7.28551;-0.00222036;0.000664409;0.0109822;0.0110156;-0.00225371;0.00663465;0.202177;4.94616;0.00819888;0.00884621;4.88777;0.204592;94.4885;139.489;-0.0036636;-0.00222025;0.00182855;-0.000484525;0.0109808;-0.00173381;0.0161597;0;0.0209578;-0.134229;-0.878127;-1.22376;1.51219;-7.62492;-0.00185906;2.56082e-05;0.0111804;0.0111804;-0.00185911;0.00651976;0.166279;6.01399;0.00814435;0.00869302;6.01385;0.166283;104.833;149.833;-0.00572921;-0.00186258;0.00273674;-0.00265057;0.0111767;-0.00478646;0.0376512;0;0.0358454;7.78208;4.74524
384000;385;26.0501;0.294953;0.0114522;-2.33017;25.9431;-0.361138;-0.0799359;0.289688;-0.765331;-0.0552336;-0.606341;-0.455353;0.760294;-7.28753;-0.00228019;0.000652713;0.0114969;0.0115277;-0.00231104;0.00691938;0.198331;5.04207;0.00856012;0.00922584;4.98811;0.200477;94.0327;139.033;-0.00395473;-0.00228007;0.00177007;-0.000449427;0.0114955;-0.00072614;0.0160815;0;0.0209036;-0.134586;-0.886112;-1.22669;1.51924;-7.62785;-0.00220818;-9.68475e-05;0.0113938;0.0113945;-0.00220887;0.00680167;0.193806;5.15981;0.00842963;0.0090689;5.15851;0.193854;106.188;151.188;-0.00485862;-0.00221243;0.00275882;-0.00291411;0.01139;-0.00660165;0.0346901;0;0.0326705;7.78924;4.75308
385000;386;26.0601;0.304961;0.0118408;-2.33188;25.9531;-0.356042;-0.0816469;0.299654;-0.760235;-0.0552287;-0.603317;-0.456794;0.75875;-7.28897;-0.00241932;0.000824217;0.0119546;0.0120017;-0.00246643;0.00723406;0.202376;4.9413;0.00893745;0.00964542;4.86602;0.205507;92.8389;137.839;-0.00378876;-0.002419;0.00186922;-0.000205944;0.0119532;-0.00116161;0.0158421;0;0.021285;-0.135519;-0.891108;-1.23049;1.5253;-7.63166;-0.0023583;-9.44617e-05;0.0114564;0.0114571;-0.00235895;0.00690801;0.20585;4.85791;0.00853374;0.00921068;4.85685;0.205895;105.309;150.309;-0.00513025;-0.00236195;0.00254628;-0.00269913;0.0114532;-0.0057324;0.0339946;0;0.0317453;7.7814;4.76005
386000;387;26.0672;0.31207;0.0121168;-2.33292;25.9601;-0.359406;-0.0826856;0.306653;-0.763599;-0.0559699;-0.603035;-0.454242;0.757046;-7.28642;-0.00246465;0.000917891;0.0118237;0.0118824;-0.00252337;0.00720288;0.20845;4.79731;0.008883;0.00960384;4.70894;0.212362;92.9546;137.955;-0.00362613;-0.00246424;0.00203124;-0.000179742;0.011822;-0.00150661;0.0169582;0;0.027567;-0.137197;-0.897478;-1.23063;1.5293;-7.6318;-0.00261313;0.000111904;0.0112232;0.0112241;-0.00261404;0.00691907;0.232833;4.29492;0.00848931;0.00922542;4.29377;0.232895;103.458;148.458;-0.00539916;-0.00261546;0.00241272;-0.00215743;0.0112203;-0.00522217;0.0318242;0;0.0399073;7.7942;4.76766
387000;388;26.076;0.3209;0.0124597;-2.33569;25.9687;-0.363067;-0.0854567;0.315219;-0.76726;-0.0568212;-0.605627;-0.44704;0.754889;-7.27922;-0.00246178;0.000908207;0.0122238;0.0122798;-0.00251774;0.00739876;0.201392;4.96544;0.00914207;0.00986501;4.87731;0.205031;92.8155;137.815;-0.00377984;-0.00246139;0.00202013;-0.000187587;0.0122222;-0.00139421;0.0160066;0;0.0229791;-0.139753;-0.909188;-1.22178;1.52935;-7.62294;-0.00252652;0.000247614;0.0120781;0.0120823;-0.00253072;0.00730651;0.209182;4.78053;0.0090176;0.00974202;4.77426;0.209457;102.451;147.451;-0.00545613;-0.00252884;0.00269533;-0.00216479;0.0120746;-0.00393875;0.0323347;0;0.0289194;7.80486;4.77444
388000;389;26.0861;0.330936;0.0128493;-2.33669;25.9786;-0.367315;-0.0864571;0.325146;-0.771508;-0.05732;-0.599929;-0.45924;0.757695;-7.29142;-0.00268252;0.00100787;0.0122345;0.0123023;-0.00275031;0.00752632;0.219258;4.56084;0.00925555;0.0100351;4.47307;0.22356;92.3185;137.319;-0.0032599;-0.00268201;0.00206496;-3.36499e-05;0.0122329;-0.00245425;0.0170049;0;0.0210742;-0.140645;-0.912593;-1.23581;1.54267;-7.63697;-0.0025067;0.000389766;0.0125963;0.0126063;-0.00251675;0.00756154;0.199003;5.02505;0.00935665;0.0100821;5.00897;0.199642;100.491;145.491;-0.00577158;-0.00250833;0.00265842;-0.00184505;0.0125929;-0.00432574;0.0336098;0;0.0305655;7.7976;4.77953
389000;390;26.0953;0.340207;0.0132093;-2.33688;25.988;-0.357478;-0.0866472;0.334576;-0.761671;-0.0571827;-0.598366;-0.457665;0.755492;-7.28984;-0.00269076;0.000842113;0.0125901;0.0126363;-0.00273703;0.00768669;0.213721;4.679;0.00946936;0.0102489;4.61681;0.2166;92.5221;137.522;-0.00388608;-0.00269042;0.00184679;-0.0001474;0.0125887;-0.00116382;0.0151983;0;0.0229022;-0.141384;-0.918704;-1.23432;1.54517;-7.63548;-0.00248111;0.000287994;0.0129541;0.0129595;-0.00248649;0.007723;0.191531;5.2211;0.00957671;0.0102973;5.21198;0.191866;100.474;145.474;-0.0058017;-0.00248296;0.00254988;-0.00193943;0.012951;-0.00365582;0.0366526;0;0.0317937;7.80308;4.78211
390000;391;26.1031;0.347937;0.0135095;-2.33623;25.9959;-0.356208;-0.0859971;0.342414;-0.760401;-0.0575539;-0.596463;-0.463012;0.757271;-7.29519;-0.00292495;0.00117715;0.0125566;0.0126456;-0.00301394;0.00782978;0.23294;4.29294;0.00959419;0.0104397;4.19571;0.238339;92.2442;137.244;-0.00327601;-0.00292425;0.0023152;5.64889e-05;0.0125547;-0.00339788;0.0159364;0;0.0215408;-0.142284;-0.925615;-1.23772;1.55208;-7.63888;-0.00240328;0.00026509;0.0131215;0.013126;-0.00240781;0.00776692;0.183156;5.45983;0.00965391;0.0103559;5.45145;0.183438;100.695;145.695;-0.00527332;-0.00240534;0.0026097;-0.0020436;0.0131182;-0.00330129;0.0361367;0;0.0345495;7.81216;4.78954
391000;392;26.1101;0.354963;0.0137822;-2.33673;26.0028;-0.364025;-0.0864996;0.349316;-0.768218;-0.0576066;-0.596567;-0.4565;0.753395;-7.28868;-0.00283564;0.00128561;0.0129494;0.0130534;-0.00293966;0.00799654;0.218979;4.56665;0.00982979;0.0106621;4.44045;0.225203;91.0014;136.001;-0.00290004;-0.00283485;0.00230501;0.000282085;0.0129476;-0.00359029;0.016195;0;0.0269045;-0.143698;-0.932711;-1.23787;1.55657;-7.63903;-0.00249731;0.000108939;0.013431;0.0134317;-0.00249806;0.0079649;0.185936;5.37818;0.00989288;0.0106199;5.37688;0.185982;101.534;146.534;-0.0049232;-0.00249996;0.00255986;-0.00230346;0.0134278;-0.00636898;0.0377844;0;0.0356305;7.81542;4.79684
392000;393;26.1225;0.367399;0.0142651;-2.33639;26.0154;-0.356047;-0.0861637;0.361943;-0.76024;-0.058298;-0.592209;-0.464257;0.754748;-7.29643;-0.00301215;0.00125977;0.0128982;0.0129974;-0.00311128;0.00805432;0.233532;4.28206;0.00986688;0.0107391;4.17749;0.239378;91.2982;136.298;-0.00312371;-0.00301139;0.00228716;0.000248514;0.0128964;-0.00353389;0.0176313;0;0.0216774;-0.144389;-0.938642;-1.24325;1.56447;-7.64442;-0.00270204;2.66409e-05;0.0135936;0.0135937;-0.00270208;0.00814788;0.198772;5.03088;0.0100845;0.0108638;5.03082;0.198775;102.532;147.532;-0.0053647;-0.00270526;0.00263167;-0.00253651;0.0135902;-0.0043089;0.038161;0;0.0344914;7.816;4.80395
393000;394;26.1281;0.372936;0.0144801;-2.33855;26.0206;-0.367648;-0.0883224;0.367148;-0.771841;-0.0581825;-0.591924;-0.464548;0.754695;-7.29672;-0.00310783;0.00148996;0.0133031;0.0134373;-0.00324201;0.00833966;0.233616;4.28052;0.0102119;0.0111195;4.14475;0.241269;90.6329;135.633;-0.00298166;-0.00310682;0.00254639;0.000450639;0.013301;-0.00386581;0.0171379;0;0.0234555;-0.145841;-0.945022;-1.24971;1.57357;-7.65087;-0.00282854;9.17006e-05;0.0136499;0.0136504;-0.00282905;0.00823972;0.207221;4.82577;0.0101752;0.0109863;4.82508;0.20725;102.41;147.41;-0.00580088;-0.00283161;0.00270443;-0.00247855;0.0136463;-0.00351301;0.036422;0;0.0346216;7.82559;4.81145
394000;395;26.1368;0.381694;0.0148201;-2.33864;26.0293;-0.370431;-0.0884143;0.375895;-0.774624;-0.0603693;-0.58957;-0.465209;0.753429;-7.29738;-0.0034216;0.0017127;0.0131408;0.0133161;-0.00359686;0.00845647;0.26038;3.84055;0.0102881;0.0112753;3.70214;0.270114;90.1669;135.167;-0.00270572;-0.00342036;0.00276101;0.000681523;0.0131385;-0.00479648;0.0168691;0;0.0225224;-0.148538;-0.951927;-1.24794;1.57657;-7.6491;-0.00290367;0.000232246;0.0136135;0.0136167;-0.00290694;0.00826184;0.213294;4.68836;0.010186;0.0110158;4.68422;0.213483;102.001;147.001;-0.00661118;-0.00290637;0.00283581;-0.00232889;0.0136095;-0.00115194;0.0351586;0;0.0315293;7.82632;4.81917
395000;396;26.1447;0.389603;0.0151272;-2.34191;26.0369;-0.374916;-0.09168;0.383479;-0.779109;-0.0595918;-0.589737;-0.462163;0.751622;-7.29434;-0.00319597;0.00160166;0.0135322;0.0136842;-0.00334795;0.00851607;0.236175;4.23414;0.0104196;0.0113548;4.08734;0.244658;90.4359;135.436;-0.00297158;-0.00319483;0.0026877;0.000533548;0.0135299;-0.00406498;0.0166728;0;0.0243284;-0.149142;-0.959692;-1.24822;1.58155;-7.64938;-0.00294124;0.000330055;0.0141977;0.0142041;-0.00294759;0.00857582;0.207163;4.82712;0.0105895;0.0114344;4.81887;0.207517;101.132;146.132;-0.00661057;-0.00294366;0.00292925;-0.00222522;0.0141935;0.00149867;0.0346492;0;0.0316748;7.83175;4.82697
396000;397;26.1539;0.398817;0.0154849;-2.34323;26.0461;-0.372129;-0.0930019;0.392651;-0.776322;-0.060513;-0.588234;-0.461963;0.750394;-7.29414;-0.0033463;0.00175447;0.0136478;0.013827;-0.00352554;0.00867629;0.24519;4.07847;0.0105907;0.0115684;3.92196;0.254974;90.4231;135.423;-0.0023616;-0.00334495;0.00291332;0.000615054;0.0136451;-0.00579504;0.0176146;0;0.0255453;-0.150717;-0.966973;-1.24616;1.58451;-7.64732;-0.00314374;0.000506489;0.0147364;0.0147507;-0.00315807;0.00895439;0.213332;4.68753;0.0110381;0.0119392;4.67079;0.214096;97.8164;142.816;-0.0056777;-0.00314469;0.00251812;-0.00146969;0.0147334;-0.00203039;0.0350872;0;0.0347903;7.83334;4.83333
397000;398;26.1608;0.405731;0.0157534;-2.34273;26.0531;-0.373556;-0.0925007;0.399619;-0.777749;-0.0619877;-0.587435;-0.463529;0.750854;-7.2957;-0.00357721;0.00195065;0.0140682;0.0142813;-0.00379028;0.00903577;0.254276;3.93273;0.011004;0.0120477;3.76787;0.265402;89.611;134.611;-0.00256149;-0.00357568;0.0030513;0.00086915;0.0140655;-0.00549934;0.01882;0;0.0225847;-0.153054;-0.973821;-1.25068;1.59247;-7.65184;-0.0030612;0.000493974;0.01528;0.0152933;-0.00307449;0.00918387;0.200341;4.9915;0.0113599;0.0122452;4.97424;0.201036;96.8753;141.875;-0.00602072;-0.00306199;0.00237121;-0.00134935;0.0152773;-6.51686e-05;0.0383661;0;0.0348121;7.84419;4.84075
398000;399;26.1721;0.416984;0.0161904;-2.34289;26.0645;-0.365408;-0.0926578;0.41102;-0.769601;-0.0619229;-0.583802;-0.468747;0.751254;-7.30092;-0.0036687;0.00219434;0.0136272;0.0139013;-0.00394276;0.00892201;0.269219;3.71445;0.0108238;0.011896;3.52577;0.283626;89.4917;134.492;-0.00206685;-0.00366682;0.00338027;0.00102865;0.0136239;-0.00804027;0.0182115;0;0.0211558;-0.153187;-0.979967;-1.2539;1.59877;-7.65506;-0.00297111;0.000275784;0.0152858;0.01529;-0.00297527;0.00913264;0.19437;5.14482;0.0113162;0.0121769;5.13902;0.19459;97.9761;142.976;-0.00594301;-0.00297249;0.00226944;-0.00168202;0.0152833;-7.2206e-05;0.0407949;0;0.037594;7.85021;4.84807
399000;400;26.1811;0.426027;0.0165414;-2.34433;26.0733;-0.372386;-0.0941046;0.419871;-0.776579;-0.0646662;-0.58083;-0.472576;0.751581;-7.30475;-0.00376346;0.0025048;0.0135129;0.0138687;-0.00411929;0.00899399;0.27851;3.59054;0.010882;0.011992;3.36676;0.297021;88.315;133.315;-0.0020018;-0.0037613;0.00362745;0.00140127;0.0135095;-0.00824504;0.0188631;0;0.0259933;-0.156966;-0.985557;-1.26035;1.60762;-7.66151;-0.0032045;0.000256139;0.0158114;0.0158148;-0.00320795;0.0095114;0.20267;4.93413;0.0117593;0.0126819;4.9299;0.202844;98.9894;143.989;-0.00662782;-0.00320641;0.00252725;-0.00197246;0.0158083;0.00195326;0.0421964;0;0.040454;7.84867;4.85353
400000;401;26.1911;0.435941;0.0169264;-2.34351;26.0833;-0.37449;-0.0932771;0.429871;-0.778683;-0.0631537;-0.577562;-0.478194;0.752486;-7.31037;-0.0040293;0.00236474;0.013856;0.0141633;-0.00433668;0.00925001;0.290799;3.4388;0.011172;0.0123333;3.26594;0.306191;89.2808;134.281;-0.00203047;-0.00402722;0.00354922;0.00120115;0.0138525;-0.00818477;0.0183387;0;0.0204043;-0.156331;-0.991237;-1.26717;1.61639;-7.66833;-0.00322707;0.000128539;0.0161937;0.0161946;-0.00322792;0.00971126;0.199279;5.01809;0.0120177;0.0129483;5.01703;0.199321;100.91;145.91;-0.00764812;-0.00323035;0.00286964;-0.00256018;0.0161897;0.00529708;0.040224;0;0.0390338;7.84974;4.85832
401000;402;26.1978;0.442722;0.0171897;-2.34537;26.0899;-0.380587;-0.0951378;0.436424;-0.78478;-0.0647343;-0.575439;-0.480976;0.752768;-7.31315;-0.00407223;0.00275861;0.0137533;0.0141704;-0.00448938;0.00932989;0.296092;3.37733;0.0112462;0.0124399;3.15643;0.316814;87.8072;132.807;-0.00223875;-0.00406979;0.00387472;0.00166212;0.0137496;-0.00779134;0.0189523;0;0.0194891;-0.159022;-0.997225;-1.27061;1.62302;-7.67177;-0.00361264;0.000125659;0.0162959;0.0162967;-0.00361343;0.00995506;0.22169;4.51081;0.0122479;0.0132734;4.51004;0.221728;100.273;145.273;-0.00670592;-0.00361536;0.00263577;-0.00233528;0.0162925;0.000300015;0.0414423;0;0.0368317;7.85075;4.86236
402000;403;26.2039;0.448771;0.0174246;-2.34711;26.0957;-0.388344;-0.096885;0.442227;-0.792537;-0.0650691;-0.575635;-0.474605;0.748892;-7.30678;-0.00396729;0.0027074;0.0138835;0.0142851;-0.00436888;0.009327;0.285755;3.4995;0.0112657;0.012436;3.26974;0.305834;88.2551;133.255;-0.00222526;-0.00396479;0.00390373;0.00153213;0.0138796;-0.00824825;0.0184253;0;0.0210749;-0.159811;-1.0045;-1.26688;1.62466;-7.66804;-0.00370043;9.75853e-05;0.0163026;0.0163031;-0.00370091;0.010002;0.226984;4.4056;0.0122895;0.013336;4.40516;0.227007;99.9904;144.99;-0.006063;-0.00370298;0.002498;-0.00225559;0.0162995;0.000146161;0.039105;0;0.0342934;7.85612;4.87003
403000;404;26.2141;0.458933;0.0178191;-2.34894;26.1057;-0.389942;-0.0987068;0.452243;-0.794135;-0.064585;-0.573082;-0.481651;0.751387;-7.31383;-0.00423149;0.00271694;0.0144375;0.0148248;-0.00461885;0.00972184;0.293091;3.41191;0.01173;0.0129625;3.20964;0.311562;88.7429;133.743;-0.00229086;-0.00422888;0.00398043;0.0014767;0.0144333;-0.00795892;0.0180048;0;0.0186199;-0.160539;-1.01212;-1.27256;1.63389;-7.67372;-0.00375709;0.00034124;0.0166409;0.0166466;-0.00376279;0.0102047;0.225774;4.4292;0.0125416;0.0136063;4.424;0.22604;98.0468;143.047;-0.00596411;-0.00375856;0.00247114;-0.00174593;0.016638;0.00225884;0.0395828;0;0.0334217;7.86257;4.87754
404000;405;26.223;0.467842;0.018165;-2.35002;26.1146;-0.386353;-0.099787;0.461145;-0.790546;-0.066302;-0.570342;-0.481174;0.749143;-7.31335;-0.0042506;0.00274811;0.0144126;0.0148088;-0.00464684;0.00972784;0.294923;3.39072;0.0117324;0.0129705;3.18686;0.313788;88.032;133.032;-0.00217525;-0.00424814;0.00388841;0.00162878;0.0144089;-0.00815304;0.0191999;0;0.0171883;-0.163264;-1.01722;-1.27308;1.63772;-7.67424;-0.00382297;0.000391978;0.0173149;0.0173222;-0.00383023;0.0105762;0.22079;4.52918;0.0130141;0.0141016;4.52249;0.221117;97.8793;142.879;-0.00632856;-0.00382448;0.00260707;-0.00177709;0.0173117;0.00309741;0.0415786;0;0.0324054;7.87027;4.88555
405000;406;26.232;0.476876;0.0185158;-2.35038;26.1237;-0.383774;-0.10015;0.470222;-0.787967;-0.06669;-0.568437;-0.481318;0.74782;-7.31349;-0.00417457;0.00283894;0.0144555;0.0148786;-0.00459757;0.00973806;0.288786;3.46277;0.0117552;0.0129841;3.23618;0.309007;88.1356;133.136;-0.00254716;-0.00417186;0.00406423;0.00163614;0.0144514;-0.00768099;0.0188975;0;0.0186866;-0.164214;-1.02314;-1.27577;1.64359;-7.67693;-0.00371567;0.000545144;0.0177078;0.0177217;-0.00372954;0.0107256;0.209832;4.76571;0.013234;0.0143008;4.75171;0.210451;96.0143;141.014;-0.00623351;-0.00371639;0.00244567;-0.00131537;0.017705;0.00366868;0.0426592;0;0.0332875;7.8759;4.89259
406000;407;26.2394;0.484291;0.0188037;-2.35022;26.131;-0.389831;-0.0999865;0.477593;-0.794024;-0.0673568;-0.566886;-0.482989;0.74778;-7.31517;-0.00418889;0.00256172;0.0149614;0.0152982;-0.00452564;0.00991191;0.279979;3.57169;0.0119954;0.0132159;3.38033;0.295829;88.8596;133.86;-0.00231918;-0.00418651;0.00379362;0.00135306;0.0149576;-0.00843809;0.0180538;0;0.0285509;-0.165066;-1.02997;-1.27887;1.65033;-7.68004;-0.00373986;0.000412091;0.0181761;0.0181839;-0.0037476;0.0109657;0.205756;4.86012;0.0135457;0.014621;4.85214;0.206095;96.9829;141.983;-0.00697552;-0.00374116;0.00253671;-0.0016668;0.0181731;0.00640505;0.0437211;0;0.0414355;7.8747;4.90016
407000;408;26.2503;0.495191;0.0192269;-2.35069;26.142;-0.386334;-0.100461;0.488547;-0.790527;-0.0679182;-0.565454;-0.48599;0.74869;-7.31817;-0.00417614;0.00251883;0.0153111;0.0156314;-0.00449644;0.0100639;0.272752;3.66634;0.0121992;0.0134186;3.4764;0.287654;88.8184;133.818;-0.00286229;-0.00417384;0.00373403;0.00132695;0.0153074;-0.0071605;0.0179684;0;0.0184187;-0.166722;-1.03932;-1.281;1.658;-7.68216;-0.00388388;-3.26277e-05;0.0187925;0.0187926;-0.00388393;0.0113383;0.206671;4.8386;0.0140037;0.0151177;4.83855;0.206673;99.4075;144.408;-0.00743295;-0.00388712;0.00253167;-0.00253985;0.0187894;0.00476641;0.0457302;0;0.0388638;7.87786;4.90699
408000;409;26.2585;0.503355;0.0195439;-2.35145;26.1501;-0.388525;-0.101221;0.496645;-0.792718;-0.0672265;-0.564494;-0.486422;0.748184;-7.3186;-0.00431818;0.00290807;0.0152551;0.015678;-0.0047411;0.0102095;0.283065;3.53275;0.0123398;0.0136127;3.30682;0.302405;87.6302;132.63;-0.00235114;-0.0043155;0.00406903;0.00176949;0.0152511;-0.00819683;0.018469;0;0.0188634;-0.166717;-1.04455;-1.2821;1.66213;-7.68326;-0.00409576;-4.7674e-05;0.0190132;0.0190133;-0.00409585;0.0115546;0.215416;4.64218;0.0142386;0.0154061;4.64209;0.21542;99.0329;144.033;-0.00704815;-0.00409874;0.00239783;-0.00243772;0.0190104;0.00215108;0.0453295;0;0.0400463;7.88049;4.91463
409000;410;26.2666;0.511454;0.0198584;-2.35194;26.1582;-0.389432;-0.10171;0.50472;-0.793625;-0.0670784;-0.565045;-0.4827;0.746174;-7.31488;-0.00458802;0.00300079;0.0158513;0.0162828;-0.00501947;0.0106511;0.28944;3.45495;0.0128592;0.0142015;3.24393;0.308268;87.4748;132.475;-0.00262062;-0.00458527;0.00414546;0.00187914;0.0158473;-0.00841201;0.01787;0;0.0215207;-0.167653;-1.05294;-1.28111;1.66674;-7.68227;-0.00407564;-1.13594e-05;0.0189454;0.0189454;-0.00407565;0.0115105;0.215126;4.64845;0.0141853;0.0153474;4.64844;0.215126;99.8605;144.861;-0.00717617;-0.00407919;0.00269715;-0.00265867;0.0189418;0.00283334;0.0432837;0;0.0399601;7.88713;4.91912
410000;411;26.2727;0.517624;0.0200979;-2.35268;26.1642;-0.39668;-0.10245;0.510739;-0.800873;-0.0706951;-0.564487;-0.478337;0.74327;-7.31051;-0.00441949;0.00274878;0.0161633;0.016524;-0.00478026;0.0106522;0.273428;3.65727;0.012908;0.0142029;3.45672;0.289291;88.3883;133.388;-0.00250011;-0.00441688;0.00398798;0.00153469;0.0161592;-0.00819913;0.0179919;0;0.0199419;-0.171816;-1.06022;-1.27777;1.66922;-7.67893;-0.00438415;-5.54222e-05;0.0191106;0.0191108;-0.00438428;0.0117475;0.229409;4.35903;0.0144258;0.0156634;4.35893;0.229414;98.9873;143.987;-0.00622363;-0.00438703;0.00234093;-0.00239653;0.0191079;0.00164472;0.0421023;0;0.0362844;7.89992;4.92841
411000;412;26.2804;0.525332;0.0203972;-2.35474;26.1716;-0.403087;-0.104514;0.518196;-0.80728;-0.067907;-0.562208;-0.486941;0.74686;-7.31912;-0.00449337;0.00283903;0.0170674;0.017435;-0.00486093;0.011148;0.263271;3.79836;0.0135377;0.014864;3.58676;0.278803;88.3864;133.386;-0.00232049;-0.00449055;0.00414325;0.00156245;0.017063;-0.00897181;0.0176008;0;0.0207432;-0.170689;-1.06635;-1.28945;1.68193;-7.69061;-0.00438472;0.000151206;0.0191552;0.0191562;-0.00438569;0.0117709;0.228905;4.36863;0.0144562;0.0156946;4.36788;0.228944;97.7992;142.799;-0.00580989;-0.00438673;0.00235779;-0.00200441;0.0191525;0.00303533;0.0393885;0;0.0346785;7.9029;4.93521
412000;413;26.2905;0.535379;0.0207873;-2.35743;26.1816;-0.396434;-0.107202;0.528145;-0.800627;-0.0686359;-0.560927;-0.480624;0.741855;-7.3128;-0.00447664;0.00261361;0.0169154;0.0172301;-0.00479133;0.0110107;0.264648;3.7786;0.0133731;0.014681;3.59611;0.278079;88.8365;133.836;-0.00289215;-0.00447414;0.00388953;0.00136453;0.0169114;-0.0068564;0.0176821;0;0.0200069;-0.172735;-1.07488;-1.27945;1.67994;-7.68061;-0.00453608;0.000211885;0.0198132;0.0198151;-0.00453792;0.0121765;0.228942;4.36793;0.014954;0.0162353;4.36656;0.229013;97.5083;142.508;-0.0064387;-0.004538;0.00244834;-0.00197117;0.0198103;0.00500943;0.0428225;0;0.0343051;7.89914;4.93816
413000;414;26.2987;0.543595;0.0211063;-2.35657;26.1899;-0.398283;-0.106342;0.536444;-0.802476;-0.0696657;-0.557243;-0.490321;0.745511;-7.3225;-0.00450461;0.0024597;0.0173361;0.0176097;-0.0047782;0.0111939;0.25984;3.84852;0.0136149;0.0149253;3.68543;0.271339;88.6382;133.638;-0.00336837;-0.00450247;0.00360716;0.00133688;0.0173327;-0.00638651;0.016774;0;0.0214572;-0.173474;-1.07867;-1.29298;1.69276;-7.69414;-0.00439613;0.00046645;0.0201672;0.020176;-0.00440498;0.0122905;0.217984;4.58748;0.0151342;0.0163873;4.58027;0.218328;96.4148;141.415;-0.00544628;-0.00439737;0.00262329;-0.00163846;0.0201639;0.00332348;0.0436468;0;0.0354525;7.89622;4.94442
414000;415;26.3075;0.552354;0.0214464;-2.35634;26.1987;-0.396721;-0.106112;0.545284;-0.800914;-0.0716937;-0.556718;-0.492978;0.747063;-7.32515;-0.00444314;0.00235799;0.0178287;0.0180756;-0.00469005;0.0113828;0.249212;4.01264;0.0138805;0.0151771;3.85404;0.259468;89.2438;134.244;-0.00367639;-0.00444099;0.00361368;0.00112977;0.0178251;-0.00556721;0.0157788;0;0.0204576;-0.176279;-1.08686;-1.29645;1.70092;-7.69761;-0.0045778;4.94555e-05;0.0212522;0.0212523;-0.00457789;0.0129151;0.215404;4.64245;0.0159152;0.0172201;4.64237;0.215407;97.9719;142.972;-0.007053;-0.00458059;0.00251804;-0.0023567;0.0212491;0.00628728;0.0472894;0;0.0374962;7.92596;4.95489
415000;416;26.3174;0.562263;0.0218311;-2.35632;26.2087;-0.395446;-0.106086;0.555255;-0.799639;-0.069674;-0.553694;-0.493306;0.744837;-7.32548;-0.00469956;0.00240282;0.0182257;0.0184748;-0.00494869;0.0117118;0.257854;3.87817;0.0142554;0.0156157;3.73327;0.267862;89.3062;134.306;-0.00360411;-0.00469733;0.00367324;0.001161;0.0182219;-0.00557255;0.0152172;0;0.0227333;-0.175127;-1.09287;-1.29841;1.70613;-7.69957;-0.00453356;-0.000240691;0.0215443;0.0215465;-0.00453578;0.0130411;0.21043;4.75218;0.0160908;0.0173882;4.75034;0.210511;98.4596;143.46;-0.006939;-0.00453705;0.0022289;-0.00264723;0.0215419;0.00489695;0.0479087;0;0.0394324;7.91085;4.95873
416000;417;26.3259;0.570783;0.0221619;-2.35717;26.2172;-0.39524;-0.106936;0.563738;-0.799433;-0.0706776;-0.551907;-0.495986;0.745385;-7.32816;-0.0045463;0.002286;0.0184275;0.0186528;-0.00477156;0.0117122;0.246713;4.05329;0.0142937;0.0156162;3.90915;0.25581;89.4622;134.462;-0.00408768;-0.00454423;0.0035554;0.00104524;0.0184239;-0.00474074;0.0158729;0;0.0239457;-0.176389;-1.09743;-1.30181;1.71178;-7.70297;-0.00480867;-0.000249774;0.0218236;0.0218259;-0.00481101;0.0133185;0.220343;4.53838;0.0163913;0.0177579;4.53666;0.220427;98.709;143.709;-0.00744094;-0.00481239;0.00230034;-0.00273343;0.021821;0.00467269;0.0482066;0;0.0412063;7.89295;4.9656
417000;418;26.3343;0.579136;0.0224863;-2.35899;26.2253;-0.400341;-0.108762;0.571884;-0.804534;-0.0696085;-0.549637;-0.499267;0.745798;-7.33144;-0.00470635;0.00251056;0.0189151;0.019179;-0.00497023;0.0120746;0.248815;4.01906;0.014725;0.0160995;3.85877;0.25915;88.5873;133.587;-0.00331011;-0.00470412;0.00367987;0.00136836;0.0189115;-0.00655445;0.0158513;0;0.0240031;-0.176968;-1.10379;-1.30637;1.71938;-7.70753;-0.00492725;-0.000142927;0.0216429;0.0216437;-0.00492802;0.0132858;0.227661;4.39249;0.0163217;0.0177144;4.39196;0.227689;98.2679;143.268;-0.00616842;-0.00493042;0.00229335;-0.00251584;0.0216403;0.00160205;0.045814;0;0.0411731;7.92362;4.97343
418000;419;26.3409;0.585814;0.0227455;-2.36011;26.2318;-0.408408;-0.109879;0.578364;-0.812601;-0.0708546;-0.551002;-0.495866;0.744652;-7.32804;-0.00474483;0.00236334;0.0189253;0.0191589;-0.00497849;0.0120687;0.250714;3.9886;0.0147156;0.0160916;3.84834;0.259853;88.8601;133.86;-0.00410545;-0.00474281;0.00350934;0.00124395;0.018922;-0.00472718;0.0150538;0;0.0231751;-0.178675;-1.11375;-1.3052;1.72509;-7.70637;-0.004962;-0.000228419;0.0217729;0.0217749;-0.00496396;0.0133694;0.227898;4.38793;0.0164232;0.0178259;4.3866;0.227967;98.6875;143.687;-0.0058741;-0.00496562;0.00229958;-0.00269027;0.0217704;0.0028434;0.0436745;0;0.0362341;7.93619;4.97998
419000;420;26.3491;0.593951;0.0230615;-2.36202;26.2398;-0.408755;-0.111786;0.586358;-0.812948;-0.0707266;-0.549142;-0.498628;0.745111;-7.3308;-0.00477958;0.00233966;0.0191499;0.0193765;-0.00500619;0.0121914;0.249588;4.00661;0.01487;0.0162551;3.87051;0.258364;88.7763;133.776;-0.00428901;-0.00477762;0.00344943;0.00125594;0.0191468;-0.00428702;0.0149686;0;0.027085;-0.179623;-1.11979;-1.30823;1.73137;-7.70939;-0.00512495;-0.000165737;0.0217379;0.0217389;-0.00512597;0.0134324;0.235761;4.24159;0.0164694;0.0179099;4.24094;0.235797;98.732;143.732;-0.00532833;-0.00512848;0.00239067;-0.00265493;0.0217351;0.00268903;0.0410558;0;0.0358707;7.92655;4.98774
420000;421;26.3562;0.601103;0.0233392;-2.36251;26.247;-0.407602;-0.112278;0.593514;-0.811795;-0.071511;-0.547763;-0.49715;0.74318;-7.32933;-0.00482847;0.00254771;0.0196851;0.0199471;-0.00509046;0.0125188;0.245285;4.07689;0.0152802;0.0166917;3.91853;0.255198;88.0927;133.093;-0.00446049;-0.00482637;0.00360259;0.00151819;0.0196819;-0.00431444;0.014338;0;0.023086;-0.181239;-1.12656;-1.30778;1.73559;-7.70894;-0.00501625;3.08869e-05;0.0223504;0.0223504;-0.00501628;0.0136833;0.224437;4.4556;0.0168235;0.0182445;4.45557;0.224438;97.9303;142.93;-0.00662891;-0.00501924;0.0025709;-0.00244113;0.0223471;0.00695015;0.0446486;0;0.0361596;7.92968;4.99247
421000;422;26.3659;0.610815;0.0237163;-2.36334;26.2567;-0.405179;-0.113106;0.603229;-0.809372;-0.0725775;-0.548249;-0.494638;0.741965;-7.32681;-0.00484977;0.00241221;0.0198888;0.0201218;-0.00508279;0.0126023;0.243844;4.10098;0.0153912;0.0168031;3.95882;0.252601;88.9022;133.902;-0.00410581;-0.00484763;0.00360496;0.0012484;0.0198853;-0.00540866;0.0139359;0;0.02452;-0.183099;-1.1353;-1.30509;1.73946;-7.70626;-0.00511594;0.000264456;0.0229113;0.0229138;-0.00511844;0.0140161;0.223293;4.47842;0.0172372;0.0186882;4.47672;0.223378;97.3631;142.363;-0.00665479;-0.00511843;0.00284211;-0.00224257;0.0229074;0.00553031;0.0473034;0;0.0372245;7.93881;4.99873
422000;423;26.3746;0.619465;0.0240521;-2.36194;26.2656;-0.398251;-0.111706;0.612147;-0.802444;-0.0724268;-0.548097;-0.492413;0.740356;-7.32459;-0.00492555;0.00223839;0.0205333;0.0207286;-0.00512085;0.0129247;0.239881;4.16874;0.015805;0.017233;4.04789;0.247043;88.9955;133.996;-0.00409207;-0.0049237;0.00335267;0.0011519;0.0205303;-0.00484966;0.014121;0;0.0234295;-0.183525;-1.1423;-1.30367;1.74302;-7.70484;-0.00537659;2.2231e-05;0.0235431;0.0235431;-0.0053766;0.0144599;0.228372;4.37882;0.017761;0.0192798;4.37881;0.228373;98.3759;143.376;-0.00697727;-0.00538029;0.00283742;-0.00271342;0.0235392;0.00649295;0.0490619;0;0.0383257;7.94365;5.0037
423000;424;26.3818;0.626651;0.0243311;-2.36261;26.2726;-0.40908;-0.112383;0.619136;-0.813273;-0.0735521;-0.542942;-0.500214;0.741896;-7.33239;-0.00490687;0.00215178;0.0211984;0.0213746;-0.00508304;0.0132288;0.231473;4.32016;0.0162119;0.0176384;4.20508;0.237807;88.8866;133.887;-0.00431365;-0.00490519;0.00319304;0.00113713;0.0211957;-0.00389006;0.0135256;0;0.0291317;-0.186037;-1.14687;-1.3151;1.75483;-7.71627;-0.00569185;-0.000285412;0.0241533;0.0241561;-0.00569458;0.0149253;0.235655;4.24349;0.0183;0.0199004;4.24194;0.235741;99.0942;144.094;-0.00737931;-0.00569667;0.00262288;-0.00310895;0.02415;0.00870333;0.0503743;0;0.0521937;7.9415;5.00991
424000;425;26.3912;0.636036;0.0246955;-2.36413;26.2818;-0.413302;-0.113902;0.628357;-0.817495;-0.0743415;-0.544453;-0.491594;0.737306;-7.32377;-0.0050054;0.00217666;0.0213724;0.0215508;-0.00518381;0.0133673;0.2342;4.26986;0.016371;0.017823;4.15732;0.240539;88.9716;133.972;-0.00440163;-0.00500366;0.00324964;0.00113138;0.0213695;-0.00432032;0.0143298;0;0.0252937;-0.187443;-1.15506;-1.30926;1.75597;-7.71042;-0.00604399;-0.000410825;0.0244805;0.024486;-0.00604952;0.0152678;0.24689;4.05038;0.0186701;0.020357;4.0476;0.24706;100.12;145.12;-0.00763504;-0.00605012;0.00278723;-0.00351359;0.0244768;0.00891684;0.0513451;0;0.0429158;7.95512;5.01732
425000;426;26.3991;0.643943;0.0250025;-2.36622;26.2895;-0.419035;-0.115991;0.636018;-0.823228;-0.0742768;-0.541469;-0.497732;0.739217;-7.32991;-0.00510784;0.00191005;0.0216794;0.0218149;-0.00524335;0.0135291;0.235608;4.24434;0.0165699;0.0180388;4.16049;0.240356;89.5578;134.558;-0.00459585;-0.00510638;0.00298433;0.000863936;0.0216768;-0.00327427;0.0129726;0;0.0262166;-0.188455;-1.16098;-1.31384;1.7634;-7.71501;-0.00607519;-0.000345965;0.0243438;0.0243478;-0.00607913;0.0152134;0.249558;4.00709;0.0185925;0.0202846;4.00514;0.249679;99.0226;144.023;-0.00643581;-0.0060799;0.00246984;-0.00307814;0.0243409;0.00539473;0.0500295;0;0.0407276;7.95352;5.02426
426000;427;26.4071;0.652006;0.0253156;-2.36626;26.2976;-0.419153;-0.116028;0.644109;-0.823346;-0.0756259;-0.539993;-0.500929;0.740433;-7.3331;-0.00506899;0.00188414;0.0224059;0.0225345;-0.0051976;0.0138661;0.226234;4.42019;0.0170222;0.0184881;4.33557;0.23065;89.7251;134.725;-0.00493504;-0.00506752;0.00301322;0.000785387;0.0224032;-0.00290561;0.0132535;0;0.0295423;-0.190717;-1.16753;-1.31853;1.77145;-7.7197;-0.00598161;-0.00050299;0.0243594;0.0243677;-0.00598994;0.0151788;0.245557;4.07238;0.0185667;0.0202384;4.0681;0.245815;100.011;145.011;-0.00606848;-0.00598762;0.00257939;-0.00349406;0.0243562;0.00693543;0.0457397;0;0.0390521;7.95454;5.03211
427000;428;26.4139;0.65877;0.0255782;-2.36935;26.3039;-0.427853;-0.119123;0.650483;-0.832046;-0.0745038;-0.537931;-0.505153;0.741687;-7.33733;-0.00513999;0.00202686;0.0226106;0.0227578;-0.00528724;0.0140225;0.227327;4.39895;0.0172072;0.0186967;4.30429;0.232327;89.3232;134.323;-0.00447057;-0.00513839;0.00311696;0.000966335;0.0226078;-0.00371889;0.0128457;0;0.0242755;-0.190662;-1.17391;-1.32223;1.7784;-7.72339;-0.00606104;-0.000328966;0.0246963;0.0246999;-0.00606455;0.0153822;0.245423;4.07461;0.0188167;0.0205096;4.07282;0.24553;99.926;144.926;-0.00536961;-0.00606698;0.00289084;-0.00345213;0.0246923;0.00478492;0.0434931;0;0.0375925;7.96484;5.0392
428000;429;26.4231;0.667998;0.0259365;-2.37099;26.313;-0.427992;-0.12076;0.6596;-0.832185;-0.0748234;-0.534879;-0.509626;0.742572;-7.3418;-0.00522653;0.00179434;0.0231182;0.0232314;-0.00533967;0.0142855;0.226078;4.42324;0.0175405;0.0190473;4.35071;0.229848;90.0423;135.042;-0.00496829;-0.00522513;0.00296697;0.000654199;0.0231155;-0.00261639;0.0118431;0;0.0222595;-0.192023;-1.17962;-1.32804;1.78664;-7.72921;-0.00590406;-0.000233574;0.0250863;0.0250881;-0.00590582;0.015497;0.23535;4.249;0.0190024;0.0206626;4.24803;0.235403;99.7406;144.741;-0.0046661;-0.00591001;0.00308036;-0.00344732;0.0250817;0.00327865;0.0434064;0;0.0395652;7.96644;5.04705
429000;430;26.4329;0.677772;0.026316;-2.37199;26.3228;-0.427205;-0.121763;0.669337;-0.831398;-0.0767941;-0.532806;-0.508796;0.740711;-7.34097;-0.00524565;0.00189273;0.0232235;0.0233488;-0.00537093;0.0143599;0.225877;4.42719;0.017631;0.0191465;4.34725;0.230031;89.5556;134.556;-0.005053;-0.00524421;0.00297085;0.000844594;0.0232209;-0.00168309;0.0137847;0;0.0375908;-0.194889;-1.18427;-1.33248;1.79331;-7.73364;-0.00612494;-0.000146892;0.0256364;0.0256371;-0.00612562;0.0158814;0.238916;4.18557;0.0194574;0.0211751;4.18522;0.238936;99.2987;144.299;-0.00540601;-0.00613045;0.00311894;-0.00331158;0.0256317;0.00523385;0.0432283;0;0.0536657;7.97035;5.0546
430000;431;26.4404;0.685238;0.0266059;-2.36853;26.3308;-0.41651;-0.118303;0.677318;-0.820703;-0.0772069;-0.53435;-0.504374;0.73884;-7.33655;-0.00542551;0.0016674;0.0232909;0.0233874;-0.005522;0.0144547;0.232946;4.29284;0.0177214;0.0192729;4.2353;0.236111;90.302;135.302;-0.00534109;-0.00542426;0.00282676;0.000540575;0.0232883;-0.0012116;0.0137933;0;0.0352629;-0.195063;-1.19286;-1.33169;1.79843;-7.73285;-0.00635422;-0.000220577;0.0261267;0.0261282;-0.00635571;0.0162419;0.243208;4.1117;0.019879;0.0216559;4.11097;0.243252;99.8802;144.88;-0.00654637;-0.00636072;0.003271;-0.00360163;0.0261215;0.0102312;0.0460812;0;0.043747;7.97385;5.0621
431000;432;26.4478;0.692654;0.0268938;-2.36958;26.3381;-0.417242;-0.11935;0.684658;-0.821435;-0.0770746;-0.532884;-0.506066;0.738924;-7.33824;-0.00546831;0.00163402;0.0237704;0.0238614;-0.00555935;0.0147104;0.230047;4.34693;0.0180484;0.0196138;4.29213;0.232985;90.2502;135.25;-0.00521767;-0.00546711;0.00276414;0.000536171;0.023768;-0.00142084;0.0126583;0;0.0238203;-0.196092;-1.20053;-1.3307;1.80291;-7.73186;-0.00659914;-0.00027421;0.026622;0.0266243;-0.0066014;0.0166128;0.247883;4.03416;0.0203108;0.0221505;4.03312;0.247947;99.8957;144.896;-0.00660421;-0.00660588;0.00323587;-0.0036707;0.026617;0.00923399;0.0484348;0;0.0423859;7.97703;5.06851
432000;433;26.4577;0.702585;0.0272794;-2.37338;26.3475;-0.431747;-0.123153;0.694055;-0.83594;-0.076643;-0.530812;-0.511717;0.741276;-7.34389;-0.00542311;0.00172523;0.024259;0.0243589;-0.00552305;0.014941;0.223551;4.47326;0.0183593;0.0199213;4.41041;0.226736;90.0273;135.027;-0.00474494;-0.00542181;0.00285598;0.000627245;0.0242564;-0.00328942;0.0122252;0;0.0226296;-0.19697;-1.20709;-1.33733;1.81227;-7.73849;-0.00678186;-0.000317952;0.02709;0.027093;-0.00678484;0.0169389;0.250345;3.99449;0.0206977;0.0225852;3.99317;0.250428;99.3292;144.329;-0.00622952;-0.00678803;0.00298862;-0.00351548;0.0270857;0.00689085;0.0498914;0;0.0420827;7.98144;5.07266
433000;434;26.4635;0.708384;0.0275046;-2.37386;26.3531;-0.445023;-0.123632;0.699614;-0.849216;-0.0770377;-0.529564;-0.512845;0.741204;-7.34502;-0.00546784;0.00181208;0.0245921;0.0247009;-0.00557668;0.0151388;0.222342;4.49758;0.0186068;0.0201851;4.42932;0.225769;89.9901;134.99;-0.00529153;-0.00546642;0.00298993;0.000668784;0.0245893;-0.00212162;0.011799;0;0.0245983;-0.197782;-1.21354;-1.34128;1.81957;-7.74244;-0.0068303;-0.000320512;0.0269134;0.0269164;-0.00683335;0.0168749;0.253788;3.94029;0.0206033;0.0224999;3.93898;0.253873;99.0711;144.071;-0.00601466;-0.00683601;0.00284425;-0.00338128;0.0269095;0.00704351;0.0509679;0;0.0435563;7.98322;5.07778
434000;435;26.4718;0.716635;0.0278249;-2.37498;26.3614;-0.438221;-0.124754;0.707912;-0.842414;-0.0792069;-0.531113;-0.50181;0.734962;-7.33399;-0.00563434;0.00158693;0.0249543;0.0250364;-0.00571645;0.0153764;0.225786;4.42897;0.018887;0.0205019;4.37972;0.228325;90.4245;135.424;-0.00518022;-0.00563317;0.00276286;0.0004461;0.0249518;-0.0012913;0.012325;0;0.0226087;-0.201518;-1.22181;-1.33039;1.81752;-7.73156;-0.00699508;-0.000398027;0.0270266;0.0270313;-0.00699974;0.0170155;0.258822;3.86366;0.0207514;0.0226873;3.86175;0.25895;100.112;145.112;-0.00592684;-0.00700228;0.00312251;-0.00380193;0.0270219;0.00697047;0.0495806;0;0.0439809;7.99414;5.0833
435000;436;26.4788;0.723697;0.0280992;-2.37676;26.3682;-0.442582;-0.126527;0.714771;-0.846775;-0.078103;-0.52913;-0.509819;0.738914;-7.34199;-0.00558573;0.00160567;0.0249712;0.0250553;-0.00566987;0.0153626;0.223687;4.47053;0.0188795;0.0204835;4.41902;0.226294;90.2502;135.25;-0.0051552;-0.00558457;0.00273765;0.000507442;0.0249688;-0.00171044;0.0113341;0;0.0258937;-0.201207;-1.22811;-1.34008;1.82881;-7.74124;-0.00679746;-0.000420183;0.0273549;0.0273601;-0.00680262;0.0170813;0.248491;4.02429;0.0208803;0.0227751;4.02199;0.248633;100.382;145.382;-0.00485243;-0.00680546;0.00329166;-0.00400863;0.0273497;0.00536041;0.0456029;0;0.0417318;7.99753;5.0915
436000;437;26.4906;0.735513;0.0285579;-2.37831;26.3801;-0.431605;-0.128081;0.726678;-0.835798;-0.0789938;-0.526882;-0.51095;0.738183;-7.34313;-0.00575983;0.00170139;0.0256525;0.0257444;-0.00585171;0.015798;0.224533;4.45369;0.0194098;0.0210641;4.39946;0.2273;90.2478;135.248;-0.00473878;-0.00575852;0.00289592;0.000543446;0.0256498;-0.00170782;0.012337;0;0.0262988;-0.203653;-1.23516;-1.34001;1.83377;-7.74117;-0.00685739;-0.000336221;0.0276188;0.027622;-0.00686066;0.0172414;0.248287;4.02759;0.0210771;0.0229885;4.02615;0.248376;100.878;145.878;-0.00505211;-0.0068663;0.0036846;-0.00422214;0.0276122;0.00617459;0.0452301;0;0.043906;7.99805;5.09803
437000;438;26.4985;0.743356;0.0288624;-2.37822;26.388;-0.434156;-0.127986;0.734521;-0.838349;-0.0791135;-0.524786;-0.511182;0.736863;-7.34336;-0.00574527;0.00156708;0.0261756;0.0262524;-0.00582202;0.0160372;0.21949;4.55603;0.0197307;0.0213829;4.50915;0.221771;90.4493;135.449;-0.00491803;-0.00574412;0.00276266;0.000408682;0.0261731;-0.00108524;0.0134788;0;0.026645;-0.204194;-1.24066;-1.34397;1.84043;-7.74513;-0.00677226;-0.000154406;0.0281917;0.0281924;-0.00677294;0.0174827;0.240221;4.16283;0.0214127;0.0233102;4.16251;0.24024;100.717;145.717;-0.00514138;-0.00678123;0.00406006;-0.00422556;0.0281837;0.00655334;0.0438241;0;0.0429842;8.00234;5.10553
438000;439;26.5093;0.754216;0.0292841;-2.37845;26.399;-0.424394;-0.128225;0.745564;-0.828587;-0.0801429;-0.522026;-0.518956;0.740439;-7.35113;-0.00577802;0.00169339;0.0263503;0.0264393;-0.00586703;0.0161532;0.219277;4.56044;0.0198727;0.0215376;4.50643;0.221905;90.0478;135.048;-0.00459463;-0.00577676;0.00282415;0.000598027;0.0263479;-0.00166865;0.0119202;0;0.0211044;-0.206787;-1.24595;-1.35489;1.85226;-7.75605;-0.00671031;-0.000423403;0.0285593;0.0285644;-0.00671539;0.0176399;0.23496;4.25604;0.0216317;0.0235199;4.25358;0.235096;101.32;146.32;-0.00497312;-0.0067211;0.00395305;-0.00464978;0.0285518;0.00568086;0.0451711;0;0.0412904;8.00632;5.11307
439000;440;26.5166;0.761464;0.0295656;-2.37778;26.4064;-0.420263;-0.127549;0.75297;-0.824456;-0.079175;-0.524605;-0.509374;0.735487;-7.34155;-0.00587242;0.00173;0.026217;0.02631;-0.00596541;0.0161377;0.223992;4.46444;0.0198299;0.021517;4.41043;0.226735;89.9974;134.997;-0.00449941;-0.00587112;0.00285469;0.000640482;0.0262145;-0.0021677;0.0130511;0;0.0299101;-0.206034;-1.25686;-1.34277;1.85073;-7.74394;-0.00718244;-0.000244079;0.029041;0.0290426;-0.00718408;0.0181133;0.247321;4.04333;0.0221483;0.0241511;4.04263;0.247364;99.9059;144.906;-0.00596204;-0.00719043;0.00363972;-0.00399116;0.0290346;0.00666592;0.0493278;0;0.0460863;8.00992;5.1208
440000;441;26.5253;0.770195;0.0299045;-2.38151;26.4146;-0.436723;-0.131284;0.761133;-0.840916;-0.0792696;-0.522512;-0.513116;0.736608;-7.34529;-0.00585491;0.00167272;0.0269104;0.0269956;-0.00594008;0.0164678;0.21757;4.59622;0.0202693;0.0219571;4.54465;0.220039;90.1074;135.107;-0.00501712;-0.00585366;0.00281759;0.00056438;0.0269079;-0.00140898;0.0109616;0;0.0224454;-0.20674;-1.26366;-1.34788;1.85913;-7.74905;-0.00733132;-0.000252516;0.0293868;0.0293885;-0.00733305;0.0183608;0.249477;4.00839;0.0224397;0.024481;4.00768;0.249521;99.473;144.473;-0.00662943;-0.00733873;0.00347274;-0.00384489;0.0293809;0.00945743;0.049487;0;0.0450302;8.0205;5.12755
441000;442;26.5312;0.776127;0.0301349;-2.38213;26.4203;-0.447712;-0.131902;0.76685;-0.851905;-0.0779408;-0.521557;-0.509914;0.733559;-7.34209;-0.00589002;0.001816;0.0268531;0.0269535;-0.00599043;0.016472;0.219343;4.55908;0.0202631;0.0219626;4.49942;0.222251;90.0945;135.095;-0.00537469;-0.00588856;0.00304592;0.000625291;0.0268502;-0.00139003;0.0119702;0;0.0454958;-0.206515;-1.26989;-1.34727;1.8629;-7.74843;-0.00761058;-0.000303638;0.0295818;0.0295842;-0.00761306;0.0185987;0.257273;3.88693;0.0226903;0.0247982;3.88599;0.257335;99.3289;144.329;-0.00641862;-0.00761777;0.00331291;-0.00378954;0.0295765;0.00624179;0.0492972;0;0.0481968;8.01739;5.13463
442000;443;26.543;0.787918;0.0305927;-2.38488;26.432;-0.439505;-0.134646;0.778582;-0.843698;-0.081031;-0.520144;-0.514711;0.736236;-7.34689;-0.00602185;0.00183952;0.0278584;0.0279579;-0.00612143;0.0170397;0.21616;4.62621;0.0209789;0.0227196;4.56722;0.218952;89.9327;134.933;-0.00509255;-0.00602039;0.00303155;0.000686779;0.0278555;-0.000409638;0.0103073;0;0.0291722;-0.210878;-1.27859;-1.3487;1.87036;-7.74986;-0.00730811;-0.000250687;0.0296589;0.0296606;-0.00730981;0.0184852;0.246405;4.05835;0.0226078;0.024647;4.05764;0.246448;99.5743;144.574;-0.00528626;-0.00731589;0.00357316;-0.00393724;0.0296527;0.00280143;0.0486542;0;0.0461716;8.02115;5.14138
443000;444;26.552;0.796833;0.0309388;-2.38678;26.4408;-0.437616;-0.136546;0.787393;-0.841809;-0.0799399;-0.518595;-0.513428;0.734126;-7.3456;-0.00612967;0.00158395;0.0279282;0.0280017;-0.00620317;0.0171024;0.21948;4.55623;0.0210425;0.0228032;4.51409;0.221529;90.3856;135.386;-0.00537739;-0.0061285;0.00277846;0.000429021;0.0279256;-0.000745574;0.0105338;0;0.023741;-0.210895;-1.28447;-1.35076;1.87587;-7.75192;-0.00737777;-0.000198726;0.0297671;0.0297681;-0.00737883;0.0185735;0.24785;4.0347;0.0227082;0.0247646;4.03426;0.247877;100.165;145.165;-0.00519449;-0.00738657;0.00393583;-0.00418414;0.0297596;0.00524827;0.0491169;0;0.0470269;8.02732;5.14858
444000;445;26.5615;0.806382;0.0313096;-2.38798;26.4504;-0.431661;-0.137748;0.796972;-0.835854;-0.0811556;-0.518029;-0.513841;0.734148;-7.34602;-0.00611363;0.00163978;0.0282299;0.028308;-0.00619174;0.0172499;0.216566;4.61754;0.0212389;0.0229998;4.5719;0.218728;90.3661;135.366;-0.00523152;-0.00611238;0.00287248;0.000448252;0.0282272;-0.00104087;0.0107831;0;0.0241068;-0.213072;-1.29116;-1.35418;1.88317;-7.75535;-0.00717751;-0.000214401;0.0301498;0.030151;-0.00717874;0.0186649;0.238062;4.20059;0.0228722;0.0248865;4.20004;0.238093;100.927;145.927;-0.00610918;-0.00718833;0.00437806;-0.00464045;0.0301405;0.00896326;0.0427403;0;0.0484988;8.02899;5.15081
445000;446;26.5693;0.814179;0.0316123;-2.38604;26.4586;-0.420267;-0.135807;0.80516;-0.82446;-0.0807153;-0.518106;-0.515535;0.73534;-7.34771;-0.00613109;0.00148466;0.0283851;0.0284488;-0.00619484;0.0173218;0.215997;4.62969;0.0213328;0.0230958;4.59235;0.217754;90.7191;135.719;-0.00538093;-0.00613002;0.00275917;0.000252923;0.0283825;0.00011146;0.0101235;0;0.0237789;-0.213694;-1.2981;-1.35503;1.8886;-7.75619;-0.0071259;-0.000289849;0.0305176;0.0305198;-0.00712813;0.018824;0.233501;4.28263;0.0230923;0.0250986;4.2816;0.233557;100.8;145.8;-0.00637986;-0.00713691;0.00427244;-0.00468548;0.0305088;0.00788948;0.0462488;0;0.0429941;8.0358;5.15838
446000;447;26.5776;0.822469;0.0319342;-2.38467;26.4671;-0.419754;-0.134437;0.813616;-0.823947;-0.0807914;-0.515956;-0.516056;0.734202;-7.34823;-0.00614504;0.00172448;0.0288505;0.0289353;-0.00622982;0.0175825;0.212996;4.69492;0.0216674;0.0234434;4.64464;0.215302;90.1142;135.114;-0.00546208;-0.00614371;0.00292274;0.000566975;0.0288478;-0.000354022;0.0112821;0;0.0242744;-0.213812;-1.30467;-1.35929;1.89619;-7.76045;-0.00725669;-0.000311504;0.0311661;0.0311686;-0.00725921;0.0192139;0.232839;4.29481;0.0235744;0.0256186;4.29367;0.232901;100.294;145.294;-0.00625432;-0.00726709;0.00409573;-0.00455451;0.031158;0.00710991;0.0497511;0;0.043489;8.03847;5.1647
447000;448;26.5867;0.831567;0.0322874;-2.38929;26.4755;-0.436275;-0.139064;0.822068;-0.840468;-0.0812227;-0.514752;-0.515069;0.73271;-7.34724;-0.0061145;0.00153619;0.0291312;0.0291981;-0.00618133;0.0176897;0.209895;4.76428;0.0218197;0.0235863;4.72359;0.211704;90.4769;135.477;-0.00504473;-0.00611338;0.00276765;0.000346903;0.0291287;-0.0013986;0.0104896;0;0.0242109;-0.21513;-1.31331;-1.35529;1.89945;-7.75646;-0.00736937;-0.000151585;0.03169;0.0316906;-0.00736995;0.0195303;0.232545;4.30024;0.0239645;0.0260404;4.29998;0.232559;98.86;143.86;-0.00638897;-0.00737705;0.00375231;-0.00390768;0.0316832;0.00696967;0.0517612;0;0.0472024;8.0391;5.17198
448000;449;26.5927;0.837611;0.0325221;-2.39023;26.4814;-0.442071;-0.139997;0.827957;-0.846264;-0.0808376;-0.514595;-0.510931;0.729653;-7.34311;-0.00611429;0.00168086;0.0289463;0.0290267;-0.00619469;0.0176107;0.211229;4.7342;0.0217126;0.0234809;4.68574;0.213414;90.2302;135.23;-0.0046482;-0.00611299;0.00290254;0.000500801;0.0289436;-0.00215591;0.011729;0;0.0251749;-0.2157;-1.31967;-1.35411;1.90307;-7.75527;-0.0075365;-3.57048e-05;0.0318031;0.0318032;-0.00753653;0.0196698;0.236974;4.21988;0.0241102;0.0262265;4.21987;0.236974;98.605;143.605;-0.00616743;-0.00754356;0.00381935;-0.00374378;0.0317961;0.00526484;0.0491905;0;0.0470703;8.04188;5.17978
449000;450;26.6012;0.84607;0.0328505;-2.39285;26.4895;-0.449375;-0.142618;0.836092;-0.853568;-0.0824357;-0.512816;-0.516513;0.732504;-7.34869;-0.00625993;0.00186039;0.0297329;0.0298288;-0.00635583;0.0180923;0.210538;4.74973;0.0223084;0.0241231;4.69315;0.213077;89.7459;134.746;-0.00509949;-0.00625847;0.00300153;0.000759134;0.0297302;-0.000520778;0.0102019;0;0.024512;-0.21865;-1.32581;-1.36059;1.91227;-7.76175;-0.00745763;-5.09469e-05;0.0319323;0.0319323;-0.0074577;0.019695;0.233545;4.28182;0.0241609;0.02626;4.2818;0.233547;98.7444;143.744;-0.00656603;-0.00746508;0.00389444;-0.00384573;0.0319249;0.00618559;0.0480418;0;0.0469763;8.04977;5.18639
450000;451;26.6082;0.853079;0.0331227;-2.39298;26.4965;-0.455383;-0.142754;0.843016;-0.859576;-0.0819694;-0.509998;-0.520717;0.733459;-7.35289;-0.00624277;0.00173264;0.0298578;0.0299408;-0.00632574;0.0181333;0.209083;4.78278;0.0223692;0.0241777;4.73317;0.211275;89.9674;134.967;-0.00463594;-0.00624145;0.00288595;0.00061975;0.0298552;-0.00196571;0.0100335;0;0.0235658;-0.218322;-1.33015;-1.37006;1.92199;-7.77123;-0.00726661;-0.000112851;0.0322602;0.0322605;-0.00726693;0.0197637;0.22525;4.43951;0.0242944;0.0263516;4.43936;0.225258;98.869;143.869;-0.00611774;-0.00727469;0.00393491;-0.00400562;0.0322527;0.00520005;0.0479848;0;0.0509899;8.0574;5.1935
451000;452;26.6178;0.862659;0.0334946;-2.39454;26.506;-0.451629;-0.144307;0.85256;-0.855822;-0.0828093;-0.508982;-0.519787;0.732187;-7.35196;-0.00627525;0.00175431;0.0300604;0.0301449;-0.00635976;0.0182523;0.208755;4.7903;0.0225179;0.0243364;4.73994;0.210973;89.5991;134.599;-0.00415507;-0.00627401;0.00276441;0.000779839;0.0300581;-0.0018431;0.011435;0;0.0260723;-0.220604;-1.33753;-1.36843;1.9262;-7.76959;-0.00731422;-0.000187465;0.0321868;0.0321876;-0.00731511;0.0197514;0.227243;4.40057;0.0242671;0.0263352;4.40016;0.227264;99.2894;144.289;-0.00474114;-0.00732313;0.00399479;-0.00420967;0.032179;0.00367279;0.0474724;0;0.0520346;8.0501;5.20033
452000;453;26.6283;0.873161;0.0339024;-2.39506;26.5167;-0.442225;-0.144825;0.863219;-0.846418;-0.0830667;-0.509505;-0.514037;0.728512;-7.34621;-0.00629856;0.00163553;0.0304891;0.0305616;-0.00637113;0.0184664;0.206584;4.84064;0.0227969;0.0246219;4.7969;0.208468;90.0714;135.071;-0.00470405;-0.00629736;0.00277517;0.000536564;0.0304866;-0.00100045;0.0111281;0;0.0273882;-0.221735;-1.3474;-1.36072;1.92775;-7.76188;-0.0072478;-0.000135175;0.0326195;0.03262;-0.00724826;0.0199341;0.222192;4.50061;0.0245225;0.0265788;4.50039;0.222203;99.7489;144.749;-0.00656227;-0.007258;0.00440683;-0.00450182;0.0326101;0.00717782;0.0469311;0;0.0486874;8.06396;5.20771
453000;454;26.6365;0.881421;0.0342231;-2.39436;26.525;-0.440896;-0.144131;0.871598;-0.845089;-0.0836819;-0.509605;-0.514362;0.728882;-7.34654;-0.00632611;0.00155445;0.0307499;0.030815;-0.00639116;0.0186031;0.205728;4.8608;0.022972;0.0248041;4.8215;0.207404;90.269;135.269;-0.00506288;-0.00632498;0.00272909;0.000422054;0.0307475;-0.00043028;0.0102926;0;0.0260051;-0.222659;-1.35379;-1.36761;1.93718;-7.76877;-0.00712484;-0.000336578;0.0330389;0.0330418;-0.00712766;0.0200847;0.21565;4.63715;0.0247483;0.0267796;4.63571;0.215717;99.8381;144.838;-0.00574814;-0.0071359;0.0042016;-0.00469831;0.0330305;0.00439148;0.0471376;0;0.049531;8.06438;5.21373
454000;455;26.6468;0.89171;0.0346227;-2.39431;26.5354;-0.436643;-0.144077;0.882006;-0.840836;-0.0832261;-0.504598;-0.523377;0.731758;-7.35555;-0.00632844;0.0016933;0.0310823;0.0311588;-0.00640492;0.0187819;0.203603;4.91153;0.0232041;0.0250425;4.86482;0.205557;90.0597;135.06;-0.00466584;-0.00632715;0.00287541;0.000554084;0.0310797;-0.000898699;0.0103123;0;0.0241258;-0.223603;-1.35831;-1.37546;1.946;-7.77662;-0.00697891;-0.000427011;0.0334742;0.0334787;-0.00698342;0.0202311;0.208486;4.79648;0.0249746;0.0269748;4.79403;0.208593;99.7956;144.796;-0.00557449;-0.00699043;0.00412591;-0.00480171;0.0334661;0.00474314;0.0480807;0;0.0490993;8.06453;5.21984
455000;456;26.6536;0.898448;0.0348843;-2.39447;26.542;-0.448319;-0.144243;0.888562;-0.852512;-0.084194;-0.502232;-0.524695;0.731184;-7.35687;-0.00636876;0.00170214;0.0316688;0.0317449;-0.00644478;0.0190948;0.201105;4.97252;0.0236066;0.0254598;4.92567;0.203018;90.1739;135.174;-0.00475624;-0.00636743;0.00295011;0.000500183;0.031666;-0.00187167;0.00958822;0;0.0281187;-0.225379;-1.36404;-1.37873;1.95251;-7.77989;-0.00687545;-0.00036727;0.0338112;0.0338145;-0.00687877;0.0203466;0.203348;4.91767;0.0251515;0.0271289;4.91578;0.203426;99.3212;144.321;-0.00543218;-0.00688611;0.00405464;-0.00461514;0.0338033;0.00540161;0.0475446;0;0.0480255;8.07122;5.22436
456000;457;26.66;0.904903;0.0351349;-2.39887;26.548;-0.453942;-0.14864;0.894551;-0.858135;-0.0829067;-0.500926;-0.527283;0.732003;-7.35946;-0.00633427;0.00178465;0.0320795;0.0321622;-0.00641701;0.0192896;0.197456;5.06443;0.0238697;0.0257195;5.01202;0.19952;89.7356;134.736;-0.00456965;-0.00633293;0.0028956;0.000715051;0.0320769;-0.00222579;0.00912771;0;0.0228863;-0.225496;-1.37027;-1.38061;1.9582;-7.78177;-0.00722949;3.53192e-05;0.0340363;0.0340363;-0.00722952;0.0206329;0.212406;4.70797;0.0254454;0.0275105;4.70796;0.212406;98.7681;143.768;-0.0047195;-0.00723836;0.00444397;-0.00419739;0.0340267;0.00337863;0.0465307;0;0.0495125;8.07179;5.22915
457000;458;26.6661;0.910992;0.0353713;-2.3993;26.5539;-0.464903;-0.14907;0.900438;-0.869096;-0.0853141;-0.501468;-0.523099;0.729644;-7.35527;-0.00648779;0.00183136;0.0321578;0.0322444;-0.00657438;0.0194094;0.201749;4.95667;0.0239899;0.0258792;4.90455;0.203892;89.8025;134.802;-0.00458499;-0.00648635;0.00299488;0.000711395;0.0321551;-0.00213398;0.00936334;0;0.0229236;-0.228341;-1.37893;-1.37752;1.96244;-7.77868;-0.00691309;9.91083e-06;0.0345548;0.0345549;-0.0069131;0.020734;0.200061;4.99846;0.0256533;0.0276453;4.99846;0.200062;97.4121;142.412;-0.00567452;-0.00691973;0.00380333;-0.00363146;0.0345479;0.00354743;0.0467383;0;0.0524796;8.0803;5.23722
458000;459;26.6732;0.918121;0.0356481;-2.39921;26.561;-0.469233;-0.148978;0.90753;-0.873426;-0.0865221;-0.500316;-0.522786;0.728771;-7.35496;-0.00675086;0.00191782;0.0326731;0.0327662;-0.00684393;0.019805;0.206618;4.83984;0.0244469;0.0264067;4.78762;0.208872;89.4507;134.451;-0.00435677;-0.00674942;0.00296148;0.000914004;0.0326706;-0.00186976;0.0108113;0;0.0246279;-0.229537;-1.38567;-1.3771;1.96702;-7.77827;-0.0068339;0.000115874;0.034456;0.0344563;-0.00683422;0.0206453;0.198337;5.04193;0.0255554;0.027527;5.04173;0.198344;97.4223;142.422;-0.00459301;-0.00684043;0.00399044;-0.00360404;0.0344483;-0.000475609;0.043616;0;0.0525348;8.0867;5.2435
459000;460;26.6839;0.928765;0.0360614;-2.40091;26.5715;-0.468743;-0.15068;0.918073;-0.872936;-0.0863451;-0.497472;-0.528254;0.730743;-7.36043;-0.00672426;0.0020684;0.0340679;0.0341725;-0.00682887;0.0205007;0.197378;5.06641;0.0253662;0.0273342;5.00412;0.199835;89.2372;134.237;-0.00369947;-0.00672267;0.00312277;0.00105563;0.0340652;-0.00369587;0.00873313;0;0.0231594;-0.230773;-1.39145;-1.38536;1.97703;-7.78653;-0.00701331;-0.000190247;0.0347133;0.0347142;-0.00701418;0.0208642;0.202035;4.94964;0.0258006;0.0278189;4.94915;0.202055;97.7732;142.773;-0.00568936;-0.00702088;0.003658;-0.0038833;0.0347069;0.00354004;0.0446426;0;0.0537731;8.0869;5.25087
460000;461;26.696;0.940901;0.0365326;-2.39991;26.5841;-0.449745;-0.149685;0.930678;-0.853938;-0.086044;-0.495066;-0.531893;0.731713;-7.36407;-0.00671382;0.00207916;0.0332501;0.0333579;-0.0068217;0.0200898;0.201919;4.95248;0.0248269;0.0267864;4.88997;0.2045;89.1387;134.139;-0.00420633;-0.00671227;0.0030902;0.00110722;0.0332475;-0.00167983;0.00824696;0;0.0217777;-0.231593;-1.39827;-1.38871;1.98426;-7.78987;-0.00700809;-0.000114102;0.0351445;0.0351448;-0.0070084;0.0210766;0.199408;5.01484;0.0260818;0.0281021;5.01466;0.199415;98.4143;143.414;-0.00546163;-0.00701722;0.00420733;-0.00425956;0.0351359;0.00436409;0.0472314;0;0.055221;8.09057;5.25786
461000;462;26.7054;0.950275;0.0368965;-2.39883;26.5937;-0.446956;-0.148597;0.940237;-0.851149;-0.0867997;-0.494787;-0.531323;0.731199;-7.3635;-0.0066505;0.00217242;0.0338156;0.0339319;-0.00676679;0.0203493;0.19667;5.08467;0.0251818;0.0271324;5.01447;0.199423;88.9398;133.94;-0.00386584;-0.00664888;0.00315633;0.00122703;0.033813;-0.00324531;0.00958412;0;0.0234374;-0.233049;-1.40616;-1.39045;1.99122;-7.79161;-0.0068026;-0.000286313;0.0353699;0.0353718;-0.00680454;0.0210882;0.192327;5.19947;0.0261462;0.0281176;5.19827;0.192372;98.2099;143.21;-0.00641578;-0.0068117;0.00385678;-0.00426064;0.0353627;0.00515246;0.0452453;0;0.0531121;8.09744;5.26601
462000;463;26.7122;0.95708;0.0371608;-2.40091;26.6002;-0.455939;-0.150678;0.946731;-0.860132;-0.086854;-0.495745;-0.524026;0.726574;-7.3562;-0.00673811;0.00191962;0.0343568;0.0344462;-0.00682758;0.0206369;0.196122;5.09887;0.025546;0.0275159;5.04516;0.19821;89.1908;134.191;-0.00443201;-0.00673679;0.00284808;0.00102804;0.0343546;-0.00158966;0.00706805;0;0.0229809;-0.234265;-1.4152;-1.38487;1.99387;-7.78604;-0.0065025;-0.000214136;0.035909;0.0359101;-0.00650358;0.0212069;0.181083;5.52234;0.0263766;0.0282758;5.52159;0.181107;97.9159;142.916;-0.00600658;-0.00651136;0.00394155;-0.00419968;0.0359016;0.00366642;0.0482166;0;0.0522153;8.10125;5.27297
463000;464;26.7217;0.966605;0.0375306;-2.4008;26.6098;-0.452638;-0.150571;0.956362;-0.856831;-0.086491;-0.493455;-0.528826;0.728448;-7.361;-0.00667324;0.00197974;0.034812;0.0349063;-0.0067675;0.0208369;0.191694;5.21666;0.025824;0.0277825;5.15792;0.193876;89.2332;134.233;-0.00398208;-0.0066718;0.00297699;0.00102247;0.0348096;-0.00248195;0.00852959;0;0.02304;-0.234434;-1.42081;-1.3918;2.00269;-7.79297;-0.00666517;-0.000158097;0.0362278;0.0362284;-0.00666575;0.0214471;0.183979;5.43539;0.0266535;0.0285961;5.43501;0.183992;97.2326;142.233;-0.0061652;-0.00667255;0.00367474;-0.00383228;0.0362213;0.00381712;0.049713;0;0.0499026;8.10105;5.28052
464000;465;26.7268;0.971672;0.0377273;-2.40424;26.6142;-0.474475;-0.154007;0.960759;-0.878668;-0.0881103;-0.492488;-0.525363;0.725475;-7.35754;-0.00709036;0.00213513;0.0350543;0.0351622;-0.00719826;0.0211802;0.202268;4.94393;0.0261729;0.0282403;4.88482;0.204716;89.0327;134.033;-0.00437211;-0.00708879;0.00310938;0.00120055;0.0350518;-0.00171433;0.00757569;0;0.0240378;-0.236462;-1.42718;-1.39045;2.00651;-7.79161;-0.00648885;-5.9419e-05;0.0364533;0.0364534;-0.00648894;0.0214711;0.178005;5.61783;0.0267291;0.0286282;5.61777;0.178006;96.7209;141.721;-0.00598402;-0.00649528;0.00360808;-0.00357497;0.036447;0.00221645;0.0493102;0;0.0520368;8.10095;5.28764
465000;466;26.732;0.976917;0.037931;-2.40504;26.6193;-0.479291;-0.154812;0.965867;-0.883484;-0.0864168;-0.494219;-0.522998;0.724739;-7.35517;-0.00656809;0.00173518;0.0356668;0.035738;-0.00663926;0.0211886;0.184152;5.43031;0.026319;0.0282515;5.38282;0.185776;89.396;134.396;-0.0047;-0.00656694;0.00265399;0.000853839;0.0356648;-0.000545783;0.00655726;0;0.034942;-0.235642;-1.4367;-1.38647;2.01046;-7.78763;-0.00666894;0.000315552;0.0367092;0.0367115;-0.00667124;0.0216914;0.18167;5.5045;0.0269745;0.0289218;5.50295;0.181721;95.2541;140.254;-0.00495167;-0.0066725;0.0034398;-0.00267798;0.0367035;0.000431041;0.0459453;0;0.0594136;8.10432;5.29063
466000;467;26.7429;0.987829;0.0383547;-2.40494;26.6304;-0.474564;-0.154708;0.976919;-0.878757;-0.0885884;-0.489483;-0.533037;0.729089;-7.36521;-0.00692064;0.00241639;0.0358028;0.035939;-0.00705688;0.021498;0.193299;5.17333;0.0266252;0.0286639;5.09277;0.196357;88.3788;133.379;-0.0040138;-0.00691901;0.00325566;0.00161174;0.0358005;-0.00259244;0.00691286;0;0.0235948;-0.238502;-1.44031;-1.3979;2.02126;-7.79906;-0.00653271;0.000260404;0.0365012;0.0365028;-0.00653429;0.0215185;0.178972;5.58745;0.0267804;0.0286914;5.58635;0.179008;96.1488;141.149;-0.00365198;-0.00653775;0.00384494;-0.00317531;0.0364941;-0.00247864;0.0438245;0;0.0565196;8.11145;5.29897
467000;468;26.7531;0.997949;0.0387476;-2.40615;26.6405;-0.468383;-0.155916;0.987082;-0.872576;-0.0885328;-0.489582;-0.527808;0.725335;-7.35998;-0.00705233;0.00215538;0.0362046;0.0363117;-0.00715947;0.0217356;0.194791;5.13371;0.0269136;0.0289808;5.07185;0.197167;88.7613;133.761;-0.00442987;-0.0070509;0.00300341;0.00134275;0.0362025;-0.00194277;0.00696912;0;0.0242573;-0.23923;-1.44821;-1.39532;2.0252;-7.79648;-0.00652492;8.2774e-05;0.037102;0.0371022;-0.00652508;0.0218136;0.175864;5.6862;0.0271722;0.0290849;5.68609;0.175868;96.676;141.676;-0.00422235;-0.00653139;0.00391144;-0.00358483;0.0370947;0.000811135;0.0455802;0;0.0554296;8.11558;5.30288
468000;469;26.7634;1.00831;0.0391498;-2.40651;26.651;-0.461403;-0.156281;0.997574;-0.865596;-0.0878703;-0.487009;-0.530192;0.72526;-7.36237;-0.0069222;0.00223511;0.035991;0.0361071;-0.0070383;0.0215727;0.192332;5.19935;0.0267282;0.0287636;5.13008;0.194929;88.346;133.346;-0.00352276;-0.00692093;0.00292916;0.0015698;0.0359892;-0.00317549;0.00719144;0;0.0268802;-0.239716;-1.45454;-1.39775;2.03146;-7.79891;-0.00663117;1.073e-05;0.0373293;0.0373293;-0.00663117;0.0219803;0.17764;5.62937;0.0273657;0.029307;5.62937;0.17764;96.9977;141.998;-0.00536006;-0.00663844;0.00398935;-0.00379928;0.0373217;0.00166455;0.0465127;0;0.0580126;8.11559;5.30922
469000;470;26.772;1.01686;0.0394818;-2.4053;26.6598;-0.45862;-0.155068;1.00632;-0.862813;-0.0876953;-0.48609;-0.530002;0.724483;-7.36218;-0.00700277;0.00215033;0.036848;0.0369532;-0.00710796;0.0220306;0.190045;5.26192;0.0273148;0.0293741;5.19885;0.19235;88.4427;133.443;-0.00338946;-0.00700158;0.00282233;0.00150676;0.0368464;-0.00199408;0.00735654;0;0.0247038;-0.24032;-1.46165;-1.39879;2.03735;-7.79996;-0.00662276;-0.000163403;0.0378274;0.037828;-0.00662336;0.0222257;0.175079;5.71172;0.0276917;0.0296342;5.71129;0.175092;97.2086;142.209;-0.00469705;-0.00663092;0.00387459;-0.00402844;0.0378201;-0.00151203;0.0486444;0;0.0561756;8.11926;5.31588
470000;471;26.7789;1.02378;0.0397506;-2.406;26.6666;-0.462862;-0.155774;1.01313;-0.867055;-0.089475;-0.486374;-0.526445;0.722295;-7.35862;-0.00711335;0.00227928;0.0373488;0.0374653;-0.00722989;0.0223476;0.190457;5.25052;0.0277031;0.0297968;5.182;0.192976;88.5934;133.593;-0.00342663;-0.00711184;0.00311237;0.0014819;0.0373466;-0.00427986;0.00753437;0;0.0252157;-0.242449;-1.46923;-1.39934;2.04343;-7.8005;-0.00635811;-0.000163333;0.0383491;0.0383497;-0.0063587;0.0223542;0.165795;6.03153;0.0279284;0.0298056;6.03106;0.165808;96.8455;141.845;-0.00582153;-0.0063658;0.00375611;-0.00391402;0.0383423;-5.09972e-06;0.0499959;0;0.0545285;8.1283;5.3237
471000;472;26.7894;1.03424;0.0401566;-2.40701;26.677;-0.463935;-0.15678;1.02353;-0.868128;-0.0887362;-0.482689;-0.538443;0.728549;-7.37062;-0.00716852;0.00260545;0.0375321;0.0376834;-0.00731987;0.0225016;0.190997;5.23568;0.0278844;0.0300022;5.1481;0.194246;87.6981;132.698;-0.00266306;-0.00716725;0.00316798;0.00206715;0.0375305;-0.00445809;0.00616263;0;0.0274808;-0.242733;-1.47526;-1.40827;2.05391;-7.80944;-0.00625918;9.2979e-05;0.0386316;0.0386318;-0.00625937;0.0224456;0.162022;6.17199;0.0280746;0.0299274;6.17183;0.162026;96.5532;141.553;-0.00529906;-0.00626615;0.00408241;-0.00372402;0.0386236;-0.000629954;0.0502728;0;0.0539102;8.13402;5.33064
472000;473;26.796;1.04089;0.0404148;-2.40807;26.6833;-0.475991;-0.157842;1.02989;-0.880184;-0.0898441;-0.480255;-0.538715;0.727276;-7.37089;-0.007367;0.00308748;0.0381626;0.038371;-0.00757542;0.0229732;0.193042;5.18021;0.0284441;0.030631;5.06521;0.197425;87.0638;132.064;-0.00352867;-0.00736559;0.00360417;0.00259345;0.038161;-0.00422783;0.0066462;0;0.0260016;-0.244162;-1.48122;-1.41096;2.0602;-7.81212;-0.00615223;0.000173705;0.0388455;0.0388462;-0.0061529;0.0224995;0.158377;6.31405;0.0281733;0.0299994;6.31347;0.158392;95.4173;140.417;-0.00454266;-0.00615695;0.00356097;-0.00306684;0.0388394;-0.00121707;0.0471628;0;0.056392;8.13053;5.33784
473000;474;26.8027;1.04753;0.0406728;-2.41041;26.6897;-0.4814;-0.160178;1.03626;-0.885593;-0.0896501;-0.480689;-0.534934;0.724744;-7.36711;-0.00723202;0.00275135;0.0386244;0.0387889;-0.00739651;0.0230927;0.18724;5.34075;0.0286449;0.0307903;5.24422;0.190686;87.6313;132.631;-0.00333749;-0.0072306;0.00335065;0.00217852;0.0386226;-0.00375641;0.00648852;0;0.0252445;-0.244897;-1.48844;-1.40945;2.06445;-7.81061;-0.00610356;0.000299334;0.0389657;0.0389676;-0.00610555;0.0225366;0.156639;6.38409;0.0282345;0.0300488;6.38233;0.156683;94.8368;139.837;-0.00415889;-0.00610721;0.00344404;-0.00270896;0.03896;-0.000942646;0.0455913;0;0.0586482;8.13372;5.34532
474000;475;26.8097;1.05459;0.0409467;-2.41057;26.6967;-0.483306;-0.160336;1.0433;-0.887499;-0.0906838;-0.478776;-0.535627;0.724117;-7.3678;-0.0076369;0.00295441;0.0385729;0.038761;-0.00782502;0.023293;0.197986;5.05086;0.0288055;0.0310574;4.95347;0.201879;87.3049;132.305;-0.00295728;-0.00763552;0.00348639;0.00244609;0.0385713;-0.00482267;0.00625613;0;0.0253942;-0.246337;-1.49377;-1.41162;2.06995;-7.81279;-0.00617396;0.00030583;0.0390898;0.0390919;-0.00617603;0.022634;0.157943;6.3314;0.0283451;0.0301786;6.32961;0.157988;95.1662;140.166;-0.00401601;-0.00617817;0.00366405;-0.00290611;0.0390834;0.000304508;0.0435765;0;0.0607382;8.13758;5.35328
475000;476;26.8176;1.06248;0.0412533;-2.41131;26.7046;-0.480664;-0.161082;1.0512;-0.884857;-0.091206;-0.478287;-0.535044;0.723428;-7.36722;-0.00752441;0.00297373;0.039011;0.0392002;-0.00771367;0.023457;0.192879;5.18459;0.0290481;0.0312759;5.08192;0.196776;87.2238;132.224;-0.00323209;-0.00752311;0.00346804;0.00250156;0.0390094;-0.00474581;0.00824456;0;0.025944;-0.247549;-1.50126;-1.41026;2.07459;-7.81143;-0.00626815;0.000235499;0.0394878;0.039489;-0.00626936;0.0228792;0.158736;6.29975;0.0286454;0.0305056;6.29872;0.158762;95.1128;140.113;-0.00435326;-0.00627241;0.00353489;-0.00291866;0.0394818;-0.000628958;0.0467657;0;0.0581475;8.14127;5.35981
476000;477;26.8317;1.07657;0.0418001;-2.40994;26.7192;-0.464495;-0.159713;1.06576;-0.868688;-0.0918565;-0.472753;-0.545778;0.727878;-7.37795;-0.00769656;0.00331146;0.0395197;0.0397508;-0.00792767;0.0238392;0.194753;5.13472;0.0295003;0.0317857;5.01418;0.199434;86.2433;131.243;-0.00242158;-0.00769614;0.00344752;0.00318158;0.0395193;-0.0058471;0.00479896;0;0.0324452;-0.248483;-1.50757;-1.41575;2.083;-7.81692;-0.00623699;-1.02755e-05;0.0399993;0.0399993;-0.00623699;0.0231181;0.155927;6.41324;0.0289699;0.0308242;6.41324;0.155927;96.2157;141.216;-0.00423596;-0.00624388;0.00385322;-0.00370201;0.0399922;-0.000623819;0.0453124;0;0.0580447;8.14428;5.366
477000;478;26.8383;1.08318;0.0420569;-2.41221;26.7256;-0.466398;-0.161984;1.07216;-0.870591;-0.0915439;-0.472512;-0.544538;0.726753;-7.37671;-0.00764115;0.00324039;0.0397354;0.039956;-0.00786175;0.0239089;0.192301;5.20019;0.0296079;0.0318785;5.08233;0.19676;86.5799;131.58;-0.00312877;-0.00764032;0.00351678;0.0029766;0.0397345;-0.00551465;0.00600044;0;0.0270077;-0.249598;-1.51331;-1.4204;2.09044;-7.82156;-0.0063643;-0.000151637;0.0404237;0.0404242;-0.00636479;0.0233945;0.15744;6.35164;0.0293024;0.0311927;6.35122;0.15745;96.1702;141.17;-0.00375377;-0.00637133;0.00360588;-0.00374017;0.0404175;-0.00425115;0.0483281;0;0.0587721;8.14872;5.36997
478000;479;26.8456;1.09049;0.0423408;-2.41118;26.7329;-0.471981;-0.160954;1.0795;-0.876174;-0.0921367;-0.473457;-0.538085;0.722624;-7.37026;-0.00762908;0.00304074;0.0401613;0.040354;-0.00782177;0.0240879;0.189961;5.26424;0.0298534;0.0321172;5.15918;0.193829;86.7697;131.77;-0.0035601;-0.00762842;0.00327451;0.00281771;0.0401606;-0.00318192;0.00711714;0;0.0268548;-0.250941;-1.52299;-1.41512;2.09405;-7.81628;-0.00615882;-0.000104339;0.0406466;0.0406469;-0.00615906;0.023403;0.151521;6.59974;0.029367;0.0312039;6.59953;0.151526;96.2282;141.228;-0.00560899;-0.00616613;0.00377737;-0.00381145;0.0406398;0.000710465;0.0500307;0;0.059167;8.155;5.37713
479000;480;26.8522;1.09707;0.0425961;-2.41223;26.7393;-0.478049;-0.162001;1.0859;-0.882242;-0.0925236;-0.471683;-0.540144;0.72305;-7.37232;-0.00781393;0.00315478;0.040369;0.0405747;-0.00801961;0.0242972;0.193563;5.16629;0.0300815;0.0323962;5.05943;0.197651;86.7363;131.736;-0.0026056;-0.00781313;0.00343059;0.00289174;0.0403681;-0.00600195;0.00682985;0;0.0272277;-0.251833;-1.52886;-1.41947;2.10136;-7.82063;-0.00599982;0.000153086;0.0408648;0.0408653;-0.00600032;0.0234328;0.146821;6.811;0.0294481;0.0312437;6.81052;0.146832;95.7864;140.786;-0.00433146;-0.00600602;0.00399387;-0.00351477;0.0408571;-0.00187323;0.0486607;0;0.0584911;8.15643;5.38251
480000;481;26.8599;1.1048;0.0428965;-2.41255;26.7469;-0.487053;-0.162323;1.09348;-0.891246;-0.092484;-0.469975;-0.543581;0.724507;-7.37576;-0.00789138;0.00345662;0.0413705;0.0416118;-0.00813275;0.0248723;0.190749;5.24249;0.030812;0.0331631;5.11658;0.195443;86.1838;131.184;-0.00270835;-0.00789103;0.00356496;0.0033534;0.0413701;-0.0052743;0.00416606;0;0.0305469;-0.252678;-1.53491;-1.42377;2.10877;-7.82493;-0.00610783;0.000248825;0.0414232;0.0414245;-0.00610913;0.0237668;0.14745;6.78198;0.0298617;0.0316891;6.78075;0.147476;94.7301;139.73;-0.00436523;-0.00611193;0.00351213;-0.00286554;0.0414173;-0.00262047;0.0465524;0;0.059852;8.15655;5.38949
481000;482;26.8697;1.11454;0.0432747;-2.41386;26.7565;-0.489493;-0.163635;1.1031;-0.893687;-0.0927253;-0.465807;-0.549615;0.726396;-7.38179;-0.00784431;0.00338036;0.0414637;0.0416944;-0.00807498;0.0248847;0.189185;5.28583;0.0308423;0.0331796;5.16341;0.193671;86.3304;131.33;-0.00189911;-0.00784386;0.00352335;0.00324414;0.0414632;-0.00717303;0.00505616;0;0.0349261;-0.253096;-1.54012;-1.43;2.11682;-7.83116;-0.00595124;0.000497354;0.0412608;0.0412661;-0.00595648;0.0236113;0.144235;6.93315;0.029696;0.0314817;6.92793;0.144343;94.0409;139.041;-0.00423735;-0.00595395;0.00350472;-0.00237366;0.0412551;-0.00125467;0.0451979;0;0.0610018;8.16703;5.39741
482000;483;26.8743;1.1192;0.0434555;-2.41482;26.761;-0.496426;-0.164589;1.10756;-0.900619;-0.0929711;-0.468517;-0.538914;0.720126;-7.37109;-0.00797127;0.00273697;0.042411;0.0425592;-0.00811952;0.0253394;0.187953;5.32048;0.0314309;0.0337858;5.2416;0.190782;87.2698;132.27;-0.00265037;-0.00797069;0.00296892;0.00251624;0.0424103;-0.00504915;0.00465571;0;0.0259014;-0.253901;-1.54848;-1.42441;2.11924;-7.82557;-0.00584488;0.000568251;0.0414134;0.0414203;-0.00585171;0.023636;0.141135;7.08542;0.0297565;0.0315146;7.07831;0.141277;93.9353;138.935;-0.00400273;-0.00584741;0.00358466;-0.00231128;0.0414074;0.000473425;0.042941;0;0.0624227;8.16866;5.40483
483000;484;26.8849;1.12976;0.0438653;-2.41531;26.7718;-0.4836;-0.165083;1.11835;-0.887793;-0.0943377;-0.464235;-0.550073;0.725944;-7.38225;-0.00801049;0.00313091;0.042283;0.0424771;-0.00820465;0.0253409;0.18945;5.27845;0.0314122;0.0337879;5.1772;0.193154;86.9015;131.902;-0.00293145;-0.00800968;0.00341154;0.00286383;0.0422821;-0.0054861;0.00518224;0;0.0263283;-0.256202;-1.55408;-1.43309;2.12945;-7.83425;-0.00614327;0.000361535;0.0416947;0.0416975;-0.006146;0.0239217;0.147339;6.78706;0.0300572;0.0318957;6.78449;0.147395;94.6303;139.63;-0.00538413;-0.00614713;0.0036697;-0.00279471;0.0416883;0.00253558;0.0457978;0;0.0615302;8.16952;5.4122
484000;485;26.8933;1.13816;0.0441918;-2.41514;26.7803;-0.482792;-0.164908;1.12682;-0.886985;-0.0923502;-0.464661;-0.548314;0.724628;-7.38049;-0.00769896;0.00317493;0.0423352;0.0425359;-0.00789962;0.0252178;0.181857;5.49883;0.0313243;0.0336237;5.38455;0.185717;86.3643;131.364;-0.00162368;-0.00769899;0.00316279;0.00318649;0.0423353;-0.00723698;0.00554284;0;0.0251172;-0.254794;-1.56281;-1.43104;2.13428;-7.8322;-0.00629517;-0.000148562;0.0423692;0.0423696;-0.00629562;0.0243326;0.148579;6.73043;0.0305619;0.0324435;6.73001;0.148588;95.7672;140.767;-0.00546864;-0.00630202;0.0035702;-0.00369371;0.0423631;-0.00145352;0.0496639;0;0.0638672;8.17015;5.41937
485000;486;26.9036;1.14852;0.0445939;-2.4161;26.7907;-0.475473;-0.16587;1.13727;-0.879666;-0.0941525;-0.462801;-0.545044;0.721195;-7.37722;-0.00812789;0.00305871;0.0432951;0.0434764;-0.00830919;0.0258928;0.187732;5.32673;0.0321143;0.0345237;5.23233;0.19112;86.9896;131.99;-0.00239957;-0.0081272;0.00330313;0.00282634;0.0432943;-0.00588177;0.00306961;0;0.0240317;-0.257327;-1.56913;-1.42973;2.13834;-7.8309;-0.00628875;-0.00010189;0.0429973;0.0429975;-0.00628896;0.0246432;0.146259;6.83718;0.0309749;0.0328577;6.83698;0.146263;96.1321;141.132;-0.00623779;-0.00629675;0.00397844;-0.00398941;0.0429897;0.000255141;0.0526973;0;0.0598733;8.17075;5.42694
486000;487;26.9106;1.15549;0.0448646;-2.41628;26.7975;-0.484152;-0.166049;1.1441;-0.888345;-0.0950303;-0.462302;-0.543786;0.72004;-7.37596;-0.00815205;0.0028398;0.0436196;0.0437749;-0.00830735;0.0260411;0.18689;5.35075;0.0323103;0.0347215;5.26942;0.189774;87.1745;132.175;-0.00206415;-0.00815153;0.00303675;0.00265263;0.043619;-0.00582787;0.00539541;0;0.0268789;-0.258751;-1.57558;-1.43359;2.14583;-7.83476;-0.00599714;-1.39041e-05;0.0435501;0.0435501;-0.00599715;0.0247736;0.137707;7.26181;0.031225;0.0330315;7.26181;0.137707;95.824;140.824;-0.00675192;-0.00600461;0.00401545;-0.00385195;0.0435424;0.00132727;0.0559645;0;0.0628655;8.17474;5.43371
487000;488;26.9216;1.16649;0.0452916;-2.41667;26.8086;-0.478568;-0.166444;1.15521;-0.882761;-0.0950182;-0.459455;-0.546525;0.720289;-7.3787;-0.00810611;0.00286329;0.044273;0.0444291;-0.00826216;0.0263456;0.183094;5.46169;0.032723;0.0351275;5.37741;0.185963;87.249;132.249;-0.00234015;-0.00810547;0.00310635;0.00263243;0.0442723;-0.0058549;0.00397697;0;0.0383798;-0.259775;-1.58123;-1.43833;2.15327;-7.83949;-0.00589715;0.000192369;0.0435656;0.0435663;-0.00589789;0.0247321;0.135363;7.38757;0.0311966;0.0329761;7.38676;0.135377;95.1903;140.19;-0.00660868;-0.00590291;0.00395234;-0.00338939;0.0435581;0.00390881;0.053809;0;0.0622923;8.17789;5.43887
488000;489;26.93;1.17487;0.0456168;-2.41963;26.8166;-0.487619;-0.169396;1.16319;-0.891812;-0.0958557;-0.457649;-0.553898;0.724868;-7.38607;-0.00815122;0.00289098;0.0445928;0.0447508;-0.00830921;0.02653;0.182792;5.47069;0.0329546;0.0353733;5.38568;0.185677;87.0347;132.035;-0.00285757;-0.00815093;0.00299909;0.00278833;0.0445925;-0.0047815;0.00373979;0;0.0243848;-0.261723;-1.58879;-1.44042;2.16045;-7.84159;-0.0057623;0.00054789;0.0436512;0.0436572;-0.00576837;0.0247128;0.132008;7.5753;0.0312058;0.0329504;7.56838;0.132129;94.3073;139.307;-0.00554384;-0.00576591;0.0039942;-0.00273525;0.0436437;0.000869695;0.0524981;0;0.0691011;8.18017;5.44315
489000;490;26.9358;1.18071;0.0458437;-2.41936;26.8224;-0.494814;-0.169132;1.16895;-0.899007;-0.0960698;-0.456569;-0.552921;0.723468;-7.3851;-0.00804229;0.00265476;0.0450724;0.0452047;-0.00817465;0.0266897;0.178431;5.60442;0.0331986;0.0355863;5.52987;0.180836;87.5278;132.528;-0.00275268;-0.00804166;0.00291283;0.00240979;0.0450717;-0.00579913;0.00345244;0;0.0279965;-0.261644;-1.59422;-1.44353;2.16651;-7.84469;-0.00596378;0.000584621;0.0436951;0.0437019;-0.00597066;0.0248363;0.136486;7.32674;0.0313152;0.0331151;7.31945;0.136622;93.4986;138.499;-0.00492045;-0.00596597;0.00347382;-0.00216711;0.0436894;0.000781282;0.0477481;0;0.0646728;8.18886;5.44904
490000;491;26.9442;1.18909;0.046169;-2.41992;26.8307;-0.497381;-0.169686;1.17726;-0.901574;-0.0969332;-0.455785;-0.553149;0.723263;-7.38532;-0.00810823;0.00283482;0.0450288;0.0451796;-0.00825904;0.0267193;0.180068;5.55346;0.0332168;0.0356257;5.47032;0.182805;87.2779;132.278;-0.0025822;-0.00810767;0.00305236;0.00262834;0.0450281;-0.00588983;0.00349465;0;0.0276005;-0.263602;-1.60303;-1.44241;2.1725;-7.84357;-0.0057465;0.000692049;0.0438105;0.0438202;-0.00575616;0.0247882;0.131167;7.62386;0.031309;0.0330509;7.61274;0.131359;93.1061;138.106;-0.00350382;-0.00574808;0.00341807;-0.00190455;0.0438051;-0.00242326;0.0456567;0;0.0656502;8.19634;5.45664
491000;492;26.9494;1.1943;0.0463714;-2.4199;26.8359;-0.500508;-0.169666;1.18244;-0.904701;-0.098064;-0.454857;-0.551833;0.721825;-7.38401;-0.00821434;0.00231093;0.0459106;0.0460091;-0.00831283;0.0271609;0.17892;5.58907;0.0337863;0.0362146;5.5347;0.180678;88.0431;133.043;-0.0024523;-0.00821366;0.00264367;0.0019954;0.0459098;-0.00577821;0.00430616;0;0.0261606;-0.264765;-1.60842;-1.44639;2.17926;-7.84756;-0.00581192;0.000514155;0.0441057;0.044111;-0.00581722;0.0249641;0.131773;7.58884;0.0315258;0.0332855;7.58284;0.131877;94.1823;139.182;-0.00546755;-0.00581542;0.00387649;-0.00268744;0.0440986;0.00366953;0.0473207;0;0.0653132;8.19632;5.46354
492000;493;26.9596;1.20444;0.0467651;-2.42008;26.8463;-0.48897;-0.169846;1.19282;-0.893163;-0.097813;-0.452624;-0.55517;0.722945;-7.38735;-0.00815321;0.00248083;0.0458115;0.0459253;-0.00826702;0.0270962;0.177973;5.61883;0.0337122;0.0361282;5.55525;0.18001;87.8761;132.876;-0.00314341;-0.00815244;0.0028264;0.0021531;0.0458107;-0.00559292;0.00292223;0;0.0246372;-0.265136;-1.61587;-1.44923;2.18668;-7.85039;-0.00604815;0.000134483;0.0450589;0.0450593;-0.00604851;0.0255539;0.134228;7.45003;0.0322453;0.0340718;7.44965;0.134234;94.7827;139.783;-0.00592406;-0.00605342;0.00368101;-0.00323861;0.0450524;0.00109071;0.0506625;0;0.0636949;8.19592;5.47098
493000;494;26.9713;1.21615;0.0472198;-2.42159;26.8581;-0.479042;-0.171364;1.20462;-0.883235;-0.0968878;-0.449734;-0.557451;0.722773;-7.38963;-0.00789411;0.00252414;0.0462657;0.0463831;-0.00801149;0.0271973;0.170626;5.86078;0.0339095;0.036263;5.78956;0.172725;87.7966;132.797;-0.00276326;-0.00789338;0.00284593;0.00221901;0.0462648;-0.00664269;0.00281173;0;0.0262924;-0.265823;-1.62143;-1.4507;2.19186;-7.85187;-0.00615946;0.000129235;0.0456318;0.0456321;-0.00615978;0.0258959;0.134982;7.40841;0.0326688;0.0345279;7.40807;0.134988;94.9679;139.968;-0.0055814;-0.0061653;0.00385164;-0.0034088;0.0456247;-0.000930467;0.0547159;0;0.0657991;8.19277;5.47723
494000;495;26.9804;1.22525;0.0475729;-2.42379;26.867;-0.480792;-0.17356;1.21353;-0.884985;-0.0972897;-0.447875;-0.560206;0.723801;-7.39238;-0.00793303;0.00248338;0.0462318;0.0463454;-0.00804666;0.027196;0.171593;5.82775;0.033899;0.0362614;5.75958;0.173624;87.9866;132.987;-0.00249789;-0.00793211;0.00290735;0.00208135;0.0462307;-0.00582594;0.00432956;0;0.0291007;-0.267136;-1.62819;-1.45254;2.19824;-7.8537;-0.00607362;-3.08448e-05;0.0459829;0.0459829;-0.00607363;0.0260283;0.132084;7.57092;0.0328674;0.0347043;7.5709;0.132085;94.968;139.968;-0.00682343;-0.00607971;0.00360102;-0.00348196;0.0459767;0.00168747;0.0551151;0;0.0653987;8.19636;5.48475
495000;496;26.9902;1.23507;0.0479544;-2.42258;26.8769;-0.480614;-0.172347;1.22351;-0.884807;-0.0975131;-0.445686;-0.561461;0.723452;-7.39364;-0.0079218;0.00226479;0.046879;0.0469725;-0.00801524;0.0274939;0.168984;5.91773;0.0343003;0.0366585;5.8604;0.170637;88.2366;133.237;-0.00344851;-0.00792096;0.00269129;0.00186061;0.046878;-0.0048156;0.00329214;0;0.0262852;-0.267607;-1.63442;-1.45712;2.20593;-7.85828;-0.0057816;0.000258382;0.046411;0.0464123;-0.00578288;0.0260976;0.124574;8.02738;0.0330383;0.0347968;8.02582;0.124598;94.6619;139.662;-0.00658567;-0.00578692;0.00396617;-0.00326448;0.0464036;0.00335136;0.0519224;0;0.0646921;8.19999;5.49196
496000;497;26.9963;1.24114;0.04819;-2.42415;26.8827;-0.491549;-0.173916;1.22926;-0.895742;-0.0975491;-0.444413;-0.563395;0.724177;-7.39557;-0.00788371;0.00210319;0.0473131;0.0473931;-0.00796374;0.0276784;0.166629;6.00137;0.0345572;0.0369046;5.95111;0.168036;88.667;133.667;-0.00340862;-0.00788266;0.00271306;0.00152547;0.0473117;-0.00643107;0.00223919;0;0.0274902;-0.268396;-1.64073;-1.4604;2.21287;-7.86156;-0.00594256;0.000381447;0.0464587;0.0464615;-0.00594533;0.0262034;0.12791;7.81797;0.0331344;0.0349379;7.81479;0.127963;93.9173;138.917;-0.00639218;-0.00594612;0.00361432;-0.00268955;0.0464526;0.00684527;0.0502704;0;0.0685904;8.20635;5.49965
497000;498;27.0044;1.24929;0.0485065;-2.42559;26.8907;-0.497066;-0.175358;1.23721;-0.901259;-0.0980321;-0.443049;-0.562163;0.722447;-7.39434;-0.00777051;0.00227306;0.0475968;0.04769;-0.00786367;0.0277768;0.163257;6.12532;0.0347127;0.0370358;6.0646;0.164891;88.506;133.506;-0.00307823;-0.00776934;0.00289436;0.00168461;0.0475953;-0.00691652;0.00344699;0;0.0320287;-0.269659;-1.64697;-1.46041;2.21767;-7.86158;-0.00571523;0.000769079;0.0462805;0.0462919;-0.00572661;0.0260093;0.123491;8.09775;0.0329365;0.034679;8.08365;0.123706;93.5323;138.532;-0.00720761;-0.00571769;0.00403961;-0.00233892;0.046273;0.00692998;0.0522741;0;0.0715039;8.21402;5.50649
498000;499;27.0124;1.25724;0.0488151;-2.42768;26.8984;-0.50158;-0.177455;1.24492;-0.905773;-0.0981146;-0.442621;-0.557297;0.718415;-7.38947;-0.00810134;0.00211024;0.0481269;0.048206;-0.00818043;0.0281932;0.168333;5.94061;0.0351826;0.037591;5.89285;0.169697;88.7537;133.754;-0.00242202;-0.00810021;0.00276946;0.00148639;0.0481254;-0.00595332;0.00233767;0;0.0275865;-0.270599;-1.6543;-1.45923;2.22245;-7.86039;-0.00561934;0.000916727;0.0462293;0.0462455;-0.00563555;0.0259405;0.121554;8.22681;0.0328703;0.0345874;8.20604;0.121862;92.8715;137.872;-0.00610296;-0.00562062;0.00381529;-0.0018382;0.0462227;0.00533349;0.0501226;0;0.0688438;8.21487;5.51391
499000;500;27.0196;1.26451;0.0490975;-2.42684;26.9059;-0.493048;-0.17661;1.25246;-0.897241;-0.0991573;-0.441219;-0.560844;0.720453;-7.39302;-0.00798476;0.00197273;0.0482008;0.04827;-0.00805394;0.028162;0.165656;6.0366;0.0351734;0.0375493;5.99334;0.166852;88.6018;133.602;-0.0037276;-0.00798401;0.00242173;0.00154779;0.0481999;-0.00517769;0.000994197;0;0.0340739;-0.271539;-1.66116;-1.46262;2.2299;-7.86379;-0.00588105;0.000749028;0.0463048;0.0463155;-0.0058918;0.0261037;0.127007;7.87356;0.0330167;0.0348049;7.86102;0.12721;92.8285;137.828;-0.0041825;-0.00588244;0.00345905;-0.00182584;0.0462993;-0.000530721;0.0496046;0;0.0669317;8.21346;5.5196
500000;501;27.0264;1.27131;0.0493614;-2.43049;26.9122;-0.504045;-0.18026;1.25875;-0.908238;-0.0974137;-0.440735;-0.554368;0.714885;-7.38654;-0.00810589;0.00216417;0.0487525;0.0488347;-0.00818815;0.0285114;0.166266;6.01445;0.0356011;0.0380153;5.96407;0.167671;88.6567;133.657;-0.00300806;-0.00810479;0.00278435;0.00157761;0.048751;-0.00703147;0.00116694;0;0.026985;-0.271148;-1.66854;-1.4588;2.23286;-7.85997;-0.00561473;0.000408375;0.046893;0.0468962;-0.00561791;0.026257;0.119735;8.35177;0.0332951;0.0350094;8.34762;0.119795;94.352;139.352;-0.00552492;-0.00561936;0.0040621;-0.0030621;0.0468852;0.000843953;0.0495208;0;0.0659555;8.22129;5.52414
501000;502;27.0381;1.28299;0.0498148;-2.43106;26.924;-0.495592;-0.180826;1.27059;-0.899785;-0.100157;-0.436054;-0.562691;0.718885;-7.39487;-0.00778773;0.00173928;0.0489484;0.0490017;-0.007841;0.0284213;0.159101;6.28532;0.0355707;0.0378951;6.24941;0.160015;89.2145;134.214;-0.00365198;-0.00778676;0.00246954;0.00104852;0.0489469;-0.00561382;0.0027029;0;0.0298352;-0.274451;-1.67426;-1.4677;2.24335;-7.86886;-0.00587465;0.000306126;0.0479609;0.0479626;-0.00587639;0.0269195;0.122488;8.16405;0.0341031;0.0358927;8.16192;0.12252;94.4275;139.427;-0.0059405;-0.00587974;0.0040001;-0.00319809;0.0479533;0.000570137;0.0559508;0;0.0701543;8.22534;5.53192
502000;503;27.0508;1.29567;0.0503073;-2.42961;26.9371;-0.48704;-0.179376;1.28361;-0.891233;-0.10025;-0.43617;-0.564449;0.720345;-7.39662;-0.00795865;0.001866;0.0485623;0.0486239;-0.00802019;0.028322;0.163885;6.10183;0.0353935;0.0377627;6.06268;0.164944;88.9551;133.955;-0.0038941;-0.00795771;0.00249327;0.00127254;0.048561;-0.00348601;0.000984945;0;0.0304076;-0.274919;-1.68259;-1.471;2.25178;-7.87217;-0.00585711;9.80898e-05;0.049102;0.0491022;-0.00585729;0.0274797;0.119285;8.38331;0.0348517;0.0366397;8.38309;0.119288;94.5929;139.593;-0.00722385;-0.00586312;0.00385064;-0.00345787;0.049095;0.00331272;0.0583587;0;0.0679617;8.22265;5.53629
503000;504;27.0593;1.30419;0.050638;-2.43135;26.9454;-0.489462;-0.181117;1.29196;-0.893655;-0.0989664;-0.433832;-0.564889;0.7191;-7.39706;-0.00787788;0.00211591;0.0495692;0.0496471;-0.00795571;0.0288014;0.158927;6.29221;0.0360438;0.0384019;6.24043;0.160245;88.7503;133.75;-0.0041237;-0.00787675;0.00277053;0.00149712;0.0495677;-0.0043388;0.00076683;0;0.0303395;-0.275379;-1.68931;-1.46996;2.25618;-7.87112;-0.00589902;0.000297009;0.0490727;0.0490743;-0.00590062;0.0274875;0.12021;8.31879;0.03485;0.0366499;8.3168;0.120239;93.9219;138.922;-0.00615653;-0.00590319;0.00366731;-0.00289669;0.0490663;0.00157824;0.0552191;0;0.0695925;8.21998;5.54361
504000;505;27.0646;1.3095;0.0508441;-2.43181;26.9505;-0.502021;-0.181582;1.29702;-0.906214;-0.100999;-0.43387;-0.563049;0.717961;-7.39523;-0.00788619;0.00164136;0.0495699;0.0496168;-0.00793304;0.0287749;0.159092;6.28566;0.0360146;0.0383665;6.25444;0.159886;89.0973;134.097;-0.00420307;-0.00788546;0.00220068;0.00111267;0.0495689;-0.00303679;0.000339486;0;0.0321973;-0.276773;-1.69539;-1.47412;2.26362;-7.87528;-0.00585232;0.000620133;0.0486518;0.0486589;-0.00585937;0.0272591;0.12029;8.31326;0.0345584;0.0363455;8.30445;0.120417;93.3248;138.325;-0.00648638;-0.00585491;0.00375592;-0.00235267;0.0486453;0.00683699;0.0514083;0;0.0714576;8.23288;5.55067
505000;506;27.0713;1.31618;0.0511036;-2.43288;26.9569;-0.512008;-0.182653;1.30345;-0.916201;-0.101171;-0.429715;-0.568817;0.72003;-7.40099;-0.00756837;0.00163565;0.0494867;0.0495336;-0.00761522;0.0285744;0.152937;6.53862;0.0358316;0.0380992;6.50455;0.153739;89.3139;134.314;-0.00439471;-0.00756747;0.00236894;0.00094222;0.0494853;-0.00443547;0.000564859;0;0.0364085;-0.278247;-1.70076;-1.4787;2.2708;-7.87986;-0.00582193;0.000906272;0.0486098;0.0486249;-0.00583702;0.027231;0.119769;8.34943;0.0345271;0.036308;8.33044;0.120042;92.7012;137.701;-0.00667196;-0.00582319;0.00378445;-0.00182252;0.0486034;0.00708997;0.052669;0;0.0722271;8.22894;5.55822
506000;507;27.0813;1.32621;0.051493;-2.43418;26.9669;-0.51066;-0.18395;1.31343;-0.914853;-0.10059;-0.425453;-0.57584;0.722994;-7.40802;-0.00742933;0.00162687;0.0498148;0.049861;-0.00747553;0.0286683;0.149139;6.70515;0.0359922;0.0382243;6.66989;0.149928;89.3039;134.304;-0.00561014;-0.00742845;0.00234978;0.000943369;0.0498134;-0.00207301;-0.000158607;0;0.0319303;-0.278863;-1.70491;-1.48399;2.27743;-7.88515;-0.00560566;0.00110909;0.0487815;0.0488041;-0.00562826;0.0272162;0.114914;8.7022;0.0345653;0.0362883;8.67126;0.115324;92.4007;137.401;-0.00594533;-0.00560629;0.00394448;-0.00157928;0.0487747;0.00565892;0.0521526;0;0.0732103;8.22971;5.56512
507000;508;27.0864;1.3313;0.0516907;-2.433;26.9721;-0.509677;-0.182768;1.31867;-0.91387;-0.102241;-0.426059;-0.571478;0.720116;-7.40365;-0.00771097;0.0013204;0.0496039;0.0496343;-0.00774137;0.0286879;0.155451;6.43291;0.0359489;0.0382505;6.41157;0.155968;89.6877;134.688;-0.00525105;-0.00771026;0.00209337;0.000589644;0.0496027;-0.0036357;-0.000960591;0;0.0358697;-0.28026;-1.71277;-1.48462;2.2839;-7.88578;-0.00557946;0.0012134;0.0486353;0.0486625;-0.0056066;0.0271345;0.11472;8.71686;0.0344629;0.0361794;8.6795;0.115214;92.298;137.298;-0.00488972;-0.00557981;0.00404936;-0.00147594;0.0486282;0.00278337;0.055319;0;0.0709662;8.24385;5.57267
508000;509;27.0959;1.34078;0.0520586;-2.43374;26.9817;-0.501052;-0.183507;1.32828;-0.905245;-0.102513;-0.423672;-0.572288;0.719389;-7.40446;-0.007499;0.00117434;0.0497728;0.0497969;-0.00752306;0.02866;0.150665;6.63726;0.0359688;0.0382133;6.61923;0.151075;89.9301;134.93;-0.00481097;-0.00749837;0.00203008;0.00036528;0.0497715;-0.00300559;-0.0014127;0;0.0326529;-0.281717;-1.71904;-1.48617;2.2898;-7.88734;-0.00572264;0.000884158;0.0490284;0.0490427;-0.00573692;0.0273898;0.116721;8.56745;0.0347656;0.0365198;8.54862;0.116978;93.2101;138.21;-0.00671011;-0.00572478;0.00418651;-0.00224585;0.0490205;0.0062909;0.0564235;0;0.0731381;8.24014;5.58006
509000;510;27.1069;1.35176;0.0524852;-2.43551;26.9926;-0.501554;-0.185285;1.33914;-0.905748;-0.10325;-0.419834;-0.576935;0.720954;-7.40911;-0.00740995;0.00130196;0.0506943;0.0507235;-0.00743911;0.0290813;0.146169;6.84138;0.0365486;0.0387751;6.81849;0.14666;89.6753;134.675;-0.00501753;-0.00740927;0.00206286;0.000583137;0.0506931;-0.00300624;-0.000300136;0;0.0327397;-0.283199;-1.72416;-1.4938;2.29878;-7.89496;-0.00601218;0.000527657;0.0500372;0.0500421;-0.00601715;0.0280296;0.120154;8.32263;0.0355374;0.0373729;8.31658;0.120242;93.7285;138.729;-0.00697562;-0.00601587;0.00399763;-0.0027571;0.0500297;0.00645455;0.0579603;0;0.0730013;8.2373;5.58713
510000;511;27.1185;1.36341;0.0529372;-2.4371;27.0041;-0.504866;-0.18687;1.35063;-0.90906;-0.103703;-0.418483;-0.577792;0.72092;-7.40997;-0.00726626;0.00114076;0.0502269;0.0502495;-0.00728889;0.0287692;0.144669;6.91234;0.0361749;0.0383589;6.89399;0.145054;89.7495;134.749;-0.00505959;-0.00726572;0.00183847;0.000481251;0.0502259;-0.0019279;6.3195e-05;0;0.03124;-0.284599;-1.73179;-1.49624;2.30626;-7.8974;-0.00617596;0.000166873;0.0517458;0.0517463;-0.00617644;0.0289614;0.119352;8.37858;0.0367298;0.0386151;8.378;0.11936;94.1875;139.187;-0.00665553;-0.00618143;0.00383702;-0.00330115;0.0517388;0.00332246;0.0611177;0;0.0701215;8.24742;5.59202
511000;512;27.1267;1.37157;0.0532544;-2.43712;27.0121;-0.512136;-0.186895;1.35869;-0.916329;-0.104231;-0.416491;-0.577419;0.719543;-7.4096;-0.00729805;0.00111136;0.0501956;0.050217;-0.00731953;0.0287683;0.145392;6.87794;0.0361656;0.0383577;6.86069;0.145758;89.7004;134.7;-0.00466085;-0.00729756;0.00174638;0.000511115;0.0501947;-0.0018218;0.00208719;0;0.0295344;-0.285498;-1.73751;-1.49782;2.31169;-7.89898;-0.00612436;0.000134858;0.0524045;0.0524048;-0.00612467;0.0292647;0.116867;8.55673;0.0371468;0.0390196;8.55635;0.116872;94.2521;139.252;-0.00704791;-0.00613021;0.00389208;-0.00341341;0.0523973;0.00476558;0.0635802;0;0.0692621;8.24379;5.59721
512000;513;27.1329;1.37777;0.0534951;-2.43785;27.0181;-0.522687;-0.187617;1.36465;-0.92688;-0.10477;-0.414693;-0.578202;0.719212;-7.41038;-0.00721597;0.000901202;0.0504581;0.0504722;-0.00723005;0.0288511;0.143009;6.99256;0.036299;0.0384682;6.98089;0.143248;89.6914;134.691;-0.00484006;-0.00721567;0.00136617;0.000461763;0.0504576;-0.000529943;-0.000751049;0;0.0335726;-0.287212;-1.74409;-1.50019;2.31839;-7.90136;-0.00638042;0.000436297;0.0520474;0.0520506;-0.00638367;0.0292171;0.122589;8.15736;0.0370123;0.0389562;8.15371;0.122644;93.0545;138.054;-0.00710598;-0.00638306;0.00337125;-0.00233566;0.052042;0.00893383;0.059388;0;0.0715786;8.25124;5.60271
513000;514;27.1383;1.38317;0.0537047;-2.43792;27.0234;-0.529312;-0.187689;1.36994;-0.933505;-0.10497;-0.413643;-0.578843;0.719151;-7.41102;-0.00721526;0.000975807;0.0511348;0.0511511;-0.00723157;0.0291913;0.141103;7.08703;0.0367492;0.0389218;7.0733;0.141377;89.5619;134.562;-0.0054001;-0.00721495;0.00139465;0.000580216;0.0511343;1.56605e-05;-0.000641787;0;0.0302747;-0.28772;-1.75145;-1.50156;2.32488;-7.90272;-0.00616652;0.00105451;0.0512423;0.0512617;-0.00618589;0.0287238;0.12034;8.30976;0.036412;0.0382984;8.28688;0.120673;92.4469;137.447;-0.00700333;-0.00616741;0.00396314;-0.00169529;0.0512354;0.00928914;0.0583869;0;0.0732224;8.25523;5.60995
514000;515;27.1463;1.39118;0.0540158;-2.43859;27.0313;-0.532147;-0.188356;1.37787;-0.93634;-0.104974;-0.412047;-0.579111;0.718451;-7.41129;-0.00714788;0.000907627;0.0516405;0.0516545;-0.00716188;0.0294082;0.138416;7.22459;0.037055;0.0392109;7.21241;0.13865;89.7345;134.734;-0.00480115;-0.00714755;0.00141303;0.00043048;0.0516399;0.000136785;-9.93995e-05;0;0.0333728;-0.288133;-1.75804;-1.50263;2.33059;-7.9038;-0.00611656;0.00126907;0.0513186;0.0513466;-0.00614458;0.0287456;0.119188;8.39011;0.0364523;0.0383275;8.35641;0.119669;91.9708;136.971;-0.0051993;-0.00611657;0.00396487;-0.00127947;0.0513119;0.00700948;0.0577162;0;0.0732154;8.25512;5.61705
515000;516;27.1556;1.40047;0.0543764;-2.4387;27.0408;-0.523306;-0.188467;1.38736;-0.927499;-0.104682;-0.411127;-0.575993;0.715369;-7.40817;-0.00734883;0.000955508;0.0520315;0.0520469;-0.00736421;0.0297055;0.141238;7.08024;0.0373951;0.0396074;7.06755;0.141492;89.6063;134.606;-0.00451536;-0.00734852;0.00138869;0.000546776;0.052031;0.00031298;0.000920382;0;0.03048;-0.288378;-1.76472;-1.49936;2.33356;-7.90053;-0.00600194;0.001343;0.0511938;0.0512253;-0.00603346;0.0286294;0.11724;8.52953;0.0363287;0.0381725;8.4902;0.117783;91.8257;136.826;-0.00498595;-0.0060017;0.00398249;-0.00115289;0.0511871;0.0035168;0.0592242;0;0.0736082;8.25583;5.62425
516000;517;27.1614;1.40624;0.0546005;-2.43919;27.0465;-0.526893;-0.188959;1.39304;-0.931086;-0.104742;-0.408921;-0.579312;0.716791;-7.41149;-0.00718206;0.00107566;0.052066;0.0520855;-0.00720158;0.0296436;0.137941;7.24945;0.0373563;0.0395247;7.23251;0.138265;89.2154;134.215;-0.00500312;-0.00718186;0.00128595;0.000877213;0.0520658;0.000147983;-0.00048943;0;0.0318645;-0.289227;-1.77117;-1.50529;2.34235;-7.90646;-0.00579063;0.00141261;0.0514877;0.0515225;-0.00582545;0.028674;0.112466;8.89155;0.0364457;0.038232;8.84439;0.113066;92.3634;137.363;-0.00449403;-0.00579092;0.00459775;-0.00159903;0.0514786;0.00489735;0.0571668;0;0.0765395;8.26236;5.63179
517000;518;27.1731;1.41794;0.0550548;-2.44085;27.0581;-0.526244;-0.19062;1.40465;-0.930437;-0.104593;-0.404588;-0.582464;0.716865;-7.41464;-0.0070733;0.00120982;0.052258;0.0522827;-0.00709796;0.0296903;0.135353;7.38807;0.037446;0.0395871;7.36588;0.135761;89.0557;134.056;-0.00410459;-0.0070731;0.00139522;0.00103487;0.0522578;-0.000735343;-0.000748893;0;0.0396369;-0.290382;-1.77633;-1.51048;2.34973;-7.91165;-0.00610616;0.000958731;0.0520442;0.05206;-0.00612196;0.029091;0.117326;8.52324;0.0369169;0.038788;8.50382;0.117594;92.8962;137.896;-0.00647967;-0.00610796;0.00421839;-0.00212076;0.0520362;0.00417638;0.0613764;0;0.0811211;8.26592;5.63913
518000;519;27.1848;1.42963;0.0555087;-2.44119;27.0699;-0.523352;-0.190958;1.41642;-0.927545;-0.105299;-0.404235;-0.581515;0.715998;-7.41369;-0.00709363;0.00110228;0.0522766;0.052297;-0.00711409;0.0297056;0.135694;7.3695;0.0374619;0.0396074;7.35119;0.136032;89.0029;134.003;-0.00405965;-0.00709358;0.00115721;0.00105044;0.0522765;-0.000590627;-0.000808849;0;0.035816;-0.291827;-1.78421;-1.51256;2.3572;-7.91372;-0.0062814;0.000382012;0.0536241;0.0536265;-0.00628384;0.0299552;0.117138;8.53696;0.0380191;0.0399402;8.53404;0.117178;94.086;139.086;-0.00763826;-0.00628682;0.00428995;-0.00330374;0.0536154;0.00679163;0.0617301;0;0.0733409;8.26278;5.6469
519000;520;27.1949;1.43983;0.0559047;-2.44172;27.08;-0.52464;-0.191488;1.42659;-0.928833;-0.105212;-0.402019;-0.581063;0.71437;-7.41324;-0.00716873;0.000943949;0.0527762;0.0527911;-0.00718359;0.0299873;0.135833;7.362;0.0378167;0.0399831;7.34884;0.136076;89.194;134.194;-0.00442664;-0.00716866;0.00102433;0.000868147;0.0527761;0.000216436;-0.000960771;0;0.0315858;-0.292591;-1.7905;-1.51351;2.36267;-7.91468;-0.0062198;0.000254703;0.0548755;0.0548766;-0.00622087;0.0305487;0.113344;8.82271;0.0388245;0.0407316;8.82137;0.113361;94.066;139.066;-0.00736625;-0.00622561;0.00414136;-0.00340685;0.0548674;0.00965349;0.0637445;0;0.0731234;8.26596;5.65293
520000;521;27.2026;1.44745;0.0562006;-2.44315;27.0875;-0.529517;-0.192922;1.43402;-0.93371;-0.105382;-0.400789;-0.581147;0.713771;-7.41332;-0.00715157;0.00109618;0.0526163;0.0526364;-0.00717167;0.029904;0.135919;7.35731;0.0377095;0.039872;7.33949;0.136249;88.9273;133.927;-0.00335018;-0.00715159;0.00107751;0.00111379;0.0526163;0.000758763;-0.00138183;0;0.0378503;-0.293522;-1.79746;-1.51369;2.36818;-7.91485;-0.0064779;0.000400914;0.0553255;0.0553281;-0.0064805;0.0309043;0.117087;8.54064;0.0392244;0.0412057;8.53762;0.117129;93.106;138.106;-0.00787239;-0.00648112;0.00354589;-0.00255989;0.0553196;0.00918361;0.0647158;0;0.072575;8.26791;5.65794
521000;522;27.2081;1.45299;0.0564156;-2.44239;27.093;-0.535261;-0.192159;1.43953;-0.939454;-0.106049;-0.400447;-0.576548;0.709938;-7.40872;-0.00714001;0.00120646;0.0529807;0.0530049;-0.00716421;0.0300845;0.134766;7.42025;0.0379507;0.0401127;7.39856;0.135161;88.7403;133.74;-0.00475069;-0.00714012;0.0011133;0.00129431;0.0529808;0.00091209;-0.00188281;0;0.0366758;-0.29437;-1.80384;-1.51234;2.37228;-7.91351;-0.00630075;0.000686178;0.0546496;0.0546573;-0.00630847;0.0304829;0.115294;8.67351;0.0387127;0.0406438;8.66411;0.115419;92.7053;137.705;-0.00681799;-0.00630281;0.00368189;-0.00213641;0.0546434;0.00896485;0.062114;0;0.0732104;8.27006;5.66273
522000;523;27.2144;1.45931;0.0566611;-2.44394;27.099;-0.545178;-0.193707;1.44555;-0.949371;-0.106191;-0.397747;-0.578958;0.710402;-7.41113;-0.00724099;0.000705805;0.0544724;0.0544805;-0.00724906;0.0308648;0.132929;7.52279;0.0389621;0.041153;7.51552;0.133058;89.677;134.677;-0.00338971;-0.00724083;0.000994557;0.000433952;0.0544722;-0.000385628;-0.00331489;0;0.0359251;-0.295058;-1.80949;-1.51741;2.37989;-7.91857;-0.00622675;0.0011474;0.0539503;0.0539722;-0.00624862;0.0301104;0.115416;8.66428;0.0382349;0.0401472;8.63746;0.115775;92.0697;137.07;-0.00620031;-0.00622719;0.00393461;-0.00148067;0.0539436;0.0103442;0.0624629;0;0.0752721;8.27734;5.66856
523000;524;27.2224;1.4673;0.0569713;-2.44414;27.107;-0.544497;-0.193913;1.45356;-0.94869;-0.10552;-0.397352;-0.578113;0.709392;-7.41029;-0.00713611;0.000937864;0.0545008;0.0545151;-0.00715038;0.0308327;0.130936;7.63733;0.0389463;0.0411103;7.62408;0.131163;89.1658;134.166;-0.00418576;-0.00713608;0.000970435;0.000907196;0.0545008;0.00101823;-0.00113041;0;0.0334125;-0.294873;-1.81755;-1.51288;2.38311;-7.91404;-0.00599051;0.00142667;0.0538194;0.0538534;-0.00602452;0.029939;0.111308;8.98411;0.0380697;0.0399186;8.93904;0.111869;92.1247;137.125;-0.00451495;-0.00599059;0.00451293;-0.00148444;0.0538107;0.00501643;0.060937;0;0.0766504;8.27712;5.67595
524000;525;27.2307;1.47562;0.0572942;-2.44399;27.1154;-0.543488;-0.193764;1.46195;-0.947681;-0.105666;-0.393428;-0.58507;0.712922;-7.41725;-0.00718587;0.000548749;0.0552707;0.0552755;-0.00719069;0.0312331;0.130012;7.69158;0.0394662;0.0416441;7.6871;0.130088;89.5527;134.553;-0.00432558;-0.00718585;0.000598372;0.000502064;0.0552707;0.00187272;-0.00287246;0;0.035869;-0.296256;-1.82201;-1.52489;2.39432;-7.92605;-0.00590103;0.00147133;0.0538152;0.0538514;-0.00593726;0.0298943;0.109654;9.11963;0.0380348;0.0398591;9.07009;0.110253;92.127;137.127;-0.00550722;-0.00590105;0.00460539;-0.00148516;0.0538062;0.00379189;0.0620507;0;0.0838675;8.2793;5.68163
525000;526;27.2402;1.48507;0.057661;-2.44504;27.1249;-0.535702;-0.194813;1.4715;-0.939895;-0.105503;-0.390827;-0.587312;0.713311;-7.41949;-0.00728226;0.000749736;0.0548082;0.0548172;-0.00729131;0.0310543;0.132868;7.52626;0.0392019;0.0414057;7.51816;0.133011;89.2476;134.248;-0.00384606;-0.0072823;0.000696647;0.000799701;0.0548082;0.0010272;-0.00189145;0;0.0326155;-0.297026;-1.82848;-1.52706;2.40073;-7.92822;-0.00595538;0.00125796;0.0546621;0.0546882;-0.00598147;0.0303348;0.108949;9.17861;0.0386074;0.0404465;9.14293;0.109374;92.7072;137.707;-0.00609102;-0.00595671;0.00477301;-0.00205508;0.0546521;0.00460965;0.0637632;0;0.0792884;8.2805;5.68885
526000;527;27.252;1.49692;0.0581212;-2.44733;27.1367;-0.534191;-0.197105;1.48322;-0.938384;-0.106714;-0.391473;-0.583141;0.710417;-7.41532;-0.00724292;0.000802698;0.0554772;0.0554875;-0.00725319;0.0313703;0.130557;7.65951;0.0396313;0.0418271;7.65008;0.130718;89.1393;134.139;-0.00354722;-0.00724301;0.000689355;0.000909305;0.0554773;0.00123264;-0.00282361;0;0.0316239;-0.298873;-1.83694;-1.52914;2.40872;-7.9303;-0.00626935;0.000411462;0.0560401;0.0560429;-0.00627207;0.0311575;0.111872;8.93875;0.0396184;0.0415433;8.93531;0.111916;93.9577;138.958;-0.00711561;-0.00627495;0.00442095;-0.00336146;0.056031;0.00749929;0.0627478;0;0.0758393;8.28418;5.69631
527000;528;27.2652;1.51011;0.0586334;-2.447;27.15;-0.532313;-0.196766;1.49654;-0.936506;-0.107028;-0.388928;-0.585566;0.711061;-7.41774;-0.00712677;0.00107775;0.0561706;0.0561889;-0.00714512;0.031667;0.126877;7.88163;0.040054;0.0422227;7.86396;0.127162;89.0124;134.012;-0.00371239;-0.00712679;0.0010665;0.00108832;0.0561706;-0.000384903;-0.0037341;0;0.02929;-0.300019;-1.84504;-1.52687;2.41361;-7.92803;-0.00631995;0.000445733;0.0573992;0.0574023;-0.00632307;0.0318627;0.110105;9.08222;0.0405406;0.0424836;9.07824;0.110154;94.04;139.04;-0.00737249;-0.00632609;0.00466711;-0.00352127;0.057389;0.0060857;0.0663272;0;0.0775343;8.28254;5.70428
528000;529;27.2708;1.51571;0.058851;-2.44733;27.1554;-0.53969;-0.1971;1.50199;-0.943883;-0.10711;-0.385537;-0.589784;0.712711;-7.42196;-0.00721006;0.000287682;0.0559356;0.0559369;-0.00721137;0.0315741;0.128899;7.758;0.0399128;0.0420988;7.75677;0.12892;89.7255;134.726;-0.00485642;-0.00721006;0.000275621;0.000299021;0.0559356;0.00404064;0.000594848;0;0.0329501;-0.300828;-1.8487;-1.53439;2.42127;-7.93555;-0.00650567;0.000662409;0.0581222;0.058129;-0.00651246;0.0323207;0.111931;8.93408;0.0410958;0.0430943;8.9258;0.112035;93.3823;138.382;-0.0080272;-0.00650973;0.00447166;-0.00291419;0.0581129;0.00955768;0.0678237;0;0.0732076;8.28468;5.71064
529000;530;27.2779;1.52279;0.0591257;-2.44865;27.1623;-0.547449;-0.198417;1.50882;-0.951642;-0.107782;-0.384437;-0.589505;0.711986;-7.42168;-0.0071244;0.000451034;0.056046;0.0560492;-0.00712763;0.0315884;0.127117;7.86676;0.0399545;0.0421179;7.86366;0.127167;89.395;134.395;-0.00466438;-0.00712449;0.000274342;0.000617156;0.056046;0.00425924;0.000946946;0;0.0349743;-0.302348;-1.85536;-1.53573;2.4274;-7.9369;-0.00660523;0.000800297;0.058064;0.0580739;-0.00661513;0.0323445;0.113758;8.79061;0.0410988;0.043126;8.77895;0.113909;92.9162;137.916;-0.00792317;-0.00660793;0.00426434;-0.00245203;0.0580557;0.0116929;0.0660825;0;0.0713305;8.2918;5.71787
530000;531;27.2839;1.52879;0.0593586;-2.45033;27.1679;-0.560118;-0.200097;1.51444;-0.964311;-0.10772;-0.380853;-0.596695;0.716029;-7.42887;-0.00711516;0.000775325;0.0571323;0.0571417;-0.00712452;0.0321331;0.124538;8.02966;0.0406778;0.0428441;8.02043;0.124682;89.1861;134.186;-0.00408872;-0.00711525;0.000662179;0.000881594;0.0571324;0.0016324;-0.00236391;0;0.0306857;-0.303092;-1.85995;-1.54556;2.43721;-7.94672;-0.00639467;0.00114876;0.0573964;0.0574171;-0.00641535;0.0319162;0.111412;8.97566;0.0405859;0.042555;8.94995;0.111732;92.1296;137.13;-0.00653445;-0.00639539;0.00413659;-0.00165883;0.057389;0.0123197;0.0621081;0;0.0761414;8.29172;5.72477
531000;532;27.2901;1.53496;0.0595984;-2.44966;27.1742;-0.557646;-0.199435;1.52075;-0.961839;-0.106341;-0.381039;-0.588864;0.709408;-7.42104;-0.00700797;0.000588832;0.0574617;0.0574671;-0.00701335;0.0322402;0.121959;8.19948;0.0408503;0.0429869;8.19395;0.122041;89.5015;134.501;-0.00442754;-0.00700796;0.000611855;0.000567213;0.0574617;0.00306123;-0.000747503;0;0.0288304;-0.302443;-1.86797;-1.53668;2.43765;-7.93784;-0.00629033;0.00137031;0.0566175;0.0566473;-0.00632017;0.0314837;0.111102;9.00071;0.0400382;0.0419783;8.96295;0.11157;92.0258;137.026;-0.00499525;-0.00629052;0.00442187;-0.00149958;0.0566091;0.00783453;0.0651564;0;0.0800166;8.29324;5.73217
532000;533;27.2981;1.543;0.0599104;-2.44892;27.1825;-0.550722;-0.198687;1.52903;-0.954915;-0.108392;-0.380202;-0.584657;0.70578;-7.41683;-0.0072874;0.000269687;0.0583001;0.0583012;-0.00728851;0.0327949;0.124998;8.00013;0.0415108;0.0437265;7.99906;0.125015;89.9867;134.987;-0.00509319;-0.00728736;0.000479112;7.32414e-05;0.0583;0.00289676;-0.00151316;0;0.0350677;-0.304324;-1.87429;-1.53369;2.44086;-7.93485;-0.00646936;0.00157726;0.0565275;0.056567;-0.00650883;0.0315379;0.114446;8.73773;0.0400576;0.0420506;8.69081;0.115064;92.0474;137.047;-0.0054518;-0.00646918;0.00480667;-0.0014596;0.0565178;0.00761587;0.062545;0;0.0809082;8.29421;5.7371
533000;534;27.308;1.55292;0.0602954;-2.45097;27.1923;-0.548243;-0.200742;1.53885;-0.952436;-0.108469;-0.376052;-0.595505;0.712605;-7.42768;-0.00721911;0.000239405;0.0588315;0.0588324;-0.00721998;0.0330262;0.122708;8.14941;0.0418364;0.0440349;8.14855;0.122721;89.8796;134.88;-0.00411348;-0.0072191;0.000322627;0.000161374;0.0588315;0.00140043;-0.00147966;0;0.051508;-0.305976;-1.88067;-1.54897;2.45558;-7.95013;-0.00627081;0.00145304;0.0570596;0.0570929;-0.00630413;0.0316985;0.109899;9.09923;0.0403279;0.0422647;9.05642;0.110419;92.4068;137.407;-0.0048913;-0.00627146;0.00495968;-0.00184352;0.0570489;0.00489468;0.0657305;0;0.0833299;8.29663;5.7418
534000;535;27.3159;1.56079;0.0606012;-2.45039;27.2003;-0.547049;-0.200158;1.54683;-0.951242;-0.109884;-0.374918;-0.588564;0.706432;-7.42074;-0.00755296;0.000259322;0.0591105;0.0591115;-0.00755397;0.0333327;0.127777;7.82614;0.0421519;0.0444437;7.82523;0.127792;89.8061;134.806;-0.00571397;-0.00755295;0.000286943;0.000233439;0.0591105;0.00452325;-0.00132006;0;0.0390298;-0.307555;-1.88794;-1.54076;2.45619;-7.94193;-0.00649317;0.00110629;0.0579964;0.0580154;-0.00651215;0.0322638;0.111958;8.9319;0.0410203;0.0430183;8.90879;0.112249;93.0182;138.018;-0.00420331;-0.00649568;0.00493702;-0.00249096;0.0579854;0.0029988;0.0663939;0;0.0815074;8.30108;5.74767
535000;536;27.3329;1.57777;0.0612604;-2.45397;27.2172;-0.53825;-0.203743;1.56374;-0.942443;-0.107734;-0.373113;-0.596002;0.711364;-7.42818;-0.00730483;0.000701458;0.0587316;0.0587391;-0.00731228;0.0330257;0.124376;8.04011;0.0418105;0.0440342;8.03294;0.124487;89.2506;134.251;-0.00416431;-0.00730493;0.000567571;0.000826995;0.0587317;0.00104441;-0.00290782;0;0.0324079;-0.306932;-1.89593;-1.551;2.46867;-7.95216;-0.00666872;0.000648384;0.0594431;0.0594495;-0.00667508;0.0330623;0.112187;8.91372;0.0420351;0.044083;8.90619;0.112282;93.3632;138.363;-0.0067508;-0.00667294;0.00450371;-0.00296637;0.0594338;0.00751853;0.0647005;0;0.0797795;8.31102;5.7558
536000;537;27.344;1.58887;0.0616915;-2.45632;27.2282;-0.534488;-0.206088;1.57475;-0.938681;-0.106873;-0.370314;-0.596835;0.710469;-7.42901;-0.00708871;0.000603571;0.0600225;0.0600279;-0.00709414;0.033561;0.118101;8.46733;0.0425807;0.044748;8.46162;0.118181;89.498;134.498;-0.00514351;-0.0070887;0.000616506;0.000591454;0.0600225;0.00284592;-0.00554834;0;0.0347632;-0.307259;-1.90222;-1.54847;2.47196;-7.94963;-0.00637175;0.000653869;0.0602258;0.0602322;-0.00637817;0.0333052;0.105798;9.452;0.0424409;0.0444069;9.44349;0.105893;93.3323;138.332;-0.00685288;-0.00637609;0.00456026;-0.00300715;0.0602162;0.0072736;0.0679013;0;0.0778423;8.30866;5.76322
537000;538;27.3497;1.59459;0.0619135;-2.45552;27.2338;-0.546665;-0.205291;1.58032;-0.950858;-0.110422;-0.369576;-0.591537;0.706184;-7.42371;-0.00724749;0.000422087;0.0602953;0.060298;-0.00725013;0.033774;0.1202;8.31948;0.0428204;0.0450321;8.31681;0.120238;89.4117;134.412;-0.00352204;-0.0072476;0.000196004;0.000633769;0.0602954;0.00212269;-0.00285609;0;0.0321792;-0.310212;-1.90772;-1.55058;2.47788;-7.95174;-0.00672823;0.000793912;0.0607552;0.0607645;-0.00673756;0.0337511;0.110743;9.0299;0.0429321;0.0450014;9.01877;0.11088;93.686;138.686;-0.00905261;-0.00673347;0.00519027;-0.00332277;0.0607428;0.0135745;0.0718343;0;0.075272;8.30663;5.76919
538000;539;27.3553;1.60016;0.0621297;-2.4563;27.2391;-0.558423;-0.206067;1.58561;-0.962616;-0.110658;-0.36807;-0.589296;0.703555;-7.42147;-0.00730221;0.000932411;0.0608233;0.0608361;-0.00731497;0.0340755;0.120056;8.32944;0.0432026;0.045434;8.31666;0.120241;88.8517;133.852;-0.00461549;-0.00730258;0.000571369;0.00127027;0.0608236;0.0027704;-0.00382087;0;0.0332435;-0.310777;-1.9141;-1.55057;2.48287;-7.95173;-0.00671586;0.000889874;0.0603792;0.060391;-0.00672766;0.0335593;0.111228;8.99054;0.0426803;0.0447458;8.97652;0.111402;93.4586;138.459;-0.00882758;-0.00672019;0.0051111;-0.00306427;0.0603673;0.0163412;0.0692807;0;0.0739798;8.30619;5.77633
539000;540;27.3616;1.60653;0.062377;-2.4582;27.2452;-0.560891;-0.207971;1.59178;-0.965084;-0.109548;-0.3657;-0.594614;0.706613;-7.42679;-0.00713726;0.000767323;0.0607149;0.0607236;-0.00714594;0.0339348;0.117554;8.50675;0.0430625;0.0452463;8.49764;0.11768;89.0824;134.082;-0.00423237;-0.00713748;0.00049978;0.00101775;0.0607151;0.00227377;-0.00574665;0;0.0338768;-0.31125;-1.92048;-1.55374;2.48982;-7.95491;-0.0066364;0.00157305;0.0594681;0.0595055;-0.00667381;0.0330896;0.111596;8.96089;0.0420717;0.0441195;8.91626;0.112155;92.0123;137.012;-0.00587567;-0.00663634;0.00488584;-0.00153305;0.059458;0.0106295;0.0682632;0;0.0826149;8.30573;5.78311
540000;541;27.371;1.61589;0.0627407;-2.45855;27.2547;-0.555503;-0.208316;1.60127;-0.959696;-0.109008;-0.361305;-0.598827;0.707826;-7.431;-0.00748308;0.000908494;0.0611503;0.0611623;-0.0074951;0.0343287;0.122372;8.17181;0.0434891;0.0457716;8.16031;0.122544;88.8028;133.803;-0.00424996;-0.00748354;0.000472164;0.0013166;0.0611506;0.00287869;-0.00387609;0;0.0347328;-0.311497;-1.92508;-1.55836;2.49628;-7.95952;-0.00650002;0.0016462;0.0592919;0.0593331;-0.00654118;0.0329371;0.109627;9.12181;0.0419063;0.0439162;9.0707;0.110245;92.0314;137.031;-0.00537002;-0.00649985;0.00504424;-0.00154081;0.0592812;0.00905183;0.0670655;0;0.0809966;8.30802;5.79105
541000;542;27.381;1.6259;0.0631292;-2.46004;27.2648;-0.549097;-0.209809;1.61131;-0.95329;-0.10909;-0.359503;-0.599974;0.707892;-7.43215;-0.00712492;0.00111685;0.0613537;0.0613719;-0.00714313;0.0342575;0.116129;8.61114;0.0434916;0.0456767;8.59174;0.116391;88.4644;133.464;-0.00370121;-0.00712571;0.000512532;0.00168217;0.0613541;0.00206614;-0.00251736;0;0.0344846;-0.312797;-1.93332;-1.55719;2.50208;-7.95835;-0.00643335;0.00172129;0.0592376;0.0592827;-0.00647844;0.0328806;0.108602;9.2079;0.0418488;0.0438408;9.15078;0.10928;92.1843;137.184;-0.0057973;-0.00643327;0.00533901;-0.00167216;0.0592256;0.00673561;0.069218;0;0.0878279;8.31343;5.79783
542000;543;27.3883;1.6332;0.0634127;-2.45922;27.272;-0.555637;-0.208995;1.61858;-0.959831;-0.11024;-0.357516;-0.599066;0.706293;-7.43124;-0.00742032;0.00135993;0.0620964;0.062123;-0.00744692;0.034785;0.119497;8.36842;0.0441077;0.0463799;8.34211;0.119874;88.3787;133.379;-0.00334905;-0.00742109;0.00085209;0.00183454;0.0620969;0.00171931;-0.00473484;0;0.0363341;-0.314292;-1.93839;-1.56356;2.51015;-7.96355;-0.00662349;0.00119419;0.0602869;0.0603082;-0.0066448;0.0334765;0.109866;9.10197;0.0425935;0.0446353;9.07599;0.110181;93.0827;138.083;-0.00483622;-0.00662632;0.00529985;-0.00265239;0.0602743;0.00605374;0.0692887;0;0.0896331;8.31883;5.80534
543000;544;27.3943;1.63919;0.0636451;-2.4583;27.2781;-0.55805;-0.208074;1.62463;-0.962243;-0.110064;-0.354842;-0.604271;0.709345;-7.43645;-0.00727615;0.00169262;0.0622042;0.0622454;-0.00731736;0.0347814;0.116972;8.54905;0.0441387;0.0463752;8.50654;0.117557;87.9972;132.997;-0.00366433;-0.0072773;0.00107333;0.00227141;0.062205;0.00061941;-0.00337586;0;0.0354561;-0.314684;-1.94599;-1.56773;2.51866;-7.96889;-0.00670296;0.000786917;0.061548;0.0615571;-0.00671203;0.0341346;0.108906;9.18222;0.0434486;0.0455128;9.17116;0.109037;93.3173;138.317;-0.00527401;-0.00670724;0.00485613;-0.00302068;0.0615372;0.00635583;0.0673254;0;0.0830584;8.32075;5.8109
544000;545;27.4144;1.65926;0.0644247;-2.46255;27.2981;-0.546916;-0.212318;1.64464;-0.951109;-0.110489;-0.350638;-0.605788;0.708614;-7.43796;-0.00764319;0.00127697;0.062843;0.0628661;-0.00766632;0.0352662;0.121624;8.22209;0.0446859;0.0470216;8.2003;0.121947;88.4581;133.458;-0.00598431;-0.00764393;0.0007605;0.0017592;0.0628435;0.00124101;-0.00450285;0;0.0393214;-0.315864;-1.95186;-1.57148;2.52569;-7.97265;-0.00669327;0.000957178;0.0624462;0.0624595;-0.00670652;0.034583;0.107185;9.3297;0.0440457;0.0461107;9.31324;0.107374;93.296;138.296;-0.0056904;-0.00669741;0.00521468;-0.00302328;0.0624338;0.00589768;0.0696253;0;0.0802979;8.32072;5.81584
545000;546;27.4222;1.66711;0.0647292;-2.4639;27.3056;-0.557639;-0.213675;1.65217;-0.961832;-0.109355;-0.348797;-0.613808;0.714407;-7.44598;-0.00745837;0.00151594;0.0635885;0.0636208;-0.0074907;0.0355558;0.117291;8.52579;0.0451185;0.0474077;8.49331;0.11774;88.04;133.04;-0.00403134;-0.00745972;0.000746575;0.00223391;0.0635893;0.000197872;-0.00193958;0;0.0403757;-0.315685;-1.95721;-1.58144;2.536;-7.98261;-0.00650068;0.000976862;0.0631688;0.0631825;-0.00651438;0.0348484;0.10291;9.71725;0.0444525;0.0464646;9.69893;0.103104;93.1524;138.152;-0.00616081;-0.00650454;0.00516401;-0.00293592;0.0631567;0.00525753;0.0698645;0;0.0758475;8.32424;5.82311
546000;547;27.4289;1.6738;0.064989;-2.46492;27.3121;-0.563867;-0.214693;1.65867;-0.96806;-0.110954;-0.348859;-0.602727;0.70519;-7.4349;-0.00754215;0.00148125;0.0635888;0.0636196;-0.00757298;0.0355963;0.118608;8.43112;0.0451496;0.0474617;8.40086;0.119035;88.0612;133.061;-0.00385432;-0.0075435;0.000704614;0.00220594;0.0635896;0.000924003;-0.000769043;0;0.0359272;-0.317866;-1.96528;-1.57014;2.53549;-7.9713;-0.00678408;0.000969292;0.0633626;0.063376;-0.00679747;0.0350867;0.107068;9.3399;0.0446891;0.0467823;9.32347;0.107256;93.2992;138.299;-0.00784983;-0.00678835;0.00529544;-0.00307149;0.0633499;0.0154177;0.0700255;0;0.0768153;8.32219;5.82783
547000;548;27.4327;1.67753;0.065134;-2.46473;27.3155;-0.581216;-0.214496;1.66208;-0.985409;-0.110525;-0.343555;-0.608403;0.70739;-7.44058;-0.00762725;0.00139527;0.0640242;0.0640513;-0.00765441;0.0358529;0.119131;8.39414;0.0454676;0.0478038;8.3679;0.119504;88.3733;133.373;-0.00495698;-0.00762808;0.000859438;0.00189502;0.0640247;-0.00176946;-0.00355382;0;0.0389967;-0.318286;-1.96967;-1.57572;2.5424;-7.97688;-0.00654153;0.00138009;0.0631443;0.0631716;-0.00656885;0.0348702;0.103597;9.65283;0.044466;0.0464936;9.61684;0.103984;92.9302;137.93;-0.00559188;-0.00654407;0.00567885;-0.00263693;0.06313;0.0100971;0.0675803;0;0.0793614;8.32472;5.83525
548000;549;27.4438;1.68867;0.0655663;-2.46563;27.3267;-0.575917;-0.215398;1.67329;-0.98011;-0.110821;-0.341295;-0.610466;0.708119;-7.44264;-0.0076206;0.00168971;0.0640624;0.0641022;-0.00766041;0.0358813;0.118956;8.40647;0.0455037;0.0478417;8.36798;0.119503;88.0288;133.029;-0.00454275;-0.00762182;0.00103806;0.00229745;0.0640632;-0.00189775;-0.00340234;0;0.0417675;-0.319278;-1.97508;-1.5786;2.5485;-7.97976;-0.0066939;0.00150591;0.062702;0.0627347;-0.00672656;0.0347306;0.106757;9.36704;0.0442361;0.0463075;9.32641;0.107222;92.7836;137.784;-0.00651828;-0.00669573;0.00571727;-0.00243047;0.0626877;0.0121393;0.06919;0;0.0828322;8.32442;5.84236
549000;550;27.4501;1.69497;0.0658112;-2.46527;27.333;-0.581666;-0.215039;1.67953;-0.985859;-0.11042;-0.337936;-0.612794;0.708456;-7.44497;-0.00756791;0.00158083;0.0644394;0.0644741;-0.0076026;0.0360383;0.117442;8.51482;0.0457281;0.0480511;8.48053;0.117917;87.9018;132.902;-0.00256326;-0.00756958;0.000691791;0.00240972;0.0644403;-0.00379782;-0.00286001;0;0.035115;-0.319738;-1.98086;-1.58261;2.55552;-7.98377;-0.00646857;0.00165313;0.0621114;0.0621512;-0.0065084;0.0343298;0.104145;9.60203;0.0437652;0.0457731;9.54939;0.104719;92.3812;137.381;-0.00449242;-0.0064692;0.00555613;-0.00199787;0.0620981;0.00850801;0.0730575;0;0.087069;8.32688;5.85025
550000;551;27.4597;1.70455;0.066183;-2.46521;27.3428;-0.571336;-0.214979;1.68937;-0.975529;-0.11145;-0.336773;-0.613273;0.708478;-7.44545;-0.00768707;0.00167293;0.0651942;0.0652326;-0.00772545;0.036479;0.11791;8.48102;0.046279;0.0486387;8.44385;0.118429;87.8199;132.82;-0.00308624;-0.0076889;0.000746918;0.00253558;0.0651953;-0.00366991;-0.00651199;0;0.0356491;-0.321083;-1.98858;-1.58568;2.56357;-7.98567;-0.00651839;0.00126071;0.0623054;0.0623285;-0.00654148;0.034435;0.10462;9.5584;0.0438956;0.0459133;9.52819;0.104952;93.1477;138.148;-0.00532652;-0.00652162;0.00563423;-0.00282948;0.0622912;0.00949156;0.0676374;0;0.0865471;8.33133;5.8574
551000;552;27.4653;1.71019;0.0664019;-2.46449;27.3485;-0.575166;-0.214261;1.69502;-0.979359;-0.111557;-0.334879;-0.61107;0.705688;-7.44325;-0.00748172;0.0017345;0.0652412;0.0652825;-0.00752307;0.0364028;0.114678;8.72007;0.0462338;0.0485371;8.67764;0.115239;87.762;132.762;-0.00320716;-0.00748364;0.000797221;0.00260778;0.0652423;-0.00281801;-0.00422192;0;0.0369159;-0.322326;-1.99631;-1.5846;2.56906;-7.98459;-0.0068369;0.000875492;0.0635275;0.0635384;-0.00684779;0.0351931;0.107621;9.29186;0.0448162;0.0469241;9.27867;0.107774;93.5497;138.55;-0.0035996;-0.00684215;0.00539568;-0.00334565;0.0635142;0.00260133;0.0689864;0;0.0884338;8.33172;5.86523
552000;553;27.4761;1.72102;0.0668225;-2.46422;27.3593;-0.580069;-0.213991;1.70582;-0.984262;-0.112577;-0.332412;-0.610311;0.704025;-7.44249;-0.00730306;0.00180126;0.0649737;0.0650186;-0.00734792;0.0361833;0.1124;8.89679;0.0459911;0.0482443;8.84857;0.113013;87.3463;132.346;-0.00196091;-0.00730604;0.00048516;0.00302804;0.0649751;-0.00257131;-0.00817421;0;0.0374108;-0.324187;-2.0034;-1.58647;2.57596;-7.98763;-0.00716538;0.000942692;0.0646469;0.0646593;-0.00717775;0.0359185;0.110839;9.02212;0.0456871;0.0478913;9.00829;0.111009;93.3919;138.392;-0.00332292;-0.00717014;0.00540125;-0.00321515;0.0646336;0.0050307;0.0680943;0;0.0828097;8.33176;5.87277
553000;554;27.4892;1.73403;0.0673278;-2.46627;27.3721;-0.581763;-0.216037;1.71867;-0.985956;-0.11211;-0.328532;-0.614455;0.705731;-7.44956;-0.00717544;0.00185157;0.0659868;0.0660336;-0.00722227;0.0366279;0.108741;9.19619;0.0466167;0.0488372;9.14305;0.109373;87.4676;132.468;0.000323466;-0.00717812;0.000665278;0.00295643;0.0659882;0.00168978;-0.00329678;0;0.0350397;-0.324624;-2.00933;-1.59083;2.58332;-7.99199;-0.00690315;0.00110786;0.0652861;0.0653031;-0.00692015;0.0361116;0.105737;9.45743;0.0460159;0.0481488;9.43666;0.10597;93.5145;138.514;-0.0057971;-0.00690827;0.00591641;-0.00337486;0.0652702;0.00447832;0.0701887;0;0.0813297;8.3371;5.88021
554000;555;27.4986;1.74351;0.0676956;-2.47095;27.3811;-0.584631;-0.220723;1.7277;-0.988824;-0.113822;-0.327208;-0.612678;0.703843;-7.44779;-0.00706785;0.00184275;0.0657468;0.0657934;-0.00711445;0.0364539;0.107501;9.30224;0.0464158;0.0486052;9.24785;0.108133;87.4163;132.416;2.04586e-05;-0.00707066;0.000603318;0.00299749;0.0657482;0.00102236;-0.00348926;0;0.0366455;-0.326896;-2.01612;-1.59055;2.58871;-7.99282;-0.00685144;0.00124842;0.0658224;0.0658439;-0.00687288;0.0363584;0.10409;9.6071;0.046357;0.0484778;9.58025;0.104381;93.871;138.871;-0.00862309;-0.00685779;0.00662806;-0.00376443;0.0658025;0.0061782;0.0773239;0;0.0784333;8.3406;5.88754
555000;556;27.5084;1.75324;0.0680733;-2.47092;27.3909;-0.584067;-0.220693;1.73748;-0.98826;-0.113718;-0.323432;-0.618189;0.706893;-7.45036;-0.00769051;0.00169978;0.067333;0.0673715;-0.00772901;0.0375503;0.114216;8.75533;0.0476999;0.050067;8.71671;0.114722;87.4648;132.465;-0.00108633;-0.00769353;0.000323458;0.00297936;0.0673343;-0.00452602;-0.00794985;0;0.0383721;-0.327364;-2.02059;-1.59446;2.59466;-7.99562;-0.00673487;0.00123296;0.0660731;0.066094;-0.00675574;0.0364249;0.101931;9.8106;0.0464785;0.0485665;9.78338;0.102214;93.8766;138.877;-0.0057762;-0.00674138;0.0066378;-0.00380279;0.0660531;0.00959342;0.0707488;0;0.0781066;8.3427;5.89453
556000;557;27.5158;1.76069;0.0683626;-2.47073;27.3984;-0.586797;-0.220503;1.74493;-0.99099;-0.112477;-0.321987;-0.615822;0.703963;-7.448;-0.00744775;0.00191204;0.0667039;0.0667531;-0.00749702;0.0371251;0.111654;8.95624;0.0472;0.0495001;8.90396;0.11231;87.0631;132.063;-0.00102285;-0.00745178;0.00029896;0.00341298;0.0667055;-0.00457518;-0.00797759;0;0.0374634;-0.327159;-2.02635;-1.59365;2.59863;-7.99481;-0.00668826;0.00142448;0.0661358;0.0661637;-0.00671611;0.0364399;0.101129;9.88835;0.0465097;0.0485865;9.85149;0.101507;93.4012;138.401;-0.00717535;-0.00669264;0.00646973;-0.00327619;0.0661171;0.0148045;0.0722516;0;0.0809886;8.33724;5.89649
557000;558;27.5241;1.76898;0.0686847;-2.46894;27.4069;-0.583448;-0.218711;1.75349;-0.987641;-0.113222;-0.319739;-0.617608;0.704622;-7.44978;-0.00755311;0.00190174;0.068552;0.0685995;-0.0076006;0.0381001;0.110181;9.076;0.0484656;0.0508001;9.02554;0.110797;87.3477;132.348;-0.00133513;-0.00755643;0.000511017;0.00319341;0.0685536;-0.00406443;-0.0101809;0;0.0387165;-0.328352;-2.03258;-1.59699;2.60568;-7.99815;-0.00666611;0.0015619;0.0654949;0.0655287;-0.0066999;0.0361143;0.101781;9.82505;0.0460817;0.0481524;9.78054;0.102244;93.1597;138.16;-0.0051865;-0.0066693;0.00641436;-0.00296195;0.0654767;0.0108197;0.0734631;0;0.0876085;8.33858;5.90185
558000;559;27.532;1.77687;0.0689911;-2.46947;27.4149;-0.579363;-0.219238;1.76145;-0.983556;-0.114016;-0.314741;-0.625132;0.70912;-7.45731;-0.00768491;0.00219802;0.0687946;0.0688577;-0.00774803;0.0383029;0.111708;8.9519;0.0486937;0.0510705;8.88712;0.112522;87.2643;132.264;-0.00239111;-0.00768814;0.000953952;0.00335307;0.0687964;-0.00418351;-0.0128617;0;0.0410637;-0.329872;-2.03786;-1.60192;2.61301;-8.00191;-0.00703502;0.0013442;0.065028;0.0650531;-0.00706008;0.0360566;0.108184;9.24347;0.0459034;0.0480754;9.21421;0.108528;93.1786;138.179;-0.00364996;-0.00703851;0.0059576;-0.00295707;0.0650122;0.00727914;0.0721141;0;0.0894349;8.34168;5.90916
559000;560;27.542;1.78688;0.0693798;-2.4693;27.4251;-0.574131;-0.219075;1.77163;-0.978324;-0.114097;-0.313736;-0.623514;0.707261;-7.45569;-0.0079387;0.00199039;0.0689719;0.0690234;-0.00799018;0.0385068;0.115101;8.68806;0.0488971;0.0513424;8.63853;0.11576;87.4247;132.425;-0.00257672;-0.0079417;0.000744132;0.00314698;0.0689735;-0.00171439;-0.012893;0;0.0384264;-0.330729;-2.04578;-1.60112;2.61881;-7.9975;-0.00712725;0.00101898;0.0656302;0.0656445;-0.00714152;0.036393;0.108597;9.20834;0.0463273;0.048524;9.19194;0.108791;94.1439;139.144;-0.00631439;-0.00713498;0.00645728;-0.00404804;0.0656111;0.0096809;0.0739046;0;0.0924095;8.34592;5.91582
560000;561;27.5441;1.78894;0.0694595;-2.47235;27.4267;-0.580091;-0.222119;1.77329;-0.984284;-0.113835;-0.312171;-0.619895;0.703334;-7.45207;-0.00793092;0.00168147;0.0699958;0.0700321;-0.00796719;0.0389996;0.113306;8.82568;0.0495577;0.0519995;8.79006;0.113765;87.6988;132.699;-0.00277304;-0.00793353;0.000445661;0.00282727;0.0699971;-0.00238469;-0.0117043;0;0.0368963;-0.331381;-2.05367;-1.60287;2.62613;-8.00403;-0.00719063;0.00118151;0.0667581;0.066777;-0.0072095;0.0369933;0.107712;9.28404;0.0471054;0.0493243;9.26236;0.107964;93.5802;138.58;-0.00271853;-0.00719609;0.00621031;-0.00349871;0.0667407;0.00680584;0.0700639;0;0.0893511;8.3466;5.92347
561000;562;27.5584;1.80325;0.0700154;-2.47083;27.4412;-0.584121;-0.220598;1.78772;-0.988314;-0.114101;-0.309335;-0.6248;0.706457;-7.45698;-0.00762515;0.00215628;0.0699748;0.0700347;-0.00768502;0.0388599;0.10897;9.17685;0.0494509;0.0518132;9.11315;0.109732;87.3142;132.314;-0.00154697;-0.00762843;0.000880209;0.0033398;0.0699767;-0.00514774;-0.0141352;0;0.0440003;-0.33236;-2.06098;-1.6064;2.63412;-8.00756;-0.00729927;0.00121191;0.0671165;0.0671363;-0.007319;0.0372276;0.108755;9.19497;0.047386;0.0496369;9.17288;0.109017;93.7173;138.717;-0.00259435;-0.00730525;0.00644048;-0.00365207;0.0670978;0.00326344;0.0678464;0;0.0882297;8.35357;5.93095
562000;563;27.5676;1.81249;0.0703741;-2.47089;27.4503;-0.590353;-0.220661;1.79686;-0.994546;-0.114841;-0.309273;-0.618583;0.701059;-7.45076;-0.00773254;0.00225982;0.0701502;0.0702157;-0.00779805;0.0390069;0.110228;9.07208;0.0496145;0.0520092;9.00426;0.111059;87.2618;132.262;-0.00148011;-0.00773588;0.00100293;0.00342523;0.0701521;-0.00626893;-0.0136171;0;0.0446798;-0.333946;-2.06834;-1.60411;2.6387;-8.00527;-0.00743987;0.00120004;0.0677809;0.0678;-0.00745901;0.0376295;0.109764;9.11049;0.0478804;0.0501727;9.08968;0.110015;93.7899;138.79;-0.00442086;-0.00744628;0.00653965;-0.00376345;0.0677615;0.00604255;0.069217;0;0.0818061;8.35608;5.9387
563000;564;27.5765;1.82135;0.0707181;-2.47392;27.4588;-0.597065;-0.223687;1.80534;-1.00126;-0.115269;-0.303528;-0.629662;0.708442;-7.46184;-0.00788298;0.00191276;0.0709851;0.0710315;-0.00792935;0.0394804;0.111051;9.00486;0.0502066;0.0526406;8.95805;0.111631;87.5121;132.512;-0.00265203;-0.00788603;0.000615345;0.00311464;0.0709867;-0.00353905;-0.0133071;0;0.0416484;-0.334769;-2.07216;-1.61281;2.64709;-8.01397;-0.00708228;0.00132143;0.0684981;0.0685212;-0.00710537;0.0378133;0.103394;9.67176;0.0482241;0.0504177;9.64358;0.103696;93.8873;138.887;-0.00542714;-0.0070892;0.00697808;-0.00393513;0.0684761;0.0059057;0.072829;0;0.0807156;8.35334;5.94541
564000;565;27.5895;1.83438;0.071224;-2.47768;27.4717;-0.587413;-0.227447;1.8183;-0.991606;-0.11519;-0.302149;-0.627331;0.705767;-7.45951;-0.00816459;0.00189149;0.0708107;0.070856;-0.00820986;0.0395329;0.115302;8.67291;0.0501982;0.0527106;8.63059;0.115867;87.3734;132.373;-0.00355873;-0.00816812;0.000420731;0.00325377;0.0708123;-0.000153539;-0.0130502;0;0.0394843;-0.335559;-2.07804;-1.61154;2.65103;-8.0127;-0.00703084;0.00142978;0.0687051;0.068732;-0.00705782;0.0378949;0.102334;9.77195;0.048346;0.0505266;9.73842;0.102686;93.5959;138.596;-0.00861963;-0.0070364;0.0068607;-0.0036163;0.068684;0.0155926;0.0746643;0;0.0820988;8.35367;5.95237
565000;566;27.5975;1.84241;0.0715358;-2.47815;27.4797;-0.588884;-0.227922;1.82629;-0.993077;-0.115268;-0.296938;-0.633469;0.709043;-7.46564;-0.00818004;0.00222121;0.0708639;0.0709262;-0.00824241;0.0395843;0.115433;8.66302;0.0502574;0.0527791;8.60503;0.116211;86.9087;131.909;-0.00333044;-0.00818496;0.000482245;0.0038318;0.0708661;-0.00179223;-0.0127569;0;0.0421462;-0.336388;-2.08288;-1.61638;2.65787;-8.01754;-0.00679755;0.00157574;0.068816;0.0688488;-0.00683038;0.0378396;0.0987787;10.1236;0.0483371;0.0504528;10.0798;0.0992084;93.791;138.791;-0.00613428;-0.00680373;0.0074038;-0.00384006;0.0687915;0.0114611;0.0773747;0;0.0873856;8.35464;5.95968
566000;567;27.6078;1.85272;0.071936;-2.47754;27.4904;-0.575385;-0.227311;1.83698;-0.979578;-0.115442;-0.296647;-0.631382;0.707085;-7.46356;-0.00796855;0.00227706;0.071679;0.071744;-0.0080336;0.0398888;0.11117;8.99523;0.0507197;0.0531851;8.9305;0.111976;87.0977;132.098;-0.00303525;-0.00797275;0.000767325;0.00367458;0.0716811;-0.00300668;-0.0111015;0;0.0420673;-0.337456;-2.0917;-1.61504;2.6641;-8.01503;-0.00715309;0.00145005;0.068015;0.0680429;-0.00718106;0.037612;0.105169;9.50847;0.0479353;0.0501493;9.47534;0.105537;93.5767;138.577;-0.00508443;-0.00715832;0.0068111;-0.00353372;0.0679942;0.00972731;0.0746087;0;0.0924606;8.35362;5.96522
567000;568;27.6176;1.86251;0.0723162;-2.47954;27.5002;-0.569562;-0.229313;1.84676;-0.973755;-0.115838;-0.292766;-0.634962;0.708737;-7.46714;-0.00786976;0.00244316;0.0703749;0.0704511;-0.00794598;0.0391985;0.111826;8.94244;0.0498277;0.0522647;8.86626;0.112787;86.5627;131.563;-0.00229986;-0.00787578;0.000513586;0.00423168;0.0703775;-0.0049879;-0.00925104;0;0.0407429;-0.338554;-2.09719;-1.61585;2.66905;-8.01224;-0.00740142;0.00114481;0.0683334;0.0683507;-0.00741873;0.0378847;0.108313;9.23246;0.0482306;0.0505129;9.21326;0.108539;93.9859;138.986;-0.00447104;-0.00740894;0.00671274;-0.00402843;0.0683129;0.00645683;0.0809751;0;0.0965006;8.35073;5.96833
568000;569;27.6262;1.87104;0.0726472;-2.48205;27.5084;-0.576596;-0.231818;1.85494;-0.980789;-0.115552;-0.29047;-0.63478;0.70758;-7.46696;-0.00793627;0.00247641;0.0710563;0.0711339;-0.00801383;0.0395739;0.11169;8.95336;0.0503071;0.0527651;8.87639;0.112658;86.5487;131.549;-0.00144298;-0.00794246;0.000518486;0.00428992;0.071059;-0.00351737;-0.00847238;0;0.0393947;-0.339422;-2.10445;-1.61809;2.67621;-8.01448;-0.00752862;0.00119499;0.0688137;0.0688324;-0.00754732;0.0381899;0.109406;9.14028;0.0485998;0.0509198;9.12011;0.109648;93.9733;138.973;-0.00620157;-0.00753607;0.00681919;-0.00402752;0.0687926;0.00951469;0.0750078;0;0.0978491;8.35737;5.97464
569000;570;27.6368;1.88165;0.0730591;-2.48332;27.5188;-0.581869;-0.233093;1.86537;-0.986062;-0.115036;-0.287464;-0.637947;0.709116;-7.47012;-0.0080407;0.00265194;0.071994;0.0720818;-0.00812847;0.0401051;0.111686;8.9537;0.0509805;0.0534735;8.86781;0.112767;86.6811;131.681;-0.00206244;-0.00804617;0.000947517;0.0042291;0.0719968;-0.00223006;-0.00725796;0;0.0402987;-0.33985;-2.11113;-1.62748;2.6872;-8.02864;-0.00736855;0.00127492;0.0697273;0.0697484;-0.00738962;0.038569;0.105677;9.46284;0.0491477;0.0514254;9.4387;0.105947;93.5414;138.541;-0.00256702;-0.00737431;0.0065459;-0.0036162;0.0697081;0.00477893;0.0716726;0;0.0923098;8.3577;5.98249
570000;571;27.648;1.89291;0.0734964;-2.48429;27.53;-0.582096;-0.234062;1.87659;-0.986289;-0.115561;-0.285837;-0.634875;0.705779;-7.46705;-0.00779911;0.00215608;0.0722818;0.0723398;-0.00785711;0.0400985;0.107899;9.26796;0.0510475;0.0534646;9.20692;0.108614;86.8588;131.859;-0.00367787;-0.0078046;0.000223011;0.00394477;0.072284;0.00155491;-0.0101191;0;0.0398062;-0.340907;-2.11775;-1.62293;2.68979;-8.02409;-0.00742045;0.00148654;0.0702291;0.0702575;-0.0074489;0.0388532;0.105661;9.46426;0.0495084;0.0518043;9.43193;0.106023;93.8154;138.815;-0.00295327;-0.00742705;0.00730884;-0.00391337;0.0702051;0.00570255;0.0729216;0;0.0840002;8.359;5.99033
571000;572;27.6504;1.89532;0.07359;-2.48474;27.5321;-0.597542;-0.234506;1.87864;-1.00173;-0.115965;-0.281632;-0.639287;0.708133;-7.47146;-0.00795611;0.0022973;0.0724586;0.0725242;-0.00802169;0.040273;0.109802;9.10729;0.0512331;0.0536973;9.04101;0.110607;86.7584;131.758;-0.00366191;-0.0079619;0.000355455;0.00409353;0.072461;-0.000706003;-0.0065186;0;0.0410247;-0.341801;-2.12265;-1.62769;2.69664;-8.02885;-0.0073665;0.00136909;0.0707324;0.0707564;-0.00739049;0.0390735;0.104146;9.6019;0.0498175;0.0520979;9.57398;0.10445;93.7669;138.767;-0.00463632;-0.0073733;0.00707394;-0.00391969;0.0707099;0.0054873;0.0712781;0;0.0836147;8.36078;5.99779
572000;573;27.6576;1.90247;0.0738676;-2.48462;27.5392;-0.602851;-0.234392;1.88572;-1.00704;-0.1162;-0.277746;-0.640825;0.708027;-7.473;-0.00804536;0.00265516;0.0730874;0.0731742;-0.00813216;0.0406532;0.110079;9.08441;0.0517071;0.0542043;8.99812;0.111134;86.8699;131.87;-0.00194303;-0.00805017;0.00112202;0.00407238;0.0730901;-0.00135169;-0.0106997;0;0.0422244;-0.342658;-2.12692;-1.6299;2.70144;-8.03107;-0.00728907;0.00140311;0.0709613;0.0709865;-0.00731422;0.0391503;0.102719;9.7353;0.0499412;0.0522005;9.70526;0.103037;93.6237;138.624;-0.00502211;-0.00729526;0.00698956;-0.0037752;0.0709394;0.0056938;0.0731797;0;0.0850185;8.36261;6.00446
573000;574;27.6739;1.91876;0.0745002;-2.48745;27.5555;-0.592176;-0.237225;1.90206;-0.996369;-0.115473;-0.274913;-0.642364;0.708197;-7.47454;-0.00790281;0.00261354;0.0721041;0.0721893;-0.00798809;0.0400887;0.109603;9.12385;0.0509979;0.0534516;9.03712;0.110655;86.799;131.799;-0.00424734;-0.00790782;0.00101215;0.00409542;0.0721068;-0.00310461;-0.0109124;0;0.0422997;-0.342755;-2.13303;-1.6299;2.70627;-8.03107;-0.00727794;0.00126286;0.071429;0.0714493;-0.0072982;0.0393737;0.101891;9.81446;0.0502426;0.0524983;9.78999;0.102145;93.6421;138.642;-0.00752411;-0.00728461;0.00678341;-0.00385218;0.0714083;0.0152741;0.0746294;0;0.0836658;8.36633;6.01214
574000;575;27.6803;1.92516;0.0747485;-2.48774;27.5619;-0.594049;-0.23751;1.90841;-0.998242;-0.115257;-0.274357;-0.63982;0.705638;-7.472;-0.00793296;0.00239533;0.0734668;0.0735372;-0.00800339;0.0407703;0.10798;9.26095;0.0518987;0.0543604;9.18825;0.108835;87.011;132.011;-0.00433393;-0.00793765;0.000791974;0.00387711;0.0734691;-0.00299127;-0.0140432;0;0.0409286;-0.343532;-2.13991;-1.62884;2.71115;-8.02883;-0.0069435;0.00149716;0.0714467;0.0714753;-0.00697209;0.0392237;0.0971843;10.2897;0.0501361;0.0522983;10.2516;0.0975453;93.4648;138.465;-0.0078134;-0.00694906;0.00704492;-0.00364476;0.0714246;0.0113197;0.0815413;0;0.0896862;8.36893;6.01899
575000;576;27.6909;1.93576;0.0751603;-2.48713;27.5727;-0.585367;-0.236904;1.9193;-0.98956;-0.115809;-0.271235;-0.640032;0.704713;-7.47221;-0.00742623;0.00278068;0.0730328;0.0731288;-0.00752222;0.0403255;0.101683;9.83444;0.0514436;0.0537673;9.72171;0.102863;86.3981;131.398;-0.00128935;-0.00743313;0.000782019;0.00462947;0.0730361;-0.00358653;-0.010636;0;0.042912;-0.344948;-2.14596;-1.62903;2.71622;-8.02542;-0.00729621;0.00128789;0.0713187;0.0713398;-0.00731731;0.0393286;0.102304;9.77476;0.0501771;0.0524381;9.74946;0.10257;93.8718;138.872;-0.00537521;-0.00730385;0.00710346;-0.00410096;0.0712959;0.00841664;0.0774626;0;0.0957231;8.36832;6.02652
576000;577;27.701;1.94592;0.0755546;-2.48725;27.583;-0.584012;-0.237024;1.92952;-0.988205;-0.115762;-0.267433;-0.640991;0.704124;-7.47317;-0.00738625;0.00300559;0.0730847;0.0731968;-0.00749835;0.0403476;0.101064;9.89469;0.0514797;0.0537967;9.76171;0.102441;86.0884;131.088;-0.00211403;-0.00739444;0.000817827;0.00502928;0.0730886;-0.00817962;-0.0150493;0;0.0434195;-0.345902;-2.15406;-1.6321;2.72459;-8.03327;-0.00750009;0.00136143;0.0719693;0.0719926;-0.00752341;0.039758;0.104212;9.59579;0.0506893;0.0530107;9.56915;0.104503;93.499;138.499;-0.00281035;-0.007506;0.006812;-0.00368511;0.0719485;0.0110905;0.0768351;0;0.101933;8.36626;6.03304
577000;578;27.7057;1.9506;0.0757365;-2.48933;27.5875;-0.583245;-0.239103;1.93405;-0.987438;-0.115396;-0.263529;-0.64518;0.706414;-7.47736;-0.00729964;0.00267032;0.0727337;0.0728227;-0.00738864;0.0401057;0.100361;9.96401;0.0511894;0.0534742;9.85604;0.101461;86.3536;131.354;-0.00174731;-0.00730691;0.000538891;0.00464272;0.0727369;-0.00798196;-0.0130625;0;0.0401072;-0.346563;-2.16064;-1.6365;2.73251;-8.03766;-0.00762672;0.00132358;0.0718585;0.0718805;-0.00764876;0.0397646;0.106135;9.42194;0.0506628;0.0530195;9.39767;0.106409;93.5877;138.588;-0.00247034;-0.00763302;0.00682909;-0.00377369;0.0718376;0.00976633;0.0694415;0;0.10445;8.36871;6.0371
578000;579;27.717;1.9619;0.0761752;-2.49099;27.5986;-0.589876;-0.240765;1.94511;-0.994069;-0.116102;-0.260343;-0.647343;0.707327;-7.47952;-0.00741097;0.00235955;0.0727695;0.0728388;-0.00748034;0.0401596;0.101842;9.81916;0.051235;0.0535461;9.73736;0.102697;86.8139;131.814;-0.00345873;-0.00741647;0.000519806;0.00406178;0.0727719;-0.00611109;-0.0117056;0;0.040641;-0.347809;-2.16723;-1.64204;2.74119;-8.0432;-0.00748411;0.00148429;0.0722565;0.0722842;-0.00751173;0.0398979;0.103577;9.65466;0.0508785;0.0531973;9.62284;0.103919;93.9322;138.932;-0.00392711;-0.00749182;0.00760836;-0.00418438;0.0722306;0.0107815;0.0723848;0;0.096476;8.37091;6.04334
579000;580;27.7331;1.978;0.0768002;-2.49246;27.6143;-0.605071;-0.242228;1.96081;-1.00926;-0.115905;-0.25797;-0.650087;0.70894;-7.48226;-0.00709452;0.00220028;0.0732335;0.0732937;-0.00715474;0.0402242;0.0968753;10.3225;0.0514136;0.0536323;10.2441;0.0976174;87.1091;132.109;-0.00341883;-0.00709904;0.00055999;0.0037178;0.0732356;-0.00827308;-0.0121715;0;0.0405584;-0.348128;-2.17333;-1.64458;2.74758;-8.04574;-0.00746825;0.00145247;0.0729222;0.0729485;-0.00749449;0.0402215;0.102414;9.7643;0.0513132;0.0536286;9.73362;0.102737;93.5294;138.529;-0.00333718;-0.00747435;0.00709692;-0.0037691;0.0728998;0.00370423;0.0751523;0;0.0898907;8.3718;6.04954
580000;581;27.7365;1.98143;0.0769335;-2.49035;27.6176;-0.617166;-0.240125;1.96419;-1.02136;-0.116027;-0.255902;-0.650112;0.708233;-7.48229;-0.00694574;0.00269843;0.0734577;0.0735482;-0.0070362;0.0402922;0.0945543;10.5759;0.0515379;0.0537229;10.4528;0.0956679;86.5275;131.528;-0.000933827;-0.00695222;0.000761892;0.0044899;0.0734608;-0.00820726;-0.012673;0;0.0384928;-0.349139;-2.1803;-1.64587;2.754;-8.04704;-0.00747493;0.00139744;0.0731771;0.0732013;-0.00749914;0.0403502;0.102149;9.78967;0.051483;0.0538003;9.7613;0.102445;93.2988;138.299;-0.00387516;-0.00748021;0.00672017;-0.0035253;0.073157;0.00427644;0.072924;0;0.084579;8.36914;6.0563
581000;582;27.7453;1.99017;0.0772726;-2.49066;27.6264;-0.617465;-0.240434;1.97292;-1.02166;-0.118246;-0.253132;-0.653114;0.710364;-7.48529;-0.00707134;0.00227193;0.0725883;0.072653;-0.00713608;0.0398946;0.0974171;10.2651;0.0509808;0.0531927;10.1811;0.0982214;86.8543;131.854;-0.00179196;-0.00707676;0.000414024;0.00399185;0.0725906;-0.00647205;-0.0120964;0;0.0423969;-0.351949;-2.18596;-1.64791;2.76005;-8.04907;-0.00713559;0.00123537;0.0736204;0.0736393;-0.00715448;0.0403969;0.096924;10.3174;0.0516432;0.0538625;10.2928;0.0971557;93.7073;138.707;-0.00471834;-0.00714326;0.00699728;-0.00409317;0.0735983;0.00612282;0.0774378;0;0.0843249;8.3762;6.06326
582000;583;27.7591;2.00395;0.077808;-2.49376;27.6403;-0.601022;-0.243528;1.98685;-1.00521;-0.117169;-0.249505;-0.653858;0.709585;-7.48897;-0.00667636;0.00244101;0.0731797;0.0732543;-0.0067509;0.0400026;0.0912323;10.961;0.051235;0.0533368;10.851;0.0921571;87.0495;132.05;-0.0021686;-0.00668073;0.000943774;0.00382684;0.0731821;0.00669844;-0.00837498;0;0.041231;-0.351463;-2.19063;-1.6481;2.7638;-8.04449;-0.00693681;0.00132128;0.0734292;0.073451;-0.00695853;0.0402047;0.0944694;10.5854;0.0514439;0.0536063;10.5555;0.0947371;94.161;139.161;-0.00884347;-0.00694671;0.00774929;-0.00462551;0.0734021;0.00946454;0.083979;0;0.0891267;8.37995;6.07068
583000;584;27.7657;2.01056;0.0780646;-2.49312;27.647;-0.600157;-0.242894;1.99357;-1.00435;-0.11828;-0.248114;-0.652817;0.708323;-7.48499;-0.00696161;0.00232135;0.0732772;0.0733443;-0.00702871;0.0401865;0.0950037;10.5259;0.0513996;0.053582;10.435;0.0958317;86.7706;131.771;-0.00286129;-0.0069675;0.000364434;0.00413196;0.0732797;-0.00218852;-0.0122464;0;0.038269;-0.353434;-2.199;-1.64812;2.77071;-8.04928;-0.00734199;0.0011674;0.0745531;0.0745697;-0.00735863;0.0409642;0.09848;10.1543;0.0523388;0.0546189;10.1336;0.0986812;93.5529;138.553;-0.00389057;-0.00734921;0.00672033;-0.00396236;0.0745327;0.00856382;0.0753499;0;0.0943327;8.37738;6.07793
584000;585;27.7764;2.02133;0.0784826;-2.495;27.6577;-0.596523;-0.244768;2.00429;-1.00072;-0.119067;-0.244672;-0.653351;0.707749;-7.48553;-0.00677938;0.00226659;0.0730073;0.0730717;-0.00684372;0.0399577;0.0928589;10.769;0.0511485;0.0532769;10.6772;0.0936576;86.8012;131.801;-0.0030377;-0.00678515;0.000313681;0.00407427;0.0730097;-0.00127157;-0.00976334;0;0.0410165;-0.355403;-2.20647;-1.64943;2.77766;-8.05059;-0.00750544;0.00109436;0.0750504;0.0750649;-0.00751994;0.0412924;0.100005;9.99947;0.052729;0.0550566;9.98211;0.100179;93.6404;138.64;-0.00291317;-0.00751329;0.00671693;-0.00409647;0.07503;0.00383245;0.0760078;0;0.104303;8.37635;6.08574
585000;586;27.7793;2.02423;0.0785952;-2.49369;27.6609;-0.591555;-0.243457;2.00742;-0.995748;-0.115185;-0.23914;-0.664245;0.715316;-7.49642;-0.00687892;0.00247869;0.0740808;0.0741566;-0.00695474;0.0405557;0.092857;10.7693;0.0519115;0.0540743;10.6628;0.0937844;86.7132;131.713;-0.00335491;-0.006885;0.000543219;0.00426827;0.0740835;4.27927e-05;-0.0131299;0;0.0427056;-0.35248;-2.21109;-1.66174;2.78828;-8.0629;-0.00761614;0.00120156;0.0752688;0.0752862;-0.00763356;0.0414599;0.101186;9.88279;0.0529191;0.0552798;9.86253;0.101394;93.6729;138.673;-0.00369099;-0.00762397;0.00696907;-0.00412141;0.0752469;0.00676601;0.0762437;0;0.103974;8.37716;6.09295
586000;587;27.79;2.03486;0.0790081;-2.49528;27.6713;-0.595588;-0.245048;2.01787;-0.999781;-0.115374;-0.236325;-0.66462;0.714759;-7.4968;-0.00659167;0.00252518;0.0743356;0.0744143;-0.00667038;0.0405424;0.0886744;11.2772;0.0519759;0.0540565;11.1559;0.0896384;86.6769;131.677;-0.00378566;-0.00659791;0.000570077;0.004333;0.0743384;0.00457755;-0.0098797;0;0.0438022;-0.353649;-2.21834;-1.6644;2.79577;-8.06556;-0.00756053;0.00134837;0.0752976;0.0753196;-0.00758246;0.041451;0.100409;9.95931;0.0529219;0.055268;9.93339;0.100671;93.5858;138.586;-0.00155901;-0.00756767;0.0071423;-0.00399914;0.0752748;0.0048362;0.0768452;0;0.0999125;8.38404;6.10052
587000;588;27.8098;2.05473;0.0797793;-2.49902;27.6907;-0.605198;-0.24879;2.03728;-1.00939;-0.117435;-0.235571;-0.660526;0.711041;-7.4927;-0.00691384;0.00209536;0.0744849;0.0745388;-0.00696775;0.0407533;0.0928221;10.7733;0.0521704;0.0543377;10.6977;0.0934782;87.0313;132.031;-0.00429521;-0.00691909;0.000198936;0.00384811;0.0744869;0.0012527;-0.0108639;0;0.0468887;-0.356188;-2.22614;-1.6608;2.80015;-8.06196;-0.00758792;0.00163717;0.0751635;0.0751959;-0.0076203;0.0414081;0.100952;9.90568;0.0528541;0.0552108;9.86784;0.101339;93.383;138.383;-0.00266528;-0.00759345;0.00741409;-0.00369517;0.0751392;0.00443267;0.0764333;0;0.0925103;8.38019;6.10765
588000;589;27.8123;2.05721;0.0798759;-2.49832;27.6931;-0.611525;-0.248088;2.0397;-1.01572;-0.117917;-0.232601;-0.659265;0.70897;-7.49144;-0.00680836;0.00189499;0.0747261;0.0747701;-0.00685237;0.0408113;0.0911108;10.9756;0.0522808;0.054415;10.9116;0.0916459;87.1758;132.176;-0.00441919;-0.00681327;-9.52974e-06;0.00365502;0.0747278;0.00335751;-0.0106212;0;0.0477462;-0.357335;-2.2316;-1.66047;2.80444;-8.06163;-0.00760018;0.0014771;0.0750778;0.0751041;-0.00762656;0.0413653;0.101231;9.87842;0.0527955;0.0551538;9.84771;0.101546;93.3157;138.316;-0.00453652;-0.00760573;0.00701523;-0.00363517;0.0750559;0.00676449;0.0718483;0;0.0906909;8.38093;6.11449
589000;590;27.8217;2.06655;0.0802384;-2.49829;27.7025;-0.614074;-0.248063;2.04902;-1.01827;-0.117768;-0.230361;-0.658334;0.707347;-7.49051;-0.00686804;0.00198813;0.075506;0.0755539;-0.00691599;0.041235;0.0909602;10.9938;0.0528257;0.0549799;10.9245;0.0915372;87.2146;132.215;-0.00396769;-0.00687279;0.000178118;0.00365951;0.0755078;-0.000650388;-0.0107988;0;0.0464165;-0.357585;-2.23765;-1.66046;2.80929;-8.06163;-0.00734494;0.00140018;0.0756411;0.0756647;-0.00736856;0.0415167;0.0971024;10.2984;0.0530701;0.0553555;10.2686;0.0973843;93.2418;138.242;-0.00392412;-0.00735054;0.0068368;-0.00361703;0.0756203;0.0048117;0.075674;0;0.088418;8.38042;6.11837
590000;591;27.8272;2.07212;0.0804547;-2.49776;27.708;-0.616849;-0.247527;2.0546;-1.02104;-0.118334;-0.227909;-0.658854;0.707131;-7.49103;-0.0068321;0.00192651;0.0761346;0.0761793;-0.00687681;0.0415281;0.0897371;11.1437;0.0532268;0.0553708;11.0777;0.0902714;87.2104;132.21;-0.00331104;-0.00683706;2.4189e-05;0.00368217;0.0761363;-0.000979944;-0.0103586;0;0.0533297;-0.358869;-2.24293;-1.66187;2.81449;-8.06186;-0.00716589;0.00140844;0.0756546;0.0756785;-0.00718984;0.0414342;0.0947186;10.5576;0.0530117;0.0552456;10.5258;0.095005;93.5161;138.516;-0.00666039;-0.00717282;0.0072319;-0.00396668;0.0756312;0.0116464;0.0754823;0;0.0905674;8.38435;6.12527
591000;592;27.8438;2.08872;0.0810992;-2.50289;27.7247;-0.596391;-0.252658;2.07126;-1.00058;-0.1174;-0.226385;-0.660405;0.707932;-7.49258;-0.00691633;0.00201628;0.0761442;0.0761931;-0.00696525;0.0415792;0.090832;11.0093;0.0532691;0.0554389;10.939;0.0914157;87.15;132.15;-0.00384126;-0.00692144;0.000115876;0.00377001;0.076146;-0.00250584;-0.0129366;0;0.0550971;-0.359449;-2.24992;-1.6569;2.81721;-8.05328;-0.00694537;0.00117502;0.0762213;0.0762379;-0.00696197;0.0415999;0.0911211;10.9744;0.0532977;0.0554666;10.9506;0.091319;93.9452;138.945;-0.00906121;-0.00695528;0.00742223;-0.00458946;0.0761964;0.0129085;0.0810324;0;0.0930466;8.38406;6.13126
592000;593;27.8496;2.09446;0.0813222;-2.50266;27.7304;-0.600237;-0.25243;2.07696;-1.00443;-0.117193;-0.222866;-0.662652;0.70888;-7.49483;-0.00671071;0.00244783;0.0765308;0.0766028;-0.00678263;0.0416927;0.0876864;11.4043;0.053473;0.0555903;11.294;0.0885429;86.9528;131.953;-0.0030115;-0.00671616;0.000656644;0.00410051;0.0765334;0.00221204;-0.00520241;0;0.0537524;-0.359642;-2.25649;-1.66562;2.82761;-8.06678;-0.00726894;0.00104486;0.0775283;0.0775412;-0.00728182;0.0424115;0.0937586;10.6657;0.0542844;0.0565487;10.6486;0.093909;93.6629;138.663;-0.00395808;-0.00727778;0.00686491;-0.00431721;0.077507;0.00924918;0.0745992;0;0.101484;8.38036;6.13766
593000;594;27.8628;2.10768;0.0818353;-2.50526;27.7437;-0.590019;-0.255029;2.09022;-0.994212;-0.116451;-0.221433;-0.656943;0.70297;-7.48912;-0.00687312;0.00240144;0.0770998;0.0771685;-0.00694174;0.0420551;0.0891457;11.2176;0.0539087;0.0560735;11.1166;0.0899556;86.8666;131.867;-0.00213164;-0.0068792;0.000423667;0.00422501;0.0771024;-0.000895152;-0.00640854;0;0.0481187;-0.360258;-2.26511;-1.6583;2.83028;-8.05946;-0.00731619;0.00109184;0.0777959;0.0778099;-0.0073302;0.0425701;0.0940434;10.6334;0.0544813;0.0567601;10.615;0.0942064;93.7928;138.793;-0.00366579;-0.00732573;0.0071477;-0.00448583;0.0777728;0.00782282;0.0779355;0;0.108084;8.38167;6.14532
594000;595;27.8652;2.11005;0.0819275;-2.50605;27.7459;-0.593575;-0.255819;2.09246;-0.997768;-0.116003;-0.215115;-0.668726;0.711987;-7.5009;-0.00700715;0.00184703;0.0775318;0.0775721;-0.00704749;0.0423098;0.0903778;11.0647;0.0542168;0.0564131;11.0071;0.0908508;87.2558;132.256;-0.00303022;-0.00701223;-0.000135351;0.00367387;0.0775334;0.00147156;-0.0053201;0;0.0463418;-0.361447;-2.2676;-1.67858;2.84434;-8.07974;-0.00778549;0.00123681;0.0781696;0.0781874;-0.00780328;0.0429953;0.0995974;10.0404;0.0549111;0.0573271;10.0198;0.0998023;93.6381;138.638;-0.00438857;-0.00779381;0.00719774;-0.00424894;0.0781463;0.00624279;0.0749529;0;0.118009;8.38663;6.1517
595000;596;27.8801;2.12502;0.0825085;-2.50841;27.761;-0.578195;-0.258182;2.1076;-0.982388;-0.116061;-0.212597;-0.669016;0.711513;-7.50119;-0.00691834;0.00182348;0.0783644;0.0784034;-0.00695731;0.0426803;0.0882842;11.3271;0.0547356;0.0569071;11.2692;0.0887374;87.3148;132.315;-0.00240481;-0.00692331;-0.000142725;0.00363418;0.0783659;0.000353405;-0.00716227;0;0.05636;-0.363103;-2.27513;-1.67403;2.84788;-8.07519;-0.00759015;0.00146927;0.077605;0.0776304;-0.00761548;0.0426229;0.0978049;10.2244;0.0544698;0.0568306;10.1938;0.0980993;93.0105;138.011;-0.00266109;-0.00759493;0.0067705;-0.00341288;0.0775848;0.00461344;0.0805527;0;0.105426;8.38759;6.15958
596000;597;27.8991;2.14398;0.083245;-2.51235;27.7793;-0.598893;-0.26212;2.12585;-1.00309;-0.116862;-0.206889;-0.682044;0.72225;-7.51422;-0.00657766;0.00170762;0.0787608;0.078795;-0.00661181;0.0427034;0.0835143;11.974;0.0548669;0.0569378;11.9173;0.0839116;87.4642;132.464;-0.00409493;-0.00658217;-0.000182988;0.00344866;0.0787621;0.00507848;-0.0108231;0;0.0525456;-0.364289;-2.28119;-1.68272;2.85799;-8.0849;-0.00717909;0.00175802;0.0774438;0.0774803;-0.00721559;0.0423479;0.0927006;10.7874;0.054219;0.0564639;10.7379;0.0931281;92.7915;137.792;-0.000297611;-0.00718244;0.0070543;-0.00312233;0.0774221;0.00211489;0.0705488;0;0.0945588;8.38664;6.16672
597000;598;27.8986;2.14344;0.0832237;-2.50782;27.7787;-0.619672;-0.257592;2.12526;-1.02387;-0.11791;-0.208383;-0.669458;0.710985;-7.50163;-0.00690542;0.00205545;0.0785339;0.0785833;-0.00695484;0.0427691;0.0879291;11.3728;0.0548543;0.0570255;11.2991;0.0885027;87.2761;132.276;-0.00398347;-0.00691029;0.000238388;0.00372856;0.0785359;0.000316474;-0.0107663;0;0.0496904;-0.364527;-2.28905;-1.67776;2.86138;-8.07893;-0.00748405;0.00144948;0.0777445;0.0777691;-0.0075087;0.0426389;0.0962647;10.388;0.0545216;0.0568519;10.3572;0.0965511;92.6421;137.642;-0.00433307;-0.00748746;0.00625551;-0.00297652;0.0777273;0.00759506;0.0732243;0;0.0916684;8.38756;6.17442
598000;599;27.9083;2.1532;0.0836026;-2.50907;27.7883;-0.621493;-0.258836;2.1349;-1.02569;-0.117749;-0.20218;-0.678605;0.717807;-7.51078;-0.00659756;0.00214325;0.0781851;0.0782392;-0.0066517;0.0424455;0.0843838;11.8506;0.0545122;0.056594;11.7623;0.0850175;87.0633;132.063;-0.00404529;-0.00660327;0.000134778;0.00399378;0.0781872;0.00184125;-0.0104204;0;0.0480156;-0.365554;-2.29203;-1.68667;2.86912;-8.08783;-0.00743614;0.00151965;0.0780646;0.0780916;-0.00746314;0.0427774;0.0952562;10.498;0.0547187;0.0570365;10.4636;0.095569;92.9714;137.971;-0.00437158;-0.00744078;0.00685759;-0.00339497;0.0780438;0.00457924;0.0750961;0;0.0917595;8.39075;6.18038
599000;600;27.9146;2.15945;0.0838454;-2.50818;27.7945;-0.630399;-0.257953;2.14106;-1.03459;-0.117679;-0.198553;-0.678781;0.716948;-7.51096;-0.00662348;0.00210074;0.0783397;0.0783916;-0.00667539;0.0425335;0.0845482;11.8276;0.0546223;0.0567113;11.7434;0.0851544;87.2026;132.203;-0.00209219;-0.00662861;0.00023406;0.00382033;0.0783417;-1.06677e-05;-0.0104396;0;0.0478371;-0.366055;-2.29728;-1.68635;2.8732;-8.08751;-0.00681273;0.00140872;0.078804;0.0788272;-0.0068359;0.0428315;0.0864516;11.5672;0.0549719;0.0571087;11.5313;0.0867202;93.3206;138.321;-0.00524065;-0.0068196;0.00723253;-0.00395293;0.0787807;0.00897938;0.0815345;0;0.0923459;8.39079;6.18604
600000;601;27.9306;2.1755;0.0844686;-2.51177;27.8106;-0.61613;-0.261544;2.15718;-1.02032;-0.119626;-0.194055;-0.685157;0.722086;-7.51733;-0.00666788;0.00173441;0.0786333;0.0786686;-0.00670313;0.0426859;0.0847971;11.7929;0.0548169;0.0569145;11.7361;0.0852072;87.6051;132.605;-0.00404082;-0.00667175;6.61872e-05;0.00327071;0.0786347;0.00162896;-0.0118829;0;0.047977;-0.36838;-2.30257;-1.69442;2.88247;-8.09558;-0.0070089;0.00132341;0.0799305;0.0799507;-0.00702904;0.0434899;0.0876874;11.4041;0.0557913;0.0579865;11.3743;0.0879172;93.407;138.407;-0.00501201;-0.0070166;0.00725117;-0.00412717;0.079907;0.00973707;0.0758629;0;0.101024;8.39462;6.1927
601000;602;27.9385;2.18342;0.084776;-2.51174;27.8187;-0.609108;-0.261508;2.16529;-1.0133;-0.119419;-0.19141;-0.676412;0.713044;-7.51161;-0.0063746;0.00244076;0.0787958;0.0788657;-0.00644449;0.0426551;0.0809003;12.3609;0.0548516;0.0568735;12.2377;0.0817148;87.0007;132.001;-0.00548776;-0.00638027;0.000586035;0.00414904;0.0787984;0.00742405;-0.0112946;0;0.0500624;-0.369287;-2.31021;-1.68488;2.8831;-8.08604;-0.00695329;0.0013375;0.0800989;0.0801194;-0.00697384;0.0435466;0.0868088;11.5196;0.0558828;0.0580622;11.4886;0.087043;93.4317;138.432;-0.00601687;-0.00696116;0.00733067;-0.00417268;0.0800748;0.00844435;0.0783721;0;0.108259;8.39072;6.19534
602000;603;27.9418;2.18672;0.0849044;-2.50967;27.8223;-0.605472;-0.259438;2.16888;-1.00967;-0.117231;-0.187567;-0.684444;0.719297;-7.51662;-0.00604583;0.00224637;0.0785682;0.0786278;-0.00610542;0.0423666;0.0769501;12.9954;0.0545676;0.0564888;12.8784;0.0776497;86.9769;131.977;-0.00604374;-0.00605191;0.000191857;0.00413969;0.0785705;0.00301082;-0.0147386;0;0.0549074;-0.368594;-2.31594;-1.69477;2.89339;-8.09594;-0.00758175;0.000970266;0.0809566;0.0809672;-0.00759239;0.0442798;0.0936521;10.6778;0.0566787;0.0590397;10.6643;0.0937711;93.9485;138.948;-0.00424472;-0.00759337;0.00736267;-0.00489859;0.0809319;0.00723216;0.0736612;0;0.111281;8.3913;6.20337
603000;604;27.9536;2.19845;0.0853598;-2.51134;27.8341;-0.60057;-0.261111;2.18061;-1.00476;-0.118454;-0.185867;-0.677995;0.71292;-7.51017;-0.00585211;0.00202006;0.078901;0.0789491;-0.00590023;0.0424247;0.0741703;13.4825;0.0547057;0.0565662;13.3807;0.0747346;87.2013;132.201;-0.00709029;-0.00585747;4.56513e-05;0.00383937;0.0789029;0.0146986;-0.0133816;0;0.0492826;-0.37052;-2.32282;-1.68827;2.89535;-8.08466;-0.0072872;0.00109341;0.0807336;0.0807472;-0.00730078;0.044024;0.0902623;11.0788;0.0564227;0.0586986;11.0601;0.0904153;93.2776;138.278;-0.00665489;-0.00729472;0.00665787;-0.00401789;0.0807136;0.00589306;0.0780439;0;0.112412;8.39448;6.21015
604000;605;27.9659;2.21074;0.0858371;-2.51326;27.8462;-0.600809;-0.263029;2.19278;-1.005;-0.117308;-0.180241;-0.685869;0.718794;-7.51804;-0.00596978;0.00225545;0.0799372;0.0799964;-0.00602895;0.0430127;0.0746808;13.3903;0.0554499;0.0573502;13.2687;0.0753653;86.9941;131.994;-0.00527503;-0.00597603;0.000157907;0.00418613;0.0799396;0.0096436;-0.0125973;0;0.0493567;-0.370542;-2.32889;-1.70011;2.90713;-8.10128;-0.00747596;0.00130412;0.080858;0.0808772;-0.00749521;0.0441862;0.0924579;10.8157;0.0565823;0.0589149;10.7905;0.0926739;93.0862;138.086;-0.001509;-0.0074821;0.00678335;-0.00372734;0.0808375;0.00425434;0.0802286;0;0.108237;8.39463;6.21801
605000;606;27.9694;2.2143;0.0859752;-2.51011;27.8497;-0.616618;-0.259882;2.19629;-1.02081;-0.118397;-0.175859;-0.681737;0.71394;-7.51685;-0.00590628;0.00226977;0.0795891;0.0796494;-0.0059665;0.0428079;0.0742096;13.4753;0.055196;0.0570772;13.3494;0.0749095;87.1167;132.117;-0.00478413;-0.00591179;0.00037513;0.00401436;0.0795915;0.015365;-0.0110769;0;0.0549552;-0.372452;-2.33592;-1.6982;2.91189;-8.10038;-0.0071025;0.00183888;0.0805686;0.0806072;-0.00714105;0.0438741;0.0881547;11.3437;0.0562697;0.0584988;11.2879;0.0885908;92.4989;137.499;-0.00164679;-0.00710503;0.00699559;-0.00289949;0.0805475;0.00681314;0.074885;0;0.0957227;8.39768;6.22525
606000;607;27.9878;2.23264;0.0866872;-2.51636;27.8673;-0.631328;-0.266134;2.21381;-1.03552;-0.117881;-0.174367;-0.686957;0.718477;-7.51913;-0.00632181;0.00262465;0.0805645;0.0806437;-0.00640102;0.0435224;0.0784689;12.7439;0.0560182;0.0580298;12.5986;0.079374;86.5555;131.556;-0.00252926;-0.00633011;0.000219184;0.00483669;0.0805677;0.00310533;-0.0157944;0;0.0507078;-0.373104;-2.3429;-1.70496;2.92152;-8.10777;-0.00724751;0.00151284;0.0798886;0.0799148;-0.00727376;0.0435943;0.0907202;11.0229;0.0558592;0.0581257;10.9867;0.091019;92.5051;137.505;-0.00417517;-0.00725063;0.00632929;-0.00291501;0.0798711;0.00796496;0.0758196;0;0.101009;8.39484;6.23327
607000;608;27.9947;2.23956;0.0869559;-2.51427;27.8744;-0.632477;-0.264042;2.22092;-1.03667;-0.1178;-0.17198;-0.682965;0.71407;-7.51514;-0.0061313;0.00250489;0.0801868;0.0802595;-0.00620393;0.0432317;0.0764627;13.0783;0.0556896;0.0576423;12.9369;0.0772984;86.5919;131.592;-0.00417315;-0.0061395;6.21634e-05;0.0047524;0.0801897;0.00755397;-0.0143439;0;0.0505639;-0.372992;-2.3467;-1.69936;2.92129;-8.09575;-0.00715367;0.00120364;0.0800547;0.0800713;-0.00717028;0.0436208;0.0893598;11.1907;0.0559244;0.0581611;11.1671;0.0895487;92.7233;137.723;-0.00784103;-0.00715829;0.0060582;-0.00325897;0.0800384;0.00477276;0.0825963;0;0.0962997;8.39478;6.23932
608000;609;28.002;2.24687;0.0872398;-2.51397;27.8818;-0.628589;-0.263742;2.22838;-1.03278;-0.117462;-0.167284;-0.689431;0.719094;-7.52161;-0.00635198;0.0025586;0.08059;0.0806652;-0.00642722;0.0435462;0.0788185;12.6874;0.0560422;0.0580616;12.5506;0.0796777;86.463;131.463;-0.00483556;-0.00636101;-3.92997e-05;0.00494747;0.080593;0.00315865;-0.0140077;0;0.0486583;-0.372948;-2.35319;-1.703;2.92862;-8.10416;-0.00681675;0.00128166;0.0813488;0.0813674;-0.00683538;0.0441014;0.0837966;11.9337;0.056661;0.0588019;11.9039;0.0840063;92.3722;137.372;-0.00399086;-0.00682009;0.00580968;-0.00287721;0.081334;0.00415623;0.0817572;0;0.0959928;8.39436;6.24657
609000;610;28.0071;2.25197;0.0874376;-2.514;27.8868;-0.633164;-0.263772;2.23339;-1.03736;-0.118375;-0.163413;-0.691845;0.72067;-7.52402;-0.00628609;0.00244822;0.0825261;0.0825935;-0.00635353;0.0444735;0.0761709;13.1284;0.0572977;0.059298;12.9996;0.0769252;86.7723;131.772;-0.0029759;-0.00629387;6.88825e-05;0.00463235;0.0825289;0.00287448;-0.0154524;0;0.0488897;-0.374668;-2.35725;-1.71027;2.93633;-8.11143;-0.00686338;0.00122458;0.0821306;0.0821474;-0.00688022;0.0445138;0.0835667;11.9665;0.0571965;0.0593518;11.9396;0.0837546;92.8921;137.892;-0.00472701;-0.00686916;0.0064869;-0.003605;0.0821118;0.00623298;0.0787703;0;0.10702;8.39358;6.25304
610000;611;28.0232;2.26806;0.0880627;-2.51885;27.9029;-0.617721;-0.268616;2.24947;-1.02191;-0.117697;-0.160045;-0.693783;0.721666;-7.52596;-0.00635609;0.00216588;0.0816856;0.0817388;-0.00640934;0.0440741;0.0778117;12.8515;0.0567498;0.0587654;12.7531;0.0784125;86.6295;131.63;-0.00304511;-0.00636501;-0.000629115;0.00473337;0.0816875;3.8628e-05;-0.0118561;0;0.0486525;-0.375211;-2.36473;-1.71092;2.94278;-8.11208;-0.00691406;0.00105335;0.0831891;0.0832014;-0.00692637;0.0450639;0.0831126;12.0319;0.0579146;0.0600852;12.0123;0.0832483;93.4545;138.455;-0.0064422;-0.00692342;0.00704427;-0.00443926;0.0831667;0.0116648;0.0781944;0;0.109983;8.39635;6.25882
611000;612;28.0279;2.27274;0.0882444;-2.51883;27.908;-0.601579;-0.2686;2.25452;-1.00577;-0.118626;-0.157461;-0.695356;0.722763;-7.52753;-0.00651499;0.00270412;0.0826022;0.0826842;-0.00659696;0.0446406;0.0788718;12.6788;0.0574482;0.0595208;12.5337;0.0797851;86.436;131.436;-0.00248733;-0.00652449;7.28575e-05;0.00511876;0.0826056;0.00358492;-0.0092281;0;0.0498459;-0.377413;-2.37068;-1.71603;2.95082;-8.1172;-0.0074242;0.000837695;0.0833356;0.0833433;-0.00743193;0.0453876;0.089088;11.2249;0.0581979;0.0605168;11.2142;0.0891725;93.4262;138.426;-0.00464384;-0.00743359;0.00655279;-0.00439862;0.0833161;0.00737477;0.0694823;0;0.119532;8.39773;6.26305
612000;613;28.039;2.28388;0.0886768;-2.52148;27.9191;-0.593242;-0.271252;2.26565;-0.997435;-0.117899;-0.153382;-0.694689;0.721123;-7.52686;-0.00672953;0.00254804;0.0837888;0.0838605;-0.0068012;0.0453308;0.0803154;12.4509;0.0583064;0.0604411;12.3303;0.0811013;86.6488;131.649;-0.00294386;-0.00673822;8.37909e-06;0.00487557;0.0837918;0.00127608;-0.0117798;0;0.058809;-0.377592;-2.37648;-1.71146;2.95285;-8.11262;-0.00752232;0.00105335;0.0840501;0.0840622;-0.00753443;0.0457983;0.089498;11.1734;0.0587143;0.0610644;11.1571;0.0896292;93.3353;138.335;-0.00444331;-0.00753098;0.00687661;-0.00427803;0.0840288;0.00691612;0.071431;0;0.117652;8.39784;6.26824
613000;614;28.0535;2.2984;0.0892406;-2.52304;27.9333;-0.603173;-0.27281;2.27988;-1.00737;-0.118173;-0.151659;-0.692622;0.718812;-7.5248;-0.00658814;0.00248519;0.0835396;0.0836081;-0.00665662;0.0451323;0.0788625;12.6803;0.0580849;0.0601765;12.5601;0.0796169;86.6597;131.66;-0.00264439;-0.00659682;-8.24914e-05;0.00483929;0.0835425;0.00210137;-0.00913763;0;0.0547509;-0.378661;-2.384;-1.71387;2.96044;-8.11386;-0.00707936;0.0014806;0.0838645;0.0838886;-0.00710346;0.0454961;0.0844142;11.8463;0.0584377;0.0606614;11.8095;0.0846772;92.7105;137.711;-0.00308662;-0.00708406;0.00680261;-0.00339488;0.0838442;0.00326623;0.0814246;0;0.110544;8.40464;6.27562
614000;615;28.0719;2.31678;0.0899543;-2.52714;27.9509;-0.624974;-0.276907;2.29749;-1.02917;-0.118708;-0.149321;-0.691684;0.717506;-7.52386;-0.0064465;0.00219596;0.084798;0.0848508;-0.00649932;0.045675;0.0760219;13.1541;0.0588534;0.0609001;13.0553;0.0765971;86.9214;131.921;-0.00203604;-0.00645431;-0.000330195;0.00450962;0.0848001;0.00222022;-0.0102321;0;0.0526248;-0.380218;-2.39135;-1.71586;2.96771;-8.11804;-0.0064395;0.00164123;0.0833534;0.0833834;-0.00646949;0.0449264;0.0772554;12.9441;0.0578661;0.0599019;12.8887;0.0775873;92.2988;137.299;-0.00243778;-0.00644221;0.00653016;-0.00284251;0.083335;0.00794016;0.080471;0;0.101682;8.40032;6.28289
615000;616;28.0724;2.31725;0.0899723;-2.5256;27.9512;-0.638178;-0.27537;2.2978;-1.04237;-0.119006;-0.145338;-0.697624;0.722471;-7.5298;-0.00649108;0.00265314;0.085594;0.0856704;-0.00656746;0.0461189;0.0758357;13.1864;0.0594238;0.0614919;13.0447;0.0766597;86.5101;131.51;-0.00106002;-0.00650105;-0.000110044;0.00518193;0.0855972;0.000695094;-0.00986579;0;0.0515636;-0.380662;-2.39663;-1.72186;2.97549;-8.12303;-0.00673001;0.00180204;0.0833965;0.0834326;-0.00676603;0.0450993;0.080699;12.3917;0.0580087;0.0601324;12.3311;0.0810958;92.0451;137.045;-0.00823127;-0.00673142;0.00644689;-0.00245645;0.0833789;0.0131536;0.0819294;0;0.10078;8.40385;6.2906
616000;617;28.0823;2.32719;0.0903585;-2.52623;27.9613;-0.633146;-0.276004;2.30784;-1.03734;-0.118452;-0.14157;-0.697051;0.721077;-7.52923;-0.00662009;0.00265447;0.0853101;0.0853867;-0.00669668;0.0460417;0.0776003;12.8865;0.0592829;0.0613889;12.7506;0.0784276;86.4243;131.424;-0.000129536;-0.00663059;-0.000216612;0.00528234;0.0853134;-0.00255039;-0.00986351;0;0.0537007;-0.380931;-2.40218;-1.72198;2.98007;-8.12315;-0.00704446;0.00145471;0.0830564;0.0830798;-0.00706794;0.0450739;0.0848154;11.7903;0.0578866;0.0600985;11.7545;0.0850741;91.9512;136.951;-0.00577424;-0.00704617;0.00560173;-0.00234734;0.0830429;0.00467991;0.0794485;0;0.0983454;8.39992;6.29737
617000;618;28.089;2.33384;0.0906165;-2.52484;27.968;-0.63607;-0.27461;2.31458;-1.04026;-0.117853;-0.138075;-0.698955;0.722144;-7.53113;-0.00652227;0.00290997;0.0860201;0.0861115;-0.00661368;0.0463626;0.0758226;13.1887;0.0597344;0.0618168;13.0202;0.0768037;86.2301;131.23;-0.00323669;-0.00653396;-6.43852e-05;0.00563085;0.086024;0.00401317;-0.0145478;0;0.0487774;-0.380879;-2.40711;-1.72303;2.98464;-8.12419;-0.00695;0.00139099;0.0836683;0.0836897;-0.00697134;0.0453305;0.083066;12.0386;0.0582561;0.0604407;12.0048;0.0832999;92.2075;137.207;-0.00750938;-0.00695278;0.0058882;-0.00273018;0.0836532;0.0137601;0.0792416;0;0.0981284;8.40042;6.3053
618000;619;28.096;2.3409;0.0908906;-2.5264;27.9751;-0.630946;-0.276173;2.32164;-1.03514;-0.117244;-0.136559;-0.697927;0.720762;-7.5301;-0.00666269;0.00235206;0.086326;0.0863855;-0.00672214;0.0465538;0.0771805;12.9566;0.0599568;0.0620717;12.8509;0.0778156;86.746;131.746;0.000608625;-0.00667174;-0.000379558;0.00484984;0.0863285;-0.000205477;-0.0115717;0;0.0506812;-0.381559;-2.41498;-1.72163;2.99027;-8.12279;-0.00658187;0.00112919;0.0851154;0.0851293;-0.00659577;0.0458625;0.0773288;12.9318;0.0590743;0.06115;12.9066;0.0774795;92.8231;137.823;-0.00543899;-0.00658812;0.00640558;-0.00370135;0.0850971;0.0111763;0.076332;0;0.106278;8.4032;6.3125
619000;620;28.1141;2.35896;0.0915921;-2.52988;27.9931;-0.622614;-0.279648;2.33966;-1.02681;-0.117339;-0.130717;-0.702088;0.723729;-7.53426;-0.00666942;0.0023422;0.0869941;0.0870526;-0.00672796;0.0468903;0.0766653;13.0437;0.0604027;0.0625204;12.9389;0.0772861;86.9431;131.943;-0.00167328;-0.00667735;-0.000137427;0.00460816;0.0869966;0.0042651;-0.0168713;0;0.0523544;-0.382567;-2.42004;-1.72627;2.99716;-8.12743;-0.00674876;0.000972701;0.0855194;0.0855297;-0.00675901;0.0461443;0.078915;12.6719;0.0594011;0.0615258;12.6542;0.0790254;93.1321;138.132;-0.00724199;-0.006757;0.00658201;-0.00415985;0.0854999;0.0149925;0.0760447;0;0.11188;8.39922;6.32009
620000;621;28.1155;2.36037;0.0916465;-2.52764;27.9949;-0.614506;-0.27741;2.34145;-1.0187;-0.117908;-0.12714;-0.700881;0.722012;-7.53774;-0.00679684;0.00227907;0.0875063;0.0875613;-0.00685189;0.0472066;0.0776726;12.8746;0.060787;0.0629421;12.7792;0.0782524;86.9032;131.903;-0.00144241;-0.00680524;-0.000348742;0.004679;0.0875086;0.00407161;-0.0155519;0;0.0468407;-0.384026;-2.42682;-1.7261;3.00273;-8.12726;-0.00698113;0.00102449;0.0860493;0.0860606;-0.00699241;0.0465265;0.0811294;12.326;0.0598409;0.0620354;12.3077;0.0812499;93.312;138.312;-0.00699502;-0.00699042;0.00697372;-0.00441517;0.0860274;0.00612652;0.0770727;0;0.119244;8.40143;6.32703
621000;622;28.1355;2.38041;0.0924247;-2.53154;28.0145;-0.622458;-0.281313;2.36105;-1.02665;-0.118857;-0.124523;-0.704562;0.725287;-7.53674;-0.00673936;0.00199572;0.0880581;0.0881001;-0.00678136;0.0474407;0.0765332;13.0662;0.0611194;0.0632543;12.9915;0.0769734;87.2448;132.245;0.00036144;-0.00674616;-0.000399976;0.00418267;0.0880598;-0.00237105;-0.0157748;0;0.0478478;-0.385789;-2.43395;-1.72909;3.01043;-8.13025;-0.00690435;0.00113091;0.0867838;0.0867975;-0.006918;0.0468577;0.0795581;12.5694;0.0603034;0.062477;12.5466;0.0797028;92.6714;137.671;-0.00531292;-0.00691004;0.00625115;-0.00354795;0.0867664;0.00719609;0.0738782;0;0.116402;8.40321;6.33454
622000;623;28.142;2.3869;0.0926767;-2.52973;28.0214;-0.613482;-0.279502;2.36793;-1.01767;-0.117615;-0.117233;-0.710319;0.729473;-7.54718;-0.00631797;0.00262237;0.0886117;0.0886841;-0.00639036;0.0475372;0.0712996;14.0253;0.0613638;0.0633829;13.8778;0.0720576;86.4687;131.469;-0.00168103;-0.00632924;-0.000431809;0.0054102;0.0886147;0.00675715;-0.0153627;0;0.0481224;-0.386144;-2.43815;-1.7368;3.01831;-8.13796;-0.00669563;0.0015835;0.0866403;0.0866672;-0.00672249;0.0466948;0.0772808;12.9398;0.0601443;0.0622598;12.8921;0.0775667;92.3732;137.373;-0.00354909;-0.00669913;0.0066795;-0.00307482;0.0866209;0.00533827;0.0810346;0;0.112213;8.40169;6.33712
623000;624;28.1528;2.39773;0.0930972;-2.53095;28.0314;-0.647648;-0.280722;2.37793;-1.05184;-0.117133;-0.115314;-0.711775;0.730507;-7.54395;-0.00626913;0.00260797;0.0886778;0.0887494;-0.00634071;0.047545;0.0706956;14.1451;0.0613891;0.0633934;13.9967;0.0714452;86.5913;131.591;-0.00405622;-0.00627951;-0.000271895;0.00523666;0.0886809;0.00307762;-0.0145924;0;0.0475557;-0.38634;-2.44498;-1.73834;3.02473;-8.14052;-0.00661239;0.00175838;0.0865118;0.086545;-0.00664558;0.0465953;0.0764334;13.0833;0.0600346;0.062127;13.0229;0.0767876;91.907;136.907;-0.00142268;-0.00661373;0.00630359;-0.00239729;0.0864949;0.00299498;0.0765814;0;0.104926;8.40464;6.3428
624000;625;28.1604;2.40524;0.0933888;-2.52992;28.0388;-0.654715;-0.27969;2.3854;-1.05891;-0.117817;-0.112047;-0.710754;0.729114;-7.54293;-0.00644219;0.00266606;0.0881826;0.0882576;-0.00651725;0.0473874;0.0730552;13.6883;0.0611267;0.0631832;13.5422;0.0738435;86.545;131.545;-0.00445505;-0.00645265;-0.000198372;0.00528139;0.0881858;0.00482456;-0.0203496;0;0.049718;-0.38765;-2.45155;-1.74046;3.03143;-8.14344;-0.00633136;0.00159375;0.0857336;0.0857612;-0.00635894;0.0460601;0.0738492;13.5411;0.0594073;0.0614134;13.4867;0.0741471;92.2579;137.258;-0.00519894;-0.00633432;0.00650527;-0.00290133;0.0857153;0.0146078;0.0771703;0;0.110242;8.41147;6.35145
625000;626;28.1704;2.41532;0.0937803;-2.52998;28.0491;-0.648611;-0.27975;2.39566;-1.0528;-0.118229;-0.106948;-0.715558;0.733102;-7.54773;-0.00646475;0.0029836;0.0893531;0.0894459;-0.00655756;0.0480017;0.0723506;13.8216;0.0619323;0.0640023;13.6401;0.0733132;86.1441;131.144;-0.00277848;-0.00647821;-0.000291105;0.00597024;0.0893571;0.00455543;-0.0227975;0;0.0520384;-0.387912;-2.45549;-1.74589;3.03777;-8.14705;-0.00652513;0.00165819;0.0856021;0.085632;-0.00655497;0.0460935;0.0762263;13.1188;0.0593937;0.061458;13.0637;0.0765481;91.9746;136.975;-0.00880268;-0.00652684;0.00617871;-0.00247873;0.0855858;0.0153124;0.0818644;0;0.107663;8.40481;6.35721
626000;627;28.1788;2.42365;0.0941038;-2.53019;28.0576;-0.641853;-0.279961;2.40416;-1.04605;-0.118692;-0.104405;-0.71207;0.729406;-7.54425;-0.00624657;0.00302663;0.0903416;0.0904363;-0.00634132;0.0483888;0.0691439;14.4626;0.062512;0.0645184;14.2614;0.0701192;86.214;131.214;-0.00289356;-0.00625971;-0.000168227;0.00593844;0.0903458;0.00687307;-0.0183806;0;0.0528314;-0.388697;-2.46253;-1.74213;3.04141;-8.1433;-0.00705177;0.00129329;0.0863636;0.0863815;-0.00706967;0.0467256;0.0816521;12.2471;0.060083;0.0623008;12.2186;0.0818424;91.8925;136.893;-0.00769462;-0.00705385;0.00534437;-0.00240947;0.0863512;0.010645;0.0778089;0;0.106338;8.40567;6.36393
627000;628;28.1855;2.43036;0.0943642;-2.53058;28.0643;-0.642406;-0.28035;2.41085;-1.0466;-0.118955;-0.100643;-0.71194;0.728792;-7.54705;-0.0065818;0.00238224;0.0901905;0.0902491;-0.00664041;0.0484448;0.0729767;13.703;0.0624972;0.064593;13.5909;0.0735787;86.7428;131.743;-0.00274794;-0.00659186;-0.000561836;0.00506497;0.0901929;0.0103634;-0.0149241;0;0.058326;-0.389888;-2.46937;-1.74479;3.04862;-8.14595;-0.00655656;0.00123288;0.0875118;0.087528;-0.00657271;0.0470503;0.0749219;13.3472;0.0606617;0.0627338;13.3169;0.0750927;92.7925;137.792;-0.00955094;-0.00656293;0.00670697;-0.00376773;0.0874918;0.0191225;0.0792909;0;0.114839;8.40692;6.37099
628000;629;28.2012;2.44609;0.0949748;-2.53499;28.08;-0.628995;-0.284758;2.42655;-1.03319;-0.118401;-0.0967848;-0.714993;0.731164;-7.5501;-0.00645683;0.00275005;0.0908593;0.0909369;-0.00653449;0.0487357;0.0710641;14.0718;0.062916;0.0649809;13.9165;0.0718573;86.5027;131.503;-0.00280475;-0.00646828;-0.000275507;0.00550567;0.0908627;0.0118085;-0.0138645;0;0.0551765;-0.390674;-2.4758;-1.74628;3.05478;-8.14744;-0.00694813;0.000830263;0.0882751;0.0882823;-0.00695537;0.0476188;0.07871;12.7049;0.061305;0.0634918;12.6927;0.0787855;92.8042;137.804;-0.00819456;-0.00695524;0.00595775;-0.00384859;0.0882591;0.0100723;0.0792315;0;0.119331;8.40516;6.37847
629000;630;28.2046;2.44953;0.0951085;-2.53419;28.0839;-0.610083;-0.283956;2.4305;-1.01428;-0.118568;-0.0925054;-0.71275;0.728442;-7.54786;-0.00650171;0.00285141;0.0916055;0.0916883;-0.00658451;0.0491364;0.0709751;14.0894;0.0634344;0.0655152;13.9248;0.0718141;86.4431;131.443;-0.00158325;-0.00651368;-0.000223531;0.00564996;0.0916092;0.0119737;-0.0160397;0;0.0527375;-0.391604;-2.48055;-1.7463;3.05877;-8.14747;-0.00673954;0.00116113;0.0881239;0.0881381;-0.00675375;0.0474459;0.076478;13.0757;0.0611345;0.0632612;13.0503;0.0766269;92.9228;137.923;-0.00992546;-0.00674684;0.00679419;-0.00398087;0.0881033;0.0131725;0.0798311;0;0.121125;8.40158;6.38543
630000;631;28.213;2.45791;0.095434;-2.53252;28.0919;-0.638597;-0.282293;2.43843;-1.04279;-0.119566;-0.0916218;-0.709981;0.725785;-7.54509;-0.00633884;0.00289085;0.0914405;0.0915259;-0.00642424;0.0489751;0.0693221;14.4254;0.0632675;0.0653001;14.247;0.0701904;86.3222;131.322;-0.00338916;-0.00635172;-0.000333976;0.00582675;0.0914443;0.0100979;-0.0153161;0;0.0553903;-0.392962;-2.48931;-1.74384;3.06465;-8.14501;-0.00673428;0.00127476;0.0893356;0.0893525;-0.00675119;0.0480519;0.0753818;13.2658;0.0619415;0.0640692;13.2351;0.0755568;92.5519;137.552;-0.00482977;-0.00673959;0.00650083;-0.00349045;0.089317;0.00588732;0.0792257;0;0.117691;8.40514;6.39284
631000;632;28.2277;2.47256;0.0960027;-2.53464;28.1064;-0.640724;-0.284415;2.45291;-1.04492;-0.119752;-0.0866871;-0.715292;0.730409;-7.5504;-0.00645069;0.00271836;0.0917014;0.0917766;-0.00652592;0.0491513;0.0703445;14.2157;0.0634717;0.065535;14.0634;0.0711066;86.3697;131.37;-0.000807943;-0.0064636;-0.000609546;0.00574704;0.0917046;0.00810202;-0.0159831;0;0.0591816;-0.394258;-2.49492;-1.74998;3.07286;-8.15114;-0.00669407;0.00177554;0.0890006;0.0890336;-0.006727;0.0478803;0.0752138;13.2954;0.0617204;0.0638404;13.2352;0.0755558;92.088;137.088;-0.00585578;-0.00669626;0.0067255;-0.00273947;0.0889813;0.00662076;0.0842705;0;0.116099;8.40613;6.40005
632000;633;28.2375;2.48241;0.0963849;-2.53712;28.1157;-0.65281;-0.286888;2.46229;-1.057;-0.119614;-0.0836375;-0.717162;0.731864;-7.55227;-0.00635245;0.00268972;0.0917403;0.091814;-0.00642614;0.0491201;0.0692438;14.4417;0.0634599;0.0654934;14.2876;0.0699909;86.5673;131.567;0.00118843;-0.00636377;-0.00034637;0.005453;0.0917435;0.00332077;-0.0089383;0;0.0508175;-0.395057;-2.50133;-1.75253;3.07962;-8.15369;-0.00637325;0.00170583;0.0883976;0.0884283;-0.00640395;0.0474161;0.0720976;13.8701;0.0611987;0.0632215;13.8084;0.0724196;91.8913;136.891;-0.00270101;-0.00637485;0.00627575;-0.0024662;0.0883809;0.00919675;0.0812161;0;0.115894;8.40497;6.40672
633000;634;28.2525;2.4974;0.0969673;-2.53755;28.131;-0.640688;-0.287316;2.4776;-1.04488;-0.119481;-0.0765195;-0.728501;0.742189;-7.56361;-0.00635145;0.00289573;0.0923643;0.0924492;-0.00643632;0.0494428;0.0687652;14.5422;0.0638864;0.0659237;14.3637;0.0696201;86.3872;131.387;0.00276022;-0.00636407;-0.000280871;0.00578524;0.0923681;0.00190131;-0.0138324;0;0.0506423;-0.395369;-2.50621;-1.7653;3.09091;-8.16953;-0.00669304;0.0015417;0.0879271;0.0879522;-0.00671815;0.0473352;0.0761203;13.1371;0.0609977;0.0631136;13.0917;0.0763841;92.078;137.078;-0.00142981;-0.00669555;0.00620456;-0.00271564;0.0879105;0.0131618;0.0794193;0;0.11805;8.40697;6.41111
634000;635;28.2599;2.50475;0.0972526;-2.53819;28.1384;-0.636921;-0.287961;2.485;-1.04111;-0.119882;-0.0741725;-0.730784;0.744257;-7.56589;-0.00638131;0.00266199;0.0933332;0.0934042;-0.00645232;0.0499283;0.0683713;14.626;0.0645279;0.066571;14.4761;0.0690796;86.7003;131.7;0.00226813;-0.00639207;-0.000281532;0.00533703;0.0933364;0.00119152;-0.012816;0;0.0489378;-0.396169;-2.51127;-1.76499;3.09494;-8.16615;-0.00668526;0.00152165;0.0882441;0.0882685;-0.00670965;0.0474891;0.0757588;13.1998;0.0612049;0.0633187;13.1555;0.0760141;92.0123;137.012;-0.00371001;-0.0066876;0.0060779;-0.00263717;0.0882282;0.0077738;0.0745891;0;0.107159;8.40535;6.41486
635000;636;28.2697;2.51457;0.0976336;-2.53983;28.1483;-0.632327;-0.289598;2.49483;-1.03739;-0.119397;-0.0708643;-0.73223;0.745277;-7.56786;-0.0067064;0.0031943;0.0932653;0.0933672;-0.00680836;0.0500878;0.0719067;13.9069;0.0646339;0.0667837;13.7136;0.0729202;86.3517;131.352;0.00179216;-0.00671896;0.000183963;0.00592934;0.0932699;-0.0119058;-0.0128589;0;0.0536582;-0.396406;-2.5175;-1.76708;3.10122;-8.16938;-0.00685099;0.000908333;0.0883637;0.0883724;-0.00685965;0.047616;0.0775317;12.898;0.0613295;0.063488;12.8829;0.0776221;92.5887;137.589;-0.00820757;-0.00685688;0.00578352;-0.00354037;0.0883487;0.0125606;0.0785057;0;0.114794;8.40887;6.42199
636000;637;28.2752;2.52002;0.0978455;-2.53974;28.1535;-0.642372;-0.289513;2.50009;-1.04744;-0.118626;-0.0677826;-0.730288;0.742958;-7.56592;-0.00672377;0.00319118;0.0940655;0.0941664;-0.00682471;0.0504956;0.0714797;13.99;0.0651718;0.0673274;13.7979;0.072475;86.3398;131.34;0.00280067;-0.00673673;0.000103613;0.00599429;0.0940702;-0.00975414;-0.0133342;0;0.0535512;-0.396717;-2.52376;-1.76479;3.10503;-8.16595;-0.00692079;0.00111503;0.0899395;0.0899523;-0.00693362;0.048443;0.0769494;12.9956;0.0624079;0.0645906;12.9733;0.0770811;92.7491;137.749;-0.00734224;-0.00692749;0.00652527;-0.00381443;0.0899205;0.0129671;0.0770989;0;0.117415;8.40852;6.42888
637000;638;28.2873;2.53217;0.098317;-2.54128;28.1664;-0.607103;-0.291051;2.51293;-1.01217;-0.118483;-0.0639042;-0.733282;0.745536;-7.56892;-0.00667268;0.00331988;0.0939621;0.0940715;-0.00678208;0.0504268;0.0710146;14.0816;0.0650929;0.0672357;13.8706;0.0720949;86.1533;131.153;0.00206651;-0.00668705;4.90127e-05;0.00628983;0.0939672;-0.0063645;-0.0174344;0;0.0523037;-0.397834;-2.52997;-1.76764;3.11185;-8.1688;-0.00684262;0.00111366;0.0905367;0.0905495;-0.00685535;0.0487024;0.0755783;13.2313;0.0627763;0.0649366;13.2086;0.0757083;92.5426;137.543;-0.00791649;-0.00684832;0.00623027;-0.00354608;0.0905195;0.0116562;0.0813968;0;0.119564;8.41011;6.43682
638000;639;28.3064;2.55132;0.0990605;-2.54522;28.1849;-0.622725;-0.294991;2.53146;-1.02779;-0.117843;-0.0594142;-0.735744;0.747486;-7.57161;-0.00660202;0.00333947;0.0942879;0.0943984;-0.00671244;0.0505554;0.0700198;14.2817;0.0652848;0.0674072;14.0632;0.0711076;86.0005;131.001;0.000505156;-0.00661798;-0.000193816;0.00654697;0.094293;-0.00500346;-0.0129141;0;0.0531843;-0.398727;-2.53587;-1.7698;3.11798;-8.17096;-0.00663079;0.00124456;0.0908632;0.0908791;-0.00664668;0.0487629;0.0729755;13.7032;0.0629188;0.0650172;13.6729;0.0731376;92.9712;137.971;-0.00849459;-0.00663887;0.00721764;-0.00419472;0.0908401;0.00886129;0.0806922;0;0.122002;8.39785;6.44392
639000;640;28.3099;2.55479;0.0991955;-2.54275;28.188;-0.64948;-0.292519;2.53457;-1.05455;-0.118549;-0.0567732;-0.737967;0.749582;-7.57383;-0.00680434;0.00321623;0.094402;0.0945041;-0.00690644;0.0507053;0.0720783;13.8738;0.0654265;0.067607;13.6835;0.0730809;86.3063;131.306;-0.00115816;-0.00681767;7.35894e-05;0.00606823;0.0944067;-0.00586562;-0.0141202;0;0.0521893;-0.400219;-2.54412;-1.77402;3.12728;-8.17518;-0.00647717;0.00152632;0.091315;0.0913388;-0.00650099;0.0489199;0.0709322;14.098;0.0631711;0.0652265;14.05;0.0711745;92.2389;137.239;-0.00725629;-0.00648085;0.00661032;-0.00310214;0.0912961;0.00561688;0.0849662;0;0.118041;8.41819;6.45138
640000;641;28.3305;2.5754;0.0999954;-2.5461;28.2092;-0.612478;-0.295873;2.55579;-1.01754;-0.118523;-0.0516396;-0.742167;0.753344;-7.57803;-0.00685886;0.00317502;0.0947953;0.0948944;-0.00695793;0.0509262;0.0723544;13.8209;0.0657052;0.0679016;13.6383;0.0733229;86.3168;131.317;-0.000964281;-0.00687233;-1.57759e-05;0.00606952;0.0947999;-0.00643268;-0.0173261;0;0.0519638;-0.401766;-2.55219;-1.77579;3.13505;-8.17797;-0.0062813;0.00204722;0.0910107;0.0910537;-0.00632436;0.0486891;0.0690172;14.4891;0.0629167;0.0649187;14.3973;0.0694574;91.3955;136.396;-0.00149343;-0.0062808;0.00625504;-0.0017854;0.0909947;0.00706934;0.0752884;0;0.121304;8.42652;6.45921
641000;642;28.3378;2.58273;0.10028;-2.54466;28.2157;-0.65626;-0.294433;2.56229;-1.06045;-0.117993;-0.0482494;-0.741725;0.752599;-7.5739;-0.00633232;0.00358336;0.0941721;0.0942997;-0.00645992;0.0503798;0.067242;14.8717;0.0651267;0.0671731;14.5977;0.0685041;86.0176;131.018;-0.00185328;-0.00634743;0.000318662;0.00654814;0.094178;-0.00113777;-0.0185231;0;0.0531401;-0.401653;-2.5579;-1.77556;3.13956;-8.17673;-0.00634729;0.00187839;0.0911422;0.0911784;-0.00638347;0.0487809;0.0696417;14.3592;0.0630213;0.0650412;14.2835;0.0700108;91.4595;136.459;-0.000812218;-0.00634734;0.00602877;-0.00190119;0.0911271;0.00519811;0.0831927;0;0.117932;8.40943;6.46679
642000;643;28.3453;2.59022;0.100571;-2.54539;28.2232;-0.656617;-0.295161;2.56974;-1.06081;-0.117986;-0.0440432;-0.735916;0.746615;-7.57414;-0.00615335;0.00287719;0.094419;0.0945012;-0.00623559;0.0503684;0.0651707;15.3443;0.0651789;0.0671579;15.1551;0.0659842;86.6707;131.671;-0.000212553;-0.00616424;2.09993e-05;0.00547089;0.0944228;0.0121037;-0.017852;0;0.0519578;-0.402538;-2.56498;-1.77499;3.14511;-8.17796;-0.00627758;0.00158113;0.0908184;0.0908441;-0.00630332;0.0485737;0.0691223;14.4671;0.0627695;0.064765;14.4121;0.0693861;91.9871;136.987;-0.00176288;-0.00628003;0.00629793;-0.00271584;0.0908014;0.00971782;0.079756;0;0.119408;8.40172;6.47371
643000;644;28.356;2.60084;0.100984;-2.5451;28.2342;-0.64286;-0.29487;2.58076;-1.04761;-0.11783;-0.04129;-0.73916;0.749631;-7.57134;-0.00644838;0.0036566;0.0942759;0.0944084;-0.00658095;0.0504947;0.0683991;14.6201;0.0652433;0.0673263;14.3457;0.0697073;85.6566;130.657;-0.00124845;-0.00646714;-0.000154533;0.00711688;0.0942819;0.000496309;-0.0201913;0;0.052952;-0.402229;-2.56902;-1.77925;3.15078;-8.18141;-0.00667032;0.00186753;0.0903747;0.0904106;-0.00670625;0.0485584;0.0738074;13.5488;0.0626289;0.0647445;13.4815;0.0741754;91.6263;136.626;-0.00573264;-0.00667079;0.0062277;-0.0021046;0.0903585;0.00901311;0.0778016;0;0.106794;8.40043;6.48078
644000;645;28.3701;2.61497;0.101532;-2.54799;28.2484;-0.631001;-0.297761;2.59495;-1.03519;-0.117887;-0.0339476;-0.747899;0.757893;-7.58007;-0.0064035;0.00348896;0.0951675;0.0952872;-0.00652321;0.0509052;0.0672867;14.8618;0.065807;0.0678736;14.6074;0.0684584;85.8183;130.818;-0.00410103;-0.00642139;-0.000279966;0.0069083;0.095173;0.00196737;-0.0236592;0;0.0540076;-0.403193;-2.57196;-1.78654;3.15741;-8.1877;-0.00643086;0.00174087;0.0911132;0.0911442;-0.00646192;0.0488031;0.070581;14.1681;0.0630273;0.0650708;14.1048;0.0708978;92.0759;137.076;-0.00912254;-0.00643336;0.00675763;-0.00282743;0.0910936;0.0164942;0.0819673;0;0.113771;8.39747;6.48491
645000;646;28.3792;2.62413;0.101888;-2.55009;28.2574;-0.62924;-0.299864;2.60399;-1.03343;-0.118125;-0.0286052;-0.748422;0.758226;-7.58528;-0.00659114;0.0036231;0.0947934;0.0949227;-0.00672045;0.0508216;0.0695316;14.3819;0.0656367;0.0677621;14.1245;0.0707992;85.7078;130.708;-0.00567457;-0.00660968;-0.000174117;0.00706862;0.0947994;0.00863283;-0.0216463;0;0.0529233;-0.403979;-2.57884;-1.7868;3.16327;-8.18797;-0.00679747;0.00130085;0.0919361;0.0919533;-0.00681461;0.0493839;0.0739369;13.525;0.0636953;0.0658452;13.4936;0.0741095;92.2278;137.228;-0.00778092;-0.00680151;0.0061589;-0.00311796;0.0919195;0.0146653;0.0799431;0;0.119764;8.39789;6.48805
646000;647;28.3792;2.6241;0.101887;-2.54594;28.2581;-0.615331;-0.295709;2.60464;-1.01952;-0.118261;-0.0283153;-0.745099;0.754957;-7.57728;-0.00633574;0.00309526;0.0953749;0.095469;-0.00642985;0.0509494;0.0664299;15.0535;0.065894;0.0679326;14.8478;0.0673501;86.0843;131.084;-0.00265189;-0.00635192;-0.000613342;0.00645946;0.0953791;0.00266311;-0.0224597;0;0.057723;-0.404221;-2.58463;-1.78684;3.16805;-8.18801;-0.00709382;0.0014984;0.0926031;0.0926256;-0.00711633;0.049871;0.0766045;13.0541;0.064254;0.0664946;13.0159;0.076829;92.2735;137.274;-0.00787168;-0.00709773;0.00663124;-0.00316612;0.092584;0.00954253;0.0792961;0;0.123884;8.40098;6.49555
647000;648;28.3865;2.6314;0.10217;-2.54751;28.2646;-0.647009;-0.297281;2.61113;-1.0512;-0.117783;-0.0235479;-0.752111;0.761642;-7.58429;-0.00640181;0.00345985;0.0952158;0.0953335;-0.00651948;0.0509265;0.0672348;14.8733;0.0658365;0.067902;14.6229;0.068386;85.969;130.969;-0.0013112;-0.00641821;-8.34189e-05;0.00667433;0.0952213;0.00627961;-0.0234507;0;0.0598967;-0.405629;-2.59071;-1.79177;3.17596;-8.19293;-0.00654426;0.00143311;0.0931081;0.0931287;-0.00656487;0.0498468;0.0702867;14.2274;0.0643857;0.0664624;14.1859;0.0704925;92.4693;137.469;-0.00616601;-0.00654951;0.00689724;-0.00353293;0.0930872;0.00448661;0.0840776;0;0.119386;8.40694;6.5027
648000;649;;;;;;;;;;-0.116608;-0.0203232;-0.75419;0.763422;-7.58637;-0.00660588;0.00412277;0.094405;0.094573;-0.00677387;0.0506734;0.0699739;14.2911;0.0654236;0.0675646;13.9614;0.0716259;85.2579;130.258;-0.00326041;-0.00662794;7.30361e-05;0.00779867;0.0944128;0.00152596;-0.0201115;0;0.0610754;-0.406089;-2.5964;-1.79387;3.18185;-8.1959;-0.00609552;0.00141154;0.0936081;0.0936281;-0.0061155;0.0498718;0.0651175;15.3569;0.0645538;0.0664957;15.31;0.065317;92.4341;137.434;0.00203818;-0.00610081;0.00685669;-0.00353721;0.0935875;0.00443361;0.0859852;0;0.11398;8.4052;6.50994
649000;650;28.4138;2.65873;0.103231;-2.5506;28.2924;-0.616051;-0.300373;2.63899;-1.02024;-0.117447;-0.0175704;-0.75044;0.759778;-7.58262;-0.00620252;0.00372254;0.0948942;0.0950311;-0.0063394;0.0506853;0.0653625;15.2993;0.0655694;0.0675803;14.9905;0.0667087;85.7012;130.701;-0.000282062;-0.00622093;-1.82957e-06;0.00710298;0.0949006;0.0056498;-0.0217391;0;0.0597024;-0.406778;-2.6043;-1.79307;3.18793;-8.19423;-0.00647199;0.00168728;0.0931754;0.093204;-0.00650055;0.0498523;0.0694603;14.3967;0.0644123;0.0664697;14.3379;0.0697454;91.9255;136.926;-0.00424363;-0.00647417;0.00649429;-0.00268158;0.0931574;0.00765619;0.0838282;0;0.119777;8.40508;6.51772
650000;651;28.4332;2.6781;0.103983;-2.55559;28.3108;-0.643415;-0.305361;2.65739;-1.04848;-0.11786;-0.0127565;-0.75328;0.762552;-7.59197;-0.00597492;0.00374568;0.0962433;0.0963803;-0.006112;0.0512462;0.0620815;16.1079;0.0663847;0.0683282;15.769;0.0634154;86.1222;131.122;0.00013728;-0.00598938;0.000663631;0.00654031;0.0962494;0.00528212;-0.0166649;0;0.0529925;-0.407162;-2.61001;-1.79661;3.19464;-8.19777;-0.00638768;0.00197592;0.0933169;0.093356;-0.00642682;0.0498914;0.0684515;14.6089;0.0644865;0.0665219;14.526;0.068842;91.5418;136.542;-0.00145855;-0.00638787;0.00642983;-0.00207184;0.0932998;0.00499365;0.0856902;0;0.123886;8.41202;6.52566
651000;652;28.4439;2.68877;0.104398;-2.55617;28.3216;-0.6378;-0.305938;2.66818;-1.04199;-0.116692;-0.00923922;-0.757623;0.766612;-7.59273;-0.0063254;0.00300986;0.0948646;0.0949541;-0.00641485;0.0506845;0.0666782;14.9974;0.0655457;0.0675793;14.8022;0.0675574;86.5049;131.505;-0.000292104;-0.00633758;-2.77625e-05;0.00576673;0.0948688;0.00632787;-0.0138517;0;0.0530562;-0.407905;-2.6173;-1.79906;3.20207;-8.20022;-0.0062453;0.00193303;0.0934042;0.0934417;-0.00628278;0.0498622;0.0668632;14.9559;0.0644908;0.066483;14.8727;0.0672375;91.7531;136.753;-0.00388028;-0.00624635;0.00671363;-0.00241193;0.0933853;0.0083826;0.0787823;0;0.118492;8.41166;6.53256
652000;653;28.4443;2.68919;0.104414;-2.55463;28.3221;-0.643223;-0.3044;2.66862;-1.04829;-0.117047;-0.00437932;-0.757685;0.766685;-7.5966;-0.0059586;0.00383061;0.0955796;0.0957239;-0.0061029;0.0509134;0.0623417;16.0406;0.0659445;0.0678846;15.685;0.0637553;86.0042;131.004;-6.73117e-05;-0.00597375;0.000675603;0.00669319;0.0955861;0.00389433;-0.00806261;0;0.0571857;-0.409056;-2.62293;-1.80412;3.20966;-8.20742;-0.00633089;0.00176197;0.0921801;0.0922116;-0.00636239;0.049287;0.0686796;14.5604;0.0637012;0.065716;14.4932;0.0689978;92.1561;137.156;-0.00383153;-0.00633384;0.00698952;-0.00299411;0.0921591;0.0099257;0.0806463;0;0.117643;8.41008;6.53993
653000;654;28.4514;2.69624;0.104688;-2.5533;28.3292;-0.645438;-0.303066;2.67579;-1.05106;-0.116327;-0.00228997;-0.756385;0.765281;-7.59225;-0.00620085;0.00393427;0.0952271;0.0953795;-0.00635323;0.0508663;0.0651165;15.3571;0.0658064;0.0678218;15.0127;0.06661;85.7625;130.763;0.00101434;-0.00621813;0.000491499;0.00705816;0.095234;-0.00846363;-0.0110554;0;0.0552758;-0.408789;-2.62967;-1.79791;3.21166;-8.2014;-0.00675412;0.00139714;0.0935072;0.0935267;-0.00677359;0.0501502;0.072231;13.8445;0.0647273;0.0668669;13.8076;0.0724241;92.3706;137.371;-0.00630701;-0.00675892;0.00666663;-0.00338923;0.0934878;0.00451823;0.0814513;0;0.122202;8.41042;6.54709
654000;655;;;;;;;;;;-0.116236;0.000867729;-0.758602;0.767456;-7.59078;-0.00623118;0.00318708;0.0956118;0.0957114;-0.00633082;0.0510211;0.0651717;15.3441;0.0660192;0.0680282;15.1183;0.0661449;86.3738;131.374;0.0031205;-0.00624441;4.54004e-05;0.0060367;0.0956164;-0.0088103;-0.0137779;0;0.052899;-0.409639;-2.63367;-1.80326;3.21804;-8.20438;-0.00689489;0.0011652;0.0945808;0.0945942;-0.00690826;0.0507512;0.0728994;13.7175;0.0654871;0.0676683;13.6929;0.0730306;92.6391;137.639;-0.00589517;-0.00690174;0.00671417;-0.00386937;0.0945608;0.0123813;0.0851845;0;0.123144;8.4082;6.55411
655000;656;28.4797;2.72458;0.105788;-2.56056;28.3574;-0.628875;-0.310326;2.70394;-1.03307;-0.117438;0.00493875;-0.758062;0.767121;-7.59024;-0.00620325;0.00366301;0.095384;0.0955159;-0.00633516;0.0509255;0.0650344;15.3765;0.0658906;0.0679007;15.0771;0.0663256;85.9784;130.978;0.000604832;-0.00621907;0.000317001;0.00669868;0.0953901;-0.00711021;-0.013557;0;0.053848;-0.411616;-2.64118;-1.80449;3.22513;-8.20566;-0.00678438;0.00155211;0.0945216;0.0945454;-0.00680815;0.0506768;0.0717759;13.9322;0.0654178;0.067569;13.8871;0.0720093;92.3802;137.38;-0.00736255;-0.00678907;0.00703743;-0.00342554;0.0945001;0.0101263;0.0836192;0;0.127117;8.40788;6.55775
656000;657;;;;;;;;;;-0.117583;0.0124795;-0.766622;0.775687;-7.5988;-0.00621412;0.00358455;0.0952495;0.095376;-0.0063406;0.0508583;0.0652405;15.3279;0.0657994;0.0678111;15.0421;0.0664801;86.1501;131.15;-0.000764334;-0.00622835;0.000467027;0.00641323;0.0952553;-0.00804925;-0.0139951;0;0.0562772;-0.412954;-2.64396;-1.81274;3.23219;-8.21386;-0.00659225;0.00163918;0.095034;0.0950604;-0.00661869;0.0508396;0.0693673;14.416;0.0656911;0.0677861;14.3624;0.0696261;92.2885;137.288;-0.00482663;-0.00659641;0.00709335;-0.00330884;0.0950122;0.00517787;0.0858397;0;0.120149;8.40823;6.56324
657000;658;;;;;;;;;;-0.117317;0.0146123;-0.765962;0.775032;-7.59814;-0.00595683;0.0033277;0.0945329;0.094643;-0.0060669;0.050355;0.0630133;15.8697;0.0652118;0.0671399;15.5999;0.064103;86.0911;131.091;-0.00251311;-0.00597205;-8.67144e-05;0.0064286;0.094538;-0.00082124;-0.0139906;0;0.057031;-0.414075;-2.6518;-1.81023;3.23735;-8.21226;-0.00622966;0.00182505;0.0955064;0.0955391;-0.00626239;0.0509008;0.0652276;15.3309;0.0658795;0.0678677;15.256;0.0655479;92.0096;137.01;0.00144907;-0.0062322;0.00702989;-0.00289647;0.0954854;0.00237399;0.0825386;0;0.121434;8.40823;6.56956
658000;659;28.5129;2.75777;0.107077;-2.56064;28.3909;-0.619488;-0.310406;2.73748;-1.02368;-0.117904;0.0223282;-0.768777;0.778086;-7.60738;-0.00610124;0.0038499;0.0938028;0.0939509;-0.00624938;0.0501002;0.0650432;15.3744;0.0648176;0.0668002;15.0336;0.0665175;85.8316;130.832;-0.000437694;-0.00611734;0.000554814;0.00684399;0.0938094;-0.00721038;-0.0141043;0;0.0517352;-0.415309;-2.65904;-1.815;3.2461;-8.21616;-0.00637358;0.00180991;0.0951438;0.095176;-0.00640584;0.0507909;0.0669889;14.9278;0.0656902;0.0677212;14.8577;0.0673052;91.5877;136.588;-0.00616734;-0.00637441;0.00624937;-0.00221804;0.0951274;0.0115386;0.0825273;0;0.122002;8.4098;6.57691
659000;660;28.5234;2.7683;0.107486;-2.55905;28.401;-0.648571;-0.308822;2.74754;-1.05276;-0.116393;0.0256565;-0.770414;0.779579;-7.60877;-0.00569654;0.0042786;0.0944245;0.094607;-0.00587905;0.050243;0.0603291;16.5757;0.0651195;0.0669907;16.0922;0.0621419;85.3835;130.383;0.000137302;-0.00571663;0.000586519;0.00763286;0.0944327;-0.00194032;-0.0110371;0;0.0552014;-0.415243;-2.6661;-1.81764;3.25336;-8.21982;-0.0056575;0.00209064;0.0953623;0.0954056;-0.00570075;0.0505532;0.0593264;16.8559;0.0655866;0.0674042;16.7356;0.0597528;91.5802;136.58;-0.00459232;-0.0056578;0.00684872;-0.00222867;0.0953429;0.0109444;0.0786541;0;0.1186;8.40959;6.58441
660000;661;28.5427;2.78757;0.108234;-2.56201;28.4203;-0.640547;-0.311785;2.76681;-1.04474;-0.117405;0.026861;-0.771935;0.781274;-7.60411;-0.00566179;0.00330162;0.0963619;0.0964687;-0.00576853;0.0511186;0.0587555;17.0197;0.066319;0.0681581;16.7233;0.0597969;86.4758;131.476;-0.00269819;-0.00567404;0.000395236;0.00593752;0.0963668;0.0042186;-0.0187698;0;0.0599327;-0.416108;-2.67271;-1.82026;3.26034;-8.22355;-0.00610328;0.00241842;0.0951493;0.095207;-0.00616101;0.050684;0.0641442;15.5899;0.0656215;0.0675787;15.4532;0.0647117;91.536;136.536;-0.00313376;-0.00610252;0.00737834;-0.00208297;0.0951271;0.0085098;0.0796058;0;0.124235;8.40901;6.59088
661000;662;28.5427;2.78755;0.108233;-2.55863;28.4206;-0.637992;-0.308398;2.76715;-1.04219;-0.116587;0.0347433;-0.776203;0.785678;-7.61481;-0.00587834;0.00327371;0.0961007;0.0962057;-0.00598332;0.0510945;0.0611685;16.3483;0.0662217;0.068126;16.079;0.062193;86.1355;131.135;-0.0034299;-0.00589389;-0.000232439;0.00645362;0.0961055;0.000836083;-0.0164401;0;0.058492;-0.416354;-2.67783;-1.82507;3.26727;-8.22837;-0.00623719;0.00190978;0.0948906;0.0949267;-0.00627324;0.0505999;0.0657303;15.2137;0.0654758;0.0674666;15.132;0.0660851;92.3298;137.33;-0.00365963;-0.00624104;0.00771815;-0.00336216;0.0948651;0.0134739;0.0803777;0;0.12015;8.40515;6.598
662000;663;28.5515;2.79633;0.108574;-2.55948;28.4294;-0.636561;-0.30925;2.77593;-1.04075;-0.117413;0.0371392;-0.776942;0.786641;-7.60912;-0.00582544;0.00364007;0.0957586;0.0958889;-0.0059557;0.0509223;0.0608346;16.438;0.0660008;0.0678964;16.1003;0.0621105;85.7406;130.741;-0.00374922;-0.0058441;-0.000168772;0.00709576;0.0957647;0.0045608;-0.0155863;0;0.0649275;-0.417511;-2.68278;-1.82466;3.27124;-8.22582;-0.00635358;0.00142906;0.0959471;0.0959671;-0.00637354;0.0511703;0.0662196;15.1013;0.0662049;0.0682271;15.0571;0.0664138;92.3332;137.333;-0.00495578;-0.00635858;0.00682171;-0.00346024;0.0959268;0.0136332;0.0806842;0;0.119895;8.40923;6.60446
663000;664;;;;;;;;;;-0.116367;0.0402186;-0.776789;0.786486;-7.60896;-0.00571758;0.00381709;0.0958623;0.0960056;-0.00586081;0.0509332;0.0596436;16.7662;0.066044;0.0679109;16.3809;0.0610466;85.7311;130.731;-0.00415407;-0.00573589;0.000154796;0.00713988;0.095869;0.00294052;-0.0199566;0;0.0618638;-0.41831;-2.69014;-1.82403;3.27703;-8.22719;-0.00687677;0.00108149;0.0963542;0.0963655;-0.0068881;0.0516268;0.0713697;14.0116;0.0666584;0.0688357;13.9902;0.0714789;92.5785;137.578;-0.00570259;-0.00688372;0.00654775;-0.0038701;0.0963352;0.0078395;0.0871479;0;0.117684;8.41129;6.61233
664000;665;;;;;;;;;;-0.116954;0.0449915;-0.777397;0.787432;-7.61126;-0.00561774;0.00427298;0.0962852;0.0964641;-0.0057966;0.0511303;0.0583448;17.1395;0.0663261;0.0681738;16.6415;0.0600908;85.4612;130.461;0.00238185;-0.00563799;0.000549714;0.0076501;0.0962934;0.00181584;-0.0187945;0;0.0591361;-0.419195;-2.6957;-1.82607;3.28285;-8.2281;-0.0063147;0.00132057;0.0965181;0.096535;-0.00633165;0.0514333;0.065425;15.2847;0.0665677;0.0685778;15.2464;0.0655892;92.6648;137.665;0.00143996;-0.00632197;0.00722025;-0.00402586;0.0964951;0.00949831;0.0808025;0;0.113438;8.40498;6.61875
665000;666;;;;;;;;;;-0.116208;0.0484234;-0.77748;0.787607;-7.60966;-0.00580787;0.00439572;0.0964453;0.0966339;-0.00599649;0.0513152;0.0602193;16.606;0.0665116;0.0684203;16.1151;0.0620537;85.5552;130.555;-0.000537772;-0.00582665;0.000942068;0.00752725;0.0964537;-0.00380015;-0.0114409;0;0.0593265;-0.419714;-2.70143;-1.82904;3.28927;-8.23107;-0.0060626;0.00164773;0.0970586;0.0970849;-0.00608892;0.0515869;0.0624633;16.0094;0.0668454;0.0687825;15.9445;0.0627175;92.6533;137.653;-0.00190374;-0.00606935;0.00789973;-0.00401665;0.0970314;0.00671564;0.0898392;0;0.113596;8.40538;6.62582
666000;667;;;;;;;;;;-0.117305;0.052761;-0.77985;0.790386;-7.61203;-0.0060401;0.00410121;0.0961322;0.0962966;-0.00620446;0.0512505;0.0628312;15.9157;0.0663626;0.068334;15.5205;0.0644307;85.7155;130.715;-0.00128506;-0.00605783;0.000666088;0.0072161;0.0961397;-0.00517896;-0.0102677;0;0.0580902;-0.420597;-2.70779;-1.83018;3.29524;-8.2313;-0.00640346;0.00206926;0.0972551;0.0972964;-0.00644475;0.0518706;0.0658419;15.1879;0.0671158;0.0691608;15.097;0.0662383;91.9374;136.937;-0.00525838;-0.00640527;0.00745112;-0.00280423;0.0972318;0.00944995;0.0836724;0;0.120185;8.406;6.63302
667000;668;;;;;;;;;;-0.117645;0.0601314;-0.785296;0.796332;-7.62421;-0.005666;0.00346632;0.097218;0.0973347;-0.00578265;0.0515587;0.0582813;17.1582;0.0669007;0.0687449;16.8322;0.05941;86.4927;131.493;-0.00182129;-0.00567793;0.000693443;0.00597916;0.0972233;0.00551309;-0.00764661;0;0.0607309;-0.421729;-2.71246;-1.83541;3.30212;-8.23652;-0.00601198;0.0019781;0.0974844;0.0975222;-0.00604978;0.051786;0.0616712;16.215;0.0671223;0.069048;16.12;0.0620349;91.9843;136.984;-0.00601935;-0.00601433;0.00739495;-0.00292798;0.0974613;0.0131205;0.0813174;0;0.125472;8.40272;6.636
668000;669;28.6256;2.87052;0.111454;-2.57001;28.5029;-0.637234;-0.319782;2.84947;-1.04143;-0.117041;0.0617255;-0.783519;0.794613;-7.61863;-0.0055296;0.00348437;0.095517;0.095637;-0.00564961;0.0506433;0.0578913;17.2738;0.0657222;0.0675244;16.9281;0.0590734;86.5232;131.523;0.00225953;-0.00554062;0.000893604;0.00583615;0.0955222;-0.00188705;-0.00566537;0;0.0590422;-0.422516;-2.72044;-1.83728;3.30982;-8.23844;-0.00596584;0.00187639;0.0973654;0.0973994;-0.0059999;0.0516997;0.0612727;16.3205;0.0670225;0.0689329;16.2335;0.061601;91.703;136.703;-0.00475465;-0.00596718;0.00669375;-0.00248739;0.0973466;0.0141785;0.0817157;0;0.122357;8.40494;6.64196
669000;670;28.6231;2.86799;0.111356;-2.56993;28.4998;-0.661889;-0.319696;2.84638;-1.06608;-0.117207;0.0682857;-0.789292;0.800863;-7.6244;-0.00562857;0.00304966;0.0961791;0.0962703;-0.00571984;0.0509951;0.0585217;17.0877;0.0661693;0.0679935;16.831;0.0594143;86.7979;131.798;-0.000904506;-0.0056385;0.00046955;0.00539013;0.0961832;0.00210849;-0.00704908;0;0.0617491;-0.423994;-2.72586;-1.84311;3.3177;-8.24748;-0.00589612;0.00221381;0.0978226;0.0978698;-0.00594335;0.0519066;0.0602736;16.591;0.0673152;0.0692088;16.4671;0.0607271;91.4222;136.422;-0.00127282;-0.0058957;0.00688579;-0.00201681;0.0978032;0.0137091;0.0750582;0;0.115793;8.40171;6.64842
670000;671;28.641;2.88589;0.112051;-2.57199;28.5178;-0.653131;-0.321764;2.86439;-1.0582;-0.117588;0.0709081;-0.783329;0.795273;-7.62225;-0.00509544;0.00366018;0.0965041;0.0966358;-0.00522713;0.0509315;0.0528003;18.9393;0.0662351;0.0679086;18.4873;0.0540911;86.2199;131.22;-0.0031434;-0.00510925;0.000648265;0.006393;0.0965101;0.00643742;-0.00812161;0;0.0560685;-0.423641;-2.7321;-1.84014;3.32114;-8.24343;-0.00610219;0.00167772;0.0979092;0.0979362;-0.00612924;0.0520327;0.062325;16.0449;0.0674268;0.069377;15.9785;0.062584;92.203;137.203;-0.00196119;-0.00610633;0.00720194;-0.00332321;0.0978868;0.0127322;0.0749178;0;0.123928;8.40114;6.65559
671000;672;28.6454;2.89027;0.112221;-2.56773;28.5228;-0.644365;-0.317497;2.86935;-1.04856;-0.116369;0.0753525;-0.792589;0.804622;-7.6277;-0.0051263;0.00293896;0.0961402;0.0962254;-0.00521152;0.0507185;0.0533211;18.7543;0.0659561;0.0676246;18.464;0.0541595;86.8101;131.81;-0.00133574;-0.00513638;0.000274019;0.00535768;0.0961441;0.00806479;-0.00615301;0;0.0563637;-0.424449;-2.73855;-1.84722;3.33046;-8.25051;-0.00636774;0.00141318;0.0976142;0.0976334;-0.00638694;0.0520101;0.0652338;15.3295;0.067319;0.0693469;15.2864;0.0654176;92.4678;137.468;-0.00437119;-0.0063738;0.00711388;-0.0037475;0.097592;0.0119013;0.0861454;0;0.124887;8.40513;6.66281
672000;673;;;;;;;;;;-0.115222;0.0791405;-0.794366;0.806571;-7.62654;-0.00516305;0.00300934;0.0981778;0.0982653;-0.00525061;0.051758;0.0525888;19.0155;0.0673287;0.0690106;18.715;0.0534329;86.4954;131.495;0.000485715;-0.00517648;-0.000272187;0.00598205;0.0981819;-0.00385312;-0.0117378;0;0.0572498;-0.425056;-2.74187;-1.8495;3.33454;-8.25113;-0.0060619;0.00135318;0.0980149;0.0980325;-0.0060795;0.052056;0.0618467;16.169;0.0674729;0.069408;16.1251;0.0620151;92.6425;137.643;-0.00465038;-0.00606935;0.00735212;-0.00407719;0.0979912;0.0134542;0.0922171;0;0.125508;8.40355;6.67026
673000;674;28.6645;2.90935;0.112962;-2.57181;28.5422;-0.615704;-0.321584;2.88877;-1.0199;-0.116418;0.0814774;-0.789893;0.802573;-7.62207;-0.0055055;0.00288282;0.0986326;0.0987124;-0.00558524;0.0521488;0.0558182;17.9153;0.0677468;0.0695318;17.6738;0.0565809;86.758;131.758;-0.00120945;-0.00551689;-8.05598e-05;0.00556528;0.0986364;-0.00226342;-0.0101127;0;0.0602361;-0.426269;-2.75161;-1.84449;3.33994;-8.24681;-0.00674413;0.00143114;0.0981094;0.098129;-0.00676366;0.0524463;0.0687409;14.5474;0.0677864;0.0699284;14.5083;0.0689262;92.4549;137.455;-0.0109205;-0.00675006;0.00712473;-0.00371883;0.0980872;0.0190828;0.0846447;0;0.123732;8.40361;6.67716
674000;675;;;;;;;;;;-0.115667;0.0869195;-0.794498;0.807564;-7.62667;-0.00541106;0.00293771;0.0991621;0.0992445;-0.00549352;0.052369;0.0545678;18.3258;0.0680681;0.0698254;18.0658;0.0553534;86.8871;131.887;-0.00116174;-0.00542132;0.000228299;0.00538933;0.099166;-0.00162014;-0.0122926;0;0.0638504;-0.426858;-2.75536;-1.8495;3.34587;-8.25062;-0.00649892;0.00165424;0.0989052;0.0989312;-0.00652487;0.052728;0.0657086;15.2187;0.0682331;0.070304;15.1622;0.0659537;92.3317;137.332;-0.00498946;-0.00650387;0.00740589;-0.00354576;0.0988815;0.00855415;0.0817005;0;0.118991;8.40493;6.68502
675000;676;;;;;;;;;;-0.115882;0.0910685;-0.795614;0.80915;-7.62779;-0.00548165;0.00268696;0.098793;0.0988622;-0.00555084;0.0522065;0.0554863;18.0225;0.0678341;0.0696087;17.8103;0.0561473;86.8613;131.861;-0.000995712;-0.0054926;-0.000293608;0.00538466;0.0987962;0.00274667;-0.00930497;0;0.0621732;-0.427621;-2.7612;-1.85129;3.35177;-8.25331;-0.00629151;0.00195055;0.0993831;0.0994191;-0.0063275;0.0528733;0.0633056;15.7964;0.0684861;0.0704978;15.7122;0.0636447;91.7286;136.729;0.00227638;-0.0062929;0.00694329;-0.00256232;0.0993629;0.00356533;0.0771249;0;0.127095;8.40523;6.6926
676000;677;28.7023;2.94714;0.114429;-2.57451;28.5787;-0.669377;-0.324276;2.92528;-1.07357;-0.117459;0.0968325;-0.795889;0.810316;-7.631;-0.00536708;0.00199336;0.100877;0.100914;-0.00540446;0.0531594;0.0532042;18.7955;0.0691481;0.0708792;18.6724;0.053555;87.6603;132.66;-0.0043682;-0.0053735;-0.000330014;0.0040925;0.100879;0.0157714;-0.0100766;0;0.0693248;-0.429545;-2.76975;-1.85083;3.35881;-8.25301;-0.00584111;0.00249414;0.0998005;0.0998594;-0.00589997;0.0528797;0.0585279;17.0859;0.0686242;0.0705062;16.9254;0.0590827;91.3228;136.323;-0.00379223;-0.00583976;0.00733278;-0.00187976;0.0997789;0.0063046;0.0769721;0;0.132932;8.40326;6.70002
677000;678;28.7225;2.96742;0.115217;-2.57923;28.599;-0.654608;-0.329004;2.94556;-1.0588;-0.115876;0.103588;-0.800887;0.81583;-7.64233;-0.00512668;0.00409889;0.0989681;0.0991292;-0.00528783;0.0522085;0.0518013;19.3045;0.0679174;0.0696114;18.7467;0.0533428;85.6503;130.65;0.000619705;-0.00514669;0.000314952;0.00752437;0.0989757;0.00343933;-0.0137959;0;0.0588962;-0.429137;-2.7738;-1.86064;3.36751;-8.2618;-0.00609324;0.00219471;0.0989027;0.0989485;-0.00613909;0.0525438;0.0616084;16.2315;0.0681044;0.0700584;16.1178;0.0620433;91.4023;136.402;-0.00548593;-0.00609283;0.006835;-0.00200225;0.0988836;0.0166399;0.0772692;0;0.130886;8.40174;6.7043
678000;679;28.7176;2.96245;0.115024;-2.57753;28.5938;-0.672041;-0.3273;2.94033;-1.07679;-0.115464;0.110013;-0.806084;0.82171;-7.64778;-0.00579927;0.00364681;0.0993997;0.0995259;-0.00592554;0.0527257;0.058343;17.14;0.0684114;0.070301;16.7961;0.0595377;86.1303;131.13;-0.00464539;-0.00581527;0.000253028;0.00671582;0.0994057;0.00812034;-0.0135033;0;0.0594972;-0.430289;-2.78008;-1.86649;3.37606;-8.27197;-0.00566056;0.00247413;0.09936;0.0994183;-0.00571881;0.0525686;0.0569702;17.553;0.068265;0.0700914;17.3844;0.0575228;91.463;136.463;-0.00635469;-0.00565973;0.00754673;-0.00211395;0.0993369;0.0174618;0.078425;0;0.11645;8.4039;6.7092
679000;680;28.7302;2.97506;0.115513;-2.57511;28.6071;-0.653907;-0.324883;2.95362;-1.0581;-0.116174;0.112572;-0.80512;0.821211;-7.64681;-0.00562903;0.00395377;0.0998831;0.100031;-0.00577698;0.052904;0.0563562;17.7443;0.068694;0.0705387;17.3155;0.0577518;85.7889;130.789;-0.00418538;-0.00564828;0.000204908;0.00734295;0.0998902;0.00604713;-0.0109849;0;0.0599227;-0.430966;-2.78776;-1.86653;3.38249;-8.26983;-0.00616107;0.00145271;0.099556;0.099576;-0.00618103;0.0528785;0.0618854;16.1589;0.0685373;0.0705047;16.1099;0.0620734;92.2887;137.289;-0.00251609;-0.00616635;0.00698834;-0.00355073;0.0995348;0.0116387;0.0789845;0;0.126392;8.40232;6.7151
680000;681;;;;;;;;;;-0.116582;0.115526;-0.800721;0.817369;-7.64246;-0.00587446;0.00439379;0.0999196;0.100102;-0.00605663;0.0530792;0.0587918;17.0092;0.0688423;0.0707723;16.5276;0.0605047;85.1151;130.115;-0.00100589;-0.00590111;-0.000151691;0.008502;0.0999284;0.000347926;-0.0148103;0;0.0510699;-0.432914;-2.79323;-1.86344;3.38555;-8.26658;-0.00621605;0.00120821;0.100053;0.100066;-0.00622978;0.0531481;0.0621277;16.0959;0.0688815;0.0708642;16.0626;0.0622564;92.785;137.785;-0.00381487;-0.00622511;0.00743104;-0.0044135;0.100028;0.0128353;0.0923157;0;0.127124;8.40149;6.7217
681000;682;;;;;;;;;;-0.116504;0.119082;-0.805833;0.822873;-7.64094;-0.00562773;0.00380655;0.102048;0.102183;-0.00576213;0.0539724;0.0551478;18.1331;0.0701214;0.0719632;17.7335;0.0563905;86.1754;131.175;-0.00211269;-0.00564388;0.000458999;0.006827;0.102055;0.00902808;-0.0137834;0;0.057891;-0.432874;-2.79867;-1.86978;3.39352;-8.2726;-0.00612801;0.00109855;0.099273;0.0992845;-0.00613946;0.052712;0.0617288;16.1999;0.0683282;0.0702826;16.1715;0.061837;92.9317;137.932;-0.0037856;-0.00613821;0.00743901;-0.004634;0.0992484;0.00984362;0.0901817;0;0.129827;8.40351;6.72962
682000;683;;;;;;;;;;-0.116356;0.123326;-0.80866;0.826244;-7.64377;-0.00561168;0.00369691;0.102176;0.102303;-0.00573833;0.0540204;0.0549218;18.2077;0.0701927;0.0720272;17.8279;0.0560917;86.2443;131.244;-0.00186782;-0.00562742;0.000360404;0.00670709;0.102182;0.00495442;-0.0156645;0;0.060363;-0.433508;-2.80461;-1.87168;3.39956;-8.27331;-0.00628253;0.00198124;0.100631;0.100668;-0.00631923;0.0534934;0.0624314;16.0176;0.0693142;0.0713245;15.9304;0.0627732;92.0077;137.008;-0.00167214;-0.00628527;0.00756638;-0.00306141;0.100607;0.01361;0.0882989;0;0.117741;8.40165;6.73646
683000;684;;;;;;;;;;-0.116126;0.126123;-0.811943;0.829845;-7.64412;-0.00583999;0.00394506;0.102154;0.102298;-0.00598391;0.054141;0.0571684;17.4922;0.0702784;0.072188;17.0955;0.0584948;85.6316;130.632;-0.000841239;-0.00586246;-0.000287072;0.00776246;0.102161;-0.00322923;-0.0172452;0;0.054023;-0.433675;-2.81118;-1.8712;3.40474;-8.27323;-0.00624715;0.00214408;0.100752;0.100795;-0.00629009;0.0535426;0.0620051;16.1277;0.0693885;0.0713901;16.0244;0.0624047;92.2171;137.217;-0.00107684;-0.00625065;0.00828317;-0.00339832;0.100723;0.006549;0.0779323;0;0.121053;8.40352;6.74374
684000;685;28.7735;3.01843;0.117197;-2.58004;28.6503;-0.650726;-0.329813;2.99681;-1.05492;-0.115291;0.131401;-0.809513;0.828172;-7.64462;-0.00561442;0.0035153;0.100692;0.100808;-0.00573053;0.0532695;0.0557582;17.9346;0.0691949;0.071026;17.5915;0.0568458;86.3272;131.327;0.00017126;-0.00562918;0.000257859;0.0064581;0.100698;-0.00178577;-0.0127009;0;0.0583676;-0.434822;-2.81925;-1.87013;3.41096;-8.2713;-0.00634899;0.0022991;0.101258;0.101307;-0.00639809;0.0538524;0.0627013;15.9486;0.0697684;0.0718033;15.8339;0.0631556;91.7512;136.751;-0.00538832;-0.00634978;0.00774636;-0.00261594;0.101233;0.00903841;0.0826336;0;0.129363;8.40173;6.75117
685000;686;28.7973;3.04218;0.118119;-2.58389;28.6732;-0.674393;-0.333661;3.01976;-1.07859;-0.115391;0.140504;-0.816403;0.836403;-7.65456;-0.00525527;0.00397689;0.100906;0.101055;-0.00540404;0.0532293;0.0520809;19.2009;0.0692414;0.0709724;18.6998;0.0534764;85.818;130.818;0.00249663;-0.00527462;0.000221494;0.0073701;0.100913;-0.000226935;-0.00810658;0;0.0566622;-0.435981;-2.82292;-1.88179;3.42054;-8.28295;-0.00621315;0.00243021;0.101057;0.101112;-0.00626818;0.0536902;0.0614815;16.265;0.0695917;0.0715869;16.131;0.0619923;91.4989;136.499;-0.00701565;-0.00621258;0.00754378;-0.00218521;0.101034;0.0195957;0.079968;0;0.13186;8.39801;6.75904
686000;687;;;;;;;;;;-0.115579;0.142139;-0.812764;0.833155;-7.65092;-0.00522628;0.00328081;0.100816;0.100917;-0.00532768;0.0531226;0.0518397;19.2902;0.0691227;0.0708301;18.9421;0.0527925;86.4069;131.407;0.00116583;-0.00524088;-7.15286e-05;0.0063102;0.100821;0.00228695;-0.0126875;0;0.0607705;-0.436185;-2.82978;-1.87727;3.42375;-8.27839;-0.00591547;0.00205441;0.10084;0.10088;-0.00595499;0.0534174;0.0586617;17.0469;0.0693235;0.0712232;16.9404;0.0590305;91.9065;136.907;-0.00404833;-0.00591763;0.00756318;-0.00292018;0.100816;0.0199586;0.0767563;0;0.128499;8.39771;6.76578
687000;688;28.8164;3.0613;0.118862;-2.58611;28.6923;-0.672357;-0.335882;3.03882;-1.07655;-0.115691;0.145138;-0.815451;0.836307;-7.65056;-0.00549362;0.00250373;0.103265;0.103323;-0.00555123;0.0544369;0.0531993;18.7972;0.0708047;0.0725825;18.6126;0.0537272;87.2498;132.25;-7.5132e-05;-0.00550272;-0.000194883;0.0049363;0.103268;-0.00355749;-0.0143934;0;0.0562009;-0.437682;-2.83765;-1.8844;3.43435;-8.2877;-0.00577383;0.00192514;0.101739;0.101774;-0.00580829;0.053791;0.0567513;17.6208;0.0698658;0.0717214;17.5221;0.0570706;92.1095;137.109;-0.00370047;-0.0057775;0.00773507;-0.00331789;0.101714;0.00911956;0.083097;0;0.128571;8.39696;6.77315
688000;689;28.8284;3.07328;0.119327;-2.58425;28.7047;-0.660486;-0.334025;3.05129;-1.06468;-0.115398;0.15;-0.818211;0.839813;-7.65332;-0.00539507;0.00380878;0.102613;0.102747;-0.00552922;0.0541381;0.052577;19.0197;0.0704134;0.0721841;18.5825;0.053814;86.2686;131.269;0.00148879;-0.00541038;0.000597531;0.00670544;0.102619;-0.0034353;-0.00880317;0;0.0571594;-0.43859;-2.84348;-1.88667;3.44053;-8.28997;-0.00603207;0.00151897;0.10129;0.101312;-0.00605357;0.0536827;0.0595523;16.792;0.0696468;0.0715769;16.7359;0.0597519;92.5922;137.592;-0.000267569;-0.00603951;0.00778117;-0.00413302;0.101264;0.0108895;0.0824932;0;0.133286;8.39619;6.77942
689000;690;;;;;;;;;;-0.114949;0.154325;-0.816505;0.838875;-7.65511;-0.00584363;0.00402393;0.103183;0.103331;-0.00599195;0.0546616;0.0566337;17.6573;0.0709692;0.0728822;17.245;0.0579877;85.9087;130.909;0.00249685;-0.00586284;0.000305706;0.00737464;0.10319;-0.0089128;-0.0144367;0;0.0573929;-0.438872;-2.84911;-1.88651;3.44514;-8.28964;-0.00604509;0.00135006;0.101807;0.101824;-0.00606199;0.053943;0.0593779;16.8413;0.0699909;0.071924;16.7971;0.059534;92.9246;137.925;-0.00323918;-0.00605545;0.00809514;-0.00473482;0.101778;0.0170795;0.0877922;0;0.128445;8.39495;6.78431
690000;691;;;;;;;;;;-0.115165;0.156522;-0.820319;0.843021;-7.65249;-0.00553005;0.00334452;0.105906;0.106007;-0.00563034;0.0558185;0.0522164;19.1511;0.0726207;0.0744247;18.8278;0.0531131;86.2667;131.267;0.000690443;-0.00554811;-0.000567833;0.0068626;0.105911;-0.00582465;-0.0163339;0;0.0582017;-0.440239;-2.85581;-1.89143;3.45355;-8.29596;-0.00637841;0.00114327;0.100686;0.100698;-0.00639062;0.0535442;0.0633498;15.7854;0.0693603;0.0713923;15.7571;0.0634633;92.8328;137.833;-0.00478322;-0.00638803;0.00741612;-0.00451945;0.100661;0.0150086;0.0874437;0;0.124674;8.39463;6.78848
691000;692;;;;;;;;;;-0.115715;0.163819;-0.823501;0.847574;-7.6621;-0.00575215;0.00357916;0.104033;0.10415;-0.00586871;0.0550094;0.0552913;18.086;0.07147;0.0733458;17.7467;0.0563486;86.0187;131.019;-0.00118768;-0.00577174;-0.000436029;0.00719503;0.104039;0.00225298;-0.0187786;0;0.0603334;-0.441118;-2.86173;-1.89119;3.45842;-8.29451;-0.00632932;0.00212679;0.101879;0.10192;-0.0063711;0.0541458;0.062126;16.0963;0.0701672;0.0721944;15.9973;0.0625105;92.5101;137.51;-0.00307255;-0.00633482;0.00884609;-0.00393273;0.101845;0.00925509;0.0824226;0;0.132332;8.39782;6.79602
692000;693;;;;;;;;;;-0.114297;0.168873;-0.8184;0.843422;-7.66014;-0.00560071;0.00462876;0.103275;0.103471;-0.00579714;0.0546341;0.0542312;18.4396;0.070992;0.0728454;17.8486;0.0560267;84.9097;129.91;0.000786385;-0.00563205;-0.000390202;0.00915235;0.103284;-0.00384878;-0.0143738;0;0.0567582;-0.441839;-2.86917;-1.88873;3.46333;-8.29255;-0.0065343;0.00149332;0.102112;0.102133;-0.00655483;0.0543437;0.0639915;15.6271;0.0703752;0.0724583;15.5813;0.0641796;92.4556;137.456;0.000413092;-0.00654086;0.0074829;-0.00390584;0.102088;0.0119762;0.0764614;0;0.125516;8.3927;6.80315
693000;694;28.8838;3.12864;0.121476;-2.59074;28.7593;-0.681637;-0.340507;3.10581;-1.08583;-0.11515;0.174318;-0.823632;0.849715;-7.66537;-0.00575826;0.00425263;0.105192;0.105355;-0.00592102;0.055638;0.0547403;18.2681;0.0722913;0.0741841;17.7934;0.0562006;85.2731;130.273;-0.000596864;-0.0057867;-0.000623428;0.0086391;0.1052;-0.00294319;-0.0225373;0;0.0566915;-0.442828;-2.87457;-1.89501;3.47136;-8.29786;-0.00690183;0.00178812;0.102308;0.102337;-0.0069311;0.0546341;0.0674614;14.8233;0.0706485;0.0728455;14.7649;0.0677281;92.0457;137.046;-0.00446088;-0.00690526;0.00728556;-0.00316472;0.102285;0.0141745;0.0803011;0;0.134457;8.39167;6.81037
694000;695;;;;;;;;;;-0.11462;0.17567;-0.822901;0.849214;-7.6615;-0.00597862;0.00370103;0.107212;0.107333;-0.00609951;0.0567164;0.0557643;17.9326;0.0736729;0.0756219;17.597;0.0568277;85.9046;130.905;0.00118702;-0.00600092;-0.000660449;0.00761658;0.107218;-0.00508241;-0.0229748;0;0.0559011;-0.442734;-2.88005;-1.89413;3.47541;-8.29713;-0.00599823;0.00263129;0.10172;0.101784;-0.00606247;0.0539234;0.058968;16.9583;0.0699647;0.0718979;16.7893;0.0595619;91.2852;136.285;-0.00408603;-0.00599645;0.00758649;-0.00183947;0.101697;0.0228547;0.0770553;0;0.129759;8.39225;6.81824
695000;696;28.9154;3.16031;0.122706;-2.592;28.7916;-0.653978;-0.341765;3.13816;-1.05873;-0.114639;0.182661;-0.829731;0.857298;-7.67157;-0.00616601;0.00382683;0.106882;0.107012;-0.0062954;0.0566536;0.0576897;17.3341;0.0735295;0.0755381;16.9984;0.0588291;85.9215;130.921;-0.00185339;-0.00618752;-0.000349223;0.00757632;0.106889;0.000568777;-0.0187836;0;0.0614718;-0.443754;-2.88684;-1.9043;3.4867;-8.31163;-0.00575962;0.00252712;0.102412;0.102471;-0.00581863;0.0541446;0.0562399;17.781;0.0703336;0.0721928;17.6108;0.0567834;91.1776;136.178;-0.00358881;-0.00575787;0.00721737;-0.00170295;0.102391;0.0105113;0.0777667;0;0.116356;8.38825;6.82522
696000;697;28.9102;3.15509;0.122504;-2.59101;28.786;-0.671604;-0.340778;3.13259;-1.0758;-0.11555;0.183849;-0.82693;0.854965;-7.66553;-0.00616005;0.00413593;0.107454;0.107604;-0.00631041;0.0569574;0.0573274;17.4437;0.0739295;0.0759431;17.0519;0.0586446;85.4546;130.455;0.000759966;-0.00618758;-0.000699799;0.00847549;0.107461;-0.00379856;-0.0207062;0;0.0537508;-0.445469;-2.89447;-1.90189;3.49193;-8.30694;-0.00599835;0.00163058;0.103087;0.103112;-0.00602271;0.0545671;0.0581871;17.1859;0.070834;0.0727562;17.1204;0.0584097;92.2978;137.298;-0.00226898;-0.00600391;0.00755166;-0.00370501;0.103063;0.0126335;0.0882276;0;0.136473;8.3907;6.83239
697000;698;28.9187;3.16358;0.122833;-2.59071;28.7948;-0.664142;-0.340481;3.14132;-1.06834;-0.115041;0.188886;-0.832574;0.861447;-7.67118;-0.00591234;0.00416507;0.106226;0.106381;-0.00606682;0.0562238;0.0556579;17.9669;0.0730269;0.0749651;17.5349;0.0570293;85.2664;130.266;0.00379384;-0.00594186;-0.000903941;0.00872016;0.106234;-0.00222249;-0.0250852;0;0.054472;-0.445781;-2.8996;-1.9069;3.49895;-8.31136;-0.0058391;0.00156947;0.103637;0.10366;-0.0058616;0.0547607;0.0563417;17.7488;0.0711409;0.0730143;17.6846;0.0565465;92.5398;137.54;0.00101936;-0.00584658;0.00793226;-0.0041622;0.10361;0.0141187;0.082466;0;0.136352;8.39075;6.83909
698000;699;;;;;;;;;;-0.116477;0.189934;-0.827943;0.857398;-7.66012;-0.00557216;0.00344211;0.109024;0.109127;-0.00567546;0.0574014;0.0511095;19.5658;0.0747152;0.0765351;19.2279;0.0520077;86.0604;131.06;0.00118997;-0.00559402;-0.00101434;0.00743803;0.109029;-0.00391309;-0.0209149;0;0.0582437;-0.447871;-2.9049;-1.90837;3.50442;-8.31382;-0.00579747;0.00156401;0.103122;0.103144;-0.00581993;0.0544821;0.0562196;17.7874;0.0707827;0.0726429;17.7226;0.0564251;92.5602;137.56;0.000519276;-0.00580502;0.00793437;-0.0041774;0.103094;0.00938156;0.0790178;0;0.127422;8.39087;6.84667
699000;700;;;;;;;;;;-0.116343;0.195592;-0.833282;0.8638;-7.66546;-0.00590199;0.00337896;0.107478;0.107578;-0.0060026;0.0567905;0.0549137;18.2104;0.0738012;0.0757206;17.9219;0.0557975;85.9974;130.997;0.000495225;-0.00592407;-0.00114149;0.00743657;0.107482;-0.00297797;-0.0202037;0;0.0581579;-0.449042;-2.90949;-1.91273;3.51074;-8.31662;-0.00626827;0.00131422;0.103342;0.103357;-0.00628402;0.0548207;0.0606558;16.4865;0.0710923;0.0730943;16.4476;0.060799;92.5341;137.534;-0.00131465;-0.006276;0.00736253;-0.00413326;0.103318;0.0157649;0.0881448;0;0.123366;8.39155;6.85231
700000;701;;;;;;;;;;-0.115306;0.201689;-0.83738;0.869011;-7.67253;-0.00540427;0.00372546;0.106965;0.107088;-0.00552764;0.0563078;0.0505238;19.7926;0.0733041;0.0750771;19.3732;0.0516177;85.7036;130.704;0.00246329;-0.00542919;-0.000994944;0.00796663;0.10697;-9.16352e-05;-0.0228442;0;0.0596379;-0.448815;-2.91651;-1.91366;3.51704;-8.31698;-0.00662072;0.0023082;0.103601;0.103649;-0.00666904;0.0551592;0.0639059;15.648;0.0714265;0.0735457;15.5419;0.0643422;91.8272;136.827;-0.00482358;-0.00662199;0.00798408;-0.00280087;0.103575;0.0105298;0.0867337;0;0.130097;8.39059;6.85632
701000;702;;;;;;;;;;-0.114599;0.203762;-0.831283;0.86353;-7.66346;-0.0058963;0.00342675;0.107023;0.107127;-0.00600019;0.0565634;0.0550939;18.1508;0.0734994;0.0754178;17.8539;0.0560103;86.0048;131.005;0.000688449;-0.00591792;-0.000996119;0.00739843;0.107027;-0.00794489;-0.0194519;0;0.0525636;-0.449262;-2.92459;-1.90905;3.5213;-8.31563;-0.00648513;0.0017058;0.103152;0.103178;-0.00651166;0.0548449;0.0628698;15.9059;0.0710556;0.0731266;15.8451;0.0631108;92.523;137.523;-0.00110937;-0.0064919;0.00809264;-0.00404634;0.103123;0.0192526;0.0772646;0;0.133742;8.38933;6.86158
702000;703;28.9726;3.21744;0.124924;-2.59419;28.8486;-0.663488;-0.343962;3.19511;-1.06768;-0.115199;0.210677;-0.841102;0.874705;-7.67328;-0.00580623;0.00329707;0.106469;0.106565;-0.00590297;0.0562342;0.0545347;18.337;0.0730908;0.0749789;18.0528;0.0553929;86.1616;131.162;0.00545899;-0.00582593;-0.000906127;0.00707373;0.106473;-0.00667601;-0.0171292;0;0.0534211;-0.450722;-2.92974;-1.91964;3.5315;-8.32248;-0.00658814;0.00215608;0.103566;0.103608;-0.00663033;0.0551194;0.0636128;15.7201;0.0713851;0.0734925;15.6265;0.0639941;91.8986;136.899;-0.00684774;-0.00659016;0.00781863;-0.00294131;0.103541;0.0212126;0.0855482;0;0.138667;8.3902;6.86859
703000;704;28.9865;3.23135;0.125464;-2.59514;28.8624;-0.666272;-0.344913;3.20894;-1.07102;-0.114908;0.21533;-0.840743;0.875454;-7.67292;-0.00562714;0.00406764;0.105895;0.106043;-0.00577531;0.0559094;0.0531387;18.8187;0.0726972;0.0745458;18.3615;0.0544617;85.8151;130.815;0.00636889;-0.00564884;-2.13482e-06;0.00772696;0.105903;-0.00982577;-0.0175838;0;0.0527687;-0.452089;-2.93875;-1.92161;3.54022;-8.33099;-0.00614785;0.00249768;0.103154;0.103211;-0.0062049;0.0547081;0.0595986;16.7789;0.0709664;0.0729442;16.6339;0.0601183;91.6785;136.679;-0.00491894;-0.00614798;0.00809815;-0.00254796;0.103127;0.0253998;0.084126;0;0.141251;8.3908;6.87624
704000;705;29.01;3.25492;0.126379;-2.60065;28.8861;-0.642185;-0.350416;3.23265;-1.04638;-0.113627;0.224905;-0.844162;0.880966;-7.68276;-0.005749;0.00405363;0.105723;0.10587;-0.00589621;0.0558831;0.054378;18.3898;0.0726252;0.0745108;17.9556;0.055693;85.7205;130.72;0.00620633;-0.00577194;-0.000199235;0.00787769;0.10573;-0.0142684;-0.0226966;0;0.0546289;-0.451854;-2.9442;-1.92519;3.54666;-8.33413;-0.00623836;0.00221447;0.103231;0.103275;-0.00628314;0.0547793;0.0604313;16.5477;0.0710374;0.073039;16.4369;0.0608386;91.9491;136.949;-0.00539067;-0.00624053;0.00804246;-0.00303529;0.103204;0.0176275;0.0868139;0;0.142321;8.38824;6.88266
705000;706;29.0077;3.25257;0.126288;-2.59619;28.8839;-0.654196;-0.345961;3.23042;-1.05839;-0.113593;0.229011;-0.845082;0.882901;-7.68368;-0.0060882;0.00414948;0.107066;0.107217;-0.00624017;0.0567288;0.0568643;17.5857;0.0736465;0.0756384;17.1818;0.058201;85.7619;130.762;0.00395094;-0.00611099;-3.57045e-05;0.00790685;0.107073;-0.0130821;-0.0233368;0;0.0554976;-0.451508;-2.9481;-1.92308;3.54871;-8.32592;-0.00630171;0.00129589;0.104802;0.104817;-0.00631682;0.0555669;0.0601298;16.6307;0.0720759;0.0740892;16.5933;0.0602653;92.242;137.242;-0.00115821;-0.00630773;0.0068438;-0.00369413;0.104781;0.0120898;0.0824121;0;0.139051;8.38448;6.89017
706000;707;;;;;;;;;;-0.113264;0.235202;-0.844984;0.88439;-7.68672;-0.00534143;0.00428591;0.106032;0.106197;-0.00550611;0.0558514;0.0503756;19.8509;0.0727027;0.0744686;19.2871;0.0518482;85.1221;130.122;0.000840508;-0.00537273;-0.000934521;0.00898057;0.10604;-0.00671035;-0.0211771;0;0.0585689;-0.452478;-2.95358;-1.9252;3.55454;-8.32834;-0.00614232;0.00158315;0.104275;0.104298;-0.00616501;0.0552315;0.0589048;16.9766;0.0716755;0.0736421;16.9177;0.0591095;92.3138;137.314;-0.000182093;-0.00614823;0.00753819;-0.00377649;0.104251;0.018736;0.0848654;0;0.139113;8.38663;6.89739
707000;708;;;;;;;;;;-0.11343;0.241443;-0.850359;0.891219;-7.6921;-0.00537874;0.00473317;0.10584;0.106041;-0.00557981;0.0558105;0.0508195;19.6775;0.0726255;0.074414;19.0044;0.0526193;84.6821;129.682;0.0018863;-0.0054156;-0.000882088;0.00978356;0.10585;-0.00850641;-0.0206273;0;0.0525052;-0.454302;-2.95892;-1.93389;3.56393;-8.34109;-0.00599333;0.00155863;0.105583;0.105605;-0.0060151;0.0558098;0.0567643;17.6167;0.0724913;0.0744131;17.5566;0.0569588;92.4606;137.461;-0.0023404;-0.00600057;0.00785409;-0.00410153;0.105556;0.00307631;0.0906193;0;0.121762;8.38399;6.90515
708000;709;29.0474;3.29224;0.127829;-2.60144;28.923;-0.662661;-0.351208;3.2696;-1.06685;-0.113119;0.24481;-0.848318;0.890152;-7.69006;-0.00563124;0.00416033;0.10678;0.106933;-0.00578501;0.0563592;0.0527371;18.962;0.0732934;0.0751456;18.4846;0.0540992;85.1162;130.116;0.000908427;-0.00566358;-0.00126451;0.0090341;0.106787;-0.00417795;-0.0226962;0;0.0531184;-0.454262;-2.96682;-1.93239;3.56967;-8.33623;-0.00629504;0.00182443;0.105039;0.105069;-0.00632493;0.0556969;0.0599306;16.686;0.0722465;0.0742625;16.6119;0.060198;92.0445;137.044;-0.00146611;-0.00629886;0.00752755;-0.00330415;0.105015;0.0141267;0.0865698;0;0.124664;8.38394;6.91245
709000;710;;;;;;;;;;-0.113177;0.248172;-0.851909;0.89451;-7.69051;-0.0061275;0.00435327;0.108105;0.108271;-0.00629316;0.0572819;0.0566811;17.6426;0.0743669;0.0763758;17.2045;0.0581244;85.224;130.224;0.0011252;-0.00615836;-0.000783288;0.00896023;0.108113;-0.00314969;-0.0189993;0;0.0528046;-0.454789;-2.97157;-1.93486;3.57502;-8.33818;-0.0064383;0.0019133;0.105157;0.10519;-0.0064711;0.0558305;0.0612255;16.3331;0.0723801;0.0744407;16.2553;0.0615182;92.1574;137.157;-0.00440251;-0.00644257;0.00791682;-0.00348405;0.10513;0.0117173;0.0842074;0;0.127583;8.38402;6.92043
710000;711;29.0591;3.30402;0.128286;-2.60041;28.9349;-0.666094;-0.350185;3.28144;-1.07029;-0.113358;0.252334;-0.854376;0.898043;-7.69298;-0.00592722;0.00500815;0.10715;0.107371;-0.0061486;0.0567598;0.0553172;18.0776;0.0737158;0.0756798;17.4627;0.0572649;84.7203;129.72;0.00119372;-0.00596342;-0.000386166;0.0098514;0.107161;-0.00324016;-0.01923;0;0.0518537;-0.455773;-2.97995;-1.93765;3.58362;-8.34214;-0.00642081;0.00276219;0.105161;0.105229;-0.00648914;0.0558591;0.0610571;16.3781;0.0724127;0.0744788;16.2162;0.0616668;91.7227;136.723;-0.00495486;-0.00642047;0.00876816;-0.00263747;0.105129;0.0174701;0.0879412;0;0.135621;8.3836;6.92753
711000;712;29.0729;3.31778;0.12882;-2.60179;28.9486;-0.664527;-0.351564;3.29519;-1.06928;-0.112751;0.256971;-0.850077;0.895197;-7.69182;-0.00555703;0.0056356;0.106776;0.107058;-0.00583905;0.0564484;0.0520439;19.2145;0.0733957;0.0752646;18.3348;0.0545411;84.1119;129.112;0.00255437;-0.00560155;-0.000299367;0.010968;0.10679;-0.00882349;-0.0214742;0;0.0543342;-0.456605;-2.9878;-1.93864;3.59078;-8.34654;-0.00649162;0.0021696;0.103834;0.103877;-0.00653427;0.0552057;0.062519;15.9951;0.071529;0.0736075;15.8973;0.0629039;91.8046;136.805;-0.000796062;-0.00649319;0.0076865;-0.00279595;0.10381;0.0100227;0.0741495;0;0.14558;8.38135;6.93398
712000;713;29.0837;3.32858;0.12924;-2.60182;28.9596;-0.659816;-0.351586;3.30613;-1.06401;-0.113136;0.258402;-0.853688;0.899086;-7.68586;-0.00575045;0.00447088;0.108001;0.108177;-0.00592591;0.0570512;0.0532444;18.7813;0.0741719;0.0760683;18.2548;0.05478;85.2391;130.239;0.00412747;-0.00578062;-0.000513079;0.00894307;0.10801;-0.00544641;-0.0196763;0;0.0545823;-0.457779;-2.99395;-1.93926;3.59639;-8.34612;-0.0061591;0.00195821;0.104698;0.104732;-0.00619368;0.055463;0.0588274;16.9989;0.071975;0.0739507;16.9095;0.0591382;91.9241;136.924;-0.00798529;-0.00616194;0.00755695;-0.00307874;0.104674;0.0261957;0.0809686;0;0.131819;8.37789;6.93748
713000;714;;;;;;;;;;-0.113552;0.264715;-0.855657;0.902838;-7.69426;-0.00588684;0.00463557;0.108169;0.108357;-0.00607493;0.0572161;0.0544225;18.3748;0.074346;0.0762882;17.8368;0.0560639;85.2582;130.258;0.00120188;-0.00591621;-0.000160616;0.00893803;0.108179;-0.0038667;-0.0214811;0;0.0541055;-0.458158;-2.99828;-1.93795;3.59934;-8.34062;-0.00577751;0.00224241;0.105957;0.106002;-0.0058225;0.0559121;0.0545271;18.3395;0.0726864;0.0745495;18.2055;0.0549283;91.4056;136.406;-0.00290452;-0.00577744;0.00719699;-0.00221166;0.105936;0.0159559;0.0887542;0;0.128818;8.37925;6.94243
714000;715;29.1043;3.34915;0.130038;-2.60369;28.98;-0.660823;-0.353464;3.3266;-1.06557;-0.112946;0.269474;-0.858984;0.907318;-7.69413;-0.00572368;0.00469214;0.106133;0.106329;-0.00592016;0.0561248;0.0539294;18.5428;0.0729397;0.074833;17.9605;0.0556776;85.0441;130.044;0.00347342;-0.00575483;-0.000280884;0.00916219;0.106143;-0.00704395;-0.0213887;0;0.0606533;-0.459055;-3.00453;-1.94659;3.60931;-8.35233;-0.00637883;0.00112975;0.106684;0.106695;-0.00639012;0.0565425;0.0597921;16.7246;0.0733528;0.07539;16.6968;0.0598915;92.0337;137.034;-0.00438916;-0.00638407;0.00619389;-0.00341705;0.106667;0.0135079;0.0907456;0;0.139599;8.37754;6.94961
715000;716;29.1141;3.35898;0.13042;-2.60414;28.9899;-0.658034;-0.353907;3.33649;-1.06223;-0.112217;0.274803;-0.85991;0.9097;-7.69506;-0.00552906;0.00434942;0.106882;0.10705;-0.0056971;0.0563736;0.0517305;19.331;0.0733395;0.0751648;18.7903;0.053219;85.4446;130.445;0.00404268;-0.00555571;-0.000249194;0.00848094;0.106891;-0.004844;-0.0213432;0;0.0556351;-0.459339;-3.0101;-1.9477;3.61459;-8.35207;-0.00576437;0.00206584;0.106549;0.106587;-0.00580235;0.0561945;0.0541008;18.484;0.0730687;0.0749259;18.3696;0.0544379;91.9274;136.927;-0.00169678;-0.00576726;0.00789029;-0.00316749;0.106522;0.0111145;0.0862952;0;0.129635;8.37307;6.95652
716000;717;;;;;;;;;;-0.112193;0.277921;-0.861998;0.912616;-7.69417;-0.00581614;0.0040702;0.107496;0.107642;-0.00596216;0.0568019;0.0541058;18.4823;0.0738288;0.0757359;18.0541;0.0553889;85.9574;130.957;0.00334171;-0.00583674;0.000156166;0.00758373;0.107503;-0.0109106;-0.0180072;0;0.0595425;-0.460182;-3.01395;-1.95046;3.61939;-8.3541;-0.00596734;0.00165453;0.106594;0.106619;-0.00599165;0.0563051;0.0559818;17.863;0.0731581;0.0750735;17.7945;0.0561971;92.0939;137.094;-0.00670008;-0.00597209;0.00738183;-0.00349023;0.106571;0.0136888;0.0891864;0;0.131134;8.37529;6.96435
717000;718;;;;;;;;;;-0.112049;0.28243;-0.863715;0.915601;-7.69589;-0.00569039;0.00432192;0.10656;0.106726;-0.00585655;0.0562912;0.053401;18.7262;0.0731809;0.0750549;18.2233;0.0548748;85.9261;130.926;0.00290694;-0.00571008;0.000669044;0.0076042;0.106568;-0.010955;-0.0184569;0;0.0596429;-0.46055;-3.02163;-1.95141;3.62634;-8.35473;-0.0065652;0.00214757;0.10657;0.106611;-0.00660595;0.0566085;0.0616044;16.2326;0.0733752;0.075478;16.1386;0.0619631;91.7612;136.761;-0.00100841;-0.00656685;0.0076683;-0.00280877;0.106546;0.00921161;0.0951021;0;0.134535;8.37282;6.9708
718000;719;29.1526;3.3975;0.131916;-2.60994;29.028;-0.662502;-0.359712;3.37456;-1.06725;-0.111729;0.287778;-0.86605;0.919425;-7.69823;-0.00580246;0.00364776;0.107258;0.107376;-0.00592003;0.0566478;0.0540982;18.4849;0.0736364;0.0755304;18.1377;0.0551339;86.0908;131.091;-0.00082682;-0.00582247;-0.000404909;0.00728657;0.107264;-0.0051578;-0.0209638;0;0.0580341;-0.461807;-3.02973;-1.95316;3.63419;-8.35735;-0.00710432;0.00178003;0.106593;0.106621;-0.00713218;0.0568764;0.0666491;15.0039;0.0735731;0.0758352;14.9492;0.066893;91.965;136.965;-0.00787506;-0.00710779;0.00729853;-0.00317152;0.10657;0.0163074;0.0796612;0;0.127876;8.37323;6.97916
719000;720;29.1711;3.41595;0.132632;-2.61351;29.0455;-0.692471;-0.363279;3.39206;-1.09666;-0.112136;0.294938;-0.865048;0.920799;-7.70365;-0.00552141;0.00452033;0.106445;0.106627;-0.00570361;0.0561653;0.0518712;19.2785;0.07306;0.074887;18.6946;0.0534913;85.4867;130.487;-0.00157793;-0.00554654;0.000213497;0.00839128;0.106454;-0.00208605;-0.0185689;0;0.0576532;-0.462545;-3.03744;-1.95386;3.6411;-8.35716;-0.006337;0.00292715;0.10617;0.106246;-0.00641311;0.0563295;0.0596875;16.7539;0.0730621;0.0751059;16.567;0.0603611;91.2012;136.201;-0.00762708;-0.00633423;0.00812932;-0.00174597;0.106144;0.017037;0.0825872;0;0.144037;8.37368;6.9865
720000;721;29.1775;3.42237;0.132881;-2.6115;29.0526;-0.674263;-0.361272;3.39913;-1.07901;-0.113015;0.30084;-0.872182;0.929504;-7.71078;-0.00550077;0.00460171;0.1064;0.106589;-0.00568969;0.0561393;0.051699;19.3427;0.0730297;0.0748524;18.7337;0.0533797;85.4296;130.43;-0.000327582;-0.00552642;0.000267849;0.00849717;0.10641;-0.00539279;-0.020706;0;0.0564988;-0.463847;-3.04166;-1.9596;3.64786;-8.36094;-0.00636012;0.00257752;0.106943;0.107001;-0.00641873;0.0567101;0.0594722;16.8146;0.0735673;0.0756134;16.6702;0.0599873;91.3995;136.399;-0.0102651;-0.00635911;0.00784494;-0.0021508;0.106918;0.0251682;0.0893037;0;0.1307;8.37405;6.99424
721000;722;29.2071;3.45202;0.134032;-2.6178;29.082;-0.662874;-0.367569;3.42859;-1.06707;-0.11211;0.307989;-0.873057;0.932553;-7.71479;-0.00538043;0.0049994;0.106438;0.106661;-0.00560351;0.0561323;0.0505499;19.7824;0.0730469;0.074843;19.0347;0.0525357;84.885;129.885;0.00116855;-0.00541327;-1.11791e-05;0.00950351;0.106449;-0.00530817;-0.0248811;0;0.0564196;-0.464407;-3.04823;-1.9579;3.6525;-8.35906;-0.00608785;0.00242615;0.106744;0.106796;-0.00613999;0.0564681;0.0570322;17.534;0.0733299;0.0752909;17.3936;0.0574926;91.2778;136.278;-0.00859933;-0.00608683;0.00731802;-0.00196703;0.106723;0.0203449;0.0907811;0;0.133887;8.37245;7.00027
722000;723;29.2012;3.44605;0.133801;-2.6146;29.0758;-0.685937;-0.364372;3.42235;-1.09013;-0.111729;0.311393;-0.870891;0.931611;-7.71263;-0.00567541;0.00531534;0.10502;0.105275;-0.00593005;0.0556024;0.0540411;18.5044;0.0722411;0.0741366;17.7528;0.0563293;84.5843;129.584;0.0030316;-0.00571087;0.000178004;0.00993794;0.105033;-0.00957343;-0.0202935;0;0.0592697;-0.464815;-3.0558;-1.95985;3.65991;-8.36101;-0.00614369;0.00150239;0.107558;0.107577;-0.00616354;0.0568705;0.05712;17.507;0.0738586;0.0758273;17.4538;0.057294;91.9316;136.932;-0.00498509;-0.00614785;0.00678954;-0.00324201;0.107538;0.0135987;0.0940909;0;0.134399;8.36954;7.00471
723000;724;29.2125;3.45736;0.13424;-2.61353;29.0875;-0.673838;-0.363297;3.43409;-1.07859;-0.111862;0.314156;-0.871754;0.93336;-7.71036;-0.00588116;0.00470254;0.106467;0.106663;-0.00607765;0.0563705;0.0552394;18.103;0.0732189;0.0751607;17.5501;0.0569798;85.0922;130.092;0.00187691;-0.00591173;-0.000196601;0.00910415;0.106477;-0.00807751;-0.0185138;0;0.0621725;-0.466422;-3.0623;-1.96674;3.66924;-8.37334;-0.00605445;0.000938913;0.108253;0.108261;-0.00606216;0.0571616;0.0559285;17.88;0.0742773;0.0762155;17.8585;0.0559957;92.3223;137.322;-0.00617588;-0.00606217;0.00647884;-0.00402964;0.108235;0.0254075;0.0856311;0;0.134366;8.3691;7.01004
724000;725;;;;;;;;;;-0.110816;0.320639;-0.875498;0.938928;-7.71724;-0.00567574;0.00542095;0.104754;0.10502;-0.00594121;0.0554804;0.0541816;18.4565;0.0720751;0.0739739;17.6764;0.0565725;84.355;129.355;0.00240202;-0.00571456;-2.64862e-05;0.0103237;0.104767;-0.00894347;-0.0185946;0;0.0580522;-0.46591;-3.06728;-1.97203;3.67616;-8.37704;-0.00589738;0.00174146;0.107626;0.107652;-0.00592409;0.0567882;0.0547954;18.2497;0.0738222;0.0757176;18.1719;0.0550299;92.0069;137.007;-0.00330444;-0.00590157;0.0074369;-0.0033703;0.107602;0.0105179;0.0877412;0;0.129427;8.36715;7.01569
725000;726;;;;;;;;;;-0.112014;0.322436;-0.875664;0.939841;-7.71427;-0.00609396;0.00521266;0.105256;0.105499;-0.00633745;0.0559183;0.0578968;17.2721;0.0725376;0.0745577;16.6469;0.0600711;84.8069;129.807;0.00177855;-0.00612625;0.000381332;0.00955717;0.105268;-0.00783287;-0.0148229;0;0.0591791;-0.467427;-3.07381;-1.96908;3.68023;-8.37071;-0.00628985;0.00159203;0.107284;0.107307;-0.00631216;0.0568094;0.0586278;17.0567;0.0737319;0.0757459;17;0.0588236;92.1088;137.109;-0.000816315;-0.00629483;0.00729622;-0.00352712;0.107261;0.0120471;0.0941245;0;0.128246;8.36546;7.02317
726000;727;;;;;;;;;;-0.109657;0.320326;-0.86489;0.928799;-7.69707;-0.0056533;0.00434128;0.107475;0.107641;-0.00581965;0.0567304;0.0526011;19.011;0.0737772;0.0756405;18.4962;0.0540653;85.4322;130.432;0.00342114;-0.00568054;-0.000341469;0.00854561;0.107483;-0.00429172;-0.0195553;0;0.0626448;-0.466575;-3.08283;-1.96251;3.68415;-8.36703;-0.00634102;0.00217375;0.106881;0.106923;-0.00638274;0.0566529;0.0593277;16.8555;0.073502;0.0755372;16.7519;0.0596947;91.8239;136.824;-0.00431015;-0.006343;0.00787304;-0.00294263;0.106855;0.0147994;0.0881205;0;0.143039;8.36582;7.03033
727000;728;29.2513;3.49617;0.135747;-2.6171;29.126;-0.683299;-0.366866;3.47252;-1.08749;-0.11044;0.331532;-0.871298;0.93876;-7.7099;-0.00647812;0.00514315;0.106469;0.106703;-0.00671184;0.0567073;0.0608451;16.4352;0.0734747;0.0756097;15.8977;0.0629022;85.1671;130.167;4.05474e-05;-0.00650576;0.000825652;0.00901984;0.106481;-0.00469667;-0.020217;0;0.0623021;-0.468027;-3.08749;-1.96773;3.69101;-8.36889;-0.00640624;0.00179629;0.107562;0.10759;-0.00643455;0.0570122;0.0595589;16.7901;0.0739648;0.0760162;16.7207;0.0598063;92.1487;137.149;-0.00572023;-0.00641106;0.00778751;-0.00357849;0.107536;0.0153246;0.0869834;0;0.13604;8.36572;7.03799
728000;729;29.271;3.51587;0.136512;-2.62145;29.1451;-0.694225;-0.37122;3.49166;-1.09842;-0.111379;0.335832;-0.881988;0.950312;-7.71416;-0.00569831;0.00463291;0.106198;0.106389;-0.00588981;0.0561396;0.0536575;18.6367;0.0729689;0.0748528;18.0633;0.0553608;85.3497;130.35;0.00289431;-0.00572493;0.00019206;0.00862447;0.106208;-0.00537279;-0.0157341;0;0.0593998;-0.469428;-3.09414;-1.97817;3.70233;-8.38147;-0.00635802;0.00297779;0.107811;0.107888;-0.00643564;0.0571619;0.0589741;16.9566;0.0741638;0.0762158;16.7642;0.059651;91.3644;136.364;-0.00807705;-0.00635571;0.00860299;-0.00206777;0.107781;0.0236279;0.0929129;0;0.146078;8.36164;7.04523
729000;730;29.2833;3.52816;0.136989;-2.62187;29.1575;-0.691178;-0.371639;3.50404;-1.09593;-0.110312;0.340381;-0.881802;0.951632;-7.71398;-0.00552051;0.00407012;0.106685;0.106832;-0.00566796;0.0562502;0.0517459;19.3252;0.0731841;0.0750003;18.8485;0.0530547;85.801;130.801;0.000707483;-0.00554283;-8.89438e-05;0.00780745;0.106692;-0.00379736;-0.0172578;0;0.0630546;-0.470574;-3.0998;-1.97575;3.70591;-8.37709;-0.00653693;0.00241477;0.107727;0.107778;-0.00658794;0.0571831;0.0606804;16.4798;0.0741458;0.0762441;16.3599;0.061125;91.4643;136.464;-0.00988545;-0.00653664;0.0076633;-0.00229241;0.107703;0.0264995;0.0924862;0;0.142866;8.36155;7.05251
730000;731;29.2846;3.52947;0.137039;-2.61992;29.1592;-0.682449;-0.369695;3.50573;-1.0872;-0.110964;0.344017;-0.877754;0.94927;-7.71291;-0.00536833;0.00441093;0.106648;0.106821;-0.00554175;0.0561814;0.0503371;19.8661;0.0731313;0.0749085;19.2757;0.0518789;85.5866;130.587;0.00328536;-0.00539251;0.000173324;0.00821954;0.106656;-0.00699079;-0.0191294;0;0.0590012;-0.471567;-3.10848;-1.97623;3.71356;-8.37756;-0.00594793;0.00229263;0.108675;0.108721;-0.00599376;0.0573573;0.0547313;18.2711;0.0745589;0.0764764;18.139;0.0551298;91.5591;136.559;-0.00954672;-0.00594853;0.00768572;-0.00254293;0.108651;0.0235747;0.0922754;0;0.132133;8.36071;7.06001
731000;732;29.3083;3.55314;0.137959;-2.62309;29.183;-0.670332;-0.372864;3.52951;-1.07508;-0.110486;0.350417;-0.888624;0.961588;-7.72378;-0.00516999;0.00418314;0.106234;0.106391;-0.00532684;0.0558587;0.0486662;20.5481;0.0727676;0.0744782;19.9725;0.0500688;85.6511;130.651;0.00419019;-0.0051938;-0.000121843;0.00805452;0.106242;-0.00838733;-0.0163479;0;0.0694959;-0.47333;-3.11457;-1.98466;3.72337;-8.39126;-0.00634556;0.000915744;0.109322;0.109329;-0.00635281;0.0578411;0.0580446;17.2281;0.0750935;0.0771215;17.2096;0.058107;92.2952;137.295;-0.00252039;-0.00635323;0.0064144;-0.00400959;0.109304;0.021577;0.0805592;0;0.133933;8.35798;7.06689
732000;733;29.3104;3.55532;0.138043;-2.62191;29.1852;-0.672999;-0.371685;3.53173;-1.07775;-0.110947;0.35263;-0.881643;0.956008;-7.71382;-0.00550691;0.0036808;0.106935;0.107055;-0.00562727;0.0563411;0.051498;19.4182;0.0733177;0.0751214;19.0243;0.0525644;86.2119;131.212;0.00194863;-0.00552514;-7.81689e-05;0.00705789;0.106941;-0.0106803;-0.0154227;0;0.063802;-0.474137;-3.12034;-1.98534;3.72866;-8.39301;-0.00593623;0.00185319;0.109121;0.109151;-0.00596607;0.0575584;0.0544006;18.3822;0.0748351;0.0767445;18.2952;0.0546591;91.8613;136.861;0.000675375;-0.00593949;0.00743264;-0.00314751;0.109097;0.0145012;0.0872391;0;0.125504;8.35435;7.07324
733000;734;;;;;;;;;;-0.109543;0.364122;-0.887031;0.965095;-7.72563;-0.00530552;0.00411348;0.106339;0.106491;-0.00545688;0.0559737;0.0498925;20.0431;0.0728808;0.0746316;19.5149;0.0512428;85.8002;130.8;0.00166467;-0.00532753;2.32062e-05;0.00779093;0.106347;-0.00702389;-0.0166423;0;0.0612392;-0.473129;-3.12498;-1.98691;3.73326;-8.39195;-0.00597205;0.00156439;0.10774;0.107761;-0.00599357;0.0568774;0.0554303;18.0407;0.0739198;0.0758366;17.9795;0.0556189;92.0335;137.033;-0.00940549;-0.00597676;0.00713523;-0.00343462;0.107718;0.00812179;0.0883802;0;0.128148;8.35595;7.08067
734000;735;29.3324;3.57725;0.138895;-2.62693;29.2065;-0.68413;-0.376702;3.55306;-1.08888;-0.110744;0.369477;-0.89427;0.973908;-7.73287;-0.00538172;0.00456663;0.106457;0.106643;-0.00556788;0.0561053;0.0505532;19.7811;0.0730219;0.0748071;19.1532;0.0522105;85.4933;130.493;0.00149664;-0.00540659;0.000317703;0.00838602;0.106466;-0.00931299;-0.0173587;0;0.065955;-0.475452;-3.13203;-1.99225;3.74229;-8.39719;-0.0064988;0.0024724;0.108779;0.108832;-0.0065518;0.0576921;0.0597429;16.7384;0.0748346;0.0769228;16.6111;0.0602008;91.1489;136.149;-0.00461037;-0.00649727;0.00718885;-0.00175373;0.108759;0.0153508;0.0933606;0;0.121959;8.35382;7.08526
735000;736;29.3463;3.59118;0.139435;-2.62564;29.2205;-0.687061;-0.375407;3.56708;-1.09125;-0.109645;0.373888;-0.890969;0.97244;-7.72957;-0.00544414;0.0043622;0.10621;0.106381;-0.00561431;0.0559974;0.0512581;19.5091;0.0728639;0.0746632;18.9481;0.0527757;85.4522;130.452;0.00180274;-0.00547021;-0.000150097;0.00841898;0.106219;-0.00994662;-0.0159512;0;0.05702;-0.474252;-3.13879;-1.98978;3.74649;-8.39095;-0.00641137;0.00254916;0.108894;0.10895;-0.0064677;0.0577088;0.0588774;16.9844;0.0748823;0.0769451;16.8452;0.059364;91.6359;136.636;-0.00718878;-0.00641158;0.00832581;-0.0026269;0.108865;0.0204308;0.0931003;0;0.143328;8.35045;7.08787
736000;737;29.3659;3.6108;0.140197;-2.6286;29.2396;-0.704104;-0.378373;3.58611;-1.1083;-0.110047;0.37877;-0.892774;0.976024;-7.73138;-0.00559069;0.00458366;0.106497;0.106684;-0.00577782;0.0562308;0.0524963;19.0489;0.0731246;0.0749744;18.4644;0.0541583;85.4614;130.461;0.000802664;-0.00561599;0.000285942;0.00844595;0.106506;-0.0062561;-0.0131024;0;0.0537706;-0.475273;-3.14575;-1.99183;3.75353;-8.39299;-0.00643915;0.00271508;0.108469;0.108533;-0.00650326;0.0575181;0.0593641;16.8452;0.0746175;0.0766908;16.689;0.0599197;91.2464;136.246;-0.00533574;-0.00643725;0.00786077;-0.00189725;0.108444;0.0138079;0.0873028;0;0.14336;8.34731;7.09513
737000;738;29.3663;3.61113;0.14021;-2.62635;29.2403;-0.695121;-0.376122;3.58688;-1.09987;-0.110369;0.382714;-0.893116;0.97791;-7.73172;-0.00590054;0.00519023;0.105925;0.106165;-0.00614093;0.0561532;0.0557049;17.9517;0.0729102;0.0748709;17.2882;0.057843;84.8871;129.887;0.00344176;-0.00593213;0.000425708;0.0094729;0.105937;-0.0116235;-0.0132822;0;0.0563535;-0.476614;-3.1518;-1.99432;3.7601;-8.39647;-0.00656715;0.00265619;0.10816;0.108221;-0.00662861;0.0574248;0.0607172;16.4698;0.0744553;0.0765664;16.3263;0.0612507;91.1323;136.132;-0.0130014;-0.00656502;0.00749845;-0.00168481;0.108137;0.0249426;0.0943032;0;0.132967;8.35011;7.10237
738000;739;;;;;;;;;;-0.109832;0.388416;-0.897073;0.983702;-7.73568;-0.00586117;0.00475684;0.107307;0.107507;-0.00606076;0.0567839;0.0546203;18.3082;0.0737747;0.0757119;17.7382;0.0563755;85.1776;130.178;0.00523016;-0.00589077;5.12102e-07;0.00902698;0.107318;-0.0141138;-0.0163411;0;0.0530247;-0.477124;-3.15705;-1.99717;3.76607;-8.39811;-0.0061855;0.00276561;0.108425;0.108492;-0.0062522;0.0573721;0.0570486;17.5289;0.0744995;0.0764961;17.3526;0.0576283;91.2673;136.267;-0.00974313;-0.00618356;0.00802072;-0.00194619;0.1084;0.031947;0.0910865;0;0.136773;8.34854;7.11026
739000;740;29.3967;3.64157;0.141392;-2.62808;29.271;-0.685625;-0.37785;3.61752;-1.09038;-0.10984;0.393462;-0.899604;0.988011;-7.73776;-0.00534334;0.00457842;0.106753;0.10694;-0.00553002;0.0562348;0.0500533;19.9787;0.073206;0.0749797;19.338;0.0517117;85.5595;130.559;0.0020344;-0.00536736;0.00044594;0.00829229;0.106762;-0.00148751;-0.0125458;0;0.0557244;-0.478058;-3.16561;-2.00286;3.77638;-8.40646;-0.00650698;0.00165181;0.108623;0.108647;-0.00653068;0.0575889;0.059904;16.6934;0.0747035;0.0767852;16.6364;0.0601091;91.5167;136.517;-0.00930007;-0.00650875;0.0062835;-0.0024989;0.108607;0.0260721;0.0987514;0;0.138437;8.34683;7.11665
740000;741;29.3982;3.64307;0.14145;-2.6278;29.2725;-0.685558;-0.377573;3.61904;-1.09031;-0.111246;0.395854;-0.895742;0.985612;-7.73085;-0.00556496;0.00396784;0.108668;0.108806;-0.00570262;0.0572542;0.0512107;19.5272;0.0745108;0.0763389;19.08;0.052411;86.2162;131.216;4.46328e-05;-0.00558303;0.000377896;0.00718785;0.108675;0.00577236;-0.0135578;0;0.0566378;-0.481327;-3.17409;-2.00611;3.78563;-8.4152;-0.00651555;0.001916;0.109173;0.109204;-0.00654727;0.0578758;0.0596812;16.7557;0.0750805;0.0771677;16.6794;0.0599543;91.7199;136.72;-0.00773007;-0.00651778;0.00723565;-0.00284885;0.109151;0.0187259;0.106828;0;0.13538;8.34315;7.12382
741000;742;;;;;;;;;;-0.111046;0.400866;-0.901054;0.992433;-7.73616;-0.00604277;0.00362021;0.108261;0.108376;-0.00615732;0.0572666;0.0558165;17.9158;0.0743881;0.0763555;17.6012;0.0568144;86.3356;131.336;-0.00147189;-0.0060602;-4.73761e-05;0.0069095;0.108267;0.0132221;-0.0140522;0;0.0587478;-0.482486;-3.17982;-2.00947;3.79236;-8.4173;-0.00592422;0.00150138;0.109101;0.10912;-0.00594382;0.0575321;0.0543005;18.416;0.0748069;0.0767094;18.3586;0.0544703;92.063;137.063;-0.00743261;-0.00592942;0.00713446;-0.00354753;0.109079;0.0142738;0.0958668;0;0.127019;8.34222;7.13057
742000;743;29.4201;3.66497;0.142301;-2.63124;29.294;-0.693926;-0.381013;3.64053;-1.09812;-0.109125;0.405638;-0.902343;0.995325;-7.73745;-0.0058017;0.00338851;0.10724;0.107342;-0.00590318;0.0566225;0.0540999;18.4843;0.0736079;0.0754967;18.1838;0.0549942;86.6295;131.63;-0.00407713;-0.00581592;0.000140177;0.00630518;0.107246;0.0110143;-0.0151093;0;0.0589548;-0.480167;-3.1847;-2.00812;3.79544;-8.40928;-0.00644893;0.0020655;0.110108;0.110145;-0.00648552;0.0583151;0.0585691;17.0739;0.0756843;0.0777535;16.9832;0.0588818;91.5781;136.578;-0.00555626;-0.00645021;0.00728877;-0.00260938;0.110086;0.0142716;0.0979737;0;0.132574;8.3413;7.13834
743000;744;29.4331;3.67798;0.142806;-2.6324;29.3068;-0.697471;-0.38217;3.65341;-1.10166;-0.109309;0.412166;-0.905383;1.00077;-7.74354;-0.00501716;0.00377806;0.107065;0.107192;-0.00514437;0.0561681;0.0468611;21.3397;0.0732363;0.0748908;20.8367;0.0479922;86.1865;131.186;-0.000385843;-0.00503549;5.52771e-05;0.00712389;0.107071;0.00759262;-0.0148879;0;0.0559548;-0.481097;-3.19133;-2.0099;3.80207;-8.41106;-0.00656008;0.00211477;0.109459;0.109498;-0.00659862;0.0580482;0.0599317;16.6857;0.0752946;0.0773976;16.5941;0.0602625;91.996;136.996;-0.00762546;-0.00656342;0.00819633;-0.00333088;0.109431;0.0194688;0.0951856;0;0.135924;8.33871;7.14488
744000;745;29.4574;3.70228;0.143749;-2.63796;29.3304;-0.712002;-0.387733;3.67696;-1.1162;-0.108881;0.417341;-0.907315;1.00461;-7.74242;-0.0051397;0.00293794;0.108214;0.10829;-0.00521579;0.0567529;0.0474957;21.0545;0.0739932;0.0756705;20.7619;0.0481651;86.9628;131.963;-0.000447352;-0.00515181;-0.000162561;0.00572128;0.108218;0.00516049;-0.0151364;0;0.0586269;-0.481626;-3.1985;-2.01233;3.80944;-8.41349;-0.00651838;0.00253082;0.108955;0.109011;-0.00657382;0.0577923;0.0598261;16.7151;0.0749613;0.0770564;16.5826;0.0603043;91.4753;136.475;-0.00591239;-0.0065179;0.00796173;-0.00233464;0.10893;0.017148;0.0901327;0;0.140627;8.33602;7.15161
745000;746;29.4703;3.71515;0.144249;-2.63765;29.3435;-0.706347;-0.387421;3.69005;-1.11054;-0.108877;0.419741;-0.907109;1.00543;-7.73928;-0.00562203;0.00377878;0.108575;0.1087;-0.00574693;0.0572236;0.05178;19.3125;0.0744564;0.0762981;18.9145;0.0528695;86.2241;131.224;0.00280032;-0.00564054;2.26197e-05;0.00714796;0.108582;-0.00729625;-0.0182253;0;0.0567975;-0.482796;-3.20631;-2.01432;3.8172;-8.41664;-0.00676397;0.00241538;0.108859;0.10891;-0.00681441;0.0578621;0.0621349;16.094;0.0749813;0.0771495;15.9823;0.0625692;91.7631;136.763;-0.00879822;-0.0067651;0.00828518;-0.00284243;0.108831;0.0215772;0.0930374;0;0.13973;8.33581;7.15722
746000;747;;;;;;;;;;-0.108452;0.426137;-0.904778;1.00597;-7.73989;-0.00514793;0.00292503;0.108741;0.108816;-0.005223;0.0570195;0.0473412;21.1233;0.0743462;0.076026;20.834;0.0479984;86.951;131.951;-0.00325247;-0.00516035;-0.000243363;0.00576795;0.108745;0.00551119;-0.0154465;0;0.0558423;-0.48289;-3.21293;-2.01023;3.82062;-8.41118;-0.00652453;0.00278225;0.109461;0.109528;-0.00659123;0.0580596;0.0596059;16.7769;0.0753119;0.0774128;16.6172;0.0601786;91.1716;136.172;-0.00842466;-0.00652222;0.00786937;-0.00177311;0.109437;0.0336107;0.0876192;0;0.13785;8.33196;7.16052
747000;748;29.4953;3.74018;0.145221;-2.6387;29.3686;-0.701876;-0.388469;3.7152;-1.10663;-0.107487;0.437646;-0.91539;1.02031;-7.75708;-0.00547603;0.00357033;0.107989;0.108101;-0.00558826;0.0568448;0.0507091;19.7203;0.0740007;0.0757931;19.3444;0.0516946;86.2858;131.286;-0.00176944;-0.00549412;-0.000229502;0.00698099;0.107995;0.00424216;-0.0161764;0;0.0596463;-0.483489;-3.21867;-2.02447;3.83303;-8.4303;-0.00641916;0.00174072;0.109361;0.109388;-0.00644533;0.0579165;0.0586967;17.0367;0.0751657;0.077222;16.9716;0.0589219;91.7005;136.701;-0.0092412;-0.00642171;0.0068613;-0.00284548;0.109342;0.0254456;0.0982356;0;0.144609;8.32946;7.16822
748000;749;29.4971;3.74197;0.14529;-2.63677;29.3709;-0.688623;-0.386537;3.7175;-1.09337;-0.10726;0.441863;-0.911793;1.01888;-7.75349;-0.00519983;0.00346516;0.108948;0.109053;-0.00530492;0.0571788;0.0477278;20.9521;0.074533;0.0762384;20.5569;0.0486455;86.317;131.317;-0.0031819;-0.00521825;-0.000448632;0.00697605;0.108953;0.00865406;-0.0180008;0;0.0553924;-0.485139;-3.22475;-2.02666;3.8395;-8.43557;-0.00642888;0.00113712;0.11076;0.110771;-0.00643991;0.0586054;0.0580433;17.2285;0.0760848;0.0781406;17.2007;0.0581372;92.2555;137.255;-0.00115249;-0.00643614;0.0068432;-0.00396698;0.110739;0.0181955;0.0906128;0;0.133856;8.30685;7.17474
749000;750;;;;;;;;;;-0.107632;0.444048;-0.914758;1.02252;-7.75336;-0.00582303;0.00468885;0.109623;0.109813;-0.00601316;0.0579131;0.0531188;18.8257;0.0752931;0.0772174;18.2621;0.0547582;85.2087;130.209;0.00223295;-0.00585407;-0.000288524;0.00914829;0.109633;-0.00654334;-0.016378;0;0.0548799;-0.485798;-3.2284;-2.02578;3.84218;-8.42987;-0.00648887;0.00188865;0.110573;0.110603;-0.00651934;0.0585612;0.0586843;17.0403;0.0760018;0.0780816;16.9654;0.0589436;91.1032;136.103;-0.00514079;-0.00648867;0.00598596;-0.00177679;0.110558;0.00710546;0.103716;0;0.122582;8.33672;7.18185
750000;751;29.5192;3.76407;0.146149;-2.63949;29.3929;-0.687319;-0.389264;3.73948;-1.09207;-0.107381;0.448367;-0.913209;1.02299;-7.75181;-0.00599888;0.00423077;0.110381;0.110534;-0.00615248;0.0583434;0.0543471;18.4002;0.0758237;0.0777912;17.9658;0.0556612;85.4629;130.463;0.0041153;-0.00602789;-0.000754441;0.0086934;0.110389;-0.00916447;-0.0177281;0;0.0538356;-0.486882;-3.23745;-2.02702;3.85058;-8.43269;-0.00620862;0.00169234;0.110207;0.110231;-0.00623322;0.0582323;0.0563361;17.7506;0.075651;0.0776431;17.6845;0.0565467;91.9167;136.917;-0.00359132;-0.0062126;0.00725114;-0.00328361;0.110184;0.00730722;0.0931242;0;0.122147;8.32591;7.18835
751000;752;29.5261;3.77095;0.146415;-2.63945;29.3996;-0.697609;-0.389225;3.74614;-1.10236;-0.106782;0.4512;-0.916078;1.02673;-7.74825;-0.00582491;0.00351219;0.111948;0.112052;-0.00592956;0.0589909;0.0520325;19.2188;0.0767544;0.0786545;18.8972;0.0529178;86.0466;131.047;0.00452244;-0.00584821;-0.00112547;0.00765859;0.111953;-0.00658383;-0.0197893;0;0.0531393;-0.487308;-3.24196;-2.03369;3.85794;-8.44191;-0.00641096;0.00196157;0.109265;0.109298;-0.00644421;0.0578713;0.0586734;17.0435;0.0751059;0.0771617;16.9607;0.0589598;91.6223;136.622;-0.00488267;-0.00641263;0.00714134;-0.00267808;0.109244;0.015645;0.102841;0;0.133371;8.30644;7.19277
752000;753;29.5304;3.77531;0.146585;-2.64118;29.4036;-0.707273;-0.390952;3.75013;-1.11147;-0.107495;0.457477;-0.912653;1.02654;-7.75303;-0.00557727;0.00357399;0.109513;0.109624;-0.00568815;0.0576559;0.0509281;19.6355;0.0750503;0.0768745;19.2723;0.0518881;86.0585;131.058;0.0025439;-0.00559903;-0.00079156;0.00748665;0.109518;0.00246455;-0.0168884;0;0.0566565;-0.487463;-3.24819;-2.02503;3.85864;-8.4262;-0.00677163;0.0021775;0.110655;0.110696;-0.00681199;0.0587539;0.0611956;16.341;0.0761695;0.0783385;16.2501;0.061538;91.944;136.944;-0.00697821;-0.00677458;0.00825484;-0.00325735;0.110627;0.0210322;0.0986958;0;0.137576;8.32204;7.20176
753000;754;29.5577;3.80262;0.147645;-2.64385;29.4306;-0.714609;-0.393616;3.77714;-1.1188;-0.10708;0.460696;-0.917702;1.03242;-7.75281;-0.00548813;0.00328914;0.109892;0.109986;-0.00558182;0.0577837;0.0499412;20.0236;0.0752534;0.0770449;19.7043;0.0507504;86.3321;131.332;0.0019412;-0.00550723;-0.00083675;0.00698607;0.109896;0.00248089;-0.0210126;0;0.0556783;-0.488383;-3.25656;-2.03005;3.86844;-8.43121;-0.00656248;0.00276936;0.110007;0.110073;-0.00662823;0.0583504;0.0596552;16.763;0.075688;0.0778006;16.6066;0.0602169;91.3672;136.367;-0.00685365;-0.00656092;0.00825302;-0.0021385;0.10998;0.0208942;0.0918634;0;0.151014;8.3283;7.21041
754000;755;29.5713;3.81617;0.148171;-2.64393;29.4442;-0.7162;-0.393703;3.79071;-1.12095;-0.106895;0.469922;-0.921731;1.04012;-7.76317;-0.00543022;0.00389742;0.109497;0.109629;-0.00556224;0.0575957;0.0495923;20.1644;0.075009;0.0767943;19.7095;0.0507368;85.6668;130.667;0.00138545;-0.00545665;-0.00093738;0.00823134;0.109504;0.00603284;-0.0235834;0;0.052867;-0.489186;-3.26506;-2.0369;3.87929;-8.44171;-0.00639664;0.00250524;0.109088;0.109143;-0.00645096;0.0577968;0.0586372;17.054;0.0750046;0.0770624;16.9188;0.0591058;91.6698;136.67;-0.0129846;-0.00639715;0.00831521;-0.00269982;0.10906;0.0261369;0.107084;0;0.142579;8.32212;7.21779
755000;756;29.5945;3.8394;0.149073;-2.6497;29.4675;-0.693724;-0.399467;3.81406;-1.09847;-0.105886;0.473109;-0.924261;1.0437;-7.75937;-0.00562503;0.00290734;0.111059;0.111132;-0.00569743;0.0584145;0.0506489;19.7437;0.076058;0.077886;19.5056;0.0512674;86.5869;131.587;-0.00175312;-0.00564235;-0.00116163;0.00654896;0.111062;0.0104751;-0.0200427;0;0.0531435;-0.489618;-3.27191;-2.03938;3.88641;-8.4428;-0.006673;0.00189592;0.110118;0.110149;-0.00670377;0.0584262;0.0605987;16.502;0.0757659;0.0779016;16.4308;0.0608612;91.7118;136.712;-0.00914905;-0.0066753;0.00720662;-0.00285611;0.110096;0.0279783;0.108348;0;0.139209;8.31948;7.2247
756000;757;29.5909;3.83578;0.148933;-2.64573;29.464;-0.703608;-0.395503;3.81055;-1.10836;-0.106326;0.478526;-0.926747;1.0484;-7.76186;-0.00546343;0.00300254;0.11155;0.111627;-0.00554043;0.0585837;0.0489775;20.4175;0.0763318;0.0781115;20.1477;0.0496334;86.6806;131.681;-0.00205037;-0.00547959;-0.000811697;0.00641521;0.111554;0.00539042;-0.0247463;0;0.0515053;-0.491614;-3.2786;-2.04744;3.89653;-8.45328;-0.00678187;0.00166594;0.111159;0.111182;-0.0068054;0.0589938;0.0610107;16.3906;0.0764909;0.0786583;16.3373;0.0612094;91.7779;136.778;-0.00680825;-0.00678509;0.00691792;-0.00302863;0.111138;0.0193006;0.102685;0;0.139272;8.31855;7.23213
757000;758;29.6076;3.85252;0.149583;-2.64663;29.4808;-0.701312;-0.396404;3.82732;-1.10551;-0.10599;0.485307;-0.931158;1.05537;-7.76627;-0.00536992;0.00306491;0.111275;0.111356;-0.0054504;0.058403;0.048258;20.7219;0.076119;0.0778707;20.4307;0.0489459;86.893;131.893;-0.000666284;-0.00538339;-0.00023123;0.00601504;0.111279;-0.00203766;-0.022476;0;0.0539935;-0.492128;-3.28471;-2.04906;3.90259;-8.45022;-0.00655359;0.00135117;0.110636;0.110651;-0.00656917;0.0586103;0.0592357;16.8817;0.076052;0.0781471;16.8441;0.0593681;92.0623;137.062;-0.0044235;-0.00655912;0.00686253;-0.00357869;0.110616;0.0085825;0.0951007;0;0.131496;8.31;7.23966
758000;759;;;;;;;;;;-0.106176;0.488208;-0.929042;1.05486;-7.76122;-0.00582845;0.00329357;0.112712;0.112804;-0.00591988;0.0593619;0.0517107;19.3383;0.0772515;0.0791492;19.0551;0.0524794;86.4631;131.463;0.00406748;-0.005847;-0.000753947;0.00690986;0.112717;-0.0126297;-0.0203083;0;0.06104;-0.493898;-3.29326;-2.05262;3.91187;-8.45924;-0.00648422;0.000954793;0.110004;0.110011;-0.00649204;0.0582518;0.0589455;16.9648;0.075598;0.077669;16.9456;0.0590124;92.545;137.545;-0.00705567;-0.00649385;0.00702462;-0.00447807;0.109982;0.01741;0.10052;0;0.127974;8.30259;7.24344
759000;760;29.6315;3.87641;0.15051;-2.64995;29.5043;-0.706895;-0.399725;3.8509;-1.11165;-0.106317;0.498337;-0.934438;1.06434;-7.76955;-0.00552206;0.00226559;0.111475;0.111519;-0.00556591;0.0585423;0.0495364;20.1872;0.0762688;0.0780564;20.036;0.0499101;87.301;132.301;-0.00215931;-0.00553303;-0.00100618;0.00519295;0.111477;0.000156725;-0.0227603;0;0.0531425;-0.494242;-3.29924;-2.05551;3.91847;-8.46047;-0.0067584;0.00189329;0.110333;0.110363;-0.00678901;0.0585761;0.0612548;16.3252;0.0759397;0.0781015;16.2562;0.0615151;91.9627;136.963;-0.00558757;-0.00676212;0.00771282;-0.00331258;0.110307;0.0204052;0.103966;0;0.142917;8.2992;7.24852
760000;761;29.6448;3.88972;0.151027;-2.64902;29.5177;-0.709946;-0.398789;3.86426;-1.11414;-0.105876;0.502656;-0.928457;1.06109;-7.76356;-0.00557555;0.00229406;0.111783;0.111827;-0.00562038;0.0587239;0.0498786;20.0487;0.0764939;0.0782985;19.8968;0.0502594;87.147;132.147;-0.00141066;-0.00558808;-0.00128336;0.00549383;0.111784;0.00382907;-0.0212476;0;0.0544295;-0.494155;-3.30599;-2.04827;3.92035;-8.44943;-0.00671627;0.00285481;0.110811;0.11088;-0.00678557;0.0588328;0.0606103;16.4988;0.0762825;0.0784437;16.3405;0.0611975;91.4103;136.41;-0.00514437;-0.00671464;0.00852681;-0.00221715;0.110782;0.0246645;0.0978947;0;0.146058;8.29202;7.25533
761000;762;29.6658;3.91072;0.151842;-2.65094;29.5383;-0.723618;-0.400713;3.88486;-1.12837;-0.105844;0.508538;-0.932343;1.06728;-7.76745;-0.00570697;0.00256073;0.112876;0.112931;-0.00576224;0.0593467;0.0505597;19.7786;0.0772799;0.079129;19.5985;0.0510244;86.9899;131.99;-0.000541312;-0.00572097;-0.0011363;0.0058638;0.112878;-0.000108991;-0.0230564;0;0.053834;-0.494997;-3.31371;-2.05559;3.9308;-8.45924;-0.00631826;0.0030436;0.110284;0.110363;-0.00639765;0.0583804;0.0572909;17.4548;0.0757981;0.0778406;17.2506;0.057969;91.1482;136.148;-0.0102504;-0.00631511;0.00838346;-0.00173552;0.110256;0.0324404;0.105131;0;0.144361;8.28881;7.26225
762000;763;;;;;;;;;;-0.10583;0.512874;-0.93703;1.07344;-7.76921;-0.00558522;0.00345019;0.113245;0.113345;-0.00568531;0.0595152;0.0493197;20.2759;0.077528;0.0793536;19.9365;0.0501592;86.0573;131.057;0.0020249;-0.00560921;-0.00133211;0.00772197;0.11325;-0.00438235;-0.0296409;0;0.0521764;-0.496782;-3.32028;-2.05887;3.93828;-8.46189;-0.0064111;0.002661;0.1103;0.110361;-0.00647174;0.0584162;0.0581242;17.2045;0.0758231;0.0778883;17.0527;0.0586417;91.5826;136.583;-0.0111921;-0.00641084;0.00849639;-0.00256107;0.110271;0.0336955;0.105087;0;0.144456;8.28808;7.26997
763000;764;29.6955;3.94042;0.152995;-2.65743;29.568;-0.706092;-0.407204;3.91453;-1.11084;-0.105471;0.516502;-0.933959;1.07246;-7.76613;-0.00584607;0.00258333;0.114522;0.114577;-0.00590149;0.0602393;0.0510477;19.5895;0.078426;0.0803191;19.415;0.0515067;86.6599;131.66;0.00294373;-0.00586444;-0.00188842;0.0065721;0.114523;-0.00249124;-0.0276362;0;0.0552384;-0.49754;-3.32744;-2.05914;3.94455;-8.46275;-0.00701708;0.00177596;0.110336;0.110363;-0.00704395;0.0587033;0.0635974;15.7239;0.076032;0.0782711;15.6677;0.0638254;91.9029;136.903;-0.0102854;-0.00702065;0.00734029;-0.0032003;0.110313;0.0275699;0.102209;0;0.143552;8.28432;7.2774
764000;765;29.688;3.9329;0.152703;-2.65193;29.5607;-0.714722;-0.401701;3.90726;-1.11947;-0.104561;0.521571;-0.937613;1.078;-7.76979;-0.0059664;0.00278314;0.113682;0.113747;-0.00603111;0.0598891;0.0524831;19.0538;0.0779196;0.0798521;18.8601;0.0530221;86.2987;131.299;0.00179713;-0.00598874;-0.00219014;0.00722206;0.113684;0.00164656;-0.0278948;0;0.0532697;-0.49805;-3.33425;-2.06303;3.95239;-8.46887;-0.00660761;0.00181367;0.111046;0.111074;-0.00663557;0.0588549;0.0595032;16.8058;0.0763575;0.0784732;16.7392;0.0597399;91.7924;136.792;-0.00908532;-0.00661063;0.00724888;-0.00304602;0.111024;0.0246876;0.101736;0;0.138168;8.28056;7.2852
765000;766;29.7011;3.94593;0.153209;-2.65293;29.5739;-0.706935;-0.402704;3.92044;-1.11169;-0.104541;0.526201;-0.938717;1.08121;-7.77089;-0.00589938;0.00251321;0.114143;0.114196;-0.00595197;0.0600738;0.0516841;19.3483;0.0781899;0.0800984;19.1862;0.0521208;86.6188;131.619;0.0036927;-0.00591825;-0.00209;0.00662041;0.114144;-0.00384134;-0.03239;0;0.057365;-0.499524;-3.34026;-2.06818;3.96034;-8.47392;-0.00622649;0.00127666;0.110639;0.110653;-0.00624044;0.0584465;0.0562778;17.769;0.075934;0.0779287;17.7315;0.0563967;92.5499;137.55;-0.0118635;-0.00623586;0.00773276;-0.00450015;0.110612;0.0188152;0.105834;0;0.130193;8.2794;7.29214
766000;767;;;;;;;;;;-0.104945;0.531277;-0.937757;1.08289;-7.76993;-0.00584095;0.00367239;0.11387;0.113983;-0.0059535;0.0599682;0.0512947;19.4952;0.0780488;0.0799576;19.1455;0.0522315;85.8337;130.834;0.00481929;-0.00586801;-0.0014038;0.00820296;0.113876;-0.0110468;-0.0219142;0;0.0580218;-0.500279;-3.3457;-2.06579;3.96377;-8.46943;-0.00649551;0.00102997;0.110802;0.110811;-0.00650455;0.0586578;0.0586227;17.0582;0.0761349;0.0782104;17.0359;0.0586995;92.3089;137.309;-0.00802512;-0.00650333;0.00673606;-0.00407361;0.110782;0.00966288;0.103864;0;0.130786;8.27728;7.29869
767000;768;29.7239;3.96877;0.154096;-2.65589;29.5964;-0.714897;-0.405661;3.94293;-1.11965;-0.104485;0.536833;-0.940345;1.08782;-7.77252;-0.00589085;0.00317779;0.112809;0.112894;-0.00597586;0.059435;0.0522196;19.1499;0.0773317;0.0792467;18.8917;0.0529333;86.2096;131.21;0.00124054;-0.00591313;-0.00152159;0.00737585;0.112813;-0.0122044;-0.0248104;0;0.0570421;-0.500202;-3.35379;-2.06963;3.97259;-8.47305;-0.00670366;0.0021981;0.11066;0.110701;-0.00674482;0.0587229;0.060579;16.5074;0.0761485;0.0782972;16.4127;0.0609283;91.6897;136.69;-0.00331846;-0.00670517;0.00778324;-0.00279692;0.110635;0.0218317;0.10382;0;0.14272;8.27337;7.30592
768000;769;29.752;3.99689;0.155188;-2.66037;29.6239;-0.726692;-0.410142;3.97048;-1.13144;-0.10421;0.545339;-0.944037;1.0952;-7.77919;-0.00552509;0.0041201;0.112111;0.112255;-0.00566921;0.0589623;0.0492822;20.2913;0.0767964;0.0786164;19.8009;0.0505028;85.7809;130.781;0.00147211;-0.00555059;-0.000473724;0.00822793;0.112119;-0.00261203;-0.0308081;0;0.0562615;-0.501279;-3.36093;-2.07258;3.98029;-8.476;-0.00701927;0.00253634;0.110812;0.110866;-0.00707384;0.0589701;0.063344;15.7868;0.0763781;0.0786268;15.6727;0.0638051;91.5028;136.503;-0.00550187;-0.00701893;0.00805856;-0.00240016;0.110785;0.0295606;0.109977;0;0.149232;8.26912;7.30812
769000;770;29.7648;4.00968;0.155685;-2.66161;29.6367;-0.724131;-0.411376;3.98327;-1.12888;-0.103464;0.550583;-0.944123;1.09782;-7.7763;-0.00589043;0.00348528;0.111638;0.111742;-0.00599369;0.0588677;0.0527634;18.9525;0.0765706;0.0784903;18.6432;0.0536388;86.2458;131.246;0.00515232;-0.00591088;-0.00074311;0.00726658;0.111644;-0.0157826;-0.0272802;0;0.0530005;-0.501763;-3.36937;-2.07154;3.98694;-8.47651;-0.00682449;0.00299285;0.110468;0.110544;-0.00690081;0.0587226;0.0617779;16.187;0.0761009;0.0782968;16.0191;0.0624256;91.494;136.494;-0.0110867;-0.00682273;0.00895089;-0.00233596;0.110436;0.0288522;0.0986144;0;0.157236;8.2629;7.31511
770000;771;29.7781;4.02295;0.1562;-2.66011;29.6502;-0.721578;-0.409877;3.9968;-1.12633;-0.102781;0.555592;-0.942028;1.09848;-7.7742;-0.00591321;0.00331744;0.112005;0.112098;-0.00600647;0.0590524;0.0527941;18.9415;0.0768128;0.0787366;18.6629;0.0535821;86.3994;131.399;0.00523521;-0.00593224;-0.000788039;0.00698752;0.11201;-0.0158941;-0.027072;0;0.0554242;-0.502325;-3.37643;-2.07086;3.99263;-8.47428;-0.00626268;0.00246575;0.110302;0.110354;-0.00631481;0.0583345;0.0567775;17.6126;0.0757622;0.0777794;17.4755;0.0572231;91.6586;136.659;-0.0108397;-0.00626337;0.00827273;-0.00273164;0.110274;0.0310968;0.109956;0;0.147928;8.25133;7.32047
771000;772;29.8033;4.04822;0.157181;-2.66665;29.6756;-0.699407;-0.416422;4.02213;-1.10416;-0.102909;0.565319;-0.947428;1.10806;-7.78254;-0.00522138;0.00220799;0.112467;0.112509;-0.00526279;0.0588858;0.0464258;21.5398;0.0768202;0.0785144;21.3782;0.0467767;87.3038;132.304;-0.00175303;-0.00523269;-0.00117295;0.00523123;0.112469;0.00330539;-0.0250844;0;0.048971;-0.503177;-3.38173;-2.07696;4.00039;-8.48279;-0.0069244;0.00198632;0.110431;0.110465;-0.00695801;0.0587113;0.0627035;15.9481;0.0760685;0.0782817;15.8759;0.0629886;91.6588;136.659;-0.0134646;-0.0069262;0.00727457;-0.00274309;0.110409;0.0310006;0.103452;0;0.139691;8.25001;7.32797
772000;773;29.7935;4.03837;0.156799;-2.66214;29.6656;-0.719144;-0.411909;4.01216;-1.12389;-0.102436;0.568556;-0.946649;1.10901;-7.77883;-0.00577854;0.0029581;0.113059;0.113132;-0.00585213;0.0594922;0.051111;19.5653;0.077446;0.0793229;19.3318;0.0517282;86.5504;131.55;0.00299037;-0.00579695;-0.00126892;0.00673377;0.113062;-0.0103071;-0.022902;0;0.0561905;-0.503828;-3.38811;-2.07999;4.00743;-8.48583;-0.00678244;0.00146086;0.11096;0.110978;-0.00680056;0.0588892;0.0611252;16.3599;0.0763531;0.0785189;16.3189;0.0612785;92.0789;137.079;-0.0102098;-0.00678787;0.00711524;-0.0035943;0.110938;0.0273484;0.099565;0;0.1408;8.2486;7.3352
773000;774;29.8045;4.04936;0.157225;-2.66087;29.6768;-0.718359;-0.410645;4.02333;-1.12311;-0.101903;0.574718;-0.948866;1.11402;-7.78273;-0.00572993;0.00333632;0.11347;0.113563;-0.00582323;0.0596932;0.0504974;19.803;0.0777226;0.0795909;19.5017;0.0512775;86.1837;131.184;0.00401387;-0.0057525;-0.0013099;0.00748509;0.113474;-0.004946;-0.0278283;0;0.0488622;-0.504067;-3.39493;-2.08338;4.01498;-8.48923;-0.00719198;0.00158453;0.111161;0.111183;-0.00721319;0.0591978;0.0646986;15.4563;0.0766393;0.0789305;15.4138;0.064877;91.7297;136.73;-0.00965859;-0.00719503;0.00663226;-0.00292559;0.111143;0.0130268;0.107531;0;0.133763;8.24421;7.34314
774000;775;;;;;;;;;;-0.101597;0.580756;-0.954001;1.12148;-7.78618;-0.00626802;0.00307843;0.112833;0.112913;-0.00634753;0.0596301;0.0555512;18.0014;0.0774777;0.0795068;17.7884;0.0562163;86.2885;131.288;0.00230494;-0.00628942;-0.00155128;0.00721259;0.112836;-0.00052103;-0.0342008;0;0.0504527;-0.505216;-3.3978;-2.08575;4.01879;-8.48686;-0.00655811;0.00149547;0.111114;0.111133;-0.00657711;0.058855;0.0590215;16.943;0.0763755;0.0784734;16.8969;0.0591824;92.1262;137.126;-0.00630707;-0.00656386;0.00730339;-0.00369741;0.111091;0.0102354;0.10156;0;0.131339;8.24203;7.34987
775000;776;29.8287;4.07358;0.158166;-2.66363;29.7009;-0.718246;-0.413397;4.04741;-1.123;-0.101027;0.584084;-0.949913;1.11968;-7.78209;-0.00619155;0.0034138;0.11343;0.113527;-0.0062889;0.0599081;0.0545848;18.3201;0.0778659;0.0798775;18.052;0.0553955;86.0467;131.047;0.00289105;-0.00621583;-0.00143237;0.00773926;0.113434;-0.000833031;-0.0310763;0;0.0531008;-0.504678;-3.40761;-2.08468;4.02646;-8.48851;-0.00685869;0.00224304;0.111479;0.111521;-0.00690119;0.0592111;0.0615248;16.2536;0.0767513;0.0789482;16.1597;0.0618824;91.5462;136.546;-0.00609337;-0.00685942;0.00760042;-0.00254399;0.111455;0.019305;0.105017;0;0.136238;8.23659;7.35699
776000;777;29.8474;4.09232;0.158893;-2.66665;29.7189;-0.739493;-0.416415;4.06544;-1.14424;-0.10088;0.592587;-0.950453;1.12459;-7.78906;-0.00677452;0.00395983;0.112605;0.112736;-0.00690572;0.0598209;0.0601618;16.6218;0.0775619;0.0797612;16.325;0.0612556;85.6436;130.644;0.00549149;-0.00680285;-0.00110643;0.00848241;0.112611;-0.0162269;-0.026862;0;0.0529834;-0.506374;-3.41552;-2.08784;4.03501;-8.49148;-0.00691726;0.00267852;0.111205;0.111265;-0.00697797;0.0591217;0.0622029;16.0764;0.0766089;0.0788289;15.9453;0.0627146;91.2483;136.248;-0.00430622;-0.00691554;0.00784384;-0.00193779;0.11118;0.0282196;0.110318;0;0.147691;8.23195;7.36413
777000;778;;;;;;;;;;-0.100432;0.595943;-0.956077;1.13107;-7.78825;-0.00618121;0.00337338;0.113061;0.113156;-0.00627656;0.0597164;0.0546715;18.2911;0.0776143;0.0796218;18.0284;0.0554682;86.1273;131.127;0.00347955;-0.00620424;-0.00131619;0.0075605;0.113065;-0.0085162;-0.0304853;0;0.0572571;-0.506924;-3.42576;-2.09125;4.04551;-8.49811;-0.00667118;0.00297195;0.109907;0.109982;-0.00674689;0.0583646;0.0606986;16.4748;0.0756708;0.0778194;16.3012;0.0613453;91.483;136.483;-0.0137007;-0.00666943;0.00887861;-0.00231438;0.109875;0.03647;0.110679;0;0.147329;8.22556;7.37192
778000;779;29.884;4.12886;0.160312;-2.66982;29.7562;-0.702419;-0.419593;4.10275;-1.10717;-0.0997826;0.60271;-0.955629;1.13422;-7.78781;-0.00610332;0.00354016;0.111214;0.11132;-0.00621005;0.0587652;0.0548792;18.2218;0.0763678;0.0783536;17.9259;0.0557853;86.0407;131.041;0.00217493;-0.00612622;-0.00102065;0.00761941;0.111219;-0.0139742;-0.0266936;0;0.0524111;-0.507313;-3.43345;-2.08661;4.04967;-8.4891;-0.00658577;0.00233086;0.111256;0.111302;-0.00663185;0.0589671;0.0591946;16.8934;0.076508;0.0786228;16.783;0.0595842;92.1201;137.12;-0.01261;-0.00658955;0.00896508;-0.00359992;0.111222;0.0271957;0.102473;0;0.141072;8.208;7.37622
779000;780;29.9035;4.14833;0.161068;-2.67245;29.7756;-0.698347;-0.422224;4.12217;-1.1031;-0.0998076;0.607423;-0.955121;1.1363;-7.7873;-0.0059333;0.00367622;0.110707;0.110823;-0.00604905;0.0584361;0.0535944;18.6587;0.0759787;0.0779148;18.3208;0.0545829;86.0177;131.018;0.0045838;-0.0059559;-0.000758606;0.00764527;0.110713;-0.0150102;-0.0277162;0;0.0500924;-0.509175;-3.44;-2.09229;4.05839;-8.49912;-0.00681323;0.00137678;0.111246;0.111262;-0.00682928;0.0590454;0.0612449;16.3279;0.0765524;0.0787273;16.2919;0.0613804;92.1541;137.154;-0.0118337;-0.00681935;0.00711287;-0.00374994;0.111224;0.0423396;0.0962467;0;0.135762;8.20036;7.37915
780000;781;;;;;;;;;;-0.097774;0.615659;-0.963304;1.14741;-7.79548;-0.00607916;0.00334847;0.111662;0.111757;-0.00617431;0.0589655;0.0544427;18.3679;0.0766455;0.0786207;18.1003;0.0552478;86.4513;131.451;0.00230409;-0.00609728;-0.000593054;0.00687248;0.111666;-0.0109676;-0.0284317;0;0.052003;-0.507763;-3.44186;-2.09896;4.06323;-8.50216;-0.00688479;0.00158785;0.111812;0.111833;-0.00690603;0.0593695;0.0615748;16.2404;0.0769607;0.0791594;16.1935;0.061753;91.906;136.906;-0.00962551;-0.00688896;0.00704591;-0.00328755;0.111791;0.032225;0.109373;0;0.133607;8.20173;7.38726
781000;782;;;;;;;;;;-0.0992621;0.620631;-0.959669;1.14717;-7.79184;-0.00581237;0.00350745;0.111801;0.111905;-0.00591688;0.0589111;0.0519886;19.235;0.076652;0.0785482;18.9129;0.0528739;86.4766;131.477;0.00131099;-0.00582981;-0.000234465;0.00685348;0.111806;-0.00994267;-0.0277172;0;0.0548794;-0.509691;-3.44927;-2.09808;4.0693;-8.49971;-0.00713476;0.00108341;0.111328;0.111338;-0.00714467;0.0592412;0.0640878;15.6036;0.0767178;0.0789883;15.5833;0.0641711;92.0413;137.041;-0.00779498;-0.00714056;0.00628262;-0.00356161;0.111311;0.00251142;0.110256;0;0.132268;8.20115;7.39425
782000;783;;;;;;;;;;-0.0981967;0.626749;-0.956162;1.14748;-7.78834;-0.00564971;0.0027135;0.112368;0.11243;-0.00571206;0.0590713;0.0502786;19.8892;0.0769284;0.0787617;19.683;0.0508053;86.7659;131.766;0.00278874;-0.00566578;-0.00126618;0.00627092;0.112371;-0.0132311;-0.0302366;0;0.0513195;-0.51121;-3.45779;-2.10154;4.07849;-8.50654;-0.00632827;0.0010667;0.111543;0.111553;-0.00633793;0.0589454;0.0567338;17.6262;0.0765687;0.0785939;17.6009;0.0568154;92.2221;137.222;-0.00395795;-0.00633555;0.00667911;-0.00395059;0.111524;0.018737;0.0983424;0;0.121192;8.19652;7.40199
783000;784;29.9393;4.18419;0.16246;-2.67329;29.8108;-0.730154;-0.423058;4.15734;-1.1349;-0.0980786;0.634638;-0.964609;1.15882;-7.79679;-0.00562912;0.00375828;0.112145;0.112264;-0.00574893;0.0590066;0.0501952;19.9222;0.0768309;0.0786755;19.5279;0.0512088;86.2175;131.217;0.00293591;-0.00564941;-0.000293947;0.00738133;0.112151;-0.0133843;-0.0321055;0;0.0505343;-0.511022;-3.46684;-2.10856;4.08976;-8.51197;-0.00685459;0.00250349;0.110694;0.110747;-0.00690789;0.0588276;0.0619238;16.1489;0.0762386;0.0784368;16.032;0.0623752;91.4618;136.462;-0.00609023;-0.00685419;0.00791797;-0.00233802;0.110669;0.0292556;0.112366;0;0.142412;8.18917;7.40855
784000;785;29.9638;4.20866;0.163411;-2.67603;29.8348;-0.743343;-0.425802;4.18134;-1.14754;-0.0987349;0.642015;-0.967171;1.16505;-7.79935;-0.00610517;0.00357901;0.11167;0.111778;-0.00621383;0.058996;0.0546717;18.291;0.0766741;0.0786614;17.9886;0.0555907;86.1341;131.134;0.00239543;-0.00612688;-0.000785957;0.00748149;0.111675;-0.00562586;-0.0328008;0;0.0533891;-0.512743;-3.4772;-2.10661;4.09776;-8.50798;-0.006653;0.00306075;0.110569;0.110649;-0.00673287;0.058691;0.0601704;16.6195;0.0761097;0.0782547;16.4342;0.0608488;91.2923;136.292;-0.0105529;-0.00665026;0.00869352;-0.00197755;0.11054;0.0305947;0.104403;0;0.143836;8.18178;7.41627
785000;786;29.9763;4.22113;0.163895;-2.67592;29.8476;-0.733;-0.425693;4.19414;-1.13775;-0.0976332;0.648405;-0.967882;1.16908;-7.80006;-0.00606899;0.0033893;0.112202;0.112299;-0.00616604;0.0592324;0.05409;18.4877;0.0770035;0.0789765;18.2125;0.0549075;86.0932;131.093;0.00307135;-0.00609206;-0.00129098;0.00757183;0.112206;-0.00610575;-0.0321939;0;0.0531538;-0.512914;-3.48569;-2.10988;4.10667;-8.51349;-0.00667393;0.00255583;0.111314;0.11137;-0.00672927;0.0590495;0.0599557;16.679;0.0765882;0.0787326;16.5501;0.0604228;91.8244;136.824;-0.0123073;-0.00667525;0.00880175;-0.00302704;0.111282;0.0333969;0.10831;0;0.140435;8.14152;7.42315
786000;787;29.9843;4.22915;0.164206;-2.67537;29.8557;-0.733471;-0.425136;4.20223;-1.13822;-0.0982869;0.653737;-0.969679;1.17359;-7.80185;-0.00628426;0.00382172;0.111356;0.11148;-0.00640828;0.0589439;0.0564342;17.7197;0.0765453;0.0785919;17.3962;0.057484;85.9579;130.958;0.00223734;-0.00630759;-0.000637438;0.00780881;0.111362;-0.00567715;-0.0288105;0;0.0551527;-0.514651;-3.4912;-2.113;4.11316;-8.5212;-0.00680232;0.00169703;0.111147;0.111172;-0.00682673;0.0589991;0.061201;16.3396;0.0764916;0.0786655;16.2847;0.0614072;92.1136;137.114;-0.0130329;-0.00680753;0.00766421;-0.00363677;0.111122;0.0329743;0.10592;0;0.139327;8.12685;7.42305
787000;788;29.9946;4.2395;0.164608;-2.68163;29.8659;-0.718597;-0.431397;4.21243;-1.12335;-0.0976145;0.657232;-0.970103;1.17583;-7.80228;-0.00629844;0.00374119;0.111231;0.11135;-0.00641741;0.0588839;0.0566246;17.6602;0.0764626;0.0785119;17.3513;0.0576325;85.8312;130.831;0.00330966;-0.00632379;-0.00104773;0.00802355;0.111237;-0.00779492;-0.0302269;0;0.0557255;-0.514831;-3.49513;-2.11241;4.11622;-8.51602;-0.00716501;0.00162804;0.111376;0.111399;-0.00718737;0.059293;0.0643316;15.5445;0.0767738;0.0790573;15.4992;0.0645194;92.009;137.009;-0.00877786;-0.00716963;0.00729861;-0.00343773;0.111354;0.0283543;0.10337;0;0.138981;8.14459;7.43081
788000;789;;;;;;;;;;-0.0982185;0.663178;-0.969748;1.17892;-7.80192;-0.0063957;0.00429428;0.109628;0.109787;-0.00655442;0.0581705;0.0583401;17.1409;0.0754708;0.0775607;16.75;0.0597015;85.564;130.564;0.00317621;-0.0064224;-0.000353505;0.00845602;0.109636;-0.010786;-0.0260359;0;0.0596915;-0.516077;-3.49937;-2.11356;4.12057;-8.51676;-0.00710166;0.00150223;0.111597;0.111616;-0.00712067;0.0593683;0.0636368;15.7142;0.0768941;0.0791577;15.6749;0.0637962;92.2751;137.275;-0.00926395;-0.00710839;0.00760837;-0.00395193;0.111572;0.0322046;0.110967;0;0.137243;8.15313;7.43784
789000;790;;;;;;;;;;-0.0965918;0.668704;-0.971163;1.18307;-7.80334;-0.00585152;0.00341122;0.110481;0.110581;-0.00595146;0.0582664;0.0529638;18.8808;0.0757827;0.0776886;18.5805;0.0538198;86.1981;131.198;0.00177258;-0.00587229;-0.000904144;0.00727446;0.110486;-0.0123221;-0.0252852;0;0.0520787;-0.516545;-3.50915;-2.1183;4.13137;-8.5233;-0.00608272;0.00118496;0.111342;0.111354;-0.00609468;0.0587243;0.054631;18.3046;0.0763486;0.078299;18.2707;0.0547325;92.3236;137.324;-0.00287177;-0.00609061;0.00713114;-0.00413298;0.11132;0.0147409;0.0973396;0;0.124804;8.14966;7.44603
790000;791;30.0331;4.27794;0.1661;-2.68185;29.9041;-0.733609;-0.431623;4.25064;-1.13836;-0.0966874;0.677433;-0.979043;1.19448;-7.81122;-0.00586119;0.00278645;0.109806;0.109873;-0.00592828;0.0579006;0.0533778;18.7344;0.0753025;0.0772008;18.5337;0.0539558;86.7053;131.705;0.00130267;-0.00587691;-0.00107633;0.00624662;0.109809;-0.00802441;-0.0273553;0;0.052618;-0.516918;-3.5178;-2.12252;4.14092;-8.52385;-0.00662599;0.00226899;0.112296;0.11234;-0.00666927;0.0595044;0.0590045;16.9479;0.0772122;0.0793392;16.8444;0.059367;91.6985;136.699;-0.00340215;-0.00662752;0.00801443;-0.00286222;0.11227;0.0106816;0.0999276;0;0.134481;8.13906;7.45931
791000;792;30.0647;4.3096;0.16733;-2.68496;29.9352;-0.749219;-0.43473;4.28177;-1.15341;-0.0961083;0.685124;-0.976526;1.19676;-7.8087;-0.00571468;0.00273532;0.110608;0.110672;-0.00577897;0.0582255;0.0516662;19.355;0.0757811;0.0776339;19.1508;0.0522171;86.9436;131.944;0.00303658;-0.00572814;-0.000746131;0.00585211;0.110611;-0.00871526;-0.0301783;0;0.0579064;-0.518116;-3.53156;-2.12093;4.15195;-8.5223;-0.00668413;0.00280608;0.111095;0.111162;-0.00675095;0.0589564;0.0601659;16.6207;0.0764576;0.0786085;16.4661;0.0607308;91.7703;136.77;-0.0100383;-0.00668438;0.00917985;-0.00289214;0.111061;0.0319597;0.104989;0;0.148268;8.1238;7.46729
792000;793;30.0851;4.33002;0.168123;-2.68819;29.9561;-0.72267;-0.437959;4.30265;-1.12742;-0.095717;0.692789;-0.978367;1.20263;-7.81054;-0.00586677;0.00335598;0.110773;0.110869;-0.00596325;0.0584161;0.0529624;18.8813;0.0759785;0.0778882;18.592;0.0537865;86.5374;131.537;0.00157128;-0.00588346;-0.000342411;0.00666597;0.110778;-0.00689487;-0.0285224;0;0.0587102;-0.519369;-3.54283;-2.12229;4.16239;-8.52363;-0.00673911;0.00232136;0.111778;0.111823;-0.00678457;0.0593039;0.0602903;16.5864;0.0769101;0.0790718;16.482;0.0606723;91.5174;136.517;-0.0100243;-0.00673955;0.00771667;-0.00249886;0.111753;0.0287346;0.10376;0;0.142025;8.10341;7.47489
793000;794;30.0871;4.33197;0.168198;-2.68441;29.958;-0.737343;-0.434185;4.30459;-1.14209;-0.0944968;0.701769;-0.979651;1.20877;-7.81183;-0.00574559;0.00337606;0.110887;0.110985;-0.00584323;0.0584141;0.0518147;19.2996;0.0760127;0.0778855;18.9938;0.0526488;86.5945;131.595;0.000353993;-0.00576157;-0.000193869;0.00657114;0.110893;-0.00858013;-0.0310571;0;0.0575302;-0.519902;-3.55056;-2.13133;4.17365;-8.53828;-0.0062453;0.0018078;0.111406;0.111433;-0.00627307;0.0588533;0.0560591;17.8383;0.0764658;0.078471;17.7638;0.0562943;92.0314;137.031;-0.013207;-0.0062499;0.007769;-0.00352241;0.11138;0.0361854;0.101913;0;0.132358;8.08311;7.48144
794000;795;;;;;;;;;;-0.0942625;0.709775;-0.981824;1.21517;-7.81569;-0.00583638;0.00346534;0.11083;0.110933;-0.00593922;0.0584359;0.0526607;18.9895;0.0760122;0.0779146;18.678;0.053539;86.1813;131.181;0.00370013;-0.00585738;-0.00085621;0.00733296;0.110835;-0.00491567;-0.0240902;0;0.0548371;-0.520527;-3.55253;-2.13367;4.1766;-8.54037;-0.00697321;0.00115161;0.112097;0.112108;-0.00698435;0.0595462;0.062207;16.0754;0.0771722;0.0793949;16.0513;0.0623002;92.2714;137.271;-0.00516391;-0.00698066;0.00693695;-0.00401434;0.112076;0.0196859;0.0996157;0;0.132507;8.03614;7.48184
795000;796;30.1046;4.34945;0.168877;-2.68541;29.9755;-0.738522;-0.435179;4.32202;-1.14272;-0.0932894;0.712961;-0.984356;1.219;-7.81653;-0.00622873;0.00338483;0.110968;0.111066;-0.00632641;0.0586961;0.0561309;17.8155;0.0762402;0.0782614;17.5559;0.056961;86.3718;131.372;0.00165899;-0.00624748;-0.000633618;0.00697933;0.110973;-0.00601554;-0.0320719;0;0.0527716;-0.519446;-3.55542;-2.13049;4.1773;-8.53046;-0.00724724;0.00161392;0.112163;0.112185;-0.00726905;0.0597268;0.0646135;15.4766;0.0773267;0.0796358;15.4332;0.0647954;91.8219;136.822;-0.00713512;-0.00725083;0.00691664;-0.00311949;0.112142;0.0238928;0.106268;0;0.133501;8.03483;7.48453
796000;797;30.1141;4.35901;0.169248;-2.68727;29.9849;-0.737489;-0.437041;4.33148;-1.14224;-0.0926845;0.718513;-0.987543;1.22478;-7.81972;-0.00649142;0.0035666;0.110302;0.110411;-0.00660024;0.0585057;0.0588511;16.992;0.0759033;0.0780077;16.7284;0.0597787;86.1311;131.131;0.00113981;-0.00651253;-0.000709473;0.00739282;0.110308;-0.00478626;-0.0285698;0;0.0548459;-0.5214;-3.56268;-2.14216;4.18968;-8.55075;-0.00625548;0.00156471;0.111679;0.111699;-0.00627624;0.0589878;0.0560132;17.8529;0.0766441;0.0786505;17.7972;0.0561886;92.1081;137.108;-0.00640142;-0.00626113;0.00745255;-0.00369854;0.111655;0.0211995;0.0920364;0;0.123685;8.05522;7.48972
797000;798;30.126;4.3709;0.16971;-2.68856;29.9966;-0.74524;-0.438328;4.34311;-1.14943;-0.0930293;0.723124;-0.98804;1.22792;-7.82022;-0.00625738;0.00327324;0.110359;0.110451;-0.00634918;0.0584;0.0567003;17.6366;0.0758389;0.0778666;17.3961;0.0574843;86.1875;131.188;0.00283401;-0.00627855;-0.00118669;0.00726471;0.110363;-0.00847856;-0.0270267;0;0.0553738;-0.521754;-3.56754;-2.14084;4.19318;-8.545;-0.00636153;0.00132045;0.111224;0.111238;-0.00637636;0.0588073;0.0571959;17.4838;0.0763731;0.0784098;17.4454;0.0573216;91.9574;136.957;-0.00508931;-0.00636655;0.0066254;-0.00342318;0.111205;0.00939686;0.108216;0;0.128559;8.06509;7.49828
798000;799;30.1511;4.39603;0.170686;-2.69229;30.0211;-0.759444;-0.44206;4.36765;-1.16364;-0.092399;0.728382;-0.986925;1.23008;-7.8191;-0.00630494;0.00372172;0.109834;0.109953;-0.00642408;0.0581884;0.0574044;17.4203;0.0755343;0.0775845;17.1157;0.0584258;85.9832;130.983;0.00278985;-0.00632741;-0.000665708;0.00764997;0.10984;-0.0105784;-0.0312171;0;0.0574231;-0.522333;-3.58086;-2.13868;4.20349;-8.5422;-0.00667681;0.00310933;0.111228;0.11131;-0.00675875;0.0590345;0.060028;16.6589;0.0765592;0.0787127;16.4691;0.0607199;91.2936;136.294;-0.00420788;-0.00667393;0.0088131;-0.00198932;0.111198;0.021805;0.103722;0;0.151743;8.05834;7.51168
799000;800;30.1791;4.42393;0.171769;-2.69316;30.0494;-0.744184;-0.442928;4.39599;-1.14893;-0.0917345;0.740615;-0.992416;1.2417;-7.82794;-0.00570136;0.00243946;0.10993;0.109982;-0.00575281;0.0578673;0.0518634;19.2814;0.0753121;0.0771564;19.1179;0.0523069;87.253;132.253;0.000666918;-0.00571211;-0.000671151;0.005226;0.109933;0.00215638;-0.026459;0;0.0545517;-0.523664;-3.59812;-2.14412;4.22113;-8.54797;-0.00695941;0.0025801;0.111835;0.111891;-0.00701542;0.0594531;0.0622294;16.0696;0.0770389;0.0792708;15.9493;0.0626988;91.5276;136.528;-0.0100106;-0.00695914;0.00823893;-0.00247417;0.111807;0.0278675;0.0964949;0;0.142135;8.03739;7.51903
800000;801;;;;;;;;;;-0.0903364;0.748838;-0.993419;1.24732;-7.82559;-0.00600412;0.00245;0.11022;0.110272;-0.00605575;0.0581638;0.0544739;18.3574;0.075614;0.0775517;18.2094;0.0549166;87.2299;132.23;0.00212086;-0.00601512;-0.000709777;0.00527898;0.110223;-0.00805505;-0.0284378;0;0.0553601;-0.525029;-3.60949;-2.14762;4.23277;-8.55245;-0.00652898;0.00144796;0.112257;0.112275;-0.00654663;0.0594106;0.0581611;17.1936;0.0771246;0.0792141;17.15;0.0583092;92.3972;137.397;-0.00810794;-0.00653702;0.00782813;-0.00425088;0.11223;0.0288868;0.10702;0;0.123304;8.00112;7.52539
801000;802;;;;;;;;;;-0.0901716;0.757389;-0.993109;1.25221;-7.82528;-0.00587763;0.00298104;0.110763;0.110839;-0.00595377;0.0583964;0.053065;18.8448;0.0759551;0.0778618;18.6166;0.0537155;87.0822;132.082;-0.00129217;-0.00588911;2.03624e-05;0.00563081;0.110767;-0.00548107;-0.0356252;0;0.0552547;-0.524823;-3.61826;-2.14372;4.23825;-8.55001;-0.00903816;-1.62568e-05;0.111538;0.111538;-0.00903817;0.060288;0.0810323;12.3408;0.077547;0.080384;12.3408;0.0810323;91.1966;136.197;-0.00440126;-0.00904044;0.00234925;-0.00212516;0.111535;0.016951;0.0921753;0;0.124351;7.94132;7.53258
802000;803;;;;;;;;;;-0.0892338;0.765319;-0.996152;1.25936;-7.82833;-0.00575747;0.00317354;0.111591;0.111677;-0.00584323;0.0587602;0.0515942;19.382;0.0764736;0.0783469;19.1122;0.0523225;86.8581;131.858;-0.00128732;-0.00577114;-0.000102935;0.00610409;0.111596;-0.00758333;-0.0347142;0;0.0565919;-0.525888;-3.61763;-2.15364;4.24287;-8.55567;-0.00616144;0.0014729;0.112103;0.112121;-0.00617978;0.0591505;0.0549623;18.1943;0.0768903;0.0788674;18.1432;0.0551169;92.1865;137.187;0.000380177;-0.00616791;0.00745814;-0.00387588;0.112079;0.0129218;0.106235;0;0.128;7.92988;7.53248
803000;804;30.2327;4.47758;0.173852;-2.69771;30.1027;-0.750405;-0.447482;4.4493;-1.1546;-0.0901523;0.771807;-0.997842;1.26471;-7.83305;-0.00528258;0.00376301;0.111138;0.111259;-0.00540408;0.0583317;0.0475318;21.0385;0.0760382;0.0777756;20.588;0.048572;86.338;131.338;0.000585819;-0.00530079;3.66045e-05;0.00709894;0.111144;-0.00899692;-0.0365212;0;0.0569872;-0.527724;-3.6248;-2.15493;4.24987;-8.55909;-0.00618573;0.00172794;0.111746;0.111771;-0.00621104;0.0589912;0.0553553;18.0651;0.0766685;0.0786549;17.9956;0.0555692;91.9298;136.93;-0.00240795;-0.00618991;0.00741872;-0.00335922;0.111723;0.0066554;0.108546;0;0.128753;7.93631;7.53939
804000;805;30.2405;4.48541;0.174156;-2.69783;30.1104;-0.757843;-0.447602;4.45697;-1.16204;-0.0887951;0.777444;-1.00057;1.27022;-7.83275;-0.00631632;0.00343157;0.111281;0.111381;-0.00641637;0.0588987;0.0567602;17.618;0.0764825;0.0785316;17.3589;0.0576074;86.2687;131.269;0.00169726;-0.00633642;-0.000772756;0.00719095;0.111286;-0.00522769;-0.0304397;0;0.0550392;-0.527073;-3.63093;-2.15615;4.25563;-8.55731;-0.00655662;0.00206219;0.11209;0.112126;-0.00659245;0.059359;0.0584943;17.0957;0.077042;0.0791454;17.0082;0.0587952;91.5878;136.588;-0.00442232;-0.00655809;0.00736907;-0.00267857;0.112067;0.0137615;0.109489;0;0.132976;7.93371;7.54705
805000;806;;;;;;;;;;-0.0880047;0.784495;-1.00385;1.27706;-7.83603;-0.00648904;0.00314314;0.11157;0.111653;-0.00657266;0.059113;0.0581613;17.1936;0.0767204;0.0788174;16.9875;0.0588667;86.5278;131.528;0.000945925;-0.00650665;-0.000835097;0.00669882;0.111574;-0.0028682;-0.0316706;0;0.0528502;-0.527799;-3.64424;-2.15869;4.26837;-8.56067;-0.00609328;0.00350053;0.111101;0.111206;-0.00619774;0.0587017;0.0548444;18.2334;0.076287;0.0782689;17.9429;0.0557323;90.8301;135.83;-0.00551514;-0.00608776;0.00868638;-0.00113841;0.111073;0.0335667;0.106949;0;0.140986;7.91956;7.55354
806000;807;30.2824;4.52727;0.175781;-2.70061;30.1524;-0.750607;-0.450377;4.49894;-1.1548;-0.0872456;0.791962;-0.998351;1.27731;-7.83053;-0.00629551;0.00349335;0.110318;0.110423;-0.00640007;0.0584114;0.0570669;17.5233;0.0758386;0.0778819;17.2534;0.0579597;86.3029;131.303;0.000750523;-0.00631457;-0.000510557;0.0070767;0.110324;-0.00608242;-0.030129;0;0.0589309;-0.530205;-3.66055;-2.15958;4.28305;-8.56377;-0.00672645;0.00181577;0.112153;0.112181;-0.00675418;0.0594675;0.0599756;16.6734;0.0771372;0.07929;16.6091;0.060208;92.0025;137.002;-0.0101288;-0.00673082;0.00772537;-0.00346219;0.112128;0.0377568;0.0931993;0;0.135515;7.88094;7.56411
807000;808;;;;;;;;;;-0.0860156;0.805536;-1.00499;1.29085;-7.84052;-0.00587693;0.00211573;0.110709;0.110748;-0.00591531;0.0583315;0.0530843;18.838;0.0758805;0.0777754;18.7222;0.0534125;87.4736;132.474;-0.00242766;-0.00588638;-0.000909321;0.00482324;0.110711;0.0068691;-0.0302289;0;0.0526741;-0.529462;-3.66367;-2.16472;4.28822;-8.56668;-0.00631295;0.00167549;0.11147;0.111494;-0.00633678;0.0589153;0.0566336;17.6574;0.076529;0.0785537;17.5947;0.0568352;92.095;137.095;-0.00935221;-0.00631824;0.0076335;-0.00365119;0.111445;0.0299861;0.11358;0;0.132933;7.8014;7.56869
808000;809;30.3221;4.56693;0.177321;-2.70522;30.1919;-0.747054;-0.454986;4.53845;-1.1518;-0.0831579;0.811048;-1.00849;1.29683;-7.84067;-0.00560668;0.00257411;0.111274;0.111331;-0.00566334;0.0584971;0.0503862;19.8467;0.0761785;0.0779961;19.6581;0.0508695;87.1813;132.181;-0.000988547;-0.00561819;-0.000621617;0.0054337;0.111277;-0.0044374;-0.034778;0;0.053897;-0.529583;-3.67263;-2.17089;4.299;-8.57966;-0.00631649;0.00128003;0.11206;0.112074;-0.00633033;0.059202;0.0563671;17.7408;0.0769128;0.078936;17.7043;0.0564836;91.9409;136.941;-0.00173081;-0.00632158;0.00654995;-0.00342895;0.112041;0.0173427;0.102084;0;0.120724;7.79717;7.56977
809000;810;;;;;;;;;;-0.0831105;0.819423;-1.01455;1.30678;-7.84673;-0.006296;0.00239484;0.112224;0.112273;-0.00634437;0.0593085;0.056102;17.8247;0.0770503;0.0790779;17.6964;0.0565087;87.4182;132.418;-0.00195758;-0.00630577;-0.000537332;0.00501453;0.112227;-0.00207133;-0.036957;0;0.0527159;-0.529813;-3.67613;-2.17302;4.3031;-8.57505;-0.00636019;0.00184096;0.1115;0.111529;-0.00638894;0.0589588;0.0570422;17.5309;0.0765709;0.0786117;17.4565;0.0572852;91.6599;136.66;0.00039076;-0.00636252;0.00706623;-0.00283027;0.111479;0.0100926;0.106275;0;0.125448;7.79376;7.57835
810000;811;;;;;;;;;;;;;;;;;;;;;;;;;;;;;;;;;;;;;;-0.486143;-5.52706;-2.21196;5.97306;-8.77795;-0.00536225;-0.000631813;0.124812;0.124815;-0.00536532;0.06509;0.0429627;23.276;0.0850547;0.0867867;23.2633;0.0429862;85.5167;130.517;0.00810526;-0.00540592;-0.0119107;0.00934184;0.124749;-0.00770607;0.0971179;0;0.142004;0.000566844;7.64651
811000;812;;;;;;;;;;;;;;;;;;;;;;;;;;;;;;;;;;;;;;-0.535165;-6.39371;-1.76573;6.6546;-8.32903;-0.00574859;-0.00353543;0.129667;0.129759;-0.00584083;0.0677999;0.0443336;22.5563;0.0885172;0.0903999;22.2158;0.0450129;85.537;130.537;0.0168129;-0.00578752;-0.0183247;0.00948159;0.129524;-0.0228335;0.108351;0;0.132723;-0.00813596;7.61738
