Time;Image index (Image index);Distance L(t) (Extensometer 1);Change in distance (Extensometer 1);Strain - RC (Extensometer 1);Distance x L(t) (Extensometer 1);Distance y L(t) (Extensometer 1);Distance z L(t) (Extensometer 1);Change in distance x (Extensometer 1);Change in distance y (Extensometer 1);Change in distance z (Extensometer 1);X-displacement (Strain Gauge 1);Y-displacement (Strain Gauge 1);Z-displacement (Strain Gauge 1);Displacement (Strain Gauge 1);Height (Strain Gauge 1);Exx - RC (Strain Gauge 1);Exy - RC (Strain Gauge 1);Eyy - RC (Strain Gauge 1);Max. principal strain - RC (Strain Gauge 1);Min. principal strain - RC (Strain Gauge 1);Max. shear strain - RC (Strain Gauge 1);Poisson ratio -Exx/Eyy (Strain Gauge 1);Poisson ratio -Eyy/Exx (Strain Gauge 1);Von Mises - RC (Strain Gauge 1);Tresca - RC (Strain Gauge 1);Poisson ratio -strain max/min (Strain Gauge 1);Poisson ratio -strain min/max (Strain Gauge 1);Max. strain angle (Strain Gauge 1);Max. shear angle (Strain Gauge 1);Vorticity-z (Strain Gauge 1);du/dx (Strain Gauge 1);du/dy (Strain Gauge 1);dv/dx (Strain Gauge 1);dv/dy (Strain Gauge 1);dw/dx (Strain Gauge 1);dw/dy (Strain Gauge 1);Ezz plane stress state (Strain Gauge 1);Stereo reconstruction error (Strain Gauge 1);X-displacement (Strain Gauge 2);Y-displacement (Strain Gauge 2);Z-displacement (Strain Gauge 2);Displacement (Strain Gauge 2);Height (Strain Gauge 2);Exx - RC (Strain Gauge 2);Exy - RC (Strain Gauge 2);Eyy - RC (Strain Gauge 2);Max. principal strain - RC (Strain Gauge 2);Min. principal strain - RC (Strain Gauge 2);Max. shear strain - RC (Strain Gauge 2);Poisson ratio -Exx/Eyy (Strain Gauge 2);Poisson ratio -Eyy/Exx (Strain Gauge 2);Von Mises - RC (Strain Gauge 2);Tresca - RC (Strain Gauge 2);Poisson ratio -strain max/min (Strain Gauge 2);Poisson ratio -strain min/max (Strain Gauge 2);Max. strain angle (Strain Gauge 2);Max. shear angle (Strain Gauge 2);Vorticity-z (Strain Gauge 2);du/dx (Strain Gauge 2);du/dy (Strain Gauge 2);dv/dx (Strain Gauge 2);dv/dy (Strain Gauge 2);dw/dx (Strain Gauge 2);dw/dy (Strain Gauge 2);Ezz plane stress state (Strain Gauge 2);Stereo reconstruction error (Strain Gauge 2);Load ADC 1 channel 1;Position ADC 1 channel 2
ms;;mm;mm;S;mm;mm;mm;mm;mm;mm;mm;mm;mm;mm;mm;S;S;S;S;S;S;;;S;S;;;°;°;S;S;S;S;S;S;S;S;pixel;mm;mm;mm;mm;mm;S;S;S;S;S;S;;;S;S;;;°;°;S;S;S;S;S;S;S;S;pixel;kN;mm
0.02515;1;25.7536;0;0;-2.43509;25.6377;0.16493;0;0;0;0;0;0;0;-6.15121;0;4.85723e-17;0;4.85723e-17;-4.85723e-17;4.85723e-17;;;5.60864e-17;6.4763e-17;;;0;45;0;0;8.32667e-17;1.38778e-17;0;0;0;0;0;0;0;0;0;-5.99235;2.22045e-16;6.93889e-18;0;2.22261e-16;-2.16629e-19;1.11239e-16;;;1.48246e-16;1.48319e-16;;;0;45;0;2.22045e-16;-2.77556e-17;4.16334e-17;0;0;0;0;0;-0.0131211;0.214079
1000.03;2;25.7496;-0.00398621;-0.000154783;-2.43584;25.6337;0.153275;-0.000746414;-0.00400281;-0.0116551;-0.00025559;-0.00285822;-0.00312894;0.00424559;-6.15434;-7.75544e-05;0.000214542;-7.42285e-05;0.000138657;-0.00029044;0.000214549;-1.04481;-0.957116;0.000252853;0.000286065;0.477404;2.09466;118.125;163.125;-0.000276537;-7.75446e-05;0.0002661;0.000162984;-7.42409e-05;0.000528375;-0.000885587;0;0.0126622;-0.000522213;-0.00259262;-0.0063556;0.00688389;-5.9987;-0.000191955;0.000184836;0.000160272;0.000239463;-0.000271146;0.000255305;1.19768;0.834946;0.000294989;0.000340406;0.883152;1.13231;16.9824;61.9824;-0.00061546;-0.000191977;9.16896e-05;0.00027795;0.000160285;0.0035108;-0.00324479;0;0.016048;-0.0126296;0.22151
2000.03;3;25.7489;-0.00469676;-0.000182373;-2.43519;25.6331;0.148145;-9.9603e-05;-0.00462495;-0.0167853;-0.00100998;-0.00879304;0.00892456;0.0125692;-6.14229;-7.67861e-05;-9.1502e-05;-0.000528929;-5.89705e-05;-0.000546745;0.000243887;-0.145173;-6.88835;0.000346516;0.000325183;-0.107857;-9.2715;85.7683;130.768;-0.00117824;-7.67821e-05;-0.000164576;-1.83948e-05;-0.000528939;0.00334628;0.000830732;0;0.0174665;-0.000520674;-0.00727769;-0.00145178;0.00743932;-5.9938;-0.000296985;1.66477e-05;8.31608e-05;8.38885e-05;-0.000297713;0.000190801;3.57122;0.280016;0.00023156;0.000254401;0.281776;3.54892;27.4712;72.4712;-0.000242287;-0.000297006;-0.000168128;0.000201353;8.31468e-05;0.00176633;-0.00111657;0;0.0178983;-0.0121991;0.228192
3000.03;4;25.7479;-0.00574943;-0.000223247;-2.43596;25.632;0.143405;-0.00087112;-0.00572873;-0.021525;-0.00166932;-0.0104515;0.00197935;0.0107674;-6.14923;-0.00017034;2.02974e-05;-0.000537847;-0.000169222;-0.000538964;0.000184871;-0.316707;-3.15749;0.000318269;0.000246495;-0.313976;-3.18495;90.4057;135.406;-0.0010188;-0.00017034;5.43235e-05;-1.37412e-05;-0.000537848;0.00193414;-5.42535e-05;0;0.0218763;-0.00140777;-0.00892392;-0.0123735;0.0153206;-6.00472;-0.000280653;9.45952e-05;-3.37595e-05;-1.68338e-06;-0.000312729;0.000155523;-8.3133;-0.120289;0.000207927;0.000207364;;;7.75853;52.7585;1.89137e-05;-0.000280694;-0.000113833;0.000302972;-3.37615e-05;0.00256204;-0.000668289;0;0.027305;-0.0119176;0.236193
4000.03;5;25.7483;-0.0053358;-0.000207186;-2.43423;25.6326;0.136989;0.000865888;-0.00511313;-0.0279407;-0.00210306;-0.0117288;-0.00462411;0.0127816;-6.15584;-0.000264099;3.88063e-05;-0.000359192;-0.000250273;-0.000373018;6.13727e-05;-0.735258;-1.36007;0.000219518;8.18303e-05;-0.67094;-1.49045;103.399;148.399;-0.00143813;-0.000264099;0.000107429;-2.98231e-05;-0.000359197;0.00369416;-0.000290494;0;0.0122759;-0.00222062;-0.0107014;-0.0203258;0.0230779;-6.01267;-0.000304248;-8.39394e-05;-3.81044e-05;-1.38424e-05;-0.00032851;0.000157334;-7.98459;-0.125241;0.000214541;0.000209778;-0.0421369;-23.7322;34.4226;79.4226;-0.000304163;-0.000304245;-0.000211065;4.31529e-05;-3.81231e-05;0.00415163;-0.000739323;0;0.0202011;-0.0115539;0.242494
5000.03;6;25.75;-0.00362902;-0.000140913;-2.43369;25.6344;0.136099;0.0014059;-0.00334263;-0.0288313;-0.00232765;-0.0130571;-0.00979843;0.0164898;-6.16101;4.75916e-05;3.66018e-05;-0.000462114;5.02066e-05;-0.000464729;0.000257468;0.102987;9.70998;0.000327839;0.00034329;0.108034;9.25633;70.1889;115.189;-0.00137708;4.75739e-05;0.000265006;-0.000191919;-0.000462148;0.00218213;-0.00138018;0;0.0226527;-0.00229144;-0.0118623;-0.0286279;0.0310729;-6.02097;-0.000362574;-7.3395e-05;-0.000111464;-9.15855e-05;-0.000382453;0.000145434;-3.25284;-0.307424;0.000230585;0.000193911;-0.239469;-4.17591;25.7855;70.7855;-0.000156482;-0.000362572;-0.000165612;1.87988e-05;-0.000111475;0.00461573;0.000100059;0;0.0243791;-0.0115387;0.245115
6000.03;7;25.7505;-0.0031313;-0.000121587;-2.43498;25.6348;0.133122;0.000111675;-0.00294993;-0.0318079;-0.00226;-0.0146701;-0.0104013;0.0181248;-6.16161;-1.87659e-05;0.000167117;-0.000776139;1.64698e-05;-0.000811375;0.000413922;-0.0241785;-41.359;0.000546489;0.000551896;0.0202986;49.2645;94.1154;139.115;-0.00137431;-1.87535e-05;0.000277861;5.6289e-05;-0.000776164;0.00261797;-0.00106073;0;0.013681;-0.00225435;-0.0136961;-0.0324011;0.035249;-6.02475;-0.000385208;-2.7412e-05;-0.000191205;-0.000187407;-0.000389007;0.0001008;-2.01463;-0.49637;0.000224643;0.0001344;-0.481757;-2.07574;25.5204;70.5204;0.000539305;-0.000385223;-0.000231124;0.000176261;-0.000191232;0.00310355;0.000316339;0;0.0243969;-0.0113534;0.251383
7000.03;8;25.7485;-0.00511029;-0.00019843;-2.43383;25.6329;0.121786;0.00126282;-0.00477217;-0.043144;-0.00245688;-0.0179857;-0.00950163;0.0204891;-6.16071;-5.13919e-05;-5.34979e-05;-0.000377812;-4.28476e-05;-0.000386356;0.000171754;-0.136025;-7.35159;0.000244543;0.000229006;-0.110902;-9.01698;65.3453;110.345;-0.00107411;-5.14073e-05;7.62163e-05;-0.000183254;-0.000377814;0.00242925;-0.000888408;0;0.0164268;-0.00228855;-0.0163621;-0.0359429;0.0395582;-6.02829;-0.000535645;-0.00012221;-0.000101283;-6.92592e-05;-0.000567669;0.000249205;-5.28861;-0.189086;0.000357602;0.000332273;-0.122006;-8.1963;20.7006;65.7006;0.000563368;-0.000535639;-0.000190094;-5.43564e-05;-0.000101293;0.0032292;-0.000382344;0;0.0250402;-0.0113187;0.259301
8000.03;9;25.7503;-0.00330663;-0.000128395;-2.43304;25.6348;0.12456;0.00205562;-0.00289845;-0.0403701;-0.00219387;-0.0190746;-0.0106066;0.0219353;-6.16182;3.62156e-05;0.000231911;-0.000351353;0.000144648;-0.000459786;0.000302217;0.103074;9.70173;0.000364438;0.000402956;0.314599;3.17865;95.3322;140.332;-0.000917696;3.62372e-05;0.000361533;0.000102238;-0.000351392;0.00153767;-0.000118101;0;0.0194243;-0.00222066;-0.0172127;-0.0417637;0.0452262;-6.03411;-0.000521989;-0.000129554;3.73912e-07;3.07399e-05;-0.000552355;0.000291547;;;0.000378899;0.00038873;0.0556525;17.9686;16.1011;61.1011;0.000620207;-0.000521986;-0.000156134;-0.000102987;3.70115e-07;0.00317862;0.00133689;0;0.0250052;-0.0113059;0.266289
9000.03;10;25.7504;-0.00319772;-0.000124166;-2.4333;25.6349;0.120221;0.00179129;-0.00279342;-0.0447093;-0.00278198;-0.0205201;-0.015329;0.0257641;-6.16654;-0.000141189;0.000299486;-0.000691289;-9.61337e-06;-0.000822865;0.000406626;-0.20424;-4.89621;0.0005454;0.000542168;;;97.9111;142.911;-0.00147376;-0.000141145;0.000555492;4.33388e-05;-0.000691399;0.00283847;0.00093075;0;0.0120803;-0.00332475;-0.0187612;-0.0478222;0.0514781;-6.04017;-0.000401763;-9.11798e-05;0.000180758;0.000194697;-0.000415701;0.000305199;2.22265;0.449913;0.000360031;0.000406932;0.468358;2.13512;172.957;37.957;0.0005704;-0.000401771;-2.35358e-05;-0.000158784;0.000180762;0.00344885;0.000356095;0;0.0238146;-0.0112216;0.273459
10000;11;25.751;-0.00258956;-0.000100551;-2.43432;25.6354;0.12009;0.000773827;-0.0022785;-0.0448405;-0.00288501;-0.0226362;-0.0149925;0.0273037;-6.1662;-0.000161467;0.000173878;-8.93676e-05;5.21584e-05;-0.000302993;0.000177576;-1.80678;-0.553471;0.000221439;0.000236768;0.172144;5.8091;107.286;152.286;-0.000971381;-0.00016146;0.000471246;-0.000123469;-8.94635e-05;0.00079322;0.000238405;0;0.013664;-0.00349026;-0.020416;-0.0508264;0.0548846;-6.04317;-0.000321632;-9.27564e-05;0.000149785;0.000167379;-0.000339227;0.000253303;2.14729;0.465702;0.000298045;0.000337737;0.493414;2.0267;154.457;19.4568;0.00053761;-0.000321695;0.000180798;-0.000366182;0.000149773;0.00369308;0.00051727;0;0.0242329;-0.0112057;0.280153
11000;12;25.7513;-0.0023554;-9.14589e-05;-2.43495;25.6356;0.115743;0.00014328;-0.00208317;-0.0491871;-0.00417216;-0.023384;-0.0172527;0.0293577;-6.16846;-0.000126379;0.000295352;-0.000352477;7.682e-05;-0.000555676;0.000316248;-0.358547;-2.78904;0.000398533;0.000421664;0.138246;7.23348;103.685;148.685;-0.00113785;-0.000126339;0.000508467;8.2189e-05;-0.000352562;0.00144399;0.00026581;0;0.0140504;-0.00485787;-0.0216357;-0.0554755;0.0597431;-6.04782;-0.000275269;-8.23223e-05;0.000355055;0.000365629;-0.000285843;0.000325736;0.775287;1.28984;0.000377067;0.000434315;1.27912;0.781786;136.326;1.32648;0.000913261;-0.000275302;0.000105734;-0.00027026;0.000355052;0.00170791;0.00100294;0;0.0252808;-0.0111017;0.287909
12000;13;25.7516;-0.00200162;-7.77218e-05;-2.43492;25.636;0.114118;0.000169212;-0.00171805;-0.0508119;-0.00487459;-0.0264447;-0.0135841;0.0301266;-6.1648;-0.000244946;2.48218e-05;-0.000452369;-0.000242017;-0.000455298;0.00010664;-0.541474;-1.84681;0.000263041;0.000142187;-0.531558;-1.88126;74.4444;119.444;-0.00128071;-0.000244997;0.000368083;-0.00031851;-0.000452436;0.00177367;0.00185076;0;0.0149526;-0.00584892;-0.0238254;-0.0544774;0.0597465;-6.04682;-0.000265045;-3.85903e-05;0.000346036;0.000348464;-0.000267472;0.000307968;0.765945;1.30558;0.000356634;0.000410624;1.3028;0.767575;135.522;0.522445;0.000751842;-0.00026513;0.000337803;-0.000414754;0.00034598;0.00183259;0.000568859;0;0.0240106;-0.0109228;0.29471
13000;14;25.7513;-0.00231938;-9.00603e-05;-2.43509;25.6357;0.114777;-6.69701e-07;-0.00205632;-0.0501526;-0.00531259;-0.027636;-0.0133816;0.0311615;-6.16459;-0.000283961;0.000123424;-0.000348278;-0.000188575;-0.000443665;0.000127545;-0.815329;-1.2265;0.000257108;0.00017006;-0.425039;-2.35273;110.098;155.098;-0.00130315;-0.000283959;0.000346336;-9.95013e-05;-0.000348331;0.001785;0.00100527;0;0.0133042;-0.00676595;-0.0251332;-0.0563124;0.0620366;-6.04866;-0.000221228;2.70843e-05;0.000474236;0.000475289;-0.000222281;0.000348785;0.466493;2.14366;0.000411478;0.000465047;2.13824;0.467675;124.56;169.56;0.000636949;-0.000221308;0.000456686;-0.000402219;0.000474132;0.00172577;0.00135145;0;0.0233339;-0.0107989;0.301979
14000;15;25.7518;-0.00181616;-7.05205e-05;-2.43526;25.6362;0.110032;-0.000170132;-0.00154612;-0.054898;-0.00452219;-0.0249854;-0.0229721;0.0342409;-6.17418;-7.27486e-05;0.000162125;-0.0005091;-1.91059e-05;-0.000562743;0.000271818;-0.142897;-6.99807;0.000368958;0.000362425;-0.0339514;-29.4538;89.324;134.324;-0.00124035;-7.27376e-05;0.000389022;-6.48706e-05;-0.000509163;0.00107551;0.000507016;0;0.0189205;-0.00694378;-0.0230986;-0.0672953;0.0714872;-6.05964;-0.000292233;3.78453e-05;0.000444647;0.000446586;-0.000294172;0.000370379;0.657225;1.52155;0.000430683;0.000493838;1.51811;0.658713;127.989;172.989;0.000849886;-0.000292355;0.000570737;-0.000494653;0.000444485;0.00181991;0.000326354;0;0.0264773;-0.010611;0.308984
15000;16;25.7529;-0.000697219;-2.70727e-05;-2.4372;25.6371;0.114055;-0.00210275;-0.000623369;-0.0508754;-0.00604846;-0.0274379;-0.0235204;0.0366419;-6.17473;-0.000102924;0.000284471;-0.000197507;0.00013816;-0.00043859;0.000288375;-0.521113;-1.91897;0.00034772;0.0003845;0.315008;3.17452;99.0014;144.001;-0.00121272;-0.000102883;0.000573613;-4.69826e-06;-0.000197631;0.0023612;0.00166365;0;0.0148124;-0.00926066;-0.0253661;-0.0671478;0.0723742;-6.05949;-0.000209792;-1.28374e-05;0.000358792;0.000359081;-0.000210082;0.000284582;0.584719;1.71022;0.000332339;0.000379442;1.70924;0.585054;130.451;175.451;0.00138149;-0.000209862;0.000347895;-0.000373365;0.000358731;-0.000764574;-0.000101086;0;0.0257522;-0.010333;0.314073
16000;17;25.7524;-0.00120035;-4.66091e-05;-2.43722;25.6366;0.107379;-0.00212901;-0.00110244;-0.0575513;-0.00588416;-0.028301;-0.0240104;0.0375776;-6.17522;-0.000271142;-6.09538e-05;-0.000293993;-0.000220552;-0.000344583;6.20153e-05;-0.922276;-1.08427;0.00020153;8.2687e-05;-0.640056;-1.56236;23.3851;68.3851;-0.00129434;-0.000271241;0.000325563;-0.000447479;-0.000294044;0.0026731;0.00219675;0;0.017812;-0.00968765;-0.0264108;-0.0707758;0.0761616;-6.06312;-0.000181895;4.51962e-06;0.000467507;0.000467538;-0.000181927;0.000324733;0.389074;2.5702;0.000386866;0.000432977;2.56993;0.389116;125.471;170.471;0.000623075;-0.000181987;0.000437819;-0.000428499;0.000467411;-2.12538e-06;-0.000931603;0;0.0270326;-0.00988734;0.318012
17000;18;25.7538;0.000137595;5.34275e-06;-2.43692;25.638;0.111358;-0.00182565;0.000253412;-0.0535718;-0.00795222;-0.0286248;-0.0249882;0.0388204;-6.1762;-4.36351e-05;0.000409065;-0.000144132;0.000318256;-0.000506023;0.000412139;-0.302744;-3.30312;0.000479996;0.000549519;0.628935;1.58999;96.0413;141.041;-0.00149036;-4.3561e-05;0.000680258;0.000137844;-0.00014428;0.00294817;0.000731586;0;0.0145164;-0.0116597;-0.0273822;-0.0731239;0.0789483;-6.06547;-0.000171435;-5.14322e-05;0.000401816;0.000406394;-0.000176013;0.000291204;0.426652;2.34383;0.00034491;0.000388271;2.30888;0.433111;134.401;179.401;0.000768082;-0.000171629;0.000522417;-0.000624953;0.000401681;-0.000297287;-0.00151717;0;0.0267677;-0.00962634;0.324225
18000;19;25.7548;0.00121559;4.72007e-05;-2.43695;25.6391;0.107352;-0.0018566;0.00135042;-0.0575779;-0.00664345;-0.0289457;-0.0289585;0.0414799;-6.18017;-3.63725e-05;0.000409106;-1.30773e-05;0.000384547;-0.000433997;0.000409272;-2.78135;-0.359537;0.000472874;0.000545696;0.886059;1.12859;92.7974;137.797;-0.00152911;-3.62903e-05;0.000764995;5.32259e-05;-1.32862e-05;0.00324797;0.00185933;0;0.0188678;-0.0106226;-0.0280807;-0.0765904;0.0822645;-6.06894;-0.000177202;2.94935e-05;0.000304198;0.000305998;-0.000179002;0.0002425;0.582521;1.71668;0.000283196;0.000323333;1.70947;0.584977;127.812;172.812;0.000677082;-0.000177307;0.000520122;-0.000460899;0.000304063;-0.00014811;-0.00105453;0;0.027552;-0.00881261;0.331514
19000;20;25.7535;-0.000141779;-5.50519e-06;-2.43732;25.6376;0.110302;-0.00222323;-6.045e-05;-0.0546285;-0.00695501;-0.0285595;-0.030547;0.0423926;-6.18176;-4.67718e-05;0.000331185;-0.000123236;0.00024838;-0.000418388;0.000333384;-0.37953;-2.63484;0.000389107;0.000444512;0.593659;1.68447;94.6773;139.677;-0.000740628;-4.67175e-05;0.000628617;3.37294e-05;-0.000123379;0.00104564;0.00052968;0;0.0227691;-0.0112863;-0.0271354;-0.0772975;0.0826959;-6.06964;-0.000243385;-1.71423e-05;0.000366615;0.000367096;-0.000243867;0.000305481;0.663872;1.50632;0.000355123;0.000407309;1.50532;0.664312;133.64;178.64;0.000794539;-0.000243572;0.000577201;-0.000611123;0.000366449;-0.000281469;-0.00079737;0;0.0274192;-0.00865195;0.33891
20000;21;25.7553;0.00170591;6.62397e-05;-2.43718;25.6395;0.110995;-0.00208445;0.00180579;-0.0539348;-0.00656501;-0.0256994;-0.0348724;0.0438137;-6.18608;-0.000156709;4.56019e-05;0.000546217;0.000549163;-0.000159655;0.000354409;0.286899;3.48555;0.000429338;0.000472545;3.43968;0.290725;119.807;164.807;-0.00166487;-0.000156794;0.000505052;-0.000413526;0.00054609;0.00318507;0.000920484;0;0.0164628;-0.0109089;-0.0249271;-0.0814369;0.0858623;-6.07378;-0.00029462;3.08005e-05;0.000281579;0.000283221;-0.000296262;0.000289741;1.04631;0.955738;0.000334593;0.000386322;0.955983;1.04604;132.258;177.258;0.000976548;-0.000294774;0.000618586;-0.000556647;0.000281389;-0.0010735;-0.000326366;0;0.0276219;-0.00868576;0.346425
21000;22;25.7545;0.000856092;3.32416e-05;-2.43818;25.6385;0.115204;-0.00308278;0.00083864;-0.0497257;-0.00716626;-0.0270948;-0.0285427;0.0400021;-6.17975;-0.000186135;6.90266e-05;-0.000187573;-0.000117824;-0.000255884;6.90303e-05;-0.992331;-1.00773;0.000147889;9.20404e-05;-0.460456;-2.17176;106.7;151.7;-0.00168005;-0.000186154;0.000345974;-0.000207921;-0.000187631;0.00357753;0.00164626;0;0.0293042;-0.0119763;-0.0263711;-0.0711468;0.0768162;-6.06349;-0.000182624;4.26961e-05;0.000347279;0.000350697;-0.000186042;0.000268369;0.52587;1.90161;0.000314709;0.000357826;1.88505;0.530491;126.261;171.261;0.000913269;-0.000182758;0.000606674;-0.000520983;0.000347096;-0.00103596;-0.00161111;0;0.034403;-0.00875375;0.353594
22000;23;25.7535;-7.46295e-05;-2.89783e-06;-2.43821;25.6376;0.110897;-0.00311281;-8.01514e-05;-0.0540333;-0.00492227;-0.0285853;-0.0220755;0.036451;-6.17329;-8.46042e-05;2.63903e-05;0.000119276;0.000122637;-8.79648e-05;0.000105301;0.709312;1.40982;0.000122139;0.000140401;1.39416;0.717278;126.443;171.443;-0.00156461;-8.46675e-05;0.000409706;-0.000356848;0.000119193;0.00315107;0.000406654;0;0.0193439;-0.00973367;-0.0263525;-0.0686507;0.0741763;-6.061;-0.000154;-1.75029e-05;0.000359015;0.000359611;-0.000154597;0.000257104;0.428953;2.33126;0.000304642;0.000342806;2.32612;0.4299;132.734;177.734;0.00105436;-0.000154252;0.000675512;-0.000710163;0.000358787;-0.00105652;-0.000310572;0;0.0280501;-0.00873712;0.361289
23000;24;25.753;-0.000651307;-2.52899e-05;-2.43783;25.6371;0.10709;-0.00273352;-0.000607183;-0.0578398;-0.00608934;-0.0249958;-0.0296265;0.0392378;-6.18084;-0.000170728;0.000151061;9.35762e-05;0.000162132;-0.000239284;0.000200708;1.82448;0.5481;0.00023318;0.00026761;0.677571;1.47586;114.058;159.058;-0.00108644;-0.000170731;0.000467829;-0.000165624;9.34782e-05;0.00212985;0.0012141;0;0.016739;-0.0107482;-0.0239227;-0.0736301;0.0781615;-6.06598;-0.000306073;-9.11156e-06;0.000424512;0.000424625;-0.000306187;0.000365406;0.721001;1.38696;0.000423777;0.000487208;1.38682;0.721075;133.781;178.781;0.00058239;-0.00030647;0.000873134;-0.000890713;0.000424131;-0.00111358;-0.001678;0;0.0291354;-0.00868686;0.368506
24000;25;25.7545;0.000890314;3.45704e-05;-2.4373;25.6387;0.116434;-0.00221009;0.000950438;-0.0484958;-0.00686903;-0.0240244;-0.0317704;0.0404192;-6.18298;-0.000198456;0.000181551;-0.000281892;-5.38917e-05;-0.000426456;0.000186282;-0.704017;-1.42042;0.000268151;0.000248376;-0.126371;-7.91321;104.673;149.673;-0.00120768;-0.000198443;0.000445503;-8.24233e-05;-0.000281974;0.00124434;0.00246148;0;0.0169931;-0.0110511;-0.0231698;-0.0750055;0.0792767;-6.06735;-0.000213799;2.20191e-05;0.000362888;0.000363727;-0.000214638;0.000289183;0.58916;1.69733;0.000337598;0.000385577;1.69461;0.590108;129.3;174.3;0.000803483;-0.000213969;0.00062787;-0.000583483;0.000362691;-0.000563419;-0.00107569;0;0.0309175;-0.00856037;0.376527
25000;26;25.754;0.000391409;1.51982e-05;-2.43726;25.6382;0.109624;-0.0021677;0.000483329;-0.0553056;-0.00713588;-0.0264831;-0.0283233;0.039427;-6.17954;5.67774e-05;0.000183835;0.000108431;0.000268244;-0.000103036;0.00018564;-0.523629;-1.90975;0.000221319;0.00024752;2.6034;0.384113;83.4824;128.482;-0.00103591;5.67939e-05;0.000398747;-3.10668e-05;0.000108368;0.00208698;0.000230031;0;0.01545;-0.0111368;-0.0252676;-0.0737774;0.0787755;-6.06612;-0.000345979;2.40538e-06;0.000348888;0.000348896;-0.000345988;0.000347442;0.991663;1.00841;0.000401193;0.000463256;1.00841;0.991663;134.733;179.733;0.00112103;-0.00034623;0.000713812;-0.000708507;0.000348633;-0.00122125;-0.000131501;0;0.0277359;-0.00851559;0.382299
26000;27;25.7538;0.000153706;5.96831e-06;-2.43685;25.638;0.110541;-0.00175322;0.000280017;-0.0543894;-0.0066352;-0.0254327;-0.0301679;0.0400119;-6.18138;-0.000104254;0.00033122;0.000157608;0.000382837;-0.000329483;0.00035616;0.661475;1.51177;0.000411642;0.00047488;1.16193;0.860634;97.11;142.11;-0.000977247;-0.000104207;0.000538266;0.000124229;0.000157518;0.00210076;0.00184495;0;0.0154405;-0.0106228;-0.0241295;-0.0760419;0.0804826;-6.06839;-0.000289793;5.181e-06;0.00037809;0.00037813;-0.000289833;0.000333982;0.766465;1.30469;0.00038677;0.000445309;1.30465;0.76649;132.268;177.268;0.000715914;-0.000289943;0.000559017;-0.000548285;0.000377934;4.87768e-05;-0.00104726;0;0.0265693;-0.00881279;0.38745
27000;28;25.7533;-0.000357037;-1.38636e-05;-2.43698;25.6375;0.108935;-0.00189027;-0.000239187;-0.0559948;-0.00661204;-0.0251268;-0.0319149;0.0411538;-6.18313;-0.000144208;0.000166633;0.000154149;0.000228624;-0.000218683;0.000223654;0.935512;1.06893;0.000258274;0.000298205;1.04546;0.956519;110.451;155.451;-0.00122155;-0.000144204;0.000474202;-0.000140844;0.000154051;0.00238276;0.00138133;0;0.0273953;-0.0107524;-0.023755;-0.0779986;0.0822417;-6.07034;-0.000241071;-2.43161e-06;0.000395709;0.000395719;-0.00024108;0.000318399;0.609212;1.64147;0.000371252;0.000424532;1.64144;0.609221;131.678;176.678;0.00114529;-0.000241267;0.000621788;-0.000626253;0.000395516;-0.00195807;-3.05882e-05;0;0.0320609;-0.00856768;0.390622
28000;29;25.7547;0.00103784;4.02989e-05;-2.43704;25.6389;0.109776;-0.00194532;0.00115317;-0.0551541;-0.00702076;-0.0252985;-0.0328506;0.0420532;-6.18406;-2.87219e-05;0.000159143;0.000250461;0.000322558;-0.000100819;0.000211689;0.114676;8.7202;0.000255367;0.000282252;3.19937;0.312562;100.563;145.563;-0.00116055;-2.87195e-05;0.000461817;-0.000143447;0.000250367;0.00153235;0.000990665;0;0.0173437;-0.0114772;-0.0246296;-0.0789302;0.0834765;-6.07128;-0.000185823;3.39283e-06;0.000375994;0.000376014;-0.000185843;0.000280929;0.494217;2.0234;0.000330524;0.000374571;2.02329;0.494245;128.694;173.694;0.0010215;-0.000185923;0.000454513;-0.000447474;0.00037589;-0.00155266;-0.000241014;0;0.027732;-0.00801917;0.397178
29000;30;25.7549;0.00123744;4.80492e-05;-2.43753;25.639;0.109569;-0.00243803;0.00130772;-0.0553613;-0.00715027;-0.0275283;-0.0315662;0.0424895;-6.18278;3.46534e-05;0.000265458;0.000139785;0.000357832;-0.000183394;0.000270613;-0.247905;-4.03381;0.000317841;0.000360817;1.95117;0.512513;87.7571;132.757;-0.00125992;3.46876e-05;0.000576245;-4.52957e-05;0.000139654;0.00149545;0.00140585;0;0.02319;-0.0117919;-0.026706;-0.080237;0.0853829;-6.07258;-0.000102277;-1.46652e-05;0.000425006;0.000425413;-0.000102685;0.000264049;0.24065;4.15542;0.000323319;0.000352066;4.1429;0.241377;126.677;171.677;0.00113686;-0.000102384;0.000433269;-0.000462363;0.000424912;-0.00144531;-0.00159959;0;0.0299448;-0.00763478;0.404568
30000;31;25.7558;0.00214454;8.32714e-05;-2.43579;25.6401;0.106606;-0.000701276;0.00239646;-0.0583237;-0.00739845;-0.0265484;-0.0376088;0.0466259;-6.18882;-7.41482e-05;6.09327e-05;0.00043276;0.000439982;-8.13697e-05;0.000260676;0.171338;5.83642;0.00032387;0.000347567;5.40719;0.184939;110.746;155.746;-0.00175377;-7.41654e-05;0.000317252;-0.000195256;0.000432712;0.00310993;0.00119691;0;0.0148193;-0.0116441;-0.0266491;-0.0885253;0.0931799;-6.08087;-0.000146433;-3.02679e-06;0.000358249;0.000358267;-0.000146451;0.000252359;0.408746;2.44651;0.00029983;0.000336478;2.44633;0.408776;130.398;175.398;0.000733053;-0.000146619;0.000605621;-0.000611368;0.000358065;-0.00160244;-0.000646046;0;0.0266485;-0.00758415;0.411626
31000;32;25.7561;0.00249191;9.67594e-05;-2.43556;25.6405;0.10538;-0.00046332;0.00277307;-0.0595504;-0.00758984;-0.0284189;-0.0359797;0.0464734;-6.18719;-0.0001386;6.77887e-05;-0.000338636;-0.000117792;-0.000359444;0.000120826;-0.40929;-2.44325;0.000211592;0.000161101;-0.327707;-3.05151;85.6347;130.635;-0.00134191;-0.00013861;0.000289109;-0.000153576;-0.000338675;0.00411723;0.00234974;0;0.0142101;-0.0112213;-0.0277902;-0.0894066;0.0942961;-6.08175;-0.000138163;2.40803e-05;0.000290798;0.000292146;-0.00013951;0.000215828;0.475116;2.10475;0.000254357;0.000287771;2.09408;0.477537;127.734;172.734;0.00090432;-0.000138293;0.000559686;-0.000511295;0.000290642;-0.00122328;-0.00123271;0;0.0267914;-0.00760645;0.419238
32000;33;25.7581;0.00451108;0.000175163;-2.43648;25.6424;0.109572;-0.00138919;0.00469581;-0.0553582;-0.00574713;-0.025287;-0.0489088;0.0553582;-6.20012;-0.000106419;0.000191467;0.000461647;0.000520155;-0.000164927;0.000342541;0.23052;4.33802;0.000412876;0.000456721;3.15385;0.317073;100.174;145.174;-0.000958009;-0.000106402;0.000439088;-5.60129e-05;0.000461569;0.00169361;0.00123386;0;0.0145308;-0.0101024;-0.0266063;-0.0997733;0.103753;-6.09212;-0.000107922;-1.83636e-05;0.000335897;0.000336655;-0.000108681;0.000222668;0.321296;3.11239;0.000268109;0.000296891;3.09765;0.322825;131.427;176.427;0.000624025;-0.000108079;0.000524492;-0.000560978;0.000335759;-0.000555236;-0.000785085;0;0.0261824;-0.00750903;0.426761
33000;34;25.757;0.00342252;0.000132895;-2.43521;25.6415;0.103783;-0.000112269;0.00374773;-0.0611471;-0.0075258;-0.0286897;-0.0398998;0.0497165;-6.19111;-0.000113279;2.73587e-05;0.000152552;0.000155338;-0.000116065;0.000135702;0.74256;1.34669;0.000157241;0.000180935;1.33837;0.747178;124.633;169.633;-0.00098715;-0.000113283;0.000149984;-9.52343e-05;0.000152541;0.00313744;0.00078135;0;0.0145872;-0.0113005;-0.0285998;-0.0944513;0.0993312;-6.0868;-0.000124389;-5.97545e-05;0.000295062;0.000303409;-0.000132735;0.000218072;0.421567;2.3721;0.000258155;0.000290763;2.28582;0.437479;137.996;2.99562;0.000602806;-0.000124537;0.000429433;-0.000548736;0.000294972;-0.000700972;-0.000527479;0;0.0265478;-0.00756697;0.43442
34000;35;25.7564;0.00277529;0.000107763;-2.43627;25.6407;0.103273;-0.00118112;0.00299811;-0.0616567;-0.00498298;-0.0301018;-0.0371121;0.0480443;-6.18832;-5.91311e-05;0.000222917;0.000267768;0.000380738;-0.000172101;0.000276419;0.220829;4.52839;0.00032667;0.000368559;2.2123;0.452019;97.6998;142.7;-0.000841707;-5.91075e-05;0.000496982;-5.10589e-05;0.00026767;0.000867585;0.00168944;0;0.0126786;-0.00937882;-0.0297689;-0.0919097;0.0970646;-6.08426;-0.000101167;-5.03757e-05;0.000257617;0.000264556;-0.000108106;0.000186331;0.392703;2.54645;0.000221386;0.000248441;2.44719;0.408632;138.347;3.34665;0.000867452;-0.000101314;0.000444856;-0.00054543;0.000257519;-0.000579639;-0.000431241;0;0.0266319;-0.00754778;0.441361
35000;36;25.7552;0.00160154;6.21872e-05;-2.436;25.6396;0.101298;-0.000909965;0.00185271;-0.0636318;-0.00725162;-0.0314507;-0.0346915;0.0473839;-6.1859;-0.000248643;3.66563e-05;3.90128e-05;4.36105e-05;-0.00025324;0.000148425;6.37336;0.156903;0.000185084;0.000197901;0.17221;5.80687;142.711;7.71129;-0.001025;-0.000248653;0.00022024;-0.000146875;3.89893e-05;0.00300294;0.00132948;0;0.0147631;-0.0110886;-0.0313695;-0.0898829;0.0958433;-6.08223;-0.000179623;4.55907e-05;0.000286607;0.000291024;-0.000184039;0.000237531;0.626722;1.5956;0.000276586;0.000316709;1.58131;0.632386;125.396;170.396;0.000718842;-0.000179676;0.000420028;-0.000328672;0.00028652;-0.0013865;-0.00153829;0;0.0288559;-0.00742898;0.448878
36000;37;25.7583;0.00472912;0.000183629;-2.43549;25.6427;0.106882;-0.000397227;0.00502043;-0.0580485;-0.00759082;-0.03106;-0.0421916;0.0529384;-6.1934;-0.000172351;6.34341e-05;0.000257127;0.0002663;-0.000181525;0.000223913;0.670297;1.49188;0.000260092;0.00029855;1.46702;0.681654;121.609;166.609;-0.00143208;-0.000172364;0.000296299;-0.000169331;0.000257085;0.00309868;0.00128541;0;0.0148087;-0.0115628;-0.0319658;-0.0969963;0.10278;-6.08934;-7.11748e-05;6.92861e-05;5.318e-05;8.40971e-05;-0.000102092;9.30945e-05;1.33838;0.747174;0.000107664;0.000124126;0.823739;1.21398;111.818;156.818;0.00106595;-7.11982e-05;0.000365502;-0.000226893;5.31156e-05;-0.00135182;-0.00218523;0;0.0302366;-0.00741015;0.456135
37000;38;25.7575;0.00388126;0.000150707;-2.435;25.6419;0.100675;9.55266e-05;0.00424067;-0.0642553;-0.00503066;-0.0293728;-0.0436602;0.052861;-6.19487;-0.00013175;-7.11413e-05;0.000513776;0.000521524;-0.000139498;0.000330511;0.256435;3.89962;0.000402325;0.000440681;3.73858;0.267481;124.432;169.432;-0.00101895;-0.000131812;0.000216948;-0.000359045;0.000513755;0.00256123;0.000914756;0;0.0131642;-0.0088996;-0.0308574;-0.0967564;0.101947;-6.0891;-0.000211075;1.69613e-05;0.000231401;0.00023205;-0.000211725;0.000221887;0.912164;1.09629;0.000256303;0.00029585;1.096;0.91241;131.824;176.824;0.000481591;-0.000211114;0.000313924;-0.00027987;0.000231352;0.000118113;-0.0022865;0;0.0289401;-0.00754084;0.461631
38000;39;25.7576;0.00401011;0.000155711;-2.4356;25.642;0.101067;-0.000509689;0.00431107;-0.0638626;-0.00536769;-0.0288641;-0.041648;0.0509559;-6.19286;-0.000136943;0.000287744;0.000563888;0.000666891;-0.000239945;0.000453418;0.242855;4.11769;0.000542559;0.000604557;2.77935;0.359797;95.1218;140.122;-0.000654148;-0.000136902;0.00053906;3.66037e-05;0.000563785;0.00120097;0.00148924;0;0.0138225;-0.00936224;-0.0292644;-0.0974975;0.102224;-6.08984;-0.000189749;-3.47702e-05;0.000275712;0.000278295;-0.000192332;0.000235313;0.688214;1.45304;0.000273223;0.000313751;1.44695;0.691108;135.754;0.75372;0.000903514;-0.000189823;0.000316402;-0.000385779;0.000275662;-0.000592934;-0.00182821;0;0.0267393;-0.00737341;0.464886
39000;40;25.7576;0.00395072;0.000153404;-2.43563;25.642;0.100662;-0.000541468;0.00424999;-0.0642679;-0.00440093;-0.0286355;-0.0466885;0.054947;-6.1979;-0.000145105;5.88803e-05;0.000405108;0.000411338;-0.000151336;0.000281337;0.358189;2.79182;0.000336222;0.000375116;2.71805;0.367911;119.063;164.063;-0.000971971;-0.000145149;0.000420431;-0.000302472;0.000405021;0.00228368;0.0017811;0;0.023089;-0.00847035;-0.0290084;-0.102072;0.106451;-6.09442;-0.000122103;-2.88526e-05;0.000244521;0.000246778;-0.00012436;0.000185569;0.499357;2.00258;0.000218127;0.000247425;1.98438;0.503935;135.019;0.0190625;0.000572187;-0.000122191;0.000362307;-0.000419869;0.000244456;4.31623e-05;-0.00213781;0;0.0285613;-0.00736391;0.471266
40000;41;25.7573;0.00368727;0.000143175;-2.43564;25.6417;0.10217;-0.000543378;0.0039792;-0.0627601;-0.00687977;-0.031407;-0.0364809;0.048627;-6.18769;-0.000192456;0.000121468;0.000325074;0.000352166;-0.000219547;0.000285856;0.592036;1.68909;0.000333026;0.000381142;1.60406;0.62342;115.254;160.254;-0.00117158;-0.000192458;0.000380976;-0.000137905;0.000325009;0.00276877;0.00143021;0;0.0135232;-0.0104378;-0.0308276;-0.0954353;0.100832;-6.08778;-4.59551e-05;1.47181e-06;0.000145829;0.00014584;-4.59664e-05;9.59032e-05;0.31513;3.17329;0.000115635;0.000127871;3.17276;0.315183;129.865;174.865;0.000636246;-4.60003e-05;0.000303711;-0.00030071;0.000145783;-0.000589084;-0.00158345;0;0.0279788;-0.00733485;0.47859
41000;42;25.7565;0.00289247;0.000112313;-2.43512;25.6409;0.102141;-2.21681e-05;0.00323044;-0.0627887;-0.00598309;-0.0313113;-0.036575;0.0485173;-6.18779;-1.43654e-05;0.000147697;0.000664745;0.000695476;-4.50969e-05;0.000370287;0.0216105;46.2739;0.000479391;0.000493715;15.4218;0.0648432;98.1388;143.139;-0.00109753;-1.43621e-05;0.000418705;-0.000123127;0.000664668;0.00185052;0.00150005;0;0.0128216;-0.0093603;-0.0310109;-0.094044;0.0994664;-6.08639;-0.000129084;4.43458e-05;0.000199644;0.000205521;-0.000134961;0.000170241;0.646572;1.54662;0.00019798;0.000226988;1.52282;0.656678;125.067;170.067;0.000870331;-0.000129155;0.000468538;-0.000379707;0.000199535;-0.000143309;-0.00157101;0;0.0271219;-0.00734673;0.486172
42000;43;25.7554;0.00174988;6.7947e-05;-2.43395;25.6399;0.0949428;0.00113892;0.00222061;-0.0699873;-0.00608059;-0.029566;-0.038732;0.0491049;-6.18994;-0.000188069;-1.65548e-05;0.000279888;0.000280473;-0.000188654;0.000234564;0.671942;1.48822;0.000272574;0.000312751;1.48671;0.672627;130.755;175.755;-0.00113152;-0.000188094;0.000190058;-0.000223071;0.00027987;0.00240079;0.000284465;0;0.0160026;-0.00925424;-0.029318;-0.0966559;0.101428;-6.089;-0.000108416;-1.24287e-05;0.000230381;0.000230836;-0.000108872;0.000169854;0.470596;2.12497;0.0002003;0.000226472;2.12026;0.47164;132.304;177.304;0.000879338;-0.000108486;0.000349022;-0.000373757;0.00023032;-0.000929145;-0.00172135;0;0.0276713;-0.00735093;0.494166
43000;44;25.7554;0.00181322;7.04064e-05;-2.43476;25.6399;0.100037;0.000335847;0.00218862;-0.0648932;-0.00638491;-0.0301862;-0.0361702;0.0475421;-6.18738;-0.000318645;-0.000125292;0.000459452;0.00047913;-0.000338323;0.000408726;0.693533;1.44189;0.000474285;0.000544968;1.41619;0.70612;136.686;1.68573;-0.000898711;-0.000318717;0.000147608;-0.00039798;0.000459449;0.00220627;0.00251778;0;0.0255512;-0.00938654;-0.0298934;-0.0932882;0.0984094;-6.08563;-0.000128247;-1.10356e-05;0.000304302;0.000304583;-0.000128529;0.000216556;0.421448;2.37277;0.000256851;0.000288741;2.36977;0.421982;130.507;175.507;0.000437719;-0.000128339;0.000406965;-0.000428856;0.000304219;-0.000877233;-0.00181587;0;0.0303951;-0.00723962;0.502042
44000;45;25.7565;0.00286381;0.0001112;-2.43366;25.6411;0.100507;0.00143574;0.00334653;-0.0644234;-0.00706887;-0.0297762;-0.0374212;0.0483418;-6.18863;1.12112e-05;0.0003337;0.000152899;0.000423192;-0.000259082;0.000341137;-0.073324;-13.6381;0.000397692;0.00045485;1.63343;0.612209;85.4714;130.471;-0.000914914;1.12596e-05;0.000547075;0.000120356;0.000152805;0.00229978;0.00261491;0;0.0142645;-0.00965211;-0.0294384;-0.0956038;0.100498;-6.08795;-0.000189118;8.91756e-06;0.000265823;0.000265998;-0.000189293;0.000227645;0.711442;1.4056;0.000264103;0.000303527;1.40522;0.711632;131.142;176.142;0.00110949;-0.000189195;0.000410292;-0.000392275;0.000265739;-0.000779707;-0.00131188;0;0.0276382;-0.00722591;0.509067
45000;46;25.7569;0.00330206;0.000128217;-2.43505;25.6414;0.102318;4.33272e-05;0.00364739;-0.0626118;-0.00684344;-0.0299359;-0.0377304;0.0486475;-6.18894;-0.000120909;5.79694e-05;0.000124011;0.000137039;-0.000133937;0.000135488;0.974988;1.02565;0.000156451;0.00018065;1.02316;0.977365;122.184;167.184;-0.00199634;-0.000120938;0.000362034;-0.000246021;0.000123947;0.00382433;0.00229472;0;0.0183975;-0.0096936;-0.0295531;-0.0952909;0.100238;-6.08764;-5.55244e-05;-1.09676e-05;0.000313642;0.000313968;-5.585e-05;0.000184909;0.177031;5.64872;0.000230198;0.000246545;5.62163;0.177884;128.402;173.402;0.00107017;-5.56231e-05;0.000422506;-0.000444281;0.000313553;-0.00124977;-0.00161647;0;0.0286626;-0.00731529;0.51559
46000;47;25.7568;0.00319918;0.000124223;-2.43471;25.6413;0.103194;0.000380039;0.00357251;-0.0617364;-0.00750396;-0.0303189;-0.0396165;0.0504481;-6.19083;-0.000139721;0.000103598;8.53288e-05;0.000125756;-0.000180149;0.000152953;1.63744;0.610708;0.000177543;0.000203937;0.69807;1.43252;117.699;162.699;-0.0007112;-0.00013972;0.000296188;-8.89474e-05;8.52903e-05;0.00191271;0.00193878;0;0.0128793;-0.010367;-0.0305477;-0.0960499;0.101322;-6.0884;-0.00010378;2.07252e-05;0.000320938;0.000321947;-0.000104789;0.000213368;0.323365;3.09248;0.00025679;0.000284491;3.07233;0.325486;123.221;168.221;0.00107825;-0.000103829;0.000355505;-0.000313913;0.000320875;-0.000898094;-0.00154808;0;0.0277964;-0.00739443;0.523183
47000;48;25.7555;0.00192531;7.4759e-05;-2.43563;25.6399;0.0992058;-0.000538564;0.0022214;-0.0657242;-0.00571396;-0.0305564;-0.0337853;0.0459107;-6.185;-0.000151627;0.000173046;-0.000194078;1.49025e-06;-0.000347196;0.000174343;-0.781268;-1.27997;0.000231962;0.000232458;;;109.344;154.344;-0.00116976;-0.000151612;0.000341796;4.28923e-06;-0.000194122;0.0024838;0.00369281;0;0.0235943;-0.00911035;-0.0299415;-0.091499;0.0967035;-6.08385;-0.000170261;1.40999e-05;0.000158828;0.000159431;-0.000170864;0.000165147;1.07198;0.932853;0.000190734;0.000220196;0.93309;1.07171;132.893;177.893;0.000788492;-0.000170365;0.000484571;-0.000456216;0.000158711;-8.2567e-05;-0.000714936;0;0.0278909;-0.00731383;0.529202
48000;49;25.7552;0.00160977;6.25065e-05;-2.43493;25.6397;0.1028;0.000161062;0.00195673;-0.0621304;-0.00927842;-0.0280517;-0.035915;0.0465067;-6.18713;-0.000227575;-6.42591e-05;-2.56272e-05;-6.91421e-06;-0.000246288;0.000119687;-8.88021;-0.11261;0.000161937;0.000159583;;;168.299;33.2986;-0.00140942;-0.000227605;0.000122526;-0.000251006;-2.56327e-05;0.00289344;0.00175264;0;0.0147937;-0.0120046;-0.0279382;-0.0921795;0.0970655;-6.08453;-0.000160009;-2.10135e-06;0.000381499;0.000381507;-0.000160017;0.000270762;0.419421;2.38424;0.000321248;0.000361016;2.38417;0.419434;129.216;174.216;0.000815235;-0.000160146;0.00051914;-0.000523061;0.000381365;-0.00158375;-0.000801705;0;0.0266645;-0.00743007;0.534896
49000;50;25.7561;0.00244101;9.47833e-05;-2.43557;25.6404;0.100605;-0.000478034;0.00273973;-0.0643252;-0.00600745;-0.0304617;-0.036061;0.0475858;-6.18727;-8.14971e-05;-1.14727e-05;-0.000162531;-7.99041e-05;-0.000164124;4.21097e-05;-0.501426;-1.99431;9.47677e-05;5.61463e-05;-0.486854;-2.05401;56.2306;101.231;-0.000973409;-8.15109e-05;0.000143143;-0.000166101;-0.000162541;0.00298476;0.00242347;0;0.0186396;-0.00968633;-0.0301576;-0.0926226;0.0978889;-6.08497;-0.000118367;4.89728e-05;0.000269888;0.00027597;-0.000124449;0.00020021;0.438577;2.2801;0.000236635;0.000266946;2.21754;0.45095;122.884;167.884;0.000819437;-0.000118437;0.000476082;-0.000377971;0.000269776;-0.000554953;-0.000156893;0;0.0267433;-0.00740028;0.53879
50000;51;25.7554;0.00180713;7.017e-05;-2.43479;25.6399;0.101872;0.000307854;0.00217262;-0.0630579;-0.00726726;-0.0291159;-0.0352491;0.0462931;-6.18646;-0.000195407;7.35772e-05;0.000118271;0.000134672;-0.000211808;0.00017324;1.6522;0.605255;0.000201686;0.000230987;0.635821;1.57277;126.869;171.869;-0.00151826;-0.00019542;0.000320541;-0.000173309;0.000118223;0.00284917;0.0014306;0;0.0154539;-0.0104041;-0.0284638;-0.0917696;0.0966442;-6.08412;-0.000179639;-4.11702e-05;0.000257509;0.000261352;-0.000183483;0.000222417;0.697604;1.43348;0.000258134;0.000296557;1.4244;0.702051;138.201;3.20079;0.00110375;-0.000179798;0.000482814;-0.000564926;0.000257393;-0.00117559;-0.00184886;0;0.0265306;-0.00739352;0.544812
51000;52;25.7566;0.00300639;0.000116737;-2.43511;25.641;0.103041;-1.50094e-05;0.00334195;-0.0618894;-0.00563649;-0.0276966;-0.0422999;0.0508739;-6.19351;-0.000184025;0.000141651;0.000200335;0.000246898;-0.000230588;0.000238743;0.918585;1.08863;0.00027573;0.000318324;1.07073;0.933939;115.843;160.843;-0.000799532;-0.00018402;0.000385831;-0.000102435;0.000200271;0.00202824;0.00266797;0;0.0170007;-0.00902649;-0.0271171;-0.099873;0.103882;-6.09222;-0.000150089;7.87125e-06;0.000244012;0.000244169;-0.000150246;0.000197207;0.61509;1.62578;0.000229858;0.000262943;1.62512;0.615337;130.99;175.99;0.000945142;-0.000150195;0.00047687;-0.000460943;0.000243898;-0.00159074;-0.00102313;0;0.0264539;-0.00735257;0.552953
52000;53;25.7561;0.00252733;9.81348e-05;-2.43438;25.6406;0.102046;0.000714949;0.00293402;-0.0628839;-0.00707066;-0.0302489;-0.0364665;0.047904;-6.18768;-0.000233224;-2.32736e-05;0.00035356;0.000354481;-0.000234146;0.000294314;0.659646;1.51596;0.000342203;0.000392418;1.51393;0.660531;128.492;173.492;-0.000516208;-0.000233247;0.000167072;-0.000213508;0.000353546;0.00157204;0.00237424;0;0.0175977;-0.0103436;-0.0294173;-0.0934738;0.0985379;-6.08582;-0.000121422;1.81042e-05;0.000285298;0.000286102;-0.000122226;0.000204164;0.425597;2.34964;0.000241994;0.000272219;2.34076;0.427212;127.532;172.532;0.000588144;-0.000121525;0.000490841;-0.000454441;0.000285177;-0.000711313;-0.00078319;0;0.0306389;-0.00725479;0.558743
53000;54;25.7568;0.00320738;0.000124541;-2.43538;25.6412;0.102221;-0.000281748;0.00352179;-0.0627086;-0.00636026;-0.030475;-0.0375454;0.0487733;-6.18876;-0.000296267;-0.000103446;-2.89072e-05;6.44388e-06;-0.000331618;0.000169031;-10.2489;-0.0975713;0.000223258;0.000225375;;;170.218;35.2181;-0.000890039;-0.000296325;0.000149731;-0.000356556;-2.8913e-05;0.00193437;0.00209199;0;0.0137274;-0.00962484;-0.0299045;-0.0938499;0.0989683;-6.0862;-0.000208732;-1.44057e-05;0.000176654;0.000177192;-0.00020927;0.000193231;1.18159;0.84632;0.00022338;0.000257641;0.846715;1.18104;138.042;3.04174;0.000392439;-0.000208866;0.000489768;-0.000518385;0.000176534;0.000546305;-0.0018439;0;0.0258629;-0.00723925;0.566129
54000;55;25.7569;0.00331122;0.000128573;-2.43518;25.6413;0.105732;-8.65915e-05;0.00363041;-0.0591978;-0.00831428;-0.0310401;-0.0330652;0.0461077;-6.18428;-0.000156303;5.56885e-05;6.54274e-06;2.37652e-05;-0.000173525;9.86451e-05;;;0.000124364;0.000131527;0.136955;7.30166;125.092;170.092;-0.00138969;-0.000156328;0.000343958;-0.000232534;6.48514e-06;0.00291448;0.00154469;0;0.014869;-0.0111588;-0.0299353;-0.0906239;0.0960902;-6.08297;-0.000165595;3.64477e-05;0.000270212;0.000273239;-0.000168623;0.000220931;0.612834;1.63176;0.000257481;0.000294575;1.62042;0.617124;126.438;171.438;0.0010387;-0.000165658;0.000427737;-0.000354671;0.000270121;-0.00210197;-0.000870535;0;0.0295884;-0.00733777;0.573185
55000;56;25.7549;0.00124578;4.83732e-05;-2.4333;25.6395;0.0971387;0.0017941;0.00176821;-0.0677914;-0.00808712;-0.0317271;-0.0352185;0.0480869;-6.18643;-0.000156197;0.00011584;0.000187246;0.000222665;-0.000191616;0.00020714;0.834181;1.19878;0.000239409;0.000276187;1.16204;0.860558;116.114;161.114;-0.00126209;-0.000156197;0.000351904;-0.000120142;0.00018719;0.00297425;0.00163593;0;0.0162516;-0.0105744;-0.0304275;-0.0954267;0.100717;-6.08777;-0.000142575;2.3563e-05;0.000159307;0.000161135;-0.000144403;0.000152769;0.894972;1.11735;0.000176491;0.000203692;1.11587;0.896164;129.946;174.946;0.000778805;-0.000142642;0.000414931;-0.000367687;0.000159221;-0.000503271;-0.00225434;0;0.0266926;-0.00730249;0.581208
56000;57;25.7568;0.00321963;0.000125017;-2.43439;25.6413;0.0998428;0.000698931;0.0036366;-0.0650873;-0.00645839;-0.030901;-0.0354293;0.0474533;-6.18664;-9.60034e-05;-0.000100608;0.000137211;0.000174615;-0.000133407;0.000154011;0.699676;1.42923;0.000178366;0.000205348;1.30889;0.764007;152.326;17.326;-0.00114537;-9.60411e-05;9.12635e-05;-0.000292435;0.000137212;0.00228798;0.00158468;0;0.0135835;-0.00938403;-0.0307903;-0.0924417;0.0978855;-6.08479;-0.000158526;-2.21851e-06;0.000332499;0.000332509;-0.000158536;0.000245522;0.47677;2.09745;0.000289375;0.000327363;2.09738;0.476786;129.31;174.31;0.000823772;-0.000158612;0.000411178;-0.000415412;0.000332415;-0.000801272;-0.00219983;0;0.0272727;-0.00729866;0.588081
57000;58;25.7542;0.000624994;2.42682e-05;-2.43468;25.6387;0.0962589;0.000416799;0.00101719;-0.0686711;-0.00620067;-0.0329808;-0.0283751;0.0439469;-6.17959;-0.000201884;0.000138333;0.000436238;0.000464935;-0.000230581;0.000347758;0.462784;2.16084;0.000409085;0.000463678;2.01636;0.495943;107.834;152.834;-0.0011361;-0.000201876;0.000334298;-5.75069e-05;0.000436192;0.00268683;0.00380463;0;0.0210234;-0.00907266;-0.0319822;-0.0859916;0.092194;-6.07834;-0.000174557;6.26235e-05;0.000249524;0.000258578;-0.000183611;0.000221094;0.699559;1.42947;0.000256518;0.000294793;1.40829;0.710079;124.406;169.406;0.000318457;-0.000174631;0.000516686;-0.000391247;0.000249392;-7.89246e-06;-0.00286884;0;0.0318822;-0.00726301;0.595696
58000;59;25.7584;0.00480591;0.000186611;-2.43501;25.6429;0.104059;8.73609e-05;0.0051552;-0.0608712;-0.00547913;-0.0290879;-0.0404681;0.0501377;-6.19168;-0.000241625;0.000239126;0.00065143;0.000711427;-0.000301623;0.000506525;0.370915;2.69604;0.000600625;0.000675367;2.35867;0.423968;98.5971;143.597;-0.0012322;-0.000241597;0.000446807;3.16297e-05;0.000651358;0.00252247;0.00124146;0;0.017747;-0.0086731;-0.0292403;-0.0970321;0.101713;-6.08938;-0.000131916;-1.6549e-05;0.000279813;0.000280477;-0.00013258;0.000206529;0.471444;2.12114;0.000243521;0.000275372;2.11553;0.472696;130.52;175.52;0.000334108;-0.000131968;0.000290446;-0.000323418;0.000279771;0.000319547;-0.00300676;0;0.0332918;-0.00733868;0.603134
59000;60;25.7538;0.000215646;8.37343e-06;-2.43521;25.6383;0.0946861;-0.000111779;0.000561656;-0.0702439;-0.0052181;-0.0324456;-0.0283216;0.0433827;-6.17953;-0.00024033;-9.2955e-05;0.000243532;0.000260775;-0.000257573;0.000259174;0.986854;1.01332;0.00029927;0.000345565;1.01243;0.987723;145.362;10.3621;-0.00123325;-0.000240412;0.000229631;-0.000415385;0.00024351;0.00263623;0.00301057;0;0.0186711;-0.00865786;-0.0307186;-0.0875768;0.0932109;-6.07992;-0.000217747;6.81974e-05;0.000227561;0.000237771;-0.000227957;0.000232864;0.956872;1.04507;0.000268908;0.000310485;1.04305;0.958723;126.24;171.24;0.000467622;-0.000217882;0.00066123;-0.000524571;0.000227345;0.000586579;-0.000852619;0;0.0297256;-0.00735861;0.609573
60000;61;25.7548;0.00113833;4.42006e-05;-2.4353;25.6392;0.098458;-0.000202279;0.00146569;-0.066472;-0.00615081;-0.0293421;-0.0372118;0.0477861;-6.18842;-0.000220396;-5.84522e-06;-0.000100197;-9.99135e-05;-0.00022068;6.03831e-05;-2.19963;-0.454623;0.000127599;8.05107e-05;-0.452754;-2.20871;150.42;15.4196;-0.00125988;-0.000220456;0.000333353;-0.000345003;-0.000100253;0.00298872;0.00307753;0;0.0204688;-0.00933361;-0.0284994;-0.0936801;0.098363;-6.08603;-0.000185799;-8.97368e-06;0.000280145;0.000280318;-0.000185972;0.000233145;0.663223;1.50779;0.000271043;0.00031086;1.50732;0.663431;132.558;177.558;0.000610976;-0.000185874;0.000370937;-0.000388707;0.000280077;-0.00055404;-7.57611e-05;0;0.0308249;-0.00734435;0.613393
61000;62;25.7563;0.00263444;0.000102294;-2.43487;25.6407;0.101598;0.000223522;0.00299674;-0.0633316;-0.0067709;-0.0280457;-0.0412865;0.0503684;-6.1925;-7.39491e-05;0.000228577;-3.55582e-05;0.000174628;-0.000284135;0.000229382;-2.07966;-0.480847;0.000267371;0.000305842;0.614595;1.62709;100.167;145.167;-0.000261799;-7.39235e-05;0.000425478;3.16835e-05;-3.56226e-05;0.00101524;0.00273097;0;0.0148157;-0.00950251;-0.0280512;-0.0978389;0.102223;-6.09019;-6.76765e-05;-8.90792e-05;0.000265693;0.000288003;-8.99862e-05;0.000188995;0.254717;3.92593;0.000227996;0.000251993;3.20052;0.312449;139.737;4.7373;0.00071606;-6.77457e-05;0.000204541;-0.000382602;0.000265676;-0.000706979;-0.00115263;0;0.0268373;-0.00736299;0.61912
62000;63;25.7569;0.0033027;0.000128242;-2.43419;25.6414;0.101879;0.000908276;0.00373191;-0.0630512;-0.0074696;-0.0300061;-0.0346931;0.0464734;-6.1859;-0.00021723;-5.66045e-06;0.000270845;0.00027091;-0.000217296;0.000244103;0.802047;1.24681;0.000282432;0.000325471;1.24674;0.802095;130.895;175.895;-0.00116985;-0.000217244;0.000154002;-0.000165245;0.000270833;0.00235031;0.000943439;0;0.0133823;-0.0102788;-0.0296079;-0.0907677;0.0960264;-6.08311;-0.000155034;7.87838e-06;0.000283231;0.000283372;-0.000155176;0.000219274;0.547379;1.82689;0.000256777;0.000292365;1.82613;0.547605;129.402;174.402;0.000910432;-0.000155111;0.000407;-0.000391069;0.000283148;-0.00180791;-0.00124346;0;0.0261743;-0.00730651;0.625084
63000;64;25.7554;0.00174347;6.76981e-05;-2.43445;25.6399;0.100426;0.000639299;0.00214585;-0.0645044;-0.00724635;-0.0300871;-0.0359919;0.0474675;-6.1872;-0.000164689;3.76236e-05;1.08192e-05;1.85445e-05;-0.000172415;9.54796e-05;15.2219;0.0656948;0.000121597;0.000127306;0.107558;9.29733;132.368;177.368;-0.00123316;-0.000164709;0.00027514;-0.000199851;1.07821e-05;0.0026658;0.00217487;0;0.0137652;-0.0100936;-0.029874;-0.0923841;0.0976174;-6.08473;-0.000155246;-2.4328e-05;0.000307604;0.00030888;-0.000156521;0.0002327;0.504695;1.9814;0.000273457;0.000310267;1.9734;0.506739;133.051;178.051;0.000502583;-0.000155352;0.000412916;-0.00046137;0.000307519;-0.000406657;-0.001934;0;0.0259543;-0.00742532;0.631694
64000;65;25.7545;0.000895647;3.47775e-05;-2.43467;25.639;0.0964319;0.000426862;0.00128937;-0.0684982;-0.00697476;-0.0303874;-0.0369204;0.0483234;-6.18813;-6.70115e-05;0.000285252;-0.000183669;0.000165815;-0.000416495;0.000291155;-0.36485;-2.74086;0.000346425;0.000388207;0.398119;2.51181;108.403;153.403;-0.00087961;-6.69859e-05;0.000396658;0.000173834;-0.000183707;0.00157588;0.00322313;0;0.0400971;-0.0101128;-0.0290011;-0.0947712;0.0996239;-6.08712;-0.000212281;6.72176e-05;0.000202125;0.000212755;-0.000222911;0.000217833;1.05025;0.952157;0.000251555;0.000290444;0.954439;1.04774;126.328;171.328;0.000533997;-0.000212353;0.000519703;-0.00038508;0.000201992;-0.0014663;-0.00127269;0;0.0510741;-0.00727837;0.639665
65000;66;25.7576;0.00399353;0.000155067;-2.43414;25.6421;0.104169;0.000949203;0.00442054;-0.0607613;-0.00721114;-0.0298602;-0.0410492;0.0512705;-6.19226;-0.000235268;0.000104295;0.000293354;0.000313187;-0.000255101;0.000284144;0.801994;1.24689;0.000328672;0.000378859;1.2277;0.814533;117.447;162.447;-0.000671138;-0.000235263;0.00022466;-1.60064e-05;0.000293334;0.00177133;0.00304873;0;0.0148263;-0.00938118;-0.0303324;-0.0970178;0.102081;-6.08936;-0.000158291;-2.96578e-05;0.00027477;0.000276792;-0.000160313;0.000218552;0.576087;1.73585;0.000255332;0.000291403;1.72657;0.579183;133.7;178.7;0.00035329;-0.000158351;0.000288023;-0.000347201;0.000274729;8.68348e-05;-0.00315327;0;0.0269388;-0.00733046;0.646489
66000;67;25.7557;0.00206566;8.02086e-05;-2.43444;25.6402;0.0997015;0.000651285;0.00247346;-0.0652286;-0.0070838;-0.031606;-0.0346945;0.047464;-6.18591;-0.000120811;0.000189737;-6.60064e-05;9.82968e-05;-0.000285115;0.000191706;-1.8303;-0.54636;0.000229955;0.000255608;0.344763;2.90055;107.011;152.011;-0.00134306;-0.000120793;0.000382885;-3.40024e-06;-6.60618e-05;0.00279346;0.00211773;0;0.0159697;-0.00967398;-0.0312178;-0.0916549;0.0973075;-6.084;-7.37995e-05;-4.35767e-06;0.0002984;0.000298451;-7.38505e-05;0.000186151;0.247317;4.04339;0.000227613;0.000248201;4.04129;0.247446;127.047;172.047;0.000972833;-7.38665e-05;0.000357685;-0.000366266;0.000298336;-0.000319266;-0.0022784;0;0.0274093;-0.00729098;0.653964
67000;68;25.7555;0.00186847;7.25516e-05;-2.43422;25.64;0.102539;0.000876864;0.0022856;-0.0623906;-0.00633992;-0.0282589;-0.0475989;0.0557173;-6.19881;-0.000112783;0.000111637;0.00079532;0.000808843;-0.000126305;0.000467574;0.141808;7.05179;0.000585886;0.000623432;6.40387;0.156156;97.5356;142.536;-0.00105329;-0.000112779;0.000300067;-7.66217e-05;0.000795281;0.00323361;0.00178648;0;0.0299071;-0.00938856;-0.0279977;-0.101039;0.105266;-6.09338;-0.000144526;-2.18222e-05;0.000242266;0.000243494;-0.000145754;0.000194624;0.59656;1.67628;0.000227081;0.000259498;1.67058;0.598593;135.154;0.154465;0.000725616;-0.00014464;0.000434372;-0.00047784;0.000242172;-0.0011633;-0.00102696;0;0.026969;-0.00730396;0.661441
68000;69;25.7572;0.00359843;0.000139725;-2.4347;25.6417;0.102752;0.000395244;0.00397678;-0.0621782;-0.00599391;-0.0268405;-0.0467612;0.054249;-6.19797;7.39273e-05;0.000200451;0.000249124;0.000380281;-5.72299e-05;0.000218756;-0.296749;-3.36985;0.000274593;0.000291674;6.6448;0.150494;79.0845;124.084;-0.000886351;7.39466e-05;0.000359585;4.13444e-05;0.00024908;0.00173713;0.000921412;0;0.0138371;-0.00912357;-0.027309;-0.100916;0.104943;-6.09326;-0.000221067;6.48718e-05;0.000300856;0.000308798;-0.000229009;0.000268903;0.734794;1.36093;0.00031164;0.000358538;1.34841;0.741615;125.619;170.619;0.000212957;-0.000221149;0.000541357;-0.000411364;0.000300711;0.000891549;-0.00152865;0;0.0266133;-0.00736647;0.669287
69000;70;25.7548;0.00117293;4.55441e-05;-2.43476;25.6393;0.0942853;0.000336648;0.00156731;-0.0706448;-0.00547984;-0.031644;-0.030713;0.0444371;-6.18192;1.21829e-05;0.000357848;8.50152e-05;0.000408295;-0.000311097;0.000359696;-0.143303;-6.97823;0.000416603;0.000479595;1.31244;0.761942;84.1742;129.174;-0.000779453;1.22263e-05;0.00051239;0.000203318;8.4948e-05;0.00137895;0.00184654;0;0.0136199;-0.00881208;-0.0311181;-0.0885017;0.094226;-6.08085;-0.000151627;7.20548e-05;0.000358729;0.000368707;-0.000161605;0.000265156;0.422677;2.36587;0.000313861;0.000353541;2.28154;0.438301;120.444;165.444;0.000579777;-0.00015169;0.000509191;-0.000364858;0.000358602;0.00013845;-0.000232517;0;0.0271275;-0.00731766;0.676203
70000;71;25.7574;0.00376674;0.000146261;-2.43468;25.6419;0.102382;0.000408611;0.0041486;-0.0625477;-0.00677561;-0.0286215;-0.0430962;0.0521765;-6.19431;-7.05179e-06;-3.87783e-05;0.000680499;0.00068268;-9.23199e-06;0.000345956;;;0.000458228;0.000461274;;;110.111;155.111;-0.00106434;-7.08591e-06;0.000186692;-0.000264093;0.000680483;0.00186018;0.00154536;0;0.0222807;-0.00960002;-0.0290882;-0.0988226;0.103461;-6.09117;-7.74822e-05;1.20097e-06;0.000215702;0.000215707;-7.74871e-05;0.000146597;0.359209;2.7839;0.000175434;0.000195463;2.78378;0.359223;129.213;174.213;0.000953853;-7.75439e-05;0.000353721;-0.000351215;0.00021564;-0.00109484;-0.0017808;0;0.0280426;-0.007278;0.681655
71000;72;25.7558;0.00221577;8.60371e-05;-2.43462;25.6403;0.101315;0.000469053;0.00260061;-0.0636149;-0.00738667;-0.0313671;-0.0366683;0.0488162;-6.18788;-0.000232006;-1.37953e-05;0.000130706;0.00013123;-0.00023253;0.00018188;1.77503;0.563371;0.000212714;0.000242507;0.564355;1.77194;143.947;8.94675;-0.00159958;-0.000232031;0.000196411;-0.000223925;0.000130686;0.00408883;0.00144081;0;0.0239961;-0.0106269;-0.031649;-0.0927862;0.0986097;-6.08513;-0.00016847;1.55688e-05;0.000234172;0.000234773;-0.000169071;0.000201922;0.719428;1.38999;0.000234186;0.00026923;1.38861;0.720146;130.505;175.505;0.00110877;-0.000168549;0.000427858;-0.000396554;0.000234081;-0.000419998;-0.00111721;0;0.0346939;-0.00726356;0.687511
72000;73;25.7576;0.00401481;0.000155893;-2.43555;25.642;0.102326;-0.000452576;0.00431622;-0.0626036;-0.00611209;-0.028376;-0.0452381;0.0537497;-6.19645;-0.000176071;-4.06869e-05;0.000566359;0.000568582;-0.000178294;0.000373438;0.310882;3.21665;0.000450407;0.000497918;3.18901;0.313577;117.061;162.061;-0.00129285;-0.000176103;0.000175179;-0.000256393;0.000566345;0.00293036;0.00176576;0;0.0150531;-0.00960623;-0.0290014;-0.101061;0.105578;-6.09341;-0.000104458;-3.81629e-05;0.000278578;0.000282344;-0.000108223;0.000195283;0.374966;2.66691;0.000232843;0.000260378;2.60891;0.383302;134.557;179.557;0.000757209;-0.000104555;0.000366528;-0.000442698;0.000278512;-0.000339793;-0.00127459;0;0.0273064;-0.00727508;0.691176
73000;74;25.7575;0.00386752;0.000150174;-2.43414;25.642;0.0985899;0.000954094;0.00431648;-0.0663402;-0.00635867;-0.0297515;-0.0436119;0.0531751;-6.19482;-0.000193317;1.51603e-05;0.000358756;0.000359172;-0.000193733;0.000276453;0.538854;1.85579;0.000323949;0.000368604;1.85395;0.539388;126.299;171.299;-0.000902747;-0.000193365;0.000341018;-0.000310518;0.000358698;0.000942152;0.00118568;0;0.0144863;-0.00964442;-0.0303251;-0.101013;0.105907;-6.09336;-0.000125147;7.90393e-06;0.000204492;0.000204681;-0.000125337;0.000165009;0.611993;1.63401;0.000192363;0.000220012;1.63305;0.612352;130.965;175.965;0.000601547;-0.000125235;0.000434661;-0.000418713;0.000204397;-6.62218e-05;-0.00295726;0;0.0272193;-0.00724474;0.698964
74000;75;25.7562;0.00253897;9.8587e-05;-2.43503;25.6406;0.0986694;6.37222e-05;0.0028971;-0.0662606;-0.00676951;-0.0317928;-0.0336515;0.0467871;-6.18486;-6.8932e-05;0.000176623;0.000749301;0.000785799;-0.00010543;0.000445615;0.091995;10.8702;0.000562314;0.000594153;7.45329;0.134169;93.7051;138.705;-0.000646358;-6.89168e-05;0.000379263;-2.58509e-05;0.000749245;0.00197403;0.00110475;0;0.0158451;-0.0100957;-0.0305868;-0.0944542;0.0997951;-6.0868;-0.000147102;2.35489e-05;0.000225033;0.000226517;-0.000148586;0.000187552;0.653691;1.52977;0.000218119;0.000250069;1.52448;0.65596;129.054;174.054;0.00098226;-0.000147205;0.00050121;-0.000453934;0.000224908;-0.000239881;-0.00187388;0;0.0272729;-0.00728751;0.705512
75000;76;25.7558;0.00214651;8.33479e-05;-2.43609;25.6401;0.0969541;-0.00099231;0.0024091;-0.0679759;-0.00582699;-0.0318349;-0.0313309;0.0450449;-6.18254;-0.000112571;-8.66486e-05;-0.000237821;-6.82852e-05;-0.000282106;0.000106911;-0.473343;-2.11263;0.000169945;0.000142547;-0.242055;-4.13129;34.9684;79.9684;-0.00105258;-0.000112627;0.000172203;-0.000345533;-0.000237832;0.00205832;0.00407613;0;0.0245172;-0.00985175;-0.0309667;-0.089036;0.0947809;-6.08138;-0.000165372;-1.86788e-05;0.000249251;0.00025009;-0.000166212;0.000208151;0.663476;1.50721;0.000241973;0.000277535;1.50465;0.664606;135.339;0.338631;0.00034765;-0.000165527;0.000519644;-0.000556779;0.000249116;0.000220027;-0.00111147;0;0.0302716;-0.0072833;0.713034
76000;77;25.7549;0.00127924;4.96721e-05;-2.43532;25.6393;0.097896;-0.000228759;0.00160688;-0.0670341;-0.00639283;-0.0291553;-0.0402926;0.0501437;-6.1915;-0.000209779;0.000183985;0.00055411;0.000596114;-0.000251783;0.000423948;0.378587;2.6414;0.000502808;0.000565264;2.36757;0.422374;106.49;151.49;-0.00115013;-0.000209767;0.000467387;-9.91993e-05;0.000554017;0.00184204;0.00207042;0;0.0174738;-0.0103854;-0.0291052;-0.0973;0.102089;-6.08965;-0.000163739;4.65782e-05;0.000238406;0.000243731;-0.000169064;0.000206397;0.686808;1.45601;0.000239623;0.000275196;1.44165;0.69365;125.309;170.309;0.000638903;-0.00016378;0.000383151;-0.00028986;0.000238334;-0.000906219;-0.00192607;0;0.0261783;-0.00740832;0.720957
77000;78;25.7568;0.00319026;0.000123876;-2.43511;25.6412;0.101084;-2.03281e-05;0.00353394;-0.0638464;-0.00628287;-0.0275173;-0.0421432;0.050722;-6.19336;-4.22897e-05;0.000194235;0.000293337;0.000382211;-0.000131164;0.000256688;0.144168;6.93636;0.000307984;0.00034225;2.914;0.343171;93.321;138.321;-0.000711458;-4.22709e-05;0.000379127;9.40522e-06;0.000293284;0.00232607;0.00187379;0;0.0143471;-0.00956875;-0.0271187;-0.100801;0.104823;-6.09315;-7.54148e-05;7.36674e-05;0.000332231;0.000345136;-8.83191e-05;0.000216727;0.226995;4.40539;0.000264492;0.00028897;3.90783;0.255897;115.417;160.417;0.000704307;-7.54551e-05;0.000440748;-0.000293264;0.000332137;0.000111601;-0.00124724;0;0.0267855;-0.00725771;0.728301
78000;79;25.7554;0.00180032;6.99055e-05;-2.43401;25.64;0.0986779;0.00107927;0.00225152;-0.0662522;-0.00635657;-0.0288456;-0.0400755;0.0497847;-6.19129;-0.000311316;-0.000154755;0.000615836;0.000640984;-0.000336465;0.000488725;0.505518;1.97817;0.000573387;0.000651633;1.90506;0.524919;133.112;178.112;-0.000889106;-0.000311443;0.000218082;-0.000527247;0.000615824;0.00278431;0.00240707;0;0.0136402;-0.0093393;-0.0283676;-0.0974953;0.101967;-6.08984;-0.000172533;-4.40965e-05;0.000311824;0.000315806;-0.000176515;0.00024616;0.553302;1.80733;0.000288009;0.000328214;1.78912;0.558934;136.304;1.30398;0.000794219;-0.000172688;0.000471373;-0.000559317;0.000311714;0.000367342;-0.000846724;0;0.0279839;-0.00729537;0.735439
79000;80;25.7556;0.00199125;7.73194e-05;-2.43336;25.6402;0.096602;0.00173527;0.00251348;-0.068328;-0.00734413;-0.0306147;-0.0356655;0.0475734;-6.18688;-3.10738e-06;0.000171452;0.000394768;0.000458456;-6.67946e-05;0.000262625;;;0.000330162;0.000350167;6.86366;0.145695;89.2876;134.288;-0.000854003;-3.09274e-06;0.000331989;1.09784e-05;0.000394728;0.00229576;0.00131044;0;0.013741;-0.0082173;-0.0289906;-0.0976442;0.102188;-6.08999;-6.60995e-05;1.12574e-05;0.000319984;0.000320312;-6.64275e-05;0.00019337;0.206572;4.84094;0.000238784;0.000257826;4.82197;0.207384;122.6;167.6;0.000742372;-6.61481e-05;0.00033437;-0.00031173;0.000319928;0.00106451;-0.00253599;0;0.0267593;-0.00726137;0.742519
80000;81;25.7571;0.00346046;0.000134368;-2.4323;25.6418;0.0972364;0.00279145;0.00408711;-0.0676936;-0.00581985;-0.0304038;-0.0396455;0.0502993;-6.19086;3.58503e-05;0.000187967;0.000430543;0.000505735;-3.93418e-05;0.000272538;-0.0832676;-12.0095;0.000351006;0.000363385;12.8549;0.0777913;74.057;119.057;-0.000985036;3.58582e-05;0.000236364;0.000139589;0.000430533;0.00266365;0.0016286;0;0.0131217;-0.00648704;-0.029882;-0.0999837;0.104555;-6.09233;-7.37862e-05;3.09373e-05;0.000125707;0.000130395;-7.84738e-05;0.000104434;0.586968;1.70367;0.000121826;0.000139246;1.66164;0.601816;122.997;167.997;0.000449902;-7.38034e-05;0.00024974;-0.000187822;0.000125677;0.000994195;-0.000675388;0;0.025631;-0.0072005;0.749147
81000;82;25.7552;0.0015711;6.1005e-05;-2.43197;25.6399;0.0937848;0.00312795;0.00223403;-0.0711452;-0.00556438;-0.0299036;-0.0421164;0.0519517;-6.19333;-0.000112089;-6.91412e-06;0.000300968;0.000301084;-0.000112205;0.000206644;0.37243;2.68507;0.000246779;0.000275526;2.68333;0.372671;82.0905;127.091;-0.000438119;-0.00011209;-3.71289e-05;2.32882e-05;0.000300967;0.00161748;0.00117277;0;0.012895;-0.0051067;-0.0300222;-0.102861;0.107274;-6.09521;-9.54555e-05;3.68757e-05;0.000243456;0.000247421;-9.94214e-05;0.000173421;0.392086;2.55046;0.000206237;0.000231229;2.48861;0.40183;119.185;164.185;0.000535237;-9.54699e-05;0.000247681;-0.000173858;0.000243426;0.00152259;-0.001599;0;0.0267403;-0.00727343;0.756284
82000;83;25.7546;0.000964218;3.74401e-05;-2.43058;25.6395;0.0891772;0.00451335;0.00177223;-0.0757529;-0.00520027;-0.0325901;-0.0346944;0.0478838;-6.18591;-0.000169322;0.000161152;0.000132921;0.000202724;-0.000239125;0.000220924;1.27386;0.785017;0.00025539;0.000294566;0.847772;1.17956;114.658;159.658;-0.000629095;-0.000169309;0.000329777;-7.42178e-06;0.000132879;0.00153195;0.00212995;0;0.0154029;-0.00359384;-0.0322282;-0.0972488;0.102513;-6.08959;1.06142e-05;7.0335e-05;9.7496e-05;0.000136724;-2.86137e-05;8.26688e-05;-0.108868;-9.18542;0.000102033;0.000110225;4.77827;0.209281;97.6778;142.678;0.000534362;1.06102e-05;0.000254727;-0.000114041;9.7466e-05;0.00171159;-0.00247381;0;0.0230507;-0.00728696;0.759135
83000;84;25.7544;0.000770591;2.99217e-05;-2.42947;25.6394;0.0879981;0.00562618;0.00168728;-0.076932;-0.00327896;-0.0292869;-0.0437833;0.0527774;-6.195;-2.36235e-05;4.86354e-06;0.000484171;0.000484218;-2.36701e-05;0.000253944;0.0487916;20.4953;0.000330984;0.000338592;20.457;0.0488831;107.002;152.002;-0.000412592;-2.36358e-05;0.0001668;-0.000156991;0.000484157;0.00164465;0.00319245;0;0.0204307;-0.00113666;-0.0296629;-0.105158;0.109268;-6.0975;2.16821e-05;5.39125e-05;9.45889e-05;0.000123216;-6.9445e-06;6.508e-05;-0.229224;-4.36254;8.45536e-05;8.67733e-05;;;87.5919;132.592;0.000484814;2.16834e-05;0.000126019;-1.8189e-05;9.45824e-05;0.00241134;-0.00164287;0;0.0267577;-0.00725387;0.765159
84000;85;25.7556;0.00202556;7.86515e-05;-2.42901;25.6407;0.0884709;0.00608375;0.0029896;-0.0764592;-0.00546924;-0.0331977;-0.0370584;0.0500532;-6.18827;-0.000100911;8.76149e-05;7.2337e-05;0.000108921;-0.000137494;0.000123207;1.39501;0.716841;0.000142586;0.000164277;0.792182;1.26234;18.115;63.115;-0.00055946;-0.000100924;-8.59817e-06;0.000183811;7.23408e-05;0.0026697;0.00346065;0;0.0206229;-0.00183068;-0.0335414;-0.101246;0.106673;-6.09359;-0.000143741;8.1281e-05;-1.65525e-05;2.30561e-05;-0.00018335;0.000103203;-8.68397;-0.115155;0.000130599;0.000137604;0.125749;7.95233;152.847;17.8469;0.000475987;-0.000143741;8.45642e-05;7.79982e-05;-1.65527e-05;0.00286539;-0.00356206;0;0.0301739;-0.00718972;0.771234
85000;86;25.756;0.00241007;9.35819e-05;-2.42786;25.6412;0.0881431;0.00723382;0.00348589;-0.076787;-0.00404871;-0.0297726;-0.0458248;0.054797;-6.19704;-0.000266076;0.000173678;0.00016219;0.000223769;-0.000327655;0.000275712;1.64052;0.609562;0.000320242;0.000367616;0.68294;1.46426;13.8577;58.8577;-0.000312492;-0.000266105;5.27166e-05;0.000294587;0.000162204;0.00227459;0.00325714;0;0.0187191;0.000549666;-0.0311295;-0.108098;0.112492;-6.10044;-1.96045e-05;4.76373e-05;0.000132088;0.000145807;-3.33237e-05;8.95653e-05;0.14842;6.73763;0.000110008;0.00011942;4.37547;0.228547;43.3175;88.3175;0.000494352;-1.96146e-05;-5.48286e-05;0.000150088;0.000132087;0.00294279;-0.00153649;0;0.0250871;-0.00733649;0.778326
86000;87;25.7561;0.00246398;9.56751e-05;-2.42761;25.6413;0.091671;0.00748831;0.00355176;-0.073259;-0.00323765;-0.031631;-0.0424972;0.0530755;-6.19371;-9.26998e-05;0.000114922;0.000903768;0.00091685;-0.000105782;0.000511316;0.10257;9.74941;0.000649372;0.000681755;8.66737;0.115375;75.7747;120.775;-0.000369215;-9.27189e-05;2.64416e-06;0.000227088;0.000903775;0.0024261;0.00113306;0;0.0138509;0.00195566;-0.033551;-0.104843;0.110098;-6.09719;-1.64486e-05;2.37515e-05;4.40684e-05;5.22769e-05;-2.46571e-05;3.8467e-05;0.373253;2.67915;4.5362e-05;5.12893e-05;2.12015;0.471664;109.938;154.938;0.000295163;-1.64492e-05;8.87677e-05;-4.12609e-05;4.40647e-05;0.00385311;-0.00254027;0;0.022644;-0.0072897;0.786063
87000;88;25.7559;0.00227373;8.82877e-05;-2.42577;25.6413;0.0880692;0.00932537;0.00354714;-0.0768609;-0.00432518;-0.0327094;-0.046845;0.057298;-6.19806;-8.66039e-05;-0.000125472;0.000300483;0.000337595;-0.000123717;0.000230656;0.288216;3.46962;0.000275715;0.000307541;2.72878;0.366465;77.3326;122.333;-0.000537275;-8.65972e-05;-0.000298628;4.76171e-05;0.000300446;0.00324122;0.00252532;0;0.0184641;0.00180411;-0.0355686;-0.111219;0.116782;-6.10357;-0.000110799;9.12366e-05;-7.83956e-05;-1.93315e-06;-0.000187261;9.26639e-05;-1.41333;-0.707551;0.000124201;0.000123552;;;153.385;18.385;0.000491803;-0.000110804;4.36625e-05;0.000138809;-7.83924e-05;0.00271122;-0.00141569;0;0.0242518;-0.00718643;0.792772
88000;89;25.7544;0.000802354;3.1155e-05;-2.42644;25.6397;0.080297;0.00864849;0.00203066;-0.0846331;-0.00416984;-0.0367163;-0.0460943;0.0590776;-6.19731;-5.72193e-05;8.86551e-05;0.000814313;0.00082324;-6.61461e-05;0.000444693;0.0702669;14.2314;0.000572151;0.000592924;12.4458;0.0803485;69.093;114.093;-1.90391e-05;-5.72634e-05;-0.000132871;0.000309989;0.000814309;0.00213342;0.00312185;0;0.0168612;0.00199313;-0.0395727;-0.115004;0.121639;-6.10735;-0.000144585;0.000118585;-0.000137396;-2.23506e-05;-0.00025963;0.00011864;-1.05233;-0.950276;0.000166138;0.000158186;-0.0860865;-11.6162;169.93;34.9301;0.000694678;-0.000144688;-0.000232361;0.000469529;-0.000137416;0.00324716;-0.000359347;0;0.0268948;-0.00713964;0.800356
89000;90;25.7554;0.00177087;6.87621e-05;-2.4254;25.6408;0.0816151;0.00969195;0.00309807;-0.0833149;-0.0040973;-0.0379923;-0.0510997;0.0638074;-6.20231;-0.000249352;-5.0545e-05;0.000776383;0.000778868;-0.000251836;0.000515352;0.321171;3.11361;0.000620467;0.000687136;3.09275;0.323337;68.8313;113.831;-5.98476e-05;-0.00024938;-0.000343134;0.000241744;0.000776326;0.00213989;0.00256494;0;0.0116992;0.00272377;-0.0418772;-0.119229;0.126399;-6.11158;-0.000191646;6.35243e-05;-0.000373403;-0.000171645;-0.000393404;0.00011088;-0.513241;-1.9484;0.000227745;0.000147839;-0.436307;-2.29196;127.667;172.667;0.000379652;-0.00019169;-0.000176639;0.000303732;-0.000373417;0.00350828;-0.0026312;0;0.0234831;-0.00653939;0.807658
90000;91;25.756;0.00233715;9.07503e-05;-2.42563;25.6414;0.0787091;0.00946225;0.00365423;-0.086221;-0.00454836;-0.0417075;-0.051897;0.0667346;-6.20311;-0.000162175;-5.08555e-05;0.000644258;0.000647452;-0.00016537;0.000406411;0.251724;3.9726;0.000496034;0.000541881;3.91518;0.255416;64.3277;109.328;0.00032789;-0.000162233;-0.000445089;0.000343061;0.00064416;0.00123343;0.00447311;0;0.0134154;0.00212859;-0.0453337;-0.124651;0.132656;-6.117;-0.000195312;2.76005e-05;-0.000455346;-0.000192415;-0.000458244;0.000132914;-0.428931;-2.33138;0.000265696;0.000177219;-0.419896;-2.38154;119.247;164.247;0.000778422;-0.00019538;-0.000315109;0.0003704;-0.000455396;0.00316696;-0.00207658;0;0.0237187;-0.00605138;0.815558
91000;92;25.7565;0.00286105;0.000111093;-2.42546;25.6419;0.0783023;0.00963652;0.00419821;-0.0866278;-0.005097;-0.0433571;-0.05622;0.0711794;-6.20743;3.63031e-05;8.37929e-05;0.000576409;0.00058911;2.3602e-05;0.000282754;-0.0629816;-15.8777;0.000385114;0.000377005;-24.9601;-0.0400639;51.7541;96.7541;0.000458618;3.61272e-05;-0.000431736;0.000599044;0.000576319;0.00146658;0.00420482;0;0.0152935;0.00160094;-0.0469142;-0.130957;0.139116;-6.1233;-0.000284081;-0.000114236;-0.000445429;-0.000224905;-0.000504605;0.00013985;-0.63777;-1.56796;0.000291906;0.000186467;-0.445704;-2.24364;83.9107;128.911;0.00104565;-0.000284099;-0.000449344;0.000220926;-0.000445523;0.0028474;-0.000767807;0;0.0266109;-0.00511519;0.82225
92000;93;25.7546;0.000953904;3.70396e-05;-2.42612;25.6399;0.074574;0.00897594;0.00223116;-0.0903561;-0.0050568;-0.04878;-0.0560119;0.0744472;-6.20722;-0.000177772;-0.000269163;-0.000182231;8.91708e-05;-0.000449173;0.000269172;-0.97553;-1.02508;0.000333174;0.000358896;0.198522;5.03723;80.5499;125.55;2.36035e-05;-0.000177765;-0.000780557;0.000242234;-0.000182499;0.00265174;0.00431219;0;0.0111559;0.00163131;-0.050381;-0.13565;0.144713;-6.128;-0.000331718;-7.71697e-05;-0.000273241;-0.000219956;-0.000385003;8.25231e-05;-1.21401;-0.823715;0.000223034;0.000110031;-0.571312;-1.75036;52.3156;97.3156;0.00127584;-0.000331724;-0.000291914;0.000137562;-0.000273281;0.00274603;-0.000259369;0;0.0257636;-0.00469059;0.829304
93000;94;25.7527;-0.000877977;-3.40914e-05;-2.4262;25.6381;0.0657578;0.00889813;0.000407849;-0.0991723;-0.00472618;-0.0547987;-0.0533438;0.0766211;-6.20456;-0.000147807;-0.000147531;-0.000111586;1.89424e-05;-0.000278335;0.000148639;-1.32461;-0.754942;0.000192182;0.000198185;0.0680561;14.6938;76.9625;121.962;-0.000352108;-0.000147822;-0.000522323;0.000227247;-0.000111711;0.00305932;0.00391742;0;0.0104019;0.00223811;-0.0546693;-0.137392;0.147886;-6.12974;-0.000320413;-7.67888e-05;-0.000144922;-0.000116066;-0.000349269;0.000116601;-2.21094;-0.452296;0.000205396;0.000155468;-0.332312;-3.00922;34.3232;79.3232;0.00093959;-0.000320412;-0.000197662;4.4063e-05;-0.000144938;0.00383573;0.000497138;0;0.0250803;-0.00416145;0.835579
94000;95;25.7531;-0.000566711;-2.20051e-05;-2.42565;25.6385;0.0630224;0.00944094;0.000778738;-0.101908;-0.00434106;-0.0556608;-0.0579359;0.0804583;-6.20915;-0.000207225;-7.74365e-05;-0.000402899;-0.000180288;-0.000429835;0.000124773;-0.514336;-1.94425;0.000249237;0.000166365;-0.419436;-2.38415;94.6353;139.635;-0.000558672;-0.000207255;-0.000411697;0.00025689;-0.00040298;0.00216189;0.0041402;0;0.0204921;0.00269629;-0.0559812;-0.144606;0.155087;-6.13695;-0.000300623;-4.18094e-05;5.90059e-05;6.38026e-05;-0.00030542;0.000184611;5.0948;0.196279;0.000227878;0.000246148;0.208901;4.78695;166.135;31.1349;0.00115276;-0.000300633;6.25437e-05;-0.000146125;5.90049e-05;0.00280184;0.0010193;0;0.0283057;-0.00381709;0.838979
95000;96;25.756;0.00237757;9.23199e-05;-2.42652;25.6413;0.0694865;0.00856942;0.00363701;-0.0954436;-0.00316915;-0.0555835;-0.0680104;0.0878919;-6.21922;-0.0002505;-2.7593e-05;3.2854e-05;3.5516e-05;-0.000253162;0.000144339;7.62464;0.131154;0.000181774;0.000192452;0.14029;7.12811;39.0326;84.0326;-0.000448669;-0.000250526;-0.000284446;0.000229187;3.2814e-05;0.0022624;0.00257534;0;0.0415096;0.00371891;-0.0574388;-0.153051;0.163517;-6.1454;-0.000310993;-5.18851e-05;0.000236016;0.000240894;-0.000315871;0.000278383;1.31768;0.758911;0.000322419;0.000371177;0.762634;1.31125;40.6352;85.6352;0.00108825;-0.000310993;-0.000157927;5.40992e-05;0.000236005;0.00338243;0.0019659;0;0.029057;-0.00368348;0.845563
96000;97;25.7535;-0.000141297;-5.48651e-06;-2.42522;25.639;0.0577975;0.00987571;0.00125949;-0.107133;-0.0048371;-0.0613284;-0.0621964;0.0874812;-6.21341;-0.000213503;-0.000223006;-0.000198386;1.71892e-05;-0.000429078;0.000223134;-1.0762;-0.929193;0.000291951;0.000297512;0.0400607;24.9621;68.4886;113.489;-0.000413747;-0.000213479;-0.00045916;1.3145e-05;-0.000198466;0.00196991;0.00339478;0;0.0125466;0.00284603;-0.0609117;-0.155577;0.1671;-6.14792;-0.000312419;-4.63267e-05;0.000438997;0.000441843;-0.000315265;0.000378554;0.711666;1.40515;0.000439148;0.000504738;1.4015;0.713522;130.281;175.281;0.000996357;-0.000312452;0.000167939;-0.000260431;0.000438984;0.00303551;0.000814263;0;0.0254257;-0.0035294;0.852463
97000;98;25.7542;0.000618231;2.40056e-05;-2.42656;25.6396;0.0569043;0.00853166;0.00189724;-0.108026;-0.00405434;-0.0633517;-0.0638507;0.0900377;-6.21506;1.76069e-05;0.00014673;-5.44052e-05;0.000132684;-0.000169482;0.000151083;0.323625;3.08999;0.000174887;0.000201444;0.782878;1.27734;170.584;35.5844;-0.000592518;1.75547e-05;-6.14773e-05;0.000354952;-5.43963e-05;0.00173723;0.00314059;0;0.0213746;0.00342062;-0.063343;-0.159009;0.171195;-6.15136;-0.000165695;-7.61762e-05;0.000445859;0.000455205;-0.000175041;0.000315123;0.371631;2.69084;0.000375665;0.000420163;2.60057;0.384532;111.997;156.997;0.000803975;-0.000165704;4.75351e-06;-0.000157056;0.000445862;0.00306817;0.0006602;0;0.0268483;-0.00337898;0.859487
98000;99;25.7521;-0.00147303;-5.7197e-05;-2.42578;25.6376;0.0473536;0.00931731;-0.000109599;-0.117576;-0.00451446;-0.0670886;-0.0613655;0.0910329;-6.21258;-0.000126426;6.28783e-05;0.00012238;0.000137368;-0.000141414;0.000139391;1.03307;0.967992;0.00016096;0.000185855;0.971384;1.02946;31.3368;76.3368;-8.48254e-05;-0.000126465;-0.000160553;0.000286254;0.000122369;0.00157236;0.00313473;0;0.015857;0.00320811;-0.0670601;-0.161642;0.17503;-6.15399;-0.000130425;-5.26322e-05;0.000380836;0.000386198;-0.000135787;0.000260993;0.342471;2.91996;0.000312714;0.00034799;2.84414;0.3516;114.096;159.096;0.000876915;-0.000130434;4.02462e-05;-0.000145463;0.000380837;0.00158207;-0.00112677;0;0.0235999;-0.00279646;0.866647
99000;100;25.754;0.000418247;1.62403e-05;-2.42624;25.6395;0.0467932;0.00885547;0.00174746;-0.118137;-0.00381319;-0.0696891;-0.0624547;0.0936573;-6.21367;-0.000151371;7.18908e-05;-0.000152406;-7.99958e-05;-0.000223781;7.18927e-05;-0.993212;-1.00683;0.000130938;9.58569e-05;-0.357473;-2.79741;159.537;24.5374;-0.000427294;-0.0001514;-0.000105822;0.000249603;-0.000152409;0.00269501;0.00333574;0;0.016099;0.00345742;-0.0699805;-0.166589;0.180724;-6.15894;-4.97644e-05;-1.37373e-05;0.000186089;0.000186887;-5.05619e-05;0.000118724;0.267422;3.7394;0.000144426;0.000158299;3.6962;0.270548;121.418;166.418;0.00101709;-4.9771e-05;8.80745e-05;-0.000115525;0.000186085;0.00176056;-0.000380785;0;0.023171;-0.00127227;0.874252
100000;101;25.7549;0.00126057;4.89471e-05;-2.4262;25.6403;0.0446646;0.00889614;0.00260118;-0.120265;-0.00362014;-0.0725091;-0.0663051;0.0983211;-6.21752;-0.000163662;7.44454e-05;-0.00034074;-0.000136523;-0.000367878;0.000115677;-0.480313;-2.08197;0.000214734;0.000154237;-0.37111;-2.69462;126.629;171.629;-0.0002567;-0.000163688;-9.05313e-05;0.000239451;-0.000340741;0.000939232;0.00382479;0;0.0198242;0.00369128;-0.0742158;-0.175314;0.190412;-6.16766;7.4611e-05;0.000100327;-2.88517e-05;0.000135758;-8.99989e-05;0.000112879;2.58601;0.386695;0.00013123;0.000150505;1.50844;0.662935;169.129;34.1292;0.000889049;7.45594e-05;-0.000136045;0.000336722;-2.8856e-05;0.00183727;-0.00104119;0;0.0241085;-0.00031287;0.881356
101000;102;25.7585;0.00490039;0.00019028;-2.42528;25.644;0.047861;0.00980966;0.00633792;-0.117069;-0.00400568;-0.0722043;-0.0760678;0.104956;-6.22728;-5.74978e-05;0.000128886;0.000348901;0.000386329;-9.4926e-05;0.000240628;0.164797;6.06808;0.000294342;0.000320837;4.06979;0.245713;45.4062;90.4062;-0.000122411;-5.75513e-05;-9.38955e-05;0.000351577;0.000348905;0.00150302;0.00458142;0;0.0180847;0.00351175;-0.0770363;-0.187277;0.202533;-6.17962;9.84196e-05;0.000141451;-0.000200618;0.000154727;-0.000256925;0.000205826;0.490582;2.03839;0.000240096;0.000274435;0.602225;1.66051;147.846;12.8463;0.00161709;9.83842e-05;-1.84062e-05;0.000301356;-0.000200608;0.0019951;-0.00100862;0;0.0248815;6.29223e-05;0.88883
102000;103;25.758;0.00433256;0.000168231;-2.42582;25.6434;0.0355677;0.00927635;0.00573711;-0.129362;-0.00212971;-0.0798442;-0.0633383;0.101938;-6.21455;-2.96565e-05;0.000269212;-0.000152779;0.000184943;-0.000367378;0.000276161;-0.194114;-5.15161;0.00032463;0.000368214;0.503413;1.98644;162.511;27.511;0.00057675;-2.97422e-05;4.4638e-05;0.000493813;-0.000152743;0.0018047;0.00608076;0;0.0216898;0.00490001;-0.0841218;-0.184238;0.202593;-6.17658;-0.000146853;0.000151105;-0.000443741;-8.3476e-05;-0.000507118;0.000211821;-0.330944;-3.02166;0.000313974;0.000282428;-0.164608;-6.07502;135.813;0.812579;0.00157478;-0.000146947;-0.000155743;0.000458044;-0.000443742;0.00163491;-0.000657661;0;0.0261504;0.000185384;0.896283
103000;104;25.7577;0.00404219;0.000156956;-2.42483;25.6433;0.0313322;0.010265;0.00554447;-0.133598;-0.00255068;-0.0849738;-0.060989;0.104627;-6.2122;-0.000141158;-0.000143162;0.00044286;0.000476066;-0.000174364;0.000325215;0.318742;3.13733;0.000388759;0.00043362;2.7303;0.36626;70.7397;115.74;0.000266885;-0.000141163;-0.000461644;0.000175133;0.000442764;0.00187117;0.00503841;0;0.0144769;0.00443916;-0.0894232;-0.187472;0.207754;-6.17982;-0.000234943;-2.77933e-07;-0.000557312;-0.000234943;-0.000557313;0.000161185;-0.421564;-2.37212;0.000323082;0.000214913;-0.421564;-2.37212;112.817;157.817;0.00173293;-0.000235025;-0.000406364;0.000405939;-0.000557395;0.00144876;0.00057457;0;0.0243832;0.000488796;0.902355
104000;105;25.7592;0.00562439;0.000218392;-2.42532;25.6448;0.0335812;0.00977648;0.00708469;-0.131349;-0.00230505;-0.0848665;-0.067296;0.108335;-6.21851;-0.000150477;-6.84572e-05;0.000258791;0.000269938;-0.000161624;0.000215781;0.581461;1.71981;0.000251765;0.000287708;1.67016;0.598744;58.3011;103.301;0.000229123;-0.000150523;-0.000449345;0.000312274;0.000258693;0.0025509;0.00569533;0;0.0170766;0.0052244;-0.0898355;-0.196504;0.216128;-6.18885;-0.000160271;5.4065e-06;-0.00057227;-0.0001602;-0.000572341;0.00020607;-0.280063;-3.57063;0.000340946;0.00027476;-0.279904;-3.57266;112.134;157.134;0.00151488;-0.00016033;-0.000333087;0.000344039;-0.000572325;0.00215483;0.00119511;0;0.0266253;0.0021848;0.907484
105000;106;25.7604;0.00679851;0.000263983;-2.42447;25.6461;0.0323107;0.0106216;0.00834558;-0.132619;-0.00184601;-0.0831637;-0.0782597;0.114211;-6.22947;-7.16903e-05;-0.000152181;0.000353077;0.000401971;-0.000120584;0.000261278;0.203045;4.92502;0.000315941;0.00034837;3.33352;0.299983;71.6908;116.691;0.000659205;-7.17201e-05;-0.000591939;0.000287389;0.000352913;0.00120963;0.00640259;0;0.0294902;0.0061054;-0.0890758;-0.209793;0.228002;-6.20214;-0.000244515;5.0609e-05;-0.000461497;-0.000233291;-0.000472721;0.000119715;-0.529829;-1.8874;0.000272933;0.00015962;-0.493507;-2.02631;125.226;170.226;0.00201683;-0.000244597;-0.000307681;0.000408977;-0.000461543;0.00132034;0.00134849;0;0.0323088;0.00373695;0.9116
106000;107;25.7606;0.00698163;0.000271093;-2.42455;25.6462;0.0290604;0.0105454;0.00852621;-0.13587;-0.00138759;-0.087169;-0.0715284;0.112768;-6.22274;-0.000157227;-4.10105e-05;0.00015151;0.000156865;-0.000162582;0.000159723;1.03774;0.963635;0.000184442;0.000212964;0.964832;1.03645;52.2569;97.2569;-7.40186e-05;-0.000157304;-0.000476122;0.000393966;0.000151397;0.00252842;0.00703931;0;0.0173196;0.00641001;-0.0924794;-0.209178;0.228799;-6.20152;-0.000254419;2.50339e-05;-0.000380241;-0.000249621;-0.000385038;6.77085e-05;-0.669101;-1.49454;0.000225538;9.0278e-05;-0.648303;-1.54249;121.969;166.969;0.00164634;-0.000254468;-0.000262958;0.000313062;-0.000380275;0.00245997;0.000948282;0;0.0263109;0.0039837;0.918311
107000;108;25.7599;0.00623821;0.000242226;-2.42405;25.6455;0.0223773;0.0110462;0.00783351;-0.142553;-0.00114384;-0.0884911;-0.0741163;0.115435;-6.22533;-0.000201501;-0.000164308;0.00056655;0.000600223;-0.000235175;0.000417699;0.355664;2.81164;0.00049743;0.000556932;2.55224;0.391812;67.0758;112.076;0.000592433;-0.000201536;-0.000640672;0.000311691;0.000566358;0.00231941;0.00716356;0;0.0229948;0.0070417;-0.0937549;-0.217008;0.2365;-6.20935;-0.000321868;1.82089e-05;-0.000177401;-0.000175141;-0.000324128;7.44933e-05;-1.81436;-0.55116;0.000187338;9.93244e-05;-0.540346;-1.85067;10.4061;55.4061;0.0018403;-0.000321886;-0.000156291;0.000192684;-0.000177413;0.0022649;0.0024162;0;0.0314676;0.00546147;0.925594
108000;109;25.7601;0.00645073;0.000250478;-2.42286;25.6459;0.0168355;0.0122325;0.00816332;-0.148095;-0.000785305;-0.0884395;-0.0741331;0.115403;-6.22534;-6.28259e-05;4.13615e-05;0.00027985;0.000284772;-6.77476e-05;0.00017626;0.224498;4.45437;0.000216001;0.000235013;4.20342;0.237901;45.2897;90.2897;0.000358147;-6.29364e-05;-0.000389508;0.000472084;0.000279775;0.00187481;0.00636303;0;0.016998;0.00792683;-0.093445;-0.223134;0.242041;-6.21548;-0.00036261;-8.9557e-06;-0.000187583;-0.000187126;-0.000363067;8.79706e-05;-1.93306;-0.517313;0.00020965;0.000117294;-0.515403;-1.94023;23.9636;68.9636;0.00209804;-0.000362639;-0.000257313;0.000239358;-0.000187616;0.00157775;0.00261615;0;0.0306101;0.00771713;0.933345
109000;110;25.7601;0.00645361;0.00025059;-2.42352;25.6458;0.0137303;0.0115698;0.00810544;-0.1512;-0.000814754;-0.0894087;-0.0773003;0.118194;-6.22851;-0.000223377;-7.4689e-05;0.000576083;0.000583001;-0.000230295;0.000406648;0.387751;2.57897;0.000484052;0.000542197;2.53154;0.395016;60.6122;105.612;0.000422659;-0.000223452;-0.000543415;0.000393663;0.000575939;0.00249733;0.00877364;0;0.0200592;0.00844137;-0.0940428;-0.231701;0.250201;-6.22405;-0.000382564;-6.62336e-05;-0.000123433;-0.000107485;-0.000398512;0.000145513;-3.09937;-0.322647;0.000238076;0.000194018;-0.269717;-3.7076;13.4017;58.4017;0.00212595;-0.000382564;-6.50302e-05;-6.74367e-05;-0.000123433;0.000374017;0.0036305;0;0.0303777;0.0079138;0.940493
110000;111;25.7594;0.00579206;0.000224903;-2.42323;25.6452;0.00383478;0.0118606;0.00747182;-0.161095;-0.00064594;-0.0898911;-0.0777878;0.118877;-6.229;-0.00017994;0.000126258;0.000578988;0.000599442;-0.000200394;0.000399918;0.310784;3.21767;0.000480561;0.000533223;2.99132;0.3343;44.7396;89.7396;0.000983693;-0.00018021;-0.000493065;0.000745111;0.000578874;0.00195967;0.00728416;0;0.0143019;0.00862998;-0.0942971;-0.238717;0.256811;-6.23106;-0.000208343;-1.98633e-05;-9.01725e-05;-8.6923e-05;-0.000211592;6.23347e-05;-2.31049;-0.432808;0.000122809;8.31129e-05;-0.410804;-2.43425;24.7838;69.7838;0.00209981;-0.000208345;-0.000109486;6.97488e-05;-9.01783e-05;0.000196417;0.00263929;0;0.0280653;0.00944037;0.948228
111000;112;25.7589;0.00524677;0.000203729;-2.42288;25.6447;-0.00165668;0.0122103;0.00695737;-0.166587;3.14741e-05;-0.0918377;-0.0761724;0.119316;-6.22738;-0.000175999;-5.23236e-06;0.000717165;0.000717196;-0.00017603;0.000446613;0.245409;4.07482;0.000546343;0.000595484;4.07429;0.245442;57.4485;102.449;0.000421191;-0.000176177;-0.000607417;0.000596414;0.000716981;0.00260713;0.00892543;0;0.0152679;0.0095215;-0.0957036;-0.242598;0.260967;-6.23494;-0.000213963;-0.00011834;7.49346e-05;0.00011722;-0.000256249;0.000186734;2.85533;0.350222;0.000220546;0.000248979;0.457447;2.18605;45.703;90.703;0.00218502;-0.000213957;-0.000207572;-2.91334e-05;7.492e-05;0.000533894;0.00400567;0;0.0286027;0.0109196;0.955303
112000;113;25.7574;0.00377912;0.000146741;-2.42334;25.6431;-0.00837327;0.0117503;0.0054384;-0.173303;-0.000250199;-0.0962133;-0.0728258;0.120668;-6.22404;2.36127e-06;0.000134984;0.000764526;0.000787726;-2.08392e-05;0.000404283;;;0.000532233;0.000539044;37.8003;0.0264548;49.1703;94.1703;0.00113182;1.99942e-06;-0.000591939;0.000861355;0.00076436;0.00210497;0.00919065;0;0.0160748;0.00981458;-0.0985667;-0.245461;0.264694;-6.23781;-0.000180315;-0.000106064;0.000153771;0.000184599;-0.000211143;0.000197871;1.17262;0.852794;0.000228653;0.000263828;0.874287;1.14379;57.5669;102.567;0.00207708;-0.000180309;-0.000209931;-2.23277e-06;0.000153755;-0.000525547;0.00461718;0;0.0264264;0.0130568;0.963338
113000;114;25.7556;0.00201776;7.83484e-05;-2.42256;25.6414;-0.0174992;0.0125332;0.00373857;-0.182429;0.000562947;-0.0995407;-0.0735274;0.123754;-6.22474;-8.13833e-05;0.000109107;0.000839391;0.000852143;-9.41353e-05;0.000473139;0.0969552;10.314;0.000601932;0.000630852;9.05232;0.110469;51.0638;96.0638;0.00085101;-8.17876e-05;-0.00068825;0.00090573;0.00083916;0.00154559;0.00801708;0;0.0170243;0.0112704;-0.100738;-0.253375;0.272899;-6.24572;-0.000289854;-5.18734e-05;0.000212518;0.000217818;-0.000295154;0.000256486;1.3639;0.733191;0.000297284;0.000341981;0.737982;1.35505;148.837;13.8367;0.00202107;-0.00028987;8.29303e-05;-0.000186609;0.000212516;-0.000142867;0.00220767;0;0.028247;0.0145996;0.969181
114000;115;25.7518;-0.00179271;-6.96099e-05;-2.42187;25.6377;-0.0309104;0.0132257;-3.61007e-05;-0.19584;0.00205613;-0.103699;-0.0709979;0.125692;-6.22221;-0.000204361;3.79774e-05;0.0010194;0.00102058;-0.000205539;0.000613059;0.200471;4.98824;0.000758243;0.000817413;4.96539;0.201394;57.4887;102.489;0.000884141;-0.000204671;-0.000712961;0.000787997;0.00101915;0.0024479;0.0074748;0;0.0149406;0.0129819;-0.102853;-0.260079;0.279979;-6.25242;-0.000240914;-0.000168161;0.000243681;0.000296317;-0.000293551;0.000294934;0.988647;1.01148;0.000340562;0.000393245;1.00942;0.990664;124.657;169.657;0.00208549;-0.000240914;-0.000167208;-0.000169113;0.000243681;-0.000320325;0.00318621;0;0.0272512;0.0177798;0.976537
115000;116;25.754;0.000398996;1.54928e-05;-2.42149;25.6399;-0.0368569;0.013603;0.00219314;-0.201787;0.00219432;-0.105651;-0.0745271;0.129311;-6.22574;-0.000233864;-1.43912e-05;0.000703294;0.000703515;-0.000234085;0.0004688;0.332526;3.00728;0.000563485;0.000625066;3.00539;0.332736;54.4396;99.4396;0.000751379;-0.000234144;-0.000777876;0.000748378;0.000702991;0.00222504;0.00847484;0;0.0359955;0.0135484;-0.10624;-0.267696;0.288326;-6.26004;6.92452e-06;-1.64289e-05;0.000184936;0.00018644;5.42098e-06;9.05093e-05;;;0.000122526;0.000120679;;;97.4243;142.424;0.00168701;6.92437e-06;-9.06208e-06;-2.37944e-05;0.000184936;0.000110445;0.00384326;0;0.0275027;0.0198715;0.980004
116000;117;25.7531;-0.000520472;-2.02097e-05;-2.42099;25.639;-0.0387077;0.0141079;0.00131453;-0.203638;8.16568e-05;-0.10948;-0.073972;0.132128;-6.22518;-0.000188361;-0.000100636;0.000275653;0.000296539;-0.000209247;0.000252893;0.683325;1.46343;0.000293462;0.000337191;1.41717;0.705629;58.2354;103.235;0.000861742;-0.000188624;-0.000934387;0.000732728;0.000275222;0.00303205;0.00815815;0;0.0147472;0.0125781;-0.108421;-0.275359;0.296202;-6.2677;-0.000101986;-7.34734e-06;-1.64727e-05;-1.5846e-05;-0.000102613;4.33833e-05;-6.19122;-0.161519;6.37859e-05;5.78444e-05;-0.154425;-6.47562;15.0935;60.0935;0.00181686;-0.000101986;-2.94171e-05;1.47205e-05;-1.64731e-05;0.000979699;0.00231511;0;0.0281018;0.0222372;0.983259
117000;118;25.7521;-0.00154048;-5.98162e-05;-2.4186;25.6382;-0.0516832;0.0164973;0.000492629;-0.216613;0.00155213;-0.113528;-0.0741621;0.135614;-6.22537;-0.00025975;-5.85503e-05;-1.0695e-05;2.38286e-06;-0.000272828;0.000137605;-24.2871;-0.0411742;0.000182685;0.000183474;;;51.8205;96.8205;2.46872e-05;-0.00025993;-0.000719691;0.000602426;-1.09523e-05;0.00320112;0.0087408;0;0.0135178;0.014247;-0.112249;-0.283961;0.305674;-6.27631;2.34142e-06;0.000113284;-0.000431007;3.01686e-05;-0.000458834;0.000244501;;;0.000316425;0.000326002;0.0657506;15.209;132.168;177.168;0.00186336;2.25107e-06;-0.000213209;0.000439919;-0.000431023;0.00100899;0.00181893;0;0.0264805;0.0260165;0.991109
118000;119;25.7514;-0.00220658;-8.56803e-05;-2.41991;25.6374;-0.0574479;0.0151867;-0.000312364;-0.222378;0.00238102;-0.116169;-0.0722753;0.136838;-6.22349;-9.78148e-05;2.44669e-05;-5.60758e-06;4.82418e-07;-0.000103905;5.21936e-05;;;6.94312e-05;6.95914e-05;;;28.9814;73.9814;0.00042862;-9.80922e-05;-0.000696406;0.000745273;-5.84977e-06;0.00293619;0.00670069;0;0.0179658;0.0155937;-0.114974;-0.289994;0.312344;-6.28234;8.82108e-06;7.70925e-05;-0.000628623;1.80121e-05;-0.000637814;0.000327913;;;0.000431339;0.000437217;0.0282404;35.4102;124.67;169.67;0.00151823;8.68256e-06;-0.000377489;0.000531964;-0.000628691;0.00181569;0.00319374;0;0.0274614;0.0296619;0.997173
119000;120;25.7481;-0.00547855;-0.000212729;-2.41864;25.6342;-0.0699018;0.0164566;-0.00350998;-0.234832;0.00310106;-0.118145;-0.0714782;0.13812;-6.22269;-0.000130968;0.000234546;-9.22584e-05;0.000123729;-0.000346956;0.000235343;-1.41958;-0.704432;0.000281753;0.00031379;0.356614;2.80415;178.363;43.3626;0.000268284;-0.000131468;-0.000558098;0.00102716;-9.23866e-05;0.00313537;0.00669018;0;0.0176302;0.0165972;-0.116589;-0.296656;0.319176;-6.289;1.14388e-05;6.5523e-05;-0.000695462;1.74608e-05;-0.000701484;0.000359472;0.0164477;60.7987;0.000473584;0.000479297;0.0248913;40.1748;122.202;167.202;0.00148689;1.12981e-05;-0.000403039;0.000534416;-0.000695541;0.00134135;0.00208426;0;0.0249313;0.0337822;1.00491
120000;121;25.7499;-0.00375684;-0.000145876;-2.41795;25.636;-0.0765807;0.0171461;-0.00173466;-0.241511;0.0028712;-0.123546;-0.0623606;0.138422;-6.21357;-0.000175821;-4.49776e-05;6.68139e-05;7.48831e-05;-0.00018389;0.000129387;2.6315;0.380012;0.000153758;0.000172515;0.407217;2.45569;53.1614;98.1614;0.000705495;-0.000176084;-0.000816528;0.000726385;6.64816e-05;0.00274469;0.00730053;0;0.0158752;0.0167478;-0.12216;-0.29438;0.31916;-6.28673;-0.000106126;-9.23412e-05;-0.000840906;-9.46988e-05;-0.000852333;0.000378817;-0.126204;-7.92367;0.000539433;0.000505089;-0.111105;-9.00046;109.543;154.543;0.00154051;-0.000106267;-0.000724402;0.000540184;-0.000841164;0.00127474;0.00345254;0;0.0246815;0.0393458;1.0125
121000;122;25.751;-0.00260977;-0.000101336;-2.41748;25.6372;-0.0810633;0.0176086;-0.000552662;-0.245993;0.00446086;-0.12187;-0.0697384;0.140484;-6.22095;-0.00027342;3.03339e-05;0.000213995;0.000215876;-0.000275301;0.000245588;1.27769;0.782662;0.000284272;0.000327451;0.784146;1.27527;40.3692;85.3692;0.000228844;-0.000273746;-0.000747232;0.000807521;0.000213717;0.00358843;0.00649017;0;0.0159201;0.018261;-0.121232;-0.306633;0.330234;-6.29898;-7.77997e-05;-6.10811e-05;-0.000699964;-7.18598e-05;-0.000705904;0.000317022;-0.111148;-8.99701;0.000448572;0.000422696;-0.101798;-9.82336;109.108;154.108;0.00129641;-7.78744e-05;-0.000513142;0.000391261;-0.000700094;0.00191126;0.00299432;0;0.025154;0.0449354;1.02021
122000;123;25.7511;-0.0025243;-9.80172e-05;-2.4164;25.6373;-0.0864252;0.0186976;-0.000381652;-0.251355;0.0040958;-0.121647;-0.0707465;0.140783;-6.22196;-8.64685e-05;-0.000235332;0.000344694;0.000448262;-0.000190036;0.000319149;0.250856;3.98635;0.000378441;0.000425532;2.35882;0.423941;73.555;118.555;-0.00025821;-8.6581e-05;-0.00100052;0.000529528;0.000344221;0.00441081;0.00649069;0;0.0203837;0.018631;-0.122091;-0.310998;0.334624;-6.30334;-0.000173026;-0.000118936;-0.000670625;-0.000146059;-0.000697592;0.000275766;-0.258007;-3.87586;0.000424828;0.000367688;-0.209377;-4.77608;93.6609;138.661;0.00171452;-0.000173031;-0.000391323;0.000153586;-0.000670694;0.00138877;0.00431619;0;0.0310056;0.0513096;1.02667
123000;124;25.7542;0.000580939;2.25576e-05;-2.41673;25.6404;-0.0876461;0.0183641;0.00270178;-0.252576;0.00459867;-0.122261;-0.0788729;0.145567;-6.23008;-0.000188833;-6.89131e-05;0.000116393;0.000131231;-0.000203671;0.000167451;1.62238;0.616378;0.000194858;0.000223268;0.644326;1.55201;55.7529;100.753;1.12629e-05;-0.000189054;-0.000805125;0.000667074;0.000116071;0.00429296;0.00610225;0;0.0154117;0.0190581;-0.123075;-0.325695;0.348695;-6.31804;-0.000152136;-5.24552e-05;-0.000638664;-0.000146545;-0.000644255;0.000248855;-0.23821;-4.19798;0.000389944;0.000331807;-0.227464;-4.3963;103.106;148.106;0.00149533;-0.000152169;-0.00036538;0.000260622;-0.000638729;0.00146146;0.00417895;0;0.027267;0.0596664;1.03414
124000;125;25.751;-0.00264939;-0.000102874;-2.41638;25.6372;-0.0947281;0.0187094;-0.000535524;-0.259658;0.00511069;-0.129715;-0.0644325;0.144926;-6.21564;-9.79052e-05;5.22358e-05;0.000180186;0.000189674;-0.000107393;0.000148534;0.543357;1.84041;0.000173691;0.000198045;1.76616;0.5662;36.1066;81.1066;0.000501873;-9.83086e-05;-0.000795461;0.000899697;0.000179871;0.00371383;0.00590585;0;0.0199109;0.0196007;-0.127943;-0.318005;0.343337;-6.31035;-0.000293054;-9.52617e-05;-0.000526592;-0.000259125;-0.000560521;0.000150698;-0.556511;-1.79691;0.000323923;0.00020093;-0.462294;-2.16312;83.445;128.445;0.00145227;-0.000293055;-0.000295898;0.000105422;-0.000526631;0.00270255;0.0053698;0;0.0277088;0.0696015;1.04144
125000;126;25.754;0.000374031;1.45234e-05;-2.4169;25.6402;-0.0968225;0.018193;0.00244482;-0.261753;0.0066072;-0.130659;-0.0721292;0.149393;-6.22334;-0.000170161;-9.30782e-05;-1.52421e-06;3.97485e-05;-0.000211434;0.000125591;;;0.000155904;0.000167455;0.187995;5.3193;65.9822;110.982;0.000705737;-0.000170431;-0.000925747;0.000739451;-1.94839e-06;0.00394568;0.0065853;0;0.0248074;0.0211099;-0.129968;-0.329342;0.354688;-6.32169;-0.000216125;-9.51648e-05;-0.000430872;-0.000180022;-0.000466974;0.000143476;-0.501598;-1.99363;0.000271954;0.000191302;-0.385507;-2.59398;70.92;115.92;0.00134854;-0.000216123;-0.000114322;-7.60033e-05;-0.000430874;0.00293504;0.00686546;0;0.0313719;0.0776233;1.04754
126000;127;25.754;0.00041617;1.61597e-05;-2.41622;25.6402;-0.103348;0.0188738;0.00252584;-0.268278;0.00738315;-0.13057;-0.0751233;0.15082;-6.22634;-0.000144602;9.33602e-05;0.000268338;0.000288464;-0.000164728;0.000226596;0.53888;1.8557;0.000264882;0.000302128;1.75115;0.571053;34.7696;79.7696;0.000380653;-0.000145112;-0.000827638;0.00101398;0.000268;0.00413568;0.00641584;0;0.0210665;0.0216514;-0.130121;-0.336388;0.361327;-6.32873;-0.000162019;-0.000122919;-0.000244747;-7.36911e-05;-0.000333075;0.000129692;-0.661986;-1.51061;0.000202017;0.000172922;-0.221245;-4.51987;34.8425;79.8425;0.00113371;-0.000162053;4.12212e-05;-0.000287072;-0.00024474;0.00239872;0.00690226;0;0.0270794;0.0903929;1.05094
127000;128;25.7538;0.000164867;6.40169e-06;-2.417;25.6399;-0.108289;0.0180979;0.00217989;-0.273219;0.00890119;-0.135294;-0.0736514;0.154299;-6.22486;-9.07039e-05;0.00019044;-9.99401e-05;9.51741e-05;-0.000285818;0.000190496;-0.907583;-1.10183;0.000228961;0.000253995;0.332988;3.00311;176.334;41.3336;0.000435366;-9.1293e-05;-0.00072107;0.00110196;-0.000100182;0.00426084;0.00653693;0;0.0148343;0.0229973;-0.134367;-0.338837;0.365232;-6.33118;-0.000125834;-9.43328e-05;-8.91113e-05;-1.13694e-05;-0.000203576;9.61031e-05;-1.41209;-0.708168;0.00013209;0.000128137;-0.0558485;-17.9056;6.13071;51.1307;0.000778616;-0.000125888;0.00015541;-0.000344066;-8.9119e-05;0.00335781;0.00890987;0;0.02538;0.10513;1.05913
128000;129;25.7544;0.000817797;3.17546e-05;-2.41748;25.6405;-0.109505;0.0176092;0.00278449;-0.274435;0.00978918;-0.134339;-0.0743978;0.153876;-6.22561;-0.000244479;0.000116429;0.000242826;0.000269215;-0.000270868;0.000270041;1.00681;0.99324;0.000311817;0.000360055;0.993899;1.00614;32.2213;77.2213;0.000395799;-0.000245125;-0.000910136;0.00114249;0.000242419;0.00492576;0.00624409;0;0.0377169;0.0238338;-0.133718;-0.342891;0.368812;-6.33524;-0.00019545;-7.31296e-05;-4.37454e-05;-1.4234e-05;-0.000224961;0.000105364;-4.46789;-0.223819;0.000145462;0.000140485;-0.063273;-15.8045;167.683;32.6835;0.000721725;-0.000195518;0.000231698;-0.000377911;-4.37696e-05;0.00225895;0.00827844;0;0.0371256;0.117272;1.06411
129000;130;25.7528;-0.000827337;-3.21251e-05;-2.41843;25.6387;-0.116506;0.0166591;0.00101159;-0.281436;0.0120522;-0.140288;-0.0703558;0.157404;-6.22157;-0.000127168;5.39768e-05;0.000215125;0.000223435;-0.000135478;0.000179457;0.591137;1.69165;0.000209282;0.000239275;1.64923;0.606344;37.4383;82.4383;0.00094805;-0.0001278;-0.00101774;0.00112533;0.000214608;0.0038022;0.0072028;0;0.0163244;0.0257996;-0.139278;-0.342702;0.370821;-6.33505;-0.00011842;-5.64012e-05;0.000156806;0.000167916;-0.00012953;0.000148723;0.755202;1.32415;0.000172206;0.000198297;1.29635;0.771398;145.335;10.3352;0.000184934;-0.000118696;0.000632397;-0.00074501;0.000156608;0.00411191;0.00834882;0;0.023673;0.13425;1.07156
130000;131;25.7539;0.000262465;1.01914e-05;-2.4186;25.6398;-0.119889;0.0164954;0.0020752;-0.284819;0.0123372;-0.139776;-0.0734959;0.158402;-6.22471;-0.000164601;0.000179714;0.000355696;0.000411735;-0.00022064;0.000316188;0.462758;2.16096;0.000370617;0.000421584;1.86609;0.535879;30.2835;75.2835;0.0007488;-0.000165347;-0.000875793;0.00123467;0.000355329;0.00462222;0.00715935;0;0.0178989;0.0255276;-0.139127;-0.349363;0.376912;-6.34171;-6.77466e-05;-0.000141304;0.000105159;0.000184359;-0.000146947;0.000165653;0.644233;1.55223;0.000191686;0.00022087;1.2546;0.79707;163.539;28.5393;0.000198716;-6.81281e-05;0.000602368;-0.000884847;0.000104987;0.00343513;0.00957158;0;0.024425;0.153069;1.07951
131000;132;25.754;0.000353353;1.37205e-05;-2.42025;25.6397;-0.120834;0.0148417;0.00200601;-0.285765;0.0141145;-0.142635;-0.0719885;0.160394;-6.2232;-0.000211079;1.16099e-05;0.000361433;0.000361668;-0.000211314;0.000286491;0.584005;1.71231;0.000334587;0.000381988;1.71152;0.584276;45.7562;90.7562;0.00140581;-0.000211731;-0.00111985;0.00114242;0.000360806;0.00313754;0.00730134;0;0.0177048;0.0268319;-0.141684;-0.350641;0.379135;-6.34299;5.75718e-06;-1.92718e-05;8.8038e-05;9.23281e-05;1.46704e-06;4.54306e-05;;;6.1069e-05;6.05741e-05;;;145.801;10.8012;-0.000310926;5.44423e-06;0.000752892;-0.000791372;8.77548e-05;0.00348765;0.00767653;0;0.0263051;0.168444;1.08631
132000;133;25.7536;-6.18396e-05;-2.4012e-06;-2.4206;25.6393;-0.123553;0.0144954;0.00154332;-0.288483;0.0155097;-0.144914;-0.0707614;0.162011;-6.22197;-0.000128665;7.81888e-05;0.000590876;0.000599275;-0.000137063;0.000368169;0.217753;4.59236;0.000452182;0.000490892;4.37224;0.228716;44.0293;89.0293;0.00162194;-0.000129576;-0.0011962;0.00135166;0.000590164;0.00420623;0.00701587;0;0.0162232;0.0276916;-0.144805;-0.351979;0.381608;-6.34433;5.45967e-05;-6.73224e-05;9.31297e-05;0.000143888;3.83819e-06;7.0025e-05;-0.586244;-1.70577;9.4672e-05;9.33667e-05;;;169.572;34.5721;-0.000429943;5.41611e-05;0.000801298;-0.00093591;9.28109e-05;0.00330344;0.00879947;0;0.0235352;0.186546;1.09308
133000;134;25.7514;-0.00220081;-8.54563e-05;-2.42118;25.637;-0.130454;0.0139168;-0.000694018;-0.295384;0.0186629;-0.147756;-0.0721575;0.16549;-6.22337;-0.00017273;2.67693e-05;0.00074786;0.000748638;-0.000173508;0.000461073;0.230966;4.32965;0.000565865;0.000614764;4.31472;0.231765;49.1809;94.1809;0.00152393;-0.000173739;-0.00136876;0.00142102;0.000746924;0.00452;0.00744117;0;0.031666;0.0308294;-0.146593;-0.359159;0.389147;-6.3515;0.000120348;-0.000103694;2.87056e-05;0.000187894;-3.88404e-05;0.000113367;-4.19249;-0.238522;0.000140017;0.000151156;4.83759;0.206715;9.94663;54.9466;-0.00119601;0.000119642;0.000985147;-0.00119264;2.82257e-05;0.004408;0.0098543;0;0.024764;0.213426;1.10005
134000;135;25.7525;-0.00115872;-4.49924e-05;-2.42228;25.638;-0.130447;0.012815;0.000248693;-0.295377;0.019705;-0.148391;-0.067037;0.164019;-6.21825;-0.000262979;-0.000115673;0.000544278;0.000560526;-0.000279227;0.000419876;0.48317;2.06967;0.000493815;0.000559835;2.00742;0.498151;56.0177;101.018;0.00129989;-0.000263717;-0.00145324;0.00122082;0.000543229;0.00476296;0.00712426;0;0.0151224;0.0308887;-0.148065;-0.353857;0.384827;-6.3462;9.34281e-07;-7.5767e-05;-2.5582e-05;6.45944e-05;-8.92421e-05;7.69182e-05;;;8.91967e-05;0.000102558;0.723811;1.38158;5.32159;50.3216;-0.00148081;4.13205e-07;0.000872108;-0.00102367;-2.59594e-05;0.00516788;0.0102787;0;0.0244749;0.229435;1.10779
135000;136;25.7546;0.000955147;3.70879e-05;-2.42355;25.64;-0.128307;0.0115458;0.00226286;-0.293237;0.0216184;-0.150025;-0.0771751;0.17009;-6.22839;-0.000201172;4.66548e-05;0.000833476;0.000835576;-0.000203271;0.000519424;0.241365;4.14311;0.000635734;0.000692565;4.11064;0.243271;48.2335;93.2335;0.00155275;-0.000202434;-0.00149783;0.00158954;0.000832357;0.00527063;0.00757166;0;0.0491028;0.0316973;-0.151487;-0.363878;0.395424;-6.35622;-7.22539e-06;-7.80995e-05;-0.000209049;1.94666e-05;-0.000235741;0.000127604;;;0.000164035;0.000170138;0.0825763;12.11;28.9035;73.9035;-0.00165631;-7.92531e-06;0.0010293;-0.00118572;-0.000209576;0.00572985;0.00904544;0;0.0348119;0.249805;1.11167
136000;137;25.7548;0.00114587;4.44937e-05;-2.42423;25.6401;-0.132024;0.010862;0.00237092;-0.296954;0.0221418;-0.152117;-0.075125;0.171095;-6.22634;-0.000187726;7.63951e-05;0.000657092;0.000663945;-0.000194579;0.000429262;0.285692;3.50027;0.000519775;0.000572349;3.41221;0.293065;44.1807;89.1807;0.00170001;-0.000189058;-0.00148205;0.00163353;0.000655998;0.00526872;0.00817167;0;0.0139186;0.0315276;-0.154502;-0.366652;0.399123;-6.359;0.000166822;-7.76852e-05;-0.000383324;0.000177582;-0.000394084;0.000285833;0.435198;2.2978;0.000337849;0.00038111;0.450619;2.21917;39.6405;84.6405;-0.00214966;0.000165988;0.0011381;-0.00129414;-0.000383969;0.00557182;0.00999439;0;0.021182;0.280302;1.12032
137000;138;25.7551;0.00150808;5.85581e-05;-2.42532;25.6403;-0.133862;0.0097778;0.00262269;-0.298792;0.0236855;-0.15633;-0.0766279;0.175704;-6.22784;-0.00024686;1.919e-05;0.00100961;0.0010099;-0.000247153;0.000628526;0.244511;4.08979;0.000769006;0.000838035;4.08613;0.244731;50.1549;95.1549;0.00158655;-0.000248501;-0.00177525;0.00181137;0.00100803;0.00645313;0.00915136;0;0.0219073;0.0322211;-0.16015;-0.369352;0.403865;-6.3617;3.50501e-05;-6.74264e-05;-0.000474426;4.38226e-05;-0.000483199;0.000263511;0.0738789;13.5357;0.000337689;0.000351348;0.0906926;11.0263;42.4938;87.4938;-0.00149815;3.4164e-05;0.00119745;-0.00133295;-0.000475141;0.004486;0.0111746;0;0.0215646;0.305827;1.12296
138000;139;25.7545;0.000903631;3.50875e-05;-2.42635;25.6396;-0.140235;0.0087392;0.00188321;-0.305165;0.0240951;-0.161528;-0.0722797;0.178595;-6.22349;-0.000222728;0.000144211;0.00132489;0.00133821;-0.000236052;0.000787131;0.168111;5.94844;0.000980344;0.00104951;5.66914;0.176394;47.9711;92.9711;0.00199684;-0.000224739;-0.00172468;0.00201021;0.00132341;0.00579312;0.00804978;0;0.015321;0.0321201;-0.165274;-0.367595;0.404318;-6.35994;-0.000150114;-8.50597e-05;-0.000488636;-0.000129943;-0.000508806;0.000189432;-0.30721;-3.2551;0.000305253;0.000252576;-0.255388;-3.91562;37.9122;82.9122;-0.00179338;-0.000151266;0.00134954;-0.00152014;-0.000489543;0.00499849;0.0103867;0;0.0209799;0.336072;1.13017
139000;140;25.7558;0.00218468;8.483e-05;-2.42742;25.6408;-0.140878;0.00767045;0.00306531;-0.305808;0.0259741;-0.162779;-0.0730307;0.180292;-6.22424;-0.000267033;8.2866e-05;0.00110313;0.00110813;-0.000272026;0.000690077;0.242068;4.13108;0.000844165;0.000920102;4.0736;0.245483;47.8086;92.8086;0.00211859;-0.000268978;-0.00181079;0.00197393;0.0011015;0.00597613;0.0092294;0;0.0230389;0.0330057;-0.167006;-0.371543;0.408686;-6.36389;-0.000223697;-6.96724e-05;-0.000439344;-0.000203146;-0.000459895;0.000128375;-0.509162;-1.96401;0.000266121;0.000171167;-0.441721;-2.26387;34.2981;79.2981;-0.00230609;-0.000225136;0.00155756;-0.00169726;-0.000440555;0.00482105;0.0120776;0;0.0223342;0.36805;1.13773
140000;141;25.7562;0.00261978;0.000101725;-2.4297;25.641;-0.140217;0.00539548;0.00329052;-0.305147;0.0292313;-0.167407;-0.0779589;0.186968;-6.22917;-0.000259147;-0.000129465;0.00058163;0.000601113;-0.000278631;0.000439872;0.445553;2.2444;0.000519171;0.000586496;2.15739;0.463524;55.8056;100.806;0.00247261;-0.000261038;-0.00220961;0.00194894;0.000579198;0.00555096;0.00864691;0;0.0301239;0.0349933;-0.171697;-0.378611;0.417194;-6.37096;-0.000278663;-0.000113533;-0.000311027;-0.000180165;-0.000409525;0.00011468;-0.895946;-1.11614;0.000237007;0.000152907;-0.439936;-2.27306;8.64949;53.6495;-0.00222878;-0.000280512;0.00169874;-0.00192586;-0.000312464;0.00468893;0.0129477;0;0.0310828;0.398901;1.14436
141000;142;25.7542;0.000579552;2.25037e-05;-2.43088;25.6388;-0.138429;0.0042164;0.00113907;-0.303359;0.0307243;-0.173387;-0.0795931;0.193241;-6.2308;-0.000215781;-0.000321832;-7.56948e-05;0.000183627;-0.000475103;0.000329365;-2.85067;-0.350794;0.000392533;0.000439154;0.3865;2.58732;81.8809;126.881;0.00236571;-0.000217265;-0.00239599;0.00175204;-7.85137e-05;0.00514828;0.00940191;0;0.0227112;0.0355131;-0.177095;-0.378532;0.419417;-6.37088;-0.000284497;-0.000104449;-7.67378e-05;-3.3306e-05;-0.000327929;0.000147311;-3.70739;-0.269732;0.000208406;0.000196415;-0.101565;-9.84592;160.204;25.204;-0.00236019;-0.00028659;0.00184001;-0.0020485;-7.84253e-05;0.00482998;0.0144693;0;0.0295272;0.44801;1.15359
142000;143;25.7546;0.000987224;3.83334e-05;-2.43132;25.6392;-0.141292;0.00376905;0.00149054;-0.306222;0.0319321;-0.176068;-0.0803742;0.196163;-6.23159;-0.000146793;-0.000101983;-0.000357428;-0.000105508;-0.000398713;0.000146602;-0.410693;-2.43491;0.000238548;0.00019547;-0.264622;-3.77898;109.588;154.588;0.00176441;-0.000148808;-0.0022136;0.00201008;-0.000359874;0.00539108;0.00840773;0;0.0256908;0.035997;-0.179724;-0.382062;0.423754;-6.37441;-0.000391875;-5.15607e-05;0.000267525;0.000271533;-0.000395882;0.000333708;1.46481;0.682681;0.000387555;0.000444943;0.685893;1.45795;140.232;5.23168;-0.00272235;-0.000394352;0.00212413;-0.00222581;0.000265271;0.0058479;0.01591;0;0.028304;0.474192;1.1596
143000;144;25.7542;0.00061564;2.3905e-05;-2.43276;25.6387;-0.143986;0.00233308;0.000966087;-0.308916;0.0335876;-0.180617;-0.0771071;0.199239;-6.22832;-0.000266823;-0.000322909;-0.000585641;-6.61188e-05;-0.000786345;0.000360113;-0.455609;-2.19487;0.000503639;0.000480151;-0.0840836;-11.8929;97.3502;142.35;0.00182098;-0.000268298;-0.00239256;0.00174741;-0.000588453;0.00689729;0.00965804;0;0.0174518;0.0369846;-0.183359;-0.38152;0.424907;-6.37387;-0.000354161;-6.24771e-06;0.000453752;0.0004538;-0.00035421;0.000404005;0.780518;1.2812;0.000467684;0.000538673;1.28116;0.780541;134.79;179.79;-0.00266651;-0.000356816;0.00229324;-0.00230388;0.000451123;0.00559638;0.0162603;0;0.0251405;0.504313;1.16691
144000;145;25.7548;0.00113252;4.39751e-05;-2.43307;25.6392;-0.145583;0.00201842;0.00144641;-0.310513;0.0343962;-0.181848;-0.0826081;0.202672;-6.23382;-0.000167876;-0.000293801;-0.000504747;2.34643e-06;-0.00067497;0.000338658;-0.332595;-3.00666;0.000450764;0.000451544;;;100.123;145.123;0.00225111;-0.000169256;-0.00227386;0.00168693;-0.00050729;0.00458296;0.0103783;0;0.0186154;0.037262;-0.185728;-0.386753;0.430653;-6.3791;-0.000383743;-4.40213e-07;0.000561207;0.000561207;-0.000383743;0.000472475;0.683782;1.46245;0.000548765;0.000629967;1.46245;0.683782;134.051;179.051;-0.00342514;-0.000387424;0.00271452;-0.00271284;0.000557524;0.00720136;0.0159831;0;0.0231547;0.539768;1.17428
145000;146;25.7535;-0.000139913;-5.43276e-06;-2.43563;25.6376;-0.149708;-0.000538322;-9.82741e-05;-0.314638;0.0375984;-0.186655;-0.077061;0.205408;-6.22827;-0.000195645;-0.000288658;-0.000693981;-6.34889e-05;-0.000826137;0.000381324;-0.281916;-3.54715;0.000530862;0.000508432;-0.0768503;-13.0123;103.931;148.931;0.00175738;-0.000196946;-0.0022153;0.00163895;-0.000696395;0.00602845;0.00935923;0;0.0323581;0.038913;-0.190052;-0.383334;0.429627;-6.37568;-0.000305936;2.93093e-05;0.000798735;0.000799512;-0.000306713;0.000553113;0.383026;2.61079;0.000659466;0.000737484;2.60671;0.383626;130.883;175.883;-0.0033743;-0.000309638;0.0027823;-0.00272064;0.000794868;0.00525456;0.0188267;0;0.0320248;0.578486;1.18173
146000;147;25.7567;0.00304308;0.000118161;-2.43479;25.6409;-0.144988;0.00030447;0.00320626;-0.309919;0.037292;-0.189226;-0.0791451;0.208473;-6.23036;-0.000290513;-0.000383915;-0.00119429;-0.000149449;-0.00133536;0.000592954;-0.243251;-4.11098;0.00084484;0.000790606;-0.111916;-8.93523;104.38;149.38;0.00164751;-0.00029165;-0.00232199;0.00155591;-0.00119692;0.00650539;0.00949739;0;0.0146187;0.0379277;-0.193349;-0.38713;0.434386;-6.37948;-0.00029249;7.29746e-05;0.000936311;0.00094063;-0.000296809;0.000618719;0.312386;3.20117;0.000745972;0.000824959;3.16914;0.315543;128.566;173.566;-0.00423473;-0.000296943;0.00313446;-0.00298475;0.000931406;0.00788052;0.01861;0;0.0193116;0.628606;1.18945
147000;148;25.7551;0.00143351;5.56624e-05;-2.43591;25.6391;-0.154057;-0.000812653;0.00143043;-0.318987;0.0390829;-0.194968;-0.0764336;0.213031;-6.22765;-0.000490594;-0.000490494;-0.00138512;-0.000274058;-0.00160165;0.000663797;-0.35419;-2.82335;0.000989153;0.000885063;-0.171109;-5.84422;98.4807;143.481;0.00243877;-0.000491569;-0.00245887;0.00147965;-0.00138802;0.00483427;0.0104951;0;0.0160379;0.0385124;-0.199814;-0.387185;0.437403;-6.37953;-0.000387716;0.000102311;0.00082753;0.000836083;-0.00039627;0.000616176;0.468522;2.13437;0.000726446;0.000821568;2.10988;0.47396;128.093;173.093;-0.00457683;-0.000391955;0.003121;-0.00291271;0.000822669;0.00666325;0.0171102;0;0.0184741;0.673287;1.19657
148000;149;25.7561;0.00248855;9.66293e-05;-2.43596;25.6402;-0.157073;-0.00086852;0.00246664;-0.322003;0.040818;-0.196436;-0.0801352;0.216044;-6.23135;-0.000178647;-0.000273812;-0.00163595;-0.000128898;-0.0016857;0.0007784;-0.109201;-9.15746;0.00108339;0.00103787;-0.0764658;-13.0777;112.597;157.597;0.00218388;-0.000180122;-0.00228378;0.00173909;-0.00163852;0.0056306;0.0103077;0;0.0150982;0.0397188;-0.202342;-0.392696;0.443543;-6.38504;-0.000344666;6.68959e-05;0.000813574;0.000817425;-0.000348517;0.000582971;0.423644;2.36047;0.000691065;0.000777295;2.34544;0.42636;129.624;174.624;-0.00521236;-0.000349877;0.00336606;-0.00322845;0.000807916;0.00757138;0.0173958;0;0.0175242;0.716904;1.19812
149000;150;25.7568;0.00320247;0.00012435;-2.437;25.6408;-0.15742;-0.00190916;0.00308277;-0.322351;0.0418607;-0.200989;-0.0771313;0.219313;-6.22834;-0.000360063;-0.000468967;-0.000758953;-4.98921e-05;-0.00106912;0.000509616;-0.474421;-2.10783;0.000696715;0.000679488;-0.0466663;-21.4287;93.9395;138.939;0.00265392;-0.000361214;-0.00252457;0.00158746;-0.000762033;0.00403409;0.00884033;0;0.0133578;0.0397522;-0.208397;-0.393258;0.446835;-6.3856;-0.000335656;2.27124e-05;0.00058282;0.000583381;-0.000336218;0.000459799;0.575918;1.73636;0.000537285;0.000613066;1.73513;0.576326;132.536;177.536;-0.00534753;-0.000341865;0.00357188;-0.0035232;0.000576445;0.00626818;0.017047;0;0.0188711;0.768524;1.20568
150000;151;25.76;0.00642248;0.000249382;-2.4364;25.6441;-0.158837;-0.00130615;0.00636592;-0.323767;0.0439563;-0.20701;-0.0708732;0.223178;-6.22209;-0.000243555;-0.000503159;-0.000902985;2.82949e-05;-0.00117484;0.000601565;-0.269722;-3.70752;0.000792823;0.000802087;0.0240842;41.5211;99.0267;144.027;0.00298918;-0.00024471;-0.00260556;0.00160063;-0.000906256;0.00480744;0.0099405;0;0.0158746;0.0409006;-0.216553;-0.389076;0.447156;-6.38142;-0.000347135;8.12294e-05;0.000381996;0.000390936;-0.000356075;0.000373506;0.90874;1.10042;0.000431444;0.000498007;1.0979;0.910827;128.525;173.525;-0.00476742;-0.000352732;0.00351114;-0.00334618;0.000375838;0.00414113;0.0169025;0;0.0183577;0.823558;1.21185
151000;152;25.7637;0.0101297;0.00039333;-2.4354;25.6479;-0.152695;-0.000307209;0.010222;-0.317625;0.044893;-0.210325;-0.0671229;0.225294;-6.21833;-0.00030546;-0.00036143;-0.00087642;-0.000130364;-0.00105152;0.000460576;-0.348532;-2.86918;0.000661849;0.000614101;-0.123978;-8.06598;101.107;146.107;0.00264833;-0.000306806;-0.00240115;0.00167946;-0.00087924;0.00461328;0.0101983;0;0.0135564;0.0417793;-0.220351;-0.387785;0.44797;-6.38013;-0.000383681;4.0572e-05;0.000331142;0.000333438;-0.000385977;0.000359707;1.15866;0.863066;0.000415723;0.00047961;0.863881;1.15757;131.927;176.927;-0.00497512;-0.000389672;0.00354476;-0.00346112;0.000324863;0.00520319;0.0161385;0;0.0211608;0.874783;1.21805
152000;153;25.7649;0.0112803;0.000438008;-2.43538;25.6491;-0.155152;-0.000291402;0.0113646;-0.320082;0.0457807;-0.211966;-0.0730974;0.228842;-6.22431;-0.0002615;-0.000222776;-0.000431484;-0.000108054;-0.00058493;0.000238438;-0.606048;-1.65003;0.000359391;0.000317917;-0.18473;-5.41331;96.0892;141.089;0.00284741;-0.000263523;-0.00246856;0.00202339;-0.000434507;0.00494894;0.0116547;0;0.0127791;0.0422231;-0.223265;-0.395305;0.455957;-6.38765;-0.000446285;0.000136751;0.000433322;0.000454092;-0.000467055;0.000460574;1.02992;0.970952;0.000531842;0.000614098;0.972244;1.02855;126.369;171.369;-0.0043984;-0.000451644;0.00355235;-0.00327585;0.000427024;0.00445623;0.0161466;0;0.0191472;0.926353;1.22589
153000;154;25.7656;0.0120096;0.000466325;-2.43712;25.6496;-0.155482;-0.00202463;0.0119305;-0.320413;0.0426824;-0.214044;-0.0779251;0.231752;-6.22914;-0.000310602;-0.0003315;-4.96946e-05;0.000176097;-0.000536394;0.000356245;-6.25023;-0.159994;0.00042853;0.000474994;0.328298;3.04602;77.0774;122.077;0.00381104;-0.000312534;-0.00265648;0.00199288;-5.31682e-05;0.00447739;0.0108031;0;0.0170848;0.0392096;-0.22649;-0.40141;0.462564;-6.39376;-0.000608523;0.000182531;0.000634335;0.000660588;-0.000634776;0.000647682;0.959308;1.04242;0.000747928;0.000863576;1.04066;0.960926;126.657;171.657;-0.00436061;-0.000613424;0.00350412;-0.00313494;0.000628217;0.00526404;0.0176472;0;0.022615;0.987213;1.23247
154000;155;25.7645;0.0108817;0.000422533;-2.43663;25.6485;-0.159691;-0.00154123;0.0108177;-0.324621;0.0440944;-0.218557;-0.0717235;0.234213;-6.22294;-0.000349691;-0.000131926;-0.0003097;-0.000196262;-0.000463128;0.000133433;-1.12913;-0.885639;0.000268421;0.000177911;-0.423775;-2.35974;81.7573;126.757;0.00342574;-0.000352176;-0.00249707;0.00223312;-0.000312809;0.00532396;0.012419;0;0.0207722;0.0399838;-0.229775;-0.400493;0.463454;-6.39284;-0.000628926;0.000213356;0.000801629;0.000832772;-0.000660069;0.00074642;0.78456;1.2746;0.000863812;0.000995227;1.26164;0.792617;125.869;170.869;-0.00389594;-0.000633256;0.00338053;-0.00294929;0.000795943;0.00473365;0.0189811;0;0.0342747;1.04944;1.24005
155000;156;25.7652;0.0115616;0.000448931;-2.43471;25.6494;-0.163855;0.00038452;0.0116572;-0.328785;0.047702;-0.219339;-0.0828436;0.239266;-6.23406;-0.000325069;0.000155051;0.000953949;0.000972477;-0.000343597;0.000658037;0.340761;2.93461;0.000788222;0.000877383;2.83029;0.353321;41.8888;86.8888;0.00294446;-0.000328428;-0.00228923;0.0025962;0.000951344;0.00605935;0.00987329;0;0.0135362;0.0435734;-0.232371;-0.408808;0.472248;-6.40115;-0.000631191;0.000105106;0.000933301;0.00094033;-0.00063822;0.000789275;0.676299;1.47864;0.000916923;0.00105237;1.47336;0.678719;129.835;174.835;-0.00379177;-0.00063645;0.00345934;-0.00324388;0.000927328;0.00458283;0.0182087;0;0.0250017;1.09942;1.24746
156000;157;25.7654;0.011739;0.000455819;-2.43536;25.6495;-0.16304;-0.000271514;0.0117783;-0.32797;0.0477069;-0.22269;-0.0819687;0.242045;-6.23318;-0.000267233;7.99779e-05;0.00082463;0.000830457;-0.00027306;0.000551758;0.324064;3.08581;0.000663655;0.000735678;3.0413;0.328807;44.0185;89.0185;0.00314375;-0.00027062;-0.00244654;0.00260374;0.000821643;0.00643792;0.0105308;0;0.0222781;0.0433351;-0.235771;-0.409749;0.474721;-6.40209;-0.000644325;0.000131594;0.000987908;0.000998449;-0.000654867;0.000826658;0.652212;1.53324;0.000961388;0.00110221;1.52466;0.655883;128.98;173.98;-0.00461003;-0.000650117;0.0036739;-0.00340493;0.000981175;0.00610623;0.0183303;0;0.031858;1.16414;1.25526
157000;158;25.7642;0.010545;0.000409456;-2.43487;25.6483;-0.168691;0.000224603;0.0105895;-0.333621;0.0482914;-0.227889;-0.0823941;0.247092;-6.23361;-0.000351669;9.48025e-05;0.000846195;0.000853652;-0.000359126;0.000606389;0.415589;2.40623;0.00071934;0.000808518;2.37703;0.420693;43.2801;88.2801;0.00302058;-0.000355232;-0.00248399;0.00267051;0.000843117;0.00570862;0.00981795;0;0.014122;0.0443102;-0.240219;-0.412367;0.479286;-6.40471;-0.000575442;3.35588e-05;0.00134732;0.00134791;-0.000576028;0.000961967;0.427101;2.34137;0.00114019;0.00128262;2.34;0.42735;130.708;175.708;-0.00463287;-0.000581082;0.00343147;-0.00335783;0.00134144;0.00606399;0.0202021;0;0.0232513;1.23026;1.26189
158000;159;25.7641;0.0104363;0.000405235;-2.43554;25.6481;-0.167216;-0.000448803;0.010426;-0.332146;0.0485763;-0.23105;-0.0838402;0.250545;-6.23505;-0.000246079;2.61288e-05;0.00070868;0.000709394;-0.000246794;0.000478094;0.347236;2.87988;0.000573187;0.000637459;2.87444;0.347894;46.0392;91.0392;0.00303759;-0.000249454;-0.00254797;0.00259777;0.000705436;0.00500554;0.00861712;0;0.0138967;0.0445464;-0.243561;-0.414754;0.48304;-6.4071;-0.000542924;-2.14657e-05;0.00151577;0.001516;-0.000543147;0.00102957;0.358182;2.79187;0.00123228;0.00137276;2.79114;0.358277;131.573;176.573;-0.00449296;-0.00054906;0.00346664;-0.0035024;0.00150978;0.0064515;0.0196618;0;0.0217589;1.28958;1.26889
159000;160;25.7641;0.0105018;0.00040778;-2.43677;25.6481;-0.167523;-0.00167869;0.010373;-0.332453;0.0488546;-0.234383;-0.082415;0.253208;-6.23363;-0.000311092;0.000263556;0.000261248;0.000364121;-0.000413966;0.000389043;1.19079;0.839776;0.000449536;0.000518724;0.879593;1.13689;23.425;68.425;0.00345585;-0.00031481;-0.00221333;0.00273903;0.000258834;0.00478247;0.00919906;0;0.0226062;0.0446108;-0.246741;-0.413902;0.483928;-6.40625;-0.000589688;7.49254e-05;0.00154341;0.00154604;-0.000592316;0.00106918;0.382068;2.61734;0.00127485;0.00142557;2.61016;0.383118;129.125;174.125;-0.0049618;-0.000595749;0.00363902;-0.00348158;0.0015368;0.0070947;0.0203814;0;0.0281735;1.35388;1.27458
160000;161;25.7654;0.0118031;0.000458309;-2.43607;25.6494;-0.169198;-0.000978804;0.0117357;-0.334129;0.0492913;-0.237955;-0.0847793;0.257371;-6.23599;-0.000317499;1.50943e-06;0.000164407;0.000164412;-0.000317503;0.000240958;1.93118;0.517819;0.000282875;0.000321277;0.517826;1.93115;43.8626;88.8626;0.00279975;-0.000319954;-0.00221382;0.00221578;0.000161957;0.00510221;0.00936604;0;0.0147819;0.0452979;-0.250823;-0.418791;0.490255;-6.41114;-0.00040909;-1.17135e-05;0.00158595;0.00158602;-0.000409158;0.00099759;0.257946;3.87679;0.00121688;0.00133012;3.8763;0.257978;130.73;175.73;-0.00552476;-0.000415861;0.00366331;-0.00367941;0.00157925;0.00671837;0.0198499;0;0.0195208;1.41469;1.27744
161000;162;25.765;0.0113707;0.000441518;-2.43475;25.6491;-0.176658;0.00033854;0.0113761;-0.341588;0.0494034;-0.241509;-0.0849658;0.260742;-6.23618;-0.000294366;-2.26635e-05;0.00013312;0.000134318;-0.000295565;0.000214941;2.21129;0.452226;0.000253946;0.000286589;0.454446;2.20048;47.0541;92.0541;0.00196483;-0.000296952;-0.0023202;0.0022739;0.000130429;0.00693388;0.00945173;0;0.0152595;0.0453052;-0.2554;-0.419658;0.49335;-6.412;-0.000548679;-0.000109153;0.00166043;0.00166581;-0.000554059;0.00110994;0.330444;3.02623;0.00133414;0.00147991;3.00656;0.332606;133.648;178.648;-0.00545521;-0.00055646;0.00373551;-0.00394534;0.00165347;0.00674388;0.0193129;0;0.0190346;1.47769;1.2848
162000;163;25.7686;0.0149404;0.000580128;-2.43519;25.6526;-0.177905;-9.47567e-05;0.0149122;-0.342835;0.0500173;-0.243491;-0.0876426;0.263573;-6.23885;-0.000213417;-3.31268e-06;0.000180558;0.000180586;-0.000213444;0.000197015;1.18198;0.846036;0.000227757;0.000262687;0.846056;1.18195;45.2989;90.2989;0.00237556;-0.000215822;-0.00220051;0.00219302;0.000178137;0.00517886;0.00904339;0;0.0185296;0.0458013;-0.25918;-0.42423;0.499242;-6.41658;-0.000502125;-0.000215333;0.00164244;0.00166385;-0.000523533;0.00109369;0.305719;3.27098;0.00131885;0.00145826;3.17812;0.314652;136.462;1.46204;-0.0059769;-0.000510558;0.00368908;-0.00411139;0.00163567;0.00574135;0.017363;0;0.0193928;1.55068;1.29146
163000;164;25.7704;0.0167789;0.000651515;-2.43471;25.6545;-0.175548;0.000378984;0.0168202;-0.340478;0.0509551;-0.247607;-0.085088;0.266732;-6.2363;-0.000439869;0.000103233;0.000369035;0.000382001;-0.000452836;0.000417419;1.19195;0.838964;0.000482572;0.000556558;0.843575;1.18543;37.3862;82.3862;0.00215567;-0.000442277;-0.00199156;0.00219633;0.000367057;0.00644463;0.00861649;0;0.0163347;0.0465063;-0.26468;-0.42344;0.501517;-6.41579;-0.000361218;-0.000192462;0.00122295;0.001246;-0.000384265;0.000815132;0.295366;3.38563;0.000984089;0.00108684;3.24255;0.308399;138.3;3.30012;-0.00571063;-0.000368129;0.00334276;-0.00372209;0.00121739;0.0043297;0.0149322;0;0.0222494;1.61724;1.29934
164000;165;25.773;0.0193373;0.000750859;-2.4342;25.6571;-0.179293;0.000892706;0.0194131;-0.344223;0.0508202;-0.250511;-0.0855249;0.269542;-6.23674;-0.000427256;0.000199256;6.6109e-05;0.000136531;-0.000497678;0.000317104;6.4629;0.154729;0.000385442;0.000422806;0.274336;3.64516;23.1057;68.1057;0.00223135;-0.000429874;-0.00189908;0.00229655;6.43257e-05;0.00591406;0.00948389;0;0.0176008;0.0461875;-0.270015;-0.425656;0.506186;-6.418;-0.000412261;-8.27521e-05;0.00114459;0.00114898;-0.000416647;0.000782814;0.360181;2.77639;0.000936298;0.00104375;2.75769;0.362623;135.105;0.105355;-0.0054381;-0.00041916;0.00355502;-0.00371487;0.00113829;0.00354167;0.0154425;0;0.0223438;1.68979;1.30674
165000;166;25.774;0.0203831;0.000791466;-2.43489;25.6581;-0.178479;0.000201791;0.0204037;-0.343409;0.05036;-0.251979;-0.085592;0.270842;-6.2368;-0.000445001;1.89355e-05;0.000128812;0.000129436;-0.000445625;0.00028753;3.45467;0.289463;0.000348339;0.000383374;0.290459;3.44283;40.9722;85.9722;0.0022349;-0.00044721;-0.00206493;0.0021016;0.00012668;0.00609798;0.00830876;0;0.0289422;0.045537;-0.272687;-0.427903;0.509444;-6.42025;-0.000492793;-3.95825e-05;0.00120495;0.00120588;-0.000493716;0.000849796;0.408973;2.44515;0.00100957;0.00113306;2.44245;0.409425;133.378;178.378;-0.00535836;-0.000499041;0.00346093;-0.00353416;0.00119897;0.00430036;0.016822;0;0.029727;1.75011;1.31468
166000;167;25.7755;0.0218649;0.000849003;-2.43395;25.6597;-0.180145;0.00114672;0.0219701;-0.345075;0.0496382;-0.254021;-0.0880204;0.273383;-6.23923;-0.000199224;0.00016228;9.11928e-05;0.000163747;-0.000271777;0.000217762;2.18464;0.457741;0.000254015;0.000290349;0.602503;1.65974;20.1891;65.1891;0.00218573;-0.000201676;-0.00189667;0.00222063;8.94075e-05;0.00553053;0.0079624;0;0.0173075;0.044598;-0.27603;-0.430682;0.513487;-6.42303;-0.000517822;-2.42366e-05;0.0011889;0.00118924;-0.000518167;0.000853703;0.435549;2.29595;0.00101083;0.00113827;2.29509;0.435712;132.822;177.822;-0.0046493;-0.000523187;0.00323189;-0.00327481;0.00118368;0.00362992;0.0170947;0;0.0206453;1.81902;1.32129
167000;168;25.7777;0.0240545;0.000934024;-2.43427;25.6619;-0.179102;0.000818733;0.0241458;-0.344032;0.0510131;-0.257475;-0.0890001;0.277159;-6.24021;-0.000299107;0.000142038;0.000158685;0.000199173;-0.000339596;0.000269385;1.88492;0.530527;0.000314561;0.00035918;0.586501;1.70503;28.1685;73.1685;0.00251755;-0.000301641;-0.00197204;0.00225514;0.000156751;0.0062447;0.0102319;0;0.017613;0.0458413;-0.280264;-0.433781;0.518474;-6.42613;-0.000627916;-3.60441e-05;0.00127677;0.00127745;-0.000628597;0.000953025;0.4918;2.03335;0.00112151;0.0012707;2.03223;0.492071;133.287;178.287;-0.0042352;-0.000633714;0.0033388;-0.00340446;0.0012712;0.00415184;0.0162442;0;0.0229059;1.8877;1.32849
168000;169;25.7794;0.0257997;0.00100179;-2.43464;25.6636;-0.179121;0.000455982;0.0258644;-0.344051;0.0509939;-0.260058;-0.0899044;0.279845;-6.24112;-0.000424278;0.0002156;0.000642839;0.000684753;-0.000466192;0.000575472;0.660007;1.51514;0.00066848;0.000767296;1.46882;0.680817;35.5442;80.5442;0.00246342;-0.00042685;-0.00184883;0.00227783;0.000641154;0.00448058;0.00943988;0;0.0233665;0.0457257;-0.283933;-0.434524;0.521076;-6.42687;-0.000652478;-1.29829e-05;0.00130841;0.00130849;-0.000652564;0.000980529;0.498681;2.00529;0.00115314;0.00130737;2.00516;0.498714;132.241;177.241;-0.00384995;-0.000657085;0.00301445;-0.00303449;0.00130387;0.00278383;0.0176137;0;0.0267262;1.96376;1.33531
169000;170;25.7791;0.0254788;0.000989329;-2.43432;25.6633;-0.181988;0.000777123;0.0255523;-0.346918;0.0514185;-0.263061;-0.0897427;0.282664;-6.24095;-0.000381733;0.000176383;0.000740825;0.000767887;-0.000408795;0.000588341;0.515281;1.94069;0.000689822;0.000784455;1.87841;0.532364;38.7519;83.7519;0.00265199;-0.000384305;-0.00192393;0.00227434;0.000738991;0.00535287;0.00917496;0;0.0186963;0.0462323;-0.287546;-0.435982;0.52431;-6.42833;-0.000575791;-3.45909e-06;0.00141332;0.00141333;-0.000575797;0.000994562;0.407403;2.45457;0.00118187;0.00132608;2.45456;0.407405;131.408;176.408;-0.00432186;-0.000581155;0.00327389;-0.0032743;0.00140797;0.00440845;0.0183456;0;0.0237053;2.02879;1.34074
170000;171;25.7797;0.0261195;0.00101421;-2.43484;25.6638;-0.183409;0.000252755;0.026136;-0.348339;0.0502541;-0.265815;-0.0921808;0.285798;-6.24339;-0.000450823;0.000223375;0.000999818;0.00103343;-0.00048444;0.000758937;0.450905;2.21776;0.000895248;0.00101192;2.13326;0.468767;40.0179;85.0179;0.00275727;-0.00045375;-0.00198555;0.00242909;0.000997873;0.00478154;0.00967846;0;0.0237322;0.0449253;-0.290499;-0.439843;0.529027;-6.43219;-0.00060844;-3.89441e-05;0.00172521;0.00172586;-0.00060909;0.00116747;0.352676;2.83546;0.00139854;0.00155663;2.8335;0.35292;130.966;175.966;-0.00418788;-0.000613691;0.0031694;-0.00323981;0.0017202;0.00415298;0.0184091;0;0.028181;2.10306;1.34665
171000;172;25.781;0.0273394;0.00106158;-2.43403;25.6652;-0.179813;0.00105889;0.0274634;-0.344743;0.0500522;-0.269848;-0.0825369;0.286593;-6.23375;-0.000470297;5.24154e-05;0.0011836;0.00118526;-0.000471956;0.000828607;0.397344;2.51671;0.000985894;0.00110481;2.51138;0.398188;47.9719;92.9719;0.00238104;-0.000472673;-0.00207878;0.00218009;0.00118144;0.00672518;0.00944823;0;0.0210843;0.0450087;-0.295388;-0.43085;0.52432;-6.4232;-0.000784968;-8.98851e-05;0.00176762;0.00177078;-0.000788129;0.00127945;0.444083;2.25183;0.00151326;0.00170594;2.24681;0.445075;132.905;177.905;-0.00393312;-0.000791199;0.00335903;-0.00353001;0.00176199;0.0035164;0.0186767;0;0.0305631;2.17662;1.35097
172000;173;25.7818;0.0281935;0.00109474;-2.43465;25.6659;-0.184502;0.000442603;0.0282296;-0.349432;0.0504892;-0.271855;-0.0901144;0.290818;-6.24133;-0.000534123;0.000132067;0.00155818;0.00156648;-0.000542426;0.00105445;0.342787;2.91726;0.00126452;0.00140594;2.88791;0.346271;48.0035;93.0035;0.00280352;-0.000536816;-0.00206429;0.00232384;0.00155606;0.00611225;0.00997906;0;0.0246357;0.0454327;-0.29776;-0.441799;0.534707;-6.43415;-0.000560781;-0.000145683;0.00202282;0.00203101;-0.00056897;0.00129999;0.277227;3.60715;0.00157823;0.00173332;3.56962;0.280142;132.154;177.154;-0.00458975;-0.000567159;0.00329104;-0.00357354;0.00201743;0.00458165;0.0188756;0;0.0288533;2.26116;1.36021
173000;174;25.7821;0.0284304;0.00110394;-2.43448;25.6662;-0.187055;0.000613203;0.0284652;-0.351985;0.0509437;-0.273134;-0.0971481;0.294338;-6.24836;-0.000445618;0.000255714;0.00175392;0.00178326;-0.000474956;0.00112911;0.25407;3.93593;0.00137478;0.00150548;3.75458;0.266342;46.3408;91.3408;0.00301551;-0.000448916;-0.00207412;0.00258043;0.00175181;0.00616093;0.010386;0;0.0149861;0.0455149;-0.300094;-0.44833;0.541413;-6.44068;-0.000528322;2.44656e-06;0.00202932;0.00202932;-0.000528325;0.00127882;0.260344;3.84107;0.00155912;0.0017051;3.84105;0.260345;128.888;173.888;-0.00466407;-0.000534525;0.00353519;-0.00352128;0.00202308;0.00493619;0.0187912;0;0.0211378;2.31986;1.36544
174000;175;25.7834;0.0297479;0.0011551;-2.43547;25.6674;-0.189303;-0.000372988;0.0296787;-0.354233;0.0508931;-0.273511;-0.100677;0.295861;-6.25189;-0.000538481;0.000203714;0.00203723;0.00205324;-0.000554493;0.00130387;0.26432;3.7833;0.0015863;0.00173849;3.70292;0.270057;49.6187;94.6187;0.00270814;-0.000541552;-0.00208462;0.00248616;0.00203508;0.00662243;0.0100523;0;0.015775;0.0456703;-0.301093;-0.453455;0.546227;-6.4458;-0.000512039;-6.17959e-05;0.00204492;0.00204641;-0.000513531;0.00127997;0.250395;3.99368;0.00156382;0.00170663;3.98498;0.250942;130.55;175.55;-0.00546581;-0.000519282;0.00369156;-0.00380557;0.00203812;0.00565538;0.0184656;0;0.0197103;2.39165;1.37303
175000;176;25.7847;0.0310947;0.00120739;-2.43526;25.6687;-0.192039;-0.000165888;0.0310308;-0.356969;0.0510734;-0.278111;-0.100576;0.300116;-6.25179;-0.000644069;0.000404244;0.00193343;0.00199535;-0.000705981;0.00135066;0.333122;3.0019;0.00161775;0.00180088;2.82634;0.353814;43.7827;88.7827;0.0027062;-0.000647974;-0.00202063;0.00282288;0.00193148;0.00609632;0.0103349;0;0.0198116;0.0455633;-0.306455;-0.454636;0.550168;-6.44698;-0.000453886;-0.000207685;0.00218882;0.00220504;-0.000470108;0.00133757;0.207366;4.8224;0.00164922;0.00178343;4.6905;0.213197;132.78;177.78;-0.00579089;-0.000461409;0.00347797;-0.00388362;0.00218281;0.00561139;0.0176515;0;0.023216;2.47119;1.38012
176000;177;25.7862;0.0325453;0.00126372;-2.43577;25.6702;-0.189587;-0.000674502;0.032458;-0.354517;0.0521401;-0.280599;-0.100314;0.302518;-6.25153;-0.00057272;0.00042847;0.00226087;0.00232424;-0.000636092;0.00148017;0.253319;3.9476;0.0017994;0.00197355;3.65393;0.273678;46.144;91.144;0.00293925;-0.000576753;-0.00202124;0.00287125;0.00225892;0.00577258;0.00975074;0;0.0159921;0.0465157;-0.310424;-0.453908;0.551869;-6.44625;-0.000489818;-0.00034947;0.00213654;0.00218224;-0.000535524;0.00135888;0.229258;4.3619;0.00166234;0.00181184;4.07497;0.245401;136.196;1.19552;-0.00620367;-0.000498124;0.00340051;-0.00408962;0.00213083;0.00475636;0.015907;0;0.0297686;2.54361;1.38737
177000;178;25.7844;0.0308215;0.00119678;-2.43593;25.6684;-0.196278;-0.000837439;0.0306606;-0.361208;0.0517737;-0.284604;-0.0983103;0.305524;-6.24952;-0.000475511;0.00047245;0.00243583;0.00251058;-0.00055026;0.00153042;0.195215;5.12256;0.00188412;0.00204056;4.56253;0.219176;46.6495;91.6495;0.00280255;-0.000479889;-0.00205842;0.00299596;0.00243383;0.00642795;0.00985116;0;0.0177039;0.0458264;-0.315752;-0.453312;0.554338;-6.44566;-0.000284273;-0.000207472;0.00196817;0.00198712;-0.000303224;0.00114517;0.144435;6.92352;0.00143653;0.0015269;6.55331;0.152595;133.575;178.575;-0.00585734;-0.000291468;0.00339172;-0.00379857;0.00196245;0.00466913;0.0145936;0;0.0276719;2.61566;1.39492
178000;179;25.7863;0.0326798;0.00126894;-2.43572;25.6703;-0.191334;-0.000626219;0.0325848;-0.356264;0.0522102;-0.289281;-0.0975086;0.309705;-6.24872;-0.000530531;0.000209512;0.00229684;0.00231228;-0.000545972;0.00142913;0.230983;4.32933;0.0017521;0.0019055;4.23517;0.236118;50.3494;95.3494;0.00297013;-0.000534331;-0.00235204;0.00276384;0.00229411;0.00599608;0.0104636;0;0.0235192;0.0464193;-0.32149;-0.454413;0.558571;-6.44676;-0.00048249;-0.000181964;0.00189015;0.00190403;-0.000496364;0.0012002;0.255265;3.9175;0.00146315;0.00160026;3.83595;0.260692;133.625;178.625;-0.00600727;-0.000489244;0.0033235;-0.00367913;0.00188466;0.00425472;0.0139292;0;0.0243232;2.689;1.40243
179000;180;25.7868;0.0332086;0.00128947;-2.43568;25.6708;-0.193176;-0.000587154;0.0331058;-0.358106;0.0522075;-0.289835;-0.100134;0.311058;-6.25135;-0.000614625;0.000290184;0.0020717;0.00210269;-0.000645614;0.00137415;0.296677;3.37067;0.0016594;0.0018322;3.25688;0.307042;47.001;92.001;0.00318344;-0.000618528;-0.00223473;0.00280833;0.00206925;0.00628247;0.0109415;0;0.0171845;0.046512;-0.323084;-0.457936;0.562363;-6.45028;-0.000538993;-0.000189388;0.00171333;0.00172915;-0.000554806;0.00114198;0.314587;3.17877;0.00137552;0.00152264;3.11667;0.320855;134.815;179.815;-0.00563061;-0.000545384;0.00320803;-0.00357917;0.00170822;0.00344833;0.0145183;0;0.0248251;2.76632;1.40997
180000;181;25.789;0.0353812;0.00137384;-2.43587;25.673;-0.190854;-0.000777934;0.0352876;-0.355784;0.0524128;-0.293393;-0.0994283;0.314185;-6.25064;-0.000491361;0.000475663;0.00180889;0.00190337;-0.000585841;0.00124461;0.271636;3.68139;0.00150275;0.00165948;3.24895;0.307791;41.3361;86.3361;0.00271768;-0.000495513;-0.00197439;0.00292009;0.00180706;0.00588398;0.0101898;0;0.0168779;0.0459833;-0.328531;-0.456442;0.564258;-6.44879;-0.000610247;-5.29462e-05;0.0016876;0.00168882;-0.000611466;0.00115014;0.361605;2.76545;0.00137577;0.00153353;2.76193;0.362066;131.629;176.629;-0.00451576;-0.000615842;0.00324632;-0.00334464;0.00168234;0.00242173;0.0137273;0;0.0226321;2.83182;1.41627
181000;182;25.7894;0.0357809;0.00138935;-2.43587;25.6734;-0.194487;-0.000778873;0.0356616;-0.359417;0.0523242;-0.296257;-0.103698;0.318212;-6.25491;-0.000365501;0.000344797;0.00155365;0.00161371;-0.000425568;0.00101964;0.235254;4.25073;0.00124221;0.00135952;3.7919;0.26372;42.2135;87.2135;0.00269862;-0.000369099;-0.00201911;0.00270417;0.00155167;0.00607991;0.00917252;0;0.0213091;0.0460361;-0.331163;-0.464003;0.571915;-6.45635;-0.000679508;-0.000131831;0.00171441;0.00172165;-0.000686745;0.0012042;0.396351;2.52301;0.00143264;0.00160559;2.50696;0.398889;133.252;178.252;-0.00474656;-0.000684488;0.00290139;-0.0031578;0.00171021;0.00276981;0.0160481;0;0.0268908;2.91174;1.42185
182000;183;25.7911;0.0374516;0.00145423;-2.43703;25.6749;-0.195458;-0.00194014;0.0372224;-0.360388;0.0506983;-0.298912;-0.106746;0.321424;-6.25796;-0.000415059;0.0003868;0.00106978;0.00116449;-0.000509778;0.000837136;0.387987;2.5774;0.000990971;0.00111618;2.28432;0.437768;35.3558;80.3558;0.00188572;-0.000418542;-0.00189664;0.00266685;0.00106805;0.00656545;0.00925774;0;0.0183074;0.0438683;-0.335338;-0.466692;0.576348;-6.45904;-0.000882262;-4.4149e-05;0.00183548;0.0018362;-0.000882979;0.00135959;0.480671;2.08043;0.00160175;0.00181279;2.07955;0.480873;131.604;176.604;-0.00449115;-0.000887406;0.00312647;-0.00320616;0.0018306;0.00336138;0.0173517;0;0.0275245;2.98709;1.42592
183000;184;25.7911;0.0375111;0.00145654;-2.43699;25.675;-0.197201;-0.00189559;0.037273;-0.362131;0.0509777;-0.302089;-0.103988;0.323527;-6.2552;-0.00053854;0.00016727;0.00135935;0.00137398;-0.000553169;0.000963573;0.396175;2.52413;0.00114578;0.00128476;2.48383;0.402605;45.3752;90.3752;0.00223952;-0.000541267;-0.00201038;0.00234079;0.00135734;0.00532433;0.00909778;0;0.0191008;0.0444841;-0.338457;-0.466385;0.577968;-6.45873;-0.000740268;-9.61758e-05;0.00192139;0.00192486;-0.000743738;0.0013343;0.385277;2.59554;0.00159023;0.00177907;2.58809;0.386385;131.624;176.624;-0.00407613;-0.000745355;0.00300589;-0.00319;0.00191689;0.00361647;0.0171169;0;0.0241055;3.06324;1.43225
184000;185;25.7914;0.0377416;0.00146549;-2.43656;25.6752;-0.200918;-0.001469;0.0375163;-0.365848;0.0509557;-0.303316;-0.106108;0.325355;-6.25732;-0.000578877;0.000256318;0.00132255;0.0013565;-0.000612823;0.000984661;0.437697;2.28469;0.0011637;0.00131288;2.21352;0.451768;42.3902;87.3902;0.0021225;-0.00058174;-0.00189722;0.00240577;0.00132079;0.0070278;0.00950125;0;0.0162064;0.0446074;-0.340233;-0.470692;0.582494;-6.46304;-0.000813203;-2.67826e-05;0.00214878;0.00214902;-0.000813445;0.00148123;0.378449;2.64236;0.00176737;0.00197498;2.64187;0.378519;129.614;174.614;-0.00445089;-0.000818467;0.00319945;-0.00324348;0.00214367;0.00447999;0.0173295;0;0.0235629;3.14292;1.44136
185000;186;25.7927;0.0390974;0.00151813;-2.43658;25.6766;-0.199358;-0.00148939;0.0388884;-0.364288;0.0511154;-0.306019;-0.106307;0.327966;-6.25752;-0.00060097;0.000154892;0.00141835;0.00143016;-0.000612782;0.00102147;0.423711;2.3601;0.00121055;0.00136196;2.33388;0.428471;46.101;91.101;0.00215272;-0.000603566;-0.00197746;0.00228294;0.00141641;0.00626338;0.00929743;0;0.0182014;0.0444769;-0.34456;-0.469889;0.584377;-6.46224;-0.000618663;-7.74456e-05;0.00239228;0.00239427;-0.000620654;0.00150746;0.258608;3.86685;0.00183833;0.00200995;3.85766;0.259225;128.522;173.522;-0.0045086;-0.000623801;0.00306006;-0.00320552;0.00238761;0.00419683;0.0192793;0;0.0224293;3.21571;1.4482
186000;187;25.7945;0.0409101;0.00158852;-2.43593;25.6785;-0.201103;-0.000841177;0.0407572;-0.366033;0.0511943;-0.30705;-0.109915;0.330124;-6.26113;-0.000599344;0.000119508;0.00113819;0.00114637;-0.000607525;0.00087695;0.526575;1.89907;0.00102842;0.00116927;1.88696;0.529953;44.8933;89.8933;0.00198972;-0.000601644;-0.00191231;0.0021478;0.00113637;0.00576009;0.00890649;0;0.0186062;0.0447338;-0.345824;-0.476222;0.590239;-6.46857;-0.000614865;-8.27018e-05;0.00244449;0.00244672;-0.000617099;0.00153191;0.251531;3.97565;0.00187108;0.00204255;3.96488;0.252214;128.689;173.689;-0.00444992;-0.000620479;0.00319537;-0.00335077;0.0024394;0.0042203;0.0186517;0;0.0258461;3.28626;1.45469
187000;188;25.7936;0.0399311;0.0015505;-2.43548;25.6775;-0.207123;-0.000382558;0.0397694;-0.372053;0.0518376;-0.309797;-0.10871;0.332384;-6.25992;-0.000613923;0.000192071;0.00142557;0.0014435;-0.000631853;0.00103768;0.430651;2.32206;0.00122837;0.00138357;2.28455;0.437724;45.4417;90.4417;0.00184326;-0.000616296;-0.00180629;0.00218636;0.00142396;0.00632449;0.00979274;0;0.0208885;0.0452311;-0.34922;-0.476953;0.592861;-6.4693;-0.000673923;-0.000113368;0.00263399;0.00263787;-0.000677804;0.00165784;0.255857;3.90844;0.00202273;0.00221045;3.89179;0.256951;128.495;173.495;-0.00468868;-0.000679525;0.0031318;-0.00334783;0.0026291;0.00456922;0.0190886;0;0.0245509;3.36321;1.46254
188000;189;25.7976;0.0439459;0.0017064;-2.43574;25.6815;-0.200234;-0.000644241;0.0438321;-0.365164;0.0516308;-0.311488;-0.110169;0.334406;-6.26138;-0.000612933;0.000297287;0.00160209;0.0016413;-0.000652139;0.00114672;0.382583;2.61381;0.00136455;0.00152896;2.51679;0.397331;44.0966;89.0966;0.00223919;-0.000615797;-0.00182116;0.00241104;0.00160048;0.00509848;0.00950634;0;0.0156465;0.0452203;-0.352852;-0.475337;0.593713;-6.46768;-0.000596758;-0.000121038;0.00255306;0.0025577;-0.000601402;0.00157955;0.233743;4.27821;0.00193698;0.00210607;4.25289;0.235134;128.923;173.923;-0.00459286;-0.000602635;0.0031979;-0.00342955;0.00254796;0.0036385;0.0185559;0;0.0221125;3.43383;1.46895
189000;190;25.7968;0.043145;0.0016753;-2.43702;25.6805;-0.210358;-0.00192557;0.0428251;-0.375288;0.0496642;-0.313093;-0.112363;0.336332;-6.26357;-0.000532053;9.3168e-05;0.00183919;0.00184285;-0.000535708;0.00118928;0.289286;3.45679;0.00144073;0.0015857;3.44003;0.290696;51.7055;96.7055;0.00257728;-0.0005343;-0.00193993;0.00212145;0.00183732;0.00533127;0.00897251;0;0.0203931;0.0427523;-0.354995;-0.482458;0.600513;-6.4748;-0.000801499;-0.000134902;0.00280759;0.00281262;-0.000806534;0.00180958;0.285476;3.50292;0.00219391;0.00241277;3.4873;0.286755;129.142;174.142;-0.00569325;-0.00080817;0.00339682;-0.00365391;0.00280185;0.00621039;0.0187859;0;0.020551;3.51034;1.47687
190000;191;25.7996;0.0459758;0.00178522;-2.43595;25.6835;-0.206337;-0.000854903;0.0458029;-0.371267;0.0517073;-0.316339;-0.111263;0.339299;-6.26247;-0.000623946;0.000265151;0.00172582;0.00175537;-0.000653494;0.00120443;0.361536;2.76597;0.00143844;0.00160591;2.68612;0.372284;45.9814;90.9814;0.00263572;-0.000626733;-0.00184996;0.0023753;0.00172414;0.00561084;0.0108634;0;0.0219366;0.0449846;-0.360224;-0.481406;0.60294;-6.47375;-0.000646509;-0.000237216;0.00289167;0.00290751;-0.000662342;0.00178492;0.223576;4.47275;0.00219272;0.0023799;4.38973;0.227804;129.838;174.838;-0.00568459;-0.000653391;0.00325435;-0.00371646;0.00288642;0.00477;0.0169766;0;0.0206618;3.59121;1.48407
191000;192;25.8033;0.0496944;0.00192961;-2.43628;25.6872;-0.205775;-0.00118375;0.0495117;-0.370705;0.051096;-0.317638;-0.115998;0.341995;-6.26721;-0.000775691;0.000348311;0.00201807;0.00206084;-0.000818462;0.00143965;0.384373;2.60164;0.00171317;0.00191953;2.51794;0.39715;46.0224;91.0224;0.00246439;-0.000778794;-0.00182405;0.00251461;0.00201647;0.00548008;0.0108154;0;0.0332557;0.0438938;-0.364071;-0.487422;0.609963;-6.47977;-0.000558916;-0.000292742;0.00295712;0.00298132;-0.000583123;0.00178222;0.189007;5.2908;0.00220774;0.0023763;5.11268;0.195592;130.862;175.862;-0.00682911;-0.000567133;0.00349095;-0.00406317;0.00295108;0.00565615;0.0163372;0;0.0210501;3.67307;1.49196
192000;193;25.804;0.0503948;0.0019568;-2.43716;25.6878;-0.205438;-0.00206818;0.050134;-0.370368;0.0523476;-0.321644;-0.1114;0.344391;-6.26261;-0.000690525;0.00030695;0.00241039;0.00244048;-0.000720617;0.00158055;0.286478;3.49067;0.00191299;0.0021074;3.38666;0.295276;50.012;95.012;0.00291934;-0.000693671;-0.00191924;0.00252625;0.0024086;0.00520033;0.00949178;0;0.0229077;0.0450756;-0.368547;-0.483149;0.609337;-6.4755;-0.000654467;-0.000276146;0.00273085;0.00275323;-0.000676845;0.00171504;0.239657;4.17263;0.00209782;0.00228672;4.06774;0.245837;131.357;176.357;-0.0054362;-0.000661607;0.00324729;-0.00378768;0.00272563;0.00379048;0.0136701;0;0.0230564;3.7366;1.49552
193000;194;25.8054;0.0518163;0.002012;-2.43701;25.6893;-0.20667;-0.00191769;0.0515664;-0.3716;0.0504284;-0.321406;-0.123088;0.347844;-6.2743;-0.000597815;0.000458269;0.00224356;0.00231564;-0.000669898;0.00149277;0.266459;3.75293;0.00180889;0.00199036;3.4567;0.289293;46.1724;91.1724;0.00287954;-0.000601351;-0.0017873;0.00269747;0.00224207;0.00581115;0.0109998;0;0.0179376;0.0425506;-0.37042;-0.497534;0.62174;-6.48988;-0.000671986;-0.000150963;0.0025298;0.0025369;-0.000679088;0.00160799;0.265628;3.76466;0.0019573;0.00214399;3.73575;0.267684;130.025;175.025;-0.00640684;-0.000678304;0.00326579;-0.0035568;0.00252449;0.00466766;0.0159114;0;0.0232235;3.8219;1.50104
194000;195;25.807;0.0533694;0.00207231;-2.43646;25.6909;-0.204564;-0.00137126;0.0531952;-0.369494;0.0512823;-0.326646;-0.116728;0.350646;-6.26794;-0.000587027;0.000323965;0.00268708;0.00271883;-0.000618775;0.0016688;0.218463;4.57743;0.00205017;0.00222507;4.39389;0.227589;51.73;96.73;0.00256177;-0.000590399;-0.00197569;0.00261611;0.00268518;0.00593288;0.0111844;0;0.0159286;0.0438104;-0.37661;-0.490469;0.61993;-6.48281;-0.0007781;-8.80928e-05;0.0024384;0.00244081;-0.000780511;0.00161066;0.319103;3.13378;0.00194043;0.00214755;3.12719;0.319776;129.5;174.5;-0.00513312;-0.000783893;0.00323819;-0.0034037;0.00243317;0.00262287;0.0143754;0;0.0229867;3.8863;1.50573
195000;196;25.809;0.0554073;0.00215144;-2.43734;25.6929;-0.206546;-0.0022451;0.0551436;-0.371476;0.0521507;-0.329691;-0.115333;0.353154;-6.26655;-0.000645939;0.000572021;0.00307414;0.00316011;-0.000731909;0.00194601;0.21012;4.75918;0.00238839;0.00259468;4.31763;0.231609;50.3574;95.3574;0.00262007;-0.000649917;-0.00174198;0.00287744;0.00307279;0.00616003;0.0121335;0;0.0181564;0.0443382;-0.381109;-0.490253;0.622542;-6.4826;-0.000756947;-0.000136506;0.00229192;0.00229802;-0.000763046;0.00153053;0.330267;3.02785;0.00183988;0.00204071;3.01164;0.332045;130.774;175.774;-0.00476209;-0.000762503;0.00307191;-0.00333516;0.00228722;0.00270001;0.015673;0;0.0226711;3.97517;1.51287
196000;197;25.8094;0.0558044;0.00216686;-2.43801;25.6932;-0.207942;-0.00291284;0.0554678;-0.372872;0.0517556;-0.331263;-0.11787;0.355397;-6.26908;-0.000723941;0.000447697;0.00321911;0.0032693;-0.000774134;0.00202172;0.224889;4.44664;0.00247822;0.00269562;4.22317;0.236789;52.5297;97.5297;0.00278121;-0.000727798;-0.00192615;0.00281221;0.00321736;0.00598473;0.0111789;0;0.0174374;0.0438319;-0.383063;-0.494557;0.627093;-6.4869;-0.000795562;-8.85694e-05;0.00238404;0.0023865;-0.000798028;0.00159226;0.333704;2.99667;0.00191331;0.00212302;2.9905;0.334392;129.301;174.301;-0.00468353;-0.000800543;0.00298873;-0.0031561;0.00237959;0.00332575;0.0170775;0;0.0245877;4.03291;1.52015
197000;198;25.8098;0.0562188;0.00218295;-2.43701;25.6937;-0.209645;-0.00192028;0.0559644;-0.374575;0.0524093;-0.334018;-0.117906;0.358073;-6.26912;-0.000748933;0.000588786;0.00345644;0.00353732;-0.000829812;0.00218357;0.216677;4.61515;0.00267802;0.00291142;4.2628;0.234588;51.8769;96.8769;0.00307352;-0.000753248;-0.00182751;0.00299495;0.00345495;0.00622616;0.011139;0;0.0228835;0.0443987;-0.387524;-0.493847;0.62931;-6.48619;-0.00081532;-8.99245e-05;0.00225517;0.0022578;-0.000817952;0.00153788;0.361534;2.76599;0.0018395;0.0020505;2.76031;0.362278;130.002;175.002;-0.00448997;-0.000820254;0.0029707;-0.00314117;0.00225077;0.00277727;0.0164408;0;0.0282508;4.12017;1.52743
198000;199;25.809;0.0553616;0.00214966;-2.43712;25.6928;-0.214644;-0.00202411;0.0550522;-0.379574;0.051491;-0.336726;-0.122121;0.36187;-6.27333;-0.000690139;0.000539817;0.00313509;0.00320981;-0.000764859;0.00198733;0.220134;4.54269;0.0024352;0.00264978;4.19661;0.238288;50.3855;95.3855;0.00320456;-0.000694474;-0.00192238;0.00299262;0.00313339;0.00546413;0.0115893;0;0.0168188;0.0436702;-0.389584;-0.501442;0.636496;-6.49379;-0.000859702;-0.000107027;0.00248091;0.00248434;-0.000863128;0.00167373;0.346527;2.88578;0.00200679;0.00223164;2.8783;0.347428;129.366;174.366;-0.00439842;-0.000864697;0.00295712;-0.00316096;0.00247655;0.00316244;0.0180832;0;0.0233413;4.19477;1.53526
199000;200;25.8085;0.054856;0.00213003;-2.43821;25.6921;-0.217906;-0.00311598;0.0544133;-0.382836;0.0519963;-0.339722;-0.121755;0.364608;-6.27297;-0.000662315;0.000570268;0.00333181;0.00341164;-0.00074214;0.00207689;0.198785;5.03056;0.00255795;0.00276919;4.59703;0.217532;51.8377;96.8377;0.00264462;-0.000666424;-0.00179085;0.00292198;0.00333038;0.00620504;0.0105804;0;0.0191306;0.044098;-0.393674;-0.500976;0.638671;-6.49332;-0.000829004;-8.22398e-05;0.00264619;0.00264813;-0.000830949;0.00173954;0.313282;3.19201;0.00209799;0.00231939;3.18688;0.313787;128.273;173.273;-0.00416034;-0.000834226;0.00307788;-0.00323141;0.00264147;0.00357751;0.0190144;0;0.0268478;4.26644;1.54266
200000;201;25.809;0.0553901;0.00215077;-2.43909;25.6926;-0.214183;-0.00399619;0.0548975;-0.379113;0.0516796;-0.342829;-0.122483;0.367702;-6.27369;-0.000679895;0.000498763;0.00336376;0.00342437;-0.000740506;0.00208244;0.202123;4.94747;0.00256562;0.00277659;4.62437;0.216246;52.5157;97.5157;0.00291312;-0.000684079;-0.00194684;0.00293451;0.003362;0.00597619;0.0108219;0;0.0247778;0.0434183;-0.39705;-0.502618;0.641996;-6.49496;-0.000899225;-0.00017026;0.00284406;0.00285179;-0.000906953;0.00187937;0.316177;3.16279;0.00226487;0.00250583;3.14436;0.31803;129.055;174.055;-0.00423737;-0.000904817;0.00301842;-0.00334704;0.00283953;0.0042088;0.0176551;0;0.0323013;4.3464;1.5505
201000;202;25.8109;0.0572648;0.00222356;-2.43876;25.6945;-0.214657;-0.00366323;0.0568084;-0.379587;0.0508564;-0.344287;-0.126336;0.370244;-6.27755;-0.000650067;0.000629166;0.00330173;0.00339948;-0.000747818;0.00207365;0.196887;5.07906;0.00255238;0.00276487;4.54587;0.21998;50.1209;95.1209;0.00307614;-0.000654793;-0.00188866;0.00313707;0.00330015;0.00566425;0.010365;0;0.0246642;0.0428199;-0.398955;-0.507268;0.646776;-6.49961;-0.000786494;-4.48975e-05;0.00317038;0.00317089;-0.000787004;0.00197895;0.248076;4.03103;0.00241931;0.0026386;4.02907;0.248196;125.593;170.593;-0.00421443;-0.000791981;0.00323481;-0.00331167;0.00316517;0.00382067;0.0181127;0;0.0281006;4.42195;1.5568
202000;203;25.8099;0.0563106;0.00218651;-2.43802;25.6936;-0.214171;-0.00292874;0.0559237;-0.379101;0.0509851;-0.351944;-0.112752;0.373064;-6.26396;-0.000702151;0.000521186;0.00291508;0.00298867;-0.000775749;0.00188221;0.240869;4.15164;0.00229516;0.00250961;3.85263;0.259563;49.5024;94.5024;0.00297442;-0.000706193;-0.00185591;0.0028897;0.00291349;0.0047533;0.0100894;0;0.0291597;0.0434573;-0.406154;-0.493752;0.640813;-6.4861;-0.000883308;-0.000144238;0.00315838;0.00316352;-0.000888449;0.00202599;0.279671;3.57563;0.00245925;0.00270131;3.56073;0.280842;128.018;173.018;-0.0044113;-0.000889969;0.00337693;-0.00365122;0.00315271;0.00367531;0.0177582;0;0.0317921;4.50193;1.56327
203000;204;25.8105;0.0568691;0.0022082;-2.43908;25.6941;-0.217882;-0.00398351;0.0563533;-0.382812;0.0519315;-0.351997;-0.119054;0.375197;-6.27027;-0.000698064;0.000437278;0.00256215;0.00261978;-0.000755696;0.00168774;0.272453;3.67036;0.00204549;0.00225032;3.46671;0.288458;48.5268;93.5268;0.00251045;-0.000701728;-0.001874;0.00274103;0.00256049;0.00561488;0.00992842;0;0.0173366;0.0438345;-0.406829;-0.502592;0.648097;-6.49494;-0.000753069;-0.000154087;0.00328313;0.003289;-0.000758943;0.00202397;0.229376;4.35966;0.00248459;0.00269863;4.33366;0.230752;126.768;171.768;-0.00486624;-0.000759156;0.00319643;-0.00349112;0.00327805;0.00422818;0.0179381;0;0.0235796;4.57418;1.56782
204000;205;25.8123;0.0586627;0.00227784;-2.43781;25.696;-0.216244;-0.00271608;0.0582892;-0.381174;0.0520357;-0.355294;-0.122801;0.379502;-6.27401;-0.000706099;0.000326792;0.00233134;0.0023661;-0.00074086;0.00155348;0.302872;3.30172;0.00187383;0.00207131;3.19372;0.313114;49.0666;94.0666;0.00236003;-0.000709251;-0.00188448;0.00253136;0.00232962;0.00624635;0.0103806;0;0.0333427;0.044916;-0.409988;-0.506433;0.653133;-6.49878;-0.00072109;-0.000215144;0.00324099;0.00325264;-0.000732738;0.00199269;0.222491;4.49457;0.00244948;0.00265692;4.43901;0.225275;128.095;173.095;-0.00472313;-0.000727877;0.00327277;-0.00368928;0.00323567;0.00410168;0.0171378;0;0.0246232;4.64564;1.57213
205000;206;25.8144;0.0608215;0.00236167;-2.4386;25.6981;-0.217613;-0.00350819;0.060371;-0.382543;0.0520181;-0.355788;-0.127158;0.381392;-6.27837;-0.000798307;0.000310858;0.0023128;0.00234356;-0.000829064;0.00158631;0.345169;2.89713;0.00190001;0.00211508;2.82675;0.353763;49.1307;94.1307;0.0020414;-0.000801254;-0.00183154;0.00244661;0.00231117;0.0061796;0.00948688;0;0.0218961;0.0438842;-0.414082;-0.511721;0.659733;-6.50407;-0.000682954;-0.000286553;0.00347684;0.00349648;-0.000702601;0.00209954;0.19643;5.09088;0.00259706;0.00279939;4.97649;0.200945;128.234;173.234;-0.00561451;-0.000690405;0.00331139;-0.00386958;0.00347141;0.00480017;0.0167785;0;0.0219394;4.72397;1.57912
206000;207;25.8163;0.0626563;0.00243291;-2.43903;25.6999;-0.218225;-0.00394116;0.0621679;-0.383156;0.0523463;-0.356721;-0.131558;0.383794;-6.28277;-0.000790863;0.000178164;0.00262219;0.00263147;-0.000800138;0.0017158;0.301604;3.31561;0.00207315;0.00228774;3.28877;0.304065;53.613;98.613;0.00210184;-0.00079354;-0.00197066;0.00231967;0.00262027;0.00611201;0.0100784;0;0.0259088;0.0440705;-0.415492;-0.51791;0.665437;-6.51026;-0.000707855;-0.000227732;0.00357171;0.0035838;-0.000719939;0.00215187;0.198184;5.04583;0.00266183;0.00286916;4.97791;0.200887;126.933;171.933;-0.00610823;-0.000714856;0.00330714;-0.00374752;0.00356629;0.00564796;0.0162671;0;0.0245928;4.79595;1.5855
207000;208;25.8187;0.0650777;0.00252693;-2.43915;25.7023;-0.21708;-0.00406149;0.0645985;-0.38201;0.0524909;-0.360202;-0.127524;0.385699;-6.27874;-0.000747684;0.000303465;0.00218453;0.00221561;-0.000778761;0.00149719;0.342263;2.92173;0.00179392;0.00199625;2.84504;0.351488;48.385;93.385;0.00252714;-0.000750667;-0.00185983;0.00246043;0.00218285;0.00534715;0.009489;0;0.0247588;0.043887;-0.421532;-0.513749;0.665998;-6.5061;-0.000743249;-0.000276844;0.00338626;0.00340474;-0.000761726;0.00208323;0.219489;4.55603;0.00256177;0.00277765;4.46977;0.223725;128.248;173.248;-0.00573376;-0.000750087;0.00316754;-0.00370704;0.0033813;0.00388279;0.014784;0;0.0229377;4.87658;1.59311
208000;209;25.8193;0.0657298;0.00255225;-2.43848;25.703;-0.220244;-0.00338654;0.0652907;-0.385174;0.0522832;-0.361626;-0.127862;0.387112;-6.27907;-0.000760272;0.000280474;0.00246637;0.00249057;-0.000784471;0.00163752;0.308256;3.24406;0.00197451;0.00218336;3.17484;0.314977;51.3742;96.3742;0.00208977;-0.000762954;-0.0017779;0.00233222;0.00246483;0.00563269;0.00935749;0;0.0184116;0.043353;-0.424631;-0.515614;0.669365;-6.50796;-0.000831128;-0.000215844;0.00322675;0.00323819;-0.000842577;0.00204039;0.257575;3.88237;0.00248768;0.00272051;3.8432;0.2602;128.426;173.426;-0.00500598;-0.000837829;0.00324806;-0.00366573;0.00322151;0.00256257;0.0149773;0;0.0262766;4.95101;1.60052
209000;210;25.8217;0.0680835;0.00264365;-2.43927;25.7053;-0.218401;-0.00418132;0.0675953;-0.383331;0.0527885;-0.364101;-0.129524;0.390042;-6.28074;-0.000760284;0.000128364;0.0022234;0.00222892;-0.000765796;0.00149736;0.341946;2.92444;0.00179647;0.00199647;2.91059;0.343574;51.9848;96.9848;0.00225107;-0.000762858;-0.00202137;0.0022717;0.00222137;0.00616529;0.00929285;0;0.0222085;0.0437864;-0.429092;-0.517521;0.673695;-6.50987;-0.000844193;-0.000219176;0.00308924;0.00310142;-0.000856368;0.00197889;0.273269;3.6594;0.00240445;0.00263852;3.62159;0.276122;128.838;173.838;-0.00479933;-0.000850484;0.00312722;-0.00355245;0.00308439;0.00340906;0.0141747;0;0.023351;5.02395;1.60827
210000;211;25.822;0.0683987;0.00265589;-2.43864;25.7056;-0.222435;-0.0035516;0.0679372;-0.387365;0.0522853;-0.367016;-0.128006;0.392199;-6.27922;-0.000795421;0.000205529;0.00246953;0.00248242;-0.000808308;0.00164536;0.322094;3.10469;0.00198016;0.00219382;3.07113;0.325613;52.523;97.523;0.0023074;-0.000797951;-0.00185363;0.00225798;0.00246784;0.00616276;0.00989396;0;0.022982;0.0432201;-0.433511;-0.517157;0.676203;-6.5095;-0.000895713;-0.000146231;0.00291124;0.00291685;-0.000901321;0.00190908;0.307674;3.25019;0.00230453;0.00254544;3.23619;0.309006;128.491;173.491;-0.00439034;-0.000901398;0.00309341;-0.00337357;0.00290648;0.00295484;0.0174897;0;0.024255;5.10269;1.61513
211000;212;25.8227;0.0691267;0.00268415;-2.4392;25.7063;-0.225145;-0.00411025;0.0685918;-0.390075;0.052597;-0.369171;-0.126296;0.393706;-6.27751;-0.000805902;0.000266353;0.00258757;0.00260834;-0.000826681;0.00171751;0.311452;3.21077;0.00207023;0.00229002;3.1552;0.316937;52.2582;97.2582;0.00233409;-0.00080857;-0.00179873;0.00232444;0.00258599;0.00570445;0.0100114;0;0.0179526;0.043192;-0.436432;-0.517657;0.678459;-6.51;-0.000964402;-0.000139494;0.00292624;0.00293124;-0.000969397;0.00195032;0.32957;3.03426;0.00234506;0.00260042;3.02378;0.330712;128.349;173.349;-0.00405356;-0.000969783;0.00301511;-0.00328185;0.00292172;0.00339575;0.0160077;0;0.0236438;5.18212;1.62284
212000;213;25.8255;0.0718583;0.00279022;-2.43905;25.7091;-0.22434;-0.003959;0.0713572;-0.38927;0.0527963;-0.371186;-0.128723;0.396404;-6.27993;-0.000909785;0.000308106;0.00264938;0.00267585;-0.00093626;0.00180606;0.343396;2.91209;0.00216457;0.00240807;2.85802;0.349892;51.3133;96.3133;0.00221466;-0.00091266;-0.00180804;0.00241674;0.00264779;0.00575111;0.0102407;0;0.0173996;0.043295;-0.440314;-0.519914;0.682687;-6.51226;-0.000991423;-0.000131051;0.00294252;0.00294688;-0.000995784;0.00197133;0.33693;2.96797;0.00236738;0.00262844;2.95935;0.337912;128.275;173.275;-0.00430258;-0.00099681;0.00303373;-0.00328342;0.00293794;0.00345364;0.0167743;0;0.0239118;5.25761;1.63025
213000;214;25.8269;0.0732452;0.00284407;-2.43959;25.7104;-0.227503;-0.00449461;0.0726718;-0.392433;0.0529239;-0.373855;-0.129349;0.399124;-6.28056;-0.000846309;0.00034906;0.00291664;0.00294875;-0.000878415;0.00191358;0.290166;3.44631;0.00231487;0.00255144;3.35689;0.297894;53.0772;98.0772;0.00260468;-0.000849162;-0.00172257;0.00241291;0.00291522;0.00520619;0.0109017;0;0.0236905;0.043359;-0.443978;-0.521741;0.686447;-6.51409;-0.00106584;-7.71951e-05;0.00299103;0.00299249;-0.00106731;0.0020299;0.356347;2.80625;0.00243019;0.00270654;2.80377;0.356663;127.638;172.638;-0.00409083;-0.00107115;0.00311643;-0.0032579;0.00298619;0.00370286;0.0175123;0;0.0278182;5.33393;1.63707
214000;215;25.8293;0.0757129;0.00293989;-2.43871;25.713;-0.223615;-0.00361675;0.075268;-0.388545;0.0533993;-0.376196;-0.128052;0.400964;-6.27926;-0.000830726;0.000409622;0.00276514;0.00281122;-0.000876798;0.00184401;0.300428;3.32859;0.00222477;0.00245868;3.20623;0.311893;50.4112;95.4112;0.0027777;-0.000834081;-0.00180996;0.00262124;0.0027636;0.00509767;0.0128605;0;0.0172218;0.0438634;-0.446985;-0.521195;0.688014;-6.51354;-0.000910315;-5.33192e-05;0.00308469;0.0030854;-0.000911026;0.00199821;0.295108;3.38859;0.0024185;0.00266428;3.38673;0.29527;126.533;171.533;-0.00382285;-0.000915838;0.00322906;-0.00332262;0.00307949;0.00216436;0.0176215;0;0.0237814;5.40443;1.64086
215000;216;25.83;0.0763465;0.0029645;-2.43946;25.7135;-0.226415;-0.00436309;0.0758093;-0.391345;0.0535898;-0.377899;-0.132517;0.40403;-6.28373;-0.000807016;0.000485281;0.00341314;0.00346823;-0.0008621;0.00216516;0.236444;4.22934;0.00264674;0.00288689;4.023;0.248571;54.102;99.102;0.00271698;-0.000810393;-0.00168132;0.00264277;0.00341185;0.00516418;0.0107916;0;0.0178788;0.0438479;-0.449781;-0.525375;0.692996;-6.51772;-0.000911371;-3.88568e-05;0.00335535;0.0033557;-0.000911725;0.00213371;0.271617;3.68165;0.00259499;0.00284495;3.68061;0.271694;125.175;170.175;-0.00383856;-0.00091677;0.00322101;-0.00328486;0.00335018;0.0029715;0.0172962;0;0.0251455;5.47846;1.64782
216000;217;25.8302;0.0766079;0.00297465;-2.43924;25.7138;-0.229854;-0.00414202;0.0760623;-0.394784;0.0529655;-0.378265;-0.135699;0.405344;-6.28691;-0.000810283;0.000400041;0.00342097;0.00345846;-0.000847773;0.00215312;0.236858;4.22194;0.0026341;0.00287082;4.07946;0.24513;55.3169;100.317;0.0025465;-0.000813445;-0.00175451;0.00254551;0.00341951;0.00534316;0.0115818;0;0.020451;0.0432322;-0.450977;-0.531168;0.698133;-6.52351;-0.00102418;-5.6722e-05;0.00355559;0.00355629;-0.00102489;0.00229059;0.288049;3.47164;0.00277628;0.00305412;3.46994;0.288189;124.775;169.775;-0.00373509;-0.00102937;0.00312048;-0.00321943;0.00355074;0.00282747;0.0180808;0;0.0266231;5.55368;1.65339
217000;218;25.8305;0.0768676;0.00298473;-2.44;25.714;-0.228518;-0.00490621;0.0762626;-0.393448;0.0532223;-0.381547;-0.134573;0.408069;-6.28578;-0.000848208;0.000423607;0.00361103;0.00365092;-0.000888092;0.0022695;0.234894;4.25725;0.00277771;0.00302601;4.11097;0.243252;55.4227;100.423;0.00233548;-0.000851688;-0.00183382;0.002671;0.00360945;0.00603451;0.0110756;0;0.0207855;0.0431978;-0.454845;-0.529175;0.699125;-6.52152;-0.000922982;-6.74924e-05;0.00358509;0.0035861;-0.000923992;0.00225505;0.25745;3.88425;0.00275095;0.00300673;3.88109;0.257659;124.562;169.562;-0.0037703;-0.000928351;0.0031556;-0.0032761;0.00358013;0.00262841;0.0179712;0;0.0259462;5.62608;1.66086
218000;219;25.832;0.078362;0.00304276;-2.43938;25.7155;-0.229723;-0.00428386;0.077812;-0.394653;0.0527738;-0.383766;-0.136579;0.41075;-6.28779;-0.000867572;0.000564466;0.00395426;0.00401946;-0.00093277;0.00247611;0.219402;4.55785;0.00303866;0.00330149;4.30916;0.232064;55.9077;100.908;0.00267789;-0.000871255;-0.00165248;0.00277076;0.00395306;0.00583544;0.0111464;0;0.0245823;0.0429104;-0.457698;-0.53444;0.70495;-6.52679;-0.00090539;-0.000146543;0.00381925;0.00382379;-0.000909931;0.00236686;0.23706;4.21835;0.00290048;0.00315582;4.20229;0.237966;124.85;169.85;-0.00408799;-0.000911342;0.00317411;-0.00345156;0.00381424;0.00385996;0.0166113;0;0.0300829;5.70434;1.66842
219000;220;25.8324;0.0788281;0.00306086;-2.43972;25.716;-0.228885;-0.00462908;0.078255;-0.393815;0.0534183;-0.387316;-0.13556;0.413816;-6.28677;-0.000915402;0.000552591;0.00408432;0.00414466;-0.000975748;0.00256021;0.224126;4.46178;0.00313932;0.00341361;4.24768;0.235423;55.3703;100.37;0.00259154;-0.000919681;-0.00188263;0.00297569;0.00408271;0.00656771;0.0116347;0;0.0172103;0.0435123;-0.462091;-0.532038;0.706036;-6.52438;-0.000948484;-0.000144464;0.00399909;0.0040033;-0.000952699;0.002478;0.237175;4.2163;0.00303667;0.003304;4.20207;0.237978;124.377;169.377;-0.00425545;-0.000954558;0.00321441;-0.00348678;0.00399395;0.00401396;0.0191194;0;0.0247046;5.76815;1.67561
220000;221;25.8331;0.0794937;0.0030867;-2.44002;25.7166;-0.231257;-0.00492711;0.0788741;-0.396187;0.0529265;-0.389253;-0.137547;0.416219;-6.28876;-0.00106426;0.000483016;0.00436792;0.00441054;-0.00110687;0.00275871;0.243653;4.1042;0.00337045;0.00367827;3.98468;0.250961;57.4252;102.425;0.00259615;-0.00106821;-0.0018962;0.00284936;0.00436625;0.0068956;0.0118403;0;0.0177634;0.0429232;-0.464973;-0.534539;0.709771;-6.52689;-0.000993305;-0.00019533;0.00417557;0.00418294;-0.00100068;0.00259181;0.237885;4.20372;0.00317519;0.00345575;4.18012;0.239228;124.194;169.194;-0.00500797;-0.000999329;0.00310132;-0.00347501;0.0041708;0.00483731;0.0158815;0;0.0239748;5.83871;1.6828
221000;222;25.8348;0.0811652;0.0031516;-2.44075;25.7182;-0.232196;-0.00565358;0.0804758;-0.397126;0.0524965;-0.392236;-0.134779;0.418056;-6.28599;-0.00105493;0.000471642;0.00441354;0.00445392;-0.00109531;0.00277462;0.239021;4.18373;0.00339382;0.00369949;4.06636;0.24592;57.9613;102.961;0.00237685;-0.00105877;-0.00187867;0.00280916;0.0044119;0.00658935;0.0116872;0;0.0176572;0.0424312;-0.469253;-0.533716;0.711935;-6.52606;-0.000883754;-0.00023249;0.00422986;0.00424041;-0.000894303;0.00256736;0.208932;4.78625;0.00316741;0.00342314;4.74159;0.2109;124.64;169.64;-0.00539457;-0.000890523;0.00323763;-0.00368494;0.00422467;0.00570871;0.0154079;0;0.0264005;5.91264;1.68922
222000;223;25.8349;0.0812313;0.00315417;-2.44091;25.7182;-0.230747;-0.00582044;0.0805394;-0.395677;0.052566;-0.394077;-0.138317;0.420941;-6.28953;-0.00105245;0.000380951;0.00424599;0.00427324;-0.0010797;0.00267647;0.247869;4.03439;0.00326872;0.00356863;3.95781;0.252665;58.1606;103.161;0.00253394;-0.00105604;-0.00195584;0.00270541;0.00424416;0.00680268;0.0116838;0;0.0229304;0.0421347;-0.472526;-0.537884;0.7172;-6.53023;-0.000853353;-0.000300394;0.0042874;0.00430489;-0.000870846;0.00258787;0.199037;5.02418;0.00319996;0.00345049;4.94334;0.202292;124.806;169.806;-0.00541397;-0.00086005;0.00308723;-0.00367067;0.0042827;0.00463997;0.0167509;0;0.0251252;5.99627;1.69731
223000;224;25.8354;0.0818061;0.00317649;-2.44105;25.7188;-0.233323;-0.00595372;0.0810809;-0.398253;0.0524141;-0.397069;-0.13972;0.424185;-6.29093;-0.00100787;0.00054416;0.0044699;0.00452344;-0.00106141;0.00279242;0.22548;4.43499;0.0034247;0.00372323;4.26174;0.234646;57.1857;102.186;0.00293652;-0.00101212;-0.00188785;0.0029629;0.00446828;0.00658322;0.0115012;0;0.0190247;0.0417407;-0.476663;-0.540426;0.72181;-6.53277;-0.000877513;-0.000180109;0.00386672;0.00387354;-0.00088434;0.00237894;0.22694;4.40645;0.00292209;0.00317192;4.38015;0.228303;124.626;169.626;-0.00482601;-0.000883214;0.00303524;-0.00338026;0.00386214;0.00283797;0.0142057;0;0.0322571;6.05242;1.70364
224000;225;25.8354;0.0818247;0.00317721;-2.44193;25.7187;-0.233901;-0.00683657;0.0810105;-0.398831;0.0526114;-0.40089;-0.138007;0.427232;-6.28922;-0.000996929;0.000481933;0.00436532;0.00440829;-0.0010399;0.00272409;0.228375;4.37876;0.0033399;0.00363212;4.23915;0.235896;57.8248;102.825;0.00251543;-0.00100078;-0.00186383;0.00281516;0.0043637;0.00619879;0.0115183;0;0.0257485;0.041626;-0.48131;-0.54018;0.724697;-6.53253;-0.000980361;-0.000129662;0.00384741;0.00385089;-0.00098384;0.00241736;0.254811;3.92448;0.0029504;0.00322315;3.91414;0.255484;124.452;169.452;-0.00422321;-0.000985909;0.00308812;-0.00333196;0.00384267;0.00225528;0.0156233;0;0.0384806;6.12407;1.71107
225000;226;25.8364;0.0827471;0.00321303;-2.44179;25.7196;-0.23603;-0.00669992;0.0819306;-0.40096;0.0530021;-0.401994;-0.13944;0.428779;-6.29065;-0.000982862;0.000480895;0.00394277;0.00398928;-0.00102937;0.00250933;0.249282;4.01152;0.00306089;0.00334577;3.87544;0.258035;55.4658;100.466;0.00299875;-0.000986821;-0.00190321;0.0028533;0.00394108;0.00550296;0.0113718;0;0.0180235;0.0420134;-0.484224;-0.542633;0.728484;-6.53498;-0.00100188;-0.000158572;0.00386443;0.00386959;-0.00100704;0.00243831;0.259256;3.8572;0.00297282;0.00325109;3.84255;0.260244;124.694;169.694;-0.00420032;-0.00100741;0.00302876;-0.00333046;0.00385987;0.002716;0.015085;0;0.0261069;6.19302;1.71711
226000;227;25.8389;0.0852525;0.00331031;-2.44183;25.7222;-0.234301;-0.00673711;0.0844597;-0.399232;0.0533804;-0.405567;-0.139485;0.432192;-6.2907;-0.000889563;0.000494455;0.00427251;0.00431945;-0.000936498;0.00262797;0.208206;4.80293;0.00323727;0.00350396;4.61234;0.21681;57.6079;102.608;0.00282272;-0.000893418;-0.00184213;0.00281903;0.00427094;0.00559751;0.0119926;0;0.0181144;0.0426;-0.488424;-0.543986;0.732321;-6.53633;-0.00116261;-8.44187e-05;0.00359911;0.00360061;-0.00116411;0.00238236;0.323028;3.09571;0.00286829;0.00317648;3.09302;0.323309;125.456;170.456;-0.00408274;-0.00116789;0.00309403;-0.00324778;0.00359434;0.00283937;0.0169462;0;0.0250514;6.25964;1.72146
227000;228;25.84;0.0864023;0.00335496;-2.44229;25.7233;-0.234549;-0.00719832;0.0855687;-0.399479;0.0535028;-0.407272;-0.145092;0.435643;-6.2963;-0.0010557;0.000446519;0.00354932;0.00359221;-0.00109859;0.0023454;0.297437;3.36206;0.00283292;0.0031272;3.26983;0.305827;53.954;98.954;0.00300707;-0.00105927;-0.00182634;0.00270894;0.00354775;0.00471034;0.0115041;0;0.0223567;0.0424614;-0.491063;-0.54971;0.738327;-6.54206;-0.00107779;-9.81963e-05;0.00357522;0.00357729;-0.00107986;0.00232857;0.30146;3.31719;0.00281473;0.00310476;3.31274;0.301865;124.789;169.789;-0.00405521;-0.0010825;0.00288781;-0.00307036;0.00357107;0.00293404;0.0177446;0;0.02652;6.31367;1.7278
228000;229;25.842;0.0883869;0.00343202;-2.44285;25.7252;-0.234873;-0.00775926;0.087506;-0.399803;0.0540791;-0.410405;-0.145749;0.438861;-6.29696;-0.000939775;0.000405758;0.00331916;0.00335747;-0.000978088;0.00216778;0.283136;3.53187;0.00262579;0.00289037;3.43269;0.291317;53.0076;98.0076;0.00265613;-0.000943516;-0.00196245;0.00276391;0.00331732;0.00555649;0.0100909;0;0.0176348;0.0431216;-0.4952;-0.551583;0.742513;-6.54393;-0.00115524;-7.86866e-05;0.00363281;0.0036341;-0.00115653;0.00239531;0.318001;3.14464;0.00288653;0.00319375;3.14224;0.318244;124.94;169.94;-0.0036861;-0.00116021;0.00301007;-0.00315271;0.0036283;0.00288787;0.0165172;0;0.0249748;6.37593;1.73323
229000;230;25.842;0.0883593;0.00343095;-2.44195;25.7252;-0.238372;-0.00685211;0.0875322;-0.403302;0.0551462;-0.415293;-0.144551;0.443175;-6.29576;-0.000993536;0.000234963;0.00325949;0.00327243;-0.00100648;0.00213945;0.304813;3.2807;0.00258332;0.00285261;3.25137;0.307563;55.6152;100.615;0.00232555;-0.000996416;-0.00194981;0.00241047;0.00325762;0.00640858;0.010957;0;0.0181372;0.0444417;-0.499917;-0.551418;0.745624;-6.54376;-0.00124527;-1.87086e-06;0.00378189;0.00378189;-0.00124527;0.00251358;0.329273;3.03699;0.00302309;0.00335144;3.03699;0.329273;124.081;169.081;-0.00343054;-0.0012503;0.00318059;-0.0031684;0.00377685;0.00326863;0.017754;0;0.0273692;6.43554;1.74072
230000;231;25.8443;0.0906629;0.0035204;-2.44241;25.7275;-0.238241;-0.00731444;0.0898037;-0.403171;0.0567053;-0.41793;-0.142986;0.445338;-6.2942;-0.00101828;0.000303838;0.00317;0.00319192;-0.00104021;0.00211606;0.321224;3.11309;0.00254651;0.00282142;3.06855;0.325887;54.1407;99.1407;0.00254018;-0.00102126;-0.00186205;0.00246068;0.00316831;0.00550619;0.0102303;0;0.0221519;0.0460752;-0.503664;-0.550683;0.747698;-6.54303;-0.00118276;-4.07567e-06;0.00387521;0.00387522;-0.00118277;0.00252899;0.305213;3.2764;0.00305503;0.00337199;3.2764;0.305213;123.68;168.68;-0.00344732;-0.00118797;0.00323409;-0.00322592;0.00387;0.00371637;0.017042;0;0.0294188;6.49017;1.74778
231000;232;25.8443;0.0906612;0.00352033;-2.44275;25.7275;-0.240149;-0.00765856;0.0897515;-0.405079;0.0577312;-0.420802;-0.14563;0.449015;-6.29684;-0.00101745;0.000179424;0.0029965;0.0030045;-0.00102545;0.00201498;0.339546;2.94511;0.00241841;0.00268664;2.92993;0.341305;55.0406;100.041;0.0022565;-0.00102005;-0.00193543;0.00228581;0.00299465;0.00566714;0.0101925;0;0.0251125;0.0471506;-0.506699;-0.554942;0.752946;-6.54729;-0.00115569;-2.59954e-05;0.00411202;0.00411215;-0.00115582;0.00263398;0.281051;3.55807;0.00319712;0.00351198;3.55778;0.281074;122.663;167.663;-0.002953;-0.00116071;0.00313307;-0.00316849;0.00410713;0.00345042;0.0189358;0;0.0300929;6.53942;1.75552
232000;233;25.8451;0.0914936;0.00355265;-2.4424;25.7283;-0.243694;-0.00730629;0.0905878;-0.408624;0.0575956;-0.424039;-0.145184;0.45189;-6.2964;-0.00115799;3.68274e-05;0.00322905;0.00322936;-0.0011583;0.00219383;0.358617;2.78849;0.0026256;0.00292511;2.78802;0.358678;57.5253;102.525;0.00240689;-0.00116033;-0.00209666;0.00216098;0.00322686;0.00622999;0.0106567;0;0.0220646;0.0472685;-0.511084;-0.554368;0.755489;-6.54671;-0.00107873;-6.50822e-05;0.00430403;0.00430481;-0.00107952;0.00269217;0.250634;3.98989;0.0032893;0.00358956;3.98771;0.250771;121.792;166.792;-0.00332376;-0.00108363;0.00301557;-0.00312922;0.0042995;0.00346785;0.0180105;0;0.0271802;6.58622;1.76265
233000;234;25.8469;0.093286;0.00362225;-2.44304;25.7301;-0.239731;-0.00794374;0.0923651;-0.404661;0.0579417;-0.424058;-0.152275;0.454279;-6.30349;-0.00104291;0.000111728;0.00307072;0.00307375;-0.00104594;0.00205984;0.339629;2.94439;0.00247268;0.00274646;2.93875;0.340281;55.9634;100.963;0.00206348;-0.00104551;-0.00207076;0.00228527;0.00306858;0.0068688;0.0110197;0;0.0187677;0.0475129;-0.511703;-0.562604;0.761984;-6.55495;-0.00114092;-3.77573e-05;0.00437233;0.00437258;-0.00114118;0.00275688;0.260942;3.83227;0.00336067;0.00367584;3.83163;0.260985;122.3;167.3;-0.00343147;-0.00114648;0.00327348;-0.00333082;0.00436699;0.00378861;0.0165839;0;0.024935;6.61953;1.77036
234000;235;25.8496;0.095969;0.00372643;-2.44358;25.7327;-0.2378;-0.00848711;0.0950266;-0.40273;0.059516;-0.426917;-0.157645;0.458969;-6.30886;-0.00105161;0.000171458;0.00315409;0.00316107;-0.00105859;0.00210983;0.333412;2.99929;0.00253502;0.00281311;2.98611;0.334883;55.4127;100.413;0.00252935;-0.00105443;-0.00204593;0.00237955;0.00315202;0.00568954;0.0116498;0;0.0277826;0.0490367;-0.515962;-0.568005;0.768929;-6.56035;-0.00111616;-6.54101e-05;0.00468395;0.00468469;-0.0011169;0.00290079;0.238295;4.19648;0.00355441;0.00386772;4.19437;0.238415;121.677;166.677;-0.00378889;-0.00112207;0.00332492;-0.00343617;0.00467845;0.00497852;0.0167667;0;0.0281343;6.67434;1.77769
235000;236;25.8499;0.0963159;0.0037399;-2.44343;25.7331;-0.239466;-0.00833625;0.0953739;-0.404396;0.0594773;-0.427715;-0.160023;0.460527;-6.31124;-0.00091516;0.000247819;0.00316432;0.00317931;-0.00093016;0.00205474;0.289213;3.45766;0.00248824;0.00273965;3.41803;0.292566;54.7388;99.7388;0.00229725;-0.000918298;-0.00202953;0.00251591;0.00316229;0.00670784;0.0119467;0;0.0201407;0.0492195;-0.517576;-0.57186;0.772872;-6.56421;-0.00112232;-0.000107219;0.00470787;0.00470984;-0.00112429;0.00291707;0.238392;4.19477;0.0035741;0.00388942;4.18917;0.238711;122.063;167.063;-0.00432843;-0.00112841;0.00329389;-0.00348859;0.00470248;0.00597719;0.0157396;0;0.0249551;6.6959;1.78506
236000;237;25.8492;0.0956149;0.00371268;-2.4428;25.7324;-0.241694;-0.00770188;0.0947091;-0.406625;0.0592674;-0.432258;-0.160494;0.464885;-6.31171;-0.00108059;0.00030151;0.00357774;0.00359718;-0.00110003;0.0023486;0.302032;3.31091;0.0028368;0.00313147;3.27008;0.305803;55.6022;100.602;0.00295022;-0.00108392;-0.00200348;0.0025958;0.00357579;0.00541403;0.012478;0;0.0181274;0.0489845;-0.523235;-0.573125;0.77759;-6.56547;-0.001157;-0.000198166;0.00466266;0.0046694;-0.00116374;0.00291657;0.248141;4.02996;0.00356474;0.00388876;4.01241;0.249226;122.84;167.84;-0.00411915;-0.00116301;0.00309402;-0.00347128;0.00465792;0.00432232;0.0146015;0;0.027449;6.75166;1.79247
237000;238;25.8493;0.0957157;0.00371659;-2.44273;25.7325;-0.243186;-0.00763744;0.0948024;-0.408116;0.059995;-0.435808;-0.157153;0.467146;-6.30836;-0.00100951;0.000444416;0.00394895;0.00398846;-0.00104903;0.00251875;0.255641;3.91173;0.00306901;0.00335833;3.80205;0.263016;56.1616;101.162;0.00288491;-0.00101321;-0.00187716;0.00275452;0.00394729;0.00522459;0.0112089;0;0.0235803;0.0496801;-0.527613;-0.571109;0.779108;-6.56346;-0.00115653;-5.58684e-05;0.00453478;0.00453533;-0.00115708;0.0028462;0.255035;3.92102;0.00347408;0.00379493;3.91964;0.255125;122.077;167.077;-0.00446738;-0.00116225;0.00328929;-0.00338207;0.00452939;0.00612571;0.0142226;0;0.0273433;6.77891;1.79689
238000;239;25.8505;0.096909;0.00376293;-2.44252;25.7337;-0.241221;-0.00742358;0.0960399;-0.406152;0.0589192;-0.439077;-0.159371;0.470807;-6.31058;-0.00103363;0.000540325;0.00378548;0.00384531;-0.00109347;0.00246939;0.273052;3.66231;0.00299532;0.00329252;3.51662;0.284364;53.6404;98.6404;0.00236791;-0.00103779;-0.00186461;0.00293371;0.00378389;0.00758645;0.0124529;0;0.0163454;0.0486724;-0.531739;-0.573366;0.783495;-6.56571;-0.00124866;-9.33366e-05;0.00442122;0.00442276;-0.0012502;0.00283648;0.282425;3.54076;0.00344178;0.00378197;3.53764;0.282674;122.222;167.222;-0.00362458;-0.00125364;0.00298415;-0.00315345;0.00441679;0.00440707;0.0150669;0;0.028386;6.81218;1.80046
239000;240;25.8508;0.0971879;0.00377376;-2.44269;25.734;-0.24549;-0.00759786;0.0962632;-0.41042;0.060007;-0.43983;-0.165593;0.473785;-6.3168;-0.00109403;0.000386493;0.00436549;0.00439271;-0.00112126;0.00275698;0.250609;3.99028;0.00336508;0.00367598;3.91767;0.255254;57.8404;102.84;0.00308767;-0.00109799;-0.00207775;0.00283734;0.00436341;0.00612193;0.0117441;0;0.0161697;0.0496418;-0.533945;-0.58111;0.790728;-6.57346;-0.00127889;-9.17679e-05;0.00430579;0.0043073;-0.0012804;0.00279385;0.297016;3.36682;0.00338016;0.00372513;3.36403;0.297262;122.87;167.87;-0.00352625;-0.00128395;0.00301483;-0.00318109;0.00430127;0.00476827;0.0143523;0;0.0281512;6.85852;1.80702
240000;241;25.852;0.0984025;0.00382092;-2.44387;25.7351;-0.246328;-0.00877418;0.0973636;-0.411259;0.0606013;-0.442297;-0.165946;0.476275;-6.31716;-0.00116548;0.000409399;0.00425126;0.00428202;-0.00119625;0.00273914;0.27415;3.64764;0.00332593;0.00365218;3.57955;0.279365;57.0253;102.025;0.00254779;-0.00116937;-0.00201366;0.00281938;0.00424932;0.00796973;0.0135414;0;0.0243761;0.0501209;-0.537398;-0.583273;0.79468;-6.57562;-0.00143584;-5.18209e-06;0.00418422;0.00418422;-0.00143585;0.00281003;0.343157;2.91412;0.0033716;0.00374671;2.91412;0.343157;123.093;168.093;-0.00366087;-0.00144068;0.00311677;-0.00310966;0.00417938;0.00460333;0.0156572;0;0.028712;6.8919;1.81458
241000;242;25.852;0.098334;0.00381826;-2.44326;25.7351;-0.245049;-0.00817123;0.0973642;-0.409979;0.0594472;-0.444256;-0.173736;0.480709;-6.32495;-0.00112503;0.000486224;0.00476083;0.00480073;-0.00116492;0.00298283;0.236309;4.23175;0.00365127;0.0039771;4.12107;0.242655;58.3484;103.348;0.0028002;-0.00112936;-0.00202492;0.00298265;0.00475891;0.00784361;0.0131752;0;0.0173972;0.0493138;-0.540359;-0.589397;0.80113;-6.58174;-0.00139134;-4.05455e-05;0.00419319;0.00419349;-0.00139163;0.00279256;0.331809;3.01379;0.0033571;0.00372341;3.01336;0.331855;122.836;167.836;-0.00345827;-0.00139593;0.00296393;-0.00302832;0.00418882;0.00415833;0.017537;0;0.0282327;6.91803;1.82082
242000;243;25.8509;0.097249;0.00377613;-2.44371;25.7339;-0.248804;-0.00862163;0.0961956;-0.413734;0.060424;-0.450469;-0.168783;0.484831;-6.31999;-0.00120667;0.000340302;0.00471059;0.00473009;-0.00122618;0.00297814;0.256162;3.90378;0.00363179;0.00397085;3.85758;0.25923;58.7388;103.739;0.00298368;-0.00121093;-0.00227052;0.00293574;0.00470808;0.00691076;0.0130803;0;0.0188007;0.0501645;-0.54618;-0.585532;0.802295;-6.57788;-0.00150643;-4.91241e-05;0.00413885;0.00413928;-0.00150686;0.00282307;0.363974;2.74745;0.00337583;0.00376409;2.74695;0.36404;123.698;168.698;-0.00302034;-0.00151115;0.00298649;-0.00306767;0.00413441;0.00359681;0.0192789;0;0.0255659;6.96947;1.82849
243000;244;25.852;0.0984234;0.00382173;-2.44419;25.7351;-0.24512;-0.00909314;0.0973659;-0.41005;0.0594633;-0.451497;-0.172801;0.487078;-6.32401;-0.00121684;0.00031202;0.0046806;0.00469706;-0.0012333;0.00296518;0.259975;3.84653;0.00361332;0.00395357;3.80853;0.262568;59.2699;104.27;0.00280858;-0.00122078;-0.00221672;0.00282591;0.0046782;0.0073333;0.0121962;0;0.0175408;0.0492525;-0.547629;-0.589888;0.806406;-6.58223;-0.00149273;1.4537e-05;0.00422354;0.00422358;-0.00149277;0.00285817;0.353432;2.8294;0.00342357;0.0038109;2.82935;0.353438;122.505;167.505;-0.00263488;-0.00149712;0.00300555;-0.00295945;0.00421904;0.00370901;0.0194034;0;0.0300115;6.99024;1.83609
244000;245;25.8538;0.100218;0.0038914;-2.4443;25.7369;-0.243542;-0.00921064;0.0991722;-0.408472;0.0595003;-0.454813;-0.175161;0.490995;-6.32637;-0.001205;0.000205281;0.00420014;0.00420792;-0.00121278;0.00271035;0.286895;3.4856;0.00328503;0.0036138;3.46964;0.288214;57.9179;102.918;0.00281432;-0.00120885;-0.00238648;0.00278309;0.00419732;0.00670449;0.0123888;0;0.0178765;0.0494493;-0.551532;-0.592175;0.810743;-6.58452;-0.00145925;-3.05448e-05;0.00432053;0.00432069;-0.00145941;0.00289005;0.337749;2.96078;0.00347076;0.0038534;2.96056;0.337773;122.618;167.618;-0.0028382;-0.00146392;0.00300923;-0.00305282;0.00431602;0.00344876;0.0194426;0;0.0268654;7.03595;1.84373
245000;246;25.8535;0.0998546;0.0038773;-2.44413;25.7365;-0.246781;-0.0090345;0.0987932;-0.411711;0.0589123;-0.459582;-0.175187;0.495355;-6.3264;-0.00123636;0.000275882;0.00362008;0.0036357;-0.00125198;0.00244384;0.341527;2.92802;0.00293164;0.00325846;2.90397;0.344357;54.7564;99.7564;0.00291879;-0.00124003;-0.00218341;0.00272328;0.00361775;0.00569519;0.0129352;0;0.0175313;0.0489568;-0.556071;-0.593274;0.814607;-6.58562;-0.0014601;-7.5567e-05;0.00456731;0.00456825;-0.00146105;0.00301465;0.319686;3.12807;0.00363184;0.00401953;3.12669;0.319827;122.458;167.458;-0.00278077;-0.00146521;0.00306187;-0.00319418;0.00456264;0.00422876;0.0181286;0;0.0247801;7.06421;1.85084
246000;247;25.8538;0.100225;0.00389167;-2.44373;25.7369;-0.247627;-0.00863903;0.0991943;-0.412557;0.0592799;-0.462376;-0.175922;0.498251;-6.32713;-0.00111399;0.000328078;0.00333646;0.00336052;-0.00113805;0.00224928;0.333884;2.99505;0.00270084;0.00299904;2.95288;0.338652;53.1195;98.1195;0.00305581;-0.00111774;-0.00211072;0.00275606;0.0033343;0.00584704;0.0119292;0;0.0254441;0.0494015;-0.558907;-0.594684;0.817598;-6.58703;-0.0014553;-1.34913e-05;0.00469202;0.00469205;-0.00145533;0.00307369;0.310165;3.22409;0.00370956;0.00409826;3.22405;0.310169;121.677;166.677;-0.00242651;-0.00146046;0.00320193;-0.00320924;0.00468692;0.00299222;0.0180405;0;0.0351648;7.09805;1.85809
247000;248;25.855;0.101353;0.00393549;-2.4438;25.738;-0.246664;-0.00871152;0.10033;-0.411594;0.0584316;-0.462548;-0.181368;0.500259;-6.33258;-0.00111481;0.00017257;0.00336555;0.00337219;-0.00112145;0.00224682;0.331243;3.01894;0.0027007;0.00299576;3.00699;0.332559;55.6539;100.654;0.00290647;-0.00111796;-0.00217803;0.00251267;0.0033632;0.00606321;0.0117983;0;0.0188571;0.0487661;-0.55985;-0.601026;0.822826;-6.59337;-0.00139696;-9.32401e-06;0.00472359;0.00472361;-0.00139697;0.00306029;0.29574;3.38134;0.00370362;0.00408039;3.38132;0.295742;121.235;166.235;-0.00225677;-0.00140203;0.00318296;-0.00318216;0.00471855;0.00299641;0.0192345;0;0.0262702;7.12984;1.86368
248000;249;25.8561;0.102442;0.00397777;-2.44435;25.7391;-0.249786;-0.00925689;0.101342;-0.414717;0.059526;-0.467574;-0.177208;0.503559;-6.32842;-0.00126427;4.19991e-05;0.00287456;0.00287499;-0.00126469;0.00206984;0.439812;2.2737;0.00244958;0.00275979;2.27327;0.439895;53.6973;98.6973;0.00245354;-0.00126726;-0.0023719;0.00244593;0.00287176;0.00689025;0.0129122;0;0.0211865;0.04973;-0.565125;-0.59759;0.823986;-6.58994;-0.00143693;-1.17463e-05;0.00495847;0.00495849;-0.00143696;0.00319772;0.289794;3.45072;0.00387451;0.00426363;3.45069;0.289797;121.646;166.646;-0.00318373;-0.00144302;0.00348532;-0.00348656;0.00495242;0.00585852;0.0169722;0;0.0277805;7.16781;1.87236
249000;250;25.8574;0.103772;0.00402943;-2.44397;25.7404;-0.249338;-0.00887949;0.102719;-0.414268;0.0593347;-0.470897;-0.176992;0.506547;-6.3282;-0.00114924;0.000195135;0.00270387;0.00271373;-0.0011591;0.00193641;0.425035;2.35275;0.00229524;0.00258189;2.34124;0.427124;51.2166;96.2166;0.00249612;-0.00115251;-0.00218169;0.00256283;0.00270152;0.00604503;0.0134747;0;0.0181959;0.0495312;-0.56919;-0.598377;0.827336;-6.59072;-0.00139319;-2.74817e-05;0.00527251;0.00527263;-0.0013933;0.00333296;0.264236;3.7845;0.00406001;0.00444395;3.78427;0.264252;120.268;165.268;-0.0036271;-0.00139898;0.00336848;-0.00340092;0.00526687;0.00572592;0.0179479;0;0.0267405;7.20476;1.87419
250000;251;25.8585;0.104878;0.00407235;-2.44387;25.7415;-0.249169;-0.00877203;0.103841;-0.414099;0.0590646;-0.472653;-0.179144;0.508903;-6.33036;-0.00121948;-5.37457e-05;0.00300869;0.00300937;-0.00122017;0.00211477;0.40532;2.46718;0.0025137;0.00281969;2.46636;0.405455;56.2611;101.261;0.00260272;-0.00122207;-0.00239033;0.00227299;0.00300584;0.00622387;0.0127521;0;0.0170714;0.0493049;-0.571971;-0.601613;0.831577;-6.59396;-0.00151475;-0.000110069;0.00540115;0.00540291;-0.0015165;0.0034597;0.280448;3.56572;0.00419972;0.00461293;3.56275;0.280682;121.292;166.292;-0.00380605;-0.00152118;0.00339081;-0.00358687;0.00539544;0.00513323;0.017256;0;0.0274668;7.23774;1.88196
251000;252;25.8585;0.104902;0.00407328;-2.44281;25.7417;-0.250729;-0.00771488;0.10395;-0.415659;0.0588088;-0.474283;-0.181854;0.511345;-6.33307;-0.0013029;1.12847e-05;0.00231516;0.0023152;-0.00130294;0.00180907;0.56277;1.77693;0.00211601;0.00241209;1.7769;0.562776;51.102;96.102;0.00236572;-0.00130553;-0.00227718;0.00229149;0.00231257;0.00606472;0.0121153;0;0.0305236;0.0491564;-0.5752;-0.604811;0.836103;-6.59716;-0.00151859;-1.09459e-05;0.0055168;0.00551682;-0.00151861;0.00351772;0.275267;3.63284;0.00427496;0.00469029;3.63281;0.275269;120.224;165.224;-0.00405349;-0.00152479;0.00351965;-0.00351684;0.00551064;0.00538096;0.0154875;0;0.0291;7.26715;1.88812
252000;253;25.8597;0.106104;0.00411998;-2.4432;25.7428;-0.250684;-0.0081039;0.105122;-0.415614;0.0587337;-0.478756;-0.181971;0.51553;-6.33318;-0.00118115;0.00011721;0.00307574;0.00307897;-0.00118438;0.00213167;0.384022;2.60402;0.00254117;0.00284223;2.59965;0.384667;54.7031;99.7031;0.00240882;-0.00118403;-0.00217654;0.00240123;0.00307339;0.00606412;0.0127238;0;0.0188032;0.0489309;-0.581859;-0.605182;0.840951;-6.59753;-0.00155352;-3.15136e-06;0.00511003;0.00511003;-0.00155352;0.00333177;0.304013;3.28933;0.00402571;0.00444236;3.28933;0.304013;119.995;164.995;-0.00321313;-0.00155826;0.00309293;-0.00307871;0.00510527;0.00351832;0.0165173;0;0.0312478;7.30664;1.89563
253000;254;25.8609;0.107277;0.00416551;-2.44277;25.744;-0.253766;-0.00768138;0.10631;-0.418696;0.059604;-0.480956;-0.182103;0.517719;-6.33332;-0.00129823;-6.00134e-06;0.00305524;0.00305525;-0.00129824;0.00217674;0.424919;2.35339;0.00258082;0.00290232;2.35338;0.42492;55.4725;100.473;0.00245104;-0.0013009;-0.00233445;0.00231234;0.00305252;0.006872;0.0124906;0;0.0157374;0.0498868;-0.584764;-0.607079;0.844383;-6.59942;-0.00165778;-6.40752e-05;0.00514503;0.00514563;-0.00165838;0.00340201;0.32221;3.10357;0.00409668;0.00453601;3.1028;0.322289;121.241;166.241;-0.00346422;-0.00166312;0.00316017;-0.00326649;0.00514006;0.00475004;0.0171711;0;0.0344392;7.34093;1.90359
254000;255;25.8627;0.109091;0.00423596;-2.44256;25.7459;-0.253841;-0.00747156;0.108152;-0.418771;0.0592237;-0.482621;-0.185176;0.520308;-6.33639;-0.00135909;-1.75163e-05;0.00326655;0.00326662;-0.00135916;0.00231289;0.416063;2.40348;0.00274534;0.00308385;2.40341;0.416075;56.5434;101.543;0.00248831;-0.00136168;-0.00231654;0.00227091;0.00326388;0.00631354;0.0131663;0;0.0189433;0.0495074;-0.588278;-0.61063;0.849348;-6.60298;-0.00172936;2.23652e-05;0.00513711;0.00513718;-0.00172943;0.00343331;0.336641;2.97053;0.00412397;0.00457774;2.97044;0.33665;120.65;165.65;-0.00352272;-0.00173431;0.00320896;-0.00314247;0.00513198;0.00561243;0.0179596;0;0.0297699;7.37176;1.90932
255000;256;25.8629;0.109293;0.00424379;-2.44224;25.746;-0.258272;-0.00714514;0.108341;-0.423202;0.0587181;-0.486627;-0.183399;0.523344;-6.33461;-0.00120355;0.000192892;0.00357903;0.0035868;-0.00121131;0.00239906;0.336277;2.97374;0.00288114;0.00319874;2.96108;0.337715;55.8392;100.839;0.00287811;-0.00120691;-0.00222587;0.00260013;0.00357658;0.00645765;0.0137171;0;0.0235194;0.0489993;-0.593281;-0.610168;0.85246;-6.60251;-0.00174448;-1.70395e-05;0.00502683;0.00502688;-0.00174452;0.0033857;0.347033;2.88157;0.00405968;0.00451427;2.88152;0.347039;121.05;166.05;-0.00277567;-0.00174924;0.00306941;-0.00308269;0.00502215;0.00457483;0.0192176;0;0.0302152;7.40638;1.91605
256000;257;25.866;0.112376;0.0043635;-2.4432;25.7491;-0.250491;-0.00810744;0.111424;-0.415421;0.0581054;-0.487677;-0.189611;0.526458;-6.34082;-0.00119454;0.000343038;0.00384143;0.00386469;-0.0012178;0.00254125;0.310962;3.21582;0.00306415;0.00338833;3.1735;0.315109;55.3917;100.392;0.00304487;-0.00119835;-0.00210508;0.00277888;0.00383928;0.00604117;0.0138758;0;0.0221829;0.048613;-0.59563;-0.616336;0.858492;-6.60868;-0.00176186;-5.4064e-05;0.00496777;0.00496821;-0.00176229;0.00336525;0.354657;2.81963;0.00403012;0.004487;2.81918;0.354713;121.76;166.76;-0.00294272;-0.00176682;0.00306298;-0.00315024;0.00496311;0.0036176;0.0194987;0;0.0306349;7.42929;1.92279
257000;258;25.8667;0.113059;0.00439002;-2.44285;25.7498;-0.2547;-0.0077561;0.112102;-0.41963;0.0577522;-0.490945;-0.188976;0.52922;-6.34019;-0.00128425;0.000217935;0.00406552;0.00407438;-0.00129312;0.00268375;0.315889;3.16567;0.00323463;0.00357833;3.15082;0.317377;57.6739;102.674;0.00265004;-0.00128769;-0.00220501;0.00262797;0.00406312;0.00697367;0.0131142;0;0.0173619;0.0481481;-0.599896;-0.614632;0.860212;-6.60698;-0.00189737;-4.90555e-05;0.00497903;0.00497938;-0.00189772;0.00343855;0.381073;2.62417;0.00410123;0.00458474;2.62387;0.381116;122.565;167.565;-0.00305538;-0.00190269;0.00318098;-0.00325699;0.004974;0.00601825;0.0211124;0;0.0305107;7.47054;1.93066
258000;259;25.8641;0.110455;0.00428892;-2.44272;25.7472;-0.260318;-0.00762631;0.109442;-0.425248;0.0577744;-0.495072;-0.187799;0.532638;-6.33901;-0.00132772;0.000174847;0.00442213;0.00442745;-0.00133303;0.00288024;0.300245;3.33062;0.00348209;0.00384032;3.32133;0.301084;59.1168;104.117;0.00234064;-0.0013313;-0.00234513;0.00268039;0.00441941;0.00812685;0.0128358;0;0.0159352;0.0485111;-0.60367;-0.616069;0.863893;-6.60842;-0.00186717;-8.83243e-05;0.00516565;0.00516676;-0.00186827;0.00351752;0.361458;2.76657;0.00420787;0.00469002;2.76553;0.361595;122.23;167.23;-0.00298172;-0.00187272;0.00317864;-0.00333243;0.00516063;0.00521389;0.0205678;0;0.0299238;7.4947;1.93689
259000;260;25.8662;0.112566;0.00437089;-2.44335;25.7492;-0.26019;-0.00825236;0.111505;-0.42512;0.0576096;-0.496551;-0.193125;0.535891;-6.34434;-0.00126104;0.000442366;0.00473324;0.00476571;-0.00129351;0.00302961;0.266422;3.75344;0.00368478;0.00403948;3.68433;0.27142;57.8822;102.882;0.00214826;-0.00126545;-0.00213301;0.00300238;0.00473107;0.00836536;0.013564;0;0.0165949;0.0483962;-0.606204;-0.620987;0.869166;-6.61333;-0.00183757;-9.43024e-05;0.00534311;0.00534435;-0.00183881;0.00359158;0.343914;2.9077;0.00430867;0.00478877;2.90642;0.344066;121.51;166.51;-0.00257755;-0.00184311;0.00316293;-0.00332826;0.00533814;0.00426901;0.0201607;0;0.0298357;7.53404;1.94412
260000;261;25.8675;0.113919;0.00442342;-2.44369;25.7505;-0.260123;-0.00860034;0.112832;-0.425053;0.0573263;-0.499901;-0.190933;0.538184;-6.34214;-0.00133739;0.000260631;0.00482247;0.00483348;-0.0013484;0.00309094;0.277325;3.60588;0.00375341;0.00412125;3.5846;0.278971;59.7207;104.721;0.00247688;-0.00134134;-0.00231308;0.00281856;0.00481984;0.00790399;0.0140609;0;0.0165061;0.0482346;-0.609901;-0.619785;0.870885;-6.61213;-0.00187184;-9.42282e-05;0.00542687;0.00542809;-0.00187306;0.00365058;0.344921;2.89921;0.00437872;0.00486743;2.89798;0.345068;121.501;166.501;-0.0025189;-0.00187755;0.00321045;-0.00337492;0.00542175;0.00429451;0.0203857;0;0.0285774;7.55738;1.94894
261000;262;25.8675;0.113922;0.00442354;-2.44319;25.7506;-0.262941;-0.0080955;0.112854;-0.427871;0.0572665;-0.502898;-0.190912;0.540955;-6.34212;-0.00147959;0.000333824;0.00499035;0.00500753;-0.00149677;0.00325215;0.296491;3.37278;0.00393338;0.0043362;3.34555;0.298905;59.4204;104.42;0.00286878;-0.00148365;-0.0022155;0.00286673;0.00498796;0.00636803;0.0131064;0;0.0178053;0.048244;-0.61322;-0.619782;0.87321;-6.61213;-0.00180625;-5.73658e-05;0.00570306;0.0057035;-0.00180668;0.00375509;0.316715;3.15741;0.00452639;0.00500679;3.15689;0.316768;120.242;165.242;-0.00253042;-0.00181198;0.00329314;-0.00338285;0.00569767;0.00590582;0.0202098;0;0.0274642;7.5878;1.95286
262000;263;25.8665;0.112917;0.0043845;-2.44367;25.7495;-0.263929;-0.00857278;0.111789;-0.428859;0.057694;-0.505837;-0.189884;0.543374;-6.3411;-0.00144942;0.000264006;0.00474531;0.00475654;-0.00146066;0.0031086;0.305444;3.27392;0.00375386;0.0041448;3.25644;0.307084;58.5084;103.508;0.00311743;-0.00145364;-0.00240295;0.00291452;0.00474247;0.00658767;0.0132933;0;0.0236495;0.0487638;-0.616219;-0.621673;0.876687;-6.61402;-0.00195444;-2.42647e-05;0.00593513;0.0059352;-0.00195451;0.00394486;0.3293;3.03675;0.00474445;0.00525981;3.03667;0.329308;120.313;165.313;-0.00266439;-0.00196062;0.00349293;-0.00351387;0.00592906;0.00611557;0.0190354;0;0.0339187;7.61526;1.95986
263000;264;25.8689;0.115329;0.00447816;-2.44403;25.7519;-0.265854;-0.00893742;0.114157;-0.430784;0.0579991;-0.50858;-0.189688;0.545892;-6.3409;-0.00144209;0.000321596;0.00506077;0.00507663;-0.00145796;0.0032673;0.284956;3.50932;0.00396089;0.0043564;3.48201;0.28719;59.5447;104.545;0.0029759;-0.00144635;-0.00230586;0.00293205;0.00505817;0.00657299;0.0126809;0;0.0204391;0.0490863;-0.620383;-0.622181;0.879996;-6.61453;-0.00187121;-7.49352e-06;0.00625328;0.00625329;-0.00187121;0.00406225;0.299236;3.34184;0.00491285;0.00541633;3.34183;0.299237;118.927;163.927;-0.00299713;-0.00187728;0.00349625;-0.00348295;0.00624721;0.00663064;0.0182086;0;0.0294996;7.64738;1.96626
264000;265;25.8699;0.116298;0.00451579;-2.44395;25.7528;-0.265825;-0.00885805;0.115139;-0.430755;0.0577643;-0.510502;-0.191209;0.548188;-6.34242;-0.00134912;0.000397124;0.00465241;0.00467857;-0.00137528;0.00302693;0.289983;3.44848;0.00366453;0.0040359;3.4019;0.293954;57.4335;102.433;0.00334072;-0.00135355;-0.00222237;0.00300096;0.00465003;0.00571301;0.0136468;0;0.0210417;0.0489363;-0.623377;-0.624677;0.883863;-6.61702;-0.00200132;-0.000175947;0.00654007;0.0065437;-0.00200494;0.00427432;0.306008;3.26788;0.00516223;0.00569909;3.26379;0.306393;119.462;164.462;-0.00338758;-0.00200785;0.00329269;-0.00361514;0.0065347;0.00712496;0.0188759;0;0.0294234;7.67151;1.9739
265000;266;25.8707;0.117096;0.00454679;-2.44365;25.7537;-0.266157;-0.00855742;0.115966;-0.431087;0.0577322;-0.513121;-0.193733;0.551506;-6.34494;-0.00128977;0.000122068;0.00439535;0.00439797;-0.00129239;0.00284518;0.29344;3.40785;0.00344456;0.00379357;3.40297;0.293861;59.3576;104.358;0.00296718;-0.00129339;-0.00246128;0.00269079;0.00439234;0.0064421;0.0125385;0;0.0218763;0.0490081;-0.6276;-0.628414;0.889487;-6.62076;-0.00198302;-0.000103239;0.00678435;0.00678557;-0.00198423;0.0043849;0.292292;3.42123;0.00531017;0.00584653;3.41975;0.292419;118.714;163.714;-0.00354137;-0.00198978;0.00350042;-0.00367551;0.00677827;0.00711451;0.0185742;0;0.0293115;7.70914;1.98128
266000;267;25.8712;0.117567;0.00456505;-2.44345;25.7542;-0.266348;-0.00835498;0.116455;-0.431278;0.0577516;-0.515867;-0.193405;0.553949;-6.34462;-0.00153178;0.000164759;0.00381803;0.0038231;-0.00153685;0.00267998;0.401195;2.49255;0.00318703;0.0035733;2.48763;0.401989;55.1653;100.165;0.00318558;-0.00153556;-0.0024378;0.00275345;0.00381509;0.00669071;0.0140279;0;0.0189298;0.0491145;-0.631733;-0.628955;0.892795;-6.6213;-0.00216365;-0.000148049;0.00669407;0.00669654;-0.00216613;0.00443133;0.323219;3.09387;0.00533506;0.00590845;3.09148;0.323469;119.125;164.125;-0.00345385;-0.00216996;0.00328451;-0.0035504;0.00668872;0.00579583;0.0183952;0;0.0310686;7.72961;1.989
267000;268;25.8722;0.118588;0.00460471;-2.44354;25.7552;-0.269054;-0.00844515;0.117445;-0.433985;0.0581309;-0.517645;-0.194577;0.556054;-6.34579;-0.00133127;7.8675e-05;0.00388392;0.0038851;-0.00133246;0.00260878;0.342765;2.91745;0.00313023;0.00347838;2.91574;0.342966;57.7353;102.735;0.00278687;-0.00133456;-0.00242061;0.00256498;0.003881;0.00671144;0.0135963;0;0.0174443;0.049151;-0.635889;-0.630497;0.896826;-6.62284;-0.00218684;-7.00037e-05;0.0066944;0.00669495;-0.00218739;0.00444117;0.326668;3.06122;0.0053438;0.00592156;3.0607;0.326723;118.157;163.157;-0.00368663;-0.00219243;0.00322808;-0.00333899;0.00668922;0.00638207;0.0189843;0;0.0328072;7.7566;1.99593
268000;269;25.8738;0.120147;0.00466524;-2.44382;25.7567;-0.269096;-0.00872199;0.118984;-0.434026;0.0579356;-0.520697;-0.193359;0.558453;-6.34457;-0.00133622;0.000161509;0.00353682;0.00354216;-0.00134157;0.00244186;0.377803;2.64688;0.00291348;0.00325582;2.64032;0.378742;55.0646;100.065;0.00309433;-0.00133971;-0.0023347;0.00264559;0.00353411;0.00560304;0.0141489;0;0.0239252;0.0490577;-0.640636;-0.631756;0.901075;-6.6241;-0.00227491;-5.11888e-05;0.00676304;0.00676333;-0.0022752;0.00451927;0.336374;2.97288;0.00542861;0.00602569;2.97263;0.336403;117.777;162.777;-0.00337229;-0.00228019;0.00317137;-0.00324482;0.00675804;0.00737712;0.0183203;0;0.0305105;7.78437;2.00326
269000;270;25.8772;0.12355;0.00479739;-2.44304;25.7602;-0.269203;-0.007948;0.122475;-0.434133;0.0581137;-0.522685;-0.196043;0.561257;-6.34726;-0.00136336;6.46729e-05;0.00305452;0.00305547;-0.00136431;0.00220989;0.446343;2.24043;0.00261328;0.00294652;2.23957;0.446514;53.314;98.314;0.00274445;-0.00136682;-0.00250916;0.00262717;0.00305138;0.0066514;0.01362;0;0.0225948;0.049053;-0.645101;-0.635002;0.906526;-6.62735;-0.00225614;-8.5071e-05;0.0068173;0.0068181;-0.00225694;0.00453752;0.330943;3.02167;0.00545561;0.00605002;3.02095;0.331021;117.867;162.867;-0.00311524;-0.0022616;0.00316045;-0.00330135;0.00681234;0.00713244;0.0201174;0;0.0316617;7.81908;2.01092
270000;271;25.8782;0.124625;0.00483912;-2.44208;25.7613;-0.274967;-0.00698423;0.123585;-0.439897;0.0584643;-0.524777;-0.195509;0.563056;-6.34672;-0.00135568;0.00013983;0.00328881;0.00329301;-0.00135989;0.00232645;0.412211;2.42594;0.00276255;0.00310193;2.42153;0.412962;54.0744;99.0744;0.00274533;-0.00135902;-0.00231773;0.00258602;0.00328614;0.00643582;0.0143046;0;0.0185972;0.0495923;-0.648771;-0.636944;0.910527;-6.62929;-0.0023716;-0.000132625;0.0068001;0.00680202;-0.00237352;0.00458777;0.34876;2.8673;0.00549933;0.00611703;2.86579;0.348943;119.262;164.262;-0.00314943;-0.00237782;0.0032917;-0.00352576;0.00679473;0.00771394;0.0225851;0;0.0302496;7.83315;2.01536
271000;272;25.8821;0.128488;0.00498911;-2.44334;25.7651;-0.273302;-0.00824296;0.127364;-0.438232;0.0581477;-0.526612;-0.197536;0.565439;-6.34875;-0.00130281;0.000214314;0.00291561;0.00292647;-0.00131367;0.00212007;0.446839;2.23794;0.00250638;0.00282676;2.22771;0.448892;51.385;96.385;0.00313361;-0.00130622;-0.00220142;0.00261988;0.00291322;0.00531449;0.0144634;0;0.020835;0.0490817;-0.652659;-0.639367;0.914966;-6.63171;-0.00239231;-0.000144646;0.00682239;0.00682466;-0.00239458;0.00460962;0.350656;2.8518;0.00552377;0.00614616;2.85004;0.350872;118.535;163.535;-0.00296278;-0.00239789;0.00308013;-0.0033399;0.00681769;0.00825325;0.0227455;0;0.0337806;7.8646;2.02204
272000;273;25.8832;0.129584;0.00503168;-2.44316;25.7661;-0.281171;-0.00807142;0.128397;-0.446101;0.0581872;-0.528916;-0.196018;0.567063;-6.34723;-0.00135508;0.000166579;0.00323813;0.00324417;-0.00136112;0.00230264;0.418477;2.38962;0.00273195;0.00307019;2.38346;0.419559;53.5026;98.5026;0.00227988;-0.00135847;-0.00228225;0.00260419;0.00323555;0.00641712;0.0124739;0;0.0278917;0.049112;-0.656489;-0.640314;0.918364;-6.63266;-0.00241886;-9.91403e-05;0.00691099;0.00691204;-0.00241991;0.00466598;0.350001;2.85713;0.00559201;0.0062213;2.85632;0.350101;118.473;163.473;-0.00264677;-0.00242463;0.00322794;-0.00339539;0.00690582;0.0087447;0.0233556;0;0.0386011;7.88491;2.02555
273000;274;25.8863;0.132723;0.00515357;-2.44283;25.7693;-0.27825;-0.00773971;0.131613;-0.44318;0.0583512;-0.530141;-0.197946;0.56889;-6.34916;-0.0014864;0.000143962;0.0032076;0.00321202;-0.00149081;0.00235141;0.463397;2.15797;0.00277513;0.00313521;2.15455;0.464134;53.134;98.134;0.0024737;-0.00148962;-0.00226506;0.00254171;0.00320506;0.00631044;0.0142349;0;0.0248529;0.0491992;-0.661039;-0.640224;0.921564;-6.63257;-0.00258224;-6.54174e-05;0.00731782;0.00731825;-0.00258267;0.00495046;0.35287;2.83391;0.00593025;0.00660062;2.8336;0.352908;117.735;162.735;-0.00240082;-0.00258807;0.00331292;-0.00341055;0.00731238;0.00832061;0.021558;0;0.0295064;7.91724;2.0326
274000;275;25.8887;0.135096;0.00524572;-2.44211;25.7717;-0.28269;-0.00701287;0.134018;-0.44762;0.0579733;-0.531753;-0.201819;0.57171;-6.35303;-0.0014557;-5.78672e-05;0.00325993;0.00326064;-0.00145641;0.00235852;0.446543;2.23943;0.002789;0.0031447;2.23882;0.446664;56.2714;101.271;0.00248866;-0.0014583;-0.002406;0.00227922;0.00325704;0.00598276;0.0138238;0;0.0232178;0.0490005;-0.664553;-0.646203;0.928229;-6.63855;-0.00256546;-2.34125e-05;0.00762289;0.00762294;-0.00256551;0.00509423;0.336547;2.97135;0.00611911;0.0067923;2.97131;0.336552;115.485;160.485;-0.00202256;-0.00257031;0.00309631;-0.00311159;0.00761813;0.00741253;0.0216632;0;0.029788;7.93864;2.03949
275000;276;25.8901;0.136472;0.00529915;-2.44174;25.773;-0.293413;-0.00665131;0.135314;-0.458343;0.0595458;-0.534856;-0.200729;0.574377;-6.35194;-0.00158179;-0.000155892;0.00306707;0.00307229;-0.00158702;0.00232965;0.515734;1.93898;0.00273523;0.00310621;1.93589;0.516557;55.6675;100.667;0.00260099;-0.00158422;-0.00252764;0.00220487;0.0030639;0.00589233;0.0140976;0;0.021401;0.0503409;-0.669378;-0.647684;0.93279;-6.64003;-0.00258679;-9.34546e-05;0.00835867;0.00835946;-0.00258758;0.00547352;0.309474;3.23129;0.00660663;0.00729803;3.23061;0.309539;114.522;159.522;-0.00176027;-0.00259225;0.00315167;-0.00330335;0.00835375;0.00795854;0.0233486;0;0.0281768;7.96646;2.04725
276000;277;25.8957;0.142072;0.00551657;-2.44329;25.7786;-0.283111;-0.008193;0.140908;-0.448041;0.0586554;-0.535504;-0.198122;0.573984;-6.34933;-0.00155716;4.40997e-05;0.00335774;0.00335813;-0.00155756;0.00245784;0.463753;2.15632;0.00290084;0.00327712;2.15603;0.463816;54.7099;99.7099;0.00286379;-0.0015602;-0.00238653;0.00246282;0.0033549;0.00643816;0.0140062;0;0.0212753;0.0493969;-0.673977;-0.643655;0.933261;-6.636;-0.0026679;-0.000123118;0.0089122;0.00891351;-0.00266921;0.00579136;0.299354;3.34053;0.00700372;0.00772181;3.33938;0.299456;113.711;158.711;-0.00253541;-0.00267361;0.00316767;-0.00337613;0.00890723;0.00842503;0.0221275;0;0.0267458;7.97946;2.05391
277000;278;25.8982;0.144589;0.0056143;-2.44229;25.7811;-0.292024;-0.00719647;0.143432;-0.456954;0.0598361;-0.535806;-0.201551;0.575579;-6.35276;-0.00157349;1.80563e-05;0.0034111;0.00341116;-0.00157356;0.00249236;0.461286;2.16785;0.00294239;0.00332315;2.1678;0.461296;55.3174;100.317;0.00326516;-0.0015764;-0.0023849;0.00240908;0.00340826;0.00555723;0.0146943;0;0.0270517;0.050701;-0.677115;-0.651225;0.940824;-6.64357;-0.0028193;-0.000184299;0.0096346;0.00963733;-0.00282203;0.00622968;0.292623;3.41737;0.00754361;0.00830624;3.41504;0.292823;112.595;157.595;-0.00298685;-0.00282513;0.00308494;-0.00341321;0.0096299;0.00943397;0.0228259;0;0.027068;7.99777;2.06158
278000;279;25.9019;0.148322;0.00575927;-2.44169;25.785;-0.289072;-0.00659421;0.147272;-0.454002;0.0609257;-0.537661;-0.208675;0.579945;-6.35989;-0.00163564;-0.000121746;0.00344664;0.00344955;-0.00163855;0.00254405;0.47456;2.10722;0.002999;0.00339207;2.10525;0.475004;56.4777;101.478;0.00271944;-0.00163838;-0.00259796;0.00234192;0.00344328;0.00663099;0.0155542;0;0.0291435;0.0514544;-0.682269;-0.659145;0.950058;-6.65149;-0.00276268;-1.311e-05;0.0102238;0.0102238;-0.00276269;0.00649324;0.270221;3.70068;0.00789946;0.00865765;3.70066;0.270222;110.597;155.597;-0.00369089;-0.00276801;0.00327674;-0.00326067;0.0102185;0.00947519;0.0216069;0;0.0291373;8.02161;2.06884
279000;280;25.9043;0.15071;0.00585198;-2.44208;25.7874;-0.282555;-0.00698454;0.149706;-0.447485;0.0594522;-0.538602;-0.2017;0.578195;-6.35291;-0.00174492;-4.80276e-05;0.00369104;0.00369146;-0.00174534;0.0027184;0.472745;2.11531;0.00320527;0.00362454;2.11504;0.472805;56.6429;101.643;0.00278503;-0.00174764;-0.00243946;0.00233045;0.00368808;0.00626183;0.0138461;0;0.0183238;0.0497756;-0.687741;-0.650903;0.94823;-6.64325;-0.00321258;-1.39527e-05;0.0111444;0.0111444;-0.00321259;0.00717848;0.288269;3.46898;0.00870045;0.00957131;3.46897;0.28827;107.373;152.373;-0.00258769;-0.00321636;0.00275853;-0.00274707;0.0111406;0.0078806;0.0243271;0;0.0303766;8.0394;2.07611
280000;281;25.9059;0.152268;0.00591248;-2.44144;25.7889;-0.291266;-0.00634476;0.151235;-0.456196;0.05873;-0.541691;-0.197181;0.579447;-6.34839;-0.00159608;3.12267e-05;0.00351216;0.00351235;-0.00159627;0.00255431;0.454443;2.2005;0.00301783;0.00340575;2.20035;0.454473;55.5895;100.589;0.00290269;-0.00159901;-0.00236999;0.00242022;0.00350937;0.00636509;0.0138242;0;0.0168065;0.0492334;-0.693241;-0.65233;0.953174;-6.64468;-0.00330024;-6.92095e-05;0.0119733;0.0119736;-0.00330055;0.00763708;0.275634;3.628;0.00928033;0.0101828;3.62775;0.275653;106.637;151.637;-0.00219459;-0.00330432;0.00275658;-0.00285235;0.0119695;0.00662154;0.0240531;0;0.0363143;8.05728;2.08319
281000;282;25.9121;0.158462;0.00615298;-2.44262;25.7951;-0.285123;-0.00753008;0.157413;-0.450053;0.0574523;-0.543009;-0.199937;0.581493;-6.35115;-0.00158401;0.000436574;0.00413171;0.00416487;-0.00161717;0.00289102;0.383379;2.60838;0.00344458;0.00385469;2.57541;0.388288;54.3295;99.3295;0.00308803;-0.00158813;-0.00204286;0.00290189;0.00412973;0.00606017;0.0149323;0;0.0357347;0.0472657;-0.699905;-0.654873;0.959666;-6.64722;-0.00358529;-4.0403e-05;0.0125917;0.0125918;-0.00358539;0.0080886;0.284734;3.51205;0.00981054;0.0107848;3.51198;0.28474;105.464;150.464;-0.0021313;-0.00358895;0.00266301;-0.00270063;0.0125882;0.00734399;0.0240606;0;0.0393615;8.07151;2.08886
282000;283;25.9174;0.163764;0.00635886;-2.44264;25.8004;-0.29218;-0.00754581;0.162659;-0.45711;0.0608834;-0.543634;-0.200716;0.582694;-6.35193;-0.0017199;1.46077e-05;0.00376164;0.00376168;-0.00171994;0.00274081;0.45722;2.18713;0.00323716;0.00365441;2.18711;0.457225;56.0448;101.045;0.00283831;-0.00172302;-0.00247968;0.00249527;0.00375858;0.00696907;0.0143425;0;0.0161948;0.0502175;-0.70437;-0.658966;0.965865;-6.65131;-0.0036177;-7.52452e-05;0.01337;0.0133703;-0.00361803;0.00849418;0.270584;3.69572;0.0103329;0.0113256;3.69547;0.270602;103.659;148.659;-0.00143062;-0.00362091;0.00242344;-0.00253204;0.0133671;0.00705234;0.0273041;0;0.0330613;8.09098;2.09483
283000;284;25.9219;0.168272;0.0065339;-2.44296;25.8049;-0.28961;-0.00786414;0.167186;-0.45454;0.0587202;-0.54298;-0.204736;0.58326;-6.35595;-0.00161191;0.000260917;0.00419425;0.00420595;-0.00162362;0.00291478;0.384315;2.60203;0.00347403;0.00388638;2.59048;0.386028;55.982;100.982;0.00269268;-0.00161577;-0.00227914;0.00278629;0.0041917;0.00664462;0.0139735;0;0.0200474;0.0478352;-0.708674;-0.66123;0.970429;-6.65358;-0.00383513;-0.000180847;0.0138358;0.0138377;-0.00383698;0.00883733;0.277188;3.60766;0.0107352;0.0117831;3.6064;0.277285;103.753;148.753;-0.000965327;-0.00383863;0.00232988;-0.00264782;0.0138332;0.00828981;0.0262398;0;0.0357045;8.1034;2.09913
284000;285;25.9251;0.171519;0.00665999;-2.44403;25.808;-0.293642;-0.00894155;0.1703;-0.458572;0.0598954;-0.54596;-0.19743;0.583643;-6.34864;-0.00168137;0.000218765;0.00421029;0.0042184;-0.00168948;0.00295394;0.399348;2.50408;0.00351354;0.00393859;2.49686;0.400503;56.3808;101.381;0.00322856;-0.001685;-0.00227848;0.00270136;0.00420773;0.00544685;0.0145479;0;0.019065;0.0483563;-0.714447;-0.65764;0.972247;-6.64999;-0.00415173;-0.00018308;0.0142255;0.0142273;-0.00415355;0.00919045;0.291851;3.42641;0.0111308;0.0122539;3.42534;0.291941;103.637;148.637;-0.000493884;-0.00415523;0.00232463;-0.00264535;0.0142229;0.00732005;0.0270034;0;0.0322538;8.1206;2.10567
285000;286;25.9288;0.175132;0.00680027;-2.44366;25.8116;-0.298951;-0.00856391;0.173905;-0.463881;0.0594382;-0.54667;-0.196511;0.58395;-6.34772;-0.00159911;0.000446898;0.00455395;0.00458624;-0.0016314;0.00310882;0.351147;2.84781;0.00372242;0.00414509;2.81124;0.355715;55.9429;100.943;0.00318692;-0.00160349;-0.00211378;0.00299189;0.00455182;0.0063058;0.014776;0;0.0188052;0.0475394;-0.719997;-0.658143;0.976631;-6.65049;-0.0044002;-9.4782e-05;0.0150899;0.0150903;-0.00440066;0.00974549;0.2916;3.42936;0.0118038;0.012994;3.4291;0.291622;101.833;146.833;0.000701511;-0.00440301;0.00222153;-0.00236662;0.0150874;0.00621176;0.0272064;0;0.0313643;8.13086;2.11281
286000;287;25.9327;0.179046;0.00695227;-2.44467;25.8154;-0.305976;-0.00957896;0.177658;-0.470906;0.060216;-0.546083;-0.201383;0.585139;-6.3526;-0.00173965;0.000175337;0.0042993;0.00430439;-0.00174473;0.00302456;0.404635;2.47137;0.00359517;0.00403275;2.46708;0.405338;56.9144;101.914;0.00281235;-0.00174321;-0.00233691;0.00267248;0.0042966;0.00659257;0.015571;0;0.0179637;0.0478311;-0.724186;-0.665537;0.98472;-6.65788;-0.00461551;-0.000140432;0.0162882;0.0162891;-0.00461646;0.0104528;0.283366;3.52901;0.0126815;0.0139371;3.52849;0.283407;99.955;144.955;0.000644136;-0.00461784;0.00191887;-0.00215738;0.0162864;0.00560911;0.0252658;0;0.0313507;8.14148;2.1203
287000;288;25.9368;0.183145;0.00711142;-2.44478;25.8195;-0.307203;-0.00968421;0.181751;-0.472133;0.0598335;-0.545483;-0.203693;0.58534;-6.3549;-0.00166354;0.000344527;0.0041825;0.00420273;-0.00168377;0.00294325;0.397737;2.51422;0.00350076;0.00392434;2.49602;0.400637;55.1413;100.141;0.00301797;-0.00166745;-0.00214321;0.00281778;0.00418027;0.00560004;0.0147477;0;0.0170076;0.0469951;-0.728963;-0.669195;0.990665;-6.66154;-0.0049062;-2.18207e-05;0.0176379;0.0176379;-0.00490622;0.011272;0.278163;3.59501;0.0136902;0.0150294;3.595;0.278164;97.8522;142.852;0.00117046;-0.00490781;0.00178655;-0.00179013;0.0176363;0.00506074;0.0259624;0;0.0341645;8.15819;2.12782
288000;289;25.9439;0.19026;0.00738768;-2.44582;25.8265;-0.304559;-0.0107264;0.188831;-0.469489;0.0605398;-0.545245;-0.20261;0.584814;-6.35382;-0.00191355;-6.08022e-05;0.00422361;0.00422422;-0.00191415;0.00306918;0.453059;2.20722;0.00362668;0.00409224;2.20684;0.453137;58.2805;103.28;0.00265262;-0.00191636;-0.002507;0.00237044;0.00422049;0.006986;0.0141564;0;0.0211237;0.046811;-0.734059;-0.669654;0.994721;-6.662;-0.0051739;-1.66729e-05;0.018782;0.018782;-0.00517391;0.011978;0.275471;3.63014;0.0145558;0.0159706;3.63014;0.275472;97.7225;142.723;0.00114171;-0.00517567;0.00188865;-0.0018772;0.0187802;0.00410256;0.0249312;0;0.0351276;8.1633;2.13523
289000;290;25.9498;0.196161;0.00761682;-2.44607;25.8324;-0.306871;-0.0109728;0.194708;-0.471801;0.0606922;-0.545508;-0.202799;0.585141;-6.35401;-0.00175819;0.000118948;0.00445857;0.00446085;-0.00176047;0.00311066;0.39434;2.53588;0.00370295;0.00414754;2.5339;0.394649;58.0202;103.02;0.00267221;-0.00176166;-0.00241294;0.00263517;0.00445568;0.00725876;0.0142647;0;0.0313172;0.0465037;-0.739581;-0.672282;1.00055;-6.66463;-0.00528654;4.51849e-05;0.0200942;0.0200943;-0.00528662;0.0126905;0.263088;3.80101;0.0154626;0.0169206;3.80097;0.263091;97.0991;142.099;0.00120732;-0.00528826;0.00198514;-0.0018465;0.0200923;0.0053563;0.0264879;0;0.0386598;8.17471;2.14271
290000;291;25.9545;0.20091;0.00780123;-2.44608;25.8372;-0.308761;-0.0109915;0.199455;-0.473691;0.060742;-0.546704;-0.202654;0.586211;-6.35387;-0.00171563;0.000105341;0.00445361;0.0044554;-0.00171743;0.00308642;0.385223;2.5959;0.00367889;0.00411522;2.59423;0.385471;57.9956;102.996;0.00291425;-0.00171924;-0.00249291;0.00268764;0.00445052;0.00776666;0.0136248;0;0.0234238;0.0460089;-0.74638;-0.673366;1.00629;-6.66571;-0.00552072;8.36017e-05;0.0209439;0.0209441;-0.00552098;0.0132326;0.263596;3.79369;0.0161214;0.0176434;3.79356;0.263605;97.087;142.087;0.000324411;-0.00552254;0.00212552;-0.00190538;0.0209417;0.00781473;0.0289796;0;0.0373264;8.18904;2.1505
291000;292;25.9604;0.206819;0.00803066;-2.4468;25.8431;-0.305332;-0.0117076;0.205363;-0.470262;0.0595866;-0.548924;-0.197044;0.586255;-6.34826;-0.00175685;0.000289177;0.00473578;0.00474864;-0.0017697;0.00325917;0.370973;2.69561;0.00389216;0.00434556;2.68329;0.372676;58.0168;103.017;0.00284502;-0.00176061;-0.00219438;0.00275668;0.00473343;0.00554337;0.0132148;0;0.0178466;0.0443023;-0.753843;-0.670058;1.00956;-6.6624;-0.00570494;5.03038e-05;0.0216711;0.0216712;-0.00570504;0.0136881;0.263252;3.79865;0.0166776;0.0182508;3.7986;0.263255;97.0186;142.019;0.00101552;-0.00570688;0.00212188;-0.00196577;0.0216689;0.00770964;0.0305938;0;0.0366265;8.20002;2.15611
292000;293;25.9659;0.212249;0.00824154;-2.44765;25.8484;-0.31278;-0.0125604;0.210649;-0.47771;0.0598749;-0.548779;-0.193711;0.585036;-6.34492;-0.00182838;0.000218992;0.00451041;0.00451796;-0.00183594;0.00317695;0.405369;2.46689;0.00377579;0.00423593;2.46085;0.406364;57.4184;102.418;0.00287402;-0.0018319;-0.00223785;0.00266033;0.00450794;0.00625872;0.0149652;0;0.0171279;0.0436241;-0.759005;-0.670381;1.01361;-6.66273;-0.00600214;1.98995e-05;0.0223284;0.0223285;-0.00600215;0.0141653;0.268811;3.72008;0.0172383;0.0188871;3.72008;0.268812;96.9356;141.936;0.00185202;-0.00600414;0.0020937;-0.00199644;0.0223263;0.00502371;0.0292733;0;0.0377835;8.21093;2.16412
293000;294;25.9737;0.220119;0.0085471;-2.4487;25.8562;-0.312261;-0.0136037;0.218461;-0.477191;0.0604104;-0.54811;-0.195647;0.585109;-6.34686;-0.00171515;6.92334e-05;0.00439452;0.0043953;-0.00171593;0.00305562;0.390293;2.56218;0.00363961;0.00407416;2.56146;0.390402;58.6992;103.699;0.00238307;-0.00171832;-0.00239436;0.00251784;0.00439167;0.00750123;0.0134794;0;0.0205947;0.0436398;-0.764695;-0.673057;1.01964;-6.6654;-0.0061279;8.2795e-06;0.0229296;0.0229296;-0.0061279;0.0145287;0.267249;3.74183;0.0176865;0.0193717;3.74183;0.267249;96.0636;141.064;0.00156217;-0.00612951;0.00186032;-0.00179115;0.0229279;0.00641726;0.0318642;0;0.0411068;8.21453;2.17016
294000;295;25.9804;0.226826;0.00880754;-2.44967;25.8628;-0.312795;-0.0145814;0.2251;-0.477725;0.0601529;-0.548575;-0.194194;0.585034;-6.34541;-0.00182942;0.000201519;0.00467315;0.00467939;-0.00183566;0.00325752;0.391475;2.55444;0.00387906;0.00434336;2.54916;0.392286;58.3424;103.342;0.00337324;-0.0018329;-0.00225496;0.0026421;0.00467064;0.00492991;0.0139853;0;0.0199276;0.042603;-0.771105;-0.674269;1.02521;-6.66661;-0.00639155;0.00011687;0.0235757;0.0235762;-0.006392;0.0149841;0.271107;3.68858;0.0182257;0.0199788;3.68839;0.271121;95.4516;140.452;0.00223603;-0.00639282;0.00188253;-0.0015971;0.023574;0.00664233;0.0297897;0;0.0403041;8.22842;2.17207
295000;296;25.9839;0.23024;0.0089401;-2.45008;25.8661;-0.320394;-0.0149907;0.228398;-0.485324;0.0603883;-0.549411;-0.192274;0.585208;-6.34349;-0.00179998;0.00029164;0.00457415;0.00458746;-0.0018133;0.00320038;0.393512;2.54122;0.00380942;0.00426717;2.5299;0.395272;57.4289;102.429;0.0032066;-0.00180355;-0.00211848;0.00268646;0.00457196;0.00563465;0.014895;0;0.018695;0.0420598;-0.777981;-0.675197;1.03098;-6.66754;-0.00668939;6.56044e-05;0.0244906;0.0244907;-0.00668953;0.0155901;0.273141;3.66111;0.0189546;0.0207868;3.66105;0.273146;94.3189;139.319;0.00328721;-0.00669026;0.00149025;-0.00131568;0.0244895;0.0020324;0.0274471;0;0.0401172;8.23461;2.17881
296000;297;25.9883;0.234675;0.00911233;-2.45101;25.8704;-0.326616;-0.0159132;0.232688;-0.491546;0.0604905;-0.54906;-0.193006;0.58513;-6.34422;-0.00178359;0.000383134;0.00459282;0.00461576;-0.00180653;0.00321114;0.388343;2.57504;0.00382432;0.00428152;2.55505;0.391383;56.4326;101.433;0.00335217;-0.00178757;-0.00209431;0.00284485;0.00459071;0.00471113;0.0142624;0;0.0199262;0.0415501;-0.783742;-0.677191;1.03661;-6.66954;-0.00696401;1.80562e-05;0.0251178;0.0251178;-0.00696402;0.0160409;0.277254;3.6068;0.0194859;0.0213879;3.6068;0.277254;94.2646;139.265;0.00351776;-0.00696492;0.00142438;-0.00134426;0.0251168;0.0028594;0.0263194;0;0.0423467;8.24148;2.18566
297000;298;25.9949;0.24125;0.00936762;-2.45212;25.877;-0.321636;-0.0170303;0.239249;-0.486566;0.0605225;-0.549091;-0.193311;0.585263;-6.34452;-0.00183645;0.000175997;0.00456403;0.00456886;-0.00184128;0.00320507;0.402374;2.48525;0.00381094;0.00427343;2.48135;0.403007;57.6145;102.615;0.00288421;-0.00184009;-0.0023662;0.00270199;0.00456126;0.00632759;0.0150105;0;0.0219174;0.0406732;-0.790293;-0.678837;1.04261;-6.67118;-0.00711579;0.000142323;0.0259277;0.0259284;-0.00711641;0.0165224;0.274447;3.64369;0.0200825;0.0220298;3.64346;0.274464;94.2335;139.234;0.00341635;-0.00711667;0.00166409;-0.00133043;0.0259264;0.00483544;0.0263752;0;0.0420457;8.25275;2.19337
298000;299;26.002;0.248425;0.00964623;-2.45225;25.8841;-0.32381;-0.0171534;0.246418;-0.48874;0.0608309;-0.550539;-0.191063;0.585917;-6.34227;-0.001801;0.000481868;0.00481595;0.00485085;-0.0018359;0.00334338;0.373965;2.67405;0.00398926;0.00445784;2.64222;0.37847;56.3667;101.367;0.00304164;-0.00180536;-0.00204234;0.00298945;0.00481399;0.00634586;0.0142756;0;0.0168022;0.0402394;-0.798148;-0.679678;1.0491;-6.67202;-0.00760641;0.000146649;0.0268407;0.0268413;-0.00760704;0.0172242;0.283391;3.5287;0.0208967;0.0229656;3.52849;0.283408;94.3262;139.326;0.00360909;-0.00760738;0.00173572;-0.00138912;0.0268393;0.00470878;0.0296041;0;0.0400442;8.26654;2.20031
299000;300;26.0086;0.255021;0.00990234;-2.45291;25.8907;-0.322938;-0.0178195;0.252992;-0.487868;0.0607409;-0.551126;-0.189816;0.586054;-6.34103;-0.00186435;0.0004138;0.00489644;0.00492168;-0.00188958;0.00340563;0.380756;2.62635;0.00406029;0.00454084;2.60464;0.383931;57.2262;102.226;0.00313377;-0.00186846;-0.00208406;0.00289485;0.00489437;0.00600173;0.0134332;0;0.0164738;0.0393586;-0.804953;-0.679828;1.05436;-6.67217;-0.00762649;7.93045e-05;0.02764;0.0276401;-0.00762667;0.0176334;0.275923;3.6242;0.0214263;0.0235112;3.62414;0.275927;94.7219;139.722;0.00337286;-0.00762781;0.00183761;-0.00161866;0.0276383;0.00373115;0.029226;0;0.0405872;8.2687;2.20737
300000;301;26.0148;0.261229;0.0101434;-2.45335;25.8968;-0.327308;-0.0182601;0.259131;-0.492238;0.0607404;-0.551062;-0.18854;0.585582;-6.33975;-0.00176888;0.000422098;0.00510041;0.00512625;-0.00179472;0.00346048;0.346812;2.8834;0.00414727;0.00461398;2.85629;0.350105;58.1472;103.147;0.00315477;-0.00177318;-0.0021316;0.00295834;0.00509823;0.00531994;0.0138373;0;0.0191199;0.0384658;-0.810935;-0.680697;1.05945;-6.67304;-0.00753494;8.92091e-05;0.0282986;0.0282988;-0.00753516;0.017917;0.266265;3.75565;0.0218158;0.0238893;3.75557;0.266271;94.6909;139.691;0.00339819;-0.00753634;0.001908;-0.0016662;0.0282968;0.00550814;0.0297591;0;0.0434947;8.27715;2.21501
301000;302;26.0226;0.26898;0.0104443;-2.45465;25.9046;-0.319343;-0.019557;0.266894;-0.484273;0.0603471;-0.551362;-0.187565;0.58551;-6.33878;-0.00187176;0.000391243;0.00436051;0.00438498;-0.00189623;0.0031406;0.429253;2.32963;0.00372013;0.00418747;2.31247;0.432437;55.2209;100.221;0.00328274;-0.00187554;-0.00200508;0.00277269;0.00435859;0.00587302;0.0137449;0;0.0184769;0.0373779;-0.817757;-0.680711;1.06466;-6.67306;-0.00777802;4.43225e-05;0.0289561;0.0289562;-0.00777808;0.0183671;0.268614;3.72281;0.0223525;0.0244895;3.72279;0.268616;94.3671;139.367;0.00335738;-0.00777931;0.00174538;-0.00159601;0.0289546;0.00663774;0.0297428;0;0.0427227;8.28425;2.22269
302000;303;26.0292;0.275625;0.0107024;-2.45566;25.9111;-0.325158;-0.0205708;0.273402;-0.490088;0.0610459;-0.552114;-0.18622;0.585862;-6.33743;-0.00188378;0.00038132;0.00501364;0.00503466;-0.00190479;0.00346973;0.37573;2.66149;0.0041401;0.0046263;2.64315;0.378336;58.2107;103.211;0.00313838;-0.00188768;-0.00207029;0.0028161;0.00501158;0.0059259;0.0139475;0;0.0171467;0.0373884;-0.824707;-0.681585;1.07056;-6.67393;-0.00782391;7.88731e-05;0.0298046;0.0298047;-0.00782408;0.0188144;0.262507;3.80942;0.0229273;0.0250859;3.80936;0.262511;93.8443;138.844;0.00225588;-0.00782496;0.00165534;-0.00143999;0.0298032;0.00971473;0.0315915;0;0.0430409;8.29157;2.22966
303000;304;26.0345;0.280873;0.0109061;-2.45668;25.9162;-0.330977;-0.0215912;0.278502;-0.495907;0.0612228;-0.552988;-0.183486;0.585843;-6.3347;-0.00201299;0.00026709;0.00501882;0.00502895;-0.00202312;0.00352604;0.401088;2.49322;0.00419299;0.00470138;2.48574;0.402294;58.285;103.285;0.0033808;-0.00201682;-0.0022606;0.00277709;0.00501632;0.00566153;0.0139137;0;0.0183547;0.0365736;-0.832121;-0.681929;1.07647;-6.67427;-0.00824818;2.09507e-06;0.0308796;0.0308796;-0.00824818;0.0195639;0.267108;3.74381;0.0238167;0.0260852;3.74381;0.267108;92.5633;137.563;0.00435117;-0.00824869;0.00104996;-0.00100599;0.0308791;0.0032284;0.03389;0;0.0442727;8.30323;2.23707
304000;305;26.0422;0.288541;0.0112039;-2.45763;25.9238;-0.333768;-0.0225334;0.286081;-0.498698;0.0608066;-0.552595;-0.185549;0.586077;-6.33676;-0.00169042;0.00048099;0.00544268;0.00547496;-0.00172271;0.00359884;0.310587;3.21971;0.00433973;0.00479845;3.17811;0.314652;60.0207;105.021;0.00318448;-0.00169454;-0.00196154;0.00290619;0.00544088;0.0059266;0.0127676;0;0.0164705;0.0354682;-0.838793;-0.684683;1.08334;-6.67703;-0.00827565;0.000171626;0.0312615;0.0312622;-0.00827639;0.0197693;0.264724;3.77752;0.0240792;0.0263591;3.77727;0.264741;92.1435;137.144;0.00487648;-0.00827594;0.00116369;-0.000782405;0.0312608;0.00731423;0.0312045;0;0.0483856;8.31599;2.24421
305000;306;26.0471;0.293501;0.0113965;-2.45866;25.9286;-0.337018;-0.0235692;0.290924;-0.501948;0.0607203;-0.552171;-0.185495;0.585652;-6.33671;-0.00188419;0.000638144;0.0050406;0.00509891;-0.00194251;0.00352071;0.373803;2.6752;0.00419931;0.00469428;2.62491;0.380965;56.1053;101.105;0.00315649;-0.0018888;-0.00184175;0.00310094;0.00503911;0.00567207;0.0141339;0;0.0194377;0.0344896;-0.845375;-0.686861;1.08978;-6.67921;-0.00858107;0.000161167;0.0321461;0.0321467;-0.00858171;0.0203642;0.26694;3.74616;0.0247918;0.0271523;3.74595;0.266955;92.7357;137.736;0.00386872;-0.00858162;0.00142333;-0.00105119;0.0321451;0.00724343;0.031485;0;0.047083;8.31691;2.24776
306000;307;26.0532;0.2996;0.0116333;-2.45871;25.9347;-0.342483;-0.0236149;0.296974;-0.507413;0.0609248;-0.552895;-0.182532;0.585426;-6.33374;-0.00172811;0.000534272;0.00491228;0.00495499;-0.00177082;0.00336291;0.351793;2.84258;0.00402559;0.00448387;2.79814;0.35738;56.7823;101.782;0.00348576;-0.00173251;-0.0019621;0.00301415;0.00491051;0.00451661;0.0148897;0;0.0203344;0.0338215;-0.852235;-0.686899;1.09512;-6.67924;-0.0087893;0.000101476;0.032423;0.0324233;-0.00878955;0.0206064;0.271082;3.68892;0.0250644;0.0274752;3.68884;0.271088;93.3001;138.3;0.00358885;-0.00879016;0.00157414;-0.0013124;0.0324218;0.00779363;0.0320549;0;0.0477797;8.32453;2.25286
307000;308;26.061;0.307363;0.0119347;-2.46072;25.9424;-0.334756;-0.0256295;0.304682;-0.499686;0.0605428;-0.553527;-0.183139;0.586172;-6.33435;-0.0019523;0.000569617;0.00529143;0.00533594;-0.00199682;0.00366638;0.368955;2.71036;0.00437744;0.00488851;2.67222;0.37422;58.0095;103.01;0.00320752;-0.00195652;-0.00183534;0.00295725;0.00528991;0.0047074;0.0135584;0;0.0172961;0.0326931;-0.859536;-0.689109;1.10215;-6.68145;-0.00875918;0.000253001;0.0326123;0.0326139;-0.00876073;0.0206873;0.268585;3.72322;0.0251762;0.0275831;3.72274;0.26862;92.5025;137.503;0.00500841;-0.00875958;0.00148359;-0.000928286;0.0326113;0.00682072;0.0306921;0;0.0467292;8.33747;2.25951
308000;309;26.0681;0.314515;0.0122125;-2.46053;25.9496;-0.332567;-0.0254344;0.311914;-0.497497;0.0598988;-0.553644;-0.181474;0.585698;-6.33269;-0.00191731;0.000444419;0.00522069;0.00524825;-0.00194488;0.00359656;0.367253;2.72292;0.00429645;0.00479542;2.6985;0.370576;59.4612;104.461;0.00337333;-0.00192091;-0.00184267;0.00271527;0.0052191;0.0043691;0.0139152;0;0.0175197;0.0312739;-0.866503;-0.687376;1.10648;-6.67972;-0.00878083;0.000254698;0.0329512;0.0329527;-0.00878238;0.0208676;0.26648;3.75263;0.025407;0.0278234;3.75214;0.266515;92.1768;137.177;0.00494581;-0.00878112;0.00135853;-0.000804539;0.0329503;0.00520418;0.0302066;0;0.0454321;8.34286;2.26689
309000;310;26.0754;0.32181;0.0124957;-2.46142;25.9568;-0.335153;-0.0263285;0.319124;-0.500083;0.060724;-0.554984;-0.181082;0.586928;-6.33229;-0.00184584;0.000431045;0.0055821;0.00560703;-0.00187077;0.0037389;0.330671;3.02415;0.00449336;0.0049852;2.99718;0.333647;60.8108;105.811;0.00295721;-0.00184968;-0.0019562;0.00280065;0.00558029;0.00603976;0.0143867;0;0.016113;0.0314021;-0.874645;-0.690757;1.11496;-6.6831;-0.00872848;0.000226482;0.0339708;0.033972;-0.00872968;0.0213508;0.256941;3.89195;0.0260501;0.0284678;3.89155;0.256967;91.8937;136.894;0.00358415;-0.00872873;0.00122954;-0.000735156;0.0339701;0.0106448;0.0305275;0;0.0437765;8.35726;2.27367
310000;311;26.0844;0.330792;0.0128445;-2.46201;25.9658;-0.332714;-0.0269196;0.328123;-0.497644;0.0603905;-0.554737;-0.17859;0.585896;-6.3298;-0.00176652;0.000695297;0.00553169;0.00559734;-0.00183217;0.00371476;0.319345;3.13141;0.00446927;0.00495301;3.05504;0.327328;58.1794;103.179;0.00303134;-0.00177134;-0.00180759;0.00318002;0.00553031;0.00607344;0.0133951;0;0.0172026;0.0301585;-0.881884;-0.689568;1.11988;-6.68191;-0.00880351;6.0524e-05;0.0351508;0.0351509;-0.0088036;0.0219773;0.25045;3.99282;0.0268539;0.029303;3.99279;0.250451;91.9114;136.911;0.00309154;-0.00880387;0.00100949;-0.000848145;0.0351503;0.00965644;0.030641;0;0.0446886;8.36252;2.28123
311000;312;26.0894;0.335752;0.0130371;-2.46246;25.9707;-0.34162;-0.0273706;0.332947;-0.50655;0.0601239;-0.554961;-0.175764;0.585226;-6.32698;-0.0020193;0.000526049;0.00551644;0.00555299;-0.00205584;0.00380442;0.366051;2.73186;0.004545;0.00507256;2.70107;0.370223;59.6437;104.644;0.00319105;-0.00202316;-0.00179087;0.0028256;0.00551499;0.00470916;0.0141314;0;0.0203803;0.0289311;-0.888846;-0.688321;1.12458;-6.68067;-0.00897258;2.75538e-06;0.0362548;0.0362548;-0.00897258;0.0226137;0.247487;4.04062;0.0276503;0.0301516;4.04062;0.247487;91.4778;136.478;0.00476923;-0.00897283;0.000734349;-0.000696908;0.0362546;0.00687584;0.0313848;0;0.0481539;8.36654;2.28821
312000;313;26.0947;0.341127;0.0132458;-2.46386;25.9758;-0.352144;-0.0287671;0.338073;-0.517074;0.0606153;-0.554395;-0.177992;0.585413;-6.3292;-0.00197663;0.000489341;0.0054958;0.00552771;-0.00200854;0.00376813;0.359663;2.78038;0.00450641;0.00502417;2.7521;0.363359;59.2871;104.287;0.00352256;-0.00198075;-0.00194669;0.00290726;0.00549404;0.00463434;0.0135877;0;0.0175285;0.0286798;-0.895156;-0.692534;1.13214;-6.68488;-0.00911936;0.000141301;0.0372001;0.0372006;-0.00911979;0.0231602;0.245143;4.07925;0.0283338;0.0308802;4.0791;0.245152;91.5327;136.533;0.00516217;-0.00911959;0.00101033;-0.000688918;0.0371996;0.00589025;0.0358426;0;0.0495923;8.37154;2.29584
313000;314;26.1029;0.349301;0.0135632;-2.4654;25.9839;-0.349649;-0.030311;0.346172;-0.514579;0.0602767;-0.554819;-0.176322;0.585275;-6.32753;-0.00191676;0.000708692;0.00537005;0.00543833;-0.00198504;0.00371169;0.356935;2.80163;0.00443778;0.00494892;2.73966;0.365009;57.2253;102.225;0.00356619;-0.00192142;-0.00173292;0.0031326;0.0053688;0.00428934;0.0129695;0;0.0188482;0.027344;-0.90314;-0.693376;1.13894;-6.68803;-0.00972308;0.000132425;0.0379668;0.0379671;-0.00972344;0.0238453;0.256094;3.90481;0.0290992;0.0317937;3.9047;0.256102;91.2698;136.27;0.00418032;-0.00972323;0.000864176;-0.000565706;0.0379664;0.00410798;0.0385279;0;0.0483949;8.38307;2.30359
314000;315;26.1092;0.355582;0.0138071;-2.46545;25.9902;-0.348363;-0.0303582;0.352494;-0.513293;0.0605959;-0.555933;-0.174479;0.585812;-6.32569;-0.00199984;0.000556706;0.00509553;0.00513894;-0.00204326;0.0035911;0.39247;2.54796;0.00427311;0.00478813;2.51507;0.397603;57.4481;102.448;0.00308556;-0.00200381;-0.00176998;0.00286696;0.00509412;0.00497111;0.0142139;0;0.0203384;0.0268523;-0.911021;-0.694016;1.14557;-6.68867;-0.00978383;0.00027365;0.0380909;0.0380924;-0.00978539;0.0239389;0.256855;3.89325;0.0292083;0.0319186;3.89279;0.256885;91.2025;136.203;0.0050454;-0.0097839;0.00105911;-0.000475585;0.0380904;0.00561236;0.0365575;0;0.0502643;8.39023;2.31114
315000;316;26.117;0.363368;0.0141094;-2.46623;25.998;-0.347217;-0.0311366;0.360257;-0.512147;0.060776;-0.555869;-0.173533;0.585489;-6.32474;-0.0019618;0.000818795;0.00570581;0.00579227;-0.00204826;0.00392027;0.343825;2.90846;0.00469562;0.00522702;2.8279;0.35362;58.1382;103.138;0.00269997;-0.00196655;-0.00156593;0.00318533;0.00570492;0.00598153;0.0137314;0;0.0199791;0.0260902;-0.917363;-0.695831;1.1517;-6.68818;-0.0095239;0.000360722;0.0376806;0.0376834;-0.00952666;0.023605;0.252753;3.95643;0.0288274;0.0314734;3.95557;0.252808;91.2514;136.251;0.00615951;-0.00952395;0.00122312;-0.000462444;0.03768;0.00799617;0.0315089;0;0.0537473;8.39453;2.31622
316000;317;26.1252;0.371589;0.0144286;-2.46861;26.006;-0.350599;-0.0335214;0.368245;-0.515529;0.0606423;-0.556921;-0.171601;0.585906;-6.32281;-0.00195025;0.000738037;0.00564783;0.00571886;-0.00202128;0.00387007;0.34531;2.89595;0.00463563;0.00516009;2.82933;0.353441;58.725;103.725;0.00374857;-0.00195469;-0.00160749;0.00306584;0.00564682;0.00352565;0.0141262;0;0.0193017;0.0250821;-0.925535;-0.694578;1.15745;-6.68692;-0.00952205;0.000449987;0.0379964;0.0380007;-0.00952632;0.0237635;0.250604;3.99036;0.0290349;0.0316846;3.98902;0.250688;90.2729;135.273;0.0067058;-0.00952195;0.000870727;4.85082e-05;0.0379961;0.00541848;0.0294474;0;0.0503224;8.40462;2.32235
317000;318;26.1337;0.380115;0.0147597;-2.46894;26.0145;-0.352242;-0.0338506;0.376757;-0.517172;0.0600354;-0.557605;-0.168522;0.585599;-6.31973;-0.00197334;0.000461784;0.00558859;0.00561668;-0.00200144;0.00380906;0.353102;2.83204;0.00456043;0.00507875;2.80632;0.356338;60.3673;105.367;0.00289094;-0.00197716;-0.00189383;0.00279968;0.00558691;0.00488431;0.0136606;0;0.0187945;0.0237494;-0.933833;-0.693108;1.16319;-6.68545;-0.00938918;0.00052792;0.038975;0.0389807;-0.00939494;0.0241878;0.240903;4.15105;0.0296197;0.0322504;4.14912;0.241015;89.4863;134.486;0.00551217;-0.00938915;0.000587779;0.000470846;0.0389749;0.00874256;0.0303808;0;0.0476252;8.41028;2.32595
318000;319;26.1409;0.38726;0.0150371;-2.46929;26.0215;-0.357808;-0.034193;0.383826;-0.522738;0.0604703;-0.557502;-0.169316;0.585776;-6.32053;-0.00205903;0.000615464;0.0057165;0.00576492;-0.00210745;0.00393618;0.360191;2.7763;0.00470578;0.00524824;2.7355;0.365564;59.6246;104.625;0.00291133;-0.00206316;-0.00172141;0.00293427;0.00571522;0.00572829;0.0127498;0;0.0176979;0.0234815;-0.940607;-0.696712;1.17077;-6.68906;-0.0095419;0.00030535;0.040114;0.0401159;-0.00954377;0.0248298;0.237869;4.20399;0.0304282;0.0331064;4.20336;0.237905;89.6233;134.623;0.00598658;-0.0095419;0.000291797;0.000318255;0.040114;0.00412988;0.031154;0;0.0507806;8.41308;2.33268
319000;320;26.1463;0.392709;0.0152487;-2.46977;26.027;-0.354543;-0.0346741;0.389298;-0.519473;0.0601309;-0.556735;-0.172558;0.585957;-6.32377;-0.00192213;0.000597302;0.00568227;0.0057289;-0.00196876;0.00384883;0.338269;2.95623;0.00461761;0.00513178;2.9099;0.343655;59.4122;104.412;0.00320997;-0.00192654;-0.00184827;0.00302438;0.00568075;0.00511033;0.0134017;0;0.0195012;0.0223904;-0.947164;-0.70121;1.17869;-6.69356;-0.00954466;0.000215759;0.0413178;0.0413187;-0.00954558;0.0254322;0.231006;4.32889;0.031218;0.0339095;4.32857;0.231023;90.5455;135.545;0.00528808;-0.00954466;0.000671214;-0.000217448;0.0413176;0.00804624;0.0347396;0;0.0517286;8.42294;2.34035
320000;321;26.1537;0.400053;0.0155338;-2.47045;26.0343;-0.355373;-0.0353595;0.3966;-0.520303;0.0601608;-0.556628;-0.171344;0.585502;-6.32256;-0.00188262;0.00073656;0.00553453;0.00560697;-0.00195505;0.00378101;0.340158;2.93981;0.00453246;0.00504135;2.86794;0.348683;58.5054;103.505;0.00276063;-0.00188701;-0.00159641;0.00305231;0.00553353;0.00551278;0.0136696;0;0.0161735;0.0216937;-0.953737;-0.700685;1.18366;-6.69303;-0.00982959;0.000141112;0.0424843;0.0424846;-0.00982997;0.0261573;0.23137;4.32208;0.0321054;0.0348764;4.32195;0.231377;90.5794;135.579;0.00633663;-0.00982962;0.000577287;-0.000273175;0.0424841;0.00166201;0.0356009;0;0.0516385;8.43058;2.3476
321000;322;26.1599;0.406323;0.0157773;-2.47172;26.0404;-0.360223;-0.036622;0.402713;-0.525153;0.0597936;-0.558238;-0.167013;0.585746;-6.31823;-0.00200951;0.000877346;0.00574773;0.00584572;-0.0021075;0.00397661;0.349618;2.86027;0.00475786;0.00530214;2.77377;0.36052;58.5165;103.516;0.00349112;-0.002014;-0.00138368;0.00312093;0.00574716;0.00384893;0.0143666;0;0.0222864;0.0201952;-0.962391;-0.700894;1.19074;-6.69554;-0.0102106;0.000322656;0.0429717;0.0429736;-0.0102126;0.0265931;0.237612;4.20854;0.0325911;0.0354575;4.20792;0.237647;90.2559;135.256;0.00504403;-0.0102105;0.000682627;-1.89598e-05;0.0429715;0.0044387;0.0406701;0;0.0528261;8.43637;2.35506
322000;323;26.1668;0.413187;0.0160438;-2.47219;26.0471;-0.370699;-0.0370961;0.409415;-0.535629;0.0598775;-0.557611;-0.167198;0.58521;-6.31841;-0.00203242;0.000639896;0.00597571;0.00602652;-0.00208323;0.00405488;0.340114;2.94019;0.00486317;0.0054065;2.89287;0.345678;61.1574;106.157;0.00326184;-0.00203636;-0.00161316;0.00287501;0.00597462;0.00422777;0.0137506;0;0.0179965;0.0193732;-0.969054;-0.702839;1.19726;-6.69749;-0.0100605;0.000434499;0.0430649;0.0430685;-0.0100641;0.0265663;0.233613;4.28059;0.0325892;0.0354217;4.27943;0.233676;90.0523;135.052;0.00643179;-0.0100604;0.000747494;0.000137446;0.0430648;0.00679836;0.039159;0;0.053363;8.44715;2.36282
323000;324;26.174;0.420422;0.0163248;-2.47377;26.0542;-0.37181;-0.0386729;0.416518;-0.53674;0.0594843;-0.55856;-0.169115;0.586624;-6.32033;-0.00202375;0.000605393;0.00619331;0.00623767;-0.00206812;0.00415289;0.326765;3.06031;0.0049927;0.00553719;3.01611;0.331553;62.0256;107.026;0.00352046;-0.00202774;-0.00169205;0.00288407;0.00619207;0.00350484;0.0135095;0;0.0155987;0.0183285;-0.977867;-0.704983;1.20564;-6.69963;-0.0100036;0.000553478;0.0428762;0.042882;-0.0100094;0.0264457;0.233314;4.28607;0.0324433;0.0352609;4.28417;0.233418;89.1279;134.128;0.00664733;-0.0100037;0.000390436;0.000708253;0.0428762;0.00592892;0.0368044;0;0.0533396;8.45198;2.37018
324000;325;26.1815;0.427924;0.0166161;-2.47437;26.0617;-0.370734;-0.0392774;0.424013;-0.535664;0.0595204;-0.559608;-0.16417;0.586221;-6.31538;-0.00188899;0.000717432;0.00593627;0.0060015;-0.00195422;0.00397786;0.318211;3.14257;0.00478726;0.00530381;3.07105;0.325621;60.1423;105.142;0.00295025;-0.00189345;-0.00165457;0.00307098;0.00593517;0.00460681;0.0121216;0;0.0164471;0.0172533;-0.986401;-0.70266;1.2112;-6.69731;-0.0101816;0.000643066;0.0435615;0.0435692;-0.0101893;0.0268793;0.23373;4.27844;0.0329716;0.035839;4.27597;0.233865;88.125;133.125;0.00716897;-0.0101823;-8.05562e-05;0.00132942;0.0435617;0.00362189;0.0323357;0;0.0521063;8.45918;2.37893
325000;326;26.1908;0.437199;0.0169762;-2.47432;26.071;-0.37405;-0.0392254;0.433288;-0.53898;0.0593445;-0.560041;-0.164229;0.586634;-6.31544;-0.0020114;0.000801023;0.00605325;0.00613204;-0.0020902;0.00411112;0.332285;3.00946;0.00493459;0.00548149;2.93372;0.340865;60.4787;105.479;0.00316328;-0.00201568;-0.00144456;0.0030286;0.00605253;0.00515609;0.0128323;0;0.0184074;0.0163428;-0.993836;-0.704428;1.21828;-6.69677;-0.00992132;0.00053026;0.0439962;0.0440014;-0.00992653;0.026964;0.225504;4.43451;0.0331424;0.035952;4.43271;0.225596;88.0336;133.034;0.00734245;-0.0099221;-0.000341541;0.00135704;0.0439963;0.00459928;0.03112;0;0.0567964;8.4615;2.3859
326000;327;26.1982;0.444541;0.0172613;-2.47492;26.0783;-0.373991;-0.0398265;0.440608;-0.538921;0.059555;-0.559544;-0.165151;0.586439;-6.31636;-0.00194004;0.000989112;0.00574959;0.00587479;-0.00206523;0.00397001;0.337422;2.96365;0.0047568;0.00529334;2.84461;0.351542;57.2063;102.206;0.00321362;-0.00194519;-0.00139371;0.00335371;0.00574912;0.00512251;0.013298;0;0.0179324;0.0158434;-1.00062;-0.707498;1.22558;-6.69984;-0.00990418;0.000429019;0.0449178;0.0449211;-0.00990753;0.0274143;0.220496;4.53524;0.0337384;0.0365525;4.53404;0.220554;88.5213;133.521;0.00723702;-0.00990464;-0.000229209;0.00105271;0.0449179;0.00529132;0.0342909;0;0.0551442;8.46583;2.39186
327000;328;26.2041;0.450449;0.0174907;-2.4757;26.0841;-0.377523;-0.0406046;0.446418;-0.542453;0.0592827;-0.561048;-0.162176;0.587019;-6.31339;-0.00192245;0.000807505;0.00627826;0.00635701;-0.00200121;0.00417911;0.306207;3.26576;0.00503932;0.00557215;3.17659;0.314803;61.0904;106.09;0.0033089;-0.00192698;-0.00151922;0.00311527;0.00627743;0.00511714;0.0124704;0;0.0163752;0.0148567;-1.00858;-0.70693;1.23175;-6.69928;-0.00998376;0.000456264;0.0461084;0.0461121;-0.00998748;0.0280498;0.216528;4.61834;0.0345551;0.0373997;4.61699;0.216591;89.1027;134.103;0.00553676;-0.00998392;0.000171766;0.000725508;0.0461085;0.00525695;0.0388411;0;0.0525729;8.4767;2.39321
328000;329;26.2103;0.456726;0.0177344;-2.4757;26.0906;-0.368335;-0.0406063;0.452855;-0.533265;0.0592892;-0.56191;-0.161798;0.587738;-6.31301;-0.00199034;0.000801462;0.00646198;0.0065373;-0.00206566;0.00430148;0.308008;3.24667;0.00518576;0.00573531;3.16474;0.315981;61.442;106.442;0.00299955;-0.00199498;-0.00156263;0.0031457;0.00646108;0.00484428;0.0139414;0;0.0172152;0.0140601;-1.01642;-0.709424;1.23959;-6.70407;-0.0103352;0.000596811;0.0471052;0.0471114;-0.0103414;0.0287264;0.219408;4.55773;0.0353624;0.0383019;4.55559;0.21951;89.0799;134.08;0.00633499;-0.0103354;0.000378468;0.000803176;0.0471053;0.00394345;0.0416946;0;0.0544902;8.48136;2.40093
329000;330;26.2163;0.462717;0.0179671;-2.47516;26.0966;-0.371205;-0.0400657;0.458884;-0.536135;0.0592489;-0.562928;-0.156879;0.587375;-6.30809;-0.00211363;0.000711248;0.00610275;0.00616386;-0.00217474;0.0041693;0.346341;2.88733;0.00499455;0.00555907;2.83429;0.352822;60.6585;105.659;0.0034073;-0.00211786;-0.00158894;0.00299265;0.00610174;0.00348867;0.0134247;0;0.0182284;0.0129222;-1.02436;-0.706296;1.24432;-6.70095;-0.0101718;0.000646321;0.0474502;0.0474574;-0.0101791;0.0288182;0.214368;4.66487;0.0355208;0.0384243;4.66226;0.214488;88.6162;133.616;0.00723384;-0.0101722;0.000141033;0.00112381;0.0474504;0.00342583;0.0409643;0;0.0573685;8.49251;2.40672
330000;331;26.2215;0.467876;0.0181674;-2.477;26.1015;-0.3756;-0.0419052;0.463829;-0.540531;0.0587458;-0.563094;-0.158524;0.587925;-6.30974;-0.00195508;0.00071465;0.00644052;0.00650092;-0.00201548;0.0042582;0.30356;3.29425;0.00513924;0.0056776;3.22549;0.31003;62.5573;107.557;0.00294911;-0.00195925;-0.0015628;0.0029731;0.00643956;0.00516313;0.0134779;0;0.0221057;0.0116431;-1.0319;-0.710613;1.25297;-6.70526;-0.0100497;0.000886338;0.0476998;0.0477134;-0.0100633;0.0288883;0.210687;4.74638;0.0356401;0.0385178;4.74132;0.210912;87.7455;132.746;0.00741609;-0.0100509;-6.1288e-05;0.00178173;0.0477001;0.00458156;0.0378176;0;0.0580936;8.49637;2.41427
331000;332;26.2324;0.478737;0.0185891;-2.47944;26.1121;-0.385351;-0.044345;0.474367;-0.550281;0.0579765;-0.563707;-0.158314;0.58838;-6.30953;-0.0020414;0.000729971;0.0068807;0.00694002;-0.00210073;0.00452038;0.296685;3.37058;0.00546325;0.00602717;3.30363;0.302697;63.2983;108.298;0.0031697;-0.00204586;-0.00163451;0.0030735;0.00687963;0.00462465;0.0122267;0;0.0186499;0.0102957;-1.04061;-0.710778;1.26023;-6.70543;-0.0102683;0.000837051;0.0483193;0.0483313;-0.0102803;0.0293058;0.212509;4.70568;0.0361383;0.0390744;4.70137;0.212704;87.0464;132.046;0.00721274;-0.0102705;-0.000652342;0.0022432;0.0483194;0.0030606;0.0356417;0;0.0560866;8.50665;2.42169
332000;333;26.2399;0.486299;0.0188827;-2.47988;26.1196;-0.388375;-0.0447902;0.481877;-0.553305;0.0587185;-0.56455;-0.155259;0.588447;-6.30647;-0.00199807;0.00080878;0.00644657;0.00652333;-0.00207484;0.00429908;0.309944;3.22639;0.00518089;0.00573211;3.14402;0.318064;61.9554;106.955;0.00263123;-0.00200241;-0.00145164;0.00305023;0.00644584;0.00564644;0.0123853;0;0.0185052;0.0098715;-1.04888;-0.7114;1.26742;-6.70605;-0.0102673;0.000749053;0.0483771;0.0483867;-0.0102769;0.0293318;0.212235;4.71175;0.0361733;0.039109;4.7083;0.212391;86.596;131.596;0.00743411;-0.0102702;-0.00112002;0.00251357;0.0483768;0.00495787;0.0360366;0;0.0592356;8.51008;2.42954
333000;334;26.2484;0.494822;0.0192137;-2.48044;26.1281;-0.389715;-0.0453425;0.490366;-0.554646;0.0597354;-0.565483;-0.151616;0.588496;-6.30283;-0.00203321;0.000709293;0.00643182;0.00649085;-0.00209223;0.00429154;0.316117;3.16339;0.0051678;0.00572205;3.10236;0.322335;61.9045;106.904;0.00277796;-0.00203758;-0.00164065;0.00303946;0.00643074;0.00631062;0.0129187;0;0.0170115;0.0101773;-1.05646;-0.71007;1.27296;-6.70242;-0.0102385;0.000542117;0.0492219;0.0492268;-0.0102434;0.0297351;0.208007;4.80754;0.0367118;0.0396468;4.8057;0.208086;87.0437;132.044;0.00755963;-0.0102407;-0.00119976;0.00218528;0.0492213;0.000908681;0.0377898;0;0.0579227;8.51367;2.43575
334000;335;26.2594;0.505814;0.0196405;-2.48079;26.1391;-0.389035;-0.0456956;0.501386;-0.553965;0.0595052;-0.562339;-0.161864;0.588188;-6.31308;-0.00215438;0.000761523;0.00675019;0.00681485;-0.00221904;0.00451694;0.319159;3.13324;0.00543604;0.00602259;3.07108;0.325618;62.837;107.837;0.0031882;-0.00215868;-0.00152397;0.0030268;0.00674933;0.0044249;0.0129752;0;0.0223163;0.00931552;-1.06223;-0.723353;1.28517;-6.7157;-0.0102694;0.000497315;0.0501043;0.0501084;-0.0102735;0.0301909;0.20496;4.87899;0.0373047;0.0402546;4.87744;0.205025;88.3913;133.391;0.00779021;-0.0102701;-0.00033306;0.00127995;0.0501044;0.00514252;0.0398445;0;0.0659469;8.52159;2.44309
335000;336;26.2642;0.510627;0.0198274;-2.48159;26.1438;-0.392628;-0.0464952;0.506091;-0.557559;0.0586786;-0.562219;-0.162102;0.588057;-6.31331;-0.00190858;0.000834929;0.00666852;0.00674904;-0.0019891;0.00436907;0.286207;3.49397;0.00528858;0.00582542;3.39302;0.294723;62.2892;107.289;0.00340204;-0.00191324;-0.00151432;0.00316416;0.00666772;0.00315157;0.0122958;0;0.0201886;0.00790726;-1.06923;-0.724117;1.29138;-6.71877;-0.0104348;0.000543481;0.0509075;0.0509124;-0.0104397;0.030676;0.204976;4.87861;0.0379037;0.0409013;4.87682;0.205052;88.4155;133.415;0.00654119;-0.0104355;-0.000256365;0.00129664;0.0509076;0.00402219;0.0437463;0;0.0631411;8.52877;2.45017
336000;337;26.2681;0.514486;0.0199772;-2.48015;26.1479;-0.386535;-0.0450573;0.510195;-0.551466;0.0579302;-0.563411;-0.157182;0.587787;-6.30839;-0.00206175;0.000786628;0.00704106;0.00710854;-0.00212923;0.00461888;0.292818;3.41509;0.00558572;0.00615851;3.33855;0.299531;64.3536;109.354;0.00300026;-0.00206591;-0.0014327;0.00298589;0.00704035;0.00419026;0.0133139;0;0.0239981;0.00639686;-1.07695;-0.721079;1.29608;-6.71573;-0.0101825;0.000768301;0.051521;0.0515305;-0.0101921;0.0308613;0.197639;5.05973;0.0382069;0.0411484;5.05592;0.197788;88.422;133.422;0.00670109;-0.0101832;0.000112062;0.00138603;0.0515212;0.00567482;0.0399172;0;0.0632942;8.53177;2.45802
337000;338;26.2742;0.520539;0.0202123;-2.48192;26.1538;-0.389087;-0.0468306;0.51607;-0.554017;0.0577746;-0.563913;-0.15795;0.588459;-6.30916;-0.00186586;0.000870423;0.00695488;0.00703995;-0.00195093;0.00449544;0.268281;3.72744;0.00546104;0.00599392;3.60851;0.277123;63.4753;108.475;0.00315147;-0.00187045;-0.00142968;0.00315037;0.00695424;0.00413092;0.0125077;0;0.0161717;0.0051932;-1.08505;-0.722948;1.30384;-6.7176;-0.010184;0.00106719;0.0519668;0.0519851;-0.0102023;0.0310937;0.19597;5.10281;0.0385106;0.0414583;5.09545;0.196254;87.2729;132.273;0.00894784;-0.0101861;-0.000272187;0.00232744;0.0519673;0.00450508;0.0378793;0;0.0595377;8.55086;2.46416
338000;339;26.2819;0.52831;0.020514;-2.48575;26.161;-0.406559;-0.0506553;0.523248;-0.571489;0.0588098;-0.566734;-0.151703;0.589627;-6.30292;-0.00209993;0.000896909;0.00695895;0.00704689;-0.00218788;0.00461738;0.30176;3.3139;0.00557228;0.00615651;3.22088;0.310474;63.1669;108.167;0.00281517;-0.0021044;-0.0013444;0.00311805;0.00695845;0.00548674;0.0114574;0;0.0194272;0.00511322;-1.0946;-0.720283;1.31034;-6.71493;-0.0103493;0.00121809;0.052889;0.0529125;-0.0103727;0.0316426;0.195679;5.11042;0.0391928;0.0421901;5.10112;0.196035;85.9537;130.954;0.00931841;-0.0103543;-0.0010911;0.00338858;0.0528891;0.00172078;0.0377275;0;0.059949;8.54749;2.47133
339000;340;26.2916;0.537933;0.0208877;-2.48537;26.1707;-0.403436;-0.0502744;0.533;-0.568366;0.0585631;-0.563717;-0.15979;0.588846;-6.311;-0.00205161;0.00091322;0.00703285;0.00712374;-0.00214251;0.00463312;0.291719;3.42796;0.00560161;0.0061775;3.32496;0.300756;63.1645;108.164;0.00334265;-0.00205625;-0.00137163;0.00317745;0.00703233;0.00434559;0.0125095;0;0.0276495;0.00455571;-1.0993;-0.730229;1.31974;-6.72488;-0.0106239;0.000963856;0.0534184;0.0534329;-0.0106385;0.0320357;0.198882;5.02811;0.0396467;0.0427142;5.02262;0.199099;86.1486;131.149;0.00986122;-0.0106286;-0.00139698;0.00318116;0.0534179;0.000129029;0.0376898;0;0.0625262;8.55398;2.47441
340000;341;26.2985;0.544864;0.0211568;-2.48515;26.1776;-0.407137;-0.0500551;0.539926;-0.572067;0.0577055;-0.564252;-0.156847;0.588482;-6.30806;-0.00214741;0.000765283;0.00690365;0.0069679;-0.00221166;0.00458978;0.311055;3.21487;0.00553188;0.00611971;3.15052;0.317407;64.0761;109.076;0.00300314;-0.0021514;-0.00141188;0.00292287;0.00690296;0.00365669;0.0127833;0;0.0207553;0.00274135;-1.10757;-0.728197;1.32552;-6.72285;-0.0102809;0.000871961;0.0536573;0.0536692;-0.0102928;0.031981;0.191602;5.21914;0.0396581;0.0426413;5.21427;0.191782;86.4569;131.457;0.00841649;-0.0102849;-0.00133828;0.00294807;0.0536568;0.00504158;0.0404829;0;0.0619356;8.55782;2.48008
341000;342;26.3067;0.553105;0.0214768;-2.48606;26.1858;-0.406736;-0.0509687;0.548125;-0.571666;0.0590588;-0.565093;-0.152535;0.58829;-6.30375;-0.00209736;0.000685117;0.00684225;0.00689445;-0.00214956;0.004522;0.30653;3.26232;0.00545585;0.00602934;3.20738;0.311781;63.9171;108.917;0.00259542;-0.00210142;-0.00158024;0.00293035;0.00684124;0.00574726;0.0128153;0;0.0269807;0.00301335;-1.11454;-0.72882;1.33168;-6.72347;-0.0103997;0.000845217;0.0541002;0.0541112;-0.0104108;0.032261;0.192231;5.20207;0.0399986;0.0430147;5.1976;0.192396;87.0488;132.049;0.00835986;-0.0104026;-0.000927609;0.00250956;0.0541001;0.00529792;0.0401297;0;0.0652382;8.56067;2.48775
342000;343;26.3131;0.559479;0.0217243;-2.48636;26.1921;-0.410917;-0.0512643;0.554435;-0.575847;0.0587896;-0.565722;-0.152942;0.588973;-6.30415;-0.00201137;0.000692061;0.0069933;0.00704617;-0.00206425;0.00455521;0.287615;3.47687;0.00551583;0.00607362;3.41343;0.292961;64.3643;109.364;0.00298768;-0.00201557;-0.0016115;0.00297502;0.00699224;0.00488374;0.0119309;0;0.0213896;0.00203362;-1.12226;-0.731221;1.33946;-6.72587;-0.0104825;0.000707341;0.0547301;0.0547378;-0.0104902;0.032614;0.191531;5.22109;0.0404446;0.0434853;5.21801;0.191644;87.2599;132.26;0.00762867;-0.010485;-0.00102171;0.00232948;0.0547299;0.00480738;0.0417352;0;0.0642312;8.57267;2.49457
343000;344;26.3181;0.564475;0.0219183;-2.48524;26.1974;-0.402217;-0.0501457;0.559696;-0.567147;0.05827;-0.566118;-0.1536;0.589472;-6.30481;-0.00219304;0.000804565;0.00715156;0.00722032;-0.00226181;0.00474107;0.306652;3.26102;0.00571858;0.00632142;3.19228;0.313256;64.044;109.044;0.00306521;-0.00219736;-0.00145723;0.00304537;0.00715082;0.00414767;0.0120161;0;0.0174374;0.00058583;-1.13036;-0.73368;1.34759;-6.72833;-0.010184;0.000841258;0.0553984;0.0554092;-0.0101947;0.032802;0.183831;5.43977;0.0407649;0.043736;5.43507;0.18399;87.7198;132.72;0.00730387;-0.0101857;-0.000447111;0.00204957;0.0553986;0.00540065;0.0433784;0;0.063935;8.5962;2.50202
344000;345;26.3252;0.571607;0.0221952;-2.48738;26.2043;-0.405078;-0.0522868;0.566613;-0.570008;0.0583735;-0.566672;-0.153221;0.589916;-6.30443;-0.00205446;0.000877006;0.00728113;0.0073628;-0.00213614;0.00474947;0.282163;3.54405;0.0057543;0.00633262;3.44678;0.290126;64.5201;109.52;0.00320934;-0.00205887;-0.00135899;0.00309228;0.00728059;0.00411348;0.0110491;0;0.0177045;5.12151e-05;-1.13867;-0.733939;1.35471;-6.72676;-0.0101665;0.00124566;0.0560804;0.0561038;-0.0101899;0.0331469;0.181285;5.51619;0.0412212;0.0441958;5.50581;0.181626;86.741;131.741;0.00705827;-0.0101702;-0.000604817;0.00298005;0.056081;0.00379416;0.038207;0;0.0666813;8.59073;2.50912
345000;346;26.3306;0.577001;0.0224047;-2.48826;26.2096;-0.410478;-0.053164;0.571865;-0.575408;0.0588417;-0.568533;-0.147402;0.590271;-6.29861;-0.00198323;0.000624461;0.00730931;0.00735109;-0.002025;0.00468804;0.271329;3.68557;0.00569698;0.00625072;3.63016;0.27547;66.0856;111.086;0.00299575;-0.00198716;-0.00164251;0.00287052;0.00730816;0.00464289;0.0116631;0;0.0169655;-0.000511375;-1.14719;-0.733361;1.36156;-6.72801;-0.0104057;0.00131393;0.0567738;0.0567995;-0.0104314;0.0336155;0.183284;5.45602;0.0417798;0.0448206;5.44504;0.183653;85.9819;130.982;0.0107807;-0.0104116;-0.00117332;0.00364306;0.056774;0.0019278;0.0399258;0;0.0621106;8.58568;2.5168
346000;347;26.3403;0.586675;0.0227803;-2.49067;26.2189;-0.421616;-0.0555786;0.581177;-0.586546;0.0582061;-0.568791;-0.146601;0.590257;-6.29781;-0.00226123;0.00105483;0.00743273;0.00754618;-0.00237468;0.00496043;0.304226;3.28703;0.00598159;0.00661391;3.17777;0.314686;63.2851;108.285;0.00283412;-0.00226617;-0.00122406;0.00331179;0.00743254;0.00451799;0.0123754;0;0.0165137;-0.00172655;-1.15446;-0.733814;1.36794;-6.72846;-0.0106481;0.00126355;0.0575407;0.0575641;-0.0106715;0.0341178;0.185053;5.40385;0.0423835;0.0454904;5.39419;0.185385;85.4051;130.405;0.0102067;-0.0106559;-0.00181111;0.00413995;0.0575399;-0.00103044;0.0410749;0;0.0639725;8.5871;2.52343
347000;348;26.3455;0.591881;0.0229824;-2.49109;26.224;-0.426818;-0.0560014;0.586283;-0.591748;0.0585571;-0.568988;-0.145117;0.590115;-6.29633;-0.00198036;0.000788042;0.00752553;0.00759041;-0.00204524;0.00481783;0.263152;3.80008;0.00586218;0.00642377;3.71125;0.269451;66.0705;111.07;0.00317459;-0.00198452;-0.00143154;0.00298668;0.00752482;0.00370012;0.011505;0;0.0203978;-0.00261915;-1.16158;-0.734338;1.37423;-6.72899;-0.0105101;0.00139911;0.05799;0.0580185;-0.0105387;0.0342786;0.18124;5.51754;0.0426284;0.0457048;5.5053;0.181643;85.2079;130.208;0.00946028;-0.0105188;-0.00179454;0.00438597;0.0579894;0.00177173;0.0390924;0;0.0682553;8.59577;2.52922
348000;349;26.3558;0.602134;0.0233806;-2.49052;26.2344;-0.425222;-0.0554312;0.596663;-0.590152;0.0580421;-0.568057;-0.149412;0.590239;-6.30062;-0.00197279;0.000612725;0.00755816;0.00759739;-0.00201202;0.00480471;0.261015;3.83119;0.00585205;0.00640628;3.77599;0.264831;67.5109;112.511;0.00263849;-0.00197644;-0.00156004;0.00276493;0.00755714;0.00464041;0.0121116;0;0.0197919;-0.0033405;-1.16846;-0.740781;1.3835;-6.73543;-0.0105088;0.00108099;0.058571;0.0585879;-0.0105257;0.0345568;0.17942;5.57352;0.0429988;0.0460757;5.56617;0.179657;86.2756;131.276;0.00918347;-0.0105142;-0.00143879;0.00343633;0.0585705;0.00564821;0.0400258;0;0.0666532;8.60577;2.53518
349000;350;26.3628;0.609155;0.0236532;-2.49107;26.2413;-0.430205;-0.0559802;0.603584;-0.595136;0.0574507;-0.569349;-0.146343;0.590657;-6.29755;-0.00219416;0.00094979;0.00741323;0.00750623;-0.00228716;0.00489669;0.295979;3.37861;0.0059158;0.00652892;3.2819;0.304702;64.3791;109.379;0.00303558;-0.00219865;-0.00126265;0.00314113;0.00741289;0.00414748;0.0104279;0;0.022471;-0.00480197;-1.17688;-0.74031;1.39037;-6.73496;-0.0106496;0.000812816;0.0590697;0.0590792;-0.0106591;0.0348691;0.180288;5.54667;0.0433779;0.0464922;5.54263;0.18042;86.634;131.634;0.00966824;-0.010654;-0.00160951;0.00307567;0.0590688;0.00368356;0.0394556;0;0.0684127;8.61475;2.54007
350000;351;26.3703;0.616662;0.0239447;-2.4944;26.2484;-0.436014;-0.0593091;0.610714;-0.600944;0.0582841;-0.569515;-0.144689;0.590491;-6.2959;-0.00203066;0.000688983;0.00756323;0.00761246;-0.00207989;0.00484617;0.268491;3.72452;0.00589193;0.00646156;3.66004;0.273221;66.4966;111.497;0.00261791;-0.00203467;-0.00155667;0.00291325;0.00756226;0.00525426;0.0117883;0;0.0233912;-0.00511892;-1.18415;-0.742249;1.39756;-6.7369;-0.0102975;0.000850403;0.0592844;0.0592948;-0.0103078;0.0348013;0.173696;5.75719;0.043376;0.0464018;5.75239;0.173841;87.1677;132.168;0.00878646;-0.0103007;-0.00108436;0.00265808;0.0592842;0.00291954;0.0407615;0;0.0686209;8.62099;2.54695
351000;352;26.3755;0.621929;0.0241492;-2.49148;26.2543;-0.419405;-0.0563905;0.616552;-0.584335;0.0579524;-0.569805;-0.145928;0.591042;-6.29714;-0.00206544;0.00100831;0.0075233;0.00762818;-0.00217032;0.00489925;0.274538;3.64248;0.0059425;0.00653233;3.51478;0.284513;64.7109;109.711;0.00291345;-0.00207003;-0.00119646;0.0031921;0.00752309;0.00477499;0.0121092;0;0.0212022;-0.00626553;-1.19214;-0.745443;1.40603;-6.74009;-0.0102357;0.00113238;0.0601035;0.0601217;-0.0102539;0.0351878;0.170301;5.87195;0.0439001;0.0469171;5.86329;0.170553;86.6791;131.679;0.00868617;-0.0102402;-0.00108634;0.00320388;0.0601035;0.00272877;0.0433449;0;0.0682861;8.63461;2.5539
352000;353;26.3835;0.629874;0.0244577;-2.49205;26.2621;-0.423799;-0.0569563;0.62441;-0.588729;0.0576483;-0.570425;-0.145835;0.591588;-6.29705;-0.00202511;0.000713968;0.0077929;0.00784455;-0.00207676;0.00496065;0.259866;3.84814;0.00604212;0.00661421;3.77731;0.264739;68.0061;113.006;0.00265497;-0.00202874;-0.001377;0.00278457;0.00779222;0.00502667;0.0110975;0;0.0174759;-0.00716895;-1.20174;-0.745459;1.41419;-6.74011;-0.0104624;0.00137162;0.0610393;0.0610656;-0.0104888;0.0357772;0.171405;5.83413;0.0446195;0.0477029;5.82201;0.171762;85.8716;130.872;0.0105802;-0.0104697;-0.00147724;0.00402849;0.0610392;0.00431897;0.0397083;0;0.0695649;8.63474;2.56097
353000;354;26.3886;0.634992;0.0246564;-2.49293;26.2671;-0.426833;-0.057841;0.629418;-0.591763;0.0586245;-0.573064;-0.138213;0.592403;-6.28942;-0.00204461;0.000869647;0.00810744;0.0081814;-0.00211857;0.00514999;0.25219;3.96527;0.00628071;0.00686665;3.86175;0.25895;67.8143;112.814;0.00263984;-0.00204863;-0.00124399;0.00296199;0.00810705;0.00612397;0.0109597;0;0.0200303;-0.00743255;-1.21094;-0.741712;1.42006;-6.73636;-0.0106938;0.0013957;0.0619182;0.061945;-0.0107206;0.0363328;0.172708;5.79011;0.0452951;0.0484438;5.77812;0.173067;85.2086;130.209;0.0111652;-0.0107039;-0.00212847;0.00467887;0.061917;-0.000735617;0.0399819;0;0.0653259;8.63436;2.56813
354000;355;26.397;0.643426;0.0249839;-2.4956;26.2751;-0.443797;-0.0605044;0.637357;-0.608727;0.0570127;-0.573281;-0.137585;0.59231;-6.2888;-0.0020627;0.000736187;0.00805276;0.00810606;-0.00211599;0.00511103;0.256148;3.904;0.00623032;0.0068147;3.83085;0.261038;67.9359;112.936;0.00289487;-0.00206663;-0.00144674;0.00289721;0.008052;0.00435886;0.0115171;0;0.0163765;-0.00923318;-1.21781;-0.744586;1.42743;-6.73741;-0.0105883;0.00149159;0.0624484;0.0624788;-0.0106188;0.0365488;0.169553;5.89785;0.0456061;0.0487317;5.88381;0.169958;85.2731;130.273;0.0102047;-0.0105983;-0.00194782;0.00469455;0.0624476;0.00350197;0.0422936;0;0.0701198;8.6381;2.57559
355000;356;26.4083;0.654702;0.0254217;-2.49582;26.2864;-0.442747;-0.0607225;0.648683;-0.607677;0.0573168;-0.572331;-0.144701;0.593116;-6.29591;-0.00205496;0.000999187;0.00812062;0.00821781;-0.00215214;0.00518498;0.253054;3.95172;0.00631928;0.0069133;3.81843;0.261888;66.5209;111.521;0.00287625;-0.00205955;-0.00121152;0.00318757;0.00812039;0.00476222;0.0117001;0;0.0179257;-0.0097386;-1.22538;-0.752745;1.43815;-6.74557;-0.0108523;0.00117582;0.063352;0.0633706;-0.010871;0.0371208;0.171302;5.83763;0.0462981;0.0494944;5.82934;0.171546;86.0391;131.039;0.00969533;-0.0108595;-0.00181091;0.00395411;0.0633511;0.00682547;0.0415035;0;0.0732434;8.64049;2.58277
356000;357;26.4143;0.660644;0.0256525;-2.49773;26.2919;-0.457703;-0.0626399;0.654214;-0.622633;0.0583206;-0.573322;-0.139643;0.592959;-6.29085;-0.00211872;0.00072459;0.00833768;0.00838765;-0.00216869;0.00527817;0.254113;3.93525;0.0064376;0.00703756;3.86761;0.258557;69.0308;114.031;0.00264567;-0.00212245;-0.00139559;0.00282278;0.00833698;0.0057207;0.0113055;0;0.0176978;-0.00981662;-1.23423;-0.752448;1.44555;-6.7471;-0.0109421;0.00102288;0.0634477;0.0634618;-0.0109561;0.037209;0.172458;5.79851;0.0463932;0.049612;5.79235;0.172641;86.253;131.253;0.0107595;-0.0109485;-0.00187182;0.00371509;0.0634466;0.00328206;0.0444382;0;0.0669858;8.64263;2.59032
357000;358;26.4208;0.667167;0.0259058;-2.49822;26.2985;-0.451607;-0.0631275;0.660827;-0.616537;0.057896;-0.573882;-0.13891;0.593287;-6.29012;-0.00202405;0.000669473;0.00814176;0.00818566;-0.00206795;0.00512681;0.248601;4.02251;0.00626131;0.00683574;3.95835;0.252631;68.9285;113.929;0.00298734;-0.0020277;-0.00146258;0.00278003;0.00814093;0.0051977;0.0113091;0;0.0164706;-0.0114221;-1.24226;-0.753229;1.45282;-6.74788;-0.010374;0.00120091;0.0639374;0.0639568;-0.0103934;0.0371751;0.162253;6.16322;0.0464912;0.0495668;6.15358;0.162507;86.5051;131.505;0.00801497;-0.0103798;-0.00136178;0.0035846;0.0639372;0.00755146;0.0455567;0;0.0714097;8.65257;2.59788
358000;359;26.4271;0.673486;0.0261511;-2.49609;26.3053;-0.438034;-0.060997;0.667607;-0.602964;0.0581545;-0.575258;-0.136769;0.594146;-6.28798;-0.00217305;0.000737412;0.00823303;0.00828502;-0.00222505;0.00525504;0.263944;3.78869;0.00639538;0.00700671;3.72352;0.268563;68.5606;113.561;0.00270307;-0.00217683;-0.00138835;0.00284123;0.00823234;0.00486036;0.0110731;0;0.0188335;-0.0113025;-1.25037;-0.754007;1.46017;-6.74683;-0.0106175;0.00120802;0.0645884;0.0646078;-0.0106369;0.0376223;0.164387;6.08321;0.0470203;0.0501631;6.07394;0.164638;85.7964;130.796;0.00818601;-0.010626;-0.00209986;0.0042822;0.064587;0.00414831;0.0443437;0;0.0765396;8.65632;2.60483
359000;360;26.436;0.68235;0.0264953;-2.49654;26.3142;-0.438255;-0.0614427;0.676466;-0.603185;0.0577924;-0.576217;-0.134352;0.594488;-6.28556;-0.00194001;0.000834116;0.00816179;0.0082302;-0.00200842;0.00511931;0.237694;4.20709;0.00626453;0.00682575;4.09785;0.244031;67.9791;112.979;0.00217297;-0.00194412;-0.0013363;0.00298278;0.00816125;0.00701145;0.0106369;0;0.016722;-0.0130332;-1.26056;-0.752186;1.46798;-6.74684;-0.0107196;0.00136829;0.0653627;0.0653873;-0.0107442;0.0380657;0.164001;6.09751;0.047579;0.0507543;6.08584;0.164316;85.8677;130.868;0.010997;-0.010728;-0.00179668;0.00430722;0.065362;0.00134947;0.0432811;0;0.0714503;8.66394;2.61278
360000;361;26.4426;0.688974;0.0267525;-2.50075;26.32;-0.4624;-0.0656543;0.682308;-0.62733;0.0564145;-0.577427;-0.130136;0.594592;-6.28135;-0.00213274;0.000941647;0.0083806;0.00846428;-0.00221641;0.00534035;0.254485;3.92951;0.00650869;0.00712046;3.81891;0.261855;68.1214;113.121;0.00294418;-0.00213684;-0.00115284;0.00301429;0.00838039;0.00445963;0.01138;0;0.0311562;-0.0149712;-1.2683;-0.751816;1.47446;-6.74647;-0.0107335;0.00160972;0.0659725;0.0660063;-0.0107672;0.0383868;0.162696;6.14644;0.0479975;0.0511823;6.1303;0.163124;85.1763;130.176;0.0107162;-0.0107452;-0.00213346;0.00508353;0.0659716;0.00354967;0.045284;0;0.0706069;8.6623;2.61676
361000;362;26.4518;0.698208;0.0271111;-2.50195;26.3293;-0.457567;-0.0668585;0.691555;-0.622497;0.0584167;-0.576521;-0.135092;0.595011;-6.2863;-0.00213195;0.000657514;0.00808025;0.00812241;-0.00217411;0.00514826;0.263847;3.79008;0.00626664;0.00686434;3.73598;0.267668;68.6418;113.642;0.00282798;-0.00213556;-0.00147311;0.00276655;0.00807939;0.00564363;0.0117206;0;0.0267637;-0.0139932;-1.2747;-0.760095;1.48418;-6.75292;-0.010706;0.00163574;0.0667605;0.066795;-0.0107405;0.0387678;0.160365;6.23579;0.0485082;0.0516904;6.21896;0.160799;85.2516;130.252;0.0105455;-0.0107177;-0.00207776;0.00507954;0.0667597;0.00403295;0.0455848;0;0.0771623;8.67123;2.62168
362000;363;26.4609;0.707248;0.0274621;-2.50157;26.3383;-0.460499;-0.0664766;0.700622;-0.625429;0.0565644;-0.5735;-0.138848;0.592774;-6.29006;-0.00213837;0.000742453;0.00830627;0.00835879;-0.00219088;0.00527483;0.25744;3.8844;0.00642849;0.00703311;3.81526;0.262105;69.0019;114.002;0.00288383;-0.00214205;-0.00134892;0.00281216;0.00830564;0.00430823;0.0107618;0;0.0269818;-0.0167132;-1.28066;-0.764463;1.49157;-6.75911;-0.0107187;0.0016307;0.0678801;0.0679139;-0.0107525;0.0393332;0.157906;6.33289;0.0492529;0.0524442;6.31611;0.158325;85.6861;130.686;0.0103462;-0.0107286;-0.00171341;0.00472866;0.0678799;0.00659851;0.0427154;0;0.0785248;8.67139;2.62684
363000;364;26.4664;0.71279;0.0276773;-2.50388;26.3434;-0.477637;-0.0687839;0.705665;-0.642567;0.0580578;-0.576089;-0.135287;0.594602;-6.2865;-0.00226121;0.000862513;0.0084106;0.00847986;-0.00233047;0.00540517;0.268852;3.71951;0.00656933;0.00720689;3.63869;0.274824;67.8071;112.807;0.00286571;-0.00226543;-0.00132667;0.00302853;0.0084101;0.00539263;0.0121854;0;0.0207169;-0.0156598;-1.28938;-0.765383;1.49952;-6.75821;-0.0110123;0.00104719;0.0685304;0.0685442;-0.0110261;0.0397851;0.160692;6.22308;0.0497802;0.0530468;6.21655;0.160861;86.0943;131.094;0.0101025;-0.0110206;-0.0023477;0.00418935;0.0685283;0.00450404;0.039898;0;0.0813357;8.67567;2.63433
364000;365;26.473;0.719345;0.0279318;-2.50384;26.3501;-0.47243;-0.0687429;0.712349;-0.63736;0.0573641;-0.576967;-0.132122;0.594674;-6.28333;-0.00214629;0.000769686;0.00845666;0.00851224;-0.00220187;0.00535706;0.253798;3.94013;0.00653365;0.00714274;3.86592;0.258671;69.5297;114.53;0.00223582;-0.00214989;-0.00127279;0.00279068;0.00845615;0.00551836;0.0112043;0;0.0168263;-0.0177795;-1.29833;-0.763616;1.50635;-6.75644;-0.0107492;0.00134983;0.0687377;0.0687606;-0.0107721;0.0397663;0.15638;6.39468;0.0498208;0.0530218;6.3832;0.156661;85.6727;130.673;0.00983398;-0.0107596;-0.00229624;0.00472471;0.0687361;0.00425878;0.0410905;0;0.0780301;8.69285;2.64082
365000;366;26.4818;0.728159;0.028274;-2.50453;26.3588;-0.475809;-0.0694359;0.721077;-0.640739;0.0579828;-0.578119;-0.13257;0.595952;-6.28378;-0.00213222;0.000891311;0.008821;0.00889305;-0.00220427;0.00554866;0.241721;4.13701;0.0067839;0.00739822;4.03446;0.247864;69.7405;114.741;0.00250214;-0.00213609;-0.00115931;0.00291967;0.00882072;0.00498598;0.010451;0;0.0183349;-0.0179979;-1.30822;-0.765526;1.51584;-6.75835;-0.0107465;0.0013168;0.0689792;0.069001;-0.0107683;0.0398846;0.155794;6.41875;0.0499782;0.0531795;6.40781;0.15606;85.3693;130.369;0.00893536;-0.0107585;-0.0027097;0.00504297;0.0689766;0.00403687;0.0401209;0;0.0795144;8.69301;2.64863
366000;367;26.4894;0.73574;0.0285684;-2.50531;26.3662;-0.481429;-0.070213;0.728517;-0.646359;0.0568508;-0.578687;-0.130414;0.595919;-6.28163;-0.00212109;0.000980512;0.00844959;0.00853977;-0.00221127;0.00537552;0.251029;3.9836;0.00655579;0.00716737;3.86192;0.258938;67.6243;112.624;0.00247426;-0.00212553;-0.00119306;0.0031313;0.00844936;0.00544099;0.0114241;0;0.0182915;-0.019765;-1.31659;-0.766818;1.52375;-6.76147;-0.0108768;0.00136174;0.0699204;0.0699433;-0.0108997;0.0404215;0.155559;6.42842;0.0506545;0.0538953;6.41699;0.155836;85.7005;130.7;0.0102071;-0.0108874;-0.00233192;0.00477645;0.0699187;0.00248468;0.0405531;0;0.0764176;8.69098;2.65621
367000;368;26.4948;0.74113;0.0287777;-2.50699;26.3715;-0.480426;-0.0718997;0.733791;-0.645356;0.0574626;-0.580933;-0.130525;0.598182;-6.28174;-0.00211149;0.000905782;0.00868825;0.00876369;-0.00218693;0.00547531;0.243028;4.11476;0.00669164;0.00730042;4.00731;0.249544;68.8644;113.864;0.00257495;-0.00211564;-0.00122913;0.00301783;0.00868791;0.00497187;0.0106568;0;0.0260469;-0.020384;-1.32713;-0.770722;1.53483;-6.76842;-0.0102072;0.0014432;0.0709501;0.0709758;-0.0102329;0.0406043;0.143865;6.95097;0.051071;0.0541391;6.93605;0.144174;85.1226;130.123;0.00971079;-0.0102216;-0.00296612;0.00551836;0.070947;0.00529963;0.0488678;0;0.0839696;8.69111;2.66347
368000;369;26.5023;0.748698;0.0290716;-2.5073;26.379;-0.482672;-0.0722042;0.741324;-0.647602;0.0586249;-0.580027;-0.125718;0.596384;-6.27693;-0.00219218;0.0009254;0.00863061;0.00870916;-0.00227074;0.00548995;0.254001;3.93699;0.00669268;0.00731994;3.83539;0.26073;69.4522;114.452;0.00232929;-0.00219593;-0.00105709;0.00288662;0.00863048;0.00521793;0.0099563;0;0.0176773;-0.0201494;-1.3335;-0.770015;1.53999;-6.76771;-0.010572;0.00157393;0.0713093;0.0713395;-0.0106023;0.0409709;0.148256;6.74509;0.0514592;0.0546279;6.7287;0.148617;84.8871;129.887;0.00884886;-0.0105878;-0.00301383;0.00581102;0.0713062;0.00323943;0.0476978;0;0.0777595;8.69188;2.67022
369000;370;26.512;0.758392;0.029448;-2.50917;26.3885;-0.489165;-0.0740782;0.750766;-0.654095;0.0593843;-0.580842;-0.126676;0.597454;-6.27789;-0.0021904;0.000925682;0.00855967;0.0086388;-0.00226953;0.00545416;0.255897;3.90782;0.00664616;0.00727222;3.80644;0.262713;68.3942;113.394;0.00208818;-0.00219456;-0.00119687;0.00302561;0.00855939;0.00621263;0.0102503;0;0.020719;-0.0199938;-1.34117;-0.772066;1.54765;-6.76672;-0.0114854;0.00169729;0.0722284;0.0722628;-0.0115198;0.0418913;0.159014;6.28874;0.0524386;0.055855;6.27294;0.159415;84.8422;129.842;0.0127337;-0.0115016;-0.00287705;0.00591446;0.0722259;0.00271006;0.0473318;0;0.073162;8.69717;2.6773
370000;371;26.5199;0.766315;0.0297556;-2.5084;26.3965;-0.489236;-0.0733038;0.758798;-0.654166;0.0571125;-0.580611;-0.125924;0.596848;-6.27714;-0.0023111;0.000938414;0.00874269;0.00882179;-0.0023902;0.005606;0.264347;3.78291;0.00681903;0.00747466;3.69081;0.270943;69.1725;114.172;0.0018521;-0.00231501;-0.00109135;0.00294593;0.00874254;0.00643824;0.0101641;0;0.0217215;-0.0226647;-1.34888;-0.771817;1.55425;-6.76464;-0.0111534;0.00157251;0.073072;0.0731014;-0.0111828;0.0421421;0.152636;6.55153;0.0528576;0.0561894;6.53696;0.152976;85.0801;130.08;0.00957175;-0.0111687;-0.00292132;0.00571359;0.0730692;0.00481941;0.0474759;0;0.0829994;8.71174;2.68351
371000;372;26.5269;0.773241;0.0300245;-2.50618;26.4039;-0.475096;-0.0710892;0.766225;-0.640026;0.0578125;-0.580821;-0.124444;0.596809;-6.27566;-0.00225453;0.000989864;0.00845838;0.00854907;-0.00234522;0.00544715;0.266544;3.75173;0.00662105;0.00726286;3.64531;0.274325;68.2888;113.289;0.00238842;-0.00225854;-0.00103921;0.00299738;0.00845833;0.00566766;0.0116711;0;0.0201719;-0.0230473;-1.35639;-0.774496;1.5621;-6.76732;-0.0110265;0.00134071;0.0735221;0.0735434;-0.0110478;0.0422956;0.149976;6.66774;0.053096;0.0563941;6.65684;0.150221;85.2122;130.212;0.00952458;-0.0110412;-0.00323135;0.00555265;0.0735181;0.00571311;0.0468574;0;0.084063;8.70784;2.68903
372000;373;26.5339;0.780231;0.030296;-2.5072;26.4108;-0.478173;-0.0721062;0.773096;-0.643103;0.0578487;-0.581418;-0.124857;0.597481;-6.27607;-0.00215575;0.0011006;0.0089633;0.0090712;-0.00226365;0.00566742;0.240509;4.15785;0.00692643;0.00755656;4.00734;0.249542;69.1758;114.176;0.00221056;-0.00215996;-0.000919548;0.00309847;0.00896349;0.0059155;0.010947;0;0.0226548;-0.0238458;-1.36506;-0.777637;1.5712;-6.77046;-0.0110316;0.00134622;0.0737412;0.0737626;-0.011053;0.0424078;0.149599;6.68455;0.0532432;0.0565437;6.67356;0.149845;85.2425;130.243;0.0097883;-0.0110462;-0.00320453;0.00553766;0.0737373;0.00389077;0.0409293;0;0.0830141;8.71553;2.69327
373000;374;26.5405;0.78686;0.0305534;-2.50749;26.4173;-0.483148;-0.0723926;0.779638;-0.648078;0.0569532;-0.582831;-0.123055;0.598397;-6.27427;-0.00239327;0.000959154;0.00898053;0.00906085;-0.00247359;0.00576722;0.266496;3.7524;0.00701207;0.00768963;3.66303;0.272998;69.553;114.553;0.00237692;-0.0023972;-0.00106426;0.00295975;0.00898042;0.00538433;0.0103268;0;0.0318654;-0.0256839;-1.37392;-0.779663;1.57994;-6.77431;-0.011029;0.00167024;0.074387;0.0744197;-0.0110617;0.0427407;0.148265;6.74467;0.0536816;0.0569875;6.72771;0.148639;85.3181;130.318;0.0112736;-0.0110434;-0.00258481;0.00558699;0.0743852;0.000317918;0.0437876;0;0.0770854;8.72079;2.70069
374000;375;26.5486;0.794948;0.0308674;-2.51179;26.4247;-0.5005;-0.0766997;0.787032;-0.66543;0.0570112;-0.582942;-0.124267;0.59876;-6.27548;-0.00231358;0.0011038;0.00870376;0.00881326;-0.00242307;0.00561817;0.265813;3.76204;0.00682805;0.00749089;3.63722;0.274935;67.9911;112.991;0.00251334;-0.00231794;-0.000965615;0.0031506;0.0087039;0.00474468;0.0106457;0;0.0220106;-0.0260493;-1.38246;-0.780999;1.58803;-6.77382;-0.0109974;0.00149191;0.0750962;0.0751221;-0.0110233;0.0430727;0.146444;6.82854;0.0541312;0.0574302;6.81487;0.146738;85.4939;130.494;0.0131001;-0.011011;-0.00275642;0.00540002;0.0750937;0.00354666;0.0460478;0;0.0805135;8.72647;2.70766
375000;376;26.5574;0.803774;0.0312101;-2.51345;26.4333;-0.509662;-0.0783558;0.795567;-0.674592;0.0571692;-0.582287;-0.12368;0.598016;-6.27489;-0.00235576;0.000934021;0.00906419;0.00914008;-0.00243165;0.00578586;0.259898;3.84767;0.00704523;0.00771448;3.7588;0.266042;69.6633;114.663;0.0020256;-0.00235976;-0.0011319;0.00297656;0.00906399;0.0057995;0.0110204;0;0.0169106;-0.0268547;-1.38997;-0.782902;1.59551;-6.77755;-0.0113733;0.00175132;0.0762494;0.0762844;-0.0114083;0.0438464;0.149159;6.70425;0.0550545;0.0584618;6.68675;0.149549;85.1008;130.101;0.0125111;-0.0113898;-0.00285196;0.00597979;0.0762471;0.005053;0.0457654;0;0.0758697;8.7228;2.71518
376000;377;26.5647;0.811056;0.0314929;-2.5135;26.4406;-0.506562;-0.0784067;0.802937;-0.671492;0.0563188;-0.585447;-0.11987;0.600241;-6.27108;-0.00240823;0.00111637;0.00913483;0.00924181;-0.00251521;0.00587851;0.263632;3.79317;0.00714866;0.00783801;3.67437;0.272155;69.8595;114.859;0.00220853;-0.00241213;-0.000791914;0.00300281;0.00913514;0.0053022;0.0107733;0;0.0279443;-0.0290338;-1.40026;-0.785963;1.60603;-6.77879;-0.011275;0.00200099;0.0770102;0.0770556;-0.0113203;0.0441879;0.146409;6.83017;0.0555298;0.0589173;6.80683;0.146911;84.6074;129.607;0.0107586;-0.0112955;-0.00309536;0.00667953;0.0770076;0.0100333;0.0502703;0;0.0859362;8.73374;2.72284
377000;378;26.5749;0.821256;0.0318889;-2.51023;26.4515;-0.49038;-0.0751398;0.8138;-0.65531;0.0560289;-0.585197;-0.113721;0.598771;-6.26493;-0.00242669;0.000977699;0.00899304;0.00907614;-0.00250979;0.00579297;0.269841;3.70589;0.00703814;0.00772396;3.61629;0.276526;70.2323;115.232;0.00207916;-0.0024303;-0.000921987;0.00285588;0.00899309;0.00568615;0.0112785;0;0.0339818;-0.0295656;-1.40841;-0.780821;1.61065;-6.77365;-0.0111331;0.00161191;0.0779246;0.0779538;-0.0111622;0.044558;0.14287;6.99938;0.0560616;0.0594107;6.98371;0.14319;84.8481;129.848;0.0101232;-0.0111524;-0.00359704;0.00639046;0.0779198;0.00808456;0.0477123;0;0.0885065;8.73821;2.72968
378000;379;26.5782;0.824567;0.0320175;-2.5131;26.4544;-0.496762;-0.0780108;0.816736;-0.661692;0.058153;-0.589606;-0.11139;0.602847;-6.2626;-0.00249844;0.00121303;0.0091301;0.00925528;-0.00262363;0.00593946;0.273649;3.65432;0.00720574;0.00791928;3.52766;0.283474;69.5267;114.527;0.00197173;-0.00250239;-0.000655096;0.00305963;0.00913061;0.00514049;0.0106438;0;0.0193609;-0.0295271;-1.41911;-0.779948;1.61959;-6.7746;-0.0112917;0.00169636;0.0784126;0.0784447;-0.0113237;0.0448842;0.144003;6.94429;0.0564509;0.0598456;6.92746;0.144353;84.8753;129.875;0.0109761;-0.011311;-0.00344558;0.00641056;0.0784085;0.00549162;0.0440135;0;0.0846523;8.74473;2.7367
379000;380;26.5875;0.833903;0.03238;-2.51216;26.4639;-0.499752;-0.0770688;0.826148;-0.664682;0.0554683;-0.587253;-0.114368;0.600852;-6.26558;-0.0024723;0.000974419;0.0096126;0.00969067;-0.00255036;0.00612051;0.257194;3.88812;0.00745738;0.00816069;3.79972;0.263177;71.9088;116.909;0.00202647;-0.00247573;-0.000864721;0.00279154;0.0096127;0.00551201;0.0104189;0;0.0189714;-0.0321408;-1.42576;-0.788115;1.6294;-6.78277;-0.0110604;0.00168573;0.0781956;0.0782274;-0.0110922;0.0446598;0.141445;7.06988;0.056215;0.0595464;7.05246;0.141794;85.352;130.352;0.0105635;-0.0110762;-0.00284458;0.00584097;0.0781932;0.00572977;0.0434436;0;0.0841997;8.74076;2.74418
380000;381;26.5974;0.84379;0.0327639;-2.5162;26.4731;-0.51635;-0.0811062;0.835379;-0.68128;0.0562458;-0.584094;-0.127805;0.600553;-6.27902;-0.0024549;0.00114756;0.00958076;0.0096892;-0.00256333;0.00612627;0.256232;3.90272;0.00746214;0.00816836;3.77992;0.264556;70.5829;115.583;0.00253675;-0.00245887;-0.000769069;0.00304133;0.00958112;0.00384092;0.0101996;0;0.0244422;-0.0323383;-1.43267;-0.798865;1.64066;-6.79352;-0.0110685;0.00169309;0.0794827;0.0795144;-0.0111002;0.0453073;0.139257;7.18096;0.0570706;0.0604097;7.16334;0.1396;85.7148;130.715;0.0122145;-0.0110824;-0.00246859;0.00550565;0.0794813;0.0060172;0.0413843;0;0.0846788;8.74104;2.75117
381000;382;26.6034;0.84979;0.0329969;-2.51733;26.479;-0.516818;-0.0822326;0.841291;-0.681748;0.0552867;-0.587095;-0.120379;0.601854;-6.27159;-0.00233422;0.00116415;0.00954682;0.00965981;-0.00244721;0.00605351;0.244502;4.08994;0.0073919;0.00807135;3.94727;0.253339;70.8918;115.892;0.00204455;-0.00233808;-0.000702096;0.00300843;0.00954725;0.0047333;0.0108765;0;0.0241505;-0.034295;-1.44194;-0.794789;1.64683;-6.78944;-0.0114366;0.00183026;0.0803546;0.0803911;-0.0114731;0.0459321;0.142327;7.02609;0.0577992;0.0612428;7.00693;0.142716;85.4154;130.415;0.0111183;-0.0114528;-0.00266637;0.0059448;0.0803529;0.00624061;0.049883;0;0.0796194;8.74097;2.7569
382000;383;26.6111;0.857484;0.0332957;-2.51868;26.4866;-0.51797;-0.0835894;0.84887;-0.6829;0.0565912;-0.588414;-0.119337;0.603055;-6.27055;-0.0025355;0.00114766;0.00953501;0.00964316;-0.00264365;0.0061434;0.265915;3.7606;0.00746763;0.0081912;3.64767;0.274148;70.8087;115.809;0.00182188;-0.00253928;-0.000701544;0.00297474;0.00953542;0.00549283;0.0106886;0;0.020851;-0.033596;-1.44997;-0.795872;1.65437;-6.7887;-0.0117773;0.00204824;0.08136;0.081405;-0.0118223;0.0466137;0.144755;6.90823;0.0586096;0.0621515;6.88573;0.145228;84.5372;129.537;0.0147901;-0.0118009;-0.00351418;0.00713153;0.0813562;0.0025982;0.0513074;0;0.0867311;8.75009;2.76193
383000;384;26.623;0.869366;0.033757;-2.51682;26.4988;-0.513167;-0.0817289;0.861078;-0.678097;0.0557394;-0.587982;-0.116755;0.602048;-6.26797;-0.00252284;0.00104872;0.00969892;0.00978825;-0.00261217;0.00620021;0.260115;3.84445;0.00754842;0.00826695;3.74717;0.266868;71.4611;116.461;0.00171113;-0.0025265;-0.000825251;0.00290001;0.00969912;0.00534382;0.0111326;0;0.0187936;-0.0350518;-1.45751;-0.797573;1.66183;-6.7904;-0.0116063;0.00215868;0.0820313;0.082081;-0.011656;0.0468685;0.141486;7.06783;0.0589911;0.0624914;7.04194;0.142006;84.5472;129.547;0.0121735;-0.0116303;-0.00337843;0.00721656;0.0820281;0.0108643;0.0496487;0;0.089416;8.75182;2.76656
384000;385;26.6276;0.874019;0.0339377;-2.51887;26.5031;-0.523886;-0.0837733;0.865349;-0.688816;0.0554228;-0.588984;-0.116556;0.602958;-6.26777;-0.00247795;0.000988337;0.00943245;0.00951391;-0.0025594;0.00603665;0.262704;3.80656;0.00734589;0.00804887;3.71724;0.269017;71.168;116.168;0.00212555;-0.00248153;-0.00089791;0.00285232;0.00943254;0.00390224;0.00992657;0;0.0186087;-0.0362469;-1.46587;-0.80123;1.67095;-6.79406;-0.0114696;0.00188151;0.0828046;0.0828421;-0.0115071;0.0471746;0.138514;7.21949;0.0594363;0.0628995;7.1992;0.138904;84.7792;129.779;0.0127396;-0.0114921;-0.00365544;0.00693634;0.0828;0.0076883;0.0462478;0;0.0899113;8.76258;2.77362
385000;386;26.633;0.879361;0.0341451;-2.51715;26.5087;-0.517904;-0.0820564;0.870996;-0.682834;0.0552903;-0.589552;-0.114881;0.60318;-6.26609;-0.00256428;0.00103237;0.00982834;0.00991375;-0.00264969;0.00628172;0.260907;3.83278;0.00764698;0.00837563;3.74147;0.267275;71.3835;116.384;0.00222974;-0.00256808;-0.000900234;0.00294125;0.00982847;0.00461317;0.0112738;0;0.0206793;-0.0375109;-1.47438;-0.803717;1.67963;-6.79837;-0.0110738;0.00200308;0.0831799;0.0832225;-0.0111163;0.0471694;0.133131;7.51143;0.059534;0.0628925;7.4865;0.133574;85.0524;130.052;0.0132344;-0.0110943;-0.0031131;0.00667402;0.0831773;0.00477633;0.0463185;0;0.0899004;8.76505;2.78075
386000;387;26.6423;0.888711;0.0345082;-2.52066;26.5175;-0.533723;-0.0855678;0.879743;-0.698653;0.0551702;-0.590154;-0.116801;0.604126;-6.26801;-0.00263754;0.00113252;0.00948269;0.00958761;-0.00274245;0.00616503;0.278142;3.59529;0.00747549;0.00822004;3.496;0.286041;70.3026;115.303;0.00193334;-0.00264144;-0.000768632;0.00301084;0.00948304;0.00488356;0.0108364;0;0.0196534;-0.0383731;-1.4823;-0.808529;1.68891;-6.80318;-0.0112035;0.00162572;0.0835997;0.0836276;-0.0112314;0.0474295;0.134014;7.4619;0.0598479;0.0632393;7.44586;0.134303;85.8639;130.864;0.0120899;-0.011218;-0.00271116;0.00558316;0.0835975;0.00963245;0.0429273;0;0.0865813;8.76942;2.78795
387000;388;26.6481;0.894464;0.0347316;-2.52254;26.523;-0.537439;-0.0874434;0.88527;-0.702369;0.0562042;-0.590536;-0.117933;0.604814;-6.26915;-0.00254227;0.00131251;0.00955172;0.00969253;-0.00268307;0.0061878;0.266159;3.75716;0.00751738;0.0082504;3.61247;0.276819;69.6731;114.673;0.0021876;-0.00254656;-0.000602179;0.00320425;0.0095524;0.004213;0.0110828;0;0.0181013;-0.0384484;-1.49213;-0.810021;1.69826;-6.80467;-0.0115483;0.00152206;0.0843512;0.0843754;-0.0115725;0.0479739;0.136907;7.3042;0.0604779;0.0639652;7.29105;0.137155;85.6513;130.651;0.0139427;-0.0115645;-0.00324143;0.00586423;0.0843475;0.00335716;0.0458544;0;0.0832403;8.77444;2.79543
388000;389;26.6629;0.909247;0.0353056;-2.52097;26.5383;-0.519508;-0.085876;0.900629;-0.684438;0.0555052;-0.590665;-0.11717;0.604727;-6.26838;-0.0025166;0.00128962;0.00987161;0.0100044;-0.00264942;0.00632693;0.254933;3.9226;0.0077061;0.0084359;3.77608;0.264825;70.8457;115.846;0.00220765;-0.00252065;-0.000566726;0.00312318;0.00987227;0.00442066;0.0108203;0;0.0203774;-0.039609;-1.49921;-0.813013;1.70592;-6.80766;-0.0116369;0.00192711;0.0856974;0.0857355;-0.011675;0.0487053;0.135791;7.36428;0.0614197;0.0649404;7.34349;0.136175;85.2354;130.235;0.0123008;-0.011657;-0.00319733;0.00659209;0.0856944;0.00982883;0.0456467;0;0.0881695;8.77141;2.80276
389000;390;26.6702;0.916629;0.0355922;-2.52111;26.5456;-0.525815;-0.0860164;0.907908;-0.690745;0.055328;-0.590317;-0.119735;0.604873;-6.27095;-0.00255915;0.00129306;0.00987238;0.0100055;-0.00269223;0.00634884;0.259224;3.85767;0.00772569;0.00846512;3.71642;0.269076;71.0833;116.083;0.00262637;-0.00256307;-0.000515318;0.00307918;0.00987308;0.00408003;0.0106391;0;0.0208845;-0.0397547;-1.50607;-0.819417;1.71502;-6.81224;-0.0117597;0.00239536;0.0863928;0.0864512;-0.0118181;0.0491347;0.136119;7.34653;0.0619504;0.0655129;7.31515;0.136703;84.2954;129.295;0.0142973;-0.011789;-0.00374927;0.00798478;0.086389;0.00556566;0.0502276;0;0.0959959;8.77873;2.8103
390000;391;26.6743;0.920721;0.0357511;-2.5225;26.5494;-0.535619;-0.0874068;0.911691;-0.700549;0.0547453;-0.593583;-0.108214;0.605845;-6.25943;-0.0026086;0.00117454;0.00987926;0.00998877;-0.00271811;0.00635344;0.264048;3.78719;0.00772627;0.00847125;3.67489;0.272117;71.9673;116.967;0.00210669;-0.00261212;-0.000570367;0.00289786;0.00987978;0.00484038;0.0103376;0;0.0228789;-0.0411043;-1.51706;-0.805976;1.71835;-6.7988;-0.0118952;0.00208087;0.0869209;0.0869647;-0.011939;0.0494519;0.136851;7.30722;0.0623384;0.0659358;7.28408;0.137286;84.307;129.307;0.0147638;-0.0119249;-0.0043614;0.00793737;0.0869142;0.00596109;0.0479498;0;0.102865;8.77744;2.81767
391000;392;26.6813;0.927654;0.0360203;-2.52072;26.5567;-0.528304;-0.085623;0.918972;-0.693234;0.0549311;-0.593873;-0.112447;0.606916;-6.26366;-0.00257182;0.00117062;0.00992699;0.0100357;-0.00268051;0.0063581;0.259073;3.85991;0.00774025;0.00847746;3.74394;0.267098;71.7218;116.722;0.00204445;-0.00257551;-0.000637404;0.00295626;0.00992747;0.00495533;0.0103261;0;0.0181488;-0.0424098;-1.52377;-0.818568;1.73024;-6.81139;-0.0115577;0.00217312;0.087389;0.0874367;-0.0116054;0.0495211;0.132256;7.56109;0.0625197;0.0660281;7.53412;0.132729;84.56;129.56;0.0156417;-0.0115852;-0.00389173;0.00768605;0.0873842;0.0076313;0.0480058;0;0.0919013;8.77849;2.82533
392000;393;26.6882;0.934627;0.0362911;-2.52564;26.5628;-0.548763;-0.0905511;0.925095;-0.713693;0.0547662;-0.592307;-0.118734;0.606568;-6.26995;-0.00261702;0.00119368;0.00991455;0.0100272;-0.00272971;0.00637847;0.263958;3.78849;0.00775652;0.00850463;3.67337;0.272229;72.3324;117.332;0.00251288;-0.0026204;-0.000490105;0.00285656;0.00991513;0.00379799;0.0112485;0;0.027883;-0.0438126;-1.53034;-0.824704;1.73897;-6.81753;-0.0114082;0.00207867;0.0884771;0.0885203;-0.0114515;0.0499859;0.12894;7.75555;0.0631776;0.0666479;7.73004;0.129365;85.4103;130.41;0.0132742;-0.0114282;-0.00292127;0.00661974;0.0884752;0.00870562;0.050363;0;0.0975248;8.78905;2.83174
393000;394;26.694;0.940403;0.0365154;-2.5276;26.5682;-0.556996;-0.0925024;0.930541;-0.721926;0.0558392;-0.59674;-0.106601;0.608753;-6.25781;-0.00256327;0.00117926;0.00986763;0.00997851;-0.00267416;0.00632633;0.259766;3.84962;0.0077001;0.00843511;3.73146;0.267991;72.8058;117.806;0.00228397;-0.00256644;-0.00043613;0.00277476;0.00986822;0.00390281;0.0109142;0;0.0216335;-0.0438681;-1.54341;-0.818666;1.74764;-6.81637;-0.0113323;0.00132213;0.0897143;0.0897316;-0.0113496;0.0505406;0.126316;7.91666;0.0639409;0.0673875;7.90612;0.126484;85.9916;130.992;0.0154358;-0.0113482;-0.00355846;0.00575013;0.0897093;0.0127837;0.0446429;0;0.0917346;8.79614;2.83872
394000;395;26.7042;0.950565;0.03691;-2.52775;26.5785;-0.554747;-0.0926535;0.940784;-0.719677;0.0543814;-0.594704;-0.112579;0.607704;-6.26379;-0.0025663;0.00126329;0.0098929;0.0100197;-0.00269309;0.00635639;0.259408;3.85493;0.00773537;0.00847519;3.72051;0.26878;72.2342;117.234;0.00246019;-0.0025697;-0.000389732;0.00289591;0.00989361;0.00350739;0.0101133;0;0.0204461;-0.0457063;-1.55112;-0.822993;1.75653;-6.81764;-0.0117326;0.00174221;0.0902312;0.090261;-0.0117624;0.0510117;0.130029;7.69062;0.0644535;0.0680156;7.67369;0.130315;85.2898;130.29;0.012227;-0.0117547;-0.00386527;0.0068252;0.0902258;0.010404;0.0501137;0;0.0864371;8.79605;2.84377
395000;396;26.7154;0.961781;0.0373455;-2.52659;26.5901;-0.541841;-0.0914995;0.952429;-0.706771;0.0562011;-0.598813;-0.102159;0.610059;-6.25337;-0.0025363;0.00119277;0.0100991;0.0102107;-0.00264791;0.00642929;0.251142;3.98181;0.00784025;0.00857239;3.85613;0.259328;73.1015;118.101;0.00232414;-0.00253952;-0.000437424;0.00280256;0.0100997;0.00426519;0.0107264;0;0.0199853;-0.044504;-1.56053;-0.817327;1.76217;-6.81198;-0.0124173;0.00207536;0.0912325;0.091274;-0.0124588;0.0518664;0.136106;7.34721;0.0653991;0.0691552;7.32604;0.136499;84.6216;129.622;0.0132528;-0.0124465;-0.00432638;0.00786896;0.0912259;0.00135948;0.0523626;0;0.0894692;8.79933;2.84717
396000;397;26.7207;0.967091;0.0375517;-2.52705;26.5953;-0.549635;-0.0919581;0.957561;-0.714565;0.055245;-0.597948;-0.10534;0.609664;-6.25655;-0.00262535;0.00127754;0.0102597;0.0103852;-0.0027508;0.00656799;0.255889;3.90795;0.00799963;0.00875733;3.77534;0.264877;73.1102;118.11;0.0026011;-0.00262864;-0.000325366;0.00285999;0.0102605;0.00288737;0.00996419;0;0.0197155;-0.0461977;-1.56783;-0.823415;1.77151;-6.81624;-0.0118818;0.00223066;0.0918179;0.0918658;-0.0119298;0.0518978;0.129406;7.72761;0.0655832;0.0691971;7.70056;0.129861;84.7788;129.779;0.0133153;-0.0119098;-0.00388837;0.00776844;0.0918132;0.0115209;0.0491244;0;0.100294;8.79701;2.85359
397000;398;26.7288;0.975211;0.037867;-2.53046;26.6027;-0.568072;-0.0953695;0.965008;-0.733002;0.0546679;-0.597352;-0.108305;0.609548;-6.25952;-0.00253049;0.00121582;0.0102203;0.0103352;-0.00264539;0.00649032;0.247593;4.03888;0.00792061;0.00865375;3.9069;0.255958;73.3683;118.368;0.00245281;-0.00253369;-0.000390949;0.0028023;0.010221;0.00397235;0.0103934;0;0.0190166;-0.0478974;-1.57556;-0.829955;1.78144;-6.82278;-0.0117495;0.00226292;0.0921652;0.0922145;-0.0117987;0.0520066;0.127483;7.8442;0.065763;0.0693421;7.81563;0.127949;84.5008;129.501;0.0158382;-0.011781;-0.00430666;0.00820734;0.0921591;0.0102066;0.0480552;0;0.0992871;8.80549;2.86035
398000;399;26.7336;0.979954;0.0380511;-2.5265;26.6081;-0.554641;-0.0914036;0.970433;-0.719571;0.0535741;-0.598347;-0.106279;0.610069;-6.25749;-0.00251929;0.00122089;0.0104497;0.0105636;-0.00263322;0.00659843;0.241087;4.14788;0.00806476;0.00879791;4.01168;0.249272;73.463;118.463;0.00257376;-0.00252262;-0.000432014;0.00285258;0.0104504;0.00327391;0.00991574;0;0.0211985;-0.0495087;-1.58326;-0.830632;1.7886;-6.82346;-0.0116488;0.00248049;0.092894;0.0929528;-0.0117076;0.0523302;0.125399;7.97454;0.066217;0.0697736;7.9395;0.125953;84.7265;129.727;0.0159886;-0.0116781;-0.00362717;0.00800383;0.0928908;0.012056;0.0563691;0;0.0984096;8.80586;2.86816
399000;400;26.744;0.990429;0.0384579;-2.53057;26.618;-0.567832;-0.0954798;0.980292;-0.732763;0.0536093;-0.599303;-0.105825;0.610932;-6.25704;-0.00259178;0.00120207;0.0102173;0.0103291;-0.00270362;0.00651637;0.253666;3.94219;0.00794219;0.0086885;3.82049;0.261747;73.8122;118.812;0.00248031;-0.00259477;-0.000334716;0.00271937;0.010218;0.00388732;0.010355;0;0.0189042;-0.0507467;-1.59297;-0.832578;1.79814;-6.82723;-0.0117692;0.0020586;0.0939714;0.0940115;-0.0118093;0.0529104;0.125243;7.9845;0.0669588;0.0705472;7.9608;0.125615;85.1502;130.15;0.0170218;-0.0117947;-0.00383898;0.00738607;0.0939666;0.00613049;0.0501565;0;0.0911987;8.80675;2.87459
400000;401;26.7481;0.994433;0.0386133;-2.5321;26.6216;-0.579603;-0.0970061;0.983916;-0.744533;0.0528392;-0.600197;-0.106454;0.61185;-6.25767;-0.00257497;0.00124361;0.00991832;0.0100409;-0.00269755;0.00636923;0.259617;3.85183;0.0077512;0.00849231;3.72223;0.268656;72.7314;117.731;0.00225324;-0.00257818;-0.000352178;0.00281966;0.00991902;0.0037583;0.0100392;0;0.0197569;-0.0526302;-1.60295;-0.836624;1.80891;-6.83536;-0.0115958;0.0014037;0.0954684;0.0954868;-0.0116142;0.0535505;0.121463;8.23299;0.0678614;0.0714007;8.22153;0.121632;85.6163;130.616;0.0158253;-0.0116175;-0.00445511;0.00668985;0.0954603;0.00727885;0.0546232;0;0.0953591;8.81066;2.88208
401000;402;26.7645;1.01092;0.0392536;-2.52962;26.6389;-0.55965;-0.0945314;1.00115;-0.72458;0.0526461;-0.597137;-0.112132;0.609851;-6.26334;-0.00254904;0.00125526;0.010138;0.010261;-0.00267205;0.00646654;0.251434;3.97719;0.00788378;0.00862205;3.84014;0.260407;73.4718;118.472;0.00266416;-0.00255211;-0.000283193;0.00277439;0.0101388;0.00224425;0.0100844;0;0.0207211;-0.0529088;-1.60684;-0.842159;1.81493;-6.83498;-0.0119975;0.0019533;0.0962266;0.0962619;-0.0120327;0.0541473;0.12468;8.02056;0.0685385;0.0721964;8;0.125;85.3115;130.311;0.0132525;-0.0120225;-0.00397091;0.00729259;0.0962212;0.0110958;0.0584393;0;0.0985172;8.81204;2.88942
402000;403;26.7688;1.01513;0.0394171;-2.53128;26.6428;-0.564781;-0.0961844;1.00511;-0.729711;0.0544508;-0.601908;-0.0989367;0.612411;-6.25015;-0.00246052;0.00103938;0.0102111;0.0102958;-0.00254521;0.00642048;0.240966;4.14995;0.00785099;0.00856064;4.04514;0.24721;74.4055;119.405;0.00225128;-0.00246335;-0.000532698;0.00259175;0.0102115;0.0032901;0.009408;0;0.0200271;-0.0520738;-1.61791;-0.830791;1.8195;-6.82288;-0.0122195;0.00238931;0.0962025;0.0962551;-0.0122721;0.0542636;0.127019;7.87286;0.0686275;0.0723515;7.84338;0.127496;84.4423;129.442;0.0144679;-0.0122546;-0.0045688;0.00865912;0.0961955;0.00486031;0.0580341;0;0.0979127;8.81402;2.89732
403000;404;26.7748;1.02123;0.0396537;-2.53318;26.6486;-0.574554;-0.0980843;1.01084;-0.739484;0.0538073;-0.602313;-0.0996648;0.61287;-6.25088;-0.00241453;0.00130976;0.0103335;0.0104667;-0.0025477;0.00650718;0.23366;4.27971;0.00796402;0.00867624;4.10827;0.243411;73.3524;118.352;0.00227715;-0.00241783;-0.00028136;0.0028808;0.0103343;0.00334962;0.0104116;0;0.0244788;-0.0538056;-1.62579;-0.836798;1.8293;-6.82888;-0.0120336;0.00251626;0.097666;0.0977237;-0.0120912;0.0549075;0.123211;8.11613;0.0695309;0.0732099;8.08218;0.123729;84.4135;129.414;0.016126;-0.0120702;-0.00454996;0.00887619;0.0976594;0.0081279;0.0579418;0;0.098057;8.82596;2.90354
404000;405;26.7822;1.02861;0.0399403;-2.53369;26.6558;-0.580041;-0.0985996;1.01809;-0.744971;0.0541846;-0.602994;-0.100938;0.61378;-6.25215;-0.00245954;0.000857699;0.0100518;0.0101104;-0.00251807;0.00631421;0.244686;4.08686;0.00771775;0.00841895;4.01512;0.249059;75.2478;120.248;0.00260337;-0.00246198;-0.000668418;0.00236491;0.010052;0.00381662;0.0108436;0;0.0249503;-0.0548774;-1.63388;-0.84344;1.83956;-6.8324;-0.0122924;0.00174699;0.0999923;0.100019;-0.0123196;0.0561695;0.122933;8.13448;0.0711426;0.0748927;8.11874;0.123172;85.4637;130.464;0.0171629;-0.0123178;-0.00442587;0.00728969;0.0999848;0.00708437;0.0474961;0;0.0944721;8.83216;2.91103
405000;406;26.7878;1.03418;0.0401566;-2.53527;26.661;-0.59239;-0.100178;1.02327;-0.757321;0.0519375;-0.606438;-0.0908511;0.615401;-6.24206;-0.00246328;0.000917473;0.0104558;0.0105206;-0.00252811;0.00652435;0.23559;4.24466;0.00799086;0.00869913;4.16145;0.240301;75.1399;120.14;0.00257477;-0.00246598;-0.000684762;0.00249922;0.0104559;0.00283276;0.00924509;0;0.0236274;-0.0575366;-1.6457;-0.835913;1.84672;-6.83106;-0.0118665;0.00162861;0.0993994;0.0994232;-0.0118903;0.0556567;0.119382;8.37649;0.0705802;0.074209;8.36171;0.119593;85.657;130.657;0.0183595;-0.0118895;-0.00428913;0.0069474;0.0993922;0.0183742;0.0585932;0;0.105506;8.82191;2.9177
406000;407;26.7967;1.04308;0.0405024;-2.53669;26.6697;-0.594504;-0.101601;1.03202;-0.758119;0.0537147;-0.604965;-0.095728;0.614843;-6.24694;-0.00237478;0.000901361;0.0102925;0.0103563;-0.0024386;0.00639744;0.23073;4.33407;0.00784444;0.00852992;4.24682;0.23547;75.0149;120.015;0.00258474;-0.00237748;-0.000704602;0.00248719;0.0102926;0.00368428;0.0102278;0;0.0200799;-0.056595;-1.65384;-0.841685;1.85656;-6.83608;-0.0121923;0.00195227;0.100566;0.1006;-0.0122261;0.0564129;0.121237;8.24834;0.0714911;0.0752172;8.2283;0.121532;85.2853;130.285;0.018892;-0.01222;-0.00440603;0.00765907;0.100559;0.0114393;0.0566048;0;0.0968153;8.81833;2.92091
407000;408;26.8064;1.05278;0.0408789;-2.53728;26.6795;-0.592688;-0.102182;1.04176;-0.757618;0.0533029;-0.601022;-0.108023;0.612974;-6.25923;-0.00242452;0.00105354;0.0101796;0.0102671;-0.00251198;0.00638953;0.238174;4.19861;0.00781775;0.00851937;4.08725;0.244663;74.1284;119.128;0.00263161;-0.00242745;-0.000549686;0.00263675;0.01018;0.00258463;0.0104736;0;0.0193078;-0.0577277;-1.65581;-0.856308;1.86502;-6.84839;-0.011963;0.00188239;0.101328;0.10136;-0.0119942;0.056677;0.118061;8.47018;0.0719054;0.0755693;8.4507;0.118333;85.6014;130.601;0.0150141;-0.0119876;-0.00406944;0.00722192;0.101323;0.0119411;0.061813;0;0.0982874;8.82111;2.92564
408000;409;26.8134;1.05979;0.041151;-2.53857;26.6862;-0.601374;-0.103476;1.04848;-0.766304;0.0531619;-0.604098;-0.0980492;0.614308;-6.24926;-0.00232672;0.00101512;0.0103678;0.0104485;-0.00240738;0.00642793;0.224418;4.45598;0.00789147;0.00857057;4.34018;0.230405;75.012;120.012;0.00250499;-0.00232945;-0.000535718;0.00254646;0.0103682;0.0034626;0.0111257;0;0.0279467;-0.0583155;-1.66771;-0.846863;1.87132;-6.83995;-0.0120697;0.0023553;0.101826;0.101875;-0.0121184;0.0569965;0.118533;8.4365;0.0722952;0.0759953;8.40662;0.118954;85.0456;130.046;0.0124714;-0.0121011;-0.00419269;0.00822635;0.10182;0.0102426;0.0648924;0;0.103011;8.82241;2.93258
409000;410;26.8202;1.06659;0.0414152;-2.5385;26.6929;-0.608473;-0.10341;1.05516;-0.773403;0.052231;-0.604638;-0.0952464;0.614318;-6.24646;-0.00235239;0.00107081;0.0105546;0.0106428;-0.00244063;0.00654173;0.222878;4.48675;0.00803331;0.00872231;4.3607;0.229321;74.7586;119.759;0.00244922;-0.00235533;-0.000525687;0.00264691;0.010555;0.00309827;0.0100907;0;0.0229377;-0.0602349;-1.67527;-0.848465;1.87884;-6.84155;-0.0120314;0.00280365;0.10266;0.102729;-0.0120999;0.0574145;0.117196;8.53268;0.072855;0.0765526;8.49004;0.117785;84.1166;129.117;0.015686;-0.0120768;-0.00508605;0.00987258;0.102652;0.00948001;0.0619991;0;0.103689;8.82909;2.94072
410000;411;26.8285;1.07484;0.0417355;-2.53825;26.7015;-0.595033;-0.10316;1.06378;-0.759963;0.0528182;-0.60502;-0.0962912;0.614907;-6.2475;-0.00235102;0.00105989;0.0104116;0.0104991;-0.00243844;0.00646875;0.225806;4.42857;0.00793803;0.008625;4.30565;0.232253;74.6459;119.646;0.0026964;-0.00235391;-0.000526501;0.00262624;0.0104121;0.00334791;0.0102983;0;0.019433;-0.0602749;-1.68138;-0.850529;1.88522;-6.83673;-0.0128923;0.00194207;0.105495;0.105527;-0.0129241;0.0592253;0.122208;8.18278;0.075031;0.0789671;8.16508;0.122473;85.445;130.445;0.0220127;-0.0129207;-0.00455467;0.00774301;0.105487;-0.00299824;0.0614957;0;0.0968136;8.83241;2.94862
411000;412;26.8367;1.08307;0.042055;-2.54074;26.7092;-0.609929;-0.105645;1.07148;-0.774859;0.0527274;-0.606039;-0.0942842;0.615591;-6.2455;-0.00241356;0.00100324;0.0106459;0.0107226;-0.00249018;0.00660637;0.226711;4.41089;0.00810694;0.00880849;4.30594;0.232237;75.2533;120.253;0.0025236;-0.00241634;-0.000574038;0.00256014;0.0106463;0.00441497;0.0102247;0;0.0202715;-0.0613146;-1.68835;-0.853411;1.89277;-6.83768;-0.0126057;0.00236805;0.105724;0.105772;-0.0126531;0.0592123;0.119232;8.38702;0.0750883;0.0789498;8.35937;0.119626;85.004;130.004;0.0164637;-0.0126402;-0.00459565;0.00858643;0.105717;0.00183408;0.0622066;0;0.0951426;8.83387;2.95569
412000;413;26.8426;1.08897;0.042284;-2.54049;26.7151;-0.609957;-0.105394;1.07742;-0.773572;0.0524651;-0.6053;-0.0977395;0.615381;-6.24895;-0.00237443;0.00104942;0.0109347;0.0110169;-0.00245666;0.00673679;0.217146;4.60519;0.0082858;0.00898238;4.4845;0.22299;75.7738;120.774;0.00229758;-0.00237716;-0.000482448;0.00256112;0.0109351;0.00459834;0.00955252;0;0.0237036;-0.0629963;-1.6979;-0.859078;1.90391;-6.848;-0.0120406;0.00126753;0.107327;0.107341;-0.012054;0.0596974;0.112185;8.91382;0.0758983;0.0795965;8.90499;0.112297;85.7766;130.777;0.0188825;-0.0120663;-0.00542794;0.0072412;0.107315;0.0148341;0.0652641;0;0.105058;8.83952;2.96211
413000;414;26.8504;1.09678;0.0425874;-2.5415;26.7227;-0.616582;-0.106407;1.08503;-0.781512;0.0526226;-0.605546;-0.0984588;0.615751;-6.24967;-0.00233996;0.00110159;0.010878;0.0109692;-0.00243114;0.00670017;0.215109;4.6488;0.00824355;0.00893355;4.51196;0.221633;75.6168;120.617;0.00269803;-0.00234272;-0.000410335;0.00259374;0.0108785;0.00326388;0.0102495;0;0.0189657;-0.0632552;-1.70733;-0.864355;1.9147;-6.85744;-0.0121919;0.00206385;0.106796;0.106831;-0.0122277;0.0595295;0.114161;8.75956;0.0756271;0.0793727;8.73685;0.114458;85.3629;130.363;0.0157715;-0.0122225;-0.00463374;0.00804133;0.106788;0.00932327;0.0641315;0;0.100022;8.85234;2.96958
414000;415;26.8614;1.10782;0.0430161;-2.54377;26.7335;-0.622503;-0.10868;1.09577;-0.787433;0.052508;-0.605038;-0.0986279;0.615269;-6.24984;-0.00251392;0.00103564;0.0108185;0.0108985;-0.00259388;0.00674618;0.232372;4.30345;0.00826705;0.00899491;4.20161;0.238004;75.8386;120.839;0.00249992;-0.00251652;-0.000450423;0.0025021;0.0108189;0.00373591;0.0107406;0;0.0216869;-0.0642067;-1.71429;-0.867261;1.92225;-6.85935;-0.0121788;0.00243429;0.107785;0.107834;-0.0122282;0.0600312;0.112992;8.8502;0.0762928;0.0800415;8.8185;0.113398;85.2086;130.209;0.0151639;-0.0122119;-0.00431334;0.00845112;0.107779;0.0178953;0.0669415;0;0.104081;8.84726;2.97639
415000;416;26.8685;1.11485;0.0432891;-2.54459;26.7404;-0.626271;-0.109501;1.10266;-0.791201;0.0519024;-0.605479;-0.0974727;0.615467;-6.24868;-0.00238705;0.00112684;0.0110671;0.0111608;-0.00248078;0.00682079;0.21569;4.63629;0.00839061;0.00909438;4.49891;0.222276;75.5969;120.597;0.00251527;-0.00238992;-0.000409976;0.00264321;0.0110676;0.00539977;0.0105349;0;0.0250494;-0.0658584;-1.72287;-0.869138;1.93081;-6.86122;-0.0123535;0.00281997;0.108722;0.108787;-0.0124191;0.0606032;0.113625;8.8009;0.0769991;0.0808043;8.75966;0.11416;85.1798;130.18;0.0199237;-0.0123873;-0.00371676;0.00864278;0.108719;0.010079;0.0638922;0;0.10338;8.8441;2.98385
416000;417;26.8756;1.12199;0.0435663;-2.54507;26.7475;-0.627949;-0.109974;1.10975;-0.792879;0.0520479;-0.607128;-0.0936759;0.616513;-6.24489;-0.00252985;0.000988133;0.0112772;0.0113475;-0.00260021;0.00697388;0.224333;4.45765;0.00856437;0.00929851;4.36409;0.229143;76.9131;121.913;0.00224975;-0.00253227;-0.000451712;0.00240832;0.0112776;0.00538577;0.0105497;0;0.0206248;-0.0667474;-1.73303;-0.868048;1.93942;-6.85883;-0.0127305;0.00228809;0.110764;0.110806;-0.0127729;0.0617896;0.114934;8.70064;0.0784758;0.0823862;8.67509;0.115273;84.8144;129.814;0.0219637;-0.0127718;-0.0056093;0.00930735;0.110752;0.000481222;0.0671029;0;0.0991762;8.84398;2.98888
417000;418;26.8835;1.12987;0.0438724;-2.54345;26.7558;-0.6164;-0.108355;1.1181;-0.78133;0.0512845;-0.607048;-0.0950344;0.616579;-6.24625;-0.00252622;0.00109663;0.0111403;0.0112277;-0.00261366;0.00692068;0.226765;4.40985;0.00849151;0.00922757;4.29578;0.232787;76.1227;121.123;0.00235928;-0.00252887;-0.000372512;0.00254591;0.0111408;0.00522459;0.0108562;0;0.023521;-0.0688124;-1.74082;-0.87214;1.94829;-6.86545;-0.0114963;0.00197314;0.112327;0.112359;-0.0115278;0.0619432;0.102347;9.77069;0.0790291;0.0825909;9.74677;0.102598;84.9259;129.926;0.0191728;-0.0115378;-0.00623508;0.00926751;0.112311;0.00220974;0.0703204;0;0.099933;8.8441;2.99256
418000;419;26.8899;1.13623;0.0441193;-2.54424;26.7619;-0.624987;-0.109142;1.12421;-0.789917;0.0509411;-0.606813;-0.0950819;0.616326;-6.24629;-0.0026217;0.000926061;0.0112944;0.0113557;-0.00268305;0.00701938;0.232125;4.30803;0.0086054;0.00935918;4.23238;0.236273;77.2886;122.289;0.00228078;-0.00262396;-0.000485752;0.00231844;0.0112947;0.00497124;0.0117104;0;0.0190546;-0.0689848;-1.74471;-0.874581;1.95286;-6.8593;-0.0126958;0.00297565;0.113741;0.113811;-0.0127658;0.0632883;0.11162;8.95896;0.0804674;0.0843844;8.91533;0.112166;84.4554;129.455;0.0188232;-0.0127454;-0.00533239;0.0103404;0.113732;0.00433578;0.0804399;0;0.105003;8.84466;2.99887
419000;420;26.8966;1.14296;0.0443805;-2.54535;26.7684;-0.632794;-0.110256;1.13068;-0.797724;0.0510263;-0.607857;-0.0924137;0.616956;-6.24363;-0.00246939;0.00102018;0.0110807;0.0111571;-0.00254577;0.00685143;0.222854;4.48723;0.00841599;0.00913524;4.38261;0.228175;76.0456;121.046;0.00191032;-0.00247207;-0.000508657;0.00252852;0.0110811;0.00552516;0.0100477;0;0.0220357;-0.0695677;-1.75236;-0.875137;1.95997;-6.86042;-0.0127332;0.00251169;0.114278;0.114327;-0.0127828;0.0635551;0.111423;8.97481;0.0808169;0.0847402;8.94383;0.111809;84.9168;129.917;0.0225361;-0.0127754;-0.00534401;0.00947185;0.114268;0.00223548;0.069866;0;0.104652;8.84851;3.00627
420000;421;26.9049;1.1513;0.0447045;-2.5459;26.7767;-0.634189;-0.110802;1.13898;-0.799119;0.0506712;-0.608123;-0.0938197;0.617401;-6.24503;-0.00254371;0.00103845;0.0118257;0.0119003;-0.00261837;0.00725935;0.215101;4.64898;0.00893515;0.00967913;4.54493;0.220025;77.237;122.237;0.00233008;-0.00254626;-0.000424617;0.00248074;0.0118261;0.00560515;0.0105617;0;0.0214611;-0.0714891;-1.76261;-0.878048;1.9705;-6.86836;-0.0124954;0.00305571;0.112664;0.112739;-0.01257;0.0626544;0.110909;9.01642;0.0796804;0.0835392;8.96887;0.111497;84.5286;129.529;0.0124494;-0.0125428;-0.00492649;0.0101399;0.112658;0.0133553;0.0652011;0;0.119606;8.86088;3.01415
421000;422;26.9167;1.16311;0.0451628;-2.54229;26.7896;-0.604673;-0.107195;1.15187;-0.769604;0.0509776;-0.609894;-0.0901629;0.618627;-6.24137;-0.00253588;0.00102507;0.0118128;0.0118857;-0.00260874;0.00724722;0.214672;4.65827;0.00892143;0.00966296;4.5561;0.219486;77.5998;122.6;0.00221984;-0.00253827;-0.000380506;0.00241071;0.0118133;0.00558529;0.0108029;0;0.0247987;-0.0718605;-1.77291;-0.879838;1.98053;-6.87293;-0.0121045;0.00311552;0.1145;0.114577;-0.0121811;0.0633789;0.105716;9.4593;0.0807516;0.0845052;9.40609;0.106314;84.8028;129.803;0.0170809;-0.0121486;-0.00447793;0.00984624;0.114495;0.0152135;0.0713232;0;0.113908;8.85599;3.02121
422000;423;26.9219;1.16827;0.0453634;-2.54944;26.7931;-0.64495;-0.114343;1.15544;-0.80988;0.0516434;-0.610035;-0.0904994;0.618869;-6.24171;-0.00241988;0.000920833;0.0115282;0.0115887;-0.00248041;0.00703457;0.209909;4.76396;0.00867168;0.00937942;4.67211;0.214036;77.6751;122.675;0.00247779;-0.00242215;-0.000499148;0.00232123;0.0115285;0.00520475;0.0120058;0;0.0194715;-0.0721379;-1.77648;-0.882306;1.98483;-6.86516;-0.0125367;0.00198366;0.117248;0.117278;-0.012567;0.0649226;0.106925;9.35235;0.0826933;0.0865634;9.3322;0.107156;85.6128;130.613;0.0197715;-0.0125701;-0.00522577;0.00835553;0.117237;0.00962494;0.0641802;0;0.101828;8.85884;3.02834
423000;424;26.9288;1.17515;0.0456303;-2.55032;26.7999;-0.649856;-0.11523;1.16214;-0.814786;0.051576;-0.610574;-0.0903824;0.619379;-6.24159;-0.00246964;0.00113204;0.0114166;0.0115083;-0.00256132;0.0070348;0.21632;4.62277;0.00865326;0.00937974;4.4931;0.222564;76.3659;121.366;0.00233308;-0.00247235;-0.000339126;0.002583;0.0114172;0.00410941;0.0119733;0;0.0205343;-0.0725394;-1.78645;-0.883875;1.99447;-6.86915;-0.0130753;0.00262611;0.118642;0.118694;-0.0131277;0.0659108;0.110208;9.07371;0.0838485;0.0878811;9.04152;0.110601;85.0981;130.098;0.022529;-0.0131176;-0.00517241;0.00950626;0.118633;0.00353021;0.0685573;0;0.102772;8.85919;3.03534
424000;425;26.9364;1.18275;0.0459254;-2.55088;26.8074;-0.651476;-0.115789;1.16969;-0.816406;0.0514036;-0.610806;-0.0915487;0.619764;-6.24276;-0.0024979;0.000972515;0.0114812;0.0115486;-0.00256524;0.0070569;0.217564;4.59634;0.00868138;0.00940919;4.50194;0.222126;77.1983;122.198;0.00201936;-0.00250032;-0.00047619;0.0024012;0.0114816;0.00559687;0.0113561;0;0.0203685;-0.0733533;-1.79404;-0.887554;2.00292;-6.87184;-0.0124669;0.00271718;0.119956;0.120012;-0.0125227;0.0662671;0.103929;9.62192;0.0844919;0.0883562;9.58355;0.104345;84.4832;129.483;0.0257258;-0.0125226;-0.00648156;0.0108281;0.11994;0.00337679;0.0751911;0;0.101209;8.86605;3.04337
425000;426;26.9428;1.18921;0.0461764;-2.55014;26.814;-0.650844;-0.115042;1.17627;-0.815774;0.0510727;-0.612184;-0.088449;0.620645;-6.23966;-0.00258821;0.000997217;0.0119244;0.0119926;-0.00265642;0.00732449;0.217053;4.60718;0.00901197;0.00976598;4.51457;0.221505;77.6151;122.615;0.00182181;-0.00259064;-0.000442305;0.00241609;0.0119248;0.00578584;0.0121729;0;0.0236013;-0.0753733;-1.80711;-0.89142;2.01642;-6.88486;-0.0116653;0.00199752;0.120699;0.120729;-0.0116954;0.0662124;0.0966475;10.3469;0.0846545;0.0882832;10.3228;0.096873;84.3849;129.385;0.0203965;-0.0117247;-0.00823609;0.0110223;0.120671;-0.00344305;0.0758226;0;0.0995867;8.86597;3.05077
426000;427;26.9508;1.19717;0.0464854;-2.5479;26.8225;-0.635983;-0.112805;1.18483;-0.800913;0.0509725;-0.612825;-0.0870595;0.621073;-6.23827;-0.00252466;0.00109432;0.0120402;0.012122;-0.00260642;0.0073642;0.209686;4.76904;0.00907575;0.00981893;4.65081;0.215016;77.1113;122.111;0.00206956;-0.00252736;-0.000399431;0.00256658;0.0120407;0.0051732;0.0109463;0;0.0217695;-0.0757472;-1.80987;-0.886894;2.01692;-6.8697;-0.0126657;0.00203359;0.122532;0.122563;-0.0126963;0.0676296;0.103366;9.67434;0.0862528;0.0901728;9.65345;0.10359;85.3918;130.392;0.0255512;-0.0127062;-0.00608114;0.00917088;0.122518;0.00614585;0.0651825;0;0.115582;8.86286;3.05737
427000;428;26.9615;1.20792;0.0469029;-2.55078;26.8328;-0.648881;-0.115692;1.19505;-0.813811;0.0521192;-0.614782;-0.0796453;0.622106;-6.23086;-0.00248122;0.00101171;0.012328;0.0123968;-0.00255001;0.0074734;0.201267;4.96853;0.00923267;0.00996453;4.86146;0.205699;78.2103;123.21;0.00183657;-0.00248359;-0.000398851;0.00240162;0.0123284;0.00551164;0.0110571;0;0.0216295;-0.0757598;-1.82217;-0.887289;2.02813;-6.87804;-0.0126667;0.00305072;0.121736;0.121805;-0.0127359;0.0672706;0.104051;9.61071;0.0857646;0.0896941;9.56392;0.10456;84.8588;129.859;0.0222145;-0.0127159;-0.00520622;0.0103182;0.121728;0.0183119;0.0728609;0;0.124814;8.86441;3.06428
428000;429;26.9664;1.21279;0.0470918;-2.55401;26.8369;-0.667138;-0.118917;1.19919;-0.832068;0.05128;-0.615546;-0.077179;0.622481;-6.22839;-0.00256988;0.000955414;0.0120085;0.0120708;-0.00263222;0.00735152;0.214005;4.67278;0.00905308;0.00980202;4.58578;0.218065;78.2696;123.27;0.00177519;-0.00257208;-0.00041375;0.00230485;0.0120088;0.00511503;0.0108098;0;0.0198012;-0.0777282;-1.8287;-0.883909;2.0326;-6.86669;-0.0128285;0.00279449;0.124561;0.124618;-0.0128854;0.0687515;0.10299;9.70967;0.0876897;0.0916687;9.67127;0.103399;84.9971;129.997;0.0225436;-0.0128776;-0.00567777;0.0102315;0.12455;0.020037;0.064616;0;0.117566;8.86312;3.06681
429000;430;26.9752;1.22155;0.0474323;-2.55375;26.8457;-0.668286;-0.118655;1.20799;-0.833216;0.0516172;-0.614723;-0.0825865;0.62239;-6.2338;-0.00248717;0.000846887;0.0119493;0.0119988;-0.00253668;0.00726776;0.208143;4.80439;0.00896522;0.00969035;4.73013;0.211411;78.4413;123.441;0.00155234;-0.00248932;-0.00056481;0.00223844;0.0119495;0.00612669;0.0113732;0;0.0206759;-0.0774436;-1.83387;-0.8947;2.04195;-6.87434;-0.0132904;0.00269856;0.125153;0.125205;-0.013343;0.0692742;0.106194;9.41675;0.0882548;0.0923656;9.38358;0.106569;85.2733;130.273;0.0206656;-0.0133344;-0.00527852;0.00969398;0.125144;0.00904653;0.070725;0;0.114453;8.86292;3.0739
430000;431;26.9808;1.22723;0.0476526;-2.55556;26.8511;-0.674468;-0.120469;1.21337;-0.839398;0.0534331;-0.614552;-0.0828823;0.622414;-6.23409;-0.00239308;0.00104551;0.0121812;0.0122559;-0.00246769;0.00736178;0.196456;5.0902;0.0091053;0.0098157;4.96652;0.201348;77.3293;122.329;0.00192264;-0.0023958;-0.000486075;0.00255504;0.0121817;0.00563135;0.0124094;0;0.0220054;-0.0788549;-1.84268;-0.911133;2.05715;-6.89542;-0.0130013;0.00263495;0.127499;0.127548;-0.0130507;0.0702993;0.101972;9.80663;0.0896993;0.0937325;9.7733;0.10232;85.1964;130.196;0.0220457;-0.0130488;-0.00582039;0.0100365;0.127487;0.00122231;0.0764704;0;0.11909;8.86354;3.08029
431000;432;26.9907;1.23703;0.0480333;-2.55328;26.8615;-0.658626;-0.118189;1.22383;-0.823556;0.0519997;-0.614712;-0.083685;0.622557;-6.2349;-0.00259572;0.0010151;0.0122611;0.0123301;-0.00266475;0.00749743;0.211704;4.72358;0.00923735;0.00999658;4.62711;0.216118;77.5063;122.506;0.00186828;-0.00259835;-0.000500133;0.00250808;0.0122615;0.00585458;0.0114992;0;0.0215484;-0.0782544;-1.8519;-0.900629;2.06077;-6.88492;-0.0128233;0.00321312;0.128773;0.128846;-0.0128962;0.070871;0.0995808;10.0421;0.0905028;0.0944947;9.991;0.10009;84.592;129.592;0.0296079;-0.0128849;-0.00624308;0.0114829;0.12876;0.00365309;0.07476;0;0.113123;8.86888;3.08756
432000;433;26.9936;1.24;0.0481485;-2.55419;26.864;-0.676636;-0.119099;1.22628;-0.841566;0.0513471;-0.616675;-0.0805967;0.624036;-6.23181;-0.00256518;0.00100145;0.0121275;0.0121955;-0.00263313;0.00741429;0.211517;4.72774;0.0091354;0.00988572;4.63155;0.21591;78.013;123.013;0.0019475;-0.00256754;-0.000405774;0.00238825;0.0121279;0.00519454;0.0114836;0;0.0195717;-0.0794066;-1.86116;-0.906336;2.07163;-6.89255;-0.0128292;0.00256318;0.129974;0.13002;-0.0128752;0.0714478;0.0987056;10.1311;0.0912752;0.0952637;10.0985;0.0990244;85.0789;130.079;0.024897;-0.0128814;-0.00649198;0.0104738;0.129959;-0.00217835;0.0648264;0;0.115322;8.86729;3.09446
433000;434;27.0031;1.2495;0.0485177;-2.55418;26.8735;-0.677386;-0.119089;1.2358;-0.841001;0.0521922;-0.615899;-0.0810343;0.623396;-6.23225;-0.00248243;0.000904358;0.0123245;0.0123795;-0.00253747;0.0074585;0.201423;4.96468;0.00921603;0.00994467;4.8787;0.204973;78.445;123.445;0.00182938;-0.00248474;-0.000538121;0.00232574;0.0123248;0.00560561;0.0119678;0;0.0347992;-0.0797325;-1.87253;-0.903778;2.08076;-6.89254;-0.0125651;0.00173619;0.131548;0.131569;-0.012586;0.0720773;0.0955175;10.4693;0.0921945;0.0961031;10.4536;0.0956613;85.506;130.506;0.027514;-0.0126101;-0.00726003;0.00958656;0.131526;0.00714286;0.0768089;0;0.127095;8.86667;3.10202
434000;435;27.0162;1.26261;0.0490267;-2.55395;26.8869;-0.668382;-0.118858;1.24922;-0.831997;0.0525161;-0.615949;-0.0785859;0.623158;-6.2298;-0.00255657;0.000865604;0.0123956;0.0124456;-0.00260651;0.00752603;0.206248;4.84853;0.00928859;0.0100347;4.77479;0.209433;78.6876;123.688;0.00176492;-0.00255879;-0.00056474;0.00227482;0.0123958;0.00568875;0.0107865;0;0.0208615;-0.080182;-1.88132;-0.90914;2.09101;-6.89958;-0.0136787;0.00286586;0.130944;0.131001;-0.0137355;0.0723683;0.104462;9.57287;0.092254;0.0964911;9.53744;0.10485;85.4408;130.441;0.0272127;-0.0137234;-0.00510197;0.00981464;0.130936;0.010835;0.0746259;0;0.11473;8.86985;3.10871
435000;436;27.0196;1.26597;0.049157;-2.55658;26.8896;-0.687034;-0.121486;1.25188;-0.851964;0.0523844;-0.61623;-0.0737668;0.622837;-6.22498;-0.00262781;0.00110515;0.0125165;0.0125967;-0.00270804;0.00765239;0.209948;4.76309;0.00943101;0.0102032;4.65162;0.214979;77.6912;122.691;0.0014007;-0.00263046;-0.000360416;0.00254879;0.0125171;0.00632565;0.0112749;0;0.0235768;-0.081784;-1.88651;-0.907638;2.09509;-6.90143;-0.0136488;0.00121558;0.136015;0.136025;-0.0136586;0.0748416;0.100348;9.96535;0.0955618;0.0997888;9.95887;0.100413;86.2245;131.225;0.0216012;-0.0136823;-0.00685469;0.00822257;0.135995;0.0069024;0.0696666;0;0.122346;8.86602;3.11621
436000;437;27.0268;1.27316;0.0494362;-2.55762;26.8966;-0.692581;-0.12253;1.25887;-0.857511;0.0519597;-0.618534;-0.0747436;0.625197;-6.22596;-0.00261781;0.000969547;0.0123075;0.0123703;-0.00268052;0.00752539;0.212699;4.70147;0.00927044;0.0100339;4.61487;0.216691;77.9792;122.979;0.00180565;-0.00262026;-0.000496523;0.002414;0.0123079;0.0062374;0.0113792;0;0.0224556;-0.0831336;-1.89277;-0.91;2.10181;-6.89324;-0.0139472;0.00216342;0.138467;0.138498;-0.0139779;0.076238;0.100726;9.92796;0.0973265;0.101651;9.90835;0.100925;86.253;131.253;0.0148882;-0.0139813;-0.00512383;0.008475;0.138458;0.00688567;0.0798389;0;0.141851;8.8764;3.12367
437000;438;27.0357;1.28205;0.0497814;-2.55738;26.9056;-0.690054;-0.122285;1.26788;-0.853669;0.0530279;-0.620414;-0.0697626;0.626572;-6.22097;-0.00261919;0.0008737;0.0126486;0.0126984;-0.00266903;0.00768371;0.207075;4.82918;0.00948133;0.0102449;4.75768;0.210186;79.095;124.095;0.00154965;-0.00262133;-0.000513954;0.00224043;0.0126488;0.00689352;0.0119266;0;0.0201593;-0.0822266;-1.90262;-0.908985;2.11021;-6.8928;-0.013765;0.00193228;0.14017;0.140194;-0.0137892;0.0769918;0.0982019;10.1831;0.098382;0.102656;10.167;0.0983579;86.1238;131.124;0.0188161;-0.0138026;-0.0060447;0.0088322;0.140156;0.0096863;0.0800536;0;0.142264;8.86993;3.13125
438000;439;27.0398;1.2862;0.0499425;-2.55717;26.9097;-0.693108;-0.122072;1.272;-0.858038;0.0514919;-0.618754;-0.0771498;0.625668;-6.22836;-0.00258933;0.000981719;0.0126027;0.0126659;-0.0026525;0.0076592;0.205458;4.86718;0.00945297;0.0102123;4.77507;0.209421;78.7589;123.759;0.00169386;-0.00259157;-0.000388182;0.00233107;0.0126031;0.00552104;0.0110719;0;0.0277767;-0.0844739;-1.91148;-0.926296;2.12578;-6.91437;-0.0133034;0.00398675;0.135792;0.135898;-0.0134099;0.074654;0.097969;10.2073;0.0953834;0.0995386;10.1342;0.0986761;84.3732;129.373;0.0223581;-0.0133769;-0.00603419;0.012692;0.135783;-0.0100823;0.0718517;0;0.136105;8.86319;3.13803
439000;440;27.0482;1.29462;0.0502693;-2.55759;26.9181;-0.693329;-0.122501;1.28041;-0.858259;0.0514039;-0.619781;-0.0704601;0.625888;-6.22167;-0.00268733;0.0009687;0.0125152;0.0125767;-0.0027488;0.00766276;0.214724;4.65713;0.00943517;0.010217;4.57534;0.218563;78.3152;123.315;0.00141639;-0.00268971;-0.000468345;0.00238417;0.0125156;0.00657032;0.0113782;0;0.0237564;-0.0851726;-1.91837;-0.921538;2.12994;-6.90856;-0.014363;0.00321354;0.137541;0.137609;-0.0144309;0.0760198;0.104427;9.57604;0.0969082;0.10136;9.53566;0.10487;85.0059;130.006;0.0343999;-0.0144223;-0.00609654;0.0112802;0.137529;-0.00297162;0.076254;0;0.130056;8.85985;3.14114
440000;441;27.0572;1.30355;0.050616;-2.55964;26.9264;-0.712094;-0.124547;1.2887;-0.877024;0.0518872;-0.620074;-0.0714472;0.626329;-6.22266;-0.0026171;0.000982556;0.0126573;0.0127203;-0.00268005;0.00770016;0.206766;4.83639;0.00950039;0.0102669;4.74629;0.210691;78.7069;123.707;0.00151454;-0.00261938;-0.000404159;0.00234835;0.0126577;0.00634969;0.0113045;0;0.0272088;-0.0864067;-1.92891;-0.921688;2.13955;-6.9105;-0.0139759;0.00340103;0.140157;0.140232;-0.014051;0.0771416;0.0997161;10.0285;0.0985065;0.102856;9.98027;0.100198;84.9375;129.938;0.0245085;-0.0140395;-0.00619993;0.0117039;0.140146;-0.00448531;0.0735613;0;0.129718;8.85938;3.14594
441000;442;27.0651;1.31149;0.0509247;-2.55779;26.935;-0.695152;-0.122694;1.29731;-0.860082;0.052259;-0.619218;-0.0704164;0.625396;-6.22163;-0.00261052;0.000857571;0.0126823;0.0127303;-0.00265846;0.00769437;0.205839;4.85816;0.00949785;0.0102592;4.78859;0.20883;79.558;124.558;0.00129413;-0.00261248;-0.000460114;0.00215535;0.0126826;0.00678501;0.0111701;0;0.0213468;-0.0869085;-1.93459;-0.926609;2.14681;-6.91875;-0.0131792;0.0018295;0.144178;0.144199;-0.0132004;0.0786999;0.091409;10.9398;0.100822;0.104933;10.9238;0.091543;85.7036;130.704;0.0204094;-0.0132289;-0.00772384;0.0100689;0.144154;0.00202495;0.0734635;0;0.125194;8.85937;3.15261
442000;443;27.0741;1.32045;0.0512726;-2.55797;26.9439;-0.699814;-0.122876;1.30617;-0.864744;0.0515492;-0.619777;-0.070228;0.62587;-6.22144;-0.00262893;0.00105354;0.0128049;0.0128765;-0.00270051;0.00778852;0.205306;4.87078;0.00961183;0.0103847;4.76818;0.209724;78.4177;123.418;0.00132674;-0.00263138;-0.00036523;0.00245068;0.0128054;0.0066829;0.0109765;0;0.02332;-0.089345;-1.94402;-0.933663;2.15846;-6.92495;-0.0130109;0.00343024;0.145227;0.145301;-0.0130852;0.079193;0.0895901;11.1619;0.10151;0.105591;11.1042;0.0900558;85.0511;130.051;0.0200266;-0.013077;-0.00642876;0.0119268;0.145214;0.00341187;0.0902663;0;0.122605;8.86071;3.16053
443000;444;27.0792;1.32562;0.0514732;-2.56147;26.9483;-0.716794;-0.12638;1.31058;-0.881724;0.0491578;-0.618176;-0.074812;0.624624;-6.22602;-0.00273567;0.00103817;0.0125448;0.012615;-0.00280588;0.00771045;0.218071;4.58566;0.00948468;0.0102806;4.49593;0.222423;78.2216;123.222;0.00177198;-0.00273807;-0.000369132;0.00242423;0.0125453;0.00571838;0.0115341;0;0.021154;-0.0918677;-1.94984;-0.938874;2.16605;-6.9321;-0.0122037;0.00238209;0.147355;0.147391;-0.0122392;0.079815;0.082818;12.0747;0.102584;0.10642;12.0425;0.0830392;85.5087;130.509;0.0149406;-0.012261;-0.00751758;0.0109049;0.147333;0.00452435;0.0796388;0;0.122092;8.86213;3.16769
444000;445;27.087;1.33338;0.0517745;-2.5627;26.9559;-0.718662;-0.127604;1.31822;-0.883592;0.0496822;-0.618411;-0.0754369;0.624973;-6.22665;-0.00266648;0.0011166;0.0126126;0.0126938;-0.00274765;0.00772072;0.211414;4.73006;0.00951163;0.0102943;4.61987;0.216456;78.2525;123.253;0.0016389;-0.0026689;-0.000249916;0.00246249;0.0126132;0.00593075;0.0113304;0;0.023041;-0.0908849;-1.95266;-0.939095;2.16865;-6.92491;-0.0139085;0.00273264;0.1498;0.149846;-0.0139541;0.0819001;0.0928465;10.7705;0.104859;0.1092;10.7385;0.0931226;85.9485;130.948;0.0194752;-0.0139554;-0.0057454;0.0100034;0.149789;-0.00189247;0.0815647;0;0.137328;8.86513;3.17513
445000;446;27.0941;1.34053;0.0520521;-2.56368;26.9629;-0.722298;-0.128589;1.32521;-0.887228;0.0507184;-0.620842;-0.0687191;0.626689;-6.21993;-0.00281812;0.00112649;0.0127969;0.0128777;-0.00289896;0.00788833;0.22022;4.54092;0.00969699;0.0105178;4.44217;0.225115;78.3923;123.392;0.00139596;-0.00282052;-0.000228257;0.00246034;0.0127975;0.00585794;0.0103294;0;0.0211887;-0.091726;-1.9629;-0.93654;2.1768;-6.92279;-0.0144775;0.00259551;0.15243;0.15247;-0.0145179;0.0834939;0.0949785;10.5287;0.106815;0.111325;10.5022;0.0952181;86.3005;131.3;0.0266806;-0.0145179;-0.0052259;0.00928403;0.152421;0.013287;0.0728438;0;0.141514;8.86305;3.18271
446000;447;27.1031;1.34946;0.0523988;-2.56428;26.9717;-0.726257;-0.129185;1.33402;-0.891187;0.0503197;-0.620926;-0.0655672;0.626403;-6.21678;-0.00286649;0.000872947;0.0129316;0.0129797;-0.00291458;0.00794712;0.221666;4.51128;0.00977062;0.0105962;4.45335;0.22455;79.3609;124.361;0.00112141;-0.00286857;-0.000490509;0.00221514;0.0129318;0.00682282;0.0109361;0;0.0201807;-0.0925702;-1.97159;-0.937854;2.18525;-6.92318;-0.0146817;0.00401118;0.151567;0.151664;-0.0147784;0.0832212;0.0968659;10.3236;0.106378;0.110962;10.2625;0.0974418;85.0977;130.098;0.0280927;-0.0147509;-0.00572996;0.0123458;0.15156;0.0149995;0.0615936;0;0.131903;8.86015;3.19039
447000;448;27.1107;1.35712;0.0526965;-2.55955;26.9805;-0.702675;-0.124454;1.34279;-0.867605;0.0509627;-0.620141;-0.0678165;0.625917;-6.21903;-0.0027195;0.0010067;0.0131021;0.0131659;-0.0027833;0.00797462;0.207561;4.81785;0.0098372;0.0106328;4.73034;0.211401;79.0275;124.027;0.00133471;-0.00272179;-0.000372597;0.00236446;0.0131026;0.0063845;0.0106325;0;0.0191884;-0.0925505;-1.97925;-0.943838;2.19473;-6.92912;-0.014736;0.00452885;0.152786;0.152908;-0.0148583;0.0838833;0.0964486;10.3682;0.107235;0.111844;10.2911;0.0971716;84.7322;129.732;0.0267656;-0.0148169;-0.00586931;0.0134156;0.15278;0.0149002;0.0769746;0;0.132552;8.85575;3.19779
448000;449;27.1191;1.36547;0.0530203;-2.56617;26.9872;-0.741885;-0.131078;1.3495;-0.906815;0.0494637;-0.620211;-0.0668839;0.625765;-6.2181;-0.00274388;0.00107769;0.0130298;0.0131031;-0.00281716;0.00796011;0.210585;4.74867;0.00981019;0.0106135;4.65115;0.215001;78.6942;123.694;0.000924825;-0.00274627;-0.000302079;0.00243597;0.0130303;0.0073087;0.0115259;0;0.0206033;-0.0941244;-1.99637;-0.951074;2.21334;-6.94749;-0.0141633;0.00488146;0.151122;0.151266;-0.0143073;0.0827868;0.0937206;10.67;0.105936;0.110382;10.5727;0.0945835;84.0742;129.074;0.0272784;-0.0142644;-0.00686838;0.0149437;0.151112;0.00149753;0.0848925;0;0.147212;8.85382;3.20447
449000;450;27.1309;1.37725;0.053478;-2.56445;26.9999;-0.715094;-0.12936;1.36223;-0.880024;0.052759;-0.621938;-0.0689086;0.627964;-6.22012;-0.00249238;0.00103432;0.0129577;0.0130266;-0.00256132;0.00779396;0.192348;5.19892;0.00965213;0.0103919;5.08591;0.196622;79.0543;124.054;0.00167535;-0.00249464;-0.000313553;0.00236163;0.0129582;0.00609865;0.0112008;0;0.0290347;-0.0937309;-1.99497;-0.947243;2.21042;-6.92988;-0.0147743;0.00485928;0.155441;0.155579;-0.0149129;0.0852461;0.0950475;10.5211;0.109031;0.113661;10.4326;0.0958538;84.3832;129.383;0.024908;-0.0148699;-0.00652052;0.0145622;0.155433;-0.000393272;0.0785444;0;0.155405;8.8521;3.21123
450000;451;27.1342;1.38058;0.053607;-2.56695;27.0024;-0.740504;-0.131853;1.36464;-0.905435;0.0514884;-0.622498;-0.0629868;0.627791;-6.2142;-0.00266851;0.000961132;0.0133874;0.0134447;-0.00272584;0.00808527;0.199331;5.01679;0.00999641;0.0107804;4.9323;0.202745;80.2043;125.204;0.00126536;-0.00267042;-0.000269408;0.00217218;0.0133878;0.00642665;0.010972;0;0.0224507;-0.09563;-2.00713;-0.948786;2.22214;-6.93787;-0.0150547;0.00582029;0.156045;0.156243;-0.0152525;0.0857476;0.0964769;10.3652;0.1096;0.11433;10.2438;0.0976205;83.7132;128.713;0.0345737;-0.0151746;-0.00663404;0.0164307;0.15604;0.000624492;0.0792849;0;0.158083;8.84512;3.21448
451000;452;27.1433;1.38967;0.0539601;-2.56802;27.0113;-0.74267;-0.132932;1.37362;-0.9076;0.0514003;-0.622875;-0.0620819;0.628068;-6.21329;-0.00273736;0.00101086;0.0131511;0.0132152;-0.00280141;0.0080083;0.208146;4.80432;0.00987725;0.0106777;4.71733;0.211984;79.4987;124.499;0.00114069;-0.00273945;-0.000280314;0.00228179;0.0131516;0.00630855;0.0109091;0;0.0199313;-0.0966856;-2.01565;-0.954146;2.23217;-6.94411;-0.0151915;0.00582483;0.157874;0.15807;-0.0153873;0.0867286;0.0962256;10.3922;0.110865;0.115638;10.2727;0.0973452;83.8858;128.886;0.0342259;-0.0153072;-0.00634946;0.0161788;0.157871;0.000924292;0.0740848;0;0.147498;8.82943;3.21924
452000;453;27.1467;1.39308;0.0540925;-2.5687;27.0146;-0.746164;-0.133607;1.37688;-0.911094;0.0512355;-0.623052;-0.0625767;0.628279;-6.21379;-0.00265909;0.00103427;0.0133943;0.0134606;-0.00272546;0.00809305;0.198525;5.03716;0.0100067;0.0107907;4.93886;0.202476;79.3131;124.313;0.00133259;-0.00266138;-0.000325345;0.00237235;0.0133948;0.00601047;0.0111219;0;0.0209351;-0.0971102;-2.01628;-0.957992;2.2344;-6.94346;-0.0149078;0.00425742;0.161825;0.161928;-0.0150103;0.0884691;0.0921225;10.8551;0.113287;0.117959;10.7878;0.0926972;85.3219;130.322;0.0213455;-0.0149796;-0.00561942;0.0126315;0.16182;0.0199776;0.0732496;0;0.152879;8.83289;3.22637
453000;454;27.1515;1.39789;0.0542794;-2.56703;27.0196;-0.745487;-0.131938;1.3819;-0.910417;0.0516324;-0.625548;-0.0574908;0.630303;-6.2087;-0.00271007;0.000999405;0.0131636;0.0132263;-0.00277275;0.00799951;0.205876;4.85729;0.00987243;0.010666;4.7701;0.209639;79.1516;124.152;0.00146033;-0.00271234;-0.000372322;0.00234964;0.013164;0.00601699;0.0110155;0;0.0246115;-0.0957293;-2.03502;-0.9603;2.25225;-6.95664;-0.0146925;0.00427287;0.158162;0.158268;-0.014798;0.0865328;0.0928951;10.7648;0.110774;0.115377;10.6952;0.0935001;84.5972;129.597;0.0133818;-0.0147853;-0.0073752;0.0141821;0.158146;0.0125247;0.0730171;0;0.154813;8.85599;3.23394
454000;455;27.1642;1.41053;0.0547702;-2.5713;27.0316;-0.756028;-0.136203;1.3939;-0.920959;0.0500899;-0.624802;-0.0587629;0.629555;-6.20997;-0.00262961;0.00102337;0.0133885;0.0134536;-0.00269473;0.00807418;0.196408;5.09145;0.00998924;0.0107656;4.99258;0.200297;79.617;124.617;0.00148323;-0.00263176;-0.000284047;0.00231012;0.013389;0.00569061;0.0109609;0;0.0197454;-0.0999099;-2.038;-0.959652;2.25485;-6.95048;-0.0153058;0.00477232;0.162416;0.162544;-0.0154338;0.0889887;0.0942383;10.6114;0.113856;0.118652;10.5316;0.0949519;83.7861;128.786;0.0259064;-0.0154361;-0.00932572;0.0167143;0.162388;0.00323477;0.0673159;0;0.159231;8.8468;3.24125
455000;456;;;;;;;;;;0.0516718;-0.623091;-0.0636866;0.628465;-6.2149;-0.00270488;0.000980042;0.013436;0.0134953;-0.00276417;0.00812974;0.201315;4.96733;0.0100458;0.0108397;4.88224;0.204824;79.5444;124.544;0.0016125;-0.00270708;-0.000374665;0.00231317;0.0134364;0.0055468;0.0111746;0;0.0224165;-0.0996559;-2.04879;-0.968705;2.26845;-6.96115;-0.0144745;0.00533904;0.166111;0.166269;-0.0146322;0.0904507;0.0871375;11.4761;0.116031;0.120601;11.3632;0.0880034;83.5239;128.524;0.0313901;-0.0146235;-0.00958093;0.0179477;0.166084;-0.00213941;0.0788088;0;0.158879;8.84409;3.24925
456000;457;;;;;;;;;;0.050943;-0.623395;-0.060973;0.628438;-6.21218;-0.00274681;0.000883875;0.0134578;0.0135059;-0.00279488;0.00815038;0.204105;4.89943;0.0100657;0.0108672;4.83236;0.206938;80.4181;125.418;0.000998324;-0.00274865;-0.000363181;0.00211099;0.0134581;0.00732993;0.0108001;0;0.0214065;-0.101517;-2.05408;-0.972587;2.27497;-6.96247;-0.0144915;0.00547758;0.168034;0.168198;-0.0146558;0.0914269;0.0862418;11.5953;0.117323;0.121903;11.4766;0.0871341;83.8226;128.823;0.0257125;-0.0146293;-0.00861044;0.0173634;0.168015;0.00629326;0.0714141;0;0.15366;8.83632;3.25587
457000;458;;;;;;;;;;0.0515035;-0.623113;-0.0601699;0.628126;-6.21138;-0.00275397;0.00102335;0.0135856;0.0136494;-0.00281781;0.00823363;0.202712;4.9331;0.0101699;0.0109782;4.84399;0.206441;80.1966;125.197;0.00112391;-0.00275591;-0.000190486;0.00221761;0.0135861;0.00624446;0.00998746;0;0.0283736;-0.101401;-2.06798;-0.982381;2.2917;-6.97897;-0.0140781;0.00345514;0.168752;0.168817;-0.0141434;0.0914801;0.0834249;11.9868;0.117543;0.121973;11.9361;0.0837793;85.0427;130.043;0.0140673;-0.0141692;-0.00885528;0.0138395;0.168723;0.00010818;0.0705077;0;0.136042;8.82525;3.26337
458000;459;27.1977;1.44412;0.0560745;-2.57318;27.0646;-0.775524;-0.138085;1.42693;-0.940454;0.0509485;-0.623158;-0.0590098;0.628016;-6.21022;-0.00273639;0.000932874;0.0135991;0.0136522;-0.00278949;0.00822082;0.201219;4.9697;0.0101597;0.0109611;4.89413;0.204326;80.1381;125.138;0.00151062;-0.00273839;-0.00035936;0.00220428;0.0135994;0.00517214;0.011171;0;0.0194143;-0.102703;-2.07288;-0.979517;2.29496;-6.97044;-0.0147415;0.00428641;0.170184;0.170283;-0.0148408;0.0925619;0.0866209;11.5446;0.118778;0.123416;11.474;0.0871535;84.7505;129.75;0.0184402;-0.014844;-0.00825396;0.0148446;0.170162;-0.000989997;0.0911599;0;0.148659;8.82166;3.27072
459000;460;27.2024;1.44878;0.0562556;-2.57444;27.0691;-0.779736;-0.139343;1.43137;-0.944666;0.0515678;-0.623438;-0.0575351;0.628208;-6.20875;-0.00262958;0.00103245;0.0136933;0.0137583;-0.00269462;0.00822646;0.192034;5.2074;0.0101899;0.0109686;5.10584;0.195854;79.6483;124.648;0.00130024;-0.00263182;-0.000313362;0.00235659;0.0136937;0.00616705;0.0107655;0;0.0195526;-0.101451;-2.08484;-0.985554;2.30828;-6.98261;-0.0151686;0.00377579;0.17247;0.172546;-0.0152446;0.0938954;0.0879491;11.3702;0.120434;0.125194;11.3185;0.0883506;84.8534;129.853;0.0240084;-0.0152704;-0.0091758;0.0146542;0.172441;0.00730853;0.0712191;0;0.16034;8.8145;3.27854
460000;461;27.2111;1.4575;0.056594;-2.57426;27.0777;-0.786511;-0.139166;1.43995;-0.951441;0.0505635;-0.624383;-0.0528993;0.628657;-6.20411;-0.00272279;0.000914311;0.0136922;0.013743;-0.00277356;0.00825826;0.198857;5.02874;0.0102128;0.011011;4.95499;0.201817;80.2194;125.219;0.000901018;-0.00272479;-0.000390397;0.00219789;0.0136925;0.00735257;0.0103526;0;0.0193676;-0.104151;-2.08503;-0.982263;2.30717;-6.97069;-0.0162184;0.00445838;0.175146;0.17525;-0.0163222;0.0957859;0.0925995;10.7992;0.122636;0.127715;10.7369;0.093137;84.8049;129.805;0.0343873;-0.0163237;-0.00821381;0.0150665;0.175125;-0.0157228;0.0603096;0;0.170128;8.812;3.2847
461000;462;;;;;;;;;;0.0512032;-0.623852;-0.052672;0.628162;-6.20388;-0.00274727;0.000879729;0.0137852;0.0138319;-0.00279395;0.0083129;0.199291;5.01778;0.0102799;0.0110839;4.95065;0.201994;80.1364;125.136;0.00136697;-0.00274934;-0.000479492;0.00221678;0.0137854;0.00697155;0.0109351;0;0.0188678;-0.104785;-2.0936;-0.984604;2.31594;-6.97594;-0.0159387;0.00527986;0.176811;0.176955;-0.0160833;0.0965194;0.0901456;11.0932;0.12368;0.128692;11.0025;0.0908887;83.8871;128.887;0.0233549;-0.0160884;-0.00988116;0.0179569;0.176781;0.0164751;0.059665;0;0.187657;8.81124;3.28753
462000;463;;;;;;;;;;0.0529948;-0.620758;-0.0662928;0.626533;-6.2175;-0.00275729;0.000948311;0.0137872;0.0138414;-0.00281146;0.00832644;0.199988;5.00029;0.0102936;0.0111019;4.92321;0.20312;80.4558;125.456;0.00131398;-0.0027592;-0.000296353;0.00217266;0.0137876;0.00638873;0.0105209;0;0.024953;-0.104533;-2.09853;-1.00161;2.32766;-6.99245;-0.0156717;0.00423388;0.178285;0.178377;-0.0157641;0.0970705;0.0879028;11.3762;0.124506;0.129427;11.3154;0.0883752;84.6625;129.662;0.0310593;-0.0157885;-0.00954088;0.0157407;0.178254;-0.00296737;0.0688266;0;0.162541;8.81048;3.2936
463000;464;;;;;;;;;;0.0509595;-0.623574;-0.053432;0.62793;-6.20464;-0.00276227;0.000951671;0.0137582;0.0138128;-0.00281691;0.00831487;0.200772;4.98076;0.010277;0.0110865;4.90355;0.203934;79.9154;124.915;0.00101197;-0.00276441;-0.000396643;0.00227801;0.0137586;0.00649649;0.0109242;0;0.0233269;-0.107127;-2.1132;-0.993576;2.33758;-6.98874;-0.0151096;0.00398156;0.180286;0.180367;-0.0151907;0.0977787;0.0838092;11.9319;0.125615;0.130372;11.8735;0.0842211;85.0279;130.028;0.0164156;-0.0152136;-0.0090526;0.0148575;0.180258;0.0104234;0.0909239;0;0.165263;8.80809;3.30073
464000;465;;;;;;;;;;0.0486552;-0.626625;-0.0420639;0.629918;-6.19328;-0.00285305;0.000818077;0.0137925;0.0138326;-0.00289316;0.00836286;0.206856;4.83428;0.0103221;0.0111505;4.78112;0.209156;80.6217;125.622;0.00120599;-0.00285491;-0.000476883;0.00209177;0.0137927;0.00613277;0.0100533;0;0.0227723;-0.111702;-2.11476;-0.984;2.33515;-6.97073;-0.0153371;0.00598229;0.184077;0.184256;-0.0155164;0.0998861;0.0833194;12.002;0.128322;0.133182;11.8749;0.0842114;83.4255;128.425;0.0374781;-0.0155267;-0.0111436;0.0202228;0.184039;0.0283161;0.0853172;0;0.151935;8.80678;3.30834
465000;466;;;;;;;;;;0.0503042;-0.623181;-0.0548375;0.627608;-6.20605;-0.00278368;0.00100414;0.013918;0.0139782;-0.00284384;0.00841101;0.200006;4.99986;0.0103972;0.0112147;4.91525;0.203448;80.2674;125.267;0.00113937;-0.00278571;-0.000258656;0.00224614;0.0139185;0.00565063;0.0103218;0;0.0280993;-0.108433;-2.11782;-1.00038;2.34471;-6.98716;-0.0179698;0.00956019;0.188006;0.188449;-0.0184126;0.103431;0.0955809;10.4623;0.132198;0.137908;10.2348;0.0977059;82.2043;127.204;0.0577894;-0.0182348;-0.00879987;0.0247349;0.188012;0.0144555;0.0766103;0;0.190668;8.8032;3.31555
466000;467;27.2567;1.50307;0.0583636;-2.57824;27.1222;-0.814949;-0.143149;1.48453;-0.979879;0.0500067;-0.62175;-0.0525059;0.625964;-6.20372;-0.00278139;0.000908139;0.0138541;0.0139035;-0.00283082;0.00836716;0.200764;4.98098;0.0103426;0.0111562;4.91147;0.203605;80.3541;125.354;0.00111942;-0.00278338;-0.000394203;0.00218911;0.0138544;0.00673027;0.0106645;0;0.0208027;-0.110821;-2.12471;-1.00559;2.35327;-6.99733;-0.0155485;0.00956634;0.18981;0.190254;-0.0159932;0.103124;0.0819163;12.2076;0.132489;0.137498;11.896;0.0840621;81.726;126.726;0.048542;-0.0158619;-0.011045;0.0266176;0.189797;-0.00341597;0.0670747;0;0.217704;8.79238;3.32274
467000;468;;;;;;;;;;0.0492909;-0.623297;-0.0503382;0.627266;-6.20155;-0.00280725;0.000930096;0.0141242;0.0141752;-0.00285819;0.00851667;0.198754;5.03134;0.0105329;0.0113556;4.95949;0.201634;80.9707;125.971;0.00133055;-0.00280904;-0.000267696;0.00210789;0.0141246;0.00662507;0.0110298;0;0.020808;-0.113441;-2.13413;-1.0086;2.36318;-7.00118;-0.0169045;0.00804911;0.197722;0.198024;-0.0172059;0.107615;0.0854959;11.6965;0.138109;0.143486;11.5091;0.086888;82.8196;127.82;0.0340166;-0.017161;-0.011212;0.0238568;0.197697;0.00884601;0.0458154;0;0.202082;8.78898;3.32921
468000;469;;;;;;;;;;0.0503229;-0.623812;-0.0484709;0.627712;-6.19968;-0.0027959;0.00094643;0.0138812;0.0139347;-0.00284944;0.00839209;0.201416;4.96485;0.010371;0.0111895;4.89035;0.204484;80.4624;125.462;0.000586609;-0.00279784;-0.00030986;0.00218205;0.0138816;0.00755884;0.0101243;0;0.0225115;-0.113822;-2.14944;-1.0149;2.37972;-7.01126;-0.0171741;0.00764251;0.196654;0.196927;-0.0174469;0.107187;0.0873315;11.4506;0.13747;0.142916;11.2872;0.0885959;83.3825;128.382;0.0262554;-0.0173875;-0.00966838;0.0218587;0.19664;0.0168456;0.0674681;0;0.188365;8.77836;3.33669
469000;470;;;;;;;;;;0.0489229;-0.62409;-0.0466439;0.62774;-6.19786;-0.00291517;0.000774972;0.0139079;0.0139435;-0.0029508;0.00844714;0.209606;4.77086;0.0104195;0.0112629;4.72533;0.211625;80.9448;125.945;0.00116222;-0.00291693;-0.000496072;0.00202493;0.013908;0.00640387;0.0100996;0;0.0205867;-0.117209;-2.16628;-1.01834;2.39656;-7.02312;-0.0154825;0.00859691;0.193773;0.194126;-0.0158351;0.104981;0.0799002;12.5156;0.135006;0.139974;12.2592;0.0815714;81.8516;126.852;0.0152166;-0.0158056;-0.0132898;0.0266445;0.19373;0.0132725;0.0869108;0;0.17345;8.7735;3.34338
470000;471;;;;;;;;;;0.0497658;-0.624978;-0.0418629;0.628352;-6.19307;-0.00280555;0.000941444;0.0139812;0.0140338;-0.00285818;0.00844599;0.200666;4.98339;0.0104398;0.0112613;4.91004;0.203664;80.0879;125.088;0.00103332;-0.00280769;-0.000411133;0.00227163;0.0139815;0.00697095;0.010514;0;0.01887;-0.115264;-2.18053;-1.01866;2.4095;-7.0284;-0.0131812;0.00881311;0.196498;0.196868;-0.013551;0.105209;0.0670807;14.9074;0.135987;0.140279;14.5279;0.068833;81.986;126.986;0.0371411;-0.0135056;-0.0129882;0.0267912;0.19646;0.0272863;0.09013;0;0.186401;8.76646;3.35096
471000;472;;;;;;;;;;0.0498134;-0.62289;-0.0469327;0.626638;-6.19814;-0.00271833;0.000868757;0.0141866;0.0142312;-0.00276286;0.00849701;0.191612;5.21887;0.0105299;0.0113293;5.15087;0.194142;80.3001;125.3;0.00105808;-0.00272048;-0.000531039;0.00224522;0.0141869;0.0076358;0.0102471;0;0.0213481;-0.116233;-2.17316;-1.02646;2.40619;-7.01985;-0.0172264;0.0084323;0.202887;0.203209;-0.0175489;0.110379;0.0849063;11.7777;0.141685;0.147172;11.5796;0.0863589;82.6242;127.624;0.052002;-0.0175121;-0.0120352;0.0251523;0.202856;-0.00863633;0.0924043;0;0.205273;8.75959;3.35776
472000;473;;;;;;;;;;0.0503782;-0.62376;-0.0443667;0.627362;-6.19558;-0.0028075;0.000866525;0.0141475;0.0141917;-0.00285167;0.00852169;0.198444;5.0392;0.0105411;0.0113623;4.97664;0.200939;80.5727;125.573;0.000619354;-0.00280949;-0.00046317;0.00217399;0.0141478;0.00756659;0.0106392;0;0.0202356;-0.115816;-2.19096;-1.02518;2.42172;-7.03098;-0.0141844;0.0097269;0.203954;0.204387;-0.0146173;0.109502;0.0695473;14.3787;0.141382;0.146003;13.9825;0.0715179;82.0387;127.039;0.0320303;-0.0145241;-0.0121591;0.0276446;0.203932;0.00804026;0.0683832;0;0.211554;8.75228;3.36318
473000;474;;;;;;;;;;0.0494667;-0.625919;-0.035102;0.628851;-6.18631;-0.00289117;0.000784791;0.0141567;0.0141928;-0.00292722;0.00855999;0.204226;4.89653;0.0105735;0.0114133;4.84854;0.206248;80.9082;125.908;0.00070513;-0.00289302;-0.000526176;0.00207372;0.0141569;0.00801749;0.0102105;0;0.0200016;-0.117378;-2.20306;-1.02661;2.43335;-7.03135;-0.0147933;0.00627879;0.205844;0.206022;-0.0149719;0.110497;0.0718668;13.9146;0.142601;0.147329;13.7606;0.0726711;84.3253;129.325;0.0120052;-0.0149697;-0.0101147;0.0196716;0.205817;-0.0248854;0.0624;0;0.171807;8.74811;3.3662
474000;475;;;;;;;;;;0.0501977;-0.624167;-0.0374711;0.627303;-6.18868;-0.00287401;0.000765874;0.0143444;0.0143784;-0.00290801;0.00864321;0.200358;4.99108;0.0106876;0.0115243;4.94442;0.202248;81.4886;126.489;0.000949758;-0.00287567;-0.00046438;0.00197524;0.0143446;0.00732546;0.0105407;0;0.0182885;-0.119525;-2.19923;-1.02685;2.43008;-7.02089;-0.0175766;0.00902975;0.214065;0.214416;-0.0179281;0.116172;0.0821089;12.1789;0.14928;0.154896;11.9598;0.0836135;83.0971;128.097;0.033341;-0.0178517;-0.010632;0.0249379;0.214052;-0.0090749;0.0522983;0;0.193875;8.74535;3.37245
475000;476;;;;;;;;;;0.0507527;-0.623385;-0.0375615;0.626575;-6.18877;-0.00291392;0.000631963;0.0140754;0.0140989;-0.0029374;0.00851816;0.207022;4.83041;0.0105161;0.0113575;4.7998;0.208342;81.5962;126.596;0.000484694;-0.00291548;-0.000628346;0.00187115;0.0140754;0.00872078;0.0105499;0;0.0236552;-0.119202;-2.1981;-1.02988;2.43033;-7.01679;-0.0156414;0.0115053;0.211158;0.211741;-0.0162235;0.113982;0.0740741;13.5;0.146867;0.151976;13.0515;0.0766198;81.158;126.158;0.0548932;-0.0160882;-0.0134826;0.0318096;0.211138;-0.00171178;0.0698931;0;0.204197;8.73729;3.38002
476000;477;;;;;;;;;;0.0505148;-0.62144;-0.0426188;0.624945;-6.19383;-0.00302573;0.000735587;0.0142483;0.0142796;-0.003057;0.00866828;0.212358;4.70904;0.0106855;0.0115577;4.6711;0.214082;81.2573;126.257;0.00130636;-0.00302744;-0.000538557;0.00198803;0.0142484;0.00663437;0.0101009;0;0.0360547;-0.120901;-2.21003;-1.04566;2.44791;-7.0356;-0.0176172;0.00987405;0.219426;0.219836;-0.0180278;0.118932;0.0802878;12.4552;0.152921;0.158576;12.1943;0.0820056;82.3891;127.389;0.070327;-0.0179725;-0.012882;0.0282035;0.219397;-0.013419;0.0810369;0;0.200903;8.72477;3.38677
477000;478;;;;;;;;;;0.0495488;-0.621849;-0.0393026;0.625057;-6.19051;-0.00291327;0.000906835;0.0143227;0.0143702;-0.00296085;0.00866554;0.203403;4.91635;0.0107045;0.0115541;4.85342;0.20604;81.0847;126.085;0.000639452;-0.00291506;-0.000304653;0.00209773;0.014323;0.00830545;0.00978916;0;0.021389;-0.124454;-2.23476;-1.05156;2.47294;-7.05929;-0.0159665;0.0124254;0.21342;0.214092;-0.0166376;0.115365;0.0748125;13.3668;0.148584;0.153819;12.8679;0.0777126;80.552;125.552;0.0674334;-0.0164893;-0.0146716;0.0343944;0.213395;-0.00694988;0.0512472;0;0.18728;8.70439;3.39473
478000;479;;;;;;;;;;0.0500894;-0.622152;-0.0357732;0.62519;-6.18699;-0.00292194;0.000800322;0.0142752;0.0143123;-0.00295911;0.00863572;0.204687;4.88551;0.0106656;0.0115143;4.83671;0.206752;80.9585;125.959;0.000449209;-0.0029238;-0.000504313;0.00208284;0.0142754;0.00862799;0.0104586;0;0.019373;-0.124654;-2.23863;-1.04685;2.47445;-7.0501;-0.0156203;0.0126019;0.216966;0.217647;-0.0163011;0.116974;0.0719941;13.89;0.150826;0.155965;13.3517;0.0748969;80.2598;125.26;0.0543494;-0.0162011;-0.0164354;0.0360831;0.216921;-0.0122791;0.0484575;0;0.204265;8.69388;3.40171
479000;480;;;;;;;;;;0.0492753;-0.621669;-0.0357908;0.624645;-6.187;-0.00293077;0.000968832;0.0140775;0.0141325;-0.00298578;0.00855914;0.208188;4.80335;0.0105586;0.0114122;4.73327;0.21127;80.4872;125.487;0.000838498;-0.00293273;-0.000287033;0.00220363;0.0140779;0.00759464;0.0105661;0;0.024029;-0.123276;-2.25979;-1.05589;2.49735;-7.06666;-0.0173962;0.00484716;0.224597;0.224694;-0.0174932;0.121093;0.0774552;12.9107;0.155954;0.161458;12.8446;0.0778537;84.7005;129.7;0.0260985;-0.0175822;-0.0136933;0.0197228;0.22453;-0.00315352;0.0544205;0;0.189996;8.69694;3.40902
480000;481;;;;;;;;;;0.0490943;-0.62194;-0.0354488;0.624881;-6.18666;-0.00285115;0.000775257;0.0143184;0.0143533;-0.00288609;0.00861971;0.199125;5.02197;0.0106619;0.0114929;4.97329;0.201074;81.1554;126.155;0.000585291;-0.00285295;-0.00051734;0.00204597;0.0143186;0.00854057;0.00965957;0;0.018481;-0.123952;-2.26056;-1.06094;2.50022;-7.06566;-0.0178686;0.0105389;0.221349;0.221813;-0.018332;0.120072;0.0807259;12.3876;0.154349;0.160096;12.0997;0.0826464;82.1201;127.12;0.0513007;-0.0182551;-0.0130401;0.0294961;0.221325;-0.000881689;0.0812681;0;0.207692;8.69524;3.41663
481000;482;;;;;;;;;;0.0495159;-0.621095;-0.0362452;0.624119;-6.18746;-0.00282009;0.000932089;0.0146348;0.0146844;-0.00286972;0.00877708;0.192697;5.18948;0.0108732;0.0117028;5.11703;0.195426;81.116;126.116;0.00109358;-0.00282197;-0.000306268;0.00214914;0.0146352;0.00691639;0.0101847;0;0.0227419;-0.124319;-2.28132;-1.07109;2.52332;-7.08387;-0.0164417;0.0115948;0.224076;0.224633;-0.0169993;0.120816;0.0733755;13.6285;0.155732;0.161089;13.2143;0.0756759;81.9;126.9;0.0292192;-0.0168591;-0.0124475;0.030909;0.224067;-0.0184407;0.0744791;0;0.200198;8.68547;3.42476
482000;483;;;;;;;;;;0.0487173;-0.618893;-0.0368375;0.6219;-6.18805;-0.00288743;0.000902896;0.0145088;0.0145555;-0.00293417;0.00874483;0.199013;5.0248;0.0108152;0.0116598;4.96069;0.201585;80.8912;125.891;0.000454042;-0.00288937;-0.000381654;0.00216542;0.0145091;0.00806479;0.0111493;0;0.0270604;-0.129821;-2.28029;-1.07503;2.52433;-7.08524;-0.0183608;0.0152328;0.236002;0.236911;-0.0192698;0.128091;0.0777993;12.8536;0.16474;0.170787;12.2944;0.0813376;80.4693;125.469;0.0480626;-0.0189957;-0.0140044;0.0384455;0.236017;-0.0023845;0.0223492;0;0.203296;8.66674;3.43102
483000;484;;;;;;;;;;0.0495199;-0.621453;-0.0289803;0.624096;-6.18019;-0.00298078;0.000683853;0.0145286;0.0145552;-0.00300744;0.00878133;0.205167;4.87408;0.0108459;0.0117084;4.83973;0.206623;81.5178;126.518;0.000795025;-0.00298247;-0.000614741;0.00196003;0.0145286;0.00856131;0.0108876;0;0.0198325;-0.129297;-2.28205;-1.0639;2.52118;-7.06081;-0.0193982;0.0111122;0.240748;0.241222;-0.0198719;0.130547;0.0805745;12.4109;0.167831;0.174063;12.1388;0.0823804;82.4258;127.426;0.0382143;-0.019819;-0.0138053;0.0308012;0.240721;-0.0249917;0.0425394;0;0.206454;8.64563;3.43857
484000;485;;;;;;;;;;0.0503267;-0.619393;-0.034079;0.622368;-6.18529;-0.00275424;0.00110065;0.014692;0.0147612;-0.0028234;0.00879229;0.187465;5.33432;0.0109044;0.0117231;5.22815;0.191272;80.1283;125.128;0.000801116;-0.00275658;-0.000248032;0.00242613;0.0146926;0.00791014;0.0107991;0;0.0230255;-0.131672;-2.29734;-1.07445;2.5396;-7.08018;-0.0178612;0.0107668;0.241312;0.241758;-0.0183077;0.130033;0.0740171;13.5104;0.167608;0.173377;13.2053;0.0757273;81.9973;126.997;0.0477372;-0.018345;-0.0168981;0.0326507;0.241243;-0.017577;0.0248845;0;0.181981;8.60386;3.43798
485000;486;;;;;;;;;;0.0512115;-0.621728;-0.0272534;0.624429;-6.17847;-0.00279298;0.000808583;0.0146723;0.0147097;-0.00283034;0.00876999;0.190357;5.25327;0.0108734;0.0116933;5.19714;0.192414;81.4098;126.41;0.000863665;-0.00279477;-0.000460566;0.00205588;0.0146725;0.00756921;0.0100186;0;0.0190689;-0.131158;-2.28613;-1.06995;2.52753;-7.06143;-0.0193425;0.0102404;0.245273;0.245669;-0.0197382;0.132704;0.0788612;12.6805;0.170739;0.176938;12.4463;0.0803448;82.43;127.43;0.0441126;-0.0197868;-0.0164327;0.0312413;0.245207;0.0115905;0.0622586;0;0.211267;8.61709;3.44476
486000;487;;;;;;;;;;0.0505453;-0.62036;-0.0272459;0.623012;-6.17846;-0.00293579;0.000743147;0.0146712;0.0147025;-0.0029671;0.00883481;0.200105;4.99737;0.0109258;0.0117797;4.95519;0.201809;81.8977;126.898;0.000701889;-0.00293736;-0.000455272;0.00192077;0.0146714;0.00844197;0.00976543;0;0.0252504;-0.132679;-2.3092;-1.07688;2.55141;-7.08187;-0.0196509;0.0133976;0.246199;0.246873;-0.0203244;0.133599;0.0798172;12.5286;0.171758;0.178131;12.1466;0.0823275;81.1981;126.198;0.0425741;-0.0202484;-0.0162953;0.0367493;0.246165;-0.00309213;0.0694611;0;0.204439;8.62417;3.45277
487000;488;;;;;;;;;;0.0508155;-0.621668;-0.0226972;0.624155;-6.17391;-0.00282236;0.000845982;0.0146854;0.0147262;-0.00286314;0.00879465;0.192188;5.20323;0.0108979;0.0117262;5.14335;0.194426;81.0788;126.079;0.00083297;-0.00282429;-0.000468949;0.00213822;0.0146856;0.00849203;0.00986593;0;0.0342359;-0.132482;-2.30641;-1.07598;2.54849;-7.06962;-0.0210363;0.0145349;0.256874;0.257633;-0.0217944;0.139713;0.0818931;12.211;0.179462;0.186285;11.8211;0.0845948;81.4093;126.409;0.0616082;-0.0216453;-0.0149104;0.0374623;0.25687;-0.0298747;0.081935;0;0.226062;8.6279;3.45928
488000;489;;;;;;;;;;0.0501021;-0.618661;-0.027414;0.621291;-6.17863;-0.00292855;0.000866445;0.0148036;0.0148459;-0.00297079;0.00890832;0.197827;5.05493;0.0110218;0.0118778;4.99728;0.200109;81.336;126.336;0.000287799;-0.00293038;-0.000386618;0.00209761;0.0148039;0.00857954;0.0102738;0;0.0254712;-0.136517;-2.33525;-1.09262;2.58183;-7.10244;-0.0199556;0.0145014;0.261221;0.261967;-0.0207016;0.141334;0.0763936;13.0901;0.181938;0.188446;12.6545;0.0790234;82.09;127.09;0.0519813;-0.0204819;-0.0121893;0.0352359;0.261246;-0.0721469;0.0592415;0;0.205159;8.60568;3.46706
489000;490;;;;;;;;;;0.0501533;-0.617872;-0.0224905;0.620312;-6.1737;-0.0028919;0.000780747;0.0145535;0.0145884;-0.00292677;0.00875758;0.198708;5.0325;0.0108338;0.0116768;4.98446;0.200624;81.4272;126.427;7.33967e-05;-0.00289364;-0.000480156;0.00201997;0.0145537;0.00932252;0.00930193;0;0.0212725;-0.139447;-2.35157;-1.09755;2.59883;-7.1038;-0.0225777;0.0133788;0.262289;0.262916;-0.0232047;0.14306;0.0860794;11.6172;0.183502;0.190747;11.3303;0.0882587;82.404;127.404;0.028685;-0.0230673;-0.0128746;0.0337022;0.262295;-0.0426315;0.0700033;0;0.20312;8.5706;3.48232
490000;491;;;;;;;;;;0.0509151;-0.615524;-0.0232755;0.618065;-6.17449;-0.00291227;0.000728438;0.0146579;0.0146881;-0.00294241;0.00881524;0.198682;5.03316;0.010906;0.0117536;4.99184;0.200327;81.7722;126.772;0.000722311;-0.00291389;-0.00050744;0.00194291;0.014658;0.0077707;0.0105458;0;0.0345045;-0.14121;-2.35953;-1.10339;2.6086;-7.11486;-0.0241937;0.0141394;0.268334;0.269016;-0.0248756;0.146946;0.0901628;11.091;0.188185;0.195928;10.8145;0.0924688;82.1311;127.131;0.0442438;-0.0247425;-0.0138221;0.0356457;0.268337;-0.0535202;0.0400901;0;0.200353;8.46633;3.48224
491000;492;;;;;;;;;;0.050269;-0.615062;-0.0225934;0.617526;-6.17381;-0.00298192;0.000817353;0.0145678;0.0146058;-0.0030199;0.00881285;0.204692;4.88539;0.0108844;0.0117505;4.83652;0.20676;81.7575;126.757;-0.000143114;-0.0029835;-0.000342628;0.00195727;0.0145681;0.009958;0.008976;0;0.019151;-0.139294;-2.36277;-1.10355;2.61149;-7.11724;-0.0217989;0.00744742;0.269863;0.270053;-0.021989;0.146021;0.0807779;12.3796;0.187794;0.194694;12.2813;0.0814248;83.9594;128.959;0.0524497;-0.0221443;-0.0179857;0.0270364;0.269757;-0.0487549;0.0651954;0;0.206229;8.46684;3.48231
492000;493;;;;;;;;;;0.0499645;-0.617251;-0.0219989;0.619661;-6.17321;-0.00298384;0.00067058;0.0147959;0.0148212;-0.00300909;0.00891514;0.201666;4.95869;0.0110216;0.0118868;4.92547;0.203026;82.193;127.193;0.00023089;-0.00298532;-0.000527199;0.00184737;0.014796;0.0103124;0.0104289;0;0.0206673;-0.137772;-2.37286;-1.10869;2.62272;-7.12285;-0.0239105;0.0106685;0.267901;0.26829;-0.0243;0.146295;0.0892514;11.2043;0.187486;0.19506;11.0407;0.0905736;83.397;128.397;0.0603034;-0.0243013;-0.0139365;0.029607;0.267869;-0.0125831;0.0394855;0;0.226646;8.51383;3.48907
493000;494;;;;;;;;;;0.0503136;-0.616117;-0.0241564;0.618639;-6.17537;-0.00285822;0.000824401;0.0146274;0.0146662;-0.002897;0.00878158;0.195402;5.11766;0.0108725;0.0117088;5.06253;0.19753;81.2468;126.247;0.000634222;-0.00286006;-0.000457903;0.0020846;0.0146276;0.00833002;0.00975721;0;0.019902;-0.142146;-2.40286;-1.11823;2.65412;-7.14329;-0.018759;0.0166729;0.26583;0.266803;-0.0197325;0.143268;0.0705678;14.1708;0.184798;0.191024;13.521;0.073959;80.7762;125.776;0.0420947;-0.0195157;-0.0159879;0.0419809;0.265839;-0.0505974;0.0371092;0;0.212334;8.5429;3.50176
494000;495;;;;;;;;;;0.0503952;-0.613421;-0.0192946;0.61579;-6.17051;-0.00287832;0.000654679;0.0146506;0.014675;-0.00290274;0.00878888;0.196464;5.08999;0.0108808;0.0117185;5.05559;0.197801;82.3386;127.339;-5.22609e-05;-0.00287973;-0.000511864;0.00180107;0.0146507;0.0101986;0.0101044;0;0.0190982;-0.148429;-2.44192;-1.13706;2.69776;-7.17902;-0.0209105;0.0158695;0.279876;0.280711;-0.0217455;0.151228;0.0747135;13.3845;0.194794;0.201638;12.9089;0.0774657;81.3509;126.351;0.0495556;-0.0216492;-0.0172597;0.0412036;0.279858;-0.0190426;0.0206309;0;0.190257;8.45017;3.51668
495000;496;;;;;;;;;;0.0500619;-0.612264;-0.0143985;0.614476;-6.16561;-0.00304421;0.000703705;0.0145709;0.014599;-0.00307228;0.00883562;0.208924;4.78643;0.010902;0.0117808;4.75184;0.210445;82.1591;127.159;-0.00016991;-0.00304565;-0.00044507;0.00183253;0.0145711;0.0106174;0.010014;0;0.019791;-0.158491;-2.50536;-1.13703;2.75587;-7.24442;-0.00889041;-0.00170819;0.310246;0.310255;-0.00889955;0.159577;0.028656;34.8967;0.209866;0.21277;34.8618;0.0286847;86.2213;131.221;0.0368862;-0.00908609;-0.0300982;0.0197676;0.309901;-0.0235923;-0.0372285;0;0.153994;8.35772;3.51857
496000;497;;;;;;;;;;0.051356;-0.611624;-0.0206734;0.614124;-6.17189;-0.00292327;0.000590573;0.0146831;0.0147029;-0.00294305;0.00882299;0.19909;5.02286;0.010916;0.011764;4.99581;0.200168;82.7123;127.712;4.2993e-06;-0.00292454;-0.00054093;0.00170244;0.0146832;0.00991938;0.01024;0;0.0197413;-0.149541;-2.459;-1.13521;2.71252;-7.18364;-0.018216;0.0130015;0.290031;0.290579;-0.0187634;0.154671;0.0628069;15.9218;0.200267;0.206228;15.4865;0.0645724;82.4303;127.43;0.0392435;-0.0188403;-0.018992;0.0373432;0.289957;-0.0188729;0.00634403;0;0.150463;8.36531;3.5189
497000;498;;;;;;;;;;0.0511459;-0.612556;-0.0162787;0.614904;-6.16749;-0.00302871;0.000544504;0.0148804;0.0148969;-0.00304525;0.00897108;0.203537;4.9131;0.0110867;0.0119614;4.89185;0.204422;83.1364;128.136;0.000367169;-0.00302987;-0.000542847;0.00161267;0.0148804;0.00950377;0.0105526;0;0.0200332;-0.148001;-2.44831;-1.14029;2.70488;-7.17186;-0.0205284;0.0166167;0.287883;0.288776;-0.0214211;0.155098;0.0713082;14.0236;0.20004;0.206798;13.4809;0.0741791;81.43;126.43;0.0515833;-0.0212926;-0.0169062;0.0421018;0.287879;-0.0247738;-0.00683368;0;0.204321;8.39138;3.52663
498000;499;;;;;;;;;;0.0527248;-0.612009;-0.0159026;0.614482;-6.16711;-0.00279672;0.000812179;0.0146673;0.014705;-0.00283441;0.0087697;0.190678;5.24446;0.010872;0.0116929;5.18802;0.192752;81.7775;126.778;0.000222038;-0.00279835;-0.000372883;0.00197684;0.0146676;0.00947397;0.010701;0;0.0205923;-0.14964;-2.4551;-1.14539;2.71327;-7.17786;-0.023978;0.0155578;0.303331;0.304069;-0.0247158;0.164392;0.0790489;12.6504;0.211433;0.21919;12.3026;0.0812837;82.6105;127.611;0.0301533;-0.0245954;-0.0144722;0.0380392;0.303343;-0.0407502;0.0297949;0;0.226098;8.40511;3.53397
499000;500;;;;;;;;;;0.0519431;-0.609659;-0.013076;0.612007;-6.16429;-0.00286815;0.000471774;0.0145694;0.0145822;-0.00288091;0.00873155;0.196861;5.07973;0.0108105;0.0116421;5.06166;0.197563;83.2467;128.247;0.000368545;-0.00286924;-0.000618783;0.00154359;0.0145694;0.00904339;0.0114354;0;0.0235299;-0.152972;-2.51515;-1.15487;2.77184;-7.20942;-0.024554;0.0230287;0.298503;0.300136;-0.0261874;0.163162;0.0822573;12.157;0.209367;0.217549;11.4611;0.0872516;79.7702;124.77;0.0581258;-0.0256881;-0.0160391;0.0523586;0.298608;-0.0162008;1.39996e-05;0;0.161863;8.3403;3.54922
500000;501;;;;;;;;;;0.0517105;-0.606952;-0.00699405;0.609191;-6.15821;-0.00294838;0.000497783;0.0146071;0.0146212;-0.00296248;0.00879187;0.201845;4.95429;0.0108704;0.0117225;4.93547;0.202615;83.3458;128.346;-0.000260485;-0.00294943;-0.000551878;0.00152928;0.0146071;0.0104699;0.010472;0;0.0204512;-0.152943;-2.52745;-1.15427;2.78275;-7.20236;-0.0156719;0.0181184;0.299956;0.300993;-0.0167086;0.158851;0.0522473;19.1397;0.206457;0.211801;18.0143;0.0555115;80.7475;125.748;0.0522728;-0.0166678;-0.0211413;0.0478314;0.29991;0.00105747;0.0129856;0;0.178762;8.222;3.55177
501000;502;;;;;;;;;;0.05266;-0.606344;-0.00980742;0.608705;-6.16102;-0.00294744;0.000711673;0.0144111;0.0144403;-0.00297657;0.00870841;0.204525;4.88937;0.0107572;0.0116112;4.85131;0.20613;82.3892;127.389;-4.63922e-05;-0.00294876;-0.00036965;0.00177449;0.0144113;0.00948724;0.010391;0;0.0253262;-0.152602;-2.53127;-1.16071;2.78888;-7.20925;-0.0180164;0.0198607;0.300603;0.301836;-0.0192496;0.160543;0.0599341;16.685;0.207938;0.214057;15.6801;0.063775;80.6946;125.695;0.05048;-0.0189977;-0.0176604;0.0481756;0.300634;0.00400919;0.0373745;0;0.190657;8.17792;3.55366
502000;503;;;;;;;;;;0.0530169;-0.60507;-0.0109775;0.607487;-6.16219;-0.00283983;0.000866612;0.0143388;0.0143824;-0.00288344;0.00863294;0.198052;5.04919;0.01068;0.0115106;4.98795;0.200483;81.4142;126.414;0.000325436;-0.00284151;-0.00031055;0.00202384;0.0143392;0.00892421;0.0111777;0;0.0177919;-0.15182;-2.52301;-1.15442;2.77873;-7.1968;-0.0186658;0.0123787;0.314493;0.314952;-0.0191251;0.167039;0.0593521;16.8486;0.216625;0.222718;16.468;0.0607239;82.9541;127.954;0.0549773;-0.0193088;-0.0214312;0.0376123;0.314377;-0.023637;0.0276681;0;0.181103;8.21828;3.55617
502001;504;;;;;;;;;;;;;;;;;;;;;;;;;;;;;;;;;;;;;;;;;;;;;;;;;;;;;;;;;;;;;;;;;;8.23647;3.55718
502002;505;;;;;;;;;;;;;;;;;;;;;;;;;;;;;;;;;;;;;;;;;;;;;;;;;;;;;;;;;;;;;;;;;;8.23647;3.55718
