Time;Image index (Image index);Distance L(t) (Extensometer 1);Change in distance (Extensometer 1);Strain - RC (Extensometer 1);Distance x L(t) (Extensometer 1);Distance y L(t) (Extensometer 1);Distance z L(t) (Extensometer 1);Change in distance x (Extensometer 1);Change in distance y (Extensometer 1);Change in distance z (Extensometer 1);X-displacement (Strain Gauge 1);Y-displacement (Strain Gauge 1);Z-displacement (Strain Gauge 1);Displacement (Strain Gauge 1);Height (Strain Gauge 1);Exx - RC (Strain Gauge 1);Exy - RC (Strain Gauge 1);Eyy - RC (Strain Gauge 1);Max. principal strain - RC (Strain Gauge 1);Min. principal strain - RC (Strain Gauge 1);Max. shear strain - RC (Strain Gauge 1);Poisson ratio -Exx/Eyy (Strain Gauge 1);Poisson ratio -Eyy/Exx (Strain Gauge 1);Von Mises - RC (Strain Gauge 1);Tresca - RC (Strain Gauge 1);Poisson ratio -strain max/min (Strain Gauge 1);Poisson ratio -strain min/max (Strain Gauge 1);Max. strain angle (Strain Gauge 1);Max. shear angle (Strain Gauge 1);Vorticity-z (Strain Gauge 1);du/dx (Strain Gauge 1);du/dy (Strain Gauge 1);dv/dx (Strain Gauge 1);dv/dy (Strain Gauge 1);dw/dx (Strain Gauge 1);dw/dy (Strain Gauge 1);Ezz plane stress state (Strain Gauge 1);Stereo reconstruction error (Strain Gauge 1);X-displacement (Strain Gauge 2);Y-displacement (Strain Gauge 2);Z-displacement (Strain Gauge 2);Displacement (Strain Gauge 2);Height (Strain Gauge 2);Exx - RC (Strain Gauge 2);Exy - RC (Strain Gauge 2);Eyy - RC (Strain Gauge 2);Max. principal strain - RC (Strain Gauge 2);Min. principal strain - RC (Strain Gauge 2);Max. shear strain - RC (Strain Gauge 2);Poisson ratio -Exx/Eyy (Strain Gauge 2);Poisson ratio -Eyy/Exx (Strain Gauge 2);Von Mises - RC (Strain Gauge 2);Tresca - RC (Strain Gauge 2);Poisson ratio -strain max/min (Strain Gauge 2);Poisson ratio -strain min/max (Strain Gauge 2);Max. strain angle (Strain Gauge 2);Max. shear angle (Strain Gauge 2);Vorticity-z (Strain Gauge 2);du/dx (Strain Gauge 2);du/dy (Strain Gauge 2);dv/dx (Strain Gauge 2);dv/dy (Strain Gauge 2);dw/dx (Strain Gauge 2);dw/dy (Strain Gauge 2);Ezz plane stress state (Strain Gauge 2);Stereo reconstruction error (Strain Gauge 2);Load ADC 1 channel 1;Position ADC 1 channel 2
ms;;mm;mm;S;mm;mm;mm;mm;mm;mm;mm;mm;mm;mm;mm;S;S;S;S;S;S;;;S;S;;;°;°;S;S;S;S;S;S;S;S;pixel;mm;mm;mm;mm;mm;S;S;S;S;S;S;;;S;S;;;°;°;S;S;S;S;S;S;S;S;pixel;kN;mm
0.02515;1;25.755;0;0;-2.18903;25.6617;0.0289083;0;0;0;0;0;0;0;-6.07817;-4.44089e-16;-6.93889e-17;0;1.05895e-17;-4.54679e-16;2.32634e-16;;;3.0671e-16;3.10179e-16;;;0;45;0;-4.44089e-16;-8.32667e-17;-5.55112e-17;0;0;0;0;0;0;0;0;0;-6.05259;0;6.93889e-18;0;6.93889e-18;-6.93889e-18;6.93889e-18;;;8.01234e-18;9.25186e-18;;;0;45;0;0;4.16334e-17;-2.77556e-17;0;0;0;0;0;-0.0134974;0.206297
1000.03;2;25.7562;0.00127225;4.93982e-05;-2.18885;25.663;0.035278;0.000186608;0.00128482;0.00636973;-0.000315693;-0.00374813;-0.00238588;0.00445427;-6.08056;-0.000347056;-0.000188905;-4.45196e-05;4.62186e-05;-0.000437794;0.000242006;-7.79558;-0.128278;0.000308425;0.000322675;0.105572;9.47225;47.4225;92.4225;0.000251947;-0.000347038;-0.00037488;-2.98554e-06;-4.4572e-05;0.000696947;0.000785342;0;0.0102028;-0.000263976;-0.00363637;-0.00476566;0.00600037;-6.05736;0.000683976;4.42164e-05;0.000659803;0.000717728;0.000626051;4.58386e-05;-1.03664;-0.964658;0.000451043;6.11182e-05;-1.14644;-0.872267;27.1969;72.1969;-0.000177218;0.000683934;-0.000204735;0.000293174;0.000659783;0.00650074;0.00128191;0;0.0246636;-0.0129405;0.21391
2000.03;3;25.7526;-0.00232321;-9.02045e-05;-2.18985;25.6594;0.0159173;-0.000813117;-0.00238969;-0.0129909;-0.000748764;-0.0078287;-0.00541199;0.00954667;-6.08359;-0.000370401;-7.30693e-05;0.00012832;0.000138805;-0.000380886;0.000259846;2.88655;0.346434;0.000310705;0.000346461;0.364426;2.74404;27.5349;72.5349;0.000737786;-0.000370399;-0.000170181;2.39937e-05;0.000128308;-0.000870498;0.00199292;0;0.0199052;-0.000351591;-0.00793893;-0.0128248;0.0150873;-6.06542;0.00101012;-0.000103686;0.00076452;0.00104804;0.000726602;0.000160719;-1.32125;-0.75686;0.000619975;0.000214292;-1.44239;-0.693296;157.697;22.6967;-0.000200321;0.00101013;-0.000172493;-3.48615e-05;0.000764511;0.012365;-0.00113056;0;0.0305367;-0.0124429;0.221211
3000.03;4;25.7545;-0.00046568;-1.80812e-05;-2.19076;25.6611;0.0176173;-0.0017251;-0.000604353;-0.0112909;-0.000663212;-0.0121237;-0.00500817;0.0131341;-6.08318;-0.000511463;-0.000341105;0.000468349;0.000575402;-0.000618516;0.000596959;1.09205;0.915705;0.000689459;0.000795945;0.930295;1.07493;59.7158;104.716;0.00141529;-0.000511411;-0.000568284;-0.000114148;0.000468245;-0.00137114;0.000479754;0;0.0251489;-0.000194345;-0.0116533;-0.0171521;0.0207372;-6.06975;0.001083;-0.000135811;0.000931601;0.00116278;0.000851818;0.000155483;-1.16252;-0.860203;0.000695119;0.000207311;-1.36506;-0.732567;145.299;10.2989;0.0006603;0.00108301;-0.000287163;1.55644e-05;0.000931569;0.0112105;0.000388091;0;0.0360175;-0.0121213;0.228928
4000.03;5;25.7531;-0.00188792;-7.33032e-05;-2.19107;25.6597;0.0113699;-0.00203235;-0.00205447;-0.0175384;-0.000316671;-0.0158737;-0.00643049;0.0171297;-6.0846;-0.000508561;-0.000213479;4.59212e-05;0.000118588;-0.000581228;0.000349908;11.0746;0.0902964;0.000432469;0.000466544;0.204031;4.90122;43.4;88.4;0.00144154;-0.000508539;-0.000481467;5.43611e-05;4.58281e-05;-0.00281678;0.000917985;0;0.0200863;0.000112482;-0.014794;-0.0224103;0.0268533;-6.075;0.000982913;1.07899e-05;0.00074517;0.000983402;0.000744681;0.000119361;-1.31905;-0.758123;0.000592287;0.000159147;-1.32057;-0.75725;174.73;39.7298;-0.00115023;0.000982881;-0.00023271;0.000254347;0.000745143;0.0133721;0.00321409;0;0.0373036;-0.0116716;0.236144
5000.03;6;25.7532;-0.00172349;-6.69189e-05;-2.19115;25.6598;0.00849969;-0.00211869;-0.00189571;-0.0204086;-0.0001562;-0.01824;-0.00883081;0.0202659;-6.087;-0.000458469;-0.000116662;0.000402551;0.000418078;-0.000473996;0.000446037;1.13891;0.878033;0.000515376;0.000594716;0.882028;1.13375;50.3096;95.3096;0.00149838;-0.000458489;-0.000467906;0.000234279;0.000402448;-0.000970854;0.00290467;0;0.020602;-7.50564e-05;-0.0171368;-0.0274231;0.0323373;-6.08002;0.000960049;-3.18182e-05;0.000675779;0.000963567;0.000672261;0.000145653;-1.42066;-0.7039;0.000570624;0.000194204;-1.43332;-0.697679;161.859;26.8587;-0.000178312;0.000959996;-0.000390523;0.000326989;0.000675703;0.0109662;0.00340769;0;0.0368417;-0.0116543;0.243766
6000.03;7;25.7536;-0.00134287;-5.21404e-05;-2.19177;25.6602;0.00965155;-0.00273656;-0.00156688;-0.0192567;-0.000798602;-0.0208458;-0.00956939;0.0229512;-6.08774;-0.00049405;-0.000357828;-0.000287963;-1.86375e-05;-0.000763376;0.00037237;-1.71567;-0.582862;0.00050282;0.000496493;-0.0244145;-40.9593;54.725;99.725;0.00190554;-0.00049399;-0.000636776;-7.89385e-05;-0.000288102;-0.000497453;0.00430252;0;0.0153781;-0.000526711;-0.0193172;-0.0317997;0.0372109;-6.08439;0.00102307;-3.26062e-06;0.000592918;0.00102309;0.000592893;0.000215099;-1.72548;-0.57955;0.000593166;0.000286798;-1.72559;-0.579512;169.954;34.9542;-0.00053228;0.00102303;-0.000285179;0.000278779;0.000592878;0.0142698;0.00346377;0;0.0378368;-0.0114843;0.251314
7000.03;8;25.753;-0.00193662;-7.5194e-05;-2.19295;25.6595;0.00670814;-0.00391893;-0.00226287;-0.0222001;-0.00181008;-0.0224481;-0.0156614;0.0274312;-6.09383;-0.000364457;-2.29932e-05;-4.23744e-05;-4.07412e-05;-0.00036609;0.000162675;-8.60089;-0.116267;0.000231677;0.000216899;-0.111287;-8.98576;33.1236;78.1236;0.00215888;-0.000364503;-0.000349969;0.000303877;-4.24354e-05;-0.00113186;0.00383466;0;0.0171622;-0.00137554;-0.0210697;-0.0415432;0.0466011;-6.09414;0.00129548;-0.000144264;0.000783408;0.00133333;0.000745562;0.000293883;-1.65365;-0.604722;0.000771593;0.000391844;-1.78835;-0.559174;157.778;22.7782;-0.000356809;0.00129548;-0.000423882;0.000135498;0.000783328;0.0157812;0.00483613;0;0.037279;-0.0112584;0.259035
8000.03;9;25.7518;-0.00319605;-0.000124094;-2.19224;25.6583;0.00179093;-0.00320706;-0.00346524;-0.0271173;-0.00270345;-0.0254095;-0.0164017;0.0303639;-6.09457;-0.00038867;7.32261e-05;0.000274929;0.000282913;-0.000396654;0.000339783;1.41371;0.707358;0.000394176;0.000453045;0.713249;1.40204;34.3304;79.3304;0.00155078;-0.000388762;-0.000289874;0.000436086;0.000274889;0.000968919;0.000735514;0;0.0162646;-0.00217115;-0.0239554;-0.0454069;0.0513845;-6.098;0.00112768;-0.000220514;0.000804883;0.00123955;0.000693013;0.00027327;-1.40105;-0.713748;0.00071732;0.00036436;-1.78864;-0.559083;143.678;8.67795;0.00181477;0.0011277;-0.000550607;0.000109685;0.000804755;0.0139836;0.000941711;0;0.036887;-0.011296;0.265928
9000.03;10;25.7532;-0.00171343;-6.65282e-05;-2.19426;25.6596;0.00530057;-0.00522705;-0.00215037;-0.0236077;-0.00326671;-0.0284399;-0.0177942;0.0337065;-6.09597;-0.000386069;-7.04549e-05;0.000208883;0.000217112;-0.000394298;0.000305705;1.84825;0.541051;0.000357905;0.000407607;0.55063;1.8161;43.1775;88.1775;0.00199338;-0.00038609;-0.000360704;0.000219622;0.00020882;0.0010548;0.00179801;0;0.0152322;-0.00311927;-0.0268959;-0.0509327;0.0576824;-6.10353;0.00124516;-0.000212322;0.000999164;0.00136754;0.000876785;0.000245375;-1.2462;-0.80244;0.000799964;0.000327167;-1.55971;-0.641143;147.514;12.5139;0.00113156;0.00124517;-0.000311696;-0.000112924;0.000999138;0.0156823;0.00743337;0;0.0355717;-0.0111772;0.273062
10000;11;25.7536;-0.00133033;-5.16532e-05;-2.19446;25.66;0.0033361;-0.00542227;-0.00178223;-0.0255722;-0.00343558;-0.0303441;-0.0192817;0.0361158;-6.09745;-0.000453659;-2.04533e-05;-5.01843e-06;-4.0879e-06;-0.00045459;0.000225251;;;0.000301706;0.000300335;;;31.016;76.016;0.00156342;-0.000453713;-0.000371122;0.000330058;-5.08708e-06;0.00209776;0.00140347;0;0.0155143;-0.00336185;-0.0281387;-0.0566674;0.0633583;-6.10926;0.00108799;-0.000167068;0.000873381;0.00117924;0.000782125;0.000198559;-1.24572;-0.80275;0.000692825;0.000264745;-1.50774;-0.663244;142.671;7.67144;0.00139597;0.00108799;-0.000474084;0.000140014;0.000873282;0.0143428;0.00751978;0;0.0341317;-0.0112059;0.277789
11000;12;25.7533;-0.00164098;-6.3715e-05;-2.1931;25.6598;-0.00266183;-0.00406892;-0.00197823;-0.0315701;-0.00402149;-0.0306947;-0.0299177;0.0430512;-6.10809;-0.000374173;0.000181551;0.000443341;0.000481846;-0.000412678;0.000447262;0.843985;1.18486;0.000516968;0.000596349;1.16761;0.856452;36.1156;81.1156;0.00168556;-0.000374282;-0.000138464;0.000501305;0.000443348;0.000410377;0.000822002;0;0.0166051;-0.00409191;-0.0298637;-0.0681687;0.0745356;-6.12076;0.0011558;-0.000224844;0.00127131;0.0014457;0.000981412;0.000232143;-0.909139;-1.09994;0.000852288;0.000309524;-1.47308;-0.67885;129.228;174.228;0.00185784;0.00115578;-0.000164095;-0.000285585;0.00127132;0.0115667;0.00731336;0;0.0367121;-0.0108005;0.280984
12000;13;25.7561;0.00111147;4.31557e-05;-2.19498;25.6624;0.00617417;-0.00594437;0.000623305;-0.0227341;-0.00543886;-0.0344802;-0.0248341;0.0428392;-6.10301;-0.000366142;0.000135688;0.000312564;0.000338686;-0.000392264;0.000365475;1.17141;0.853669;0.000422392;0.0004873;0.863414;1.15819;30.8262;75.8262;0.00150278;-0.000366201;-9.73166e-05;0.000368534;0.000312569;0.00100811;0.00239903;0;0.0173637;-0.00564194;-0.0332922;-0.0664184;0.0745091;-6.11901;0.00105222;-4.82817e-05;0.000973019;0.00107506;0.000950175;6.24447e-05;-1.0814;-0.924729;0.00067892;8.32596e-05;-1.13144;-0.883831;148.659;13.6588;0.00247428;0.00105221;-0.000264493;0.000167947;0.000972985;0.00824412;0.00420333;0;0.0324472;-0.0107769;0.287877
13000;14;25.7541;-0.000901714;-3.50113e-05;-2.19311;25.6605;-0.0077495;-0.00407954;-0.00123821;-0.0366577;-0.00427303;-0.0393135;-0.0213238;0.0449279;-6.0995;-0.000466077;0.000311803;0.000507765;0.000599042;-0.000557354;0.000578198;0.917899;1.08944;0.00066779;0.000770931;1.0748;0.930409;35.5878;80.5878;0.00111717;-0.000466107;0.000226944;0.000396579;0.000507788;-8.95673e-05;0.000574268;0;0.0217125;-0.00480916;-0.0384289;-0.0682664;0.078487;-6.12086;0.00107481;3.61592e-05;0.000967888;0.00108589;0.000956807;6.45397e-05;-1.11047;-0.900523;0.000684964;8.60529e-05;-1.13491;-0.88113;13.9701;58.9701;0.00147696;0.0010748;-7.37085e-05;0.000146039;0.000967885;0.00304097;0.00143864;0;0.0348886;-0.0102193;0.294355
14000;15;25.7559;0.000950443;3.69033e-05;-2.19298;25.6624;-0.00445803;-0.00394166;0.000633261;-0.0333663;-0.00386024;-0.0406006;-0.0280488;0.0494979;-6.10622;-0.000345213;0.000340105;0.000352367;0.000490738;-0.000483584;0.000487161;0.979696;1.02072;0.00056253;0.000649548;1.01479;0.985421;23.3741;68.3741;0.00151988;-0.000345301;0.000139145;0.000540925;0.000352415;0.000170938;0.00305794;0;0.0243046;-0.00486972;-0.0394447;-0.0781993;0.0877196;-6.13079;0.0009929;1.33242e-06;0.00108723;0.00108725;0.000992881;4.71842e-05;-0.913238;-1.09501;0.000695514;6.29122e-05;-1.09504;-0.913205;94.1902;139.19;0.00120109;0.000992884;0.0001849;-0.000182218;0.00108721;0.00466824;0.00120608;0;0.0387999;-0.00971334;0.30196
15000;16;25.7596;0.00462246;0.000179479;-2.19202;25.6661;-0.0044119;-0.00298478;0.00440041;-0.0333202;-0.00409022;-0.0408636;-0.032971;0.0526654;-6.11114;-0.000361949;3.40454e-05;0.000697782;0.000698875;-0.000363042;0.000530958;0.518713;1.92785;0.000623234;0.000707945;1.92505;0.519466;78.6693;123.669;0.00112457;-0.000361953;-2.37651e-05;9.17947e-05;0.000697783;0.000720767;0.0031303;0;0.0343643;-0.00501933;-0.042713;-0.0804498;0.0912237;-6.13304;0.000827361;-3.72203e-05;0.00120565;0.00120928;0.000823734;0.000192772;-0.686237;-1.45722;0.000713291;0.000257029;-1.46804;-0.681179;108.458;153.458;0.000927969;0.000827222;0.00045447;-0.000528725;0.00120555;0.00766189;-0.00539881;0;0.0515801;-0.0091162;0.309299
16000;17;25.7577;0.00270474;0.000105018;-2.19636;25.6638;-0.00137109;-0.00732948;0.00210459;-0.0302793;-0.00555209;-0.038362;-0.032774;0.0507602;-6.11095;-0.000342732;0.000297058;0.000505105;0.000598826;-0.000436452;0.000517639;0.678535;1.47376;0.000600164;0.000690185;1.37203;0.728846;52.8446;97.8446;0.00130548;-0.000342753;0.000230595;0.000363465;0.000505123;0.000253311;0.00232781;0;0.0343295;-0.00932485;-0.0388195;-0.0800876;0.089487;-6.13532;0.0011562;-0.00029139;0.000858177;0.00133447;0.000679907;0.000327279;-1.34727;-0.742242;0.0007705;0.000436372;-1.96272;-0.509498;149.783;14.7828;0.000745118;0.00115618;-0.0002477;-0.000335092;0.000858189;0.00338508;0.00524604;0;0.0481563;-0.00909683;0.317295
17000;18;25.755;5.06867e-05;1.96804e-06;-2.19552;25.6613;-0.0124769;-0.0064846;-0.000489862;-0.0413851;-0.0054719;-0.0367745;-0.0335419;0.0500736;-6.11172;-0.000366612;0.000181637;0.000641512;0.000673239;-0.00039834;0.00053579;0.571481;1.74984;0.000625426;0.000714386;1.69011;0.591676;57.9419;102.942;0.00134866;-0.000366646;4.74119e-05;0.000315727;0.000641527;0.000852455;0.0034663;0;0.0239337;-0.01013;-0.0371692;-0.078921;0.087822;-6.13416;0.00109357;-0.000124261;0.000605187;0.00112337;0.000575389;0.000273988;-1.80699;-0.553406;0.00064864;0.000365318;-1.95236;-0.512201;164.432;29.432;0.00023511;0.00109357;-0.000186162;-6.23305e-05;0.000605177;0.00222624;0.00929818;0;0.0451216;-0.00893964;0.323831
18000;19;25.7568;0.00188389;7.31469e-05;-2.19727;25.6629;-0.00063108;-0.00823889;0.00120293;-0.0295393;-0.0053336;-0.0383961;-0.0316546;0.0500472;-6.10983;-0.000378787;-3.30164e-05;0.000137468;0.000139571;-0.00038089;0.00026023;2.75545;0.362917;0.000311068;0.000346974;0.366435;2.729;5.44719;50.4472;0.000211582;-0.000378786;-4.06201e-05;-2.54167e-05;0.000137468;0.00316559;0.00267178;0;0.0320076;-0.0099324;-0.0390392;-0.0768946;0.0868073;-6.13213;0.000995674;-0.0001387;0.000511711;0.00103261;0.000474779;0.000278913;-1.94577;-0.513934;0.000596817;0.000371884;-2.17492;-0.459788;168.622;33.6222;0.000878707;0.000995656;-4.52412e-05;-0.000232203;0.00051172;0.00133608;0.00673143;0;0.0464733;-0.00924506;0.331166
19000;20;25.7545;-0.000468739;-1.82e-05;-2.19613;25.6607;-0.00736735;-0.007092;-0.00106119;-0.0362756;-0.00543327;-0.0405231;-0.0289101;0.0500744;-6.10708;-0.000367877;0.00015225;0.000116353;0.000160245;-0.000411769;0.000286007;3.16173;0.316283;0.000340728;0.000381342;0.389162;2.56962;3.19114;48.1911;0.00105657;-0.000367897;5.20444e-05;0.000252408;0.000116363;0.00149058;0.00291799;0;0.025495;-0.00965996;-0.0403532;-0.0763069;0.0868587;-6.13154;0.00112265;-0.000157841;0.000753681;0.00118096;0.000695373;0.000242794;-1.48956;-0.671338;0.000685405;0.000323726;-1.69831;-0.588819;165.826;30.8258;0.000856756;0.0011226;4.51714e-05;-0.000360929;0.000753692;0.00524292;0.00337382;0;0.0368898;-0.00915349;0.338019
20000;21;25.7548;-0.000188481;-7.31823e-06;-2.19733;25.6609;-0.00875517;-0.00829195;-0.000883062;-0.0376634;-0.00617085;-0.0402744;-0.0252523;0.0479352;-6.10343;-0.00018068;0.000290092;0.000779246;0.000860102;-0.000261536;0.000560819;0.231866;4.31284;0.000677618;0.000747759;3.28865;0.304076;71.988;116.988;0.00127894;-0.000180688;0.000264547;0.000315613;0.000779253;-0.000438379;0.00188994;0;0.0155205;-0.011173;-0.0401275;-0.0723158;0.0834544;-6.12755;0.0012103;-0.000104728;0.000359205;0.001223;0.000346508;0.000438246;-3.36939;-0.29679;0.000727864;0.000584329;-3.5295;-0.283326;167.25;32.25;0.000374802;0.00121031;-0.000266936;5.76177e-05;0.000359175;0.00388352;0.00814651;0;0.0314038;-0.00920759;0.344838
21000;22;25.755;1.64741e-05;6.39648e-07;-2.19441;25.6613;-0.0129991;-0.00537893;-0.000429884;-0.0419073;-0.00713769;-0.0356329;-0.0348068;0.0503207;-6.11298;-0.000408291;-6.86249e-05;0.000582759;0.000587489;-0.00041302;0.000500254;0.700617;1.42731;0.000580564;0.000667006;1.42242;0.703027;63.6725;108.672;0.00098815;-0.000408292;-0.000223171;8.57685e-05;0.000582737;0.000948752;0.000774031;0;0.0158715;-0.0112659;-0.0370656;-0.0795254;0.0884594;-6.13476;0.000982334;-0.000100051;0.000702215;0.0010144;0.00067015;0.000172125;-1.39891;-0.714843;0.000595653;0.000229499;-1.51369;-0.660637;159.681;24.6808;0.000530742;0.000982339;-0.000175255;-2.48249e-05;0.000702204;0.00421212;0.00805438;0;0.0365823;-0.00900489;0.349085
22000;23;25.7562;0.00126792;4.923e-05;-2.19701;25.6624;-0.00255822;-0.00797911;0.000606816;-0.0314665;-0.0061086;-0.0378486;-0.0311921;0.0494245;-6.10937;-0.000214385;0.000279187;0.00050491;0.000600555;-0.000310031;0.000455293;0.424601;2.35515;0.000534572;0.000607057;1.93708;0.51624;68.3638;113.364;0.00147395;-0.000214389;0.000265318;0.000293046;0.000504914;-0.00119953;0.00197623;0;0.0199817;-0.0105018;-0.0375238;-0.0780159;0.0872055;-6.13325;0.00111035;-0.000294096;0.00056005;0.00123794;0.00043246;0.000402741;-1.98259;-0.50439;0.000725461;0.000536988;-2.86256;-0.349338;150.761;15.7606;0.00197381;0.00111039;-0.000465223;-0.000122874;0.000559985;0.00328966;0.00667241;0;0.0366971;-0.00921015;0.354035
23000;24;25.7557;0.000733107;2.84647e-05;-2.19816;25.6617;-0.000871207;-0.00912328;-2.78199e-05;-0.0297795;-0.00562924;-0.0372198;-0.0288315;0.0474158;-6.107;-0.000457719;0.000148821;0.000529663;0.000551606;-0.000479662;0.000515634;0.864169;1.15718;0.000595886;0.000687512;1.14999;0.869572;56.8698;101.87;0.00152812;-0.000457726;0.000106701;0.000190899;0.000529669;-0.000874446;0.00366854;0;0.020341;-0.010286;-0.0368208;-0.0755853;0.0847037;-6.13082;0.00114984;-0.000226652;0.000466563;0.00121819;0.000398216;0.000409987;-2.4645;-0.405762;0.000717235;0.000546649;-3.05912;-0.326892;163.404;28.4039;0.000790429;0.00114984;-0.000221443;-0.000231866;0.000466564;0.00310117;0.00748622;0;0.0367163;-0.00937758;0.360956
24000;25;25.7561;0.00116032;4.50524e-05;-2.19848;25.6621;-0.00311696;-0.0094487;0.000372908;-0.0320252;-0.00678508;-0.0366132;-0.0337557;0.0502594;-6.11193;-0.000261166;0.000207588;0.000225513;0.000302028;-0.000337681;0.000319855;1.1581;0.863485;0.000369528;0.000426473;0.894418;1.11805;21.7704;66.7704;0.000910678;-0.000261216;3.78617e-05;0.000377233;0.000225534;0.00216329;0.00474726;0;0.0284959;-0.0116613;-0.0373219;-0.0784946;0.0876944;-6.13373;0.00104476;-0.000241294;0.000540705;0.00114165;0.000443819;0.000348913;-1.93222;-0.51754;0.000664545;0.000465218;-2.57232;-0.388754;150.13;15.1305;0.000661086;0.00104479;-0.00046852;-1.3953e-05;0.000540624;0.00594254;0.00531413;0;0.0432798;-0.00915879;0.368568
25000;26;25.7583;0.00333433;0.000129464;-2.1974;25.6644;0.00309381;-0.00837084;0.0026472;-0.0258144;-0.00749727;-0.0359476;-0.0414361;0.055366;-6.11961;-0.000333197;0.000188088;0.000717465;0.000750121;-0.000365853;0.000557987;0.464409;2.15327;0.000656917;0.000743983;2.05033;0.487726;71.3065;116.307;0.00101802;-0.000333211;0.000126771;0.00024934;0.000717474;0.000469445;0.00261191;0;0.0241049;-0.01257;-0.0381915;-0.08477;0.0938219;-6.14001;0.00118717;-0.000327252;0.000659782;0.00134375;0.000503205;0.000420273;-1.79934;-0.555759;0.000783921;0.000560364;-2.67038;-0.374478;154.059;19.0592;0.00087195;0.00118718;-0.000339237;-0.000315261;0.000659778;0.00408637;0.00415355;0;0.0388214;-0.00883655;0.376299
26000;27;25.7578;0.00283739;0.000110169;-2.19684;25.6639;-0.00601339;-0.00780755;0.00219613;-0.0349216;-0.00806466;-0.0417925;-0.0292532;0.0516469;-6.10743;-0.000354119;-8.54421e-05;0.000805554;0.000811815;-0.000360381;0.000586098;0.439597;2.27481;0.000693295;0.000781464;2.25266;0.44392;95.7127;140.713;0.000424985;-0.00035412;-7.34339e-05;-9.74365e-05;0.000805555;0.00139914;0.00070921;0;0.0140085;-0.0135286;-0.0430661;-0.0774257;0.0896239;-6.13266;0.00111782;-0.000130364;0.00045267;0.00114246;0.000428032;0.000357213;-2.4694;-0.404957;0.000666471;0.000476285;-2.6691;-0.374658;172.244;37.2438;0.000192955;0.00111781;-4.92917e-05;-0.000211491;0.000452677;0.00722423;0.00254658;0;0.0343787;-0.00801807;0.38286
27000;28;25.7596;0.00469221;0.000182187;-2.19587;25.6659;-0.0103699;-0.00683899;0.00413923;-0.0392781;-0.00788885;-0.0435884;-0.0384813;0.058677;-6.11665;-0.00028976;-2.38706e-05;0.000483619;0.000484355;-0.000290496;0.000387426;0.59915;1.66903;0.000452004;0.000516568;1.66733;0.59976;118.785;163.785;0.000127936;-0.000289772;0.000109802;-0.00015744;0.000483613;0.00174219;0.00354005;0;0.0210627;-0.0125729;-0.0454273;-0.090203;0.101776;-6.1428;0.00113775;-0.000237689;0.000534168;0.00122011;0.000451806;0.000384153;-2.12994;-0.469496;0.000712288;0.000512204;-2.70052;-0.370299;177.125;42.1251;-0.000580914;0.00113748;0.000294717;-0.000770415;0.000534153;0.0118791;-0.00186885;0;0.045469;-0.00813889;0.389567
28000;29;25.7591;0.00413493;0.000160549;-2.195;25.6654;-0.0141958;-0.00596965;0.00365245;-0.043104;-0.00636134;-0.0440526;-0.0443321;0.0628207;-6.12251;-0.000181694;0.000279973;0.000840852;0.00091249;-0.000253332;0.000582911;0.216083;4.62784;0.000708042;0.000777214;3.60195;0.277627;85.9201;130.92;7.361e-05;-0.000181667;0.0004036;0.000156471;0.00084081;0.000553791;0.00373461;0;0.0186219;-0.0117719;-0.0462937;-0.0968284;0.10797;-6.14942;0.00112561;-0.000268694;0.000955083;0.00132224;0.000758448;0.000281898;-1.17855;-0.848503;0.00076615;0.000375864;-1.74335;-0.573607;163.161;28.1608;-0.000745136;0.00112504;0.000566336;-0.00110387;0.000954959;0.0133042;-0.00363792;0;0.0416225;-0.00773019;0.397125
29000;30;25.7565;0.00152283;5.91277e-05;-2.1936;25.6629;-0.0238497;-0.00456157;0.00114406;-0.0527579;-0.00928255;-0.0486857;-0.0425248;0.0653056;-6.1207;-0.000203156;-7.74821e-05;0.000795304;0.000801281;-0.000209133;0.000505207;0.255444;3.91475;0.00061585;0.000673609;3.83145;0.260998;94.4029;139.403;0.000867086;-0.000203156;-7.75666e-05;-7.73977e-05;0.000795304;-0.000521773;0.00200543;0;0.0162982;-0.0142298;-0.0500498;-0.0985407;0.111435;-6.15113;0.00121244;-0.000281872;0.00101728;0.00141314;0.000816577;0.000298283;-1.19184;-0.839041;0.000819168;0.000397711;-1.73057;-0.577844;161.47;26.47;-0.000476089;0.00121195;0.000466697;-0.00103059;0.00101722;0.0116798;0.00110043;0;0.0421322;-0.00755656;0.40411
30000;31;25.7558;0.000847448;3.29043e-05;-2.19316;25.6622;-0.0276066;-0.00412509;0.000499753;-0.0565149;-0.010928;-0.0521739;-0.042633;0.0682576;-6.12081;-0.000173628;-0.0001356;0.000141988;0.000192244;-0.000223884;0.000208064;1.22284;0.817771;0.000240483;0.000277419;0.858676;1.16458;59.1154;104.115;0.000373388;-0.000173621;-0.000207309;-6.39133e-05;0.000141975;8.27829e-05;0.00268683;0;0.0130684;-0.0153986;-0.0526067;-0.101082;0.114988;-6.15632;0.00139135;-0.000410381;0.000722528;0.00158632;0.000527558;0.000529379;-1.92567;-0.519301;0.000932819;0.000705838;-3.0069;-0.332568;164.539;29.5394;-0.00243871;0.00139112;-2.74067e-05;-0.00079361;0.000722611;0.0124014;0.00795156;0;0.042364;-0.00745365;0.411461
31000;32;25.7547;-0.000277516;-1.07752e-05;-2.19475;25.661;-0.0270768;-0.00571217;-0.000764439;-0.055985;-0.00823234;-0.0527675;-0.0486981;0.0722751;-6.12687;-0.000151819;-0.000105854;0.000642865;0.000656723;-0.000165677;0.0004112;0.236159;4.23443;0.000502234;0.000548267;3.96388;0.252278;104.488;149.488;0.000726815;-0.000151827;-4.43301e-05;-0.00016733;0.00064287;-0.00194256;0.00250347;0;0.0164844;-0.0129986;-0.0533716;-0.107253;0.120502;-6.16249;0.00131466;-0.000401672;0.000695256;0.00151216;0.000497755;0.000507205;-1.89091;-0.528847;0.000889873;0.000676273;-3.03797;-0.329167;168.555;33.5548;-0.00122991;0.00131427;0.000166837;-0.000970532;0.000695322;0.0129127;0.00352903;0;0.0414122;-0.0073703;0.418468
32000;33;25.7547;-0.000237913;-9.23757e-06;-2.19436;25.6611;-0.0260936;-0.00532231;-0.000690332;-0.0550018;-0.00980343;-0.0531288;-0.0486;0.0726687;-6.12677;-0.000319832;-0.000197604;0.000618706;0.000658614;-0.000359739;0.000509176;0.516936;1.93447;0.000596327;0.000678902;1.83081;0.546207;101.141;146.141;0.000546921;-0.000319831;-0.000199047;-0.000196162;0.000618706;-1.43636e-07;0.00289139;0;0.0143995;-0.0146814;-0.0537531;-0.105943;0.119703;-6.15854;0.0013215;-0.000380758;0.000736787;0.0015092;0.000549093;0.000480052;-1.7936;-0.557537;0.00088204;0.000640069;-2.74852;-0.363832;169.665;34.6646;-0.00125835;0.00132106;0.000258211;-0.0010201;0.000736826;0.0118327;0.00708901;0;0.0414413;-0.00740266;0.424182
33000;34;25.7551;0.000119419;4.63675e-06;-2.19451;25.6614;-0.02733;-0.00548095;-0.000346549;-0.0562383;-0.00887915;-0.0517754;-0.0516916;0.0736991;-6.12986;-0.00017088;2.85357e-05;0.000975428;0.000976138;-0.00017159;0.000573864;0.175184;5.70827;0.000714853;0.000765152;5.68879;0.175784;92.5348;137.535;0.000835368;-0.00017088;8.45526e-05;-2.74169e-05;0.000975425;-0.00192573;0.00280348;0;0.0142529;-0.0137985;-0.0527404;-0.110046;0.122809;-6.16528;0.00127411;-0.000360582;0.000680509;0.00144433;0.000510287;0.000467023;-1.87229;-0.534105;0.000845765;0.000622697;-2.83043;-0.353303;172.17;37.1697;-0.0012583;0.00127363;0.000321346;-0.00104292;0.000680522;0.0120464;0.00681565;0;0.0418317;-0.00762382;0.427716
34000;35;25.7542;-0.000793143;-3.07957e-05;-2.19412;25.6605;-0.0296695;-0.00508982;-0.00123159;-0.0585777;-0.00942481;-0.053849;-0.0471788;0.0722106;-6.12535;-0.000246918;-0.000166678;0.00106625;0.00108707;-0.000267744;0.00067741;0.231577;4.31822;0.000828513;0.000903213;4.06012;0.246298;97.7142;142.714;0.000438982;-0.00024692;-0.000158199;-0.000175146;0.00106625;-0.00050164;0.00158111;0;0.0221937;-0.0142147;-0.0538795;-0.107064;0.120697;-6.1623;0.00137158;-0.000441806;0.000717024;0.00159413;0.000494481;0.000549823;-1.91288;-0.522771;0.000942216;0.000733097;-3.22384;-0.310189;166.79;31.7902;-0.00193507;0.00137121;9.19032e-05;-0.000975865;0.000717117;0.0144723;0.00752519;0;0.0406548;-0.00750044;0.434595
35000;36;25.754;-0.000930168;-3.61161e-05;-2.19446;25.6603;-0.0267184;-0.00542283;-0.00139435;-0.0556267;-0.0101597;-0.056387;-0.0407051;0.0702824;-6.11888;-0.000273489;-0.000115574;0.000271407;0.000294907;-0.000296989;0.000295948;1.00767;0.992389;0.000341732;0.000394598;0.992991;1.00706;56.2134;101.213;0.000701261;-0.000273482;-0.000221473;-9.73373e-06;0.000271389;-0.000945605;0.00505683;0;0.0136271;-0.0145253;-0.0554032;-0.102708;0.117598;-6.15794;0.00128162;-0.000436517;0.000666914;0.00150813;0.000440401;0.000533867;-1.92172;-0.520368;0.00089548;0.000711822;-3.42445;-0.292017;167.469;32.4693;-0.00172014;0.00128122;0.000121667;-0.000995044;0.000667002;0.013415;0.00680158;0;0.0411933;-0.00746279;0.441221
36000;37;25.7539;-0.00101532;-3.94225e-05;-2.19342;25.6604;-0.0269478;-0.00438203;-0.00139107;-0.055856;-0.0101332;-0.0564993;-0.0401115;0.070027;-6.11828;-0.000302724;-4.47898e-05;0.000399422;0.000402268;-0.00030557;0.000353919;0.757905;1.31943;0.00040994;0.000471892;1.31645;0.759618;85.5229;130.523;0.000293806;-0.000302724;-5.88647e-05;-3.07247e-05;0.000399422;-0.00136434;0.00407836;0;0.0119551;-0.0148493;-0.0562044;-0.100923;0.116469;-6.15616;0.00135382;-0.000323036;0.000491462;0.00146141;0.000383877;0.000538766;-2.75469;-0.363018;0.000874853;0.000718355;-3.80697;-0.262676;179.425;44.425;-0.0010989;0.00135339;0.000340194;-0.000986837;0.000491457;0.0107469;0.0025946;0;0.0412904;-0.00739498;0.448451
37000;38;25.753;-0.00200187;-7.77274e-05;-2.19468;25.6593;-0.030454;-0.00564293;-0.00249295;-0.0593622;-0.0109658;-0.0568263;-0.0415264;0.0712314;-6.1197;-0.000226148;-1.2309e-05;0.00023378;0.00023411;-0.000226477;0.000230293;0.96735;1.03375;0.000265932;0.000307058;1.0337;0.967396;48.6754;93.6754;0.00118192;-0.000226148;-6.32508e-05;3.86093e-05;0.000233779;-0.00230655;0.00424842;0;0.022805;-0.0156043;-0.0567487;-0.101856;0.117637;-6.15709;0.00118022;-0.000426235;0.000758639;0.00144494;0.000493921;0.000475509;-1.55571;-0.642794;0.000848036;0.000634013;-2.92545;-0.341828;159.589;24.5888;-0.00176695;0.00117996;-1.71181e-05;-0.000835525;0.00075873;0.0136482;0.00640664;0;0.0438644;-0.0074935;0.4558
38000;39;25.755;3.84115e-05;1.49142e-06;-2.19436;25.6613;-0.0238089;-0.00532606;-0.000411098;-0.0527171;-0.010286;-0.0550292;-0.0472471;0.073255;-6.12542;-0.000274232;-0.00020275;0.000632762;0.000676021;-0.000317492;0.000496757;0.43339;2.30739;0.000585923;0.000662342;2.12925;0.469648;88.9065;133.906;0.000481329;-0.000274218;-0.000291311;-0.00011427;0.00063274;-0.000654984;0.00325873;0;0.0156596;-0.0149675;-0.055204;-0.10696;0.121293;-6.1622;0.00145393;-0.000437088;0.000695503;0.00165337;0.000496055;0.00057866;-2.09046;-0.478363;0.000979694;0.000771546;-3.33305;-0.300026;169.617;34.6175;-0.00110254;0.0014535;0.000141851;-0.00101647;0.000695589;0.0128617;0.00389037;0;0.0393533;-0.00750465;0.463476
39000;40;25.7542;-0.000762297;-2.95981e-05;-2.19455;25.6605;-0.0277948;-0.00552057;-0.00123537;-0.0567031;-0.0102345;-0.055359;-0.0474886;0.0736514;-6.12566;-0.000307184;-0.00025814;0.000817696;0.000874105;-0.000363594;0.00061885;0.375671;2.66191;0.000734569;0.000825133;2.40407;0.415961;104.732;149.732;0.000774134;-0.00030719;-0.000236642;-0.000279614;0.000817701;-0.00124771;0.00538895;0;0.018369;-0.0147031;-0.0551678;-0.108068;0.122223;-6.16331;0.0013686;-0.000340031;0.000694955;0.00151039;0.000553165;0.000478612;-1.96933;-0.507786;0.000882364;0.00063815;-2.73045;-0.36624;172.965;37.9651;-0.00167325;0.00136819;0.000285433;-0.000965916;0.000694972;0.0134638;0.00596787;0;0.0398771;-0.00747449;0.470503
40000;41;25.7542;-0.000733427;-2.84771e-05;-2.19394;25.6606;-0.0303545;-0.0049016;-0.00115637;-0.0592627;-0.0101281;-0.0559109;-0.0464474;0.0733892;-6.12462;-0.000236345;-0.000106499;0.000577677;0.00059138;-0.000250048;0.000420714;0.40913;2.44421;0.000498944;0.000560952;2.36507;0.422821;91.2769;136.277;0.00109743;-0.000236342;-0.000143138;-6.98904e-05;0.000577673;-0.00184344;0.00373642;0;0.0212974;-0.0145472;-0.0557146;-0.107817;0.12223;-6.16305;0.00149025;-0.000427432;0.000572103;0.00165843;0.000403924;0.000627254;-2.60487;-0.383896;0.000998592;0.000836339;-4.10581;-0.243558;172.012;37.0122;-0.000912991;0.00148989;9.79015e-05;-0.000953247;0.000572189;0.0112004;0.00271407;0;0.0408918;-0.00752804;0.478135
41000;42;25.7544;-0.000595463;-2.31203e-05;-2.19402;25.6607;-0.0296907;-0.00498576;-0.00102432;-0.0585989;-0.01093;-0.0564281;-0.0453294;0.0732007;-6.1235;-0.000389019;-0.000361466;0.000478161;0.000609069;-0.000519927;0.000564498;0.813573;1.22915;0.000652503;0.000752664;1.17145;0.853642;94.2543;139.254;0.000265498;-0.00038901;-0.000388587;-0.000334368;0.000478151;0.000639777;0.00456719;0;0.0132245;-0.0151481;-0.056098;-0.106384;0.121219;-6.16162;0.00141667;-0.00037165;0.000428827;0.00154088;0.000304621;0.000618128;-3.30359;-0.302701;0.00094227;0.000824171;-5.05834;-0.197693;176.378;41.3779;-0.000371399;0.00141634;0.000155309;-0.00089913;0.000428884;0.0115823;0.00155084;0;0.0391518;-0.00752932;0.485628
42000;43;25.752;-0.00296575;-0.000115153;-2.1944;25.6583;-0.0343885;-0.00536689;-0.00344172;-0.0632967;-0.00977366;-0.05803;-0.0406735;0.0715355;-6.11885;-0.000321455;-0.00026037;0.000381597;0.000467521;-0.00040738;0.00043745;0.842395;1.18709;0.000505522;0.000583267;1.14763;0.87136;86.797;131.797;0.000535189;-0.000321448;-0.000288356;-0.000232403;0.000381589;-0.000459763;0.00443778;0;0.0160615;-0.0142574;-0.0569925;-0.103512;0.119022;-6.15875;0.0012909;-0.000366772;0.000617697;0.00145211;0.000456481;0.000497816;-2.08985;-0.478503;0.000857423;0.000663754;-3.1811;-0.314356;173.242;38.2419;-0.00137881;0.00129045;0.000275995;-0.00100997;0.000617727;0.0137773;0.00567304;0;0.0410686;-0.00740668;0.49166
43000;44;25.7522;-0.00273191;-0.000106073;-2.19401;25.6586;-0.0341895;-0.00497762;-0.00317347;-0.0630978;-0.0105821;-0.0565674;-0.0472241;0.0744444;-6.1254;-0.000273748;-0.000100004;0.000335063;0.000351069;-0.000289754;0.000320412;0.817004;1.22398;0.000370544;0.000427216;1.21161;0.825347;72.643;117.643;0.000757888;-0.000273745;-0.000140556;-5.94766e-05;0.000335058;-0.00101728;0.00435245;0;0.0169665;-0.0147799;-0.0563169;-0.108091;0.122775;-6.16333;0.00132559;-0.000404307;0.000616047;0.00150871;0.000432927;0.000537891;-2.15177;-0.464734;0.000897024;0.000717188;-3.4849;-0.286952;171.727;36.7268;-0.000570021;0.00132516;0.000207244;-0.00101629;0.000616107;0.0112995;0.00350774;0;0.0415653;-0.00739918;0.49864
44000;45;25.7539;-0.0010742;-4.17085e-05;-2.1941;25.6602;-0.0306673;-0.00506263;-0.00151252;-0.0595755;-0.0102663;-0.0557032;-0.0492588;0.0750645;-6.12743;-0.000232488;-0.000109786;0.000467903;0.000484708;-0.000249294;0.000367001;0.496873;2.01259;0.00043098;0.000489335;1.94432;0.514318;69.3095;114.309;0.00151585;-0.000232486;-0.000304167;8.44596e-05;0.000467862;-0.0030202;0.00434751;0;0.01852;-0.0144473;-0.0555471;-0.111309;0.125235;-6.16655;0.00157288;-0.000377837;0.000613091;0.00170378;0.0004822;0.000610788;-2.5655;-0.389788;0.00101408;0.000814384;-3.53334;-0.283018;171.643;36.6434;7.13174e-05;0.00157263;5.30301e-05;-0.000809118;0.000613161;0.010391;0.00261724;0;0.0398557;-0.0075019;0.503372
45000;46;25.7546;-0.000321379;-1.24783e-05;-2.19482;25.6609;-0.0251034;-0.00578286;-0.000812502;-0.0540117;-0.00987423;-0.0559318;-0.0493754;0.0752583;-6.12755;-0.000282843;-0.000110443;0.000683095;0.000695562;-0.000295309;0.000495436;0.414061;2.41511;0.000587431;0.000660581;2.35537;0.424563;88.4542;133.454;0.000136323;-0.000282838;-0.000167763;-5.31787e-05;0.000683087;-0.00015855;0.00165629;0;0.0195323;-0.0141354;-0.056152;-0.110226;0.12451;-6.16546;0.00136414;-0.000401227;0.000713978;0.00155545;0.000522667;0.000516394;-1.91063;-0.523389;0.000913999;0.000688525;-2.97599;-0.336022;170.735;35.7349;-0.00162769;0.00136366;0.000260184;-0.00106307;0.000714024;0.0137326;0.00496049;0;0.0432364;-0.00734965;0.509059
46000;47;25.7548;-0.000125932;-4.88963e-06;-2.19463;25.6611;-0.0271357;-0.00559136;-0.000602032;-0.056044;-0.0100858;-0.0551236;-0.0509513;0.0757388;-6.12912;-0.000363205;-0.000245575;0.000944973;0.000989554;-0.000407786;0.00069867;0.384355;2.60176;0.000829734;0.00093156;2.42665;0.412091;99.1613;144.161;0.000275295;-0.000363202;-0.000257045;-0.00023412;0.00094497;-0.00160263;0.00222525;0;0.0182054;-0.0142238;-0.0555887;-0.112285;0.126097;-6.16752;0.00134148;-0.000262176;0.000793259;0.00144667;0.000688063;0.000379305;-1.6911;-0.591332;0.000835568;0.00050574;-2.10253;-0.475618;167.513;32.5133;-0.00285286;0.00134132;0.000100493;-0.000625043;0.000793288;0.0157177;0.00908142;0;0.0406902;-0.00742313;0.515702
47000;48;25.7553;0.000317884;1.23426e-05;-2.19466;25.6616;-0.0267839;-0.00562707;-0.00015928;-0.0556921;-0.0100891;-0.0562064;-0.048771;0.075097;-6.12694;-0.000354943;-0.000276854;0.000313297;0.000413094;-0.00045474;0.000433917;1.13293;0.882669;0.000501237;0.000578556;0.908418;1.10081;49.9201;94.9201;0.000511135;-0.000354934;-0.000313215;-0.000240516;0.000313287;-0.00100091;0.00439997;0;0.0145508;-0.014373;-0.0566603;-0.108939;0.123631;-6.16418;0.00136864;-0.000350204;0.000664736;0.00151319;0.000520187;0.0004965;-2.05892;-0.485692;0.00088774;0.000661999;-2.90893;-0.343769;173.53;38.5296;-0.000807515;0.00136821;0.000283588;-0.000984442;0.000664758;0.0112825;0.0029143;0;0.0420329;-0.00746681;0.522702
48000;49;25.7548;-0.000144433;-5.60799e-06;-2.19528;25.6611;-0.0279149;-0.00624482;-0.000677331;-0.0568232;-0.0102156;-0.0569867;-0.0470233;0.0745858;-6.1252;-0.000365919;-0.000292649;0.000385244;0.000485797;-0.000466473;0.000476135;0.949839;1.05281;0.000549831;0.000634847;1.04143;0.960222;76.278;121.278;0.000987234;-0.000365913;-0.000313731;-0.000271582;0.000385237;-0.00145466;0.00401409;0;0.0144851;-0.0144466;-0.0568498;-0.109377;0.124113;-6.16461;0.00145576;-0.000441973;0.000872316;0.00169361;0.00063447;0.000529569;-1.66885;-0.599215;0.000987998;0.000706092;-2.66933;-0.374626;163.684;28.6837;-0.00147123;0.0014554;7.53576e-05;-0.000959606;0.00087241;0.0134936;0.00784635;0;0.0405986;-0.00756972;0.529226
49000;50;25.7559;0.000917631;3.56293e-05;-2.19389;25.6623;-0.0244667;-0.0048522;0.000511227;-0.053375;-0.0100433;-0.0564752;-0.0493902;0.0756948;-6.12756;-0.00028096;-7.61602e-05;0.00061023;0.000616691;-0.000287422;0.000452056;0.460417;2.17194;0.000533404;0.000602742;2.1456;0.466071;80.9804;125.98;0.00119891;-0.000280957;-0.000162791;1.03934e-05;0.000610219;-0.00186663;0.0037808;0;0.0128249;-0.0142297;-0.0563335;-0.111941;0.126122;-6.16718;0.00134481;-0.000475723;0.000662002;0.00158896;0.000417856;0.000585551;-2.03143;-0.492263;0.000951125;0.000780735;-3.80265;-0.262975;171.174;36.1741;-0.000960066;0.00134418;0.000272433;-0.00122439;0.000662078;0.0133111;0.00432834;0;0.0426028;-0.00749843;0.536792
50000;51;25.7532;-0.00177278;-6.88324e-05;-2.19543;25.6594;-0.0293038;-0.00639532;-0.00232605;-0.058212;-0.00988377;-0.057444;-0.0462043;0.0743797;-6.12438;-0.000427436;-0.000111055;0.000333123;0.000349007;-0.00044332;0.000396164;1.28312;0.779352;0.000458529;0.000528218;0.787258;1.27023;31.3871;76.3871;0.000375206;-0.000427431;-0.000160754;-6.13952e-05;0.000333116;-0.0014863;0.00158524;0;0.0138204;-0.0142413;-0.0563165;-0.110657;0.124977;-6.16589;0.00143609;-0.000500879;0.000726233;0.00169505;0.000467278;0.000613885;-1.97746;-0.5057;0.00101094;0.000818514;-3.6275;-0.275672;164.725;29.7248;-0.000506628;0.00143573;-1.62225e-05;-0.000985879;0.000726358;0.0100192;0.00738577;0;0.0403729;-0.00760335;0.544099
51000;52;25.7541;-0.000860607;-3.34152e-05;-2.19452;25.6604;-0.0302901;-0.00548218;-0.00133358;-0.0591984;-0.00952074;-0.0572863;-0.0442406;0.0730041;-6.12241;-0.000252196;-7.54038e-05;0.000235064;0.000246466;-0.000263598;0.000255032;1.07288;0.932067;0.000294541;0.000340042;0.935005;1.06951;50.7281;95.7281;0.000510801;-0.000252193;-0.00016059;9.74083e-06;0.000235053;-0.00133091;0.00411439;0;0.0140167;-0.0138827;-0.0562549;-0.109422;0.123816;-6.16466;0.00143337;-0.000382565;0.000651388;0.0015894;0.00049536;0.00054702;-2.20049;-0.454445;0.000939089;0.000729359;-3.20857;-0.311665;172.998;37.9979;-0.00168448;0.00143295;0.00022881;-0.000994417;0.000651435;0.0138864;0.0062787;0;0.0415767;-0.00754705;0.552105
52000;53;25.7534;-0.00158181;-6.14177e-05;-2.1947;25.6597;-0.0331938;-0.00566621;-0.00207675;-0.0621021;-0.0097746;-0.0573257;-0.0457065;0.0739653;-6.12388;-0.000452688;-0.000387029;0.00047663;0.000616701;-0.000592759;0.00060473;0.949768;1.05289;0.000698328;0.000806307;1.04039;0.961177;70.6421;115.642;0.000571285;-0.000452667;-0.000445946;-0.000328166;0.000476605;-0.000180251;0.0044849;0;0.0145097;-0.0140577;-0.0565393;-0.110276;0.12472;-6.16551;0.00141729;-0.0004779;0.000579588;0.00163391;0.000362968;0.000635472;-2.44534;-0.40894;0.000990703;0.000847297;-4.50154;-0.222146;172.763;37.7627;-0.000799904;0.00141673;0.000203557;-0.00115993;0.000579681;0.0121759;0.00352015;0;0.0422637;-0.00747796;0.55827
53000;54;25.7542;-0.000780486;-3.03043e-05;-2.19496;25.6605;-0.0309152;-0.00592551;-0.00129183;-0.0598234;-0.00978821;-0.0568803;-0.0462466;0.0739589;-6.12442;-0.000215997;-2.82438e-05;0.0005487;0.000549742;-0.000217039;0.00038339;0.393653;2.54031;0.000456381;0.000511187;2.53292;0.394802;81.0891;126.089;0.00122348;-0.000215998;-9.56491e-05;3.911e-05;0.000548696;-0.00187203;0.00501583;0;0.0130291;-0.0141761;-0.0563431;-0.109944;0.124351;-6.16518;0.00139381;-0.000381766;0.000550182;0.00154091;0.000403073;0.000568921;-2.53335;-0.394734;0.000922746;0.000758561;-3.82291;-0.261581;175.644;40.6438;-0.000968907;0.00139335;0.000260478;-0.00102455;0.000550221;0.0121771;0.00437383;0;0.0401511;-0.00745329;0.565617
54000;55;25.7541;-0.000836232;-3.24688e-05;-2.19536;25.6604;-0.0284879;-0.00632406;-0.00137907;-0.0573961;-0.0096095;-0.057667;-0.0435587;0.0729053;-6.12173;-0.000341559;-6.48936e-05;0.000211768;0.000219277;-0.000349068;0.000284172;1.6129;0.620003;0.000330974;0.000378897;0.628177;1.59191;37.6355;82.6355;0.00105694;-0.000341559;-0.000187319;5.74644e-05;0.000211752;-0.00192005;0.00527823;0;0.0130198;-0.013973;-0.0570807;-0.107386;0.122414;-6.16262;0.0014059;-0.00042207;0.000727286;0.00160814;0.000525047;0.000541545;-1.93307;-0.517311;0.000946909;0.00072206;-3.06285;-0.326494;168.352;33.3517;-0.00139932;0.0014055;0.000143328;-0.000987851;0.000727365;0.0141852;0.00481338;0;0.0417595;-0.00771576;0.570936
55000;56;25.7537;-0.00125715;-4.88119e-05;-2.19477;25.66;-0.0320567;-0.00573646;-0.00175546;-0.0609649;-0.00975823;-0.0570882;-0.0474649;0.0748812;-6.12564;-0.000247031;-0.000160718;0.000258459;0.000305231;-0.000293803;0.000299517;0.955781;1.04626;0.000345873;0.000399356;1.0389;0.962557;61.9092;106.909;0.000599303;-0.000247021;-0.000401557;7.99985e-05;0.000258392;-0.000893287;0.00381274;0;0.0139413;-0.0141077;-0.0568023;-0.110987;0.125474;-6.16358;0.00126796;-0.000380549;0.000670383;0.001453;0.000485341;0.000483831;-1.8914;-0.52871;0.000854159;0.000645108;-2.99378;-0.334026;168.237;33.2367;-0.000435375;0.00126762;0.00014251;-0.000903921;0.000670445;0.0109743;0.00511906;0;0.0414935;-0.00748088;0.574191
56000;57;25.7522;-0.00275609;-0.000107012;-2.1939;25.6586;-0.0355049;-0.004865;-0.0031899;-0.0644131;-0.0101404;-0.0567291;-0.0490751;0.0756927;-6.12725;-0.000267703;-0.000134065;0.000563839;0.000584919;-0.000288783;0.000436851;0.474786;2.10621;0.000514;0.000582468;2.02546;0.493715;89.4587;134.459;0.00112695;-0.000267697;-0.000184947;-8.32261e-05;0.000563831;-0.00080993;0.00610463;0;0.0146461;-0.0144934;-0.0563691;-0.112077;0.126288;-6.16731;0.00144846;-0.000409104;0.000597742;0.00161327;0.000432934;0.000590166;-2.42322;-0.412675;0.000964163;0.000786888;-3.72635;-0.268359;168.922;33.9221;-0.000536536;0.00144821;-1.09918e-06;-0.000817456;0.000597826;0.0116578;0.00669311;0;0.0417892;-0.00739023;0.582816
57000;58;25.7532;-0.00170684;-6.62723e-05;-2.19423;25.6596;-0.0333779;-0.00520085;-0.00216268;-0.0622862;-0.0101076;-0.0573913;-0.0464613;0.074529;-6.12463;-0.000330746;-0.000103694;0.000414116;0.000428282;-0.000344912;0.000386597;0.798679;1.25207;0.000447268;0.000515462;1.24171;0.805338;78.4822;123.482;0.0012025;-0.000330743;-0.000136977;-7.04345e-05;0.000414112;-0.00136006;0.00581598;0;0.0134357;-0.0144202;-0.0565478;-0.110973;0.125382;-6.16621;0.00128616;-0.000426914;0.000611835;0.00149299;0.000404999;0.000543997;-2.10213;-0.475708;0.000891538;0.000725329;-3.68641;-0.271266;169.511;34.5113;-0.00129783;0.00128576;0.000137497;-0.000991705;0.000611917;0.0144783;0.00585708;0;0.0401739;-0.00757465;0.587602
58000;59;25.7541;-0.000865123;-3.35906e-05;-2.19503;25.6604;-0.0307243;-0.00599258;-0.00138229;-0.0596325;-0.00996698;-0.0571207;-0.0489216;0.0758646;-6.12709;-0.000407346;-0.000151785;0.00052406;0.000548171;-0.000431458;0.000489814;0.77729;1.28652;0.000566925;0.000653086;1.27051;0.787086;86.6459;131.646;0.000616386;-0.000407343;-0.000178715;-0.00012488;0.000524055;-0.000887608;0.00477413;0;0.0140353;-0.0142513;-0.0567509;-0.112713;0.126996;-6.16795;0.00134815;-0.000426429;0.000581048;0.00153814;0.000391055;0.000573545;-2.32021;-0.430996;0.000923114;0.000764727;-3.93332;-0.254238;172.88;37.8805;-0.000455873;0.00134767;0.000219611;-0.00107296;0.000581114;0.0130951;0.00267471;0;0.0397548;-0.00753097;0.595366
59000;60;25.7531;-0.00187054;-7.26284e-05;-2.19399;25.6594;-0.0328631;-0.00495977;-0.00230569;-0.0617714;-0.00981626;-0.0580949;-0.0478244;0.0758851;-6.126;-0.000198586;-0.000180971;9.24032e-05;0.000179114;-0.000285297;0.000232205;2.14913;0.465305;0.000270453;0.000309607;0.627815;1.59282;56.6442;101.644;0.00126567;-0.000198573;-0.000281186;-8.07846e-05;9.238e-05;-0.00314555;0.00342046;0;0.0189478;-0.0140966;-0.0572465;-0.111627;0.12624;-6.16686;0.0011534;-0.00029387;0.000907235;0.00134892;0.000711713;0.000318605;-1.27134;-0.786574;0.000779197;0.000424807;-1.89532;-0.527616;160.402;25.4018;-0.00361398;0.00115309;0.000256341;-0.000844218;0.000907246;0.0169564;0.0117842;0;0.0439738;-0.00749989;0.602837
60000;61;25.7538;-0.0012041;-4.67521e-05;-2.19533;25.66;-0.0307872;-0.00630047;-0.00174891;-0.0596955;-0.0101056;-0.0577397;-0.0487866;0.0762635;-6.12696;-0.000423252;-1.28192e-05;0.000259211;0.000259451;-0.000423493;0.000341472;1.63285;0.612426;0.000398071;0.000455296;0.612646;1.63226;28.57;73.57;0.000794555;-0.000423258;-0.000129928;0.000104209;0.000259202;-0.00157578;0.00431931;0;0.0198479;-0.0144912;-0.0571669;-0.113106;0.127558;-6.16834;0.00128123;-0.000325366;0.000524498;0.00140189;0.000403841;0.000499022;-2.44277;-0.409372;0.000833262;0.000665363;-3.47138;-0.28807;172.526;37.5261;-0.00128063;0.00128099;0.000110309;-0.000761371;0.000524545;0.0108006;0.00727883;0;0.0418079;-0.00748034;0.610947
61000;62;25.7541;-0.000820207;-3.18466e-05;-2.19392;25.6605;-0.0318824;-0.00488174;-0.00124362;-0.0607907;-0.0101359;-0.0568435;-0.0474234;0.0747188;-6.1256;-0.00037739;-0.000125867;-0.000355834;-0.000240284;-0.00049294;0.000126328;-1.06058;-0.942879;0.000284629;0.000168437;-0.487451;-2.05149;53.8579;98.8579;0.000724574;-0.000377383;-0.000278491;2.67529e-05;-0.000355864;-0.00119387;0.00472001;0;0.0187149;-0.0144669;-0.0562482;-0.111206;0.125459;-6.16644;0.00134705;-0.000419849;0.000670012;0.00154785;0.000469209;0.000539322;-2.01049;-0.497392;0.000916452;0.000719096;-3.29886;-0.303135;168.179;33.1792;-0.00165587;0.00134669;0.000105127;-0.00094518;0.000670095;0.0139034;0.00763785;0;0.0416157;-0.007469;0.617302
62000;63;25.7551;9.87156e-05;3.83288e-06;-2.19509;25.6613;-0.0272482;-0.00605956;-0.000416729;-0.0561565;-0.0102676;-0.0575476;-0.0461302;0.0744658;-6.1243;-0.000339611;-0.00026096;0.000228958;0.000330572;-0.000441225;0.000385899;1.48329;0.674176;0.000447121;0.000514531;0.749213;1.33473;51.6824;96.6824;0.00138322;-0.00033959;-0.000360027;-0.000161949;0.000228927;-0.00138433;0.00524534;0;0.0214814;-0.0145441;-0.0567965;-0.110371;0.124977;-6.16561;0.00122946;-0.000266664;0.000640118;0.00133221;0.000537371;0.000397418;-1.92068;-0.52065;0.000773923;0.00052989;-2.47912;-0.403369;172.6;37.5999;-0.00307595;0.00122921;0.000217086;-0.000750699;0.00064013;0.0166564;0.0104945;0;0.0402415;-0.00743172;0.624468
63000;64;25.7533;-0.00165444;-6.42379e-05;-2.19512;25.6596;-0.0339024;-0.0060868;-0.00218655;-0.0628106;-0.00924508;-0.0571494;-0.0484927;0.0755186;-6.12667;-0.000464075;-0.000108046;0.000274474;0.000289956;-0.000479557;0.000384757;1.69078;0.591444;0.000448751;0.000513009;0.604634;1.65389;29.4502;74.4502;0.000661942;-0.00046407;-0.000195214;-2.09418e-05;0.000274461;-0.00307719;0.00302166;0;0.0206525;-0.0134408;-0.0564188;-0.113128;0.127129;-6.16837;0.0012006;-0.000383201;0.000634604;0.00139397;0.000441229;0.000476371;-1.89188;-0.528575;0.000822673;0.000635161;-3.15929;-0.316527;170.922;35.9216;-0.000717994;0.00120013;0.0002694;-0.00103617;0.000634642;0.0119285;0.00708397;0;0.0399304;-0.00742733;0.631328
64000;65;25.753;-0.00192792;-7.48561e-05;-2.19404;25.6594;-0.0310283;-0.00500464;-0.00236483;-0.0599365;-0.00907508;-0.05857;-0.0453061;0.0746019;-6.12348;-0.000387746;-0.000153249;0.00052807;0.000553034;-0.00041271;0.000482872;0.73427;1.3619;0.000559531;0.000643829;1.34001;0.746265;92.3642;137.364;0.00107554;-0.000387743;-0.00017046;-0.000136054;0.000528067;-0.00162441;0.00433657;0;0.0141455;-0.0133299;-0.057571;-0.110473;0.125285;-6.16571;0.00132219;-0.000360142;0.000622039;0.00147436;0.000469864;0.000502249;-2.12557;-0.470462;0.000869678;0.000669665;-3.13785;-0.31869;165.052;30.0524;-0.00227385;0.00132205;-8.27316e-05;-0.000637746;0.0006221;0.0149608;0.0080468;0;0.0433829;-0.00748728;0.639006
65000;66;25.753;-0.00197105;-7.65308e-05;-2.19573;25.6592;-0.0291661;-0.00669767;-0.00255076;-0.0580744;-0.00918761;-0.0588232;-0.0462739;0.0754046;-6.12445;-0.000217192;-0.000143952;0.00035171;0.00038606;-0.000251543;0.000318802;0.617532;1.61935;0.000370841;0.000425069;1.53477;0.651563;88.8444;133.844;0.000164941;-0.000217187;-0.000181484;-0.000106442;0.000351703;-0.000365004;0.00328026;0;0.0129404;-0.013355;-0.0580315;-0.111415;0.12633;-6.16665;0.00141366;-0.000378141;0.000672674;0.00157256;0.000513775;0.000529391;-2.10155;-0.47584;0.000925913;0.000705855;-3.06079;-0.326713;169.437;34.4366;-0.000804458;0.00141336;9.67198e-05;-0.000853354;0.000672741;0.0127811;0.00794829;0;0.0426127;-0.00763552;0.645079
66000;67;25.7541;-0.000824865;-3.20274e-05;-2.19531;25.6604;-0.0278921;-0.00627901;-0.00136315;-0.0568003;-0.00914817;-0.0591233;-0.0451522;0.0749532;-6.12333;-0.000383842;-0.000198898;0.000421276;0.000467732;-0.000430297;0.000449015;0.911139;1.09753;0.000518628;0.000598686;1.087;0.919965;64.6913;109.691;0.000751848;-0.000383829;-0.000279446;-0.000118414;0.000421257;-0.00120305;0.00384045;0;0.0135024;-0.0133742;-0.0582113;-0.111109;0.126145;-6.16635;0.00111908;-0.000294032;0.000737166;0.00127872;0.000577525;0.000350598;-1.51808;-0.658725;0.00073942;0.000467465;-2.21414;-0.451642;166.136;31.1359;-0.00295685;0.00111879;0.000226636;-0.000814898;0.000737184;0.0159456;0.00997987;0;0.0405179;-0.0074202;0.64852
67000;68;25.752;-0.00297341;-0.00011545;-2.1944;25.6583;-0.0358399;-0.00536782;-0.00345147;-0.0647482;-0.00939263;-0.0595259;-0.0440798;0.0746631;-6.12225;-0.000333505;-8.52962e-05;0.000418412;0.000427967;-0.00034306;0.000385513;0.797074;1.25459;0.000446051;0.000514018;1.2475;0.801604;58.3325;103.332;0.00139708;-0.000333505;-0.000257202;8.64802e-05;0.000418383;-0.00250451;0.00492106;0;0.0155683;-0.0134801;-0.0584845;-0.110188;0.125473;-6.16542;0.00112922;-0.000339684;0.000686418;0.00131329;0.000502353;0.000405468;-1.6451;-0.607867;0.000765173;0.000540625;-2.61428;-0.382515;163.349;28.349;-0.00217534;0.00112901;5.72782e-05;-0.000736822;0.000686474;0.0143266;0.00911851;0;0.041969;-0.00758342;0.654531
68000;69;25.7529;-0.00208886;-8.11051e-05;-2.19446;25.6592;-0.0327374;-0.00542693;-0.0025646;-0.0616457;-0.00928849;-0.0596816;-0.04461;0.075088;-6.12278;-0.000357133;-0.000126908;0.000575681;0.000592639;-0.00037409;0.000483364;0.620365;1.61195;0.000562875;0.000644486;1.58421;0.631228;71.7837;116.784;0.00134495;-0.000357125;-0.000265138;1.11925e-05;0.000575654;-0.00297649;0.00338113;0;0.0179582;-0.0133401;-0.0588294;-0.109668;0.125163;-6.1649;0.00120046;-0.00032821;0.00060109;0.00134522;0.000456327;0.000444446;-1.99713;-0.500718;0.000789933;0.000592594;-2.94792;-0.339222;171.683;36.6826;-0.00242493;0.00120013;0.000212725;-0.00086947;0.000601121;0.0156815;0.00777307;0;0.0427459;-0.00746041;0.661074
69000;70;25.7532;-0.00171462;-6.65743e-05;-2.19586;25.6594;-0.0307842;-0.00683094;-0.00230669;-0.0596924;-0.00865876;-0.0587329;-0.0491039;0.0770437;-6.12728;-0.000366031;-0.000304502;0.000240988;0.000367408;-0.000492452;0.00042993;1.51888;0.658381;0.000498187;0.00057324;0.74608;1.34034;26.2276;71.2276;0.00084687;-0.000366029;-0.000312582;-0.000296427;0.000240986;-0.0018718;0.00384314;0;0.0125956;-0.0135564;-0.0578899;-0.112255;0.127028;-6.16749;0.00113503;-0.000384848;0.000777064;0.00138048;0.000531614;0.000424433;-1.46066;-0.68462;0.000804005;0.00056591;-2.59677;-0.385094;161.779;26.7785;-0.000429214;0.00113469;0.000137212;-0.000907094;0.000777129;0.0149519;0.00439403;0;0.0419087;-0.00742642;0.668934
70000;71;25.7531;-0.00189654;-7.36379e-05;-2.19467;25.6594;-0.0348437;-0.00563163;-0.00239186;-0.063752;-0.00923503;-0.0588521;-0.048426;0.0767719;-6.1266;-0.000544779;-0.000129085;0.000240882;0.000261547;-0.000565444;0.000413496;2.2616;0.442164;0.000488091;0.000551328;0.462552;2.16192;27.5552;72.5552;0.00114906;-0.000544771;-0.000243276;-1.49849e-05;0.000240861;-0.00149524;0.00483654;0;0.0202888;-0.0128382;-0.0577585;-0.11741;0.131476;-6.17265;0.00123617;-0.000401795;0.000587246;0.00142816;0.000395264;0.000516446;-2.10504;-0.475051;0.0008515;0.000688595;-3.61317;-0.276765;168.736;33.7359;-0.00201384;0.00123585;9.46056e-05;-0.000898518;0.000587322;0.0139881;0.0090765;0;0.0402097;-0.00750958;0.675643
71000;72;25.752;-0.00291952;-0.000113357;-2.19415;25.6584;-0.0325344;-0.00512094;-0.00337186;-0.0614427;-0.00987425;-0.0598022;-0.0473636;0.0769228;-6.12554;-0.00050241;-0.000259517;0.00053649;0.00059771;-0.00056363;0.00058067;0.936476;1.06783;0.000670597;0.000774227;1.06047;0.942982;61.9635;106.963;0.000602501;-0.000502385;-0.000391211;-0.00012796;0.000536448;0.000159452;0.00506811;0;0.0143131;-0.0137286;-0.0583146;-0.113269;0.128136;-6.16851;0.00125266;-0.000334268;0.000379848;0.00136597;0.00026654;0.000549714;-3.2978;-0.303233;0.000836083;0.000732952;-5.12482;-0.195129;173.17;38.1699;-0.00163639;0.00125248;2.57425e-05;-0.000694593;0.000379903;0.0139465;0.008051;0;0.0409803;-0.00749423;0.683151
72000;73;25.7518;-0.00314028;-0.000121929;-2.19583;25.658;-0.0336235;-0.0068002;-0.00373849;-0.0625318;-0.00922953;-0.0604994;-0.0461735;0.0766639;-6.12435;-0.000335194;3.12557e-05;1.9628e-05;2.23603e-05;-0.000337926;0.000180143;17.0773;0.0585572;0.000233095;0.000240191;0.066169;15.1128;23.7187;68.7187;0.00165838;-0.000335232;-0.000215697;0.000278121;1.96053e-05;-0.00310686;0.00590353;0;0.0134219;-0.0135116;-0.0583458;-0.113991;0.128766;-6.16923;0.00113128;-0.000336121;0.000594168;0.00129295;0.000432492;0.000430231;-1.90397;-0.525219;0.000759996;0.000573641;-2.98954;-0.334499;160.526;25.5265;-0.00197455;0.0011312;-0.000145869;-0.000526475;0.000594214;0.0151245;0.0105839;0;0.0415985;-0.00740741;0.690414
73000;74;25.751;-0.00392495;-0.000152396;-2.19459;25.6573;-0.0361416;-0.00555867;-0.00442323;-0.0650498;-0.00933399;-0.0605973;-0.0475005;0.0775594;-6.12567;-0.000435697;-0.000252134;0.000428261;0.00049646;-0.000503896;0.000500178;1.01736;0.982933;0.000577561;0.000666904;0.985243;1.01498;162.814;27.8139;0.00133008;-0.000435699;-0.000244286;-0.000259976;0.000428263;-0.00324817;0.00371627;0;0.0138466;-0.0131244;-0.059067;-0.114165;0.129208;-6.1694;0.00116455;-0.000337606;0.000587931;0.0013202;0.00043228;0.000443959;-1.98076;-0.504858;0.000777201;0.000591945;-3.05403;-0.327436;166.79;31.7896;-0.00255796;0.00116435;3.60743e-05;-0.000711501;0.000587987;0.0154496;0.0114735;0;0.0427125;-0.00754504;0.69785
74000;75;25.7522;-0.00271382;-0.000105371;-2.19513;25.6585;-0.0341696;-0.0060999;-0.00325127;-0.0630778;-0.00926577;-0.060369;-0.0483282;0.0778838;-6.1265;-0.000406421;-0.000429134;-1.21374e-05;0.000262971;-0.00068153;0.000472251;-33.485;-0.0298642;0.000562874;0.000629668;0.385854;2.59165;50.1278;95.1278;0.000694134;-0.000406369;-0.00057528;-0.000283045;-1.22108e-05;-2.78772e-05;0.00626663;0;0.0136855;-0.0130496;-0.0588631;-0.115055;0.129895;-6.17029;0.00117735;-0.000211602;0.000573866;0.00124415;0.000507065;0.000368543;-2.05161;-0.487422;0.000722391;0.00049139;-2.45363;-0.407559;177.086;42.0864;-0.00245228;0.00117713;0.00027838;-0.000701879;0.000573849;0.0178117;0.0100537;0;0.042524;-0.00753736;0.705137
75000;76;25.7527;-0.00221241;-8.59023e-05;-2.19458;25.659;-0.0311381;-0.00554675;-0.00269686;-0.0600463;-0.0097326;-0.058567;-0.0485418;0.0766885;-6.12672;-0.000410829;-0.000160905;0.000407735;0.000438228;-0.000441322;0.000439775;1.00759;0.992469;0.000507809;0.000586366;0.992989;1.00706;55.4256;100.426;0.00139916;-0.000410816;-0.000305176;-1.6751e-05;0.000407701;-0.00251781;0.00547884;0;0.0168189;-0.0136377;-0.0573919;-0.114213;0.128547;-6.16945;0.00122521;-0.000395908;0.000489272;0.00139775;0.000316738;0.000540505;-2.50415;-0.399337;0.000846247;0.000720673;-4.41295;-0.226606;170.651;35.6508;-0.00140645;0.00122492;6.78122e-05;-0.000859969;0.000489348;0.0118998;0.00612723;0;0.0429942;-0.00760664;0.712729
76000;77;25.7524;-0.00250733;-9.73533e-05;-2.19342;25.6588;-0.034914;-0.0043885;-0.00289868;-0.0638223;-0.0106632;-0.0578869;-0.0499079;0.0771712;-6.12808;-0.000331862;-0.000219401;-0.000151489;-4.4617e-06;-0.000478889;0.000237214;-2.19066;-0.456483;0.000317783;0.000316285;;;55.5583;100.558;0.00113684;-0.000331838;-0.000448379;9.53565e-06;-0.000151566;-0.0010321;0.00529663;0;0.0137974;-0.0140484;-0.0572081;-0.115723;0.129853;-6.17096;0.00115745;-0.000311504;0.000728834;0.00132125;0.000565038;0.000378104;-1.58809;-0.629689;0.000765479;0.000504139;-2.33833;-0.427655;166.01;31.0099;-0.00285122;0.00115718;0.000179733;-0.000802951;0.000728866;0.015957;0.00998807;0;0.0430396;-0.0075094;0.717749
77000;78;25.7534;-0.00153748;-5.96964e-05;-2.19496;25.6597;-0.0338006;-0.00592798;-0.00205544;-0.0627089;-0.0101404;-0.0594162;-0.0483329;0.0772605;-6.12651;-0.000455924;-0.00036595;0.000746756;0.000849354;-0.000558522;0.000703938;0.61054;1.6379;0.000818599;0.000938585;1.52072;0.657585;96.1277;141.128;0.00074295;-0.000455907;-0.00041625;-0.00031571;0.000746737;-9.94755e-05;0.00375479;0;0.0185646;-0.0138669;-0.0581442;-0.115189;0.129775;-6.17043;0.00122508;-0.000381298;0.000483937;0.00138622;0.000322803;0.000531707;-2.53149;-0.395024;0.000837543;0.000708943;-4.29431;-0.232866;162.317;27.3167;-0.00150387;0.00122501;-0.000223606;-0.000539107;0.000483985;0.012416;0.0115439;0;0.0400835;-0.00760097;0.723486
78000;79;25.7542;-0.000722604;-2.80569e-05;-2.19446;25.6606;-0.0317495;-0.00542643;-0.00119207;-0.0606577;-0.0109273;-0.058804;-0.0459475;0.075422;-6.12412;-0.000417329;-0.000539541;0.000368608;0.000643119;-0.00069184;0.00066748;1.13218;0.883255;0.00077091;0.000889973;0.929577;1.07576;62.9716;107.972;0.000751319;-0.000417292;-0.000614581;-0.000464561;0.000368565;-0.000508539;0.00514027;0;0.0133919;-0.0144144;-0.0575103;-0.113306;0.127881;-6.16854;0.00121896;-0.000368521;0.000549998;0.00138216;0.000386799;0.000497679;-2.2163;-0.451203;0.000823369;0.000663573;-3.57332;-0.279851;167.186;32.1859;-0.00224421;0.00121876;-8.35701e-06;-0.000728926;0.000550066;0.0161507;0.00770077;0;0.0397362;-0.00748728;0.729406
79000;80;25.7522;-0.00271085;-0.000105256;-2.19365;25.6586;-0.0352264;-0.00461741;-0.00312294;-0.0641346;-0.0101329;-0.0587034;-0.0480718;0.0765484;-6.12625;-0.000236666;-0.000107287;0.000376386;0.00039462;-0.000254899;0.000324759;0.628784;1.59037;0.000377881;0.000433012;1.54814;0.645936;72.4957;117.496;0.000957418;-0.00023666;-0.000204548;-1.00853e-05;0.000376371;-0.00108075;0.00458123;0;0.0176025;-0.0136711;-0.0577142;-0.1137;0.12824;-6.16894;0.00119669;-0.000346889;0.00067147;0.00136916;0.000498997;0.000435081;-1.78219;-0.561108;0.000800108;0.000580108;-2.74382;-0.364455;167.29;32.2898;-0.00230736;0.0011964;0.000138763;-0.000832796;0.00067152;0.0125943;0.0102783;0;0.0430268;-0.00750885;0.735704
80000;81;25.7524;-0.00253635;-9.848e-05;-2.19406;25.6588;-0.0357673;-0.0050274;-0.0029836;-0.0646756;-0.0105616;-0.0585558;-0.0493663;0.0773134;-6.12754;-0.000518332;-0.000411221;0.000366923;0.000528465;-0.000679875;0.00060417;1.41265;0.707891;0.000699459;0.00080556;0.777298;1.28651;51.9675;96.9675;0.00122565;-0.000518285;-0.000548062;-0.0002745;0.000366857;-0.00244129;0.00418397;0;0.0268907;-0.0141308;-0.0577783;-0.115484;0.129902;-6.17072;0.00117624;-0.000339177;0.000614065;0.00133567;0.00045464;0.000440513;-1.9155;-0.522057;0.000784136;0.000587351;-2.93785;-0.340385;161.17;26.1701;-0.00229559;0.00117615;-0.000137474;-0.000540994;0.000614113;0.0145255;0.0100971;0;0.0451918;-0.00742422;0.741999
81000;82;25.7533;-0.00167059;-6.48646e-05;-2.19507;25.6595;-0.0356181;-0.00603605;-0.00220073;-0.0645264;-0.010268;-0.0610349;-0.0425885;0.0751297;-6.12076;-0.000506315;-0.000201017;0.000188045;0.000242041;-0.000560311;0.000401176;2.69252;0.3714;0.000475231;0.000534901;0.431976;2.31494;29.624;74.624;0.00093262;-0.000506301;-0.000289886;-0.00011221;0.000188024;-0.00179022;0.00392243;0;0.0334842;-0.0139791;-0.0598774;-0.109951;0.125976;-6.16519;0.00108269;-0.000319681;0.000612937;0.0012445;0.000451124;0.00039669;-1.7664;-0.566123;0.000727516;0.000528921;-2.75868;-0.362493;162.84;27.8397;-0.00256677;0.00108255;-2.13589e-05;-0.000618142;0.000612988;0.0152694;0.0115457;0;0.0462247;-0.00734216;0.748815
82000;83;25.7509;-0.00409843;-0.000159132;-2.19529;25.6571;-0.0386584;-0.0062518;-0.00466031;-0.0675667;-0.0099885;-0.0631749;-0.0425956;0.0768454;-6.12077;-0.00038009;-0.000138838;0.000136339;0.000171298;-0.000415049;0.000293174;2.78784;0.358701;0.000348142;0.000390898;0.412717;2.42297;38.063;83.063;0.000771567;-0.00038008;-0.000273539;-4.20708e-06;0.000136311;-0.000723411;0.0064065;0;0.0173597;-0.0135242;-0.0611337;-0.113039;0.129221;-6.16828;0.00130602;-0.000329495;0.000530643;0.00142712;0.000409539;0.000508792;-2.4612;-0.406306;0.000848512;0.000678389;-3.4847;-0.286968;161.732;26.732;-0.00241582;0.001306;-0.000268062;-0.000390977;0.000530661;0.0163469;0.011781;0;0.0395341;-0.0074096;0.756456
83000;84;25.751;-0.00394221;-0.000153066;-2.19556;25.6572;-0.0379926;-0.00652235;-0.00452567;-0.0669009;-0.00900961;-0.0623159;-0.0485079;0.0794825;-6.12668;-0.000463916;-0.000269076;0.000157119;0.000257482;-0.000564279;0.000410881;2.95264;0.33868;0.000485341;0.000547841;0.456303;2.19153;43.1482;88.1482;0.00160527;-0.000463886;-0.000424569;-0.00011368;0.000157065;-0.00300617;0.00474564;0;0.014206;-0.0129649;-0.0608242;-0.119211;0.134458;-6.17445;0.00108801;-0.00029029;0.00063629;0.00122996;0.000494345;0.000367807;-1.70994;-0.584817;0.000714657;0.000490409;-2.48806;-0.40192;158.829;23.8289;-0.0020619;0.00108796;-0.000141696;-0.00043895;0.000636322;0.0152665;0.0114965;0;0.0406681;-0.00738712;0.763215
84000;85;25.7527;-0.00223098;-8.66234e-05;-2.1973;25.6588;-0.0347131;-0.00826499;-0.00295272;-0.0636213;-0.00911805;-0.0623507;-0.053855;0.0828922;-6.13203;-0.000547589;-0.000330288;-0.000150978;3.5963e-05;-0.000734531;0.000385247;-3.62694;-0.275714;0.000502104;0.000513662;0.0489606;20.4246;43.9392;88.9392;0.00177634;-0.000547544;-0.000522738;-0.000137913;-0.00015106;-0.00312199;0.00548742;0;0.0141621;-0.0131613;-0.0609863;-0.124525;0.13928;-6.17712;0.00111947;-0.00015922;0.000477658;0.0011568;0.00044033;0.000358234;-2.34367;-0.426682;0.000674191;0.000477646;-2.62712;-0.380645;175.115;40.1155;-0.00140796;0.0011194;7.9262e-05;-0.000397854;0.000477668;0.014307;0.012033;0;0.0386888;-0.00738109;0.771424
85000;86;25.7522;-0.00278196;-0.000108017;-2.19666;25.6583;-0.039785;-0.00762969;-0.00345868;-0.0686933;-0.00980809;-0.0631333;-0.0562995;0.0851566;-6.13447;-0.000395817;-7.60526e-05;0.000567609;0.000573575;-0.000401784;0.000487679;0.697342;1.43402;0.000566028;0.000650239;1.42757;0.70049;63.0167;108.017;0.00207954;-0.000395819;-0.000244308;9.20409e-05;0.000567582;-0.00330478;0.00525774;0;0.016317;-0.0137684;-0.062027;-0.129917;0.144622;-6.18251;0.0011191;-0.000382805;0.000491059;0.0013002;0.000309955;0.000495125;-2.27895;-0.438798;0.000784177;0.000660166;-4.19481;-0.23839;159.391;24.3909;-0.000712921;0.00111904;-0.000249179;-0.000516514;0.000491102;0.0130894;0.0114308;0;0.0428788;-0.00729738;0.778047
86000;87;25.7523;-0.00266052;-0.000103301;-2.19745;25.6583;-0.0392255;-0.00841127;-0.00340286;-0.0681338;-0.0086949;-0.066427;-0.0547906;0.0865457;-6.13296;-0.000557495;-0.000210425;0.000307071;0.000355566;-0.00060599;0.000480778;1.81552;0.550805;0.000561395;0.000641037;0.586752;1.7043;42.3309;87.3309;0.00176654;-0.000557473;-0.00041644;-4.58798e-06;0.000307007;-0.00284864;0.00447417;0;0.0340724;-0.0129343;-0.0643803;-0.130533;0.14612;-6.18577;0.00112573;-0.000303349;0.000265416;0.00122193;0.000169212;0.00052636;-4.24136;-0.235773;0.000764485;0.000701813;-7.22128;-0.13848;163.548;28.5481;0.000662944;0.00112572;-0.00027555;-0.000331171;0.000265424;0.0101705;0.00716945;0;0.0494362;-0.00732644;0.78529
87000;88;25.7513;-0.00368044;-0.000142902;-2.19705;25.6573;-0.0426269;-0.00802081;-0.00439849;-0.0715352;-0.00983445;-0.0668674;-0.0573591;0.0886455;-6.13553;-0.000528628;-0.000394847;9.6216e-05;0.000287294;-0.000719705;0.0005035;5.49418;0.182011;0.000598992;0.000671333;0.399182;2.50512;52.2197;97.2197;0.00226638;-0.000528556;-0.00067958;-0.000110293;9.6063e-05;-0.00247081;0.00506134;0;0.0179212;-0.014051;-0.0650534;-0.136364;0.151739;-6.18896;0.00107095;-0.000340865;0.000567097;0.00124288;0.000395166;0.000423858;-1.88848;-0.529527;0.000733263;0.000565144;-3.14522;-0.317943;154.867;19.8673;0.00121713;0.00107093;-0.000294083;-0.00038767;0.000567112;0.00576215;0.0129029;0;0.0431872;-0.00700018;0.791579
88000;89;25.7512;-0.00370907;-0.000144014;-2.19815;25.6572;-0.0493535;-0.0091199;-0.00453343;-0.0782617;-0.011376;-0.0671782;-0.062833;0.0926839;-6.14101;-0.000500724;-8.44092e-05;0.000390206;0.000398132;-0.000508651;0.000453392;1.28323;0.779282;0.000524826;0.000604522;0.782722;1.27759;44.9314;89.9314;0.00179358;-0.000500741;-0.000372165;0.000203091;0.00039014;-0.00177182;0.00443769;0;0.0172614;-0.0156038;-0.0654722;-0.145623;0.160425;-6.19822;0.00121219;-0.000336257;5.34935e-05;0.0013027;-3.70192e-05;0.00066986;-22.6605;-0.0441297;0.000881066;0.000893146;35.1899;0.0284173;161.3;26.2998;0.00166447;0.00121221;-0.000416986;-0.000255436;5.34631e-05;0.00656772;0.00715214;0;0.0393397;-0.00618608;0.796859
89000;90;25.752;-0.00296418;-0.000115092;-2.19763;25.658;-0.0471442;-0.00859986;-0.00373711;-0.0760525;-0.010645;-0.0701236;-0.0627496;0.0947003;-6.14092;-0.000571013;-0.000140847;3.68381e-05;6.78879e-05;-0.000602063;0.000334975;15.5006;0.0645136;0.000425812;0.000446634;0.112759;8.86848;39.4146;84.4146;0.00245578;-0.000571029;-0.000507912;0.000225995;3.6719e-05;-0.00324384;0.00560926;0;0.0170337;-0.0143513;-0.0687268;-0.147315;0.163191;-6.19991;0.000981396;-0.0001736;0.000399751;0.00102927;0.000351878;0.000338696;-2.45502;-0.407329;0.000604074;0.000451594;-2.92508;-0.341871;163.407;28.4067;0.000866265;0.000981401;-0.00020198;-0.000145204;0.000399745;0.0059068;0.00688579;0;0.0423073;-0.00562623;0.799991
90000;91;25.7515;-0.00347376;-0.000134877;-2.19827;25.6574;-0.054925;-0.00923686;-0.0043186;-0.0838333;-0.0096432;-0.0735692;-0.0601547;0.0955196;-6.13833;-0.000385508;7.73561e-05;0.000382735;0.000390447;-0.00039322;0.000391834;1.00725;0.992807;0.000452452;0.000522445;0.992948;1.0071;39.1324;84.1324;0.00207771;-0.000385551;-0.000146286;0.000300826;0.000382728;-0.00071352;0.00577895;0;0.0198475;-0.0133855;-0.0722323;-0.149158;0.166267;-6.20175;0.000937374;-0.000345517;0.000713054;0.00118848;0.000461948;0.000363266;-1.31459;-0.760693;0.000691814;0.000484355;-2.57276;-0.388688;151.771;16.7707;0.000980687;0.000937268;-0.000115606;-0.000575481;0.000713107;0.00528007;0.00576007;0;0.0460903;-0.00475657;0.807782
91000;92;25.7534;-0.00157469;-6.11413e-05;-2.19863;25.6593;-0.0519719;-0.0095915;-0.0024368;-0.0808802;-0.0102622;-0.0757209;-0.0613096;0.0979685;-6.13948;-0.000493082;0.000108505;0.000471103;0.000483162;-0.000505142;0.000494152;1.04665;0.955425;0.000570645;0.000658869;0.956489;1.04549;37.5495;82.5495;0.00185974;-0.000493153;-0.000174485;0.000391222;0.000471093;-0.000129244;0.00339838;0;0.0181912;-0.0138743;-0.0745562;-0.15477;0.172351;-6.20736;0.000976569;-0.000287902;0.000530262;0.00111768;0.000389156;0.00036426;-1.84167;-0.542985;0.00065513;0.00048568;-2.87205;-0.348183;163.583;28.5831;0.000455989;0.000976457;-2.26227e-05;-0.0005533;0.000530304;0.00474511;0.00564094;0;0.0443419;-0.00429707;0.814843
92000;93;25.7544;-0.000525474;-2.04028e-05;-2.19667;25.6605;-0.0568791;-0.00763725;-0.00122678;-0.0857874;-0.0120373;-0.0765308;-0.0678634;0.102992;-6.14604;-0.000415255;-0.000146636;0.000275896;0.00030572;-0.000445079;0.000375399;1.50511;0.664402;0.000435956;0.000500533;0.686889;1.45584;49.7216;94.7216;0.00193258;-0.000415255;-0.000435678;0.000142207;0.000275812;0.000393545;0.00457637;0;0.0179056;-0.0152168;-0.0776241;-0.163384;0.181525;-6.21598;0.000866238;-0.000284515;0.000122751;0.000962621;2.63683e-05;0.000468126;-7.05688;-0.141706;0.000633141;0.000624168;-36.5067;-0.0273922;166.232;31.2322;0.00160347;0.00086621;-0.000198262;-0.000370832;0.000122772;0.00371942;0.00488348;0;0.0404908;-0.00389496;0.822121
93000;94;25.7566;0.00164853;6.40083e-05;-2.19327;25.663;-0.0679708;-0.00423484;0.00121921;-0.0968791;-0.0130401;-0.0820717;-0.0615602;0.103419;-6.13973;-0.000436535;4.42807e-05;0.000217606;0.00022059;-0.000439519;0.000330054;2.00608;0.498484;0.000388038;0.000440073;0.501889;1.99247;30.7462;75.7462;0.00196614;-0.00043659;-0.000243879;0.000332252;0.000217577;0.000752837;0.00568028;0;0.017951;-0.015769;-0.0839476;-0.162909;0.183944;-6.2155;0.000557287;-0.000398576;0.000474466;0.000916598;0.000115155;0.000400722;-1.17456;-0.851386;0.000576527;0.000534296;-7.95972;-0.125633;160.515;25.5153;-0.00072884;0.000556946;0.000119469;-0.000916664;0.000474538;0.00703991;0.00644668;0;0.0433571;-0.00380174;0.829764
94000;95;25.7576;0.0026397;0.000102493;-2.19358;25.6639;-0.0692606;-0.00454226;0.00218428;-0.0981688;-0.0135085;-0.0822803;-0.0580159;0.101579;-6.13619;-0.000458661;5.20326e-05;6.62482e-05;7.13563e-05;-0.000463769;0.000267563;6.92338;0.144438;0.000335504;0.00035675;0.153862;6.49934;25.007;70.007;0.00200446;-0.000458744;-0.000305181;0.000409059;6.6203e-05;8.04727e-05;0.00823699;0;0.016999;-0.0156987;-0.0842597;-0.164263;0.18528;-6.21686;0.000783896;-0.000419452;0.000381143;0.00104781;0.000117232;0.000465287;-2.0567;-0.486216;0.000662925;0.000620383;-8.93789;-0.111883;170.799;35.7993;-0.000144623;0.000783461;0.000183196;-0.00102234;0.000381214;0.0079142;0.000122722;0;0.0412259;-0.00329581;0.837356
95000;96;25.7578;0.00281634;0.000109352;-2.19328;25.6641;-0.0760403;-0.00425091;0.00236727;-0.104949;-0.0113775;-0.085331;-0.0614158;0.105748;-6.13959;-0.000552411;6.21264e-05;0.000270436;0.000275101;-0.000557075;0.000416088;2.04266;0.489557;0.000489564;0.000554784;0.493831;2.02499;28.7406;73.7406;0.00167744;-0.000552481;-0.000255527;0.000379518;0.000270406;0.00103125;0.00600917;0;0.0169858;-0.0138746;-0.0874283;-0.170712;0.192299;-6.22331;0.000640432;-0.000286475;0.000553801;0.000886848;0.000307385;0.000289731;-1.15643;-0.864731;0.000519992;0.000386308;-2.88513;-0.346604;154.947;19.9474;-0.000167799;0.000640262;7.67715e-05;-0.000649753;0.000553839;0.00992306;0.00646827;0;0.0421204;-0.0020659;0.845086
96000;97;25.7587;0.00369405;0.000143431;-2.19144;25.6651;-0.0822927;-0.00240956;0.00338619;-0.111201;-0.0128545;-0.0870262;-0.0628433;0.108111;-6.14102;-0.000618248;-0.000116811;0.000305997;0.000320532;-0.000632783;0.000476657;2.02044;0.494942;0.000560152;0.000635543;0.506543;1.97417;37.1012;82.1012;0.00185491;-0.000618253;-0.00038743;0.000153557;0.000305929;0.00104966;0.00646133;0;0.0180957;-0.0145239;-0.089265;-0.176801;0.19859;-6.2294;0.000820676;-0.000504509;0.000607065;0.00122956;0.00019818;0.000515691;-1.35188;-0.739713;0.000762284;0.000687588;-6.20428;-0.161179;164.93;29.9299;-0.00104085;0.000819965;0.000286554;-0.00129574;0.000607151;0.0127518;0.00140819;0;0.041425;-0.00070895;0.851884
97000;98;25.7602;0.00527097;0.000204658;-2.19183;25.6667;-0.0845812;-0.0027947;0.00492853;-0.113489;-0.0111044;-0.084278;-0.0762319;0.114181;-6.15441;-0.000168523;0.000366641;0.00101172;0.00111635;-0.000273145;0.000694746;0.16657;6.00347;0.000850036;0.000926328;4.08701;0.244678;53.4983;98.4983;0.00195367;-0.000168726;-2.23759e-06;0.000735085;0.00101179;-0.000173876;0.00321942;0;0.0170466;-0.0131026;-0.0887499;-0.190369;0.210449;-6.24296;0.000806623;-0.000373212;0.000587196;0.00108591;0.000307905;0.000389004;-1.37369;-0.727968;0.000646239;0.000518672;-3.52678;-0.283545;169.434;34.4338;-0.00124707;0.000805871;0.000535624;-0.00128225;0.000587122;0.0118625;0.0060325;0;0.0417751;-0.000106513;0.858647
98000;99;25.7592;0.00421634;0.00016371;-2.19108;25.6656;-0.0956755;-0.00204706;0.00389493;-0.124584;-0.0126006;-0.0866332;-0.0689646;0.111446;-6.14714;-0.000394852;9.35645e-05;0.00060492;0.000613601;-0.000403533;0.000508567;0.652734;1.53202;0.000591403;0.000678089;1.52057;0.657647;48.2993;93.2993;0.00168506;-0.000394941;-0.000246134;0.000432924;0.000604894;0.00201788;0.00675608;0;0.022673;-0.0140238;-0.0914482;-0.188985;0.210415;-6.24158;0.000949196;-0.000354949;0.000691969;0.00119811;0.000443051;0.000377532;-1.37173;-0.729005;0.000699506;0.000503375;-2.70424;-0.36979;170.067;35.0672;-0.00134098;0.000948359;0.000631796;-0.00134195;0.000691832;0.0113853;0.00518697;0;0.04209;3.69678e-05;0.86471
99000;100;25.7592;0.00419864;0.000163023;-2.19049;25.6657;-0.099022;-0.00145527;0.00391499;-0.12793;-0.011628;-0.0857037;-0.0770339;0.115821;-6.15521;-0.000324866;0.000159467;0.00105525;0.00107343;-0.000343052;0.000708242;0.307858;3.24825;0.000853277;0.000944322;3.12906;0.319584;63.1223;108.122;0.00163345;-0.000324965;-0.0001555;0.000473999;0.00105525;0.000789824;0.0041745;0;0.017757;-0.0130405;-0.0907017;-0.199252;0.219313;-6.25185;0.00083539;-0.00029994;0.000641323;0.0010536;0.000423111;0.000315245;-1.3026;-0.767693;0.000612212;0.000420327;-2.49013;-0.401586;167.451;32.4511;-0.000183654;0.000834839;0.000492008;-0.00109204;0.000641247;0.0121844;0.0034146;0;0.0419084;0.00104316;0.869512
100000;101;25.7587;0.00374336;0.000145345;-2.1898;25.6652;-0.104573;-0.000762166;0.00349518;-0.133481;-0.0114353;-0.0870857;-0.0794504;0.118436;-6.15762;-0.00028503;0.000223581;0.00113013;0.00116461;-0.000319513;0.000742062;0.252211;3.96494;0.000901976;0.000989416;3.64495;0.274352;66.4386;111.439;0.00181022;-0.000285112;-1.6623e-05;0.000463446;0.00113015;0.00165745;0.00342436;0;0.0161838;-0.0122373;-0.0917755;-0.207335;0.227069;-6.25993;0.000771769;-0.00037897;0.000793937;0.00116199;0.000403721;0.000379132;-0.972078;-1.02872;0.000681202;0.00050551;-2.87819;-0.34744;148.09;13.0901;-7.4001e-06;0.000771526;3.51259e-05;-0.000793057;0.000794008;0.0140178;0.00413688;0;0.0427243;0.00343208;0.873929
101000;102;25.7581;0.00317239;0.000123176;-2.18937;25.6647;-0.10822;-0.000340046;0.00294302;-0.137129;-0.0095502;-0.0865775;-0.0865038;0.122759;-6.16468;-0.000181166;0.000411588;0.00104258;0.00116813;-0.000306717;0.000737423;0.173768;5.75481;0.000898613;0.000983231;3.80849;0.262571;52.5196;97.5196;0.00177895;-0.000181391;3.62901e-05;0.000786427;0.00104266;0.000101179;0.00459712;0;0.015727;-0.010728;-0.0920902;-0.216965;0.235944;-6.26956;0.000731537;-0.000345059;0.000524606;0.000988309;0.000267835;0.000360237;-1.39445;-0.717128;0.000590211;0.000480316;-3.68999;-0.271003;151.053;16.0526;-0.000421973;0.000731463;-0.000171801;-0.000518352;0.000524651;0.0140035;0.00347869;0;0.0425514;0.0038415;0.880794
102000;103;25.7561;0.00117318;4.55518e-05;-2.18886;25.6627;-0.121168;0.000172941;0.000922427;-0.150077;-0.0125823;-0.0919018;-0.0678123;0.114903;-6.14599;-0.000402424;3.56912e-05;0.000785681;0.000786753;-0.000403495;0.000595124;0.512197;1.95237;0.000698964;0.000793499;1.94984;0.512862;57.0749;102.075;0.00118215;-0.000402504;-0.000331465;0.000402412;0.000785627;0.00224285;0.00668505;0;0.0186474;-0.0123053;-0.0949249;-0.209685;0.230499;-6.26228;0.000954813;-0.00042827;0.000542359;0.00122392;0.000273249;0.000475337;-1.76048;-0.568026;0.000741834;0.000633782;-4.47914;-0.223257;163.028;28.0282;0.000175722;0.000954529;1.02316e-05;-0.000866952;0.00054245;0.0125092;0.00477701;0;0.0419782;0.00469965;0.888325
103000;104;25.7562;0.00120396;4.67468e-05;-2.18827;25.6627;-0.124145;0.000759113;0.000989081;-0.153053;-0.0136595;-0.0935648;-0.0658384;0.11522;-6.14401;-0.000372954;-4.1181e-05;0.00102686;0.00102807;-0.000374164;0.000701119;0.363197;2.75332;0.000838412;0.000934825;2.74765;0.363947;63.7058;108.706;0.00106305;-0.000373051;-0.000525774;0.000442734;0.00102673;0.00275202;0.00436095;0;0.0150871;-0.0125484;-0.0952929;-0.214183;0.234761;-6.26678;0.000891679;-0.000287391;0.000426441;0.0010288;0.000289323;0.000369737;-2.09098;-0.478244;0.000612636;0.000492983;-3.55588;-0.281224;169.784;34.7836;-0.000889993;0.000891491;0.000102274;-0.000677237;0.000426477;0.0113725;0.00995614;0;0.0425286;0.00728541;0.895466
104000;105;25.7534;-0.00154922;-6.01522e-05;-2.18828;25.6599;-0.13319;0.000751768;-0.0018201;-0.162098;-0.0130312;-0.0976657;-0.060057;0.115392;-6.13823;-0.000347706;1.3379e-05;0.000753528;0.000753691;-0.000347868;0.000550779;0.461437;2.16714;0.000650213;0.000734373;2.1666;0.461553;56.3843;101.384;0.000589418;-0.000347814;-0.000439523;0.000465783;0.000753432;0.00319327;0.00632447;0;0.015296;-0.0126266;-0.0985362;-0.212991;0.235019;-6.26558;0.000951741;-0.000237202;0.000647013;0.0010813;0.000517456;0.000281921;-1.47098;-0.679821;0.000624479;0.000375895;-2.08964;-0.478551;163.172;28.1721;0.00020931;0.000951596;0.000112789;-0.0005873;0.000647035;0.00771431;0.0100692;0;0.0433865;0.00789461;0.903614
105000;106;25.7522;-0.0027321;-0.000106081;-2.18894;25.6586;-0.141213;9.09576e-05;-0.00310657;-0.170121;-0.0108703;-0.0968538;-0.0638698;0.116525;-6.14204;-0.000210356;0.000292745;0.000746612;0.000829061;-0.000292806;0.000560934;0.281748;3.54927;0.000671923;0.000747912;2.83144;0.353178;47.8552;92.8552;0.00223052;-0.000210522;-6.12388e-05;0.000646391;0.000746652;-0.000292399;0.00810661;0;0.0253451;-0.0102721;-0.0974365;-0.224149;0.244626;-6.27674;0.000829828;-0.00034861;0.000221994;0.000988398;6.34242e-05;0.000462487;-3.73806;-0.267519;0.000638841;0.000616649;-15.5839;-0.0641688;165.793;30.7927;0.000649691;0.00082974;-0.00015189;-0.000545448;0.000222044;0.00950098;0.0157447;0;0.0406129;0.00979002;0.910503
106000;107;25.7553;0.000378864;1.47103e-05;-2.18818;25.6618;-0.136856;0.000854773;0.000104495;-0.165764;-0.0111373;-0.0912225;-0.0865749;0.126257;-6.16475;-0.000172762;0.000123358;0.00149784;0.0015069;-0.000181822;0.00084436;0.115341;8.66994;0.00107037;0.00112581;8.28777;0.12066;70.872;115.872;0.0012376;-0.000172881;-0.00025754;0.00050362;0.00149781;0.00162349;0.0059636;0;0.029363;-0.0104153;-0.0950202;-0.241283;0.259528;-6.29388;0.000948369;-0.000373436;-5.12543e-06;0.00107721;-0.000133971;0.000605593;;;0.000766711;0.000807457;8.04066;0.124368;171.538;36.5378;0.00147388;0.000948284;-0.000191001;-0.000556045;-5.07394e-06;0.00935039;0.0125343;0;0.0396137;0.0109331;0.917733
107000;108;25.7535;-0.0014376;-5.58184e-05;-2.18986;25.6599;-0.140181;-0.00082362;-0.00187972;-0.169089;-0.0106264;-0.0964989;-0.0723724;0.12109;-6.15055;-0.000176707;4.3244e-05;0.00107296;0.00107446;-0.000178202;0.000626331;0.164691;6.07199;0.0007825;0.000835107;6.02945;0.165853;64.5306;109.531;0.00193901;-0.000176843;-0.000437613;0.0005235;0.00107287;-0.00053126;0.0086249;0;0.0275921;-0.00964843;-0.0984222;-0.236214;0.25608;-6.28881;0.000989236;-0.000387321;1.25983e-05;0.00112419;-0.000122359;0.000623276;-78.5217;-0.0127353;0.0007934;0.000831035;9.18767;0.108842;158.9;23.8999;0.00200682;0.000989248;-0.000420414;-0.000354196;1.25849e-05;0.00859531;0.0131291;0;0.0401555;0.0140866;0.925158
108000;109;25.7524;-0.00252332;-9.7974e-05;-2.18839;25.6589;-0.147359;0.000641247;-0.00288464;-0.176267;-0.0106848;-0.0981218;-0.0738929;0.123297;-6.15207;-0.00028612;-3.89706e-05;0.000907787;0.000909057;-0.00028739;0.000598224;0.315184;3.17275;0.000721182;0.000797632;3.16315;0.316141;65.3422;110.342;0.000870629;-0.000286189;-0.00045271;0.000374275;0.000907685;0.00251804;0.00563215;0;0.01847;-0.00991376;-0.0996663;-0.244369;0.264099;-6.29696;0.000981842;-0.000373585;1.18685e-05;0.00110905;-0.000115336;0.000612191;-82.7268;-0.012088;0.000780655;0.000816255;9.61578;0.103996;165.728;30.7284;0.00143548;0.000981809;-0.000294321;-0.000452926;1.18949e-05;0.00791219;0.0135128;0;0.0391026;0.0168762;0.933072
109000;110;25.7514;-0.00351211;-0.000136366;-2.18905;25.6578;-0.151239;-1.89566e-05;-0.00395594;-0.180148;-0.0106905;-0.0989891;-0.0772297;0.126006;-6.1554;-0.000337744;-8.80183e-05;0.00159495;0.00159896;-0.000341744;0.00097035;0.211758;4.72238;0.00119627;0.0012938;4.67881;0.21373;75.0783;120.078;0.00130647;-0.000337802;-0.000529725;0.000352837;0.00159482;0.00220439;0.00543394;0;0.0327598;-0.00954157;-0.101248;-0.247806;0.267862;-6.3004;0.000963888;-0.000371262;-0.000219025;0.00107076;-0.000325893;0.000698324;4.40081;0.227231;0.000843715;0.000931099;3.28561;0.304358;165.102;30.1024;0.00194928;0.000963882;-0.000356166;-0.000386377;-0.000219019;0.00826771;0.00834673;0;0.0410015;0.0185193;0.938952
110000;111;25.7507;-0.00430467;-0.000167139;-2.19031;25.6569;-0.154227;-0.00127549;-0.00487641;-0.183136;-0.00983446;-0.102244;-0.0724285;0.125684;-6.1506;-0.000235259;-1.97084e-05;0.00143754;0.00143777;-0.000235491;0.00083663;0.163654;6.11045;0.00104589;0.00111551;6.10541;0.163789;74.4525;119.452;0.00158931;-0.000235324;-0.00040246;0.000362404;0.00143746;0.000297408;0.00617078;0;0.0137761;-0.00934062;-0.103248;-0.249606;0.270279;-6.3022;0.000861317;-0.000366598;-0.000273042;0.00096948;-0.000381204;0.000675342;3.15453;0.317005;0.000804094;0.000900456;2.5432;0.393205;160.67;25.6696;0.00145181;0.000861328;-0.000396384;-0.000336777;-0.000273053;0.00837356;0.0100696;0;0.0383649;0.0220577;0.945545
111000;112;25.7506;-0.00436056;-0.00016931;-2.18969;25.6568;-0.159494;-0.000655158;-0.00491176;-0.188402;-0.00898546;-0.104312;-0.0709333;0.126464;-6.14911;-0.000190034;3.42771e-07;0.00105707;0.00105707;-0.000190034;0.000623551;0.179774;5.56253;0.000775854;0.000831402;5.56253;0.179774;66.6167;111.617;0.00150958;-0.00019014;-0.000460859;0.00046097;0.00105696;-0.000195718;0.00654502;0;0.041164;-0.00855108;-0.104917;-0.251953;0.273059;-6.30455;0.00083476;-0.000344654;-0.000240038;0.000935784;-0.000341063;0.000638423;3.47761;0.287554;0.000763378;0.000851231;2.74373;0.364467;168.764;33.7638;0.00101599;0.00083474;-0.000291156;-0.00039821;-0.000240021;0.00943547;0.00536759;0;0.041013;0.0251991;0.948463
112000;113;25.7504;-0.00455917;-0.000177021;-2.19127;25.6565;-0.163032;-0.00224042;-0.00526868;-0.19194;-0.0102978;-0.104384;-0.076051;0.12956;-6.15422;-0.000251341;3.31612e-05;0.000975544;0.00097644;-0.000252237;0.000614338;0.257642;3.88136;0.000749326;0.000819118;3.87112;0.258323;61.7571;106.757;0.00179298;-0.000251476;-0.000454895;0.00052062;0.000975441;-0.000858167;0.00672158;0;0.014163;-0.00997625;-0.10555;-0.262756;0.283339;-6.31535;0.000767678;-0.000410889;-0.000471847;0.000891512;-0.000595681;0.000743596;1.62697;0.614641;0.000864275;0.000991462;1.49663;0.668169;131.914;176.914;0.00110963;0.000767755;-0.000696528;-0.000124896;-0.000472005;0.00675874;0.00772369;0;0.0359274;0.0321529;0.961527
113000;114;25.749;-0.00596544;-0.000231623;-2.18958;25.6551;-0.172308;-0.000547189;-0.00659616;-0.201216;-0.0119524;-0.108093;-0.0643044;0.126341;-6.14248;-0.000260344;-2.42023e-05;0.000874149;0.000874666;-0.00026086;0.000567763;0.297825;3.35767;0.000686781;0.000757017;3.35301;0.29824;61.7447;106.745;0.000822777;-0.000260462;-0.000534701;0.000485718;0.000874007;0.00133135;0.00806746;0;0.0128172;-0.0108369;-0.107176;-0.260018;0.281448;-6.31261;0.000784741;-0.000339893;-0.000480231;0.000870284;-0.000565774;0.000718029;1.63409;0.611961;0.000835299;0.000957372;1.53822;0.650102;160.927;25.9268;0.00154538;0.00078475;-0.000366434;-0.000313318;-0.00048024;0.00593927;0.011747;0;0.0373583;0.0360467;0.962813
114000;115;25.7499;-0.00507931;-0.000197217;-2.19016;25.656;-0.176601;-0.00113087;-0.0057858;-0.20551;-0.00960731;-0.104158;-0.0769675;0.129866;-6.15514;-0.000188732;8.89566e-05;0.00106953;0.00107579;-0.00019499;0.000635388;0.176463;5.66691;0.000790247;0.000847184;5.51713;0.181254;61.8371;106.837;0.0021252;-0.000188898;-0.000405613;0.000582904;0.00106945;-0.000933351;0.00579569;0;0.0165786;-0.00955701;-0.105633;-0.271049;0.291062;-6.32364;0.000616996;-0.000256596;-0.000342572;0.000681302;-0.000406878;0.00054409;1.80107;0.555225;0.000634886;0.000725453;1.67447;0.597206;140.553;5.55284;0.00239484;0.000617025;-0.00042453;-8.85005e-05;-0.000342629;0.00496221;0.0114599;0;0.0355958;0.0395533;0.968975
115000;116;25.7498;-0.00516038;-0.000200365;-2.18859;25.656;-0.180881;0.000448543;-0.0057622;-0.20979;-0.0114279;-0.105352;-0.0749518;0.129797;-6.15313;-0.000258452;0.000142749;0.000965545;0.000981972;-0.00027488;0.000628426;0.267675;3.73587;0.000762963;0.000837902;3.57237;0.279927;52.1632;97.1632;0.00177071;-0.000258781;-0.000538788;0.000823453;0.00096541;-0.000773418;0.00657648;0;0.0279914;-0.00999055;-0.107073;-0.273249;0.293649;-6.32584;0.00055541;-0.000386759;-0.000859451;0.00065423;-0.000958271;0.000806251;0.646238;1.54742;0.000936478;0.001075;0.682719;1.46473;113.426;158.426;0.00166499;0.000555464;-0.000974171;0.000201486;-0.000859851;0.0018145;0.0107384;0;0.0425618;0.0444711;0.976327
116000;117;25.7489;-0.00606066;-0.00023532;-2.18895;25.655;-0.184573;7.97506e-05;-0.00672353;-0.213482;-0.0103558;-0.107558;-0.0776578;0.133066;-6.15583;-0.000337281;0.000178287;0.000715372;0.000744749;-0.000366658;0.000555703;0.471477;2.121;0.00065393;0.000740938;2.03118;0.492324;43.6574;88.6574;0.0019658;-0.000337616;-0.00048101;0.00083689;0.000715273;-0.00137558;0.00781563;0;0.0161084;-0.00986027;-0.107923;-0.283862;0.303846;-6.33646;0.000610822;-0.000339179;-0.000718463;0.000692365;-0.000800006;0.000746185;0.850179;1.17622;0.000862367;0.000994914;0.86545;1.15547;51.2551;96.2551;0.000536044;0.000610798;-0.000274046;-0.000404398;-0.000718443;0.00713484;0.0113639;0;0.0377328;0.0543689;0.982949
117000;118;25.7521;-0.00285934;-0.000111021;-2.19045;25.6581;-0.178584;-0.00141268;-0.00359548;-0.207492;-0.00869219;-0.109926;-0.0765388;0.134229;-6.15471;-0.000269573;0.000173006;0.000728379;0.00075752;-0.000298714;0.000528117;0.3701;2.70198;0.000628702;0.000704157;2.53594;0.394332;44.5133;89.5133;0.00177197;-0.000269939;-0.000528077;0.000873391;0.000728254;-0.00123456;0.00696549;0;0.0200196;-0.00883629;-0.111438;-0.283994;0.305203;-6.33659;0.000710591;-0.000328236;-0.000545959;0.000791166;-0.000626534;0.00070885;1.30155;0.768316;0.000820347;0.000945133;1.26277;0.791912;140.699;5.6986;0.000205334;0.000710619;-0.000429906;-0.000226439;-0.000545997;0.00649717;0.0136082;0;0.0399904;0.058412;0.990607
118000;119;25.7516;-0.00331046;-0.000128537;-2.19;25.6577;-0.186477;-0.000968697;-0.0040665;-0.215386;-0.00842869;-0.112082;-0.078848;0.137297;-6.15702;-0.000227828;0.000184709;0.000433138;0.000481253;-0.000275943;0.000378598;0.525994;1.90116;0.000442492;0.000504797;1.74403;0.573385;34.3739;79.3739;0.00238387;-0.000228236;-0.000552731;0.000921662;0.000433002;-0.00219113;0.00690531;0;0.0161091;-0.00853929;-0.113457;-0.290952;0.312408;-6.34355;0.000591912;-0.000351192;-0.000398106;0.000703837;-0.000510031;0.000606934;1.48682;0.672576;0.000703799;0.000809246;1.37999;0.724644;18.5103;63.5103;-0.00088146;0.000591758;-4.61501e-05;-0.000656536;-0.000398045;0.00749119;0.0110279;0;0.0400332;0.0677964;0.996568
119000;120;25.7543;-0.00067109;-2.60567e-05;-2.19107;25.6602;-0.188335;-0.0020402;-0.00152251;-0.217243;-0.00796525;-0.112919;-0.0827444;0.140217;-6.16092;-0.000412589;0.000175482;0.000890421;0.00091364;-0.000435808;0.000674724;0.463364;2.15813;0.000795218;0.000899632;2.09643;0.477002;46.4722;91.4722;0.00275564;-0.000412988;-0.000560478;0.000910483;0.000890279;-0.00322686;0.00685816;0;0.0196207;-0.00865712;-0.115438;-0.297982;0.319678;-6.35058;0.000644549;-0.000394333;-0.000285077;0.000789285;-0.000429813;0.000609549;2.26096;0.442289;0.000713973;0.000812732;1.83634;0.54456;174.8;39.8001;-0.000243903;0.000644503;-0.000290963;-0.0004978;-0.000285042;0.00818969;0.0126854;0;0.0421112;0.0795497;1.00457
120000;121;25.7549;-6.18293e-05;-2.40067e-06;-2.19004;25.6608;-0.20019;-0.00100405;-0.000912308;-0.229098;-0.00682469;-0.114501;-0.0825052;0.141294;-6.16068;-0.000441555;0.00016706;0.000283764;0.000320392;-0.000478183;0.000399288;1.55606;0.642647;0.000464048;0.000532384;0.67002;1.49249;29.8366;74.8366;0.00256217;-0.000442011;-0.000635462;0.000968999;0.000283576;-0.00272506;0.00755523;0;0.0214056;-0.00778561;-0.117289;-0.301927;0.324002;-6.35452;0.000737443;-0.000274228;-0.00018611;0.000812731;-0.000261398;0.000537065;3.96241;0.252372;0.000646807;0.000716086;3.10917;0.321629;176.494;41.4935;-0.00153879;0.000737403;-0.000153289;-0.00039528;-0.000186084;0.00965286;0.0114178;0;0.0415387;0.0912675;1.0119
121000;122;25.7547;-0.000304391;-1.18187e-05;-2.19024;25.6605;-0.206744;-0.00120818;-0.00122515;-0.235653;-0.00616245;-0.116336;-0.0797545;0.141184;-6.15793;-0.000531059;0.000199521;6.88652e-05;0.000129161;-0.000591355;0.000360258;7.71157;0.129675;0.000443603;0.000480344;0.218416;4.57842;20.2969;65.2969;0.00194163;-0.000531555;-0.000617334;0.00101589;6.86946e-05;-0.000775101;0.00551987;0;0.0193773;-0.0073917;-0.118707;-0.303771;0.326225;-6.35637;0.00062582;-0.000248375;-0.000125607;0.000700496;-0.000200283;0.00045039;4.98236;0.200708;0.00054614;0.00060052;3.49753;0.285916;8.73078;53.7308;-0.00236999;0.000625696;5.97222e-05;-0.000556703;-0.000125578;0.0112376;0.00909668;0;0.0400875;0.102268;1.01423
122000;123;25.7549;-9.12876e-05;-3.54447e-06;-2.19078;25.6607;-0.205293;-0.00174176;-0.00104516;-0.234201;-0.00533892;-0.1183;-0.0779711;0.141784;-6.15614;-0.000463297;0.000299928;-1.81043e-05;0.000132805;-0.000614206;0.000373505;-25.5904;-0.0390772;0.000460172;0.000498007;0.216222;4.62488;10.1973;55.1973;0.00187868;-0.000463888;-0.000528079;0.00112757;-1.81988e-05;0.000147985;0.00796623;0;0.0199065;-0.00658039;-0.12037;-0.306369;0.329232;-6.35896;0.000794174;-0.000433929;0.000173294;0.00101728;-4.98083e-05;0.000533543;-4.5828;-0.218207;0.000695382;0.00071139;20.4238;0.0489624;171.26;36.2604;-0.00187377;0.00079395;-7.00855e-05;-0.000797999;0.000173386;0.00997885;0.0150649;0;0.040358;0.117217;1.02091
123000;124;25.7552;0.00024112;9.36209e-06;-2.19184;25.6609;-0.211356;-0.00280773;-0.000851785;-0.240264;-0.00422176;-0.11982;-0.0772837;0.142644;-6.15546;-0.000413926;0.000309795;3.72491e-05;0.000194888;-0.000571565;0.000383227;11.1124;0.0899897;0.000459981;0.000510969;0.340973;2.93279;12.0288;57.0288;0.00237775;-0.000414591;-0.000574169;0.00119336;3.71322e-05;-0.000748233;0.00789768;0;0.0149291;-0.00598994;-0.121673;-0.310382;0.333432;-6.36298;0.000819918;-0.000437938;1.67482e-05;0.00101252;-0.000175856;0.000594189;-48.9556;-0.0204267;0.000740626;0.000792252;5.75769;0.173681;5.85566;50.8557;-0.00315338;0.000819364;0.000263991;-0.00114043;1.68093e-05;0.00952269;0.019116;0;0.0404294;0.13445;1.02658
124000;125;25.7555;0.000592867;2.30195e-05;-2.19191;25.6612;-0.212947;-0.00287129;-0.000517327;-0.241855;-0.00351498;-0.120021;-0.0789331;0.143694;-6.15711;-0.000341801;0.000160418;2.82303e-05;8.80917e-05;-0.000401663;0.000244877;12.1076;0.0825928;0.00030146;0.000326503;0.219318;4.5596;19.8149;64.8149;0.00284772;-0.000342394;-0.000779604;0.00110009;2.79393e-05;-0.000886;0.00907627;0;0.0161361;-0.00545823;-0.121583;-0.316633;0.339218;-6.36923;0.000734604;-0.000437494;0.00014768;0.000967944;-8.56608e-05;0.000526803;-4.97431;-0.201033;0.000675662;0.000702403;11.2997;0.0884977;175.135;40.1346;-0.00310852;0.000734294;2.61958e-05;-0.000901456;0.000147775;0.0108612;0.0155142;0;0.0395016;0.148852;1.0337
125000;126;25.7563;0.00133522;5.18433e-05;-2.19214;25.6619;-0.214499;-0.00310854;0.00019456;-0.243408;-0.00317766;-0.120469;-0.080877;0.145134;-6.15905;-0.000470778;0.000239955;0.000261149;0.000332802;-0.000542431;0.000437616;1.80272;0.554719;0.000510124;0.000583488;0.613538;1.62989;25.0827;70.0827;0.00323983;-0.000471405;-0.00066504;0.00114429;0.000260957;-0.000747818;0.00757205;0;0.0163462;-0.00550354;-0.12193;-0.321873;0.344237;-6.37447;0.000802644;-0.000374417;2.32135e-05;0.00095336;-0.000127503;0.000540432;-34.5767;-0.0289212;0.000682059;0.000720575;7.47719;0.13374;5.89278;50.8928;-0.00306821;0.000802236;0.000229804;-0.000979109;2.32572e-05;0.0134159;0.013983;0;0.035579;0.164147;1.04109
126000;127;25.755;8.79608e-06;3.4153e-07;-2.19316;25.6605;-0.222296;-0.00412705;-0.00129013;-0.251205;-0.00222514;-0.122067;-0.0804038;0.146185;-6.15858;-0.000415214;0.000107128;0.000148224;0.000167905;-0.000434895;0.0003014;2.80125;0.356983;0.000359226;0.000401867;0.386082;2.59012;30.5531;75.5531;0.00288057;-0.000415754;-0.000830994;0.00104472;0.000147885;-8.981e-05;0.00497936;0;0.0203329;-0.00491875;-0.123741;-0.325159;0.347943;-6.37775;0.000848083;-0.000431852;0.000210892;0.00106614;-7.16812e-06;0.000536656;-4.0214;-0.248669;0.000713164;0.000715541;;;179.155;44.1554;-0.00162098;0.000847563;0.000243695;-0.00110783;0.000210956;0.0136825;0.0185968;0;0.0392166;0.183575;1.04896
127000;128;25.755;4.93259e-05;1.9152e-06;-2.19313;25.6605;-0.225802;-0.00409225;-0.00127709;-0.25471;-0.00118529;-0.123252;-0.0793519;0.146592;-6.15753;-0.000556807;0.000226606;-1.5862e-05;6.65188e-05;-0.000639188;0.000352853;-35.1031;-0.0284875;0.00044994;0.000470471;0.104068;9.60913;16.8669;61.8669;0.00293322;-0.000557505;-0.000750334;0.00120302;-1.61178e-05;4.20507e-05;0.00707012;0;0.0202648;-0.00440278;-0.124511;-0.328581;0.351408;-6.38118;0.00065202;-0.000476892;0.000435184;0.00103266;5.45419e-05;0.00048906;-1.49826;-0.66744;0.000671001;0.000652081;-18.9334;-0.0528168;170.996;35.996;-0.00193609;0.000651169;0.000435521;-0.0013895;0.000435203;0.0127058;0.0183754;0;0.0430234;0.204203;1.05616
128000;129;25.7544;-0.000533283;-2.0706e-05;-2.19484;25.6597;-0.229756;-0.0058088;-0.00204371;-0.258664;0.0005779;-0.125675;-0.0787187;0.148294;-6.15689;-0.000500719;0.00036058;-0.000194712;4.3983e-05;-0.000739414;0.000391699;-2.57158;-0.388866;0.000508239;0.000522265;0.0594836;16.8114;2.44046;47.4405;0.00301474;-0.000501665;-0.000700586;0.00142142;-0.000194893;0.00106423;0.00626342;0;0.0179784;-0.00323165;-0.125674;-0.333918;0.356799;-6.38651;0.000850906;-0.000461985;0.000412414;0.00114303;0.000120291;0.00051137;-2.06323;-0.484676;0.000725256;0.000681826;-9.50223;-0.105238;174.375;39.3752;-0.00144503;0.000850152;0.000388224;-0.00131257;0.000412445;0.0122071;0.0201049;0;0.0416126;0.225993;1.06377
129000;130;25.7558;0.000884664;3.43493e-05;-2.19705;25.661;-0.226534;-0.00801766;-0.000780908;-0.255442;0.0016293;-0.126845;-0.0791907;0.149544;-6.15736;-0.000369847;0.000137654;0.00014195;0.000176624;-0.000404522;0.000290573;2.60548;0.383806;0.000344017;0.000387431;0.436625;2.2903;27.811;72.811;0.0026058;-0.000370556;-0.000923268;0.00119803;0.000141533;0.00142192;0.00698909;0;0.0171737;-0.00254697;-0.127413;-0.33628;0.359617;-6.38887;0.000881481;-0.000487515;0.000145496;0.0011243;-9.73216e-05;0.00061081;-6.05845;-0.165059;0.000783989;0.000814413;11.5524;0.0865621;4.84306;49.8431;-0.00180589;0.000880503;0.000505872;-0.00148163;0.000145487;0.0125642;0.0239753;0;0.0399956;0.248054;1.07116
130000;131;25.7565;0.00149667;5.81118e-05;-2.19794;25.6615;-0.229558;-0.00890448;-0.000269457;-0.258466;0.00319784;-0.128657;-0.0793241;0.15118;-6.1575;-0.000481432;8.7582e-05;0.000223357;0.000234077;-0.000492153;0.000363115;2.15544;0.463943;0.000428023;0.000484154;0.475619;2.10252;34.8084;79.8084;0.00259546;-0.000482182;-0.00105262;0.00122698;0.000222807;0.00316835;0.00650606;0;0.0181836;-0.00139399;-0.129381;-0.340796;0.364532;-6.39339;0.00112893;-0.000378583;0.000402561;0.00129037;0.000241124;0.000524623;-2.80438;-0.356585;0.0007922;0.000699497;-5.35147;-0.186864;3.65627;48.6563;-0.00157334;0.001128;0.000657468;-0.00141539;0.000402416;0.013514;0.0210434;0;0.0403272;0.27368;1.07856
131000;132;25.755;4.59203e-05;1.78297e-06;-2.19793;25.66;-0.235833;-0.00889618;-0.00178176;-0.264741;0.0049925;-0.130726;-0.0794959;0.153081;-6.15767;-0.000397892;0.000345105;-0.000270519;1.67276e-05;-0.000685138;0.000350933;-1.47085;-0.67988;0.000462435;0.00046791;0.0244149;40.9586;177.735;42.735;0.00282032;-0.000399097;-0.000900166;0.00159022;-0.000270864;0.00246074;0.00656061;0;0.0178373;-0.000530979;-0.131083;-0.343553;0.367711;-6.39615;0.00127176;-0.000489555;-1.63381e-05;0.0014367;-0.000181278;0.000808987;77.8401;0.0128469;0.00102359;0.00107865;7.92536;0.126177;12.7041;57.7041;-0.00042246;0.00127042;0.000725287;-0.00170596;-1.64813e-05;0.0104181;0.0172402;0;0.0355986;0.29763;1.08153
132000;133;25.7548;-0.00015414;-5.98488e-06;-2.20114;25.6595;-0.235313;-0.0121017;-0.00225258;-0.264222;0.00634721;-0.133511;-0.0803547;0.155956;-6.15853;-0.000380072;0.000204486;-0.000125403;-1.18466e-05;-0.000493629;0.000240891;-3.0308;-0.329946;0.000325209;0.000321188;-0.0239989;-41.6685;10.4915;55.4915;0.00300965;-0.000381189;-0.00109997;0.00150861;-0.000125987;0.00456443;0.00457351;0;0.0179813;0.000196164;-0.133596;-0.348382;0.373119;-6.40098;0.00124363;-0.000688444;0.000149347;0.00157587;-0.000182897;0.000879385;-8.32708;-0.12009;0.00111655;0.00117251;8.61618;0.116061;4.52658;49.5266;-0.000442067;0.00124201;0.000548016;-0.00192626;0.000149434;0.0053949;0.0196866;0;0.039065;0.325356;1.08743
133000;134;25.7562;0.00124063;4.81704e-05;-2.20075;25.6609;-0.237051;-0.0117155;-0.000835496;-0.265959;0.00813336;-0.135874;-0.0774657;0.156617;-6.15564;-0.0004953;0.000220294;0.00030136;0.000358218;-0.000552158;0.000455188;1.64355;0.608439;0.000529566;0.000606917;0.64876;1.5414;28.4308;73.4308;0.00233791;-0.000496447;-0.00109079;0.00153033;0.000300789;0.00547181;0.00472826;0;0.0210598;0.00109523;-0.135451;-0.349409;0.374747;-6.402;0.00100074;-0.00062946;0.00011124;0.00132672;-0.000214739;0.000770727;-8.9962;-0.111158;0.000964062;0.00102764;6.17826;0.161858;8.4791;53.4791;-0.00228174;0.00099825;0.00105765;-0.00231807;0.000110879;0.00915409;0.0226584;0;0.0399923;0.354317;1.09266
134000;135;25.7559;0.000930666;3.61354e-05;-2.20296;25.6604;-0.237131;-0.0139223;-0.00133671;-0.266039;0.0097725;-0.138565;-0.0771914;0.158916;-6.15536;-0.000432369;0.000294271;0.000414577;0.000506783;-0.000524575;0.000515679;1.04291;0.958851;0.000595485;0.000687572;0.966084;1.03511;27.4425;72.4425;0.00277421;-0.000433787;-0.00112173;0.00170907;0.000413992;0.0052316;0.00631772;0;0.0200051;0.00194581;-0.138142;-0.351686;0.377849;-6.40428;0.000911317;-0.000585841;8.40208e-05;0.00121483;-0.000219488;0.000717157;-10.8463;-0.0921972;0.000892093;0.000956209;5.53481;0.180675;10.3811;55.3811;-0.0024771;0.000908305;0.0013511;-0.00252438;8.32798e-05;0.00967305;0.0216916;0;0.0401877;0.38298;1.09986
135000;136;25.7565;0.00152116;5.90627e-05;-2.20285;25.661;-0.237715;-0.0138198;-0.000740624;-0.266623;0.0115658;-0.140928;-0.0759117;0.16049;-6.15408;-0.0004595;0.000312836;0.000450095;0.000547301;-0.000556706;0.000552003;1.0209;0.979531;0.000637406;0.000736004;0.983105;1.01718;27.6594;72.6594;0.00289516;-0.000460854;-0.00105002;0.00167445;0.000449593;0.00477951;0.00472267;0;0.020296;0.00238237;-0.140462;-0.354154;0.380999;-6.40675;0.000847892;-0.000671245;0.000430802;0.00134224;-6.35471e-05;0.000702894;-1.96817;-0.508086;0.000916745;0.000937193;21.122;0.047344;0.120111;45.1201;-0.00212724;0.000844287;0.00142557;-0.00276894;0.000430012;0.009986;0.0188735;0;0.0418638;0.423136;1.10772
136000;137;25.7571;0.0021528;8.35876e-05;-2.20634;25.6613;-0.240183;-0.0173035;-0.000428904;-0.269092;0.013562;-0.144026;-0.0745158;0.162727;-6.15269;-0.000490784;0.000447278;0.000517724;0.00068751;-0.00066057;0.00067404;0.947965;1.05489;0.000778366;0.00089872;1.04078;0.960816;24.4965;69.4965;0.00270886;-0.000492525;-0.00102555;0.00191862;0.000517298;0.00636702;0.00475375;0;0.0224751;0.00312508;-0.143701;-0.355676;0.383621;-6.40827;0.000689878;-0.000683274;0.000415829;0.00124973;-0.000144025;0.000696879;-1.65904;-0.602757;0.000885078;0.000929171;8.67717;0.115245;178.89;43.8899;-0.00221493;0.00068565;0.00162093;-0.0029881;0.000414749;0.00774288;0.0162686;0;0.04217;0.453548;1.11721
137000;138;25.7574;0.0024479;9.50458e-05;-2.20545;25.6617;-0.243423;-0.0164181;-8.71142e-05;-0.272331;0.015012;-0.144857;-0.0749143;0.163772;-6.15309;-0.000418325;0.000327959;0.000660502;0.000752376;-0.000510199;0.000631288;0.633345;1.57892;0.000733405;0.000841717;1.47467;0.678118;31.5922;76.5922;0.00341768;-0.000420053;-0.00123277;0.001887;0.000659796;0.00498388;0.00434991;0;0.0245468;0.00393913;-0.144921;-0.357746;0.386005;-6.41034;0.000517848;-0.00077444;8.17535e-05;0.00110435;-0.00050475;0.000804551;-6.33426;-0.157872;0.000950272;0.00107273;2.18792;0.457055;4.60088;49.6009;-0.00231683;0.000512274;0.00187849;-0.00342852;8.02892e-05;0.00564866;0.0185295;0;0.040503;0.477297;1.12194
138000;139;25.7585;0.00357888;0.000138959;-2.20647;25.6627;-0.244848;-0.0174366;0.000946971;-0.273756;0.0165689;-0.145956;-0.0779654;0.166302;-6.15614;-0.000466049;0.000254372;0.00108542;0.00112606;-0.00050669;0.000816375;0.429372;2.32898;0.000965013;0.0010885;2.22239;0.449967;41.7483;86.7483;0.00311329;-0.000467568;-0.00125458;0.00176099;0.00108467;0.0052926;0.00572944;0;0.0234102;0.00435504;-0.146676;-0.362897;0.391442;-6.41549;0.000384333;-0.000715794;0.000461666;0.00113984;-0.000293838;0.000716837;-0.83249;-1.20121;0.000874451;0.000955783;3.87914;0.257789;173.8;38.7997;-0.00323559;0.000379086;0.00188676;-0.00331815;0.000460143;0.00696903;0.0160836;0;0.04593;0.513801;1.12946
139000;140;25.7588;0.00382677;0.000148584;-2.20628;25.663;-0.243796;-0.0172442;0.00122235;-0.272705;0.0181928;-0.148564;-0.0719558;0.166072;-6.15013;-0.000541119;0.000280522;0.00087619;0.000929693;-0.000594622;0.000762157;0.617582;1.61922;0.000887123;0.00101621;1.5635;0.63959;37.31;82.31;0.00305076;-0.000542753;-0.00126998;0.00182883;0.000875424;0.00656838;0.00531211;0;0.0195165;0.00511468;-0.149434;-0.358398;0.388338;-6.41099;0.000371013;-0.000718042;0.000403711;0.00110559;-0.000330867;0.000718228;-0.919006;-1.08813;0.000868615;0.000957638;3.3415;0.299267;175.698;40.6983;-0.00383202;0.000364129;0.00234397;-0.00377995;0.000401223;0.00561906;0.013924;0;0.0404128;0.54513;1.13718
140000;141;25.7616;0.00667769;0.000259278;-2.20817;25.6657;-0.240742;-0.0191344;0.00395019;-0.26965;0.0199388;-0.149529;-0.0759135;0.168877;-6.15409;-0.000547126;0.000231984;0.00122707;0.0012569;-0.000576957;0.000916928;0.44588;2.24275;0.00108276;0.00122257;2.1785;0.459032;43.668;88.668;0.00291554;-0.000548788;-0.0013767;0.00183782;0.00122615;0.00655944;0.00564255;0;0.0240011;0.0058387;-0.151344;-0.364494;0.394709;-6.41709;0.000575919;-0.000666083;0.000558392;0.0012333;-9.89852e-05;0.00066614;-1.03139;-0.969567;0.000857099;0.000888187;12.4594;0.0802608;176.011;41.0114;-0.00500303;0.000566436;0.00307454;-0.00440676;0.00055389;0.00632881;0.0149726;0;0.0463377;0.58048;1.14504
141000;142;25.7641;0.00917161;0.000356111;-2.20654;25.6683;-0.240276;-0.0175033;0.00659807;-0.269184;0.0207558;-0.152838;-0.0750313;0.171522;-6.1532;-0.000445109;0.000368452;0.00117069;0.00125075;-0.000525162;0.000887954;0.38021;2.63013;0.00105346;0.00118394;2.38164;0.419879;38.9268;83.9268;0.00311447;-0.000447099;-0.00129406;0.00202828;0.00116992;0.00664665;0.00553114;0;0.0380815;0.0057108;-0.155842;-0.364583;0.396535;-6.41718;0.000588817;-0.000637194;0.000936126;0.0014229;0.000102038;0.000660433;-0.628993;-1.58984;0.000916486;0.000880578;-13.9449;-0.071711;167.046;32.046;-0.00637199;0.000577823;0.00346062;-0.00473358;0.000930346;0.00726405;0.0156437;0;0.0657514;0.620419;1.15176
142000;143;25.7644;0.00939941;0.000364955;-2.20696;25.6685;-0.246577;-0.0179311;0.00673019;-0.275485;0.0238293;-0.154868;-0.0760492;0.174171;-6.15422;-0.000357066;0.000375784;0.00134779;0.00142694;-0.000436221;0.000931582;0.264928;3.77461;0.00112525;0.00124211;3.27114;0.305704;40.9406;85.9406;0.00333282;-0.0003593;-0.00139792;0.00214647;0.00134688;0.00567647;0.00479091;0;0.0225363;0.0078063;-0.159249;-0.365993;0.399214;-6.41859;0.000595036;-0.000683522;0.000777123;0.00137564;-3.47922e-06;0.000689559;-0.765691;-1.30601;0.000918254;0.000919411;;;171.532;36.5316;-0.0049124;0.000583237;0.00354078;-0.00490705;0.000771093;0.0101788;0.0150485;0;0.0479864;0.650865;1.15687
143000;144;25.7647;0.00971368;0.000377158;-2.20673;25.6688;-0.252698;-0.0176924;0.00700663;-0.281606;0.0232471;-0.157218;-0.0784816;0.177249;-6.15665;-0.000582345;2.53448e-05;0.00136715;0.00136748;-0.000582674;0.000975078;0.425955;2.34767;0.00115591;0.0013001;2.34691;0.426093;50.6736;95.6736;0.00325496;-0.000583882;-0.00170565;0.00175297;0.0013657;0.00699552;0.00534955;0;0.021634;0.00691649;-0.161972;-0.37078;0.404673;-6.42337;0.000558476;-0.000563915;0.001022;0.00139992;0.000180554;0.000609684;-0.546454;-1.82998;0.000879297;0.000812912;-7.75348;-0.128974;164.046;29.0459;-0.00718886;0.000544477;0.00419706;-0.00532267;0.00101336;0.0144841;0.016391;0;0.0408726;0.69128;1.16332
144000;145;25.7639;0.00897684;0.000348548;-2.20788;25.6679;-0.256732;-0.0188462;0.00612777;-0.28564;0.0247911;-0.158983;-0.0750526;0.177548;-6.15323;-0.000618802;0.000144722;0.00156919;0.00157872;-0.000628333;0.00110353;0.394345;2.53585;0.00131303;0.00147137;2.51255;0.398001;48.6174;93.6174;0.00366305;-0.000620698;-0.0016666;0.00195208;0.00156781;0.00533284;0.00528299;0;0.0295162;0.00666243;-0.163375;-0.369672;0.404219;-6.42227;0.000740904;-0.000622583;0.000997066;0.00150461;0.000233364;0.000635621;-0.743084;-1.34574;0.000935041;0.000847495;-6.44747;-0.1551;169.178;34.1785;-0.00787651;0.00072534;0.00437208;-0.00561595;0.000987712;0.0168578;0.0155357;0;0.0427507;0.728968;1.16849
145000;146;25.7633;0.00836828;0.000324919;-2.20645;25.6674;-0.254528;-0.0174165;0.00566182;-0.283436;0.0265657;-0.161339;-0.0866184;0.185038;-6.16479;-0.000484288;-6.07212e-06;0.00157972;0.00157973;-0.000484306;0.00103202;0.306566;3.26194;0.00124636;0.00137603;3.26185;0.306574;53.3886;98.3886;0.00298497;-0.000486009;-0.00187106;0.00185507;0.00157797;0.00624075;0.00496281;0;0.021334;0.00845748;-0.167357;-0.372982;0.408896;-6.42558;0.00074614;-0.00052506;0.00110607;0.00148115;0.000371061;0.000555046;-0.674585;-1.48239;0.000889919;0.000740061;-3.99167;-0.250522;165.149;30.1492;-0.00782036;0.000731408;0.0044071;-0.00545544;0.00109651;0.016438;0.0152872;0;0.0411623;0.769274;1.17363
146000;147;25.7614;0.00641839;0.00024921;-2.2079;25.6652;-0.266743;-0.0188675;0.00345581;-0.295652;0.0289126;-0.164502;-0.0789713;0.184752;-6.15714;-0.000419459;-2.88674e-05;0.00158136;0.00158177;-0.000419876;0.00100082;0.265253;3.76999;0.00121882;0.00133443;3.76724;0.265446;54.7329;99.7329;0.00275934;-0.00042105;-0.00184488;0.00178352;0.00157966;0.00613873;0.00576615;0;0.0250821;0.00934513;-0.169182;-0.376791;0.413136;-6.43203;0.000719341;-0.000535832;0.00120056;0.00154733;0.000372577;0.000587375;-0.59917;-1.66898;0.000932508;0.000783166;-4.15304;-0.240788;162.012;27.0117;-0.00748351;0.000706035;0.00411878;-0.00518819;0.00119223;0.0150649;0.0155673;0;0.0427355;0.80968;1.18147
147000;148;25.7608;0.00580188;0.000225272;-2.2098;25.6644;-0.26733;-0.020769;0.00266724;-0.296238;0.0302687;-0.168201;-0.0781444;0.187921;-6.15632;-0.000382025;-0.000109609;0.00135526;0.00136214;-0.000388913;0.000875528;0.281884;3.54756;0.00106175;0.00116737;3.50244;0.285516;55.8625;100.862;0.00241367;-0.000383593;-0.00199612;0.00177364;0.00135327;0.00648487;0.0060012;0;0.0217978;0.00941251;-0.173186;-0.374064;0.412317;-6.4293;0.000901324;-0.00050674;0.00123232;0.0015999;0.00053374;0.000533081;-0.731406;-1.36723;0.000940598;0.000710774;-2.99753;-0.333608;164.628;29.6276;-0.00779276;0.000887354;0.00430045;-0.00531233;0.00122321;0.018308;0.0145018;0;0.0405688;0.862461;1.18906
148000;149;25.7606;0.00559796;0.000217354;-2.20977;25.6642;-0.267453;-0.0207385;0.00246388;-0.296361;0.0305984;-0.170561;-0.0779277;0.19;-6.1561;-0.000430985;-5.73815e-05;0.00104576;0.00104798;-0.000433212;0.000740598;0.412128;2.42643;0.000879379;0.000987463;2.4191;0.413376;51.7274;96.7274;0.00326865;-0.000432774;-0.00200976;0.00189212;0.00104374;0.0058073;0.00660428;0;0.0222077;0.00980319;-0.175166;-0.376576;0.415438;-6.43181;0.000705689;-0.000307411;0.00125526;0.00139279;0.000568153;0.00041232;-0.562188;-1.77877;0.000808661;0.00054976;-2.45144;-0.407923;152.951;17.9514;-0.00905059;0.000693969;0.00424056;-0.00485288;0.00124632;0.0159413;0.0218701;0;0.0431022;0.907009;1.19671
149000;150;25.7606;0.00563623;0.000218841;-2.21147;25.6641;-0.270632;-0.0224321;0.00232311;-0.29954;0.0328306;-0.172892;-0.0805653;0.193547;-6.15874;-0.000589896;-0.000177222;0.000691093;0.000715159;-0.000613963;0.000664561;0.85357;1.17155;0.00076811;0.000886081;1.16483;0.858498;53.5022;98.5022;0.00352219;-0.000591462;-0.00213459;0.00177764;0.000688832;0.00340015;0.0087984;0;0.0189751;0.0111345;-0.177908;-0.379803;0.419554;-6.43504;0.000747513;-0.0003397;0.0009904;0.00122971;0.000508201;0.000360755;-0.754759;-1.32493;0.000713526;0.000481007;-2.41973;-0.413269;164.777;29.7774;-0.00741857;0.000735249;0.00428786;-0.00496613;0.000981274;0.015357;0.0203748;0;0.0397672;0.95019;1.20384
150000;151;25.7614;0.00640812;0.000248811;-2.21303;25.6647;-0.271571;-0.0239982;0.00295298;-0.300479;0.0344168;-0.174447;-0.0812583;0.195497;-6.15943;-0.000549737;-0.000134415;0.000963925;0.000975768;-0.00056158;0.000768674;0.570311;1.75343;0.000898262;0.0010249;1.73754;0.575526;53.1319;98.1319;0.00389298;-0.000551331;-0.00206186;0.00179011;0.00096181;0.00198235;0.00942124;0;0.0172761;0.0114027;-0.180851;-0.379895;0.4209;-6.43513;0.000785775;-0.000290567;0.00135869;0.00148026;0.000664204;0.000408028;-0.578333;-1.72911;0.000856127;0.000544038;-2.22862;-0.448708;151.056;16.0561;-0.00810586;0.00077394;0.00429737;-0.00487587;0.00134951;0.013113;0.0247843;0;0.0420801;0.998524;1.21087
151000;152;25.7608;0.00586333;0.000227658;-2.21327;25.6641;-0.272879;-0.0242395;0.00237146;-0.301787;0.0357243;-0.176529;-0.0839057;0.198693;-6.16208;-0.000648947;-0.00015055;0.000649794;0.000667017;-0.000666171;0.000666594;0.998697;1.0013;0.000769716;0.000888792;1.00127;0.998731;51.5598;96.5598;0.00393909;-0.000650434;-0.00203405;0.00173051;0.000647738;0.00307542;0.00916772;0;0.0183357;0.0124037;-0.182411;-0.381994;0.423494;-6.43723;0.000903921;-0.000307954;0.00103931;0.00128692;0.000656308;0.000315307;-0.869732;-1.14978;0.000743054;0.000420409;-1.96085;-0.509983;167.774;32.7739;-0.00817982;0.000891918;0.00429608;-0.00491136;0.00103014;0.0168624;0.0206337;0;0.0401999;1.05088;1.21765
152000;153;25.7612;0.00622759;0.000241802;-2.214;25.6644;-0.270049;-0.024968;0.00270418;-0.298957;0.0357928;-0.182215;-0.0770406;0.201044;-6.15521;-0.0006781;-0.000337325;5.23481e-05;0.000184293;-0.000810044;0.000497169;12.9537;0.0771983;0.0006108;0.000662892;0.22751;4.39542;61.8425;106.842;0.0031087;-0.000679349;-0.00229174;0.00161567;4.97791e-05;0.00432728;0.00846738;0;0.0144911;0.0122271;-0.187244;-0.37974;0.423571;-6.43498;0.000888214;-0.000262049;0.00110776;0.0012821;0.000713874;0.000284111;-0.801815;-1.24717;0.000741809;0.000378815;-1.79597;-0.556802;162.409;27.4093;-0.00702046;0.000876582;0.00430946;-0.00483255;0.00109851;0.0144828;0.023273;0;0.0385694;1.11128;1.22547
153000;154;25.7617;0.0067694;0.000262839;-2.21712;25.6647;-0.27001;-0.028083;0.00297955;-0.298918;0.0376168;-0.181285;-0.0853578;0.203876;-6.16353;-0.00080377;-0.000200111;0.000215692;0.000253565;-0.000841643;0.000547604;3.72647;0.268351;0.000662007;0.000730139;0.301274;3.31924;51.559;96.559;0.00372493;-0.000805365;-0.00219851;0.00179625;0.000213296;0.00419011;0.00967377;0;0.01817;0.013156;-0.187883;-0.386599;0.430038;-6.44184;0.000838497;-0.00038126;0.00118323;0.00142928;0.000592451;0.000418413;-0.70865;-1.41113;0.000829204;0.000557884;-2.41248;-0.414511;161.449;26.4489;-0.00757802;0.000826632;0.00412732;-0.00488828;0.0011748;0.0148448;0.0239564;0;0.0411052;1.15194;1.23063
154000;155;25.7632;0.00823988;0.000319934;-2.21741;25.6662;-0.269358;-0.0283745;0.00443725;-0.298266;0.0388136;-0.184413;-0.0865079;0.20736;-6.16468;-0.000798876;-0.000238598;5.15107e-05;0.000113881;-0.000861247;0.000487564;15.5089;0.0644789;0.000615646;0.000650085;0.132228;7.56268;53.9743;98.9743;0.00376373;-0.000800149;-0.00209171;0.00161294;4.93516e-05;0.00203611;0.0105354;0;0.0192986;0.0134107;-0.191748;-0.387755;0.432783;-6.44299;0.00067577;-0.000408163;0.00114725;0.00138286;0.00044016;0.00047135;-0.589033;-1.6977;0.000815779;0.000628467;-3.14172;-0.318297;159.374;24.3738;-0.00753503;0.000663106;0.00423667;-0.0050508;0.00113837;0.0132825;0.0264305;0;0.0396934;1.21767;1.2378
155000;156;25.7636;0.00868887;0.000337367;-2.22019;25.6664;-0.266386;-0.0311563;0.00467847;-0.295294;0.039825;-0.187531;-0.083639;0.209164;-6.16181;-0.000832945;-0.000160005;0.000163143;0.000188214;-0.000858016;0.000523115;5.1056;0.195863;0.000643983;0.000697487;0.21936;4.55872;49.0194;94.0194;0.0036534;-0.000834504;-0.00209407;0.00177213;0.000160964;0.00262488;0.00948349;0;0.0212418;0.0133814;-0.195897;-0.385546;0.432667;-6.44078;0.000590189;-0.000267741;0.00117533;0.00127935;0.000486171;0.000396589;-0.502148;-1.99145;0.000745687;0.000528785;-2.63148;-0.380014;151.04;16.0402;-0.00800116;0.000576951;0.00462122;-0.00515383;0.0011647;0.0104866;0.0220204;0;0.0417336;1.26726;1.24078
156000;157;25.7647;0.00977997;0.000379732;-2.21944;25.6676;-0.267352;-0.0304075;0.00582843;-0.29626;0.0399673;-0.190061;-0.0851521;0.212064;-6.16333;-0.000778069;2.28475e-06;1.2614e-05;1.26206e-05;-0.000778075;0.000395348;61.6828;0.016212;0.000522975;0.000527131;0.0162203;61.651;39.2644;84.2644;0.00326273;-0.000779942;-0.00193182;0.00193486;1.07481e-05;0.00423286;0.00961643;0;0.0161893;0.0134349;-0.199098;-0.388016;0.436322;-6.44325;0.000681078;-0.00049587;0.0010961;0.00142613;0.000351051;0.000537539;-0.621363;-1.60937;0.000858018;0.000716719;-4.06245;-0.246157;163.576;28.5758;-0.00835132;0.000665872;0.00454911;-0.00553875;0.00108589;0.00948451;0.0243837;0;0.0369382;1.33153;1.2475
157000;158;25.7686;0.0136924;0.000531643;-2.22037;25.6714;-0.265656;-0.031339;0.00969277;-0.294564;0.0408085;-0.192468;-0.0890836;0.215975;-6.16726;-0.000826457;-0.000110264;-3.71725e-05;-2.20579e-05;-0.000841572;0.000409757;-22.233;-0.0449781;0.000553842;0.000546343;-0.0262103;-38.1529;46.2357;91.2357;0.00344305;-0.00082795;-0.00195282;0.00173084;-3.90733e-05;0.00497147;0.0102307;0;0.0153698;0.0130305;-0.204041;-0.392806;0.442831;-6.44804;0.000570442;-0.000708129;0.00140478;0.00180948;0.000165736;0.000821873;-0.406073;-2.46261;0.00115505;0.00109583;-10.9178;-0.0915932;159.572;24.5715;-0.0100676;0.000551488;0.0047875;-0.00619916;0.00139358;0.0145327;0.0201165;0;0.0476182;1.39013;1.25473
158000;159;25.7741;0.0191427;0.000743262;-2.22016;25.677;-0.259849;-0.031128;0.0152413;-0.288757;0.0409741;-0.193537;-0.0935753;0.218842;-6.17175;-0.000846694;-9.50436e-05;-4.31278e-05;-3.20393e-05;-0.000857782;0.000412871;-19.6322;-0.0509367;0.00056148;0.000550495;-0.0373513;-26.7728;44.8903;89.8903;0.00346458;-0.000848214;-0.00193707;0.0017455;-4.49995e-05;0.00481509;0.0103401;0;0.0169218;0.0127698;-0.207514;-0.396876;0.448035;-6.45211;0.000688812;-0.000836776;0.00135907;0.00192533;0.000122551;0.000901391;-0.506826;-1.97307;0.00124472;0.00120186;-15.7105;-0.0636518;164.104;29.1042;-0.00932637;0.000666272;0.00509892;-0.00676847;0.00134644;0.0133469;0.0112476;0;0.046398;1.45133;1.26134
159000;160;25.7744;0.0194712;0.000756019;-2.21989;25.6773;-0.266486;-0.0308523;0.0155269;-0.295394;0.0425041;-0.196283;-0.0939955;0.22174;-6.17217;-0.000832138;-0.000295249;0.000300608;0.000372944;-0.000904475;0.00063871;2.76819;0.361247;0.000758502;0.000851613;0.412332;2.42523;54.5653;99.5653;0.00393018;-0.000833208;-0.00208424;0.00149171;0.00029848;0.00334822;0.00734801;0;0.0162734;0.0134015;-0.21175;-0.397734;0.450789;-6.45297;0.000598832;-0.000642399;0.00150902;0.00184119;0.00026666;0.000787265;-0.396836;-2.51993;0.00114893;0.00104969;-6.90463;-0.14483;157.18;22.1796;-0.0101013;0.000577761;0.00524582;-0.00652524;0.00149549;0.0136187;0.0158496;0;0.0453221;1.51084;1.26873
160000;161;25.7772;0.022231;0.000863174;-2.2203;25.6799;-0.273851;-0.0312698;0.0181836;-0.302759;0.0423333;-0.198821;-0.0961833;0.224885;-6.17436;-0.000794126;0.000200615;0.000397934;0.00043079;-0.000826982;0.000628886;1.99562;0.501097;0.000738086;0.000838515;0.520918;1.91969;32.5394;77.5394;0.00413573;-0.000796056;-0.00157482;0.00197393;0.000396715;0.0034134;0.010034;0;0.0159632;0.0127915;-0.21602;-0.403337;0.457721;-6.45857;0.000767426;-0.000621437;0.00176052;0.00205942;0.000468521;0.00079545;-0.43591;-2.29405;0.00124648;0.0010606;-4.39558;-0.227501;154.51;19.5095;-0.00801606;0.000746676;0.00523733;-0.00647437;0.00174702;0.0148859;0.014443;0;0.041339;1.58153;1.27597
161000;162;25.7769;0.0219767;0.000853299;-2.21932;25.6797;-0.28003;-0.0302846;0.0179468;-0.308938;0.043038;-0.201936;-0.0940267;0.226873;-6.1722;-0.000706139;3.96858e-06;0.000658813;0.000658825;-0.00070615;0.000682487;1.07184;0.932979;0.000788226;0.000909983;0.93298;1.07183;44.4715;89.4715;0.00338899;-0.000707678;-0.0017486;0.00175414;0.000657285;0.00519546;0.0078629;0;0.0161381;0.0130017;-0.219646;-0.402448;0.45867;-6.45769;0.000764658;-0.000450689;0.00165575;0.00184395;0.000576461;0.000633745;-0.461819;-2.16535;0.00108924;0.000844994;-3.19875;-0.312623;151.792;16.7917;-0.00904436;0.000744552;0.00546364;-0.00635974;0.00164095;0.0169338;0.0129834;0;0.0398889;1.64065;1.28366
162000;163;25.7784;0.0234281;0.000909653;-2.21836;25.6812;-0.283945;-0.0293263;0.0194435;-0.312854;0.0415393;-0.202939;-0.098445;0.22935;-6.17662;-0.000621945;0.000436191;0.00100871;0.00111805;-0.000731291;0.000924672;0.616577;1.62186;0.00107547;0.0012329;1.52888;0.654076;33.8863;78.8863;0.00373908;-0.000624536;-0.00144806;0.00231737;0.00100775;0.00322379;0.00800874;0;0.0176227;0.0117466;-0.22238;-0.406841;0.4638;-6.46208;0.000738137;-0.000392518;0.00183613;0.00196201;0.00061225;0.000674882;-0.402008;-2.48751;0.00115914;0.000899842;-3.2046;-0.312052;146.327;11.3266;-0.00793326;0.00071973;0.00530351;-0.00608229;0.00182216;0.0167036;0.0155823;0;0.0389244;1.70976;1.29093
163000;164;25.7792;0.02422;0.000940403;-2.21893;25.6819;-0.285111;-0.0298996;0.020176;-0.314019;0.0427187;-0.207993;-0.0941807;0.232284;-6.17235;-0.000743525;0.000144324;0.000978252;0.000990265;-0.000755539;0.000872902;0.760055;1.31569;0.00101097;0.00116387;1.31067;0.762966;42.1352;87.1352;0.0035457;-0.000745399;-0.00165477;0.00194033;0.000976894;0.00438176;0.00954554;0;0.0177432;0.0123798;-0.227088;-0.405865;0.465241;-6.4611;0.000844788;-0.000219013;0.00139292;0.00146968;0.000768029;0.000350826;-0.606487;-1.64884;0.000848809;0.000467768;-1.91357;-0.522582;148.184;13.1843;-0.00825789;0.000830058;0.00499927;-0.00543444;0.00138047;0.0147872;0.0190748;0;0.0379036;1.77414;1.29854
164000;165;25.7774;0.0223974;0.000869633;-2.21966;25.68;-0.29109;-0.03063;0.0182162;-0.319998;0.0424888;-0.211794;-0.091955;0.234771;-6.17013;-0.000650996;0.000263372;0.00138362;0.00141715;-0.000684535;0.00105084;0.470504;2.12538;0.00123774;0.00140113;2.07024;0.483035;43.3631;88.3631;0.00410402;-0.000653197;-0.00159093;0.0021139;0.00138239;0.00423918;0.00918356;0;0.0186964;0.0120827;-0.230386;-0.406546;0.467443;-6.46178;0.000813198;-0.000200355;0.00150621;0.00155997;0.000759444;0.000400262;-0.539895;-1.85221;0.000900752;0.000533683;-2.05409;-0.486833;143.851;8.8509;-0.00885378;0.000797697;0.00517689;-0.00557387;0.00149285;0.0165595;0.022696;0;0.0390968;1.84314;1.30514
165000;166;25.7793;0.0243629;0.000945948;-2.22073;25.6819;-0.286868;-0.0316913;0.0201449;-0.315776;0.0425583;-0.212887;-0.0974267;0.237958;-6.1756;-0.000527625;7.53783e-05;0.00167966;0.00168223;-0.000530196;0.00110622;0.314125;3.18344;0.00133382;0.00147495;3.17285;0.315174;52.0297;97.0297;0.00323284;-0.000529345;-0.00170883;0.00185565;0.00167821;0.00505007;0.00657083;0;0.0226481;0.0115849;-0.232515;-0.412187;0.473387;-6.46742;0.000751715;-0.000212335;0.00165542;0.00170283;0.000704312;0.000499258;-0.454092;-2.2022;0.000988007;0.000665677;-2.41772;-0.413613;141.144;6.14416;-0.00895753;0.000736396;0.0051214;-0.00554125;0.00164235;0.017365;0.0236478;0;0.0391359;1.90968;1.31122
166000;167;25.7788;0.0238071;0.000924368;-2.22014;25.6814;-0.287328;-0.0311101;0.0196321;-0.316236;0.0424702;-0.2165;-0.0981578;0.241477;-6.17633;-0.000664839;0.00011325;0.0020809;0.00208556;-0.000669502;0.00137753;0.319496;3.12993;0.00165919;0.00183671;3.11509;0.321018;53.3634;98.3634;0.00360766;-0.000666675;-0.0016974;0.00191894;0.00207947;0.00460767;0.00879001;0;0.0218221;0.0111734;-0.236223;-0.413114;0.476014;-6.46835;0.000801112;-0.000202566;0.00171799;0.00176075;0.000758353;0.000501197;-0.466308;-2.14451;0.00101982;0.000668263;-2.3218;-0.430699;139.715;4.71487;-0.00892235;0.000787847;0.00475605;-0.00515664;0.00170672;0.016644;0.0215466;0;0.0406257;1.98256;1.3172
167000;168;25.7775;0.0225358;0.000875009;-2.22132;25.68;-0.285729;-0.0322871;0.0182721;-0.314637;0.0423785;-0.219085;-0.0994789;0.244316;-6.17765;-0.000558151;-6.93358e-05;0.00178178;0.00178383;-0.000560203;0.00117202;0.313255;3.19229;0.00141346;0.00156269;3.18426;0.314045;56.1066;101.107;0.00341482;-0.000559645;-0.00187226;0.00172938;0.00178003;0.00472428;0.0087115;0;0.0186815;0.0109331;-0.239122;-0.415272;0.479322;-6.47051;0.000625897;-0.000268559;0.00156135;0.00163296;0.000554279;0.000539342;-0.40087;-2.49457;0.00095886;0.000719123;-2.9461;-0.339431;143.689;8.68885;-0.0086426;0.000612072;0.0047343;-0.00526674;0.00155019;0.0175498;0.0207253;0;0.0392995;2.04783;1.32093
168000;169;25.7761;0.0211121;0.000819731;-2.22144;25.6785;-0.288883;-0.0324104;0.0167971;-0.317791;0.042697;-0.221356;-0.10138;0.247183;-6.17955;-0.000492344;0.000197677;0.00183438;0.00185105;-0.000509019;0.00118004;0.268398;3.72581;0.00143414;0.00157338;3.63651;0.274989;50.6256;95.6256;0.00316852;-0.000494243;-0.00156733;0.00195859;0.00183317;0.00346805;0.00780268;0;0.0143105;0.0111288;-0.241867;-0.41796;0.483026;-6.4732;0.000538276;-0.000313222;0.00154706;0.0016364;0.000448934;0.000593733;-0.347935;-2.8741;0.000976322;0.000791644;-3.64508;-0.274343;144.638;9.63787;-0.00792002;0.000525609;0.00442264;-0.0050443;0.00153734;0.0154485;0.0255107;0;0.0399314;2.11117;1.32792
169000;170;25.7748;0.0198093;0.000769147;-2.22282;25.6771;-0.289211;-0.0337854;0.0153667;-0.318119;0.0424399;-0.227094;-0.0956473;0.250042;-6.17382;-0.000597806;0.000278241;0.00184958;0.00188081;-0.00062904;0.00125493;0.323212;3.09394;0.00150794;0.00167323;2.98997;0.334452;47.8135;92.8135;0.00259557;-0.000600101;-0.00160799;0.00215987;0.00184832;0.00514742;0.00863291;0;0.017751;0.0102671;-0.246252;-0.416602;0.484048;-6.47184;0.00061567;-0.000259459;0.0015403;0.00160813;0.00054784;0.000530147;-0.399707;-2.50183;0.000944039;0.000706862;-2.93541;-0.340668;143.629;8.62938;-0.00753117;0.000601257;0.00486259;-0.00537677;0.00152853;0.0103916;0.0232371;0;0.0392857;2.18634;1.33478
170000;171;25.7749;0.0199556;0.000774826;-2.22362;25.6772;-0.291587;-0.0345838;0.0154175;-0.320495;0.0420771;-0.22956;-0.0972993;0.252854;-6.17547;-0.000619201;0.000258942;0.00126457;0.00129951;-0.000654147;0.00097683;0.489654;2.04226;0.00114828;0.00130244;1.98658;0.503378;42.2687;87.2687;0.00265814;-0.000621405;-0.00160037;0.00211475;0.00126332;0.00232645;0.00836651;0;0.0212677;0.00963623;-0.249951;-0.417256;0.486488;-6.47249;0.000559734;-0.000461538;0.00169224;0.0018565;0.000395467;0.000730518;-0.330766;-3.02328;0.00112917;0.000974025;-4.69446;-0.213017;148.432;13.4316;-0.00795814;0.000543704;0.00476547;-0.00568262;0.00168101;0.0116174;0.0270538;0;0.0382316;2.25994;1.34287
171000;172;25.7775;0.0225841;0.000876884;-2.22461;25.6798;-0.284024;-0.0355787;0.0180546;-0.312932;0.042465;-0.232854;-0.0992502;0.256661;-6.17742;-0.000695228;9.78929e-05;0.00107277;0.00107817;-0.000700632;0.000889402;0.64807;1.54304;0.00103467;0.00118587;1.53886;0.649834;44.8672;89.8672;0.00253095;-0.000697014;-0.00169924;0.00189185;0.00107133;0.00284615;0.0079264;0;0.022342;0.00963503;-0.254463;-0.420077;0.491232;-6.47531;0.000475442;-0.000647142;0.00175301;0.00202353;0.00020492;0.000909306;-0.271215;-3.68711;0.00128617;0.00121241;-9.87473;-0.101269;152.077;17.0767;-0.00942437;0.000455505;0.00506224;-0.00634922;0.00174043;0.0103179;0.024668;0;0.0470869;2.3275;1.35
172000;173;25.7809;0.0259162;0.00100626;-2.2239;25.6833;-0.27895;-0.0348656;0.0215167;-0.307858;0.0408943;-0.233476;-0.104658;0.259108;-6.18283;-0.00067402;0.000154819;0.00105425;0.00106801;-0.000687779;0.000877896;0.639333;1.56413;0.0010216;0.00117053;1.55284;0.64398;42.9426;87.9426;0.00290809;-0.00067594;-0.0016586;0.00196511;0.00105289;0.00311862;0.00961583;0;0.0155315;0.00826996;-0.25735;-0.424908;0.496834;-6.48015;0.000503784;-0.000787534;0.00189237;0.00224796;0.000148194;0.00104988;-0.266219;-3.75631;0.00145176;0.00139984;-15.169;-0.065924;153.405;18.4046;-0.0102329;0.000482253;0.0050438;-0.00661075;0.00187998;0.0140704;0.0189907;0;0.0432612;2.41112;1.35754
173000;174;25.7845;0.0295628;0.00114785;-2.22405;25.6869;-0.277736;-0.0350142;0.0251774;-0.306644;0.0412392;-0.235556;-0.107032;0.261998;-6.18521;-0.000818063;0.000137553;0.00075216;0.000764119;-0.000830022;0.000797071;1.08762;0.91944;0.00092064;0.00106276;0.920601;1.08625;39.533;84.533;0.00298591;-0.000819932;-0.00166504;0.00193732;0.000750785;0.00258087;0.00900661;0;0.0143553;0.00805293;-0.261292;-0.426221;0.500002;-6.47881;0.000537288;-0.000886982;0.00219199;0.00257759;0.000151689;0.00121295;-0.245114;-4.07973;0.00167013;0.00161727;-16.9926;-0.0588493;151.998;16.9978;-0.00840363;0.000514023;0.00511645;-0.00688047;0.00217932;0.0110023;0.0169699;0;0.0449639;2.46512;1.36471
174000;175;25.7851;0.0301161;0.00116933;-2.22353;25.6874;-0.288726;-0.0344987;0.0256563;-0.317634;0.0409746;-0.23892;-0.106448;0.264751;-6.18462;-0.000928262;-3.12327e-05;0.000621561;0.00062219;-0.000928891;0.000775541;1.49344;0.669597;0.000901334;0.00103405;0.66982;1.49294;43.7215;88.7215;0.00348446;-0.000929794;-0.00181535;0.00175012;0.000619915;0.00198762;0.0095548;0;0.0145376;0.00741415;-0.266356;-0.427715;0.503926;-6.48031;0.00041541;-0.00072845;0.00248604;0.00271663;0.000184819;0.0012659;-0.167097;-5.98454;0.00175273;0.00168787;-14.6988;-0.0680326;145.752;10.7523;-0.00919383;0.000392622;0.00534717;-0.00679149;0.00247204;0.0134867;0.0127084;0;0.0419792;2.5599;1.37234
175000;176;25.7885;0.0335148;0.00130129;-2.22424;25.6908;-0.287861;-0.0352018;0.0290168;-0.316769;0.0388586;-0.241182;-0.109441;0.267687;-6.18761;-0.000835845;4.14393e-05;0.000875074;0.000876077;-0.000836848;0.000856462;0.955171;1.04693;0.000989044;0.00114195;1.04688;0.955223;43.9333;88.9333;0.00394473;-0.000837769;-0.00188141;0.001961;0.000873306;0.00228301;0.00911201;0;0.0187432;0.00575592;-0.270546;-0.430188;0.508222;-6.48278;0.000668621;-0.000605506;0.00244456;0.00263136;0.000481822;0.00107477;-0.273514;-3.65612;0.00161773;0.00143302;-5.46127;-0.183108;144.795;9.79508;-0.00909194;0.000646962;0.00541125;-0.00661158;0.00243014;0.0161421;0.014733;0;0.0450407;2.62267;1.37805
176000;177;25.7886;0.0336129;0.00130511;-2.22408;25.6908;-0.295664;-0.0350464;0.0290401;-0.324572;0.0404147;-0.243466;-0.10852;0.269602;-6.18669;-0.000918952;8.16233e-05;0.000518595;0.000523215;-0.000923571;0.000723393;1.772;0.564333;0.000845896;0.000964524;0.566513;1.76519;38.7083;83.7083;0.00380536;-0.000920823;-0.0017749;0.00193548;0.000517024;0.00168257;0.010895;0;0.0153205;0.00662665;-0.273598;-0.432227;0.511586;-6.48482;0.000517403;-0.000463785;0.00243967;0.00254572;0.000411356;0.00106718;-0.212079;-4.71522;0.001578;0.00142291;-6.18859;-0.161588;140.573;5.57343;-0.0079999;0.000498294;0.00528448;-0.00620101;0.00242585;0.0168959;0.0167612;0;0.0424178;2.69272;1.3823
177000;178;25.7913;0.0363129;0.00140994;-2.22389;25.6935;-0.292607;-0.0348543;0.031802;-0.321515;0.0390589;-0.245298;-0.110112;0.271701;-6.18829;-0.000995584;-3.64941e-05;0.000356996;0.00035798;-0.000996568;0.000677274;2.78878;0.35858;0.0008105;0.000903032;0.359213;2.78386;41.7141;86.7141;0.00309032;-0.000997254;-0.00190263;0.00182712;0.000355188;0.00403146;0.0105302;0;0.0177052;0.00554163;-0.276548;-0.435915;0.516267;-6.49115;0.000726707;-0.00045721;0.00204807;0.00219084;0.000583933;0.000803454;-0.354826;-2.81828;0.00131004;0.00107127;-3.75187;-0.266534;145.275;10.2745;-0.0104219;0.000708632;0.00512488;-0.00603193;0.00203507;0.0154713;0.0153777;0;0.042932;2.77654;1.3895
178000;179;25.7913;0.0363674;0.00141206;-2.22446;25.6935;-0.298502;-0.0354279;0.0317393;-0.32741;0.0385176;-0.248067;-0.109429;0.273853;-6.1876;-0.0011302;-6.78104e-05;0.000340505;0.000343625;-0.00113332;0.000738471;3.31918;0.301279;0.000892418;0.000984628;0.303203;3.29812;41.5441;86.5441;0.00391273;-0.00113173;-0.00189;0.0017517;0.000338722;0.00209887;0.00925804;0;0.0162314;0.00473708;-0.279813;-0.438088;0.519845;-6.49333;0.000709284;-0.000309767;0.00204835;0.00211654;0.000641098;0.000737721;-0.34627;-2.88792;0.00125323;0.000983628;-3.30143;-0.302899;140.268;5.26768;-0.00833735;0.000692613;0.00517238;-0.00578458;0.00203505;0.0135929;0.0215648;0;0.0401237;2.84566;1.39425
179000;180;25.7909;0.0359219;0.00139476;-2.22504;25.6929;-0.302292;-0.036004;0.0311979;-0.3312;0.038589;-0.250266;-0.11209;0.276923;-6.19026;-0.00099007;-0.000153491;0.000277962;0.000296278;-0.00100839;0.000652331;3.56188;0.28075;0.000789763;0.000869775;0.293814;3.40351;46.4202;91.4202;0.00429428;-0.000991518;-0.00201693;0.00170759;0.000275941;0.00186752;0.0106126;0;0.0161939;0.00464759;-0.283121;-0.441099;0.524163;-6.49634;0.00037092;-0.000315171;0.00242041;0.00246778;0.000323547;0.00107211;-0.153247;-6.52542;0.00154864;0.00142949;-7.62725;-0.131109;136.088;1.08769;-0.00920525;0.000355253;0.00498791;-0.0056074;0.00240804;0.0113024;0.0273977;0;0.0419065;2.91365;1.40204
180000;181;25.7904;0.0354278;0.00137557;-2.22491;25.6924;-0.308002;-0.0358727;0.0306454;-0.336911;0.0384864;-0.252375;-0.112508;0.278985;-6.19068;-0.000887433;7.97953e-05;0.0010297;0.00103302;-0.000890748;0.000961883;0.861835;1.16031;0.0011117;0.00128251;1.15972;0.862278;43.7662;88.7662;0.00395836;-0.000889232;-0.00174148;0.00189758;0.00102819;0.00321536;0.00910843;0;0.0159265;0.00406479;-0.285742;-0.44307;0.527234;-6.49831;0.000503667;-0.000304777;0.00207751;0.00213447;0.000446708;0.000843879;-0.242438;-4.12476;0.00129992;0.00112517;-4.77821;-0.209283;138.479;3.47866;-0.00885508;0.000488844;0.00485326;-0.0054547;0.0020658;0.0154599;0.0247729;0;0.0394738;2.98852;1.40906
181000;182;25.7915;0.0365014;0.00141726;-2.22605;25.6934;-0.306457;-0.0370121;0.0316429;-0.335365;0.0376604;-0.254879;-0.114217;0.281828;-6.19239;-0.000803589;0.000226278;0.000948865;0.000977611;-0.000832335;0.000904973;0.846895;1.18078;0.00104609;0.00120663;1.17454;0.851397;38.8942;83.8942;0.00353324;-0.000805777;-0.00165391;0.00210318;0.000947524;0.00383759;0.0100667;0;0.0150069;0.0034899;-0.289383;-0.444873;0.530723;-6.50011;0.000579438;-0.000303014;0.00201764;0.00207888;0.000518204;0.000780337;-0.287186;-3.48207;0.00124953;0.00104045;-4.0117;-0.249271;138.954;3.95445;-0.00888634;0.000565881;0.00461851;-0.00521747;0.00200704;0.0152553;0.025967;0;0.0408388;3.06429;1.41654
182000;183;25.7922;0.0372931;0.001448;-2.22649;25.6941;-0.306705;-0.0374532;0.0323964;-0.335613;0.0375548;-0.257711;-0.113134;0.283945;-6.19131;-0.000905944;0.000208195;0.00123851;0.00125853;-0.00092597;0.00109225;0.73148;1.36709;0.00126609;0.00145634;1.35915;0.735753;42.126;87.126;0.00345559;-0.000908001;-0.00162531;0.00203777;0.00123721;0.00427266;0.0114161;0;0.0153638;0.00314158;-0.292862;-0.445815;0.533413;-6.50105;0.000453918;-0.000211448;0.00236311;0.00238625;0.00043078;0.000977736;-0.192085;-5.20604;0.00146846;0.00130365;-5.53937;-0.180526;133.349;178.349;-0.00808989;0.000440226;0.00482512;-0.00523842;0.00235152;0.0162767;0.0212615;0;0.0398996;3.14105;1.42423
183000;184;25.7934;0.0384695;0.00149367;-2.2258;25.6954;-0.303752;-0.0367668;0.0336719;-0.33266;0.036405;-0.262077;-0.111158;0.286995;-6.18933;-0.000976005;0.000256246;0.00129273;0.00132131;-0.00100459;0.00116295;0.754998;1.32451;0.001347;0.0015506;1.31527;0.760298;41.1449;86.1449;0.00366973;-0.00097813;-0.00156825;0.00207661;0.00129153;0.004475;0.00957313;0;0.0180088;0.00204027;-0.296806;-0.446626;0.536258;-6.50186;0.000300457;-0.000335342;0.00222808;0.00228475;0.000243785;0.00102048;-0.13485;-7.41564;0.00144876;0.00136065;-9.372;-0.106701;137.416;2.41626;-0.00812027;0.000286331;0.00466564;-0.0053267;0.00221728;0.0142767;0.0220867;0;0.0388792;3.21557;1.43189
184000;185;25.7933;0.0383858;0.00149042;-2.22646;25.6952;-0.309985;-0.0374291;0.033456;-0.338893;0.0360612;-0.264178;-0.113005;0.289587;-6.19118;-0.00101735;0.000229195;0.00157989;0.00159996;-0.00103742;0.00131869;0.643934;1.55295;0.00153419;0.00175825;1.54226;0.648401;44.6457;89.6457;0.00314226;-0.00101923;-0.00150016;0.00195407;0.00157879;0.00524519;0.00975978;0;0.0226077;0.00129345;-0.300255;-0.448476;0.539708;-6.50107;0.000332381;-0.000427012;0.00225524;0.00234581;0.00024182;0.00105199;-0.147381;-6.78511;0.00148982;0.00140266;-9.70064;-0.103086;139.784;4.78438;-0.00684713;0.000317209;0.00468183;-0.00552604;0.0022444;0.00842689;0.0232278;0;0.0397105;3.2952;1.44076
185000;186;25.7954;0.0404079;0.00156894;-2.22793;25.6972;-0.303537;-0.0388922;0.0354361;-0.332446;0.0364721;-0.267386;-0.111777;0.292095;-6.18995;-0.000911081;0.000136356;0.00138938;0.00139743;-0.000919135;0.00115828;0.655747;1.52498;0.00134694;0.00154438;1.52038;0.657731;45.2211;90.2211;0.0032549;-0.000913157;-0.00177297;0.00204129;0.00138782;0.00555192;0.0109604;0;0.0162275;0.00117077;-0.303813;-0.450447;0.543329;-6.50304;0.000203939;-0.000565276;0.00248323;0.00261572;7.14482e-05;0.00127213;-0.0821264;-12.1763;0.00172049;0.00169618;-36.6099;-0.027315;141.047;6.04656;-0.00734901;0.000186711;0.00477915;-0.00589754;0.00247199;0.0120102;0.0197344;0;0.0422444;3.36392;1.44762
186000;187;25.8009;0.0459366;0.0017836;-2.22641;25.703;-0.292833;-0.037381;0.0412409;-0.321741;0.0359913;-0.265411;-0.127735;0.29674;-6.20591;-0.000850097;0.000340306;0.00236036;0.00239604;-0.000885773;0.0016409;0.360155;2.77658;0.00196049;0.00218787;2.70502;0.369682;50.5209;95.5209;0.0037798;-0.000852289;-0.00144565;0.00212054;0.00235938;0.00313388;0.00948122;0;0.0154627;0.00029747;-0.306435;-0.460355;0.553018;-6.51295;0.00035745;-0.000673846;0.00274188;0.00291913;0.000180195;0.00136947;-0.130367;-7.67067;0.00188889;0.00182596;-16.1998;-0.0617291;142.195;7.19523;-0.00987978;0.000336637;0.00515409;-0.00648791;0.00272886;0.00955446;0.021068;0;0.0394059;3.44559;1.45434
187000;188;25.8013;0.0462968;0.00179759;-2.22617;25.7033;-0.29745;-0.0371347;0.0415709;-0.326358;0.0357101;-0.270059;-0.124142;0.299363;-6.20232;-0.000870048;8.35153e-05;0.00234399;0.00234616;-0.000872216;0.00160919;0.371182;2.6941;0.00192199;0.00214559;2.68989;0.371763;54.2758;99.2758;0.00370421;-0.000871956;-0.0017937;0.00195471;0.00234239;0.00538943;0.00951771;0;0.0151681;-7.49309e-05;-0.310972;-0.459796;0.555082;-6.51239;0.000322667;-0.000771232;0.00285293;0.00306947;0.000106125;0.00148167;-0.1131;-8.84173;0.00201187;0.00197557;-28.9233;-0.0345742;143.426;8.42569;-0.00847615;0.000298609;0.00545368;-0.0069804;0.0028384;0.012317;0.0181382;0;0.0404013;3.52229;1.45945
188000;189;25.7999;0.0449149;0.00174393;-2.22487;25.702;-0.303113;-0.0358329;0.0402303;-0.332021;0.0347727;-0.274639;-0.117262;0.300643;-6.19544;-0.000963608;0.000118343;0.00273599;0.00273977;-0.00096739;0.00185358;0.352197;2.83932;0.00222037;0.00247144;2.83213;0.353091;55.9163;100.916;0.00363435;-0.00096556;-0.00174889;0.00197869;0.00273447;0.00406043;0.0090937;0;0.0188306;-0.00132878;-0.316348;-0.45506;0.554218;-6.50765;0.000228821;-0.000686195;0.0030488;0.00320691;7.0711e-05;0.0015681;-0.0750528;-13.324;0.00211476;0.0020908;-45.3523;-0.0220496;140.399;5.39927;-0.010041;0.000205883;0.00545344;-0.00680855;0.00303421;0.0139976;0.0188838;0;0.0490343;3.59619;1.46482
189000;190;25.8013;0.046294;0.00179748;-2.22387;25.7034;-0.308003;-0.0348348;0.0416428;-0.336911;0.0347422;-0.275563;-0.120999;0.302957;-6.19917;-0.00083999;8.36161e-05;0.00229996;0.00230219;-0.000842215;0.0015722;0.365219;2.73808;0.00187952;0.00209627;2.73349;0.365833;54.6148;99.6148;0.00355419;-0.000841732;-0.0017062;0.00186783;0.00229851;0.00352926;0.00913543;0;0.0204228;-0.00137875;-0.318797;-0.458529;0.558464;-6.51112;0.000512465;-0.000580713;0.00303094;0.0031584;0.000385014;0.00138669;-0.169078;-5.91444;0.00198971;0.00184892;-8.20332;-0.121902;139.375;4.37481;-0.0101507;0.000489339;0.00568169;-0.00682737;0.00301502;0.0156281;0.0162554;0;0.0444849;3.66232;1.46835
190000;191;25.8017;0.0467284;0.00181434;-2.22428;25.7037;-0.312708;-0.0352438;0.0419867;-0.341616;0.0341255;-0.279302;-0.122422;0.306857;-6.2006;-0.000892742;-2.40012e-05;0.00211975;0.00211995;-0.000892933;0.00150644;0.421153;2.37443;0.00178692;0.00200859;2.37414;0.421206;54.8173;99.8173;0.00318976;-0.000894344;-0.00184297;0.0017895;0.00211806;0.0031256;0.0114297;0;0.0196701;-0.00213597;-0.323611;-0.461652;0.563783;-6.51425;0.000437088;-0.000402847;0.00318291;0.00324079;0.000379205;0.00143079;-0.137323;-7.28209;0.00204587;0.00190772;-8.54628;-0.11701;134.848;179.848;-0.010983;0.000415941;0.00572827;-0.00651717;0.00316664;0.0141893;0.028536;0;0.0450739;3.74749;1.47637
191000;192;25.8015;0.046495;0.00180528;-2.22438;25.7034;-0.319953;-0.0353429;0.0416547;-0.348861;0.033252;-0.282579;-0.120754;0.309093;-6.19893;-0.000858029;-2.80757e-05;0.00206009;0.00206036;-0.000858299;0.00145933;0.416501;2.40095;0.00173207;0.00194577;2.40051;0.416578;54.7032;99.7032;0.00267145;-0.000859636;-0.00185376;0.0017923;0.00205837;0.00504572;0.0100726;0;0.0166647;-0.00274804;-0.327062;-0.461998;0.566056;-6.51459;0.000491065;-0.000391914;0.00282192;0.00288605;0.000426932;0.00122956;-0.174018;-5.74654;0.00179869;0.00163941;-6.75998;-0.147929;136.199;1.19912;-0.00987339;0.000472191;0.00538744;-0.00615782;0.00280752;0.0136252;0.0227151;0;0.0444071;3.82327;1.48378
192000;193;25.8012;0.046241;0.00179542;-2.22596;25.703;-0.318549;-0.0369217;0.0412804;-0.347457;0.0322417;-0.283961;-0.125522;0.312136;-6.2037;-0.000965761;-2.64106e-05;0.0017787;0.00177895;-0.000966015;0.00137248;0.542959;1.84176;0.00160781;0.00182998;1.84154;0.543024;51.888;96.888;0.00303444;-0.000967359;-0.00184452;0.00178671;0.001777;0.00327596;0.0128718;0;0.0152393;-0.00396001;-0.329598;-0.466888;0.57152;-6.51948;0.000475245;-0.000324304;0.00292404;0.00296626;0.000433024;0.00126662;-0.16253;-6.15271;0.00185014;0.00168883;-6.85011;-0.145983;134.128;179.128;-0.00946332;0.000456749;0.00545758;-0.00609206;0.00290924;0.01517;0.0231072;0;0.0466432;3.89693;1.49141
193000;194;25.8007;0.0457727;0.00177724;-2.22573;25.7025;-0.324159;-0.0366957;0.0407598;-0.353067;0.0321115;-0.285519;-0.126396;0.313891;-6.20457;-0.00103198;5.85051e-05;0.00163127;0.00163255;-0.00103326;0.00133291;0.632621;1.58072;0.00155202;0.00177721;1.58;0.63291;48.3364;93.3364;0.00362086;-0.00103382;-0.00180769;0.00191974;0.00162964;0.00233091;0.0115656;0;0.0155736;-0.00421249;-0.331713;-0.469583;0.574943;-6.52218;0.000531624;-0.000222275;0.00276009;0.00278204;0.00050967;0.00113618;-0.192611;-5.1918;0.00171031;0.00151491;-5.45851;-0.1832;132.364;177.364;-0.00970116;0.000514751;0.00538281;-0.00581489;0.00274566;0.0143573;0.0266762;0;0.044936;3.9656;1.49748
194000;195;25.8008;0.0458718;0.00178109;-2.22766;25.7024;-0.327256;-0.0386227;0.0406531;-0.356164;0.0325428;-0.288025;-0.12838;0.317016;-6.20655;-0.0010144;0.000256067;0.0017911;0.00181428;-0.00103758;0.00142593;0.566358;1.76567;0.00166675;0.00190124;1.74856;0.571898;45.9481;90.9481;0.00288863;-0.00101647;-0.00154452;0.00205161;0.00178994;0.00270773;0.0104802;0;0.0175749;-0.00437724;-0.334709;-0.471401;0.578159;-6.52399;0.000556423;-0.000171993;0.00263246;0.00264661;0.00054227;0.00105217;-0.21137;-4.73104;0.0016143;0.00140289;-4.88061;-0.204892;131.517;176.517;-0.00770321;0.000540471;0.00531991;-0.00565252;0.00261836;0.0138449;0.0241347;0;0.0410227;4.04923;1.50512
195000;196;25.8021;0.0471926;0.00183237;-2.22735;25.7038;-0.325978;-0.0383147;0.0420218;-0.354886;0.0316518;-0.291608;-0.12761;0.319877;-6.20578;-0.00119924;-0.000166758;0.00121303;0.00122451;-0.00121072;0.00121761;0.988632;1.0115;0.00140598;0.00162348;1.01139;0.988738;49.0718;94.0718;0.00331269;-0.00120055;-0.0019599;0.00162207;0.00121113;0.00152292;0.0124348;0;0.0240808;-0.00506251;-0.338891;-0.473865;0.582598;-6.52646;0.000551545;-0.000178794;0.00260375;0.00261921;0.000536084;0.00104156;-0.211827;-4.72082;0.00159771;0.00138875;-4.88581;-0.204674;131.241;176.241;-0.00868105;0.000537754;0.00490921;-0.00525638;0.00259174;0.0159013;0.0238586;0;0.0418413;4.13205;1.51223
196000;197;25.8035;0.0485435;0.00188482;-2.2292;25.705;-0.324045;-0.0401628;0.0432422;-0.352953;0.0309995;-0.292926;-0.129361;0.321715;-6.20753;-0.00125202;-0.000103504;0.00153588;0.00153972;-0.00125586;0.00139779;0.815182;1.22672;0.0016168;0.00186372;1.22603;0.815642;49.3737;94.3737;0.00287949;-0.0012535;-0.00193045;0.00171836;0.00153403;0.00351873;0.0107658;0;0.0161008;-0.00582294;-0.340939;-0.476208;0.585703;-6.5288;0.000510563;-0.000218525;0.00266135;0.00268333;0.000488585;0.00109737;-0.191844;-5.21258;0.00165031;0.00146316;-5.49204;-0.182082;132.175;177.175;-0.00708211;0.00049597;0.00498236;-0.00540825;0.002649;0.0140425;0.0230784;0;0.0400473;4.19883;1.52
197000;198;25.806;0.0510647;0.00198271;-2.22907;25.7076;-0.31639;-0.0400347;0.0458795;-0.345298;0.0309059;-0.295861;-0.129044;0.324255;-6.20722;-0.00129582;-0.000157359;0.00138777;0.00139696;-0.00130501;0.00135099;0.933744;1.07096;0.00156029;0.00180132;1.07046;0.93418;49.0825;94.0825;0.00260265;-0.00129724;-0.00201044;0.00169076;0.00138576;0.00383305;0.0106533;0;0.0225431;-0.00603984;-0.345043;-0.476848;0.588621;-6.52944;0.000261514;-0.000178989;0.00265098;0.00266431;0.000248181;0.00120806;-0.0986484;-10.137;0.00169953;0.00161075;-10.7353;-0.0931503;130.997;175.997;-0.0074279;0.000248377;0.00478349;-0.00512963;0.00263958;0.0143711;0.0243087;0;0.0404557;4.29141;1.52716
198000;199;25.8054;0.0504683;0.00195956;-2.23084;25.7068;-0.322283;-0.0418096;0.0450537;-0.351191;0.0300147;-0.29878;-0.127635;0.326283;-6.20581;-0.00117363;-0.000150875;0.00103681;0.00104706;-0.00118388;0.00111547;1.13197;0.883417;0.00128884;0.0014873;0.884426;1.13068;47.871;92.871;0.00304282;-0.00117511;-0.00203175;0.00172585;0.00103476;0.00341927;0.0140036;0;0.0219362;-0.00712638;-0.347933;-0.477702;0.591022;-6.5303;0.000236328;-0.000254085;0.00266219;0.00268851;0.000210001;0.00123926;-0.0887722;-11.2648;0.0017266;0.00165234;-12.8024;-0.0781104;132.691;177.691;-0.00686427;0.000222816;0.00470906;-0.00520521;0.00265116;0.0133358;0.0214087;0;0.0395974;4.35563;1.53101
199000;200;25.8082;0.0532726;0.00206844;-2.23146;25.7096;-0.317793;-0.0424229;0.0478714;-0.346701;0.0298977;-0.300808;-0.128592;0.328504;-6.20677;-0.00126635;-0.000230133;0.00062198;0.000649622;-0.00129399;0.000971807;2.036;0.49116;0.00114252;0.00129574;0.50203;1.99191;46.8735;91.8735;0.00351068;-0.0012676;-0.0020581;0.00159439;0.00061989;0.00240795;0.0134076;0;0.019375;-0.00743657;-0.351549;-0.479025;0.594228;-6.53162;0.000154457;-0.000375196;0.00292701;0.00297689;0.000104581;0.00143615;-0.0527697;-18.9503;0.00195067;0.00191487;-28.4649;-0.035131;134.213;179.213;-0.00751493;0.000139128;0.0048141;-0.00555014;0.00291553;0.00905352;0.0306497;0;0.0439964;4.42888;1.535
200000;201;25.8117;0.0566983;0.00220145;-2.23166;25.7131;-0.314328;-0.0426277;0.051335;-0.343236;0.0307409;-0.306578;-0.118895;0.330259;-6.19707;-0.00122709;6.06352e-05;0.000567528;0.000569574;-0.00122914;0.000899357;2.16217;0.462498;0.00106151;0.00119914;0.463393;2.158;37.8006;82.8006;0.00340561;-0.00122876;-0.00170565;0.00182375;0.000566076;0.0049835;0.0122288;0;0.0162549;-0.00690221;-0.357748;-0.472956;0.593058;-6.52555;0.000195116;-0.000532609;0.00330715;0.00339578;0.000106487;0.00164465;-0.0589981;-16.9497;0.00222921;0.00219286;-31.8892;-0.0313586;135.627;0.626909;-0.0088265;0.000176726;0.00504065;-0.00608857;0.00329463;0.00987769;0.0247369;0;0.0454105;4.50737;1.54304
201000;202;25.8147;0.0597173;0.00231867;-2.23104;25.7162;-0.311832;-0.0420057;0.05445;-0.34074;0.0300366;-0.30804;-0.122731;0.332947;-6.2009;-0.00129755;-0.000190569;0.0012016;0.00121604;-0.001312;0.00126402;1.07986;0.926048;0.00145992;0.00168536;0.926862;1.07891;48.6027;93.6027;0.00267947;-0.00129885;-0.0020037;0.00161804;0.00119961;0.00542322;0.0113968;0;0.0198045;-0.00834339;-0.361305;-0.477585;0.598914;-6.53018;0.000239943;-0.000521145;0.00321299;0.00330169;0.000151238;0.00157523;-0.0746793;-13.3906;0.00215249;0.0021003;-21.831;-0.0458064;136.797;1.79741;-0.0095645;0.000217486;0.00569894;-0.00672278;0.00319693;0.00998118;0.0241025;0;0.0612347;4.59;1.54999
202000;203;25.8171;0.0621263;0.00241221;-2.23065;25.7186;-0.311608;-0.0416183;0.0569045;-0.340516;0.0280292;-0.30814;-0.127017;0.334469;-6.20519;-0.00124756;-8.6568e-05;0.00151041;0.00151313;-0.00125027;0.0013817;0.825973;1.21069;0.00159786;0.00184227;1.21024;0.826285;48.8221;93.8221;0.00338242;-0.00124916;-0.00196966;0.00179134;0.00150848;0.00459513;0.0137636;0;0.0149734;-0.00961308;-0.364402;-0.480352;0.603008;-6.53295;2.12188e-05;-0.000615229;0.00356294;0.00366677;-8.26083e-05;0.00187469;-0.00595543;-167.914;0.00247251;0.00249959;44.3874;0.0225289;136.328;1.32806;-0.00945681;-1.22185e-06;0.00551879;-0.00672758;0.00354796;0.00937113;0.0207533;0;0.047734;4.65513;1.5563
203000;204;25.8171;0.0621825;0.00241439;-2.2299;25.7187;-0.316548;-0.0408666;0.0569658;-0.345456;0.0272468;-0.310844;-0.126579;0.336732;-6.20475;-0.00129864;-0.000193681;0.00108867;0.00110429;-0.00131425;0.00120927;1.19286;0.838321;0.00139809;0.00161236;0.840242;1.19013;48.047;93.047;0.0031868;-0.00130006;-0.00208737;0.0016955;0.00108652;0.00501026;0.011787;0;0.0160903;-0.0110063;-0.367468;-0.482186;0.606347;-6.53478;-1.9448e-05;-0.000477269;0.00363206;0.00369341;-8.07985e-05;0.0018871;0.00535454;186.757;0.00248964;0.00251614;45.7114;0.0218764;133.997;178.997;-0.00949397;-4.09652e-05;0.00564505;-0.0065773;0.0036163;0.0115826;0.0216131;0;0.0465825;4.7372;1.5634
204000;205;25.8207;0.0657411;0.00255256;-2.23094;25.7222;-0.316397;-0.0419081;0.0604495;-0.345305;0.0260676;-0.311093;-0.133025;0.339343;-6.2112;-0.00128138;1.59364e-05;0.00166267;0.00166276;-0.00128147;0.00147212;0.770676;1.29756;0.0017046;0.00196282;1.29754;0.770688;47.5328;92.5328;0.0031023;-0.00128328;-0.00192082;0.001947;0.00166083;0.0052324;0.0122367;0;0.0226977;-0.0118587;-0.37023;-0.488564;0.613112;-6.54116;0.000308032;-0.000339222;0.00375331;0.0037864;0.00027495;0.00175572;-0.0820692;-12.1848;0.00243779;0.00234096;-13.7712;-0.0726151;131.644;176.644;-0.011441;0.000285591;0.00605241;-0.00670891;0.00373512;0.0131931;0.026626;0;0.0548274;4.81616;1.57022
205000;206;25.8203;0.065308;0.00253575;-2.22993;25.7217;-0.328968;-0.0408978;0.0599447;-0.357876;0.0274084;-0.317369;-0.125967;0.342552;-6.20414;-0.00117463;-9.60601e-05;0.00140862;0.00141219;-0.0011782;0.00129519;0.833884;1.19921;0.00149759;0.00172692;1.1986;0.834303;49.0105;94.0105;0.00392204;-0.00117608;-0.00189986;0.00170309;0.00140683;0.004885;0.0125698;0;0.0257423;-0.011095;-0.376432;-0.485786;0.614664;-6.53838;0.000154306;-0.000304381;0.0036961;0.00372207;0.000128338;0.00179687;-0.0417484;-23.953;0.00243973;0.00239582;-29.002;-0.0344804;131.247;176.247;-0.0112227;0.000132803;0.00597891;-0.00656549;0.00367834;0.0141586;0.022212;0;0.0522726;4.89038;1.57799
206000;207;25.82;0.0650039;0.00252394;-2.22839;25.7214;-0.338106;-0.0393558;0.0596546;-0.367014;0.0272107;-0.318349;-0.128736;0.34447;-6.20691;-0.00112688;0.000252408;0.00212629;0.00214576;-0.00114635;0.00164605;0.529974;1.88689;0.00192967;0.00219474;1.87183;0.534238;48.0597;93.0597;0.00380263;-0.00112912;-0.00163097;0.00212967;0.002125;0.00442145;0.0129217;0;0.0231413;-0.0116975;-0.378575;-0.489675;0.619062;-6.54227;0.000242665;-0.000184153;0.00368178;0.00369161;0.000232832;0.00172939;-0.0659097;-15.1723;0.00238725;0.00230585;-15.8552;-0.0630706;129.058;174.058;-0.0106762;0.000222949;0.00593549;-0.00628282;0.00366424;0.0154399;0.0243687;0;0.0472572;4.96546;1.58484
207000;208;25.8213;0.0663053;0.00257447;-2.22891;25.7226;-0.341531;-0.0398769;0.0608706;-0.37044;0.0253628;-0.32088;-0.132076;0.347924;-6.21025;-0.00124809;9.21559e-05;0.00282671;0.00282879;-0.00125017;0.00203948;0.441533;2.26484;0.00241306;0.00271931;2.26273;0.441944;55.191;100.191;0.00343559;-0.00125;-0.00177928;0.00195598;0.00282514;0.00592155;0.0120185;0;0.0243334;-0.0136103;-0.381875;-0.49634;0.626392;-6.54893;0.000295057;-6.09418e-05;0.00343474;0.00343592;0.000293875;0.00157102;-0.0859039;-11.6409;0.00219921;0.0020947;-11.6918;-0.0855302;127.334;172.334;-0.0090812;0.000276984;0.00591025;-0.00601345;0.00341733;0.016051;0.0256437;0;0.04319;5.04837;1.59251
208000;209;25.8206;0.0656088;0.00254742;-2.22941;25.7219;-0.340406;-0.0403745;0.0601431;-0.369314;0.0252766;-0.325955;-0.122414;0.3491;-6.20059;-0.0012017;-4.41814e-05;0.00220111;0.00220168;-0.00120228;0.00170198;0.545954;1.83166;0.00199331;0.00226931;1.83126;0.546072;53.2667;98.2667;0.00267466;-0.00120336;-0.00191371;0.001819;0.00219928;0.00689108;0.0104477;0;0.0143462;-0.013431;-0.386854;-0.487246;0.622291;-6.53984;0.000348827;-2.58795e-05;0.00347788;0.00347809;0.000348613;0.00156474;-0.100299;-9.97021;0.0022117;0.00208632;-9.97695;-0.100231;125.835;170.835;-0.00875782;0.000333477;0.00550724;-0.00554175;0.00346276;0.0166505;0.0258857;0;0.0432391;5.12759;1.59999
209000;210;25.8193;0.0643084;0.00249693;-2.22846;25.7206;-0.346341;-0.0394309;0.0588403;-0.375249;0.0237212;-0.328298;-0.121839;0.350981;-6.20001;-0.0011929;5.52064e-05;0.00282556;0.00282632;-0.00119366;0.00200999;0.422183;2.36864;0.00238389;0.00267999;2.36777;0.422338;56.4649;101.465;0.00264091;-0.00119461;-0.00174437;0.00184757;0.00282404;0.00703316;0.0116809;0;0.0244767;-0.0151105;-0.389436;-0.488499;0.624916;-6.54109;0.000346615;4.58355e-05;0.00327348;0.0032742;0.000345897;0.00146415;-0.105886;-9.44414;0.00207712;0.0019522;-9.46581;-0.105643;125.184;170.184;-0.00894003;0.000330769;0.00573905;-0.00563077;0.00325707;0.0175082;0.0245051;0;0.0436987;5.19107;1.6039
210000;211;25.8208;0.0658858;0.00255818;-2.22806;25.7222;-0.345189;-0.0390263;0.0604743;-0.374097;0.0230185;-0.327892;-0.130477;0.353649;-6.20865;-0.00123557;2.72461e-05;0.00326598;0.00326614;-0.00123573;0.00225094;0.378314;2.6433;0.00268583;0.00300125;2.64308;0.378346;58.9339;103.934;0.0029876;-0.00123736;-0.00184708;0.00189316;0.00326428;0.00771088;0.0111628;0;0.0398316;-0.0154084;-0.391084;-0.498441;0.633741;-6.55104;0.000356308;7.27626e-05;0.00342572;0.00342744;0.000354584;0.00153643;-0.10401;-9.61448;0.00217642;0.00204857;-9.66608;-0.103455;124.088;169.088;-0.00921132;0.00034157;0.00559309;-0.00543068;0.00341013;0.0159319;0.0277792;0;0.0422841;5.26926;1.61019
211000;212;25.8209;0.0659673;0.00256134;-2.2277;25.7224;-0.339297;-0.0386612;0.0606661;-0.368206;0.0225143;-0.329608;-0.138643;0.358288;-6.21682;-0.00115202;-6.03615e-07;0.00333828;0.00333828;-0.00115202;0.00224515;0.345092;2.89778;0.00269296;0.00299353;2.89778;0.345092;59.9234;104.923;0.00326382;-0.00115383;-0.00191646;0.00190668;0.00333645;0.00582265;0.0113617;0;0.0206879;-0.0162919;-0.393405;-0.505641;0.640863;-6.55823;0.000454031;5.09782e-05;0.00331656;0.00331747;0.000453124;0.00143217;-0.136898;-7.30469;0.00207714;0.00190956;-7.32133;-0.136587;124.263;169.263;-0.00936686;0.000439803;0.00545319;-0.00533582;0.00330174;0.0185658;0.0264889;0;0.0379106;5.36113;1.61704
212000;213;25.8185;0.0635303;0.00246672;-2.22823;25.7199;-0.342742;-0.0391942;0.058128;-0.37165;0.0218254;-0.3342;-0.134127;0.360771;-6.2123;-0.00119685;-2.36138e-05;0.00333394;0.00333407;-0.00119697;0.00226552;0.358989;2.7856;0.00271125;0.00302069;2.78542;0.359012;60.8618;105.862;0.00322956;-0.00119837;-0.00180163;0.00174637;0.00333233;0.00617406;0.0103441;0;0.0207437;-0.0169119;-0.397648;-0.503578;0.641873;-6.55617;0.000325628;2.23768e-05;0.00333774;0.0033379;0.000325462;0.00150622;-0.0975595;-10.2502;0.00212511;0.00200829;-10.2559;-0.0975048;124.849;169.849;-0.00839736;0.000312087;0.00526533;-0.00520484;0.00332392;0.0149008;0.0273327;0;0.0387919;5.41076;1.62188
213000;214;25.8213;0.0663768;0.00257724;-2.23033;25.7226;-0.340441;-0.0412936;0.060834;-0.36935;0.0223074;-0.336721;-0.136269;0.363934;-6.21444;-0.00114131;-4.37397e-05;0.0030072;0.00300766;-0.00114178;0.00207472;0.379528;2.63485;0.0024751;0.00276629;2.63419;0.379623;59.5132;104.513;0.00325603;-0.0011428;-0.00182014;0.00172531;0.00300555;0.00473154;0.0111553;0;0.0212621;-0.0169707;-0.401197;-0.505576;0.645643;-6.55817;8.09656e-05;5.2296e-06;0.00357023;0.00357024;8.09578e-05;0.00174464;-0.022678;-44.0957;0.00235364;0.00232619;-44.1001;-0.0226757;124.863;169.863;-0.00826474;6.8379e-05;0.00504546;-0.00501748;0.00355755;0.00993774;0.0286639;0;0.0366255;5.5002;1.62932
214000;215;25.8187;0.0637031;0.00247343;-2.23123;25.7197;-0.346102;-0.0421922;0.0579966;-0.37501;0.0223712;-0.340862;-0.132929;0.366548;-6.2111;-0.00126173;-6.34616e-05;0.00253444;0.0025355;-0.00126279;0.00189915;0.497834;2.0087;0.0022336;0.0025322;2.00786;0.498044;55.2919;100.292;0.00322263;-0.00126339;-0.00195693;0.00182284;0.00253253;0.00377451;0.0119715;0;0.023;-0.0173817;-0.40566;-0.503068;0.646483;-6.55566;-0.000190569;-0.000273351;0.00390495;0.00392312;-0.000208733;0.00206592;0.048802;20.491;0.00268769;0.00275457;18.7949;0.053206;129.134;174.134;-0.00770694;-0.000206247;0.00508084;-0.00560569;0.00389213;0.00834493;0.0296958;0;0.0420848;5.57987;1.63719
215000;216;25.8224;0.0674475;0.00261882;-2.23182;25.7235;-0.338565;-0.0427868;0.0618041;-0.367473;0.0216401;-0.343067;-0.133926;0.368916;-6.2121;-0.00141139;-0.000133449;0.00270895;0.00271327;-0.00141571;0.00206449;0.521011;1.91935;0.00242279;0.00275265;1.91654;0.521773;56.7427;101.743;0.00274214;-0.00141278;-0.001947;0.00167265;0.00270707;0.00439004;0.0109843;0;0.0199699;-0.0179448;-0.409351;-0.504146;0.649656;-6.55674;1.28068e-05;-0.00046077;0.00387768;0.00393185;-4.13669e-05;0.00198661;-0.00330269;-302.783;0.00263513;0.00264881;95.0484;0.010521;131.781;176.781;-0.00909922;-4.43568e-06;0.00498991;-0.00589045;0.00386538;0.0102389;0.0275158;0;0.0440623;5.64731;1.64469
216000;217;25.827;0.0720238;0.0027965;-2.23286;25.7282;-0.330907;-0.0438282;0.0664072;-0.359816;0.0208451;-0.344375;-0.139756;0.372237;-6.21793;-0.00115351;-0.000127683;0.00235513;0.00235977;-0.00115815;0.00175896;0.489789;2.0417;0.00207019;0.00234528;2.03752;0.490792;55.9529;100.953;0.00342665;-0.00115505;-0.00201537;0.0017534;0.00235311;0.00392355;0.0120162;0;0.019602;-0.0195485;-0.412246;-0.511637;0.657344;-6.56423;1.77795e-05;-0.00036521;0.00412131;0.00415356;-1.44704e-05;0.00208401;-0.00431405;-231.801;0.00277387;0.00277869;287.039;0.00348385;130.689;175.689;-0.00940339;-3.47737e-06;0.00582539;-0.0065305;0.00410448;0.00997066;0.0207583;0;0.0457045;5.72488;1.65245
217000;218;25.828;0.0730928;0.00283801;-2.23277;25.7292;-0.335234;-0.0437401;0.0674319;-0.364142;0.0202972;-0.348121;-0.136452;0.374459;-6.21463;-0.00139039;-2.64363e-05;0.00226863;0.00226882;-0.00139058;0.0018297;0.612877;1.63165;0.00213294;0.0024396;1.63156;0.612909;52.1502;97.1502;0.00296086;-0.00139203;-0.00187062;0.00181102;0.00226689;0.00356023;0.011057;0;0.0178361;-0.0198237;-0.416283;-0.511974;0.660153;-6.56457;-4.26196e-05;-0.000395905;0.00433241;0.00436794;-7.81571e-05;0.00222305;0.00983738;101.653;0.00293836;0.00296407;55.8867;0.0178933;130.669;175.669;-0.0101134;-6.50627e-05;0.00594707;-0.00671123;0.00431488;0.0136602;0.0206582;0;0.0487945;5.79535;1.6602
218000;219;25.8289;0.0739673;0.00287196;-2.23262;25.73;-0.337342;-0.0435881;0.0682955;-0.36625;0.0186894;-0.34951;-0.138784;0.37652;-6.21696;-0.00139169;-6.83026e-05;0.00228204;0.00228331;-0.00139296;0.00183814;0.609846;1.63976;0.00214315;0.00245085;1.63918;0.610063;53.0038;98.0038;0.00342695;-0.0013932;-0.00188086;0.00173761;0.00228028;0.00384504;0.0111907;0;0.0157225;-0.0217864;-0.420124;-0.513185;0.66358;-6.56578;-0.000123664;-0.000182502;0.00463799;0.00464497;-0.000130648;0.00238781;0.0266632;37.5048;0.0031411;0.00318375;35.5533;0.0281268;127.722;172.722;-0.0114854;-0.000146933;0.00649061;-0.00682397;0.00461703;0.0167822;0.0202747;0;0.0446306;5.86446;1.66784
219000;220;25.83;0.0750608;0.00291442;-2.23212;25.7311;-0.343945;-0.043085;0.0693494;-0.372853;0.0188274;-0.351586;-0.141485;0.379454;-6.21966;-0.0013012;1.56937e-05;0.00196417;0.00196425;-0.00130127;0.00163276;0.662466;1.50951;0.00189826;0.00217702;1.50948;0.662479;49.6362;94.6362;0.00353691;-0.00130308;-0.00191329;0.00193839;0.00196235;0.00393481;0.0123037;0;0.0156617;-0.0215244;-0.423649;-0.516382;0.668275;-6.56898;3.13903e-05;-0.000203819;0.00457911;0.00458823;2.22738e-05;0.00228298;-0.0068551;-145.877;0.00305142;0.00304397;-205.992;-0.00485456;127.955;172.955;-0.0123686;7.72194e-06;0.00650599;-0.00688325;0.00455806;0.0198033;0.0228242;0;0.0419772;5.93744;1.67476
220000;221;25.8324;0.077481;0.00300839;-2.23226;25.7335;-0.343996;-0.043223;0.0717662;-0.372904;0.0179138;-0.354493;-0.13794;0.380807;-6.21611;-0.00141503;-1.00127e-05;0.0019184;0.00191843;-0.00141506;0.00166675;0.737609;1.35573;0.00193189;0.00222233;1.35572;0.737614;48.9888;93.9888;0.00387869;-0.0014168;-0.00190491;0.00187858;0.00191659;0.00218305;0.0133428;0;0.0157406;-0.0229362;-0.427777;-0.513965;0.669088;-6.56656;-9.57868e-05;-0.000186891;0.00475186;0.00475905;-0.000102981;0.00243102;0.0201578;49.6087;0.00320758;0.00324136;46.2128;0.021639;127.338;172.338;-0.0117078;-0.00011846;0.00639413;-0.00673615;0.00473153;0.0194073;0.0200739;0;0.0448336;6.00927;1.68063
221000;222;25.8341;0.0790965;0.00307112;-2.23228;25.7351;-0.348725;-0.0432446;0.0733224;-0.377633;0.0168322;-0.354574;-0.14267;0.382571;-6.22084;-0.00140287;-5.73038e-05;0.00209633;0.00209727;-0.00140381;0.00175054;0.669204;1.49431;0.00203452;0.00233405;1.49398;0.669352;51.0934;96.0934;0.00409375;-0.00140459;-0.00197728;0.00185597;0.00209438;0.00362016;0.0118537;0;0.0164881;-0.0240077;-0.429156;-0.520676;0.67517;-6.57327;2.16876e-05;2.60952e-05;0.00442104;0.0044212;2.15328e-05;0.00219983;-0.00490554;-203.851;0.00294031;0.00293311;-205.324;-0.00487036;124.97;169.97;-0.0109923;1.54877e-06;0.00642678;-0.00634655;0.00440048;0.0184594;0.0217814;0;0.040675;6.08354;1.68617
222000;223;25.8344;0.0794812;0.00308605;-2.23178;25.7355;-0.351815;-0.0427428;0.07371;-0.380723;0.016483;-0.357628;-0.141366;0.384908;-6.21954;-0.00141303;0.000267163;0.00213395;0.00215396;-0.00143304;0.0017935;0.662166;1.5102;0.00208485;0.00239133;1.50307;0.665304;45.9724;90.9724;0.00354397;-0.00141546;-0.00168998;0.00221738;0.00213256;0.00384812;0.0120518;0;0.0174692;-0.024533;-0.432632;-0.521693;0.678185;-6.57429;7.38242e-05;0.0001045;0.00432465;0.00432721;7.12568e-05;0.00212798;-0.0170706;-58.5803;0.00286135;0.00283731;-60.727;-0.0164671;123.427;168.427;-0.0097205;5.65446e-05;0.00611426;-0.00587983;0.00430604;0.0162485;0.0277616;0;0.0410585;6.14902;1.6896
223000;224;25.835;0.0800569;0.00310841;-2.23338;25.7358;-0.357584;-0.044342;0.0740697;-0.386492;0.0154775;-0.360307;-0.142578;0.387801;-6.22075;-0.00139279;0.000104969;0.00225737;0.00226038;-0.00139581;0.00182809;0.616999;1.62075;0.00213048;0.00243746;1.61941;0.61751;50.0512;95.0512;0.00363694;-0.00139464;-0.00172148;0.00192477;0.00225589;0.00292173;0.0119861;0;0.0168505;-0.0259513;-0.437004;-0.525175;0.683706;-6.57777;0.000186968;0.000172646;0.00408635;0.00409398;0.000179339;0.00195732;-0.0457543;-21.8559;0.00267155;0.00260976;-22.8282;-0.0438056;122.716;167.716;-0.0111177;0.00016951;0.00628114;-0.00591213;0.00406672;0.0175767;0.0285889;0;0.0428159;6.22355;1.697
224000;225;25.8374;0.082452;0.0032014;-2.23286;25.7383;-0.351758;-0.0438224;0.0765994;-0.380666;0.0144985;-0.362004;-0.144638;0.390099;-6.22281;-0.0012649;0.000208644;0.00255024;0.00256162;-0.00127628;0.00191895;0.495993;2.01616;0.00225685;0.0025586;2.0071;0.498231;51.4019;96.4019;0.00343324;-0.00126703;-0.00166277;0.00207294;0.00254888;0.0053231;0.0126523;0;0.0167468;-0.0267168;-0.43955;-0.527873;0.687436;-6.58047;0.000328722;0.000250003;0.00404252;0.00405927;0.000311968;0.00187365;-0.081316;-12.2977;0.00260842;0.0024982;-13.0118;-0.0768531;120.598;165.598;-0.010551;0.000313922;0.00596832;-0.00544717;0.00402481;0.0189984;0.0264465;0;0.0400818;6.27884;1.70363
225000;226;25.8375;0.0825135;0.00320379;-2.23283;25.7383;-0.356916;-0.0438002;0.0765921;-0.385824;0.0143799;-0.366231;-0.142419;0.393211;-6.22059;-0.0014018;0.000146308;0.00252019;0.00252564;-0.00140725;0.00196645;0.556228;1.79782;0.00230106;0.00262193;1.79473;0.557186;51.2917;96.2917;0.00366829;-0.00140379;-0.00171031;0.00199567;0.00251874;0.00446743;0.011602;0;0.0167386;-0.0271808;-0.444039;-0.527663;0.690173;-6.58026;0.000400238;0.000386149;0.00393486;0.00397656;0.000358544;0.00180901;-0.101716;-9.83131;0.00253997;0.00241201;-11.0908;-0.0901645;118.617;163.617;-0.0104988;0.000385316;0.00627074;-0.00547774;0.00391535;0.0235175;0.0249197;0;0.0359377;6.34495;1.71107
226000;227;25.8403;0.0853308;0.00331318;-2.23373;25.7411;-0.353355;-0.0447004;0.0793913;-0.382263;0.0141053;-0.370394;-0.138764;0.395786;-6.21694;-0.00148718;-3.14296e-05;0.0026632;0.00266344;-0.00148742;0.00207543;0.558421;1.79077;0.00242835;0.00276724;1.79064;0.55846;54.7749;99.7749;0.00354766;-0.00148865;-0.00177955;0.00170945;0.00266162;0.00498555;0.0103625;0;0.0172892;-0.0274193;-0.448328;-0.525314;0.691162;-6.57791;0.00037926;0.000321353;0.00404058;0.00406857;0.000351269;0.00185865;-0.0938629;-10.6538;0.0026032;0.0024782;-11.5825;-0.0863373;119.434;164.434;-0.0110554;0.000364585;0.00609184;-0.0054281;0.00402215;0.0252213;0.0266786;0;0.0342067;6.40131;1.71845
227000;228;25.8407;0.0857005;0.00332754;-2.23356;25.7415;-0.354791;-0.0445257;0.0797578;-0.383699;0.013636;-0.372084;-0.144368;0.399342;-6.22254;-0.00145611;0.000160795;0.00312102;0.00312666;-0.00146175;0.00229421;0.46655;2.14339;0.00270663;0.00305894;2.13898;0.467513;55.4684;100.468;0.0036868;-0.001458;-0.00163705;0.00195043;0.0031197;0.00454686;0.0110878;0;0.0193649;-0.0279413;-0.451385;-0.531514;0.69788;-6.58411;0.000333065;0.000300071;0.00408514;0.00410899;0.000309218;0.00189988;-0.0815309;-12.2653;0.00264229;0.00253318;-13.2883;-0.0752542;119.68;164.68;-0.00952704;0.000318883;0.00595643;-0.00533516;0.00406752;0.0172787;0.0284289;0;0.0344077;6.45321;1.72624
228000;229;25.8408;0.0858628;0.00333384;-2.23362;25.7417;-0.354637;-0.0445827;0.0799179;-0.383545;0.0138287;-0.374451;-0.144908;0.40175;-6.22308;-0.00136081;0.000369938;0.00331788;0.00334695;-0.00138988;0.00236841;0.410144;2.43817;0.00281154;0.00315789;2.40809;0.415267;55.3295;100.329;0.00387294;-0.00136293;-0.00135776;0.00208958;0.00331703;0.00437797;0.0123451;0;0.0168494;-0.0279627;-0.454265;-0.532578;0.700555;-6.58781;0.000226699;0.00029381;0.00472489;0.004744;0.000207589;0.00226821;-0.0479797;-20.8422;0.00309579;0.00302427;-22.8528;-0.0437582;119.517;164.517;-0.0101594;0.000211989;0.00604589;-0.00543253;0.00470674;0.0139802;0.0295563;0;0.0358379;6.50362;1.73268
229000;230;25.8458;0.0908357;0.00352692;-2.23301;25.7468;-0.345389;-0.0439736;0.0850885;-0.374297;0.012895;-0.380746;-0.141951;0.406551;-6.22012;-0.00138894;0.000153029;0.00404195;0.00404626;-0.00139325;0.00271975;0.34363;2.9101;0.00326264;0.00362634;2.9042;0.344329;62.2893;107.289;0.00296113;-0.00139066;-0.00156565;0.00186241;0.00404074;0.00519194;0.0102392;0;0.0176637;-0.0293443;-0.461396;-0.532936;0.705527;-6.58553;5.42899e-05;-0.00017395;0.00471265;0.00471913;4.78034e-05;0.00233566;-0.0115201;-86.8052;0.00313028;0.00311422;-98.7196;-0.0101297;126.732;171.732;-0.00998383;3.31889e-05;0.00618036;-0.00649879;0.00469365;0.0194047;0.0231356;0;0.0373236;6.56329;1.74018
230000;231;25.8475;0.0925869;0.00359492;-2.23298;25.7486;-0.341166;-0.0439446;0.0869053;-0.370074;0.0119764;-0.381348;-0.151882;0.410655;-6.23006;-0.00123458;0.000246529;0.00413397;0.00414527;-0.00124588;0.00269557;0.298643;3.34848;0.00325917;0.0035941;3.32718;0.300555;62.2373;107.237;0.00302024;-0.00123654;-0.00150733;0.00199101;0.00413287;0.00586408;0.0116349;0;0.021275;-0.0307494;-0.462862;-0.544601;0.715386;-6.59984;0.000311661;-0.000340042;0.00470854;0.00473469;0.000285518;0.00222458;-0.0661904;-15.1079;0.00306572;0.00296611;-16.5828;-0.0603035;128.653;173.653;-0.00857522;0.000288799;0.00611958;-0.00677138;0.00468996;0.0161483;0.0115577;0;0.046648;6.59732;1.74752
231000;232;25.8446;0.0896589;0.00348123;-2.23519;25.7454;-0.347797;-0.0461583;0.0836852;-0.376705;0.0129286;-0.385734;-0.148586;0.413565;-6.22676;-0.0013726;0.000261754;0.00430844;0.00432047;-0.00138464;0.00285255;0.318585;3.13888;0.00343615;0.0038034;3.12029;0.320483;61.9771;106.977;0.00373283;-0.00137469;-0.00154661;0.00205988;0.00430728;0.00488498;0.012569;0;0.0275946;-0.0297021;-0.468153;-0.538155;0.713905;-6.59075;2.55853e-05;-0.000273229;0.00519391;0.00520831;1.11809e-05;0.00259857;-0.00492602;-203.004;0.00346849;0.00346475;-465.823;-0.00214674;127.037;172.037;-0.00918857;2.51572e-06;0.0062854;-0.00679812;0.00517429;0.0159284;0.0151351;0;0.0539174;6.63589;1.75317
232000;233;25.8418;0.0868627;0.00337266;-2.23276;25.7427;-0.358075;-0.0437282;0.0809482;-0.386983;0.0104013;-0.392125;-0.145764;0.41847;-6.22394;-0.00117465;7.90203e-05;0.00395204;0.00395325;-0.00117587;0.00256456;0.297227;3.36443;0.00310264;0.00341942;3.36199;0.297443;63.3391;108.339;0.0033416;-0.00117632;-0.00167917;0.00182823;0.00395063;0.00388152;0.0104846;0;0.0265722;-0.031562;-0.474299;-0.539998;0.719412;-6.59259;-4.54034e-05;-0.000181594;0.00495849;0.00496507;-5.19848e-05;0.00250853;0.0091567;109.21;0.00332751;0.0033447;95.5099;0.0104701;126.982;171.982;-0.0116935;-6.9362e-05;0.00659498;-0.00692441;0.00493686;0.0185974;0.0179859;0;0.0386394;6.68405;1.75737
233000;234;25.8441;0.0891863;0.00346288;-2.23324;25.7451;-0.34998;-0.0442039;0.0833508;-0.378888;0.0118771;-0.393464;-0.152163;0.422029;-6.23034;-0.00132791;4.87125e-05;0.00402322;0.00402366;-0.00132836;0.00267601;0.330062;3.02973;0.00321795;0.00356801;3.02905;0.330136;62.9377;107.938;0.00361561;-0.00132961;-0.00175437;0.00184218;0.00402169;0.00424834;0.0112214;0;0.0202099;-0.0310467;-0.478376;-0.541082;0.722895;-6.59368;-0.000127964;-0.000167622;0.00489267;0.00489827;-0.000133554;0.00251591;0.0261542;38.2348;0.00331093;0.00335455;36.6763;0.0272656;126.887;171.887;-0.012768;-0.000150769;0.00645295;-0.00675511;0.00487197;0.0205024;0.0227852;0;0.0375477;6.72077;1.76504
234000;235;25.8411;0.0861045;0.00334322;-2.23177;25.7419;-0.368901;-0.0427375;0.0801201;-0.397809;0.00934297;-0.394541;-0.161329;0.426353;-6.2395;-0.00117254;0.000231057;0.00350814;0.00351952;-0.00118392;0.00235172;0.334234;2.99192;0.00282493;0.00313562;2.97278;0.336386;59.002;104.002;0.00332681;-0.00117449;-0.0015323;0.00198618;0.003507;0.00341431;0.0109731;0;0.0262306;-0.0324482;-0.477714;-0.558436;0.735605;-6.61103;7.7271e-05;-4.88726e-05;0.00491062;0.00491112;7.67768e-05;0.00241717;-0.0157355;-63.5507;0.00324879;0.00322289;-63.9661;-0.0156333;125.06;170.06;-0.0120605;5.55679e-05;0.00652259;-0.00658872;0.00488945;0.0225723;0.0190495;0;0.0425355;6.76127;1.76985
235000;236;25.8416;0.0866779;0.00336548;-2.23144;25.7424;-0.370965;-0.0424013;0.0806952;-0.399874;0.0092492;-0.399832;-0.158553;0.430221;-6.23673;-0.00141817;-0.000166517;0.00324844;0.00325438;-0.0014241;0.00233924;0.436569;2.29059;0.00276916;0.00311899;2.28521;0.437596;60.4289;105.429;0.00304464;-0.00141951;-0.00198925;0.00164774;0.00324648;0.0043927;0.0122862;0;0.0232109;-0.0329877;-0.483709;-0.555848;0.737583;-6.60844;0.000102742;0.000145296;0.00474657;0.00475111;9.82009e-05;0.00232646;-0.0216456;-46.1987;0.00313519;0.00310194;-48.3816;-0.020669;122.544;167.544;-0.0110747;8.40618e-05;0.00643406;-0.00611441;0.00472598;0.0206466;0.0246809;0;0.0390981;6.79914;1.7776
236000;237;25.8428;0.0878083;0.00340937;-2.23348;25.7434;-0.372493;-0.0444465;0.0816305;-0.401401;0.0124332;-0.40206;-0.15622;0.431522;-6.23439;-0.00143761;0.000171678;0.00297387;0.00298054;-0.00144428;0.00221241;0.483413;2.06862;0.00260549;0.00294988;2.06369;0.484569;54.3336;99.3336;0.00317434;-0.00143954;-0.00163681;0.00197222;0.00297255;0.00398747;0.0108016;0;0.019104;-0.0315805;-0.487076;-0.553398;0.737895;-6.60599;3.48958e-05;0.000256428;0.00460081;0.00461517;2.05396e-05;0.00229731;-0.00758471;-131.844;0.00306995;0.00306309;-224.696;-0.00445045;120.845;165.845;-0.0101784;1.95206e-05;0.00609068;-0.00555131;0.00458238;0.0215512;0.02633;0;0.0406865;6.83804;1.78489
237000;238;25.8423;0.0873806;0.00339277;-2.2342;25.7429;-0.368598;-0.0451648;0.0811949;-0.397506;0.00879933;-0.407328;-0.1564;0.436411;-6.23457;-0.00139268;0.000204189;0.00259427;0.0026047;-0.00140311;0.00200391;0.536831;1.86278;0.00234832;0.00267187;1.85637;0.538686;51.1349;96.1349;0.00362994;-0.00139475;-0.00164193;0.00204296;0.00259294;0.00419168;0.0127203;0;0.0210129;-0.0337077;-0.491456;-0.553912;0.741272;-6.60651;0.000242362;0.000216846;0.00476299;0.00477336;0.000231984;0.00227069;-0.0508844;-19.6524;0.0031078;0.00302759;-20.5763;-0.0485996;120.84;165.84;-0.0116405;0.000225749;0.0062297;-0.00576896;0.0047437;0.0248756;0.0260383;0;0.0407863;6.85929;1.79154
238000;239;25.8441;0.0891255;0.00346052;-2.23416;25.7447;-0.365977;-0.045126;0.0829873;-0.394885;0.00897732;-0.407675;-0.161238;0.438494;-6.23941;-0.00140638;-4.18355e-05;0.00260328;0.00260371;-0.00140681;0.00200526;0.540234;1.85105;0.0023496;0.00267368;1.85079;0.540311;54.6882;99.6882;0.00358802;-0.00140797;-0.00187391;0.00178292;0.00260153;0.00365718;0.0113201;0;0.0170192;-0.0340544;-0.493274;-0.558349;0.74581;-6.61094;0.000331728;0.000286242;0.00459922;0.00461833;0.000312614;0.00215286;-0.0721271;-13.8644;0.00298015;0.00287048;-14.7733;-0.0676898;119.814;164.814;-0.0110308;0.000315856;0.00624014;-0.00564237;0.00457988;0.024195;0.0263266;0;0.0392205;6.90697;1.79873
239000;240;25.8454;0.0904076;0.0035103;-2.23437;25.746;-0.366598;-0.0453393;0.084247;-0.395506;0.00837133;-0.409184;-0.165888;0.441611;-6.24406;-0.00142552;-9.56263e-05;0.00287719;0.00287932;-0.00142764;0.00215348;0.495454;2.01835;0.00253327;0.0028713;2.01683;0.495827;57.4535;102.453;0.00340057;-0.00142691;-0.00186886;0.00167;0.00287545;0.00494157;0.0115567;0;0.0166742;-0.0345968;-0.495693;-0.563547;0.751328;-6.61614;0.000402293;0.000415055;0.00449319;0.00453488;0.000360607;0.00208714;-0.0895338;-11.169;0.00291051;0.00278285;-12.5757;-0.0795185;117.512;162.512;-0.00884857;0.000388591;0.00610551;-0.00525224;0.00447472;0.0221658;0.022252;0;0.0385386;6.93271;1.80564
240000;241;25.8466;0.0916436;0.00355829;-2.23556;25.7472;-0.363205;-0.0465226;0.0854332;-0.392114;0.00807463;-0.411185;-0.169893;0.444974;-6.24807;-0.0014264;7.98325e-05;0.00261907;0.00262064;-0.00142798;0.00202431;0.544623;1.83613;0.00237104;0.00269908;1.83521;0.544896;53.0803;98.0803;0.00346058;-0.00142815;-0.00172018;0.00187258;0.00261759;0.00406032;0.0111103;0;0.0177087;-0.0351979;-0.498054;-0.567589;0.755946;-6.62018;0.000262997;0.000367962;0.00456716;0.00459839;0.000231767;0.00218331;-0.0575844;-17.3658;0.00299133;0.00291108;-19.8406;-0.0504017;118.173;163.173;-0.00802473;0.000250043;0.00586345;-0.005104;0.00455011;0.020395;0.0253015;0;0.0319591;6.97876;1.81353
241000;242;25.8477;0.0927707;0.00360205;-2.23482;25.7483;-0.365247;-0.0457895;0.0865994;-0.394155;0.00666362;-0.415005;-0.166091;0.447057;-6.24426;-0.00154093;6.39421e-05;0.00282458;0.00282552;-0.00154186;0.00218369;0.545541;1.83304;0.00255756;0.00291159;1.83254;0.545692;54.0587;99.0587;0.003626;-0.00154264;-0.00172875;0.00184883;0.00282309;0.00434142;0.0124878;0;0.0185631;-0.0365446;-0.502235;-0.565876;0.75749;-6.61847;0.000461213;0.000184759;0.00465534;0.00466347;0.00045309;0.00210519;-0.0990717;-10.0937;0.00296949;0.00280692;-10.2926;-0.0971573;120.412;165.412;-0.00887583;0.000445763;0.0059567;-0.00556309;0.0046377;0.0193947;0.0251061;0;0.0312482;7.00759;1.82043
242000;243;25.8518;0.096813;0.003759;-2.23498;25.7525;-0.354606;-0.0459452;0.0907924;-0.383514;0.00642461;-0.415817;-0.171378;0.449795;-6.24955;-0.00147725;-4.26874e-05;0.00316384;0.00316424;-0.00147764;0.00232094;0.466917;2.14171;0.00273832;0.00309459;2.14141;0.466983;58.5121;103.512;0.00334218;-0.00147868;-0.00178255;0.00168912;0.00316226;0.00558821;0.0116521;0;0.0181341;-0.0369661;-0.503768;-0.573564;0.76428;-6.6288;0.000250192;2.65572e-05;0.00496696;0.00496711;0.000250042;0.00235853;-0.0503712;-19.8526;0.00323129;0.00314471;-19.8651;-0.0503396;122.697;167.697;-0.00769907;0.000232885;0.00596504;-0.00588406;0.00494926;0.0164676;0.0180606;0;0.0339511;7.0466;1.82744
243000;244;25.8512;0.0962898;0.00373869;-2.23649;25.7518;-0.360418;-0.0474529;0.0900557;-0.389326;0.00569603;-0.418893;-0.172493;0.453054;-6.25067;-0.00130844;0.000126639;0.00317789;0.00318146;-0.00131201;0.00224674;0.411732;2.42876;0.0026681;0.00299565;2.42487;0.412393;57.3213;102.321;0.003375;-0.00131023;-0.00164929;0.00189463;0.00317654;0.00584998;0.0112427;0;0.0194122;-0.0381796;-0.50862;-0.573574;0.767554;-6.62617;0.00029581;-0.000132052;0.00555075;0.00555407;0.000292494;0.00263079;-0.0532919;-18.7646;0.00360917;0.00350772;-18.9887;-0.052663;123.589;168.589;-0.00830668;0.000276312;0.00601498;-0.00624696;0.00553277;0.0188766;0.0201944;0;0.0398813;7.08208;1.83569
244000;245;25.851;0.0960377;0.0037289;-2.23589;25.7516;-0.359801;-0.046852;0.0898634;-0.388709;0.00517863;-0.42379;-0.165194;0.454878;-6.24337;-0.00151197;0.000217327;0.0034255;0.00343505;-0.00152152;0.00247828;0.441388;2.26558;0.0029319;0.00330438;2.25764;0.442941;56.917;101.917;0.00317062;-0.00151386;-0.00152705;0.00195312;0.00342436;0.00534085;0.0117592;0;0.0274691;-0.0382487;-0.513004;-0.567453;0.765923;-6.62269;0.000266422;-6.33065e-05;0.00546145;0.00546222;0.000265651;0.00259829;-0.0487823;-20.4992;0.00355624;0.00346438;-20.5617;-0.0486342;123.898;168.898;-0.00898376;0.000244183;0.00657808;-0.00667038;0.00543993;0.0183302;0.014495;0;0.034525;7.11218;1.83681
245000;246;25.8565;0.101551;0.00394296;-2.23531;25.7572;-0.357162;-0.0462771;0.0954844;-0.38607;0.00496365;-0.42411;-0.175405;0.458978;-6.25358;-0.00139019;0.000216528;0.00347227;0.00348189;-0.00139981;0.00244085;0.400368;2.4977;0.00290265;0.00325447;2.4874;0.402026;57.9446;102.945;0.00356969;-0.00139207;-0.00152607;0.00195068;0.00347113;0.00552115;0.0115605;0;0.0190924;-0.03896;-0.515338;-0.578434;0.775679;-6.63103;0.000181138;-0.000225303;0.00564107;0.00565035;0.000171856;0.00273925;-0.0321105;-31.1424;0.00371094;0.00365233;-32.8783;-0.0304152;125.206;170.206;-0.00849341;0.000158598;0.00630333;-0.00671848;0.00562134;0.0154551;0.0115378;0;0.0373441;7.14053;1.84321
246000;247;25.8611;0.106149;0.0041215;-2.23465;25.7621;-0.340204;-0.0456157;0.100387;-0.369112;0.00309135;-0.428302;-0.17357;0.462145;-6.25174;-0.00141783;0.000108609;0.00431061;0.00431267;-0.00141989;0.00286628;0.328916;3.04029;0.0034473;0.0038217;3.03733;0.329237;63.6692;108.669;0.00374429;-0.00141956;-0.00165482;0.00186197;0.00430925;0.00548335;0.0106352;0;0.0201251;-0.0408595;-0.520998;-0.575647;0.777482;-6.62824;-1.8714e-05;-0.000377364;0.00589401;0.005918;-4.27009e-05;0.00298035;0.00317509;314.952;0.00395964;0.0039738;138.592;0.00721543;126.525;171.525;-0.00921014;-4.28246e-05;0.00623847;-0.00695429;0.00587473;0.0136293;0.00469897;0;0.0476916;7.18614;1.85126
247000;248;25.861;0.106016;0.00411633;-2.23384;25.762;-0.342193;-0.044809;0.100297;-0.371101;0.00452651;-0.428861;-0.180101;0.465165;-6.25827;-0.00130345;0.000111861;0.00456798;0.00457011;-0.00130558;0.00293785;0.285345;3.50452;0.00356259;0.00391713;3.50044;0.285679;66.145;111.145;0.00290416;-0.00130502;-0.00155977;0.00177372;0.00456678;0.00624024;0.0107572;0;0.0270561;-0.0398444;-0.522869;-0.581102;0.782725;-6.6337;4.20083e-05;-0.000205818;0.0059438;0.00595097;3.48393e-05;0.00295807;-0.00706758;-141.491;0.00395575;0.00394409;-170.812;-0.00585439;124.729;169.729;-0.00772434;1.88297e-05;0.00643919;-0.00681183;0.00592321;0.0140726;0.00840673;0;0.0503321;7.21173;1.85782
248000;249;25.858;0.103028;0.00400033;-2.23516;25.7587;-0.361357;-0.0461294;0.0969218;-0.390266;0.00303065;-0.430716;-0.180135;0.466876;-6.25831;-0.00132544;7.39634e-05;0.00473065;0.00473155;-0.00132635;0.00302895;0.280182;3.5691;0.0036771;0.0040386;3.56736;0.28032;66.4672;111.467;0.0030252;-0.00132709;-0.00167852;0.00181588;0.00472925;0.00706338;0.0106476;0;0.0190818;-0.041075;-0.526116;-0.581762;0.785451;-6.63436;-5.88543e-05;-0.000255516;0.00576734;0.00577852;-7.00389e-05;0.00292428;0.0102048;97.9935;0.00387591;0.00389904;82.5045;0.0121205;125.473;170.473;-0.00859535;-8.12141e-05;0.0062184;-0.00669191;0.00574815;0.015022;0.012786;0;0.0397219;7.24415;1.86542
249000;250;25.8565;0.101572;0.0039438;-2.23464;25.7572;-0.368132;-0.0456085;0.0954096;-0.39704;0.00230354;-0.436304;-0.178051;0.471241;-6.25622;-0.00141233;0.000224466;0.005144;0.00515168;-0.00142001;0.00328584;0.274559;3.64221;0.00399286;0.00438112;3.62792;0.27564;67.9712;112.971;0.00300854;-0.00141392;-0.00135812;0.00179673;0.00514311;0.00716756;0.0096823;0;0.0228563;-0.0419818;-0.531282;-0.582427;0.789458;-6.63502;-0.000123738;6.00413e-06;0.00560031;0.00560032;-0.000123745;0.00286203;0.0220949;45.2593;0.00377547;0.00381604;45.257;0.022096;123.354;168.354;-0.009958;-0.000144474;0.00648832;-0.00643941;0.00557938;0.0174545;0.018482;0;0.038797;7.28457;1.87311
250000;251;25.8546;0.0996315;0.00386844;-2.23286;25.7552;-0.376065;-0.0438211;0.0935017;-0.404973;0.00104372;-0.438776;-0.182683;0.475288;-6.26086;-0.00129779;0.000128631;0.00493216;0.00493481;-0.00130045;0.00311763;0.263128;3.80043;0.0037983;0.00415684;3.79471;0.263525;67.8817;112.882;0.00317297;-0.00129933;-0.00150946;0.00175656;0.00493103;0.00648511;0.0117239;0;0.0246782;-0.0433657;-0.534445;-0.587824;0.795643;-6.64042;2.69764e-05;6.79618e-05;0.00552213;0.00552297;2.6136e-05;0.00274842;-0.00488514;-204.702;0.0036733;0.00366456;-211.317;-0.00473224;122.249;167.249;-0.00932244;7.86416e-06;0.00635329;-0.00618302;0.00550206;0.0180089;0.021657;0;0.0391399;7.31894;1.88036
251000;252;25.8601;0.105177;0.00408377;-2.23182;25.7612;-0.35861;-0.0427898;0.0994072;-0.387518;0.00035039;-0.441974;-0.179893;0.477182;-6.25807;-0.00124583;5.93577e-05;0.00505838;0.00505894;-0.00124638;0.00315266;0.246289;4.06026;0.00385583;0.00420355;4.05889;0.246373;68.9867;113.987;0.0028246;-0.00124729;-0.00160426;0.00171254;0.0050571;0.00643762;0.0105287;0;0.0225243;-0.0441903;-0.53795;-0.585277;0.796174;-6.63787;3.86596e-05;0.00016008;0.00555327;0.00555791;3.40167e-05;0.00276195;-0.00696159;-143.645;0.00369399;0.0036826;-163.388;-0.0061204;121.476;166.476;-0.00953021;1.91484e-05;0.00660442;-0.00624892;0.00553159;0.0177375;0.0227892;0;0.0398837;7.34713;1.88798
252000;253;25.8559;0.100967;0.00392029;-2.23332;25.7566;-0.372894;-0.0442886;0.0948479;-0.401802;-0.0010962;-0.444789;-0.181782;0.480504;-6.25996;-0.00122824;0.000160515;0.00486657;0.0048708;-0.00123246;0.00305163;0.252383;3.96223;0.00372658;0.00406884;3.95208;0.253031;67.9944;112.994;0.002865;-0.00122974;-0.00142943;0.00174082;0.00486557;0.00554699;0.0104043;0;0.0262029;-0.0455501;-0.540801;-0.588867;0.800815;-6.64146;-3.55836e-05;2.12495e-05;0.00578237;0.00578244;-3.56612e-05;0.00290905;0.00615381;162.501;0.0038669;0.00387874;162.15;0.00616715;121.351;166.351;-0.0095194;-5.17123e-05;0.00575516;-0.00567949;0.0057659;0.020045;0.0255038;0;0.0383546;7.3859;1.89525
253000;254;25.8551;0.100177;0.00388961;-2.23465;25.7557;-0.371946;-0.045614;0.0939534;-0.400854;-0.00199885;-0.4483;-0.181025;0.483473;-6.2592;-0.00135905;0.000201258;0.00444119;0.00444817;-0.00136603;0.0029071;0.30601;3.26786;0.00351053;0.00387613;3.25628;0.307099;63.9594;108.959;0.00311343;-0.00136088;-0.00152628;0.00191882;0.00444005;0.00554252;0.0102898;0;0.0261128;-0.0464907;-0.544291;-0.588643;0.803066;-6.64124;-0.000138274;4.67738e-05;0.00582392;0.00582429;-0.000138641;0.00298147;0.0237424;42.1187;0.00392989;0.00397529;42.0098;0.0238039;120.89;165.89;-0.00954489;-0.000153319;0.00561174;-0.0054852;0.00580827;0.0225501;0.0235877;0;0.0365707;7.40941;1.90218
254000;255;25.8548;0.0998795;0.00387807;-2.23511;25.7553;-0.374992;-0.0460761;0.0935707;-0.4039;-0.00240065;-0.45134;-0.182939;0.487012;-6.26111;-0.00125341;0.00028565;0.00440279;0.00441718;-0.0012678;0.00284249;0.284686;3.51265;0.00344602;0.00378999;3.48413;0.287016;63.6767;108.677;0.003128;-0.00125531;-0.00140479;0.00196657;0.00440185;0.00371037;0.0096157;0;0.0223437;-0.0469741;-0.547563;-0.591194;0.807182;-6.64379;-0.000167901;9.7896e-05;0.00567815;0.00567979;-0.00016954;0.00292467;0.0295696;33.8185;0.00384429;0.00389955;33.5012;0.0298496;120.19;165.19;-0.00817197;-0.000181289;0.00540171;-0.00517509;0.00566365;0.0213224;0.0254314;0;0.0339424;7.45734;1.90888
255000;256;25.8562;0.101212;0.00392982;-2.23648;25.7566;-0.371366;-0.0474468;0.0948423;-0.400274;-0.00233523;-0.45533;-0.181077;0.49002;-6.25925;-0.00132132;0.000344211;0.00402919;0.00405124;-0.00134338;0.00269731;0.327938;3.04936;0.00324274;0.00359641;3.01572;0.331596;60.4901;105.49;0.00319109;-0.00132338;-0.00137821;0.00205745;0.0040283;0.00348888;0.00940095;0;0.0215992;-0.0467192;-0.551553;-0.591188;0.809874;-6.64378;-0.000107104;0.000192591;0.00583268;0.00583892;-0.000113342;0.00297613;0.0183628;54.458;0.00393094;0.00396818;51.5158;0.0194115;119.187;164.187;-0.00785504;-0.000120806;0.00565549;-0.00523805;0.0058168;0.0182435;0.0248939;0;0.0325314;7.47119;1.91061
256000;257;25.8584;0.103395;0.00401457;-2.23644;25.7588;-0.36766;-0.0474023;0.0970904;-0.396568;-0.000962226;-0.457331;-0.182654;0.492458;-6.26083;-0.00133538;0.000181923;0.00385391;0.00386028;-0.00134175;0.00260101;0.346501;2.886;0.00311851;0.00346802;2.87704;0.347579;61.7547;106.755;0.00315859;-0.00133702;-0.00146607;0.00182139;0.00385285;0.00438785;0.0104374;0;0.0188759;-0.0453918;-0.55416;-0.592519;0.812547;-6.64511;5.70104e-05;0.000108306;0.00604412;0.00604608;5.50518e-05;0.00299552;-0.00943237;-106.018;0.0040125;0.00399402;-109.825;-0.00910537;119.512;164.512;-0.00867518;4.2192e-05;0.00569504;-0.00544518;0.00602801;0.0144426;0.022686;0;0.0358142;7.50825;1.91622
257000;258;25.8583;0.103343;0.00401254;-2.23743;25.7587;-0.367966;-0.048396;0.0969472;-0.396875;-0.00294762;-0.460857;-0.181529;0.495329;-6.2597;-0.00146043;0.000167042;0.0037039;0.0037093;-0.00146582;0.00258756;0.394295;2.53617;0.00308002;0.00345008;2.53052;0.395176;59.7392;104.739;0.00306473;-0.00146219;-0.00155709;0.00188231;0.0037027;0.00405971;0.0108062;0;0.0186562;-0.0476922;-0.558757;-0.591636;0.815179;-6.64423;-8.31386e-05;-0.000226172;0.00612612;0.00613435;-9.1366e-05;0.00311286;0.0135712;73.6856;0.00412036;0.00415047;67.1403;0.0148942;123.545;168.545;-0.00749218;-0.000102152;0.00575509;-0.00617051;0.00610968;0.0173845;0.016548;0;0.0335148;7.53384;1.9226
258000;259;25.8603;0.105335;0.00408988;-2.23727;25.7607;-0.369066;-0.0482336;0.0989453;-0.397975;-0.00290366;-0.463914;-0.181394;0.498125;-6.25957;-0.00145198;0.000226532;0.00321776;0.00322872;-0.00146295;0.00234584;0.451241;2.21611;0.00277195;0.00312778;2.207;0.453104;55.9986;100.999;0.00316474;-0.0014538;-0.0014749;0.00192004;0.0032167;0.00357737;0.00959713;0;0.0215813;-0.0477839;-0.563565;-0.591256;0.818213;-6.64385;-0.000182969;-0.000308155;0.00652993;0.00654405;-0.000197085;0.00337057;0.02802;35.6888;0.00442986;0.00449409;33.2042;0.0301167;123.688;168.688;-0.00769148;-0.00020304;0.00576691;-0.00634269;0.00651346;0.0166171;0.0180907;0;0.0322407;7.57088;1.93065
259000;260;25.8665;0.111574;0.00433214;-2.23663;25.7672;-0.354384;-0.0475967;0.10547;-0.383292;-0.00233518;-0.463633;-0.191651;0.501688;-6.26982;-0.00141863;0.000140494;0.00304834;0.00305276;-0.00142305;0.0022379;0.465378;2.14879;0.00264059;0.00298387;2.14523;0.466151;55.6353;100.635;0.00273377;-0.00142043;-0.00162608;0.0018992;0.00304704;0.00571309;0.0108676;0;0.0181875;-0.0471075;-0.564896;-0.602811;0.827471;-6.6554;-5.14953e-05;-0.000378627;0.00662494;0.00664635;-7.28989e-05;0.00335962;0.00777295;128.651;0.0044554;0.0044795;91.172;0.0109683;123.933;168.933;-0.00658592;-7.21565e-05;0.00572241;-0.00643919;0.00660875;0.01346;0.0127067;0;0.0419702;7.59585;1.9367
260000;261;25.8676;0.112633;0.00437327;-2.23804;25.7681;-0.357038;-0.0490083;0.106374;-0.385947;-0.00390402;-0.466706;-0.187974;0.503154;-6.26615;-0.00158425;0.000216794;0.00328079;0.00329043;-0.0015939;0.00244216;0.482888;2.07087;0.00287611;0.00325622;2.0644;0.484403;55.7924;100.792;0.00313129;-0.00158605;-0.00147983;0.00190519;0.00327972;0.00447345;0.0104489;0;0.0184149;-0.0489485;-0.569964;-0.600206;0.829157;-6.6528;-0.000377485;-0.000508816;0.00638804;0.0064261;-0.000415537;0.00342082;0.0590924;16.9227;0.00442908;0.00456109;15.4645;0.064664;126.116;171.116;-0.00788045;-0.000399269;0.0056427;-0.00661896;0.00637235;0.0162284;0.011491;0;0.0392653;7.63335;1.94435
261000;262;25.8691;0.114103;0.00443031;-2.23793;25.7696;-0.360518;-0.0488958;0.107811;-0.389426;-0.00460928;-0.470185;-0.185595;0.50551;-6.26377;-0.00150969;5.00775e-05;0.00360615;0.00360664;-0.00151018;0.00255841;0.418643;2.38867;0.00303573;0.00341121;2.38822;0.418722;60.8422;105.842;0.00316067;-0.00151109;-0.00158401;0.00167584;0.0036049;0.00490695;0.0104605;0;0.0190249;-0.0496939;-0.574892;-0.595424;0.829157;-6.64802;-0.000504848;-0.000413542;0.00705256;0.00707512;-0.00052741;0.00380127;0.0715836;13.9697;0.00490202;0.00506836;13.4149;0.0745442;124.658;169.658;-0.0102551;-0.000528557;0.00611861;-0.00689666;0.00703406;0.0124984;0.0133867;0;0.0491846;7.65977;1.9516
262000;263;25.8732;0.118194;0.00458917;-2.2368;25.7738;-0.355667;-0.0477636;0.112083;-0.384576;-0.00334942;-0.471305;-0.191217;0.508629;-6.26939;-0.00149884;0.000155664;0.00367856;0.00368323;-0.00150351;0.00259337;0.407452;2.45427;0.00308145;0.00345783;2.44975;0.408205;59.8726;104.873;0.00330196;-0.00150049;-0.00151894;0.00182163;0.00367742;0.00497832;0.0110728;0;0.0181312;-0.0490331;-0.57836;-0.600784;0.835372;-6.65602;-0.000415205;-0.000423675;0.00670357;0.0067287;-0.000440331;0.00358452;0.0619378;16.1452;0.00463955;0.00477935;15.281;0.0654408;125.769;170.769;-0.0102243;-0.000440584;0.00633605;-0.00713558;0.00668372;0.0153773;0.0144932;0;0.0475929;7.68856;1.95968
263000;264;25.871;0.116027;0.00450504;-2.23655;25.7715;-0.369945;-0.0475147;0.109729;-0.398853;-0.00538278;-0.473579;-0.192389;0.511195;-6.27056;-0.00143661;0.000325021;0.00400797;0.0040273;-0.00145595;0.00274162;0.358439;2.78988;0.00327973;0.0036555;2.76611;0.361519;59.842;104.842;0.00313724;-0.00143869;-0.00142197;0.00206254;0.00400701;0.00563268;0.00905181;0;0.0190033;-0.0505251;-0.581152;-0.604535;0.840092;-6.65713;-0.000507361;-0.000294272;0.00726018;0.00727132;-0.000518493;0.0038949;0.0698827;14.3097;0.00502929;0.00519321;14.0239;0.0713067;123.702;168.702;-0.0111748;-0.000531705;0.00644554;-0.00698209;0.0072396;0.0186357;0.0159091;0;0.0448897;7.71442;1.9657
264000;265;25.873;0.117994;0.00458143;-2.23654;25.7734;-0.373796;-0.047505;0.111649;-0.402704;-0.0060438;-0.476086;-0.194191;0.514202;-6.27236;-0.00140209;0.000314529;0.00448284;0.00449961;-0.00141885;0.00295923;0.312767;3.19727;0.003568;0.00394564;3.17131;0.315328;62.6874;107.687;0.00362943;-0.00140415;-0.00143755;0.00205634;0.00448187;0.00554173;0.0104948;0;0.0201568;-0.0515923;-0.585243;-0.607284;0.844965;-6.65988;-0.000793036;-0.000146655;0.0068463;0.00684911;-0.00079585;0.00382248;0.115834;8.63302;0.00485316;0.00509664;8.60603;0.116198;123.393;168.393;-0.0121389;-0.000814527;0.0063107;-0.00655501;0.00682653;0.0224453;0.0244424;0;0.0422828;7.74947;1.97325
265000;266;25.8734;0.118482;0.00460034;-2.23581;25.7739;-0.377435;-0.0467799;0.112148;-0.406343;-0.00649069;-0.47897;-0.192668;0.516309;-6.27084;-0.00144627;0.000266176;0.00471176;0.00472324;-0.00145776;0.0030905;0.30695;3.25786;0.00373092;0.00412067;3.24007;0.308635;64.2153;109.215;0.00332516;-0.00144823;-0.00147186;0.00199356;0.00471071;0.00471052;0.00771983;0;0.0193095;-0.0517462;-0.588157;-0.609469;0.848563;-6.66206;-0.000552595;-8.92974e-05;0.00659184;0.00659295;-0.000553711;0.00357333;0.0838302;11.9289;0.00459102;0.00476444;11.9068;0.0839853;122.577;167.577;-0.0116683;-0.00057207;0.00610519;-0.00623981;0.00657333;0.0217603;0.0221284;0;0.0404073;7.78114;1.97907
266000;267;25.8737;0.118789;0.0046123;-2.23559;25.7742;-0.382093;-0.0465563;0.112408;-0.411001;-0.0069458;-0.481627;-0.192272;0.518634;-6.27045;-0.00140052;0.000414769;0.00485485;0.00488224;-0.0014279;0.00315507;0.288478;3.46647;0.00382079;0.00420676;3.41917;0.292468;64.0307;109.031;0.00361633;-0.00140265;-0.00128531;0.00210426;0.00485412;0.00484725;0.0100462;0;0.0207022;-0.0521979;-0.592501;-0.608849;0.851163;-6.66144;-0.000285353;-0.000207977;0.0065966;0.00660288;-0.000291632;0.00344726;0.0432576;23.1173;0.00450228;0.00459634;22.6411;0.0441674;122.193;167.193;-0.0105172;-0.000302809;0.00553474;-0.00591143;0.00658141;0.0228065;0.0271581;0;0.0408876;7.80401;1.98466
267000;268;25.8744;0.119416;0.00463662;-2.23527;25.7748;-0.380548;-0.0462375;0.113087;-0.409456;-0.00710672;-0.483681;-0.192942;0.520792;-6.27112;-0.00143124;0.000276204;0.00548187;0.00549289;-0.00144225;0.00346757;0.261085;3.83016;0.00422553;0.00462343;3.80854;0.262568;68.88;113.88;0.0030131;-0.00143289;-0.00129704;0.00183863;0.00548107;0.0053391;0.00918459;0;0.0208537;-0.0523029;-0.594929;-0.610992;0.854393;-6.66359;-0.000357385;-0.000202052;0.00694706;0.00695265;-0.000362969;0.00365781;0.051444;19.4386;0.0047607;0.00487708;19.1549;0.0522059;121.873;166.873;-0.0103913;-0.000375812;0.00571183;-0.00607302;0.00693088;0.0212001;0.0232702;0;0.0427158;7.83085;1.98875
268000;269;25.8751;0.120186;0.00466651;-2.23558;25.7755;-0.382548;-0.0465472;0.113804;-0.411456;-0.00769034;-0.48662;-0.193486;0.523732;-6.27166;-0.00142592;0.000137188;0.00542858;0.00543133;-0.00142866;0.00343;0.262669;3.80708;0.00417931;0.00457333;3.80169;0.263041;69.5464;114.546;0.0024833;-0.00142742;-0.00147102;0.00173443;0.00542752;0.00677917;0.00804284;0;0.0209289;-0.0530903;-0.599428;-0.612759;0.85884;-6.668;-0.000387919;-6.17799e-05;0.0062681;0.00626867;-0.000388493;0.00332858;0.0618879;16.1583;0.00431445;0.00443811;16.1359;0.0619737;120.873;165.873;-0.0078824;-0.000402073;0.00523119;-0.00531974;0.0062545;0.0213209;0.0255853;0;0.0388775;7.8596;1.99577
269000;270;25.8751;0.12013;0.00466435;-2.23579;25.7755;-0.38211;-0.0467577;0.113736;-0.411018;-0.00834525;-0.489362;-0.19372;0.526376;-6.27189;-0.00138525;1.84368e-05;0.00560718;0.00560723;-0.0013853;0.00349627;0.24705;4.04776;0.0042754;0.00466169;4.04766;0.247056;71.8667;116.867;0.00276799;-0.00138645;-0.00152271;0.00154887;0.00560603;0.00736883;0.00781164;0;0.0209411;-0.0536045;-0.603018;-0.613271;0.861746;-6.66586;-0.000427153;-7.11507e-05;0.00699358;0.00699426;-0.000427836;0.00371105;0.0610779;16.3725;0.0048118;0.00494807;16.348;0.0611695;119.102;164.102;-0.00810901;-0.000440497;0.00506087;-0.00516535;0.00698087;0.0215573;0.023185;0;0.0381892;7.89211;2.00313
270000;271;25.8771;0.122181;0.004744;-2.23605;25.7776;-0.379431;-0.0470182;0.115812;-0.408339;-0.00906419;-0.490511;-0.195722;0.528195;-6.2739;-0.00124709;0.000297822;0.00540936;0.00542265;-0.00126039;0.00334152;0.230543;4.33759;0.00410032;0.00445536;4.30237;0.23243;68.6233;113.623;0.00272169;-0.00124886;-0.00131687;0.00190182;0.00540854;0.00675481;0.00885356;0;0.0219969;-0.0541874;-0.605132;-0.616516;0.865571;-6.66911;-0.000537182;-7.84728e-05;0.00742053;0.00742131;-0.000537955;0.00397963;0.0723913;13.8138;0.00513625;0.00530617;13.7954;0.072488;119.001;164.001;-0.0087798;-0.000551611;0.00525633;-0.00537114;0.00740682;0.0209395;0.0202502;0;0.0357756;7.91335;2.01069
271000;272;25.8791;0.124182;0.00482166;-2.23649;25.7796;-0.374583;-0.0474552;0.117853;-0.403491;-0.00897948;-0.494377;-0.194874;0.531475;-6.27305;-0.00133958;0.00011687;0.00577207;0.00577399;-0.0013415;0.00355775;0.23208;4.30885;0.00436575;0.00474366;4.30412;0.232336;71.7779;116.778;0.00271037;-0.00134093;-0.00141945;0.00164233;0.00577108;0.00765934;0.0104622;0;0.0215589;-0.0544158;-0.611016;-0.615627;0.869079;-6.66822;-0.000639925;-0.000325021;0.00774068;0.00775327;-0.000652511;0.00420289;0.0826704;12.0962;0.00539951;0.00560385;11.8822;0.0841595;120.317;165.317;-0.00783131;-0.00065582;0.00504044;-0.00564585;0.00772813;0.0178686;0.0217479;0;0.0332414;7.94985;2.0182
272000;273;25.8793;0.124388;0.00482968;-2.23556;25.7798;-0.378769;-0.0465274;0.11808;-0.407677;-0.00916593;-0.495815;-0.196502;0.533413;-6.27468;-0.00130192;0.000200088;0.00562661;0.00563239;-0.00130769;0.00347004;0.231385;4.32179;0.00425829;0.00462672;4.30713;0.232173;69.9574;114.957;0.0025071;-0.00130355;-0.00142644;0.00181541;0.00562562;0.00789315;0.0100809;0;0.0218298;-0.0544145;-0.614392;-0.617995;0.87313;-6.67059;-0.000469652;-0.00046334;0.00832678;0.00835111;-0.000493991;0.00442255;0.0564026;17.7297;0.00573916;0.00589674;16.9054;0.0591527;121.092;166.092;-0.00867493;-0.000489705;0.0054735;-0.00634837;0.00831203;0.0215972;0.0187904;0;0.0361011;7.9662;2.025
273000;274;25.8814;0.126459;0.00491007;-2.23687;25.7818;-0.377664;-0.0478327;0.120061;-0.406572;-0.00953359;-0.497935;-0.196813;0.535505;-6.27499;-0.00130785;0.000289653;0.0060276;0.00603902;-0.00131927;0.00367914;0.216977;4.60879;0.00453026;0.00490552;4.57755;0.218457;70.5634;115.563;0.00255981;-0.00130962;-0.00133425;0.00190171;0.00602676;0.0067532;0.00860112;0;0.0209888;-0.0549973;-0.619253;-0.618469;0.876928;-6.67106;-0.000521269;-0.000471941;0.00872275;0.00874679;-0.000545301;0.00464604;0.0597597;16.7337;0.00602119;0.00619473;16.0403;0.062343;120.891;165.891;-0.00894169;-0.000542718;0.00567739;-0.0065649;0.00870689;0.018519;0.0138171;0;0.0375965;7.99952;2.0325
274000;275;25.886;0.131066;0.00508897;-2.23682;25.7865;-0.371742;-0.0477841;0.124777;-0.40065;-0.00938065;-0.500387;-0.196137;0.537536;-6.27431;-0.00132843;0.000277536;0.00599565;0.00600615;-0.00133893;0.00367254;0.221566;4.51334;0.00451705;0.00489672;4.48578;0.222927;70.9749;115.975;0.0032291;-0.00133007;-0.00128989;0.00183355;0.00599486;0.0059088;0.00923944;0;0.0239024;-0.0549616;-0.623825;-0.618361;0.880085;-6.67095;-0.000543336;-0.000524013;0.00869748;0.0087271;-0.000572956;0.00465003;0.0624705;16.0076;0.00601815;0.00620004;15.2317;0.0656525;121.782;166.782;-0.00928482;-0.000566688;0.00586273;-0.00685222;0.00868058;0.0133873;0.00826943;0;0.0380796;8.01572;2.03936
275000;276;25.8867;0.13178;0.00511667;-2.23658;25.7872;-0.378506;-0.0475475;0.125415;-0.407414;-0.00896761;-0.501485;-0.19966;0.539845;-6.27783;-0.00139978;0.000195619;0.0054676;0.00547317;-0.00140534;0.00343926;0.256013;3.90605;0.00419641;0.00458567;3.89454;0.25677;68.5189;113.519;0.00340594;-0.00140153;-0.00150349;0.00188312;0.00546649;0.004888;0.01078;0;0.0214158;-0.0542758;-0.628042;-0.621766;0.885424;-6.67436;-0.000674162;-0.000528105;0.00884147;0.00887069;-0.000703382;0.00478704;0.07625;13.1148;0.00616165;0.00638271;12.6115;0.0792928;121.796;166.796;-0.00979202;-0.000697888;0.00591095;-0.0069064;0.00882429;0.0135208;0.0134041;0;0.0340823;8.04582;2.04631
276000;277;25.8916;0.136619;0.00530457;-2.23696;25.7921;-0.371982;-0.0479252;0.130335;-0.40089;-0.00942735;-0.502355;-0.201928;0.541502;-6.2801;-0.001487;0.000235325;0.00555779;0.00556564;-0.00149485;0.00353025;0.267552;3.73759;0.00429629;0.00470699;3.72321;0.268586;68.2712;113.271;0.00325806;-0.00148882;-0.00146118;0.00191995;0.00555675;0.00513936;0.00928154;0;0.0280459;-0.0549385;-0.631613;-0.624986;0.890259;-6.67758;-0.00105949;-0.000418409;0.00917943;0.0091965;-0.00107656;0.00513653;0.11542;8.66399;0.00651955;0.0068487;8.54247;0.117062;120.418;165.418;-0.0108618;-0.00108053;0.00572161;-0.00649611;0.00916329;0.0172124;0.0211735;0;0.0441953;8.06669;2.05296
277000;278;25.8915;0.136523;0.00530084;-2.23579;25.7919;-0.387048;-0.0467578;0.130118;-0.415956;-0.0095341;-0.504357;-0.201752;0.543296;-6.27993;-0.00152266;0.000357202;0.00535292;0.00537142;-0.00154117;0.0034563;0.284455;3.51549;0.00419024;0.0046084;3.48528;0.286921;66.8435;111.844;0.00366328;-0.00152457;-0.00128145;0.00198465;0.00535216;0.00452427;0.00983658;0;0.0245463;-0.0550319;-0.63644;-0.625533;0.894079;-6.67813;-0.000891125;-0.000174137;0.00943835;0.00944128;-0.000894059;0.00516767;0.0944153;10.5915;0.00661239;0.00689023;10.56;0.0946968;118.812;163.812;-0.0122168;-0.000911998;0.00617731;-0.00646059;0.00941946;0.019609;0.0237685;0;0.0449754;8.08601;2.05502
278000;279;25.8953;0.140298;0.00544741;-2.23564;25.7956;-0.38916;-0.0466012;0.13389;-0.418068;-0.00965842;-0.506801;-0.202913;0.545998;-6.28109;-0.00144005;0.00038114;0.005393;0.00541419;-0.00146124;0.00343772;0.267022;3.74501;0.00418251;0.00458362;3.7052;0.269891;66.8424;111.842;0.0030426;-0.00144205;-0.00128445;0.0020354;0.00539225;0.00429462;0.010413;0;0.0223342;-0.0548871;-0.642151;-0.628963;0.900536;-6.68156;-0.000939879;-0.00018905;0.0095233;0.00952671;-0.000943294;0.005235;0.0986926;10.1325;0.00668778;0.00698;10.0994;0.0990157;119.034;164.034;-0.011553;-0.000961502;0.0062646;-0.0065758;0.00950388;0.0174861;0.0207307;0;0.0426507;8.1189;2.06616
279000;280;25.8975;0.142545;0.00553465;-2.23593;25.7978;-0.394274;-0.0468995;0.136042;-0.423182;-0.00968588;-0.508043;-0.20248;0.546991;-6.28065;-0.00145675;0.000238568;0.00495361;0.00496248;-0.00146561;0.00321404;0.294078;3.40046;0.00389;0.00428539;3.38594;0.295339;65.4135;110.413;0.00360927;-0.00145868;-0.00151492;0.00198087;0.0049525;0.00422656;0.00907846;0;0.0226153;-0.0548847;-0.646305;-0.631304;0.905134;-6.68654;-0.000898561;-0.000142232;0.00923973;0.00924173;-0.000900556;0.00507114;0.0972497;10.2828;0.00648222;0.00676152;10.2622;0.0974446;118.029;163.029;-0.00936787;-0.000916551;0.00577223;-0.00599727;0.00922323;0.0183237;0.024025;0;0.041137;8.12805;2.06866
280000;281;25.9004;0.145446;0.00564729;-2.23616;25.8007;-0.392653;-0.0471262;0.138959;-0.421562;-0.0101495;-0.508912;-0.20308;0.548029;-6.28125;-0.00137413;0.000348265;0.00503428;0.00505315;-0.001393;0.00322308;0.272955;3.66361;0.00391656;0.00429743;3.62753;0.27567;65.0301;110.03;0.00335502;-0.00137627;-0.00141313;0.00209842;0.00503335;0.00501114;0.00937515;0;0.0218988;-0.0552355;-0.64983;-0.632341;0.908397;-6.68758;-0.000785115;-0.000138829;0.00877593;0.00877794;-0.000787131;0.00478254;0.0894624;11.1779;0.0061312;0.00637671;11.1518;0.0896714;117.192;162.192;-0.00881888;-0.000799706;0.0051743;-0.0054016;0.00876267;0.0179552;0.0275619;0;0.0401056;8.14974;2.07563
281000;282;25.9018;0.146796;0.0056997;-2.23612;25.802;-0.397597;-0.0470868;0.140242;-0.426506;-0.00995024;-0.511646;-0.203186;0.550604;-6.28136;-0.00143779;0.000279277;0.00471744;0.00473008;-0.00145044;0.00309026;0.304782;3.28103;0.00373203;0.00412035;3.26114;0.306641;64.4884;109.488;0.00272948;-0.00143969;-0.00141868;0.00196683;0.00471648;0.00413889;0.00933271;0;0.0226548;-0.0550171;-0.655257;-0.633958;0.913396;-6.68655;-0.00104197;7.95329e-05;0.00951149;0.00951209;-0.00104257;0.00527733;0.109549;9.12833;0.00671595;0.00703644;9.12366;0.109605;114.622;159.622;-0.00718345;-0.00105447;0.00520935;-0.00499666;0.00949805;0.0162548;0.0237116;0;0.040042;8.17434;2.08241
282000;283;25.9057;0.15072;0.00585209;-2.23666;25.806;-0.391042;-0.0476248;0.144235;-0.419951;-0.0099083;-0.512704;-0.203745;0.551793;-6.28192;-0.00149341;0.000256036;0.00488166;0.00489193;-0.00150368;0.0031978;0.305923;3.2688;0.00386137;0.00426374;3.25331;0.30738;64.9127;109.913;0.00305498;-0.00149535;-0.00148285;0.00198389;0.0048806;0.00469331;0.00939766;0;0.0196013;-0.0549626;-0.659484;-0.636402;0.918122;-6.689;-0.000965043;-9.56439e-05;0.0100751;0.0100759;-0.000965871;0.00552089;0.0957852;10.44;0.00706128;0.00736118;10.4319;0.0958595;114.51;159.51;-0.00681741;-0.000978409;0.00503352;-0.00516874;0.0100625;0.0167689;0.0245193;0;0.0414929;8.1858;2.08955
283000;284;25.9091;0.154191;0.00598685;-2.2371;25.8095;-0.387943;-0.0480659;0.147728;-0.416851;-0.0105613;-0.515484;-0.200295;0.55313;-6.27847;-0.00139151;0.000380828;0.00470549;0.00472919;-0.00141521;0.0030722;0.295721;3.38156;0.00371548;0.00409627;3.34169;0.29925;63.5863;108.586;0.00339177;-0.0013936;-0.00132703;0.00207832;0.00470469;0.00431601;0.0108905;0;0.0200966;-0.055327;-0.666087;-0.631789;0.919723;-6.68438;-0.00094484;-0.000224832;0.0109866;0.0109909;-0.000949075;0.00596997;0.0859991;11.628;0.00766321;0.00795996;11.5806;0.0863513;115.314;160.314;-0.00800741;-0.000962276;0.00552502;-0.00590682;0.0109716;0.0178355;0.0188524;0;0.0411408;8.20706;2.09676
284000;285;25.9132;0.158212;0.00614298;-2.23771;25.8135;-0.385757;-0.0486715;0.151745;-0.414665;-0.00999184;-0.516039;-0.199744;0.553438;-6.27792;-0.0014619;0.000544975;0.00491567;0.00496191;-0.00150814;0.00323502;0.297397;3.36251;0.00390886;0.00431336;3.29009;0.303943;62.693;107.693;0.00317128;-0.00146433;-0.00118679;0.00226575;0.00491512;0.00369138;0.00914079;0;0.0193432;-0.0549968;-0.670465;-0.633879;0.924311;-6.68647;-0.00105734;-0.000101394;0.0125227;0.0125235;-0.00105809;0.00679079;0.0844334;11.8437;0.0087231;0.00905438;11.8359;0.0844887;113.872;158.872;-0.00925433;-0.00107681;0.00611932;-0.00623867;0.0125042;0.0107881;0.0164694;0;0.0473344;8.22904;2.10467
285000;286;25.9202;0.16523;0.00641545;-2.23587;25.8208;-0.377639;-0.0468335;0.159069;-0.406548;-0.0102197;-0.517318;-0.198828;0.554305;-6.277;-0.00151144;0.000199487;0.00492443;0.0049306;-0.00151762;0.00322411;0.306928;3.2581;0.00389283;0.00429882;3.2489;0.307796;65.2658;110.266;0.0029763;-0.00151335;-0.00157306;0.00196068;0.00492321;0.00434853;0.00851008;0;0.0192983;-0.0554082;-0.675728;-0.635299;0.92913;-6.68789;-0.00123615;-0.000194797;0.0133512;0.0133538;-0.00123875;0.0072963;0.0925868;10.8007;0.00934289;0.0097284;10.7801;0.0927636;113.928;158.928;-0.00838392;-0.00125763;0.00625602;-0.00655274;0.0133319;0.00636163;0.0126453;0;0.0508344;8.23708;2.1121
286000;287;25.9288;0.173879;0.00675127;-2.23714;25.8292;-0.387859;-0.0481047;0.167487;-0.414207;-0.0107578;-0.516757;-0.202833;0.555243;-6.28101;-0.00154508;0.000353111;0.00483445;0.00485393;-0.00156457;0.00320925;0.319599;3.12892;0.00386453;0.004279;3.10241;0.32233;63.5255;108.526;0.00320711;-0.00154721;-0.00139807;0.00209317;0.00483354;0.0040367;0.0109193;0;0.0198435;-0.0558565;-0.682068;-0.639821;0.93686;-6.68987;-0.0018168;-0.000194166;0.0136771;0.0136795;-0.00181923;0.00774936;0.132835;7.52812;0.00978262;0.0103325;7.51939;0.13299;112.76;157.76;-0.012651;-0.00183447;0.00564426;-0.00594335;0.0136614;0.0132045;0.0128723;0;0.0525529;8.24562;2.11953
287000;288;25.9334;0.178416;0.00692746;-2.23741;25.8338;-0.384572;-0.0483734;0.172068;-0.41092;-0.00996891;-0.516933;-0.201057;0.554746;-6.27923;-0.00162403;0.000275142;0.0048313;0.004843;-0.00163574;0.00323937;0.336148;2.97488;0.00389028;0.00431916;2.96075;0.337753;64.1053;109.105;0.00327879;-0.00162597;-0.00144942;0.00198862;0.00483029;0.00430715;0.0102427;0;0.0206574;-0.0551012;-0.686858;-0.637579;0.938784;-6.68762;-0.00158439;-0.000279226;0.0134833;0.0134885;-0.00158957;0.00753902;0.117508;8.51006;0.00956629;0.010052;8.48562;0.117846;112.885;157.885;-0.00882839;-0.00160215;0.00548805;-0.00596075;0.0134685;0.00765871;0.0209968;0;0.0546006;8.24954;2.12061
288000;289;25.9347;0.179748;0.00697915;-2.23889;25.8348;-0.399607;-0.0498597;0.173047;-0.425955;-0.0104832;-0.518715;-0.201684;0.556643;-6.27986;-0.00155885;0.000233904;0.00467821;0.00468697;-0.00156761;0.00312729;0.333216;3.00106;0.0037578;0.00416972;2.98988;0.334462;63.5462;108.546;0.00328429;-0.00156083;-0.0015464;0.00200316;0.00467704;0.00442915;0.0112001;0;0.0196491;-0.0557991;-0.693868;-0.640084;0.94566;-6.68941;-0.00183103;-0.000202902;0.014592;0.0145945;-0.00183354;0.00821401;0.125482;7.96927;0.0103949;0.010952;7.95974;0.125632;111.657;156.657;-0.0102107;-0.00184863;0.00562005;-0.00593159;0.0145764;0.0178824;0.0195974;0;0.0612343;8.29249;2.13469
289000;290;25.9343;0.179342;0.00696341;-2.23654;25.8346;-0.399632;-0.0475078;0.172844;-0.425979;-0.0108115;-0.519487;-0.20011;0.556801;-6.27828;-0.00151746;0.000278597;0.00476666;0.00477899;-0.00152978;0.00315439;0.318348;3.14122;0.00379999;0.00420585;3.12397;0.320106;63.9878;108.988;0.00319909;-0.00151945;-0.00147091;0.00201716;0.00476562;0.00463065;0.00934277;0;0.0198035;-0.0558774;-0.699895;-0.64109;0.950774;-6.68898;-0.00188774;-1.9656e-05;0.014813;0.014813;-0.00188776;0.00835039;0.127438;7.84697;0.010561;0.0111339;7.84688;0.127439;111.539;156.539;-0.00703909;-0.00190601;0.00610126;-0.00603984;0.0147947;0.0154177;0.0284121;0;0.0563944;8.27956;2.13788
290000;291;25.9397;0.184734;0.00717275;-2.23589;25.84;-0.402111;-0.0468563;0.178274;-0.428459;-0.0109036;-0.520304;-0.198897;0.557131;-6.27707;-0.0016007;0.000326667;0.00440418;0.0044219;-0.00161842;0.00302016;0.36345;2.75141;0.00361041;0.00402687;2.73224;0.366001;60.7785;105.779;0.00360266;-0.00160293;-0.00149273;0.00213519;0.00440312;0.00384399;0.0105099;0;0.0179027;-0.0559131;-0.705381;-0.641711;0.955239;-6.6897;-0.00243464;0.000299528;0.0157754;0.0157803;-0.00243957;0.00910992;0.154332;6.47954;0.0114206;0.0121466;6.46847;0.154596;107.115;152.115;-0.00446547;-0.00244504;0.00525171;-0.00456389;0.0157618;0.0117784;0.0251874;0;0.0560021;8.29525;2.14223
291000;292;25.9428;0.187845;0.00729355;-2.23584;25.843;-0.412129;-0.0468085;0.181243;-0.438476;-0.0106562;-0.521357;-0.200662;0.558742;-6.27884;-0.00169964;0.000225671;0.0046902;0.00469816;-0.0017076;0.00320288;0.362382;2.75952;0.00383036;0.00427051;2.75131;0.363463;62.7335;107.733;0.00303367;-0.0017017;-0.00159829;0.00203803;0.00468895;0.00553712;0.010034;0;0.0212725;-0.0562359;-0.712296;-0.645749;0.963079;-6.69364;-0.00227102;1.64248e-05;0.0165122;0.0165122;-0.00227103;0.00939162;0.137536;7.27083;0.011838;0.0125222;7.27079;0.137537;108.499;153.499;-0.00726343;-0.00228546;0.00550157;-0.00536737;0.0164973;0.0138605;0.0212729;0;0.0557208;8.32285;2.14938
292000;293;25.9487;0.193781;0.00752404;-2.23565;25.849;-0.412792;-0.0466189;0.187208;-0.43914;-0.00977824;-0.520394;-0.202605;0.558528;-6.28078;-0.0016324;0.000330451;0.00494299;0.00495955;-0.00164896;0.00330426;0.330245;3.02805;0.00397181;0.00440568;3.00768;0.332482;63.539;108.539;0.00323727;-0.00163458;-0.00146657;0.00211571;0.00494197;0.00400522;0.0108198;0;0.0184784;-0.0555634;-0.717567;-0.648196;0.96858;-6.69609;-0.00229683;0.000213514;0.0174764;0.0174787;-0.00229913;0.0098889;0.131425;7.60891;0.0124896;0.0131852;7.60228;0.131539;107.843;152.843;-0.00758998;-0.0023119;0.00602899;-0.00548895;0.0174585;0.0192681;0.00935285;0;0.0560729;8.31824;2.15614
293000;294;25.9559;0.200969;0.00780311;-2.23551;25.8563;-0.404522;-0.046473;0.194567;-0.43087;-0.0108871;-0.521254;-0.202034;0.559144;-6.28021;-0.00154659;0.000318069;0.00483768;0.00485349;-0.00156239;0.00320794;0.319696;3.12797;0.00386325;0.00427726;3.10644;0.321912;63.8157;108.816;0.00361558;-0.00154867;-0.00143688;0.00206187;0.00483671;0.00339551;0.00971366;0;0.0197823;-0.0571411;-0.723908;-0.650612;0.974989;-6.6985;-0.00256331;0.000173864;0.018588;0.0185895;-0.00256474;0.0105771;0.137901;7.25157;0.0133304;0.0141028;7.24808;0.137968;107.742;152.742;-0.00851222;-0.0025798;0.00620982;-0.00573676;0.0185691;0.021027;0.00338238;0;0.0577604;8.32951;2.16389
294000;295;25.9616;0.206691;0.00802529;-2.23685;25.8619;-0.406559;-0.0478127;0.200163;-0.432906;-0.0112869;-0.521527;-0.20323;0.55984;-6.2814;-0.00157415;0.000309503;0.00483002;0.00484494;-0.00158908;0.00321701;0.32591;3.06833;0.00386997;0.00428934;3.0489;0.327987;63.5753;108.575;0.00352361;-0.00157626;-0.00146667;0.00207435;0.00482899;0.00396553;0.00959215;0;0.0193606;-0.0579066;-0.730949;-0.653121;0.981941;-6.70111;-0.00277058;0.000499876;0.0191654;0.0191768;-0.00278196;0.0109794;0.144561;6.91749;0.0138056;0.0146392;6.89327;0.145069;105.284;150.284;-0.00805108;-0.00278227;0.00597196;-0.00485445;0.0191481;0.0224911;0.0055383;0;0.0575702;8.34929;2.17059
295000;296;25.9661;0.211139;0.00819801;-2.23825;25.8662;-0.408883;-0.0492142;0.204471;-0.435231;-0.0108514;-0.523694;-0.19637;0.559406;-6.27454;-0.00157615;0.000276587;0.00474663;0.0047587;-0.00158823;0.00317347;0.332057;3.01153;0.00381376;0.00423129;2.99623;0.333752;63.2811;108.281;0.00351451;-0.00157825;-0.00152158;0.00206344;0.00474551;0.00432689;0.0101173;0;0.0183098;-0.0574411;-0.73898;-0.648277;0.98471;-6.69528;-0.00315542;0.000304912;0.0201202;0.0201241;-0.00315941;0.0116418;0.156829;6.37639;0.0145838;0.0155224;6.36959;0.156996;105.424;150.424;-0.00911842;-0.00316821;0.00579475;-0.00505968;0.0201037;0.0216855;0.0154586;0;0.0567326;8.35368;2.17785
296000;297;25.9748;0.219844;0.00853597;-2.23887;25.875;-0.403114;-0.0498402;0.213245;-0.429461;-0.0115951;-0.523818;-0.196543;0.559597;-6.27472;-0.00171645;0.000313492;0.00491558;0.00493037;-0.00173124;0.0033308;0.349186;2.8638;0.00399118;0.00444107;2.84789;0.351138;62.8417;107.842;0.00342329;-0.00171871;-0.00153212;0.00214692;0.00491446;0.00421617;0.00972175;0;0.0173231;-0.058378;-0.745602;-0.649358;0.990453;-6.69735;-0.00316016;0.000483671;0.0203575;0.0203674;-0.0031701;0.0117688;0.155233;6.44191;0.014749;0.0156917;6.42485;0.155646;105.545;150.545;-0.00759845;-0.00317355;0.00628984;-0.00518869;0.0203382;0.0165773;0.023119;0;0.0617656;8.36147;2.18515
297000;298;25.9811;0.22613;0.00878008;-2.23785;25.8814;-0.399815;-0.0488177;0.219696;-0.426163;-0.00961451;-0.526679;-0.189342;0.559762;-6.26752;-0.00165391;0.000271635;0.00485084;0.00486217;-0.00166523;0.0032637;0.340953;2.93296;0.00391636;0.0043516;2.91982;0.342487;63.1699;108.17;0.00324506;-0.00165608;-0.00157064;0.00210198;0.00484965;0.00439481;0.0100862;0;0.0190914;-0.0563379;-0.753831;-0.642433;0.992047;-6.69102;-0.00360496;2.02675e-05;0.0203898;0.0203899;-0.00360498;0.0119974;0.176802;5.65605;0.0149406;0.0159966;5.65603;0.176802;105.483;150.483;-0.0104735;-0.00361763;0.00518628;-0.00502426;0.0203767;0.00800719;0.0250728;0;0.0666419;8.37212;2.19295
298000;299;25.9847;0.229779;0.00892173;-2.23918;25.8848;-0.414292;-0.0501503;0.223015;-0.44064;-0.0106278;-0.523689;-0.197742;0.559879;-6.27592;-0.00164749;0.000349592;0.00514021;0.00515816;-0.00166545;0.00341181;0.320511;3.12002;0.00410804;0.00454908;3.09716;0.322876;64.7735;109.773;0.00344112;-0.00164957;-0.00138118;0.00206867;0.00513932;0.00392141;0.00924105;0;0.0179248;-0.0582936;-0.75827;-0.654629;1.00345;-6.70587;-0.00385547;0.000342087;0.0220272;0.0220317;-0.00385999;0.0129459;0.175032;5.71324;0.0161292;0.0172611;5.70772;0.175201;104.706;149.706;-0.00803407;-0.00386841;0.00591434;-0.00508906;0.0220102;0.0121894;0.0230656;0;0.0645666;8.38698;2.19913
299000;300;26.0024;0.247445;0.00960765;-2.24197;25.9019;-0.436169;-0.0529371;0.240149;-0.462517;-0.0112626;-0.525279;-0.192956;0.559711;-6.27113;-0.00144779;0.000491007;0.00504954;0.00508644;-0.00148469;0.00328556;0.286717;3.48776;0.00397927;0.00438075;3.42594;0.291891;63.3846;108.385;0.00347962;-0.00145024;-0.00129768;0.00226813;0.00504882;0.00348176;0.00909126;0;0.0180251;-0.0594;-0.766453;-0.653871;1.00922;-6.71003;-0.00401886;0.000288455;0.022809;0.0228121;-0.00402196;0.0134171;0.176196;5.67549;0.0167109;0.0178894;5.67189;0.176308;104.304;149.304;-0.0061828;-0.00403182;0.00580922;-0.00508751;0.0227926;0.0164103;0.0204259;0;0.0649814;8.39048;2.2051
300000;301;25.9969;0.241933;0.00939363;-2.23783;25.8969;-0.424159;-0.0487946;0.235174;-0.450507;-0.011002;-0.52519;-0.194346;0.560103;-6.27252;-0.00165764;0.000356151;0.00478653;0.00480615;-0.00167726;0.00324171;0.346313;2.88756;0.00388578;0.00432227;2.86548;0.348982;62.9704;107.97;0.0033424;-0.00165973;-0.00137616;0.00207735;0.00478565;0.00418905;0.00957306;0;0.0188666;-0.0598156;-0.772476;-0.657025;1.01586;-6.71291;-0.00409412;0.000123912;0.0233175;0.0233181;-0.00409468;0.0137064;0.175581;5.69537;0.0170747;0.0182752;5.69473;0.175601;103.795;148.795;-0.00516733;-0.00410664;0.00538487;-0.00499612;0.0233034;0.0140227;0.00597375;0;0.0705017;8.40064;2.20859
301000;302;26.0028;0.247844;0.00962315;-2.23936;25.9027;-0.427924;-0.0503294;0.240913;-0.454272;-0.0104022;-0.523893;-0.197445;0.559961;-6.27562;-0.00156052;0.000453944;0.00536903;0.00539864;-0.00159013;0.00349439;0.290653;3.44053;0.00422997;0.00465918;3.39509;0.294543;64.8239;109.824;0.0035689;-0.00156289;-0.00132581;0.00222143;0.00536826;0.00360668;0.00821396;0;0.0178065;-0.0593953;-0.778416;-0.661696;1.02338;-6.71707;-0.00414086;0.000225952;0.0244049;0.0244067;-0.00414264;0.0142747;0.169673;5.89369;0.0178133;0.0190329;5.89158;0.169734;104;149;-0.0129022;-0.00415522;0.00596619;-0.00535434;0.0243876;0.0253084;0.0165673;0;0.0659614;8.40505;2.21524
302000;303;26.0091;0.25411;0.00986644;-2.24002;25.9089;-0.427242;-0.0509899;0.247157;-0.45359;-0.010295;-0.526296;-0.19287;0.560618;-6.27104;-0.00169635;0.000445391;0.00484046;0.00487067;-0.00172656;0.00329861;0.350452;2.85346;0.00395047;0.00439815;2.82103;0.354481;61.7438;106.744;0.00335656;-0.00169876;-0.00135786;0.00223692;0.00483964;0.00397689;0.0102154;0;0.0186471;-0.0595716;-0.787209;-0.65823;1.02787;-6.70622;-0.00411799;0.000601987;0.0242101;0.0242229;-0.00413078;0.0141768;0.170094;5.8791;0.017687;0.0189024;5.864;0.170532;103.19;148.19;-0.00851578;-0.00412991;0.00627046;-0.00490972;0.0241911;0.0212112;0.0131788;0;0.0667942;8.41618;2.22207
303000;304;26.0142;0.259277;0.0100671;-2.24108;25.9139;-0.430479;-0.0520437;0.2522;-0.456827;-0.0105293;-0.52676;-0.19138;0.560547;-6.26955;-0.00171985;0.000314522;0.00489518;0.0049101;-0.00173477;0.00332243;0.351335;2.84628;0.00397975;0.00442991;2.8304;0.353307;62.7452;107.745;0.00394564;-0.0017221;-0.00152778;0.0021447;0.00489406;0.00259136;0.0104898;0;0.0167141;-0.059804;-0.79357;-0.65868;1.03305;-6.70657;-0.00402289;0.000187726;0.0244911;0.0244923;-0.00402413;0.0142582;0.164259;6.08794;0.0178217;0.019011;6.08638;0.164301;104.319;149.319;-0.0105061;-0.00403841;0.00610317;-0.00556309;0.0244729;0.0191;0.0186186;0;0.0622379;8.42938;2.22937
304000;305;26.0241;0.269105;0.0104487;-2.24189;25.9239;-0.423533;-0.052854;0.262111;-0.449881;-0.0110631;-0.526796;-0.192385;0.560935;-6.27056;-0.00164208;0.000436715;0.00509593;0.00512412;-0.00167027;0.00339719;0.322233;3.10334;0.0040882;0.00452959;3.06785;0.325961;63.3965;108.396;0.00367163;-0.00164443;-0.00135113;0.00221257;0.00509512;0.00275879;0.00866828;0;0.0184296;-0.0609044;-0.801381;-0.661123;1.04067;-6.70813;-0.00442097;0.000454736;0.0248236;0.0248306;-0.00442804;0.0146293;0.178096;5.61496;0.0182101;0.0195058;5.60759;0.17833;102.765;147.765;-0.00657243;-0.00443242;0.00586074;-0.00479701;0.0248069;0.0151127;0.0300446;0;0.0637608;8.437;2.23681
305000;306;26.0463;0.291337;0.0113119;-2.24421;25.9459;-0.42773;-0.0551766;0.284158;-0.454078;-0.0112857;-0.526459;-0.192894;0.560798;-6.27107;-0.0017158;0.000302753;0.00530379;0.00531682;-0.00172883;0.00352283;0.323504;3.09115;0.00423998;0.0046971;3.07538;0.325163;65.3499;110.35;0.00317611;-0.00171787;-0.00146305;0.00205623;0.00530277;0.00423205;0.00965767;0;0.0180943;-0.0614737;-0.807601;-0.662979;1.04668;-6.71128;-0.00448914;5.86078e-05;0.0253652;0.0253653;-0.00448926;0.0149273;0.17698;5.65035;0.0185882;0.0199031;5.65023;0.176984;104.085;149.085;-0.00650066;-0.00450471;0.005853;-0.00556707;0.0253485;0.00741356;0.0426579;0;0.0766664;8.43703;2.24432
306000;307;26.0399;0.284958;0.0110642;-2.2425;25.9399;-0.415063;-0.0534673;0.278109;-0.441411;-0.0117005;-0.526994;-0.192598;0.561207;-6.27077;-0.00167597;0.000330911;0.0054328;0.00544817;-0.00169134;0.00356975;0.30849;3.24159;0.00430802;0.00475967;3.22122;0.310441;66.1111;111.111;0.00327777;-0.00167801;-0.00139857;0.00204816;0.00543188;0.00366712;0.0095654;0;0.018116;-0.0624769;-0.815198;-0.664641;1.05366;-6.72306;-0.00525422;-0.000297584;0.0264444;0.0264472;-0.00525702;0.0158521;0.198689;5.03299;0.01962;0.0211362;5.03084;0.198774;104.344;149.344;-0.0058365;-0.00527119;0.0053991;-0.00581833;0.0264303;0.009032;0.0265491;0;0.0629971;8.45165;2.252
307000;308;26.0585;0.303591;0.0117877;-2.24542;25.958;-0.432695;-0.0563855;0.296273;-0.459043;-0.0112689;-0.527821;-0.188041;0.560429;-6.26621;-0.00159022;0.000565931;0.00518759;0.00523452;-0.00163715;0.00343584;0.306544;3.26217;0.00414462;0.00458111;3.19733;0.312761;62.9785;107.978;0.00363876;-0.0015928;-0.00121623;0.00233607;0.00518701;0.00323706;0.00885246;0;0.0185436;-0.0627455;-0.822788;-0.664811;1.05967;-6.72157;-0.0050281;0.00054148;0.0269863;0.0269955;-0.00503726;0.0160164;0.18632;5.3671;0.0198899;0.0213552;5.35917;0.186596;103.008;148.008;-0.00124217;-0.00504188;0.00653419;-0.00526443;0.0269657;0.0093443;0.0196534;0;0.0744185;8.45408;2.2587
308000;309;26.0481;0.2931;0.0113803;-2.2433;25.9475;-0.443917;-0.0542635;0.285736;-0.470265;-0.0110088;-0.528125;-0.189452;0.561185;-6.26763;-0.00158625;0.000357769;0.0054954;0.00551343;-0.00160428;0.00355886;0.28865;3.4644;0.00431106;0.00474514;3.4367;0.290976;65.8276;110.828;0.00339822;-0.00158851;-0.00144936;0.00215217;0.00549442;0.00427149;0.00938188;0;0.0178392;-0.0634574;-0.830489;-0.668331;1.0679;-6.72702;-0.00512986;0.000711772;0.0274758;0.0274913;-0.00514539;0.0163183;0.186705;5.35605;0.0202616;0.0217578;5.3429;0.187164;102.421;147.421;-0.00751786;-0.00514239;0.00665663;-0.00504445;0.0274544;0.0193653;0.0193863;0;0.0683554;8.47709;2.26601
309000;310;26.0556;0.300682;0.0116747;-2.24222;25.9552;-0.445198;-0.0531886;0.293417;-0.471546;-0.011569;-0.529384;-0.18775;0.561811;-6.26592;-0.0016443;0.000410302;0.0051798;0.00520438;-0.00166889;0.00343663;0.317445;3.15015;0.00413958;0.00458218;3.11848;0.320669;63.9522;108.952;0.00363161;-0.00164663;-0.00138308;0.00219151;0.00517893;0.00324964;0.00994652;0;0.0181537;-0.064082;-0.839021;-0.667174;1.07386;-6.71683;-0.00515955;0.000415796;0.0285872;0.0285923;-0.00516467;0.0168785;0.180485;5.54064;0.0209959;0.0225047;5.53614;0.180631;102.065;147.065;-0.00739367;-0.00517285;0.00618126;-0.00516053;0.0285687;0.0213634;0.0179012;0;0.0729246;8.49524;2.27297
310000;311;26.0622;0.30723;0.011929;-2.24402;25.9616;-0.446478;-0.0549879;0.299813;-0.472826;-0.0116117;-0.529463;-0.184972;0.560964;-6.26315;-0.00167489;0.000452983;0.00518057;0.00521038;-0.00170469;0.00345753;0.323302;3.09309;0.00415992;0.00461004;3.05649;0.327172;63.3707;108.371;0.0036456;-0.00167732;-0.00135612;0.00224975;0.00517976;0.00384489;0.00984622;0;0.0180658;-0.0648623;-0.846592;-0.666087;1.07917;-6.71947;-0.00508376;9.74042e-05;0.0287901;0.0287904;-0.00508404;0.0169372;0.17658;5.66316;0.0210935;0.022583;5.6629;0.176588;102.591;147.591;-0.00812958;-0.00509916;0.00592464;-0.00553797;0.0287731;0.0379621;0.0207731;0;0.0739004;8.47254;2.27982
311000;312;26.07;0.315052;0.0122327;-2.24491;25.9693;-0.445994;-0.0558745;0.307597;-0.472342;-0.011418;-0.529435;-0.188282;0.562034;-6.26646;-0.00168515;0.000551854;0.00541493;0.00545757;-0.00172779;0.00359268;0.311204;3.21333;0.00433076;0.00479024;3.15871;0.316585;63.9501;108.95;0.00331207;-0.00168766;-0.00121427;0.00230551;0.00541435;0.00345584;0.00897495;0;0.0188132;-0.0648179;-0.852267;-0.670427;1.08629;-6.72208;-0.0053582;-0.000155767;0.0287335;0.0287342;-0.00535891;0.0170465;0.186479;5.36252;0.0211697;0.0227287;5.36194;0.1865;103.187;148.187;-0.0103495;-0.00537507;0.00567768;-0.00579589;0.0287178;0.0279992;0.0294371;0;0.070588;8.47901;2.28091
312000;313;26.0768;0.321839;0.0124962;-2.24428;25.9763;-0.441654;-0.055251;0.314539;-0.468001;-0.0119089;-0.529728;-0.185041;0.561243;-6.26321;-0.00154108;0.00048518;0.00539239;0.00542617;-0.00157486;0.00350052;0.285787;3.49911;0.00424102;0.00466736;3.44549;0.290234;65.0791;110.079;0.0035786;-0.0015434;-0.00125175;0.00221013;0.00539173;0.00264905;0.0100171;0;0.0193812;-0.0656996;-0.85864;-0.67088;1.09163;-6.7158;-0.00527446;0.000233834;0.0283685;0.0283702;-0.00527608;0.0168231;0.185926;5.37848;0.0208954;0.0224308;5.37713;0.185973;103;148;-0.00584427;-0.00529006;0.00624014;-0.00557598;0.0283496;0.0160255;0.0377967;0;0.0712389;8.49608;2.28787
313000;314;26.1012;0.34623;0.0134432;-2.24817;26.0004;-0.444328;-0.0591376;0.338643;-0.470676;-0.0119863;-0.530366;-0.185644;0.562046;-6.26382;-0.00171812;0.000367171;0.00553125;0.0055498;-0.00173667;0.00364323;0.310621;3.21936;0.00439467;0.00485765;3.19565;0.312925;65.934;110.934;0.00358894;-0.00172027;-0.00138158;0.00210331;0.00553037;0.00394955;0.0089125;0;0.0179792;-0.0662696;-0.86639;-0.672965;1.09905;-6.7189;-0.00553876;-1.3391e-05;0.0299039;0.0299039;-0.00553877;0.0177213;0.185219;5.39902;0.0220157;0.0236284;5.39901;0.185219;104.5;149.5;-0.0089473;-0.00556153;0.00694202;-0.00672944;0.0298805;0.0235375;0.0317833;0;0.0845285;8.51484;2.2959
314000;315;26.108;0.353033;0.0137074;-2.24836;26.0072;-0.444026;-0.059326;0.345461;-0.470373;-0.0121358;-0.530288;-0.184869;0.56172;-6.26304;-0.00164207;0.000531938;0.00524466;0.00528551;-0.00168292;0.00348421;0.313094;3.19393;0.00419862;0.00464562;3.14068;0.318402;63.8718;108.872;0.00323627;-0.00164444;-0.00118626;0.00223836;0.0052441;0.00387017;0.00927824;0;0.0185172;-0.0672052;-0.874437;-0.673056;1.10551;-6.72551;-0.00563963;-0.000513946;0.0303596;0.0303669;-0.00564697;0.0180069;0.185761;5.38325;0.0223658;0.0240093;5.37756;0.185958;105.695;150.695;-0.00785192;-0.0056682;0.00678101;-0.007554;0.0303374;0.00989973;0.0241296;0;0.0813295;8.51428;2.30313
315000;316;26.0997;0.344773;0.0133867;-2.24676;25.9991;-0.442567;-0.0577261;0.337332;-0.468914;-0.0119929;-0.53053;-0.185326;0.562096;-6.2635;-0.00162196;0.000552808;0.00570452;0.005746;-0.00166344;0.00370472;0.284329;3.51705;0.00448908;0.00493962;3.45429;0.289495;65.1356;110.136;0.00365621;-0.00162454;-0.00124246;0.00233499;0.00570391;0.0029552;0.00980878;0;0.0194999;-0.0679964;-0.882214;-0.678971;1.11531;-6.7325;-0.00605964;0.0004408;0.0309305;0.0309357;-0.00606489;0.0185003;0.195912;5.10434;0.0229146;0.0246671;5.10078;0.196048;103.889;148.889;-0.00713546;-0.00608057;0.00760281;-0.00646426;0.0309025;0.0276344;0.0147994;0;0.0758696;8.52098;2.31082
316000;317;26.1058;0.35089;0.0136242;-2.24674;26.0051;-0.450595;-0.057706;0.343337;-0.476943;-0.0129049;-0.531125;-0.18379;0.562173;-6.26196;-0.00174514;0.000442842;0.00548783;0.00551484;-0.00177215;0.00364349;0.318001;3.14464;0.00438822;0.00485799;3.11195;0.321342;65.2603;110.26;0.00342922;-0.00174737;-0.00128259;0.00215586;0.00548711;0.00341831;0.00982667;0;0.0230086;-0.0695627;-0.889979;-0.678874;1.1215;-6.72871;-0.005641;0.000807556;0.0317562;0.0317736;-0.00565843;0.018716;0.177635;5.62953;0.0232987;0.0249547;5.61527;0.178086;102.903;147.903;-0.0104557;-0.00565995;0.00806901;-0.00619074;0.0317249;0.0275207;0.0206994;0;0.082283;8.52969;2.31768
317000;318;26.1115;0.356589;0.0138455;-2.24686;26.0106;-0.459085;-0.0578212;0.3489;-0.485433;-0.0134852;-0.531505;-0.182753;0.562208;-6.26093;-0.00163572;0.000406561;0.00576109;0.00578337;-0.001658;0.00372068;0.283926;3.52205;0.00451098;0.00496091;3.48816;0.286684;66.2834;111.283;0.00339678;-0.00163808;-0.00140845;0.00220823;0.00576018;0.00442127;0.00841524;0;0.0192861;-0.0708098;-0.898804;-0.678775;1.12854;-6.72975;-0.00604367;0.000507918;0.0322962;0.032303;-0.0060504;0.0191767;0.187132;5.34381;0.0238098;0.0255689;5.33898;0.187302;102.995;147.995;-0.0146439;-0.0060635;0.00757643;-0.00629809;0.0322686;0.0351059;0.016684;0;0.0669774;8.53939;2.32488
318000;319;26.1168;0.361878;0.0140508;-2.2486;26.0157;-0.465585;-0.0595709;0.353942;-0.491933;-0.0138507;-0.529973;-0.18821;0.562571;-6.26638;-0.00162983;0.000460383;0.00576199;0.00579055;-0.00165839;0.00372447;0.282859;3.53533;0.00451583;0.00496596;3.49167;0.286396;66.1038;111.104;0.00371409;-0.00163222;-0.00132782;0.00223544;0.00576121;0.00352433;0.00918757;0;0.0214689;-0.0716846;-0.904704;-0.686542;1.13797;-6.73946;-0.0059486;0.000711962;0.0330266;0.0330396;-0.00596161;0.0195006;0.180115;5.552;0.024259;0.0260008;5.54207;0.180438;100.826;145.826;-0.0124963;-0.00596204;0.00687247;-0.00521614;0.033004;0.0306622;0.0337836;0;0.080347;8.54328;2.33216
319000;320;26.1214;0.366496;0.0142301;-2.2524;26.0198;-0.475018;-0.0633651;0.358079;-0.501365;-0.012796;-0.53449;-0.179182;0.56387;-6.25736;-0.00166297;0.000641789;0.00565759;0.00571343;-0.00171881;0.00371612;0.293936;3.4021;0.00449285;0.00495482;3.32406;0.300837;64.3933;109.393;0.00335929;-0.00166563;-0.00112221;0.00239294;0.00565717;0.00418978;0.00920811;0;0.0193681;-0.0709962;-0.914882;-0.682417;1.14357;-6.7363;-0.00602907;0.000124021;0.0327536;0.032754;-0.00602947;0.0193917;0.184073;5.43262;0.0240986;0.0258557;5.43232;0.184083;102.183;147.183;-0.0114504;-0.00604719;0.00649003;-0.00600293;0.0327332;0.0182623;0.046148;0;0.0724756;8.55662;2.33974
320000;321;26.1377;0.382718;0.01486;-2.25016;26.0369;-0.443529;-0.0611212;0.375114;-0.469877;-0.0129038;-0.53518;-0.179102;0.564501;-6.25728;-0.00171174;0.000576054;0.00583214;0.00587588;-0.00175547;0.00381567;0.293501;3.40715;0.00461507;0.00508757;3.34718;0.298759;65.6551;110.655;0.00399839;-0.00171423;-0.00116442;0.00230347;0.00583163;0.00234358;0.00988266;0;0.0190156;-0.0718654;-0.923412;-0.679252;1.14858;-6.72814;-0.00599508;-0.000243227;0.0337411;0.0337426;-0.00599657;0.0198696;0.177679;5.62814;0.0247374;0.0264928;5.62699;0.177715;104.282;149.282;-0.00651407;-0.00602371;0.00735261;-0.00754707;0.033715;0.0279352;0.0201854;0;0.0822933;8.56009;2.34701
321000;322;26.1452;0.390245;0.0151522;-2.25133;26.0443;-0.442697;-0.062294;0.382583;-0.469045;-0.0132374;-0.535316;-0.179312;0.564704;-6.25749;-0.0017142;0.000444717;0.00600517;0.00603071;-0.00173974;0.00388522;0.285455;3.50318;0.00470876;0.0051803;3.46644;0.28848;67.5822;112.582;0.0035813;-0.00171639;-0.00125873;0.00213509;0.00600448;0.00377458;0.00975972;0;0.0191551;-0.0728959;-0.931045;-0.682846;1.15691;-6.73322;-0.00625283;-6.26215e-05;0.0331516;0.0331517;-0.00625293;0.0197023;0.188613;5.30186;0.0244534;0.0262697;5.30179;0.188616;105.54;150.54;-0.00194936;-0.00628567;0.00827264;-0.00807998;0.0331185;0.0149488;0.0240947;0;0.0748634;8.56368;2.35237
322000;323;26.149;0.394028;0.0152991;-2.25034;26.048;-0.45621;-0.0613043;0.386233;-0.482558;-0.0143068;-0.538033;-0.174323;0.565749;-6.2525;-0.00168384;0.000424925;0.00614632;0.00616931;-0.00170684;0.00393807;0.27396;3.65017;0.0047844;0.00525076;3.61447;0.276666;68.5456;113.546;0.00411962;-0.00168594;-0.00125033;0.00208714;0.00614563;0.00253491;0.00884562;0;0.0240995;-0.0752059;-0.940465;-0.680276;1.16314;-6.73219;-0.00634533;0.000377455;0.0343265;0.03433;-0.00634884;0.0203394;0.184852;5.40972;0.0252702;0.0271192;5.40729;0.184936;104.232;149.232;-0.0107522;-0.00637367;0.00859191;-0.00751402;0.0342909;0.0264975;0.0279174;0;0.0781361;8.57347;2.35642
323000;324;26.1569;0.401897;0.0156046;-2.25011;26.0557;-0.466541;-0.0610801;0.393969;-0.492889;-0.0132392;-0.537543;-0.174551;0.565328;-6.25272;-0.0017442;0.000535138;0.00591472;0.00595193;-0.00178141;0.00386667;0.294891;3.39108;0.00467626;0.00515556;3.34114;0.299299;66.1678;111.168;0.00391659;-0.00174662;-0.00120815;0.00226515;0.00591414;0.00269153;0.00981854;0;0.020132;-0.0739204;-0.947993;-0.684065;1.17137;-6.73343;-0.0059445;0.000773128;0.0350539;0.0350685;-0.00595907;0.0205138;0.169582;5.89686;0.0255976;0.0273517;5.88489;0.169927;101.698;146.698;-0.00732601;-0.00596327;0.00798869;-0.00615667;0.0350234;0.0251354;0.0320364;0;0.0786741;8.58701;2.36453
324000;325;26.1627;0.407718;0.0158307;-2.25185;26.0613;-0.471814;-0.0628195;0.399568;-0.498162;-0.0128612;-0.536645;-0.178707;0.565764;-6.25688;-0.00180359;0.000615825;0.00620877;0.00625583;-0.00185065;0.00405324;0.290491;3.44245;0.00490522;0.00540431;3.38035;0.295827;66.3437;111.344;0.00382999;-0.00180621;-0.00115297;0.00237053;0.0062083;0.00312398;0.00865951;0;0.0205017;-0.0743793;-0.953947;-0.69113;1.18034;-6.73917;-0.00579094;0.000380475;0.0359844;0.0359879;-0.0057944;0.0208911;0.160929;6.21392;0.0261384;0.0278549;6.2108;0.16101;101.297;146.297;-0.0158734;-0.00581019;0.00723578;-0.00619842;0.0359592;0.0426675;0.0230957;0;0.0735939;8.58694;2.37047
325000;326;26.1657;0.41078;0.0159496;-2.25343;26.064;-0.486842;-0.0643988;0.402229;-0.51319;-0.0136622;-0.537605;-0.17855;0.566644;-6.25672;-0.00168446;0.000662369;0.00638623;0.00644023;-0.00173846;0.00408934;0.263764;3.79127;0.00497527;0.00545246;3.70457;0.269937;67.5626;112.563;0.00401381;-0.00168698;-0.00102955;0.00234071;0.00638592;0.00274225;0.00903467;0;0.0195389;-0.0751649;-0.961602;-0.692906;1.18762;-6.73601;-0.00602834;0.000499498;0.0353013;0.0353074;-0.00603438;0.0206709;0.170768;5.8559;0.0257862;0.0275612;5.85104;0.17091;100.595;145.595;-0.0138696;-0.00604375;0.00680702;-0.00555624;0.0352791;0.0302611;0.0261375;0;0.0673507;8.59062;2.37884
326000;327;26.1723;0.417374;0.0162056;-2.25574;26.0703;-0.489199;-0.0667013;0.408606;-0.515546;-0.0132906;-0.53774;-0.175171;0.565709;-6.25334;-0.00179529;0.000574723;0.0061115;0.00615306;-0.00183685;0.00399495;0.293756;3.40419;0.00483213;0.0053266;3.34979;0.298526;65.7318;110.732;0.00392445;-0.00179801;-0.00126581;0.00240079;0.00611087;0.00319928;0.00852718;0;0.0187846;-0.0757276;-0.96905;-0.690983;1.19258;-6.73797;-0.00615992;6.32287e-05;0.0350197;0.0350198;-0.00616002;0.0205899;0.175899;5.68509;0.0256477;0.0274532;5.68501;0.175901;101.207;146.207;-0.010833;-0.0061775;0.00628513;-0.00591112;0.0350006;0.0382318;0.0462508;0;0.0774802;8.59518;2.38581
327000;328;26.1881;0.433105;0.0168164;-2.25442;26.0867;-0.463293;-0.065383;0.424984;-0.489641;-0.012877;-0.538649;-0.177613;0.567323;-6.25579;-0.00180861;0.000509358;0.00631226;0.00634408;-0.00184044;0.00409226;0.286524;3.49011;0.00495807;0.00545635;3.44705;0.290103;68.1101;113.11;0.00367989;-0.00181087;-0.00117643;0.00218154;0.0063117;0.00330895;0.00843173;0;0.022768;-0.0764406;-0.977767;-0.69496;1.20202;-6.73907;-0.00601818;-0.000319175;0.0354081;0.0354105;-0.00602064;0.0207156;0.169966;5.88352;0.0258487;0.0276208;5.88153;0.170024;102.675;147.675;-0.0114101;-0.00604261;0.00661496;-0.00697587;0.035387;0.0363192;0.0257524;0;0.0833399;8.6132;2.39206
328000;329;26.1951;0.44011;0.0170884;-2.25545;26.0937;-0.462656;-0.0664195;0.431939;-0.489004;-0.0144605;-0.539303;-0.177909;0.568075;-6.25608;-0.00179654;0.000499208;0.00637755;0.00640793;-0.00182691;0.00411742;0.281697;3.54992;0.00499359;0.00548989;3.50752;0.285102;68.06;113.06;0.00407961;-0.00179888;-0.00123366;0.002218;0.00637692;0.0026452;0.00711592;0;0.0237877;-0.0784483;-0.98615;-0.6974;1.21038;-6.74118;-0.00612303;0.000211078;0.0366311;0.0366321;-0.00612407;0.0213781;0.167154;5.9825;0.0266979;0.0285041;5.98166;0.167178;103.964;148.964;-0.00755704;-0.00615551;0.00881409;-0.00803713;0.0365936;0.027325;0.0279109;0;0.0798326;8.61697;2.39981
329000;330;26.2188;0.463888;0.0180116;-2.25894;26.117;-0.477309;-0.0699061;0.455244;-0.503657;-0.014222;-0.540195;-0.172289;0.567183;-6.25046;-0.00178805;0.00063998;0.00647446;0.00652374;-0.00183733;0.00418053;0.27617;3.62096;0.00507373;0.00557404;3.55067;0.281637;67.0696;112.07;0.00432587;-0.00179075;-0.00114193;0.00240726;0.00647402;0.0016338;0.00895362;0;0.020823;-0.0794726;-0.995915;-0.693211;1.21602;-6.7467;-0.00654141;0.000339429;0.0375576;0.0375602;-0.00654402;0.0220521;0.17417;5.74151;0.0274824;0.0294028;5.73962;0.174228;102.524;147.524;-0.00841315;-0.00656719;0.00817712;-0.00716516;0.0375254;0.0229941;0.0212789;0;0.080536;8.61928;2.40635
330000;331;26.2069;0.451986;0.0175495;-2.2557;26.1053;-0.478622;-0.0666654;0.443551;-0.50497;-0.0147284;-0.542234;-0.168237;0.567925;-6.24641;-0.00177062;0.000793152;0.0065934;0.00666795;-0.00184517;0.00425656;0.268544;3.72378;0.00517127;0.00567541;3.61373;0.276722;66.9595;111.959;0.0040086;-0.00177344;-0.000929186;0.00250118;0.00659328;0.00205571;0.00866167;0;0.022417;-0.0800886;-1.00485;-0.692022;1.22272;-6.74241;-0.00611459;0.000572538;0.0376132;0.0376207;-0.00612209;0.0218714;0.162565;6.15138;0.0273505;0.0291618;6.14507;0.162732;102.549;147.549;-0.0101835;-0.00614109;0.00877114;-0.00728059;0.0375763;0.0357927;0.0358422;0;0.083451;8.62742;2.41379
331000;332;26.2147;0.459717;0.0178497;-2.25618;26.1128;-0.49015;-0.0671476;0.451057;-0.516498;-0.0140937;-0.541733;-0.174278;0.569251;-6.25245;-0.00177917;0.000771846;0.0066699;0.00673983;-0.0018491;0.00429446;0.266746;3.74889;0.00521992;0.00572595;3.64493;0.274354;67.1507;112.151;0.00372003;-0.00178201;-0.000975066;0.00250409;0.00666972;0.00304079;0.00889846;0;0.0208167;-0.0803746;-1.01242;-0.702523;1.2349;-6.75188;-0.00595006;0.00067516;0.0378926;0.037903;-0.00596046;0.0219317;0.157024;6.36844;0.0274719;0.0292423;6.35907;0.157256;100.072;145.072;-0.00723069;-0.00596628;0.00735042;-0.00571815;0.0378668;0.029325;0.0429068;0;0.0806977;8.63917;2.42138
332000;333;26.2204;0.465432;0.0180716;-2.2574;26.1183;-0.49613;-0.0683617;0.456577;-0.522478;-0.0154261;-0.541002;-0.175252;0.568889;-6.25342;-0.00166048;0.000674631;0.007063;0.00711486;-0.00171234;0.0044136;0.235095;4.2536;0.0054052;0.0058848;4.15505;0.240671;68.7769;113.777;0.00426038;-0.00166331;-0.00113753;0.00247109;0.00706258;0.00254692;0.0087296;0;0.0215747;-0.0822529;-1.01946;-0.705166;1.24231;-6.75233;-0.00647282;0.00023142;0.0384453;0.0384465;-0.00647401;0.0224603;0.168364;5.93951;0.0280393;0.029947;5.9386;0.16839;100.506;145.506;-0.00607325;-0.0064913;0.00681311;-0.00606559;0.038423;0.0278611;0.0459693;0;0.075164;8.64208;2.42833
333000;334;26.2301;0.475137;0.0184484;-2.25839;26.1281;-0.486974;-0.0693565;0.466406;-0.513322;-0.0157914;-0.542313;-0.172782;0.569391;-6.25096;-0.00173468;0.000795342;0.00677583;0.00684952;-0.00180837;0.00432894;0.256009;3.90611;0.00527352;0.00577193;3.78769;0.264013;67.0397;112.04;0.00442225;-0.00173769;-0.00100481;0.00258027;0.00677564;0.00215657;0.00840157;0;0.0219967;-0.0833225;-1.0266;-0.703386;1.24724;-6.74952;-0.00658662;-6.99232e-05;0.0390591;0.0390592;-0.00658673;0.0228229;0.168632;5.93006;0.02849;0.0304306;5.92998;0.168635;101.19;146.19;-0.00880996;-0.00660896;0.00682551;-0.00666244;0.0390366;0.0404138;0.0325276;0;0.0809986;8.64519;2.43088
334000;335;26.238;0.482999;0.0187537;-2.25878;26.1361;-0.479459;-0.0697462;0.474404;-0.505806;-0.0141071;-0.547107;-0.165358;0.571724;-6.24353;-0.00181467;0.000610711;0.00698649;0.00702866;-0.00185684;0.00444275;0.25974;3.85001;0.00541197;0.00592367;3.78528;0.264181;69.524;114.524;0.00367604;-0.00181711;-0.00108455;0.00229115;0.00698609;0.00297553;0.00892783;0;0.0248234;-0.0818794;-1.0387;-0.700669;1.2556;-6.74921;-0.00677259;6.12045e-05;0.0406305;0.0406306;-0.00677267;0.0237016;0.166687;5.99926;0.029604;0.0316022;5.99921;0.166689;100.815;145.815;-0.0134182;-0.00679495;0.00710895;-0.0066655;0.0406063;0.0362925;0.0200346;0;0.0886369;8.65283;2.43561
335000;336;26.2457;0.490791;0.0190562;-2.26225;26.1436;-0.483321;-0.0732181;0.481854;-0.509668;-0.0137169;-0.545585;-0.16817;0.57108;-6.24634;-0.00175407;0.000729993;0.00720654;0.00726562;-0.00181315;0.00453938;0.243399;4.10848;0.00554779;0.00605251;4.00719;0.249552;69.1446;114.145;0.00386759;-0.00175683;-0.00101737;0.00246181;0.00720629;0.00248449;0.00863229;0;0.0211033;-0.0830252;-1.04635;-0.702676;1.26313;-6.75707;-0.00673656;-0.000456852;0.0407008;0.0407052;-0.00674096;0.0237231;0.165514;6.04178;0.0296404;0.0316308;6.03849;0.165604;103.152;148.152;-0.0134065;-0.00677205;0.00787562;-0.00840948;0.0406711;0.0450032;0.0279398;0;0.0782446;8.66371;2.44246
336000;337;26.2537;0.498758;0.0193655;-2.26116;26.1517;-0.481394;-0.0721302;0.489983;-0.507742;-0.0149414;-0.545553;-0.168715;0.571241;-6.24689;-0.00177399;0.000573423;0.00703144;0.00706863;-0.00181118;0.0044399;0.252295;3.96362;0.00541801;0.00591987;3.90278;0.256228;69.9883;114.988;0.00346116;-0.00177637;-0.00112064;0.00225267;0.00703098;0.00393779;0.00866661;0;0.0229159;-0.085039;-1.05415;-0.705619;1.27136;-6.76036;-0.00707503;-0.000304721;0.0408495;0.0408514;-0.00707697;0.0239642;0.173198;5.77375;0.029874;0.0319522;5.77244;0.173237;102.899;147.899;-0.00678416;-0.00710854;0.00793271;-0.00816285;0.0408193;0.0241279;0.0257689;0;0.0806173;8.67208;2.44975
337000;338;26.2589;0.50398;0.0195683;-2.26126;26.1567;-0.497083;-0.0722242;0.494923;-0.523431;-0.0144845;-0.545098;-0.169494;0.571025;-6.24767;-0.00171908;0.000792515;0.0070828;0.00715359;-0.00178987;0.00447173;0.242712;4.12011;0.00546429;0.0059623;3.99671;0.250206;68.5518;113.552;0.00377444;-0.00172193;-0.000941568;0.00251144;0.00708267;0.0033962;0.00901765;0;0.0220411;-0.0846687;-1.06023;-0.709278;1.27841;-6.75637;-0.00646889;8.02401e-06;0.0404218;0.0404219;-0.00646889;0.0234454;0.160034;6.24866;0.0293429;0.0312605;6.24866;0.160034;102.681;147.681;-0.011899;-0.00650117;0.00840417;-0.00800971;0.0403879;0.0295407;0.0344672;0;0.0789015;8.66885;2.4576
338000;339;26.2665;0.511531;0.0198615;-2.26037;26.1642;-0.503135;-0.0713351;0.502465;-0.529483;-0.0148548;-0.545363;-0.170625;0.571624;-6.2488;-0.0018096;0.000671566;0.00728383;0.00733316;-0.00185893;0.00459604;0.24844;4.02511;0.005612;0.00612806;3.94484;0.253496;69.9182;114.918;0.00408459;-0.00181217;-0.00103622;0.00236393;0.00728353;0.00271201;0.0077743;0;0.0201456;-0.0861689;-1.06895;-0.713359;1.28801;-6.76401;-0.00633386;0.000399324;0.0412449;0.0412483;-0.00633721;0.0237927;0.153567;6.51182;0.0298364;0.0317236;6.5089;0.153636;100.757;145.757;-0.00781991;-0.00635696;0.00793008;-0.00678734;0.0412148;0.0354991;0.0445361;0;0.0780744;8.6784;2.46424
339000;340;26.2791;0.524142;0.0203511;-2.26299;26.1764;-0.516153;-0.0739513;0.514645;-0.542501;-0.016031;-0.54609;-0.170957;0.572448;-6.24913;-0.00177838;0.000669297;0.0074933;0.00754136;-0.00182644;0.0046839;0.237329;4.21356;0.00573418;0.00624521;4.12899;0.24219;70.2199;115.22;0.00409774;-0.00178106;-0.0010851;0.00240755;0.00749294;0.00282664;0.00748662;0;0.0203027;-0.0880206;-1.07616;-0.717938;1.29665;-6.76398;-0.00637384;0.00049395;0.0414483;0.0414534;-0.00637895;0.0239162;0.153778;6.50288;0.0299889;0.0318882;6.49847;0.153882;99.6734;144.673;-0.0119977;-0.00639208;0.00734201;-0.00603967;0.0414226;0.0354754;0.0439629;0;0.0846126;8.6857;2.472
340000;341;26.2965;0.541531;0.0210263;-2.2663;26.1934;-0.5229;-0.0772623;0.531683;-0.549248;-0.0157305;-0.546594;-0.171002;0.572935;-6.24918;-0.00169208;0.000444409;0.00740915;0.0074308;-0.00171373;0.00457226;0.228377;4.37872;0.005613;0.00609635;4.33604;0.230625;71.8869;116.887;0.00399606;-0.00169427;-0.00126279;0.00213619;0.00740845;0.00305152;0.00817877;0;0.0244458;-0.0883834;-1.08289;-0.720492;1.30367;-6.76737;-0.00645651;-0.000252938;0.043011;0.0430123;-0.00645781;0.0247351;0.150113;6.66165;0.0310521;0.0329801;6.66052;0.150139;100.541;145.541;-0.0144041;-0.00648149;0.00688248;-0.00704993;0.0429883;0.0269443;0.0453784;0;0.090914;8.69619;2.47964
341000;342;26.2898;0.534831;0.0207661;-2.26293;26.1875;-0.498907;-0.0738928;0.525716;-0.525255;-0.0148246;-0.548227;-0.164586;0.572591;-6.24276;-0.00177894;0.000787338;0.00766826;0.00773343;-0.00184411;0.00478877;0.231987;4.31058;0.00586772;0.00638502;4.19359;0.238459;69.8086;114.809;0.00401506;-0.00178188;-0.000990847;0.00254885;0.00766808;0.00209744;0.00932843;0;0.0202018;-0.0879768;-1.09325;-0.716277;1.30995;-6.77087;-0.00717119;0.00021048;0.0441588;0.0441596;-0.00717206;0.0256658;0.162396;6.1578;0.0320986;0.0342211;6.15718;0.162412;99.0399;144.04;-0.0148259;-0.00718905;0.00669702;-0.0059572;0.0441373;0.0353875;0.0366671;0;0.0795626;8.70404;2.48723
342000;343;26.2968;0.541865;0.0210393;-2.2662;26.1943;-0.497254;-0.0771648;0.532527;-0.523602;-0.0163214;-0.548626;-0.168866;0.574258;-6.24704;-0.0018393;0.000627627;0.00800068;0.00804055;-0.00187917;0.00495986;0.229893;4.34985;0.00608427;0.00661315;4.27878;0.233712;72.2485;117.248;0.00396353;-0.00184171;-0.00104051;0.00227947;0.00800034;0.00258461;0.00830907;0;0.0199362;-0.0902385;-1.10068;-0.718215;1.31738;-6.77024;-0.0074462;-0.000795704;0.0432677;0.0432802;-0.00745868;0.0253694;0.172096;5.81071;0.0316341;0.0338259;5.80266;0.172335;102.411;147.411;-0.00779043;-0.00748112;0.00715861;-0.00836331;0.0432434;0.0318522;0.0287401;0;0.0795161;8.70712;2.49361
343000;344;26.3323;0.577362;0.0224175;-2.26854;26.2294;-0.512142;-0.0795044;0.567673;-0.53849;-0.0159353;-0.548237;-0.168156;0.573667;-6.24633;-0.00170685;0.000483955;0.00772674;0.0077515;-0.00173161;0.00474156;0.220902;4.52689;0.00583121;0.00632208;4.47646;0.223391;72.3858;117.386;0.00379863;-0.00170911;-0.0012239;0.00217582;0.00772611;0.00334338;0.00825292;0;0.0232252;-0.09037;-1.10988;-0.724088;1.32827;-6.78069;-0.00724655;-0.000190578;0.0444935;0.0444942;-0.00724725;0.0258707;0.162868;6.13996;0.0323503;0.0344943;6.13946;0.162881;102.802;147.802;-0.00919859;-0.00728644;0.00897459;-0.00890172;0.044455;0.0346669;0.032968;0;0.0780711;8.71513;2.49986
344000;345;26.319;0.564009;0.021899;-2.26532;26.2163;-0.512402;-0.0762899;0.554541;-0.53875;-0.0163696;-0.549864;-0.166661;0.574799;-6.24483;-0.00175544;0.000747904;0.00774511;0.00780362;-0.00181395;0.00480879;0.226651;4.41207;0.00590075;0.00641172;4.302;0.23245;71.2381;116.238;0.00422711;-0.00175799;-0.000896691;0.00237699;0.00774498;0.00221584;0.00853282;0;0.0196318;-0.0917276;-1.11882;-0.72556;1.33664;-6.78173;-0.00700392;-0.000125717;0.0444943;0.0444946;-0.00700422;0.0257494;0.157412;6.35277;0.0322523;0.0343325;6.35254;0.157417;102.769;147.769;-0.00879197;-0.00704403;0.00913108;-0.0089261;0.0444544;0.0465442;0.0344267;0;0.0773378;8.72287;2.50531
345000;346;26.3264;0.571429;0.0221872;-2.26575;26.2236;-0.519789;-0.0767202;0.561808;-0.546137;-0.0157737;-0.550871;-0.166134;0.575593;-6.24431;-0.00184501;0.000564655;0.00804917;0.00808129;-0.00187713;0.00497921;0.229217;4.36268;0.00611012;0.00663895;4.30514;0.232281;72.6848;117.685;0.00364258;-0.00184732;-0.00110711;0.00222001;0.00804872;0.00298715;0.00794947;0;0.0208256;-0.0914134;-1.12671;-0.724089;1.34244;-6.77474;-0.00688262;0.000123554;0.0442435;0.0442438;-0.00688292;0.0255634;0.155562;6.4283;0.0320376;0.0340845;6.42806;0.155568;100.232;145.232;-0.0100914;-0.00690666;0.00752066;-0.0069114;0.0442164;0.0319314;0.055135;0;0.0902856;8.72915;2.51054
346000;347;26.3225;0.567502;0.0220347;-2.26553;26.2196;-0.522005;-0.0764985;0.55784;-0.548353;-0.0160742;-0.552859;-0.158859;0.575455;-6.23703;-0.00183868;0.000644161;0.00825905;0.00829997;-0.00187961;0.00508979;0.222627;4.49182;0.00625471;0.00678639;4.41579;0.22646;73.3179;118.318;0.00384499;-0.00184093;-0.000941626;0.00221407;0.00825881;0.00236482;0.00844403;0;0.0204115;-0.0924118;-1.13561;-0.71815;1.34681;-6.7688;-0.00699949;-6.06294e-05;0.0450698;0.0450699;-0.00699956;0.0260347;0.155303;6.43901;0.032631;0.034713;6.43896;0.155305;100.675;145.675;-0.0120226;-0.00702713;0.00767337;-0.00740929;0.0450416;0.025716;0.0561021;0;0.0853926;8.73133;2.51644
347000;348;26.3364;0.581483;0.0225775;-2.26971;26.2329;-0.537456;-0.0806745;0.571203;-0.563804;-0.0166454;-0.551787;-0.166159;0.576502;-6.24433;-0.00174645;0.000439584;0.0083463;0.00836541;-0.00176556;0.00506548;0.209248;4.77901;0.00624915;0.00675397;4.73811;0.211055;74.4064;119.406;0.00341092;-0.00174848;-0.00119902;0.00206179;0.00834568;0.00348004;0.00698901;0;0.0211679;-0.0937025;-1.14156;-0.727599;1.35696;-6.77496;-0.00721095;-0.00064928;0.0471831;0.0471908;-0.0072187;0.0272048;0.152829;6.54325;0.0341223;0.036273;6.5373;0.152968;101.361;146.361;-0.0109825;-0.00724644;0.00754577;-0.00841861;0.0471561;0.0376009;0.0432278;0;0.0979697;8.7408;2.52295
348000;349;26.3423;0.587301;0.0228034;-2.26804;26.2395;-0.509835;-0.0790103;0.577739;-0.536182;-0.0158846;-0.553399;-0.159473;0.576137;-6.23765;-0.00185046;0.000579147;0.00848459;0.00851695;-0.00188282;0.00519988;0.218097;4.58512;0.00639858;0.00693318;4.52352;0.221067;73.4394;118.439;0.00364817;-0.00185282;-0.00110596;0.00224698;0.00848415;0.00354166;0.00807479;0;0.0207664;-0.0936109;-1.15106;-0.723839;1.36296;-6.77247;-0.00781165;8.54762e-05;0.0472129;0.047213;-0.00781178;0.0275124;0.165456;6.0439;0.0343764;0.0366832;6.04382;0.165458;100.056;145.056;-0.0149942;-0.00783742;0.0077236;-0.00715131;0.0471844;0.042002;0.0312021;0;0.0944173;8.74725;2.53042
349000;350;26.3469;0.591975;0.0229849;-2.27068;26.2438;-0.518278;-0.0816448;0.582037;-0.544626;-0.0173873;-0.55309;-0.165627;0.577618;-6.2438;-0.00169894;0.000680686;0.008184;0.00823067;-0.0017456;0.00498813;0.207593;4.81712;0.00615209;0.00665085;4.71509;0.212085;72.9072;117.907;0.0035651;-0.00170132;-0.000938656;0.00228415;0.0081838;0.00422904;0.00797371;0;0.0248303;-0.0955944;-1.15801;-0.732852;1.37375;-6.77808;-0.00754573;-0.000353547;0.0467937;0.046796;-0.00754803;0.027172;0.161255;6.20135;0.0339938;0.0362294;6.19977;0.161296;102.665;147.665;-0.0151182;-0.00758907;0.00906374;-0.00928195;0.0467545;0.0412503;0.0154311;0;0.0757481;8.75535;2.53771
350000;351;26.3656;0.610651;0.02371;-2.27028;26.2627;-0.511287;-0.0812443;0.600959;-0.537635;-0.0164245;-0.554022;-0.158861;0.576582;-6.23703;-0.00185148;0.000875841;0.00821071;0.00828638;-0.00192714;0.00510676;0.225495;4.43468;0.00626621;0.00680902;4.29982;0.232568;70.9228;115.923;0.00350884;-0.00185444;-0.000849552;0.00258401;0.00821074;0.00362701;0.00709102;0;0.0228792;-0.095501;-1.16647;-0.727424;1.37801;-6.77744;-0.00731796;-0.000925652;0.0476305;0.0476461;-0.00733355;0.0274898;0.15364;6.50872;0.0344696;0.0366531;6.49701;0.153917;102.97;147.97;-0.00485588;-0.00736646;0.00849942;-0.0098563;0.0475965;0.056261;0.0209014;0;0.0892734;8.75126;2.54554
351000;352;26.3633;0.60832;0.0236196;-2.27164;26.2602;-0.511415;-0.0826108;0.598499;-0.537763;-0.0183264;-0.557188;-0.153;0.578103;-6.23117;-0.00190216;0.000746102;0.00858768;0.00864048;-0.00195497;0.00529772;0.221499;4.51469;0.00651056;0.00706363;4.41976;0.226257;72.8264;117.826;0.00404806;-0.00190475;-0.000917275;0.00239218;0.00858754;0.00242483;0.00639891;0;0.0227281;-0.0993143;-1.17712;-0.723898;1.38546;-6.77632;-0.00789445;-0.000285586;0.0475439;0.0475454;-0.00789592;0.0277206;0.166046;6.02244;0.0346302;0.0369609;6.02151;0.166071;102.088;147.088;-0.00837389;-0.00793423;0.00879843;-0.00888883;0.047507;0.0405628;0.0404532;0;0.0804819;8.77195;2.55247
352000;353;26.3737;0.618738;0.024024;-2.27249;26.27;-0.544942;-0.0834594;0.60821;-0.57129;-0.0178169;-0.557677;-0.15796;0.57989;-6.23613;-0.00179729;0.000624759;0.00830089;0.0083394;-0.0018358;0.0050876;0.216518;4.61855;0.00626188;0.00678346;4.54265;0.220136;73.1393;118.139;0.00376984;-0.00179965;-0.00102266;0.00225568;0.00830057;0.00372212;0.00812196;0;0.020427;-0.0984071;-1.18642;-0.736531;1.39991;-6.7969;-0.00721324;-6.37814e-05;0.0490217;0.0490218;-0.00721332;0.0281176;0.147144;6.79607;0.0353319;0.0374901;6.79601;0.147145;100.995;145.995;-0.0139577;-0.00724882;0.00874907;-0.0084042;0.0489853;0.0422744;0.0492056;0;0.0847234;8.77469;2.55975
353000;354;26.3731;0.618192;0.0240028;-2.26956;26.2697;-0.540964;-0.0805263;0.607997;-0.567312;-0.0190078;-0.557913;-0.157221;0.579954;-6.23539;-0.00192175;0.000561979;0.0087346;0.00876416;-0.00195131;0.00535773;0.220016;4.54512;0.00659022;0.00714364;4.49142;0.222647;74.0711;119.071;0.00359496;-0.00192404;-0.00110253;0.0022089;0.00873416;0.00446775;0.00725686;0;0.020676;-0.0998585;-1.19502;-0.736985;1.40755;-6.79684;-0.00745564;-0.000676332;0.0497084;0.0497164;-0.00746364;0.02859;0.149988;6.66721;0.0358917;0.03812;6.66114;0.150124;101.502;146.502;-0.0122002;-0.00749634;0.00814076;-0.00901322;0.049677;0.0421272;0.0458619;0;0.079292;8.77364;2.56716
354000;355;26.3877;0.632716;0.0245668;-2.27515;26.2836;-0.551387;-0.0861201;0.621878;-0.577735;-0.018306;-0.556541;-0.160984;0.579645;-6.23916;-0.00187562;0.000594303;0.00860691;0.00864049;-0.00190921;0.00527485;0.217921;4.58883;0.00649101;0.00703313;4.52569;0.220961;73.8521;118.852;0.00371248;-0.00187792;-0.00104932;0.00222084;0.00860654;0.00415672;0.00735008;0;0.0235243;-0.1002;-1.19938;-0.737779;1.41169;-6.78066;-0.00820548;-0.000170879;0.0502785;0.050279;-0.00820598;0.0292425;0.1632;6.12743;0.0365629;0.03899;6.12712;0.163209;101.319;146.319;-0.0120071;-0.00824401;0.00890857;-0.00874474;0.0502407;0.0363175;0.0425155;0;0.0959785;8.78126;2.57442
355000;356;26.3938;0.638866;0.0248055;-2.2727;26.2905;-0.526225;-0.0836653;0.62878;-0.552573;-0.0189234;-0.558662;-0.155259;0.580144;-6.23343;-0.00180333;0.000640296;0.00920462;0.00924173;-0.00184045;0.00554109;0.195916;5.10423;0.00685746;0.00738812;5.02145;0.199146;74.9883;119.988;0.00336803;-0.00180564;-0.000975477;0.00223844;0.00920435;0.00378716;0.00631795;0;0.0220475;-0.101893;-1.20979;-0.737674;1.42061;-6.7886;-0.00787376;-0.000387797;0.0504715;0.0504741;-0.00787634;0.0291752;0.156004;6.41009;0.0365588;0.0389003;6.40832;0.156047;100.979;145.979;-0.0166583;-0.00791092;0.0083029;-0.00859577;0.0504388;0.0348262;0.0385228;0;0.0878883;8.78986;2.57799
356000;357;26.4019;0.646943;0.0251192;-2.27426;26.2986;-0.523234;-0.0852308;0.636813;-0.549582;-0.0184147;-0.558575;-0.159763;0.581265;-6.23794;-0.00189352;0.000571961;0.00870957;0.00874034;-0.00192428;0.00533231;0.217406;4.59968;0.00656303;0.00710974;4.54214;0.220161;73.9564;118.956;0.00403026;-0.00189583;-0.00110017;0.00222651;0.00870913;0.00392972;0.00861157;0;0.0211608;-0.102088;-1.2184;-0.744988;1.43176;-6.79862;-0.00763119;-0.000401534;0.050286;0.0502888;-0.00763398;0.0289614;0.151756;6.58953;0.0363388;0.0386152;6.5875;0.151803;101.927;146.927;-0.0075691;-0.0076759;0.00915222;-0.00942843;0.0502462;0.0342844;0.0273569;0;0.0796074;8.79262;2.58468
357000;358;26.4217;0.666767;0.0258889;-2.27698;26.3174;-0.564465;-0.0879497;0.655628;-0.590813;-0.0187538;-0.561411;-0.152566;0.582074;-6.23074;-0.00191395;0.000527918;0.00902849;0.0090539;-0.00193936;0.00549663;0.21199;4.71721;0.00677554;0.00732884;4.6685;0.214201;74.5871;119.587;0.00388208;-0.00191625;-0.00117056;0.00220798;0.00902795;0.00373743;0.00781927;0;0.0245322;-0.103194;-1.22652;-0.738557;1.43544;-6.79019;-0.00786365;-0.000413973;0.0497118;0.0497148;-0.00786662;0.0287907;0.158185;6.32173;0.0360526;0.0383876;6.31971;0.158235;101.223;146.223;-0.0122743;-0.00790132;0.00830609;-0.00865572;0.0496791;0.0523015;0.0290503;0;0.0938833;8.79556;2.59045
358000;359;26.4102;0.655272;0.0254426;-2.27696;26.3062;-0.546874;-0.0879257;0.644461;-0.573222;-0.0190559;-0.560292;-0.156724;0.582111;-6.2349;-0.00187426;0.000449012;0.00898641;0.00900495;-0.00189279;0.00544887;0.208565;4.79466;0.00672363;0.00726516;4.7575;0.210194;74.7945;119.795;0.00401803;-0.00187648;-0.00127728;0.00215672;0.00898571;0.00448281;0.00595201;0;0.0206707;-0.104664;-1.23401;-0.746892;1.44623;-6.79915;-0.00842487;-0.00087932;0.0511664;0.0511794;-0.00843784;0.0298086;0.164656;6.07326;0.0372521;0.0397448;6.06546;0.164868;101.669;146.669;-0.00156254;-0.00846814;0.00805192;-0.00930418;0.051136;0.0401547;0.0269302;0;0.0847253;8.81047;2.59772
359000;360;26.4173;0.66239;0.0257189;-2.27665;26.3131;-0.558505;-0.0876134;0.65139;-0.584853;-0.0190696;-0.561287;-0.155936;0.582857;-6.23411;-0.00179656;0.000535213;0.00897977;0.00900629;-0.00182308;0.00541468;0.200067;4.99832;0.00669514;0.00721957;4.94016;0.202423;73.9749;118.975;0.00370994;-0.0017991;-0.00126271;0.00231393;0.00897912;0.00471242;0.00740511;0;0.0244217;-0.105052;-1.2434;-0.749791;1.45577;-6.79931;-0.00819038;-0.000677682;0.0528894;0.0528969;-0.0081979;0.0305474;0.154859;6.45751;0.0382909;0.0407299;6.4525;0.154979;100.688;145.688;-0.0107111;-0.00822922;0.00794883;-0.00880372;0.0528596;0.0464089;0.047274;0;0.0832671;8.80983;2.60516
360000;361;26.4254;0.670407;0.0260302;-2.27572;26.3211;-0.565122;-0.0866838;0.659378;-0.59147;-0.0187509;-0.559737;-0.157767;0.581848;-6.23594;-0.00181337;0.000601281;0.00888602;0.0089197;-0.00184706;0.00538338;0.20407;4.90027;0.00664824;0.00717784;4.82914;0.207076;74.5267;119.527;0.00388144;-0.00181565;-0.00102778;0.00221306;0.00888568;0.00439219;0.00724439;0;0.0213027;-0.105177;-1.25187;-0.752548;1.46443;-6.80913;-0.00720302;-0.000544084;0.0540241;0.0540289;-0.00720785;0.0306184;0.13333;7.5002;0.0386466;0.0408245;7.49584;0.133407;100.862;145.862;-0.0183156;-0.00724684;0.00879863;-0.00934405;0.0539875;0.045033;0.0440954;0;0.0969082;8.804;2.61231
361000;362;26.4461;0.691132;0.0268349;-2.27816;26.3419;-0.554226;-0.0891234;0.680205;-0.580574;-0.0186909;-0.561961;-0.153709;0.582903;-6.23188;-0.00183587;0.000554223;0.00897733;0.00900566;-0.0018642;0.00543493;0.2045;4.88997;0.00671203;0.00724657;4.83085;0.207003;74.3669;119.367;0.00390717;-0.00183824;-0.00115823;0.00224832;0.00897681;0.00379557;0.00703575;0;0.0243986;-0.106194;-1.26245;-0.74756;1.47102;-6.80233;-0.00872345;-0.000128258;0.0528138;0.0528141;-0.00872372;0.0307689;0.165174;6.05423;0.0384486;0.0410252;6.05408;0.165178;100.195;145.195;-0.00739603;-0.00875703;0.00840115;-0.00815912;0.0527803;0.0461718;0.031991;0;0.0853089;8.82155;2.61965
362000;363;26.4546;0.699676;0.0271667;-2.27738;26.3507;-0.54902;-0.0883468;0.688959;-0.575368;-0.0187799;-0.563523;-0.155609;0.584915;-6.23378;-0.00180207;0.000567974;0.00940877;0.00943748;-0.00183077;0.00563412;0.191531;5.2211;0.00698238;0.00751216;5.15492;0.193989;74.8622;119.862;0.00403906;-0.00180455;-0.00118148;0.002298;0.00940824;0.00372744;0.00707948;0;0.0270134;-0.106693;-1.27042;-0.753206;1.48076;-6.80603;-0.0081121;-0.000658403;0.0532447;0.0532517;-0.00811917;0.0306854;0.152355;6.56361;0.038494;0.0409139;6.55877;0.152468;101.655;146.655;-0.0121267;-0.00815986;0.00900156;-0.00975557;0.0532064;0.0498508;0.033668;0;0.0826957;8.82162;2.62631
363000;364;26.4721;0.717185;0.0278465;-2.28274;26.3674;-0.568359;-0.0937027;0.705665;-0.594707;-0.0208254;-0.560333;-0.162554;0.583807;-6.24073;-0.0017711;0.000553555;0.00919909;0.00922695;-0.00179897;0.00551296;0.19253;5.19399;0.00683039;0.00735061;5.12903;0.194968;74.8987;119.899;0.00343401;-0.00177346;-0.00115049;0.00223907;0.00919859;0.00560837;0.00710976;0;0.0215497;-0.10909;-1.27492;-0.7647;1.49066;-6.81258;-0.00831277;-0.000485519;0.0543279;0.0543317;-0.00831653;0.0313241;0.153011;6.53547;0.0392878;0.0417655;6.53297;0.15307;101.401;146.401;-0.0117177;-0.00835991;0.00929069;-0.00968085;0.0542871;0.0325028;0.0467656;0;0.0887153;8.82021;2.63409
364000;365;26.4797;0.724763;0.0281407;-2.28344;26.3752;-0.558188;-0.0944038;0.713429;-0.584536;-0.0206248;-0.56315;-0.156196;0.584774;-6.23437;-0.0019513;0.000608219;0.00938312;0.00941566;-0.00198384;0.00569975;0.207959;4.80865;0.00703229;0.00759967;4.74617;0.210696;73.8734;118.873;0.00380399;-0.00195407;-0.00123233;0.0024281;0.00938255;0.00420188;0.00739195;0;0.0204595;-0.11082;-1.28421;-0.760169;1.49644;-6.8135;-0.00878149;-0.00073541;0.0550103;0.0550188;-0.00878996;0.0319044;0.159633;6.26435;0.039933;0.0425392;6.25928;0.159763;100.183;145.183;-0.00472824;-0.008819;0.00769453;-0.00865558;0.0549825;0.0444383;0.0351592;0;0.0860461;8.82464;2.6403
365000;366;26.4613;0.706367;0.0274265;-2.28138;26.3566;-0.569491;-0.0923417;0.694897;-0.595839;-0.0196244;-0.564679;-0.153705;0.585553;-6.23188;-0.00185226;0.00062771;0.00918009;0.00921569;-0.00188786;0.00555177;0.201769;4.95616;0.00686022;0.00740236;4.88155;0.204853;73.294;118.294;0.00443844;-0.00185516;-0.00125068;0.00248556;0.00917951;0.00396419;0.00775378;0;0.0226463;-0.109573;-1.29522;-0.763111;1.50729;-6.82;-0.00803799;-0.000779415;0.0552339;0.0552435;-0.00804758;0.0316456;0.145526;6.87161;0.0397838;0.0421941;6.86461;0.145675;101.164;146.164;-0.0134584;-0.00808552;0.00875469;-0.00974179;0.0551979;0.0278826;0.0504547;0;0.0778549;8.83118;2.64429
366000;367;26.4716;0.716636;0.0278252;-2.27932;26.3672;-0.568025;-0.0902863;0.705416;-0.594373;-0.019066;-0.565593;-0.154037;0.586503;-6.23221;-0.00202801;0.000660969;0.00940418;0.00944227;-0.0020661;0.00575418;0.21565;4.63713;0.00708469;0.00767225;4.57008;0.218814;73.8972;118.897;0.00410711;-0.00203074;-0.00112421;0.00242592;0.00940377;0.00429183;0.00727374;0;0.0254801;-0.109289;-1.30306;-0.765555;1.51525;-6.82167;-0.00802364;-0.000781073;0.0570207;0.0570301;-0.00803302;0.0325316;0.140715;7.10659;0.0409611;0.0433754;7.09946;0.140856;100.326;145.326;-0.0129139;-0.00806686;0.00828868;-0.00929266;0.0569885;0.0463456;0.0446799;0;0.089725;8.84049;2.65113
367000;368;26.4873;0.732309;0.0284337;-2.28318;26.3819;-0.597058;-0.0941492;0.720176;-0.623406;-0.019712;-0.566679;-0.15112;0.586814;-6.22929;-0.00193845;0.000688005;0.00943101;0.00947249;-0.00197994;0.00572621;0.20554;4.86522;0.00706802;0.00763495;4.78424;0.20902;74.261;119.261;0.0043999;-0.0019411;-0.00104222;0.00239874;0.0094307;0.00298707;0.00650454;0;0.0262038;-0.111455;-1.31288;-0.763842;1.523;-6.82196;-0.00775348;-0.000511026;0.0562532;0.0562572;-0.00775756;0.0320074;0.137832;7.25521;0.0403401;0.0426765;7.25192;0.137894;100.247;145.247;-0.0196568;-0.00779492;0.00861326;-0.00908236;0.0562182;0.0361756;0.0403497;0;0.0981001;8.84644;2.65879
368000;369;26.4837;0.728703;0.0282937;-2.28458;26.3783;-0.589752;-0.0955463;0.7166;-0.6161;-0.0197652;-0.565326;-0.155893;0.58676;-6.23407;-0.00177969;0.000588828;0.00943433;0.00946516;-0.00181053;0.00563784;0.18864;5.3011;0.00699219;0.00751713;5.22785;0.191283;74.8614;119.861;0.00395251;-0.0017822;-0.00115481;0.00231309;0.00943384;0.00340312;0.00762601;0;0.0306914;-0.112539;-1.32078;-0.770169;1.53306;-6.82983;-0.00802897;-0.000752125;0.0564925;0.0565013;-0.00803774;0.0322695;0.142125;7.03608;0.0406127;0.043026;7.0295;0.142258;101.266;146.266;-0.0178953;-0.00808001;0.00919373;-0.0100905;0.0564527;0.0373812;0.0503941;0;0.0982235;8.85186;2.66339
369000;370;26.509;0.754065;0.0292784;-2.28286;26.4044;-0.567923;-0.0938299;0.742689;-0.594271;-0.019293;-0.567454;-0.148142;0.58679;-6.22632;-0.00198511;0.0004994;0.00969066;0.00971198;-0.00200643;0.0058592;0.204847;4.88168;0.00723678;0.00781227;4.84044;0.206593;75.2477;120.248;0.00422731;-0.00198754;-0.0012836;0.00226178;0.00968997;0.00485431;0.00547372;0;0.0298819;-0.112234;-1.32852;-0.764173;1.53673;-6.81359;-0.00876464;-0.00129516;0.0571136;0.057139;-0.0087901;0.0329646;0.15346;6.51636;0.0413355;0.0439528;6.50039;0.153837;101.61;146.61;-0.0109912;-0.00881935;0.00851589;-0.0104947;0.0570801;0.0532906;0.0423106;0;0.0871351;8.85613;2.66997
370000;371;26.5144;0.759406;0.0294858;-2.28549;26.4094;-0.573779;-0.0964564;0.747698;-0.600127;-0.019905;-0.567151;-0.149433;0.586845;-6.22761;-0.00195491;0.000685296;0.00979367;0.00983351;-0.00199474;0.00591413;0.199609;5.00979;0.00731186;0.0078855;4.92971;0.202852;74.6025;119.603;0.00402481;-0.00195765;-0.00108919;0.00243913;0.00979332;0.00486685;0.00629854;0;0.0263466;-0.113343;-1.33761;-0.769374;1.54725;-6.82408;-0.00847742;-0.000644735;0.0585835;0.0585897;-0.00848362;0.0335367;0.144707;6.91053;0.0421731;0.0447155;6.90621;0.144797;99.7909;144.791;-0.00897765;-0.00851768;0.00823131;-0.00895844;0.0585517;0.0289236;0.0455655;0;0.0855967;8.8558;2.67738
371000;372;26.5096;0.75468;0.0293023;-2.28644;26.4046;-0.572238;-0.0974102;0.742904;-0.598586;-0.0207788;-0.56932;-0.149766;0.589056;-6.22794;-0.00193086;0.00059599;0.00923517;0.0092669;-0.00196258;0.00561474;0.209077;4.78294;0.00692545;0.00748632;4.72179;0.211784;73.6385;118.639;0.00402569;-0.00193362;-0.001253;0.00242452;0.00923457;0.00422191;0.0072497;0;0.0252745;-0.115;-1.34792;-0.771903;1.55755;-6.82668;-0.00891509;-0.000852175;0.0590589;0.0590696;-0.00892577;0.0339977;0.150952;6.6246;0.0426673;0.0453303;6.61787;0.151106;99.3306;144.331;-0.0071805;-0.00895173;0.00738986;-0.00856515;0.0590335;0.0320424;0.0430679;0;0.0986834;8.8655;2.68447
372000;373;26.5193;0.764299;0.0296758;-2.28468;26.4144;-0.574026;-0.0956424;0.752675;-0.600373;-0.019605;-0.570432;-0.147383;0.58949;-6.22556;-0.00200228;0.000735874;0.00986546;0.00991091;-0.00204773;0.00597932;0.202958;4.92712;0.0073851;0.00797243;4.83995;0.206614;74.7614;119.761;0.00393506;-0.00200498;-0.000983552;0.00243509;0.00986525;0.00375012;0.00688142;0;0.0220401;-0.11428;-1.35702;-0.7716;1.56523;-6.82709;-0.00866959;-0.000990462;0.0598521;0.0598664;-0.0086839;0.0342752;0.14485;6.90368;0.0430982;0.0457002;6.89395;0.145055;100.34;145.34;-0.0110782;-0.00871705;0.00837559;-0.0097509;0.0598195;0.0348349;0.0498434;0;0.0882055;8.86484;2.69221
373000;374;26.5249;0.769994;0.0298969;-2.28541;26.4199;-0.581518;-0.0963763;0.758166;-0.607866;-0.0210223;-0.570458;-0.147345;0.589555;-6.22552;-0.00198628;0.000706061;0.0094576;0.009501;-0.00202968;0.00576534;0.21002;4.76146;0.00710782;0.00768712;4.68103;0.213628;73.6132;118.613;0.00426941;-0.00198917;-0.00111276;0.00250426;0.00945723;0.00376447;0.00735568;0;0.0259433;-0.116425;-1.36254;-0.773966;1.57134;-6.82548;-0.00921624;-0.00135759;0.060478;0.0605044;-0.00924267;0.0348735;0.15239;6.56211;0.0437439;0.046498;6.5462;0.15276;100.592;145.592;-0.00856861;-0.0092667;0.00799048;-0.0100912;0.0604487;0.0469078;0.0425013;0;0.0899589;8.86921;2.69923
374000;375;26.5451;0.790168;0.0306802;-2.2857;26.4397;-0.599884;-0.0966625;0.777985;-0.626232;-0.0205522;-0.570228;-0.149773;0.589927;-6.22795;-0.0018853;0.000756444;0.0094079;0.00945834;-0.00193574;0.00569704;0.200396;4.99013;0.00704008;0.00759606;4.88615;0.20466;73.4889;118.489;0.0041554;-0.00188824;-0.00104648;0.00253919;0.00940764;0.0044831;0.008111;0;0.0228841;-0.116487;-1.37169;-0.779467;1.58198;-6.83044;-0.00810223;-0.000351868;0.0587544;0.0587563;-0.00810408;0.0334302;0.1379;7.25164;0.0421328;0.0445736;7.25021;0.137927;99.9673;144.967;-0.0239935;-0.00814463;0.00906956;-0.00917834;0.0587157;0.0393961;0.0437313;0;0.0962217;8.87633;2.70699
375000;376;26.5535;0.798589;0.0310072;-2.28683;26.4483;-0.590305;-0.0978002;0.786556;-0.616653;-0.0211329;-0.571595;-0.147337;0.590657;-6.22551;-0.00209258;0.000618716;0.00968124;0.00971366;-0.00212501;0.00591933;0.216148;4.62646;0.00728812;0.00789245;4.57112;0.218765;74.3248;119.325;0.00448851;-0.00209531;-0.00119714;0.00241339;0.00968072;0.00327007;0.00811609;0;0.0233383;-0.118567;-1.38111;-0.776445;1.58884;-6.82623;-0.00817592;-0.00122186;0.0598699;0.0598919;-0.00819786;0.0340449;0.136561;7.32271;0.0429223;0.0453932;7.3058;0.136878;101.317;146.317;-0.0170347;-0.00823466;0.00908112;-0.0108632;0.0598317;0.0447554;0.0541531;0;0.0925063;8.88351;2.71459
376000;377;26.5628;0.807852;0.0313669;-2.28834;26.4576;-0.585287;-0.0993033;0.795838;-0.611635;-0.0210993;-0.571625;-0.147652;0.590763;-6.22583;-0.00208334;0.000604291;0.0096511;0.00968214;-0.00211438;0.00589826;0.215866;4.63251;0.00726288;0.00786435;4.57919;0.218379;74.5191;119.519;0.00434727;-0.00208598;-0.00118454;0.00237233;0.00965059;0.0033846;0.00699022;0;0.0205631;-0.11897;-1.39083;-0.784764;1.60138;-6.84363;-0.00906482;-0.00123834;0.062024;0.0620456;-0.00908638;0.035566;0.14615;6.84228;0.0447014;0.0474213;6.82842;0.146447;100.893;145.893;-0.0179205;-0.00912177;0.00889803;-0.0106961;0.0619875;0.0426958;0.0432239;0;0.0865125;8.88637;2.72218
377000;378;26.5556;0.800609;0.0310856;-2.28708;26.4501;-0.600824;-0.0980508;0.788326;-0.627172;-0.0207865;-0.573235;-0.142256;0.590989;-6.22043;-0.0020761;0.000705539;0.00967414;0.00971635;-0.00211831;0.00591733;0.214603;4.65978;0.00728703;0.00788977;4.58685;0.218015;73.6942;118.694;0.00429158;-0.00207907;-0.00114658;0.0025361;0.00967374;0.00306179;0.00773681;0;0.0229573;-0.11994;-1.39946;-0.782275;1.60774;-6.83821;-0.00959074;-0.00137006;0.0633983;0.063424;-0.00961645;0.0365202;0.151277;6.61037;0.0458258;0.0486937;6.59537;0.151621;99.2818;144.282;-0.00997977;-0.00963279;0.00706745;-0.00922836;0.0633757;0.0397492;0.0549162;0;0.0898438;8.87425;2.72323
378000;379;26.5981;0.843144;0.0327372;-2.29549;26.4916;-0.622221;-0.106454;0.82981;-0.648569;-0.0215222;-0.575771;-0.139937;0.592923;-6.21811;-0.00225745;0.00074705;0.00982398;0.00986999;-0.00230347;0.00608673;0.22979;4.35179;0.0074672;0.00811564;4.28483;0.233381;73.8065;118.806;0.00468669;-0.0022604;-0.00106266;0.0025351;0.00982369;0.00322171;0.00733752;0;0.0197618;-0.121304;-1.40968;-0.783104;1.61715;-6.8364;-0.00981396;-0.00157266;0.0632254;0.0632593;-0.00984781;0.0365535;0.155222;6.4424;0.0458097;0.0487381;6.42369;0.155674;99.5795;144.58;-0.0144648;-0.0098584;0.00695265;-0.00951222;0.0632039;0.0542991;0.0650729;0;0.097911;8.91005;2.73657
379000;380;26.5683;0.813342;0.03158;-2.29143;26.4623;-0.607408;-0.102393;0.800584;-0.633756;-0.0215957;-0.576248;-0.135873;0.592443;-6.21405;-0.00206799;0.000754377;0.0096292;0.00967765;-0.00211644;0.00589705;0.214762;4.65632;0.00726081;0.00786273;4.57262;0.218693;73.498;118.498;0.00470979;-0.002071;-0.00107968;0.00256718;0.00962891;0.002457;0.00891932;0;0.0200254;-0.12113;-1.41707;-0.781273;1.6227;-6.83162;-0.00939503;-0.00107023;0.0637298;0.0637454;-0.00941069;0.0365781;0.14742;6.78335;0.0459562;0.0487707;6.77372;0.147629;99.443;144.443;-0.00790479;-0.00943921;0.0078923;-0.00941656;0.063701;0.0320874;0.0533841;0;0.094421;8.87609;2.73656
380000;381;26.5747;0.819723;0.0318278;-2.29165;26.4683;-0.623641;-0.102612;0.806593;-0.649988;-0.020769;-0.574842;-0.144575;0.593107;-6.22275;-0.00214321;0.000705331;0.00999238;0.0100332;-0.00218406;0.00610865;0.214484;4.66235;0.00752328;0.00814487;4.59384;0.217683;73.7139;118.714;0.0047439;-0.00214638;-0.00122387;0.00261135;0.00999189;0.00426999;0.00827926;0;0.0267052;-0.121858;-1.42431;-0.79122;1.63387;-6.84624;-0.00830725;-0.00153761;0.0634123;0.0634453;-0.0083402;0.0358927;0.131004;7.63337;0.0453334;0.047857;7.60716;0.131455;100.744;145.744;-0.0151105;-0.00836684;0.0085869;-0.0109792;0.0633788;0.0410518;0.0424121;0;0.0852682;8.89576;2.74362
381000;382;26.6087;0.853795;0.0331507;-2.29414;26.5023;-0.625783;-0.105102;0.840537;-0.652131;-0.0213085;-0.578113;-0.1383;0.594807;-6.21647;-0.00223749;0.000574836;0.00991792;0.00994504;-0.00226462;0.00610483;0.225601;4.4326;0.00749975;0.00813978;4.39149;0.227713;74.4298;119.43;0.00491024;-0.00224027;-0.00129563;0.00242278;0.00991725;0.00387293;0.00663446;0;0.0235662;-0.123172;-1.43632;-0.78798;1.64289;-6.84523;-0.00811969;-0.00120238;0.0642697;0.0642896;-0.00813965;0.0362146;0.126338;7.91529;0.0458146;0.0482862;7.89833;0.126609;100.508;145.508;-0.0183574;-0.0081785;0.00916908;-0.0108683;0.0642309;0.0459831;0.0635597;0;0.0960574;8.89271;2.75124
382000;383;26.605;0.85003;0.0330045;-2.29254;26.4988;-0.618591;-0.103502;0.837064;-0.644939;-0.0222128;-0.575127;-0.146482;0.593904;-6.22466;-0.00202256;0.000397435;0.0103467;0.0103594;-0.00203531;0.00619737;0.195479;5.11564;0.00767521;0.00826316;5.08984;0.19647;76.2179;121.218;0.00490041;-0.00202499;-0.00146567;0.00223773;0.0103457;0.00423861;0.00878963;0;0.0242115;-0.124259;-1.44274;-0.795798;1.65234;-6.85111;-0.00948524;-0.000943689;0.0650914;0.0651034;-0.00949718;0.0373003;0.145722;6.86239;0.0468897;0.0497337;6.85502;0.145878;99.5376;144.538;-0.0156135;-0.00953234;0.00847779;-0.00970542;0.0650581;0.0470925;0.0660102;0;0.0898887;8.89857;2.75864
383000;384;26.6147;0.859779;0.033383;-2.29313;26.5089;-0.603196;-0.104101;0.847155;-0.629544;-0.0233789;-0.579028;-0.140074;0.596188;-6.21825;-0.0021444;0.000466322;0.0102009;0.0102185;-0.00216199;0.00619022;0.210218;4.75698;0.00763568;0.00825363;4.72641;0.211577;75.4777;120.478;0.00522453;-0.00214698;-0.00140825;0.00231798;0.0102;0.00352023;0.00836751;0;0.0222516;-0.1266;-1.4496;-0.796572;1.65888;-6.84545;-0.00939031;-0.00232597;0.0659237;0.0659955;-0.00946207;0.0377288;0.142442;7.0204;0.0474664;0.0503051;6.97474;0.143374;100.738;145.738;-0.00509979;-0.00945324;0.0074443;-0.0114057;0.0659003;0.0375852;0.0443458;0;0.0885001;8.90954;2.76559
384000;385;26.6094;0.854411;0.0331746;-2.29306;26.5031;-0.622015;-0.104023;0.841337;-0.648363;-0.0215735;-0.57773;-0.139942;0.594828;-6.21811;-0.00224142;0.000530406;0.0103263;0.0103486;-0.00226377;0.0063062;0.21706;4.60702;0.00776447;0.00840827;4.57142;0.21875;75.4354;120.435;0.00497515;-0.00224406;-0.00131481;0.00235267;0.0103256;0.00391522;0.00886541;0;0.0220675;-0.124688;-1.45682;-0.79985;1.66662;-6.84653;-0.00879387;-0.00250835;0.0666836;0.0667669;-0.00887713;0.037822;0.131874;7.58297;0.0477462;0.0504293;7.52122;0.132957;101.35;146.35;-0.0151849;-0.00886759;0.00807928;-0.0123466;0.066656;0.0380833;0.0267277;0;0.100894;8.92009;2.7731
385000;386;26.6383;0.883371;0.0342991;-2.30049;26.531;-0.642898;-0.11146;0.869272;-0.669246;-0.0213423;-0.578279;-0.143069;0.596096;-6.22124;-0.00220699;0.000481321;0.0107393;0.0107571;-0.00222486;0.006491;0.205507;4.86601;0.00801663;0.00865467;4.83496;0.206827;76.2868;121.287;0.00511942;-0.00220954;-0.00136519;0.00230418;0.0107385;0.00320824;0.00604906;0;0.0244825;-0.12633;-1.46675;-0.806617;1.67867;-6.85778;-0.00968166;-0.00159452;0.0651401;0.0651741;-0.00971562;0.0374449;0.148628;6.7282;0.0470237;0.0499265;6.70817;0.149072;100.011;145.011;-0.0158002;-0.00973403;0.00777785;-0.0103084;0.0651129;0.0292316;0.0424117;0;0.109023;8.92349;2.78058
386000;387;26.6251;0.870178;0.0337868;-2.29438;26.5189;-0.618315;-0.105344;0.85714;-0.644663;-0.0220829;-0.576357;-0.147969;0.595458;-6.22614;-0.00202377;0.000428156;0.0105248;0.0105394;-0.00203837;0.00628888;0.192286;5.20058;0.00779506;0.00838517;5.17051;0.193405;75.5547;120.555;0.00527994;-0.00202658;-0.00157448;0.00240592;0.0105237;0.00431067;0.00767912;0;0.0218013;-0.126701;-1.47513;-0.810938;1.6881;-6.87079;-0.00830021;-0.00207476;0.066562;0.0666195;-0.00835767;0.0374886;0.124699;8.01931;0.0474449;0.0499848;7.97106;0.125454;100.349;145.349;-0.0215567;-0.00836142;0.00775137;-0.011211;0.0665359;0.0444434;0.0515679;0;0.0958131;8.92347;2.78772
387000;388;26.6288;0.873853;0.0339295;-2.29446;26.5221;-0.63762;-0.105427;0.860365;-0.663968;-0.0221171;-0.581598;-0.136583;0.59783;-6.21476;-0.00217747;0.000713535;0.01069;0.0107295;-0.00221691;0.00647319;0.203692;4.90938;0.00799506;0.00863092;4.83982;0.206619;75.2121;120.212;0.00530342;-0.00218044;-0.00113513;0.00253866;0.0106896;0.00166559;0.00756719;0;0.0238248;-0.128361;-1.48542;-0.806311;1.69502;-6.85957;-0.00924739;-0.00148227;0.0668102;0.0668391;-0.00927627;0.0380577;0.138413;7.22477;0.0479515;0.0507436;7.20539;0.138785;100.17;145.17;-0.0129016;-0.00930538;0.00857372;-0.0108212;0.0667768;0.0293847;0.0490014;0;0.0987464;8.92016;2.79497
388000;389;26.6644;0.909437;0.0353111;-2.29937;26.5573;-0.640198;-0.110337;0.895605;-0.666546;-0.021827;-0.58014;-0.138975;0.596953;-6.21715;-0.00213225;0.000792855;0.0103757;0.0104258;-0.0021823;0.00630404;0.205504;4.8661;0.00778064;0.00840538;4.77742;0.209318;74.523;119.523;0.0057668;-0.00213532;-0.00103847;0.0026015;0.0103755;0.00167674;0.00930846;0;0.0202375;-0.128688;-1.49376;-0.801863;1.70025;-6.84812;-0.00845978;-0.00168942;0.0679197;0.067957;-0.00849713;0.0382271;0.124556;8.02854;0.0483864;0.0509694;7.99765;0.125037;100.883;145.883;-0.0173914;-0.00853086;0.00940716;-0.0119922;0.0678796;0.0272742;0.0612351;0;0.109796;8.92392;2.79828
389000;390;26.6608;0.905891;0.0351735;-2.29918;26.554;-0.630939;-0.110148;0.892283;-0.657286;-0.0226755;-0.581906;-0.135262;0.59785;-6.21344;-0.00227919;0.000375505;0.0105315;0.0105425;-0.00229019;0.00641636;0.216416;4.62073;0.00790315;0.00855515;4.60335;0.217233;76.8116;121.812;0.00559695;-0.00228139;-0.00139694;0.00212547;0.0105306;0.00200256;0.00799867;0;0.0210616;-0.13079;-1.50388;-0.808561;1.71247;-6.86575;-0.00792402;-0.00308735;0.069353;0.0694761;-0.00804717;0.0387616;0.114256;8.75224;0.0492196;0.0516822;8.63361;0.115826;101.877;146.877;-0.018867;-0.00801395;0.00836294;-0.0137098;0.0693247;0.0288191;0.0494691;0;0.111745;8.92676;2.80286
390000;391;26.6964;0.941431;0.0365534;-2.30185;26.5894;-0.634494;-0.112814;0.92765;-0.660842;-0.02166;-0.579535;-0.140387;0.59669;-6.21856;-0.0023141;0.000535486;0.0103863;0.0104088;-0.00233663;0.00637273;0.222803;4.48827;0.00783511;0.00849697;4.45463;0.224486;75.4585;120.459;0.00585246;-0.00231672;-0.00130338;0.00235123;0.0103856;0.00247228;0.00804897;0;0.0227073;-0.129866;-1.50908;-0.815721;1.72034;-6.86762;-0.00823589;-0.0025415;0.0700577;0.0701401;-0.0083183;0.0392292;0.117559;8.50639;0.0497651;0.0523056;8.43202;0.118596;100.947;145.947;-0.0174634;-0.008313;0.00833882;-0.0126255;0.0700282;0.0348122;0.0311843;0;0.108876;8.9348;2.81038
391000;392;26.6616;0.906602;0.0352011;-2.30267;26.5545;-0.628509;-0.113632;0.892753;-0.654857;-0.0230735;-0.58462;-0.138301;0.601198;-6.21647;-0.00214521;0.000337106;0.0101047;0.010114;-0.00215448;0.00613423;0.212298;4.71035;0.00756379;0.00817897;4.69439;0.21302;76.4759;121.476;0.0058363;-0.00214736;-0.00144482;0.00209742;0.0101037;0.00146425;0.00786613;0;0.0223251;-0.132497;-1.51918;-0.814501;1.72884;-6.86889;-0.00833977;-0.00275655;0.0705653;0.0706615;-0.00843595;0.0395487;0.118185;8.46131;0.0501567;0.0527317;8.37623;0.119385;101.087;146.087;-0.0207312;-0.00841989;0.00819818;-0.0129036;0.0705375;0.0232377;0.0176952;0;0.0993678;8.94464;2.81733
392000;393;26.6855;0.930537;0.0361304;-2.30074;26.5785;-0.6366;-0.111703;0.916759;-0.662948;-0.023498;-0.584162;-0.136535;0.600366;-6.21471;-0.00233459;0.000393643;0.00996487;0.00997745;-0.00234718;0.00616231;0.234282;4.26836;0.00755653;0.00821642;4.25083;0.235248;75.3308;120.331;0.00627376;-0.00233699;-0.00145958;0.0022243;0.00996389;0.000846969;0.00954168;0;0.0225421;-0.1333;-1.52912;-0.818524;1.73953;-6.87696;-0.00925855;-0.00193694;0.0707106;0.0707575;-0.00930544;0.0400314;0.130936;7.63733;0.0505597;0.0533753;7.60388;0.131512;100.151;145.151;-0.0202747;-0.00932417;0.00846948;-0.011566;0.0706788;0.0213872;0.0367661;0;0.101957;8.94554;2.82517
393000;394;26.674;0.919048;0.0356843;-2.30283;26.5663;-0.655607;-0.113801;0.904579;-0.681955;-0.0238978;-0.585449;-0.134387;0.60115;-6.21256;-0.00236693;0.000363059;0.0100364;0.010047;-0.00237755;0.00621226;0.235836;4.24024;0.00761524;0.00828302;4.22577;0.236643;75.7484;120.748;0.00612154;-0.00236921;-0.00145641;0.00216018;0.0100354;0.000902499;0.00768431;0;0.0213016;-0.13447;-1.53823;-0.816473;1.74668;-6.87067;-0.00925283;-0.00218848;0.0705627;0.0706226;-0.00931279;0.0399677;0.131129;7.62606;0.0504732;0.0532903;7.5834;0.131867;100.265;145.265;-0.0111642;-0.00931968;0.00810606;-0.0117153;0.0705342;0.0362876;0.0484134;0;0.0955505;8.95288;2.83219
394000;395;26.6866;0.931599;0.0361716;-2.30167;26.5792;-0.648043;-0.112639;0.917467;-0.674391;-0.0217613;-0.5838;-0.143787;0.60164;-6.22196;-0.0022372;0.000488769;0.0100196;0.0100391;-0.00225666;0.00614785;0.223282;4.47863;0.00755806;0.00819714;4.44864;0.224788;75.3347;120.335;0.00619921;-0.00223969;-0.00132553;0.00228105;0.0100188;0.00123516;0.00976753;0;0.0223336;-0.133682;-1.54801;-0.831563;1.7623;-6.88908;-0.00904454;-0.00277354;0.0737553;0.0738481;-0.00913734;0.0414927;0.122629;8.15468;0.0525434;0.0553236;8.08201;0.123732;100.106;145.106;-0.00879382;-0.00911589;0.00745237;-0.0122107;0.073733;0.0374092;0.0733031;0;0.100892;8.95652;2.83973
395000;396;26.7082;0.953274;0.0370132;-2.30409;26.6007;-0.650296;-0.115057;0.938965;-0.676644;-0.0229587;-0.584895;-0.13731;0.601235;-6.21548;-0.00239358;0.000320958;0.00991173;0.00992009;-0.00240195;0.00616102;0.24149;4.14096;0.00754262;0.00821469;4.13002;0.242129;76.045;121.045;0.00626956;-0.00239566;-0.00144388;0.00206429;0.00991075;0.00137651;0.0100987;0;0.0223657;-0.134906;-1.55745;-0.824646;1.76745;-6.88062;-0.00757922;-0.00300825;0.0747762;0.0748859;-0.00768896;0.0412874;0.101359;9.86594;0.0526743;0.0550499;9.73941;0.102676;100.813;145.813;-0.0188295;-0.00766656;0.0083604;-0.0135054;0.0747479;0.0363099;0.056786;0;0.119159;8.957;2.84577
396000;397;26.7453;0.99033;0.038452;-2.30704;26.6377;-0.649951;-0.118003;0.975924;-0.676299;-0.0238713;-0.586603;-0.135315;0.602481;-6.21349;-0.00240844;0.000221341;0.00971593;0.00971997;-0.00241248;0.00606622;0.247886;4.03411;0.00741611;0.0080883;4.02903;0.248198;75.9444;120.944;0.00690115;-0.00241042;-0.00158041;0.00200146;0.00971471;0.000470199;0.00814285;0;0.0219884;-0.137261;-1.56519;-0.827631;1.77585;-6.88069;-0.00875652;-0.00329659;0.0735321;0.073664;-0.00888838;0.0412762;0.119084;8.39741;0.0523244;0.0550349;8.28767;0.120661;100.834;145.834;-0.0109109;-0.00883867;0.00740814;-0.0131805;0.0735116;0.0206482;0.0584304;0;0.116211;8.95773;2.85309
397000;398;26.714;0.959045;0.0372373;-2.30496;26.6068;-0.636061;-0.115925;0.945029;-0.662409;-0.0238892;-0.588058;-0.127782;0.602255;-6.20596;-0.00242849;0.000153704;0.00998273;0.00998463;-0.0024304;0.00620752;0.24327;4.11067;0.00759726;0.00827669;4.10823;0.243414;77.0116;122.012;0.00676949;-0.00243025;-0.00159016;0.00187614;0.00998149;0.0010463;0.00888538;0;0.0209846;-0.138075;-1.57387;-0.818309;1.77926;-6.87069;-0.00885254;-0.00332226;0.0744598;0.074592;-0.00898482;0.0417884;0.11889;8.41111;0.0529775;0.0557179;8.30201;0.120453;100.751;145.751;-0.0205871;-0.00893543;0.00743076;-0.0132412;0.0744392;0.0340488;0.0259321;0;0.107198;8.95308;2.85994
398000;399;26.7564;1.00144;0.0388833;-2.31238;26.6479;-0.669389;-0.123343;0.986133;-0.695736;-0.0236183;-0.589061;-0.124904;0.602621;-6.20308;-0.0025436;0.00023924;0.00990724;0.00991184;-0.0025482;0.00623002;0.256742;3.89497;0.00760103;0.00830669;3.88974;0.257086;76.028;121.028;0.0066509;-0.0025456;-0.00155447;0.00201084;0.00990607;0.000415061;0.00871978;0;0.0238444;-0.138538;-1.58241;-0.822986;1.789;-6.88021;-0.00953732;-0.00231885;0.0752947;0.075358;-0.00960065;0.0424793;0.126667;7.89475;0.0537256;0.0566391;7.84926;0.127401;99.7459;144.746;-0.0121339;-0.00960602;0.00807628;-0.0118937;0.0752669;0.046347;0.0441415;0;0.108906;8.95674;2.86671
399000;400;26.75;0.995067;0.038636;-2.30908;26.6418;-0.667114;-0.120048;0.980079;-0.693462;-0.0240814;-0.588862;-0.125062;0.602477;-6.20324;-0.00257529;0.00033622;0.00981878;0.0098279;-0.0025844;0.00620615;0.262282;3.81269;0.00756207;0.00827486;3.80277;0.262966;75.4279;120.428;0.0064962;-0.00257745;-0.0014514;0.0021019;0.00981779;0.00162281;0.00853587;0;0.0258941;-0.139528;-1.59373;-0.826551;1.80073;-6.89441;-0.00924923;-0.00229642;0.0758202;0.0758822;-0.00931118;0.0425967;0.121989;8.19746;0.0539603;0.0567956;8.14958;0.122706;99.5042;144.504;-0.0179243;-0.00931582;0.00793029;-0.0117143;0.0757934;0.0347118;0.0478699;0;0.126132;8.96049;2.86964
400000;401;26.7321;0.977148;0.0379402;-2.30681;26.6241;-0.662834;-0.117775;0.962391;-0.689182;-0.023356;-0.588365;-0.12726;0.602424;-6.20543;-0.00251865;0.00033084;0.00989339;0.0099022;-0.00252746;0.00621483;0.254579;3.92805;0.00758563;0.00828644;3.91784;0.255243;76.1607;121.161;0.00711698;-0.00252064;-0.00137686;0.00201755;0.0098925;-0.000229532;0.00982752;0;0.0214368;-0.138956;-1.59836;-0.828145;1.80552;-6.88068;-0.00896786;-0.00222771;0.0777439;0.0778011;-0.00902506;0.0434131;0.115351;8.66917;0.0551226;0.0578841;8.62056;0.116002;99.1734;144.173;-0.0196953;-0.00903361;0.007998;-0.0116305;0.0777165;0.0165127;0.0797298;0;0.109902;8.96805;2.87464
401000;402;26.7798;1.02482;0.0397911;-2.31044;26.6711;-0.686226;-0.121401;1.00935;-0.712574;-0.0243056;-0.589937;-0.127389;0.604024;-6.20556;-0.0025826;0.00036154;0.00985282;0.00986332;-0.0025931;0.00622821;0.262118;3.81508;0.00758905;0.00830428;3.80367;0.262904;75.6597;120.66;0.00733601;-0.0025847;-0.00137855;0.0020802;0.00985194;-0.00123977;0.00886707;0;0.0225475;-0.140794;-1.61219;-0.835489;1.82127;-6.8896;-0.00879896;-0.00199732;0.0788595;0.0789049;-0.00884444;0.0438747;0.111578;8.96237;0.0557856;0.0584996;8.92142;0.11209;98.2723;143.272;-0.014158;-0.00885386;0.00739049;-0.0106222;0.078836;0.0351095;0.0748978;0;0.123134;8.97481;2.88203
402000;403;26.7902;1.03526;0.0401966;-2.31259;26.6815;-0.681485;-0.123555;1.01977;-0.707833;-0.0229393;-0.591073;-0.132313;0.606135;-6.21049;-0.00266816;0.000452476;0.0094789;0.00949573;-0.00268499;0.00609036;0.281484;3.5526;0.0073899;0.00812048;3.5366;0.282758;74.9105;119.91;0.00735966;-0.00267028;-0.0012188;0.00210364;0.00947827;-1.52099e-05;0.00906912;0;0.0287506;-0.140778;-1.61962;-0.844061;1.83179;-6.90752;-0.0082098;-0.00339076;0.0778809;0.0780142;-0.00834314;0.0431787;0.105415;9.48634;0.0550019;0.0575716;9.35071;0.106944;100.661;145.661;-0.0140427;-0.00830071;0.00797647;-0.0138497;0.0778567;0.0278732;0.0779028;0;0.121443;8.97543;2.88978
403000;404;26.7702;1.01526;0.0394202;-2.30991;26.662;-0.669211;-0.12088;1.00023;-0.695559;-0.0255462;-0.590086;-0.130378;0.604857;-6.20855;-0.00254752;0.00011923;0.00950093;0.00950211;-0.0025487;0.00602541;0.268134;3.72948;0.00733346;0.00803388;3.72821;0.268225;76.2677;121.268;0.00716295;-0.00254921;-0.00161847;0.00183619;0.00949964;0.00124859;0.0105634;0;0.0216134;-0.144181;-1.6251;-0.839329;1.83473;-6.89411;-0.00854785;-0.00413653;0.0791994;0.0793939;-0.00874242;0.0440682;0.107928;9.26541;0.0560711;0.0587576;9.08146;0.110114;101.008;146.008;-0.0130384;-0.00864692;0.00726806;-0.0146134;0.0791828;0.0348007;0.0371228;0;0.112297;8.97527;2.89679
404000;405;26.7656;1.01061;0.0392393;-2.31134;26.6572;-0.667406;-0.122304;0.995479;-0.693754;-0.0253341;-0.58898;-0.130789;0.603858;-6.20896;-0.0026047;0.00014622;0.00949074;0.00949251;-0.00260646;0.00604949;0.274446;3.6437;0.0073528;0.00806598;3.64191;0.274581;76.5823;121.582;0.00710462;-0.00260628;-0.00150856;0.00178117;0.00948962;0.000855702;0.00878409;0;0.0324425;-0.143989;-1.6339;-0.845249;1.84521;-6.90132;-0.00932324;-0.00282819;0.0798599;0.0799495;-0.00941284;0.0446812;0.116745;8.56568;0.0566983;0.0595749;8.49366;0.117735;99.6572;144.657;-0.00704449;-0.00940001;0.00788154;-0.0126532;0.0798348;0.0336342;0.0486381;0;0.110467;8.97601;2.90324
405000;406;26.8182;1.06325;0.0412833;-2.31446;26.7095;-0.678306;-0.125423;1.04779;-0.704654;-0.0238671;-0.590383;-0.130777;0.605164;-6.20895;-0.00251383;0.000266224;0.00980615;0.0098119;-0.00251958;0.00616574;0.256353;3.90088;0.00752311;0.00822099;3.89426;0.256788;76.6279;121.628;0.00714098;-0.00251562;-0.00139448;0.00190667;0.00980522;0.00029795;0.00910432;0;0.022555;-0.14359;-1.64458;-0.839449;1.85201;-6.89537;-0.00837778;-0.00320547;0.0804531;0.0805686;-0.0084933;0.0445309;0.104133;9.60315;0.0567557;0.0593746;9.48613;0.105417;99.9168;144.917;-0.0168274;-0.00846137;0.00775918;-0.0132683;0.0804299;0.0347414;0.0622822;0;0.109866;8.97726;2.91046
406000;407;26.7962;1.04129;0.0404308;-2.31201;26.6872;-0.696644;-0.122975;1.02549;-0.722992;-0.0247917;-0.591677;-0.12937;0.606162;-6.20754;-0.00250033;0.000330647;0.00927202;0.0092813;-0.00250961;0.00589545;0.269664;3.70832;0.00717195;0.0078606;3.69831;0.270394;75.102;120.102;0.00744144;-0.00250232;-0.00137988;0.00202122;0.00927113;0.000105419;0.009133;0;0.0236552;-0.144403;-1.65478;-0.854511;1.86798;-6.91321;-0.00791398;-0.00132733;0.0832017;0.083221;-0.00793331;0.0455772;0.095118;10.5133;0.0583053;0.0607696;10.4901;0.0953282;98.2727;143.273;-0.0209891;-0.00797701;0.00951886;-0.011261;0.0831607;0.0296423;0.0887195;0;0.113598;8.98306;2.91738
407000;408;26.8022;1.04725;0.0406621;-2.31213;26.6933;-0.694435;-0.123098;1.03151;-0.720783;-0.0235622;-0.592909;-0.124918;0.606383;-6.20309;-0.00276643;0.000142146;0.00922801;0.00922969;-0.00276811;0.0059989;0.299786;3.33571;0.00725407;0.00799854;3.33429;0.299914;76.7189;121.719;0.00743236;-0.0027678;-0.00139303;0.00165907;0.00922706;-7.09249e-05;0.0103571;0;0.0212585;-0.14533;-1.66164;-0.852433;1.87318;-6.91455;-0.00853347;-0.00414454;0.0823763;0.0825648;-0.00872203;0.0456434;0.103591;9.65331;0.0581689;0.0608579;9.46624;0.105639;100.696;145.696;-0.0062132;-0.00863503;0.00747024;-0.0147833;0.0823584;0.0228789;0.0501114;0;0.120302;8.92664;2.9223
408000;409;26.809;1.05402;0.040925;-2.31248;26.7;-0.694381;-0.123448;1.03828;-0.720728;-0.026273;-0.592861;-0.127715;0.607031;-6.20589;-0.00272412;-6.30615e-05;0.00929059;0.00929092;-0.00272445;0.00600769;0.293213;3.41049;0.0072742;0.00801025;3.4102;0.293238;78.9802;123.98;0.00775431;-0.00272497;-0.00144561;0.00130303;0.00928955;-0.000606323;0.0107579;0;0.0230869;-0.146253;-1.66733;-0.853304;1.8787;-6.90068;-0.00816114;-0.00141128;0.080414;0.0804365;-0.00818362;0.04431;0.101489;9.85328;0.0565499;0.0590801;9.82896;0.10174;97.5749;142.575;-0.0210764;-0.00820961;0.00784256;-0.00990637;0.0803864;0.0240298;0.0478706;0;0.131114;8.99363;2.93241
409000;410;26.8233;1.0684;0.0414831;-2.31284;26.715;-0.672098;-0.123805;1.05325;-0.698446;-0.0268572;-0.593773;-0.12619;0.607628;-6.20436;-0.0026422;1.04181e-05;0.00942889;0.0094289;-0.00264221;0.00603556;0.280224;3.56857;0.00732723;0.00804741;3.56856;0.280225;79.9471;124.947;0.00710612;-0.00264298;-0.00123705;0.00124297;0.00942813;0.000764315;0.0105874;0;0.0209423;-0.149103;-1.68019;-0.849372;1.88858;-6.90692;-0.00855908;-0.0033493;0.082872;0.0829946;-0.00868161;0.0458381;0.103281;9.68235;0.0584389;0.0611174;9.55981;0.104605;98.8723;143.872;-0.0182171;-0.00862898;0.00636145;-0.0122399;0.0828585;0.0269155;0.067826;0;0.124028;8.98917;2.93999
410000;411;26.8125;1.05753;0.0410613;-2.31464;26.7036;-0.686656;-0.12561;1.04182;-0.713004;-0.0272145;-0.593777;-0.123196;0.607032;-6.20137;-0.00267341;-0.000206279;0.00874163;0.00874535;-0.00267713;0.00571124;0.305825;3.26984;0.00689801;0.00761499;3.26669;0.306121;79.999;124.999;0.00765202;-0.00267391;-0.00144764;0.00102103;0.00874061;0.000766144;0.0118517;0;0.0240164;-0.149877;-1.68516;-0.852316;1.89438;-6.9048;-0.00848517;-0.0034842;0.0838462;0.0839775;-0.00861646;0.046297;0.101199;9.88151;0.059067;0.0617293;9.74618;0.102604;100.204;145.204;-0.0125938;-0.00858186;0.00831601;-0.0142788;0.0838199;0.0305705;0.0425615;0;0.112526;8.97481;2.94455
411000;412;;;;;;;;;;-0.025304;-0.596885;-0.115969;0.608572;-6.19414;-0.00276567;1.9643e-05;0.00926475;0.00926478;-0.00276571;0.00601524;0.298516;3.34991;0.0072758;0.00802032;3.34988;0.298518;80.212;125.212;0.00766657;-0.00276635;-0.00113482;0.00116035;0.00926411;-0.000375164;0.0106504;0;0.0221971;-0.149575;-1.69853;-0.850869;1.90561;-6.91414;-0.00771557;-0.00254765;0.0859738;0.086043;-0.0077848;0.0469139;0.0897433;11.1429;0.0601252;0.0625519;11.0527;0.0904756;98.838;143.838;-0.00636766;-0.00779291;0.00850645;-0.0126478;0.0859435;0.0286966;0.0455524;0;0.110255;8.99273;2.94905
412000;413;26.8411;1.08617;0.0421731;-2.31646;26.7314;-0.715276;-0.127426;1.06966;-0.741624;-0.0265022;-0.596978;-0.118503;0.609203;-6.19668;-0.00284213;-0.000347247;0.00875245;0.00876284;-0.00285252;0.00580768;0.324724;3.07954;0.00698953;0.00774357;3.07197;0.325524;81.9029;126.903;0.00707157;-0.00284232;-0.00141024;0.000703524;0.00875153;0.000428697;0.0107299;0;0.0214358;-0.15184;-1.7049;-0.859988;1.91555;-6.91511;-0.00823423;-0.00416362;0.0861262;0.0863096;-0.00841759;0.0473636;0.0956066;10.4595;0.060541;0.0631515;10.2535;0.0975279;100.674;145.674;-0.010812;-0.00834632;0.00823069;-0.0154806;0.086103;0.012933;0.0446338;0;0.117485;8.98188;2.95539
413000;414;26.85;1.09501;0.0425164;-2.31687;26.7404;-0.711299;-0.127839;1.07861;-0.737646;-0.0257313;-0.597134;-0.119985;0.609613;-6.19816;-0.00282;-0.000393583;0.00868953;0.00870297;-0.00283344;0.00576821;0.324528;3.08139;0.00694197;0.00769095;3.07152;0.325572;82.5798;127.58;0.00774697;-0.0028201;-0.0013988;0.000600165;0.00868864;-0.000240247;0.0107222;0;0.021045;-0.151249;-1.71612;-0.868576;1.92934;-6.93734;-0.00760006;-0.00236133;0.0892967;0.0893542;-0.00765757;0.0485059;0.0851102;11.7495;0.0622791;0.0646745;11.6687;0.085699;98.512;143.512;-0.0154109;-0.00767797;0.00894069;-0.0126578;0.0892625;0.0315528;0.0636321;0;0.112639;8.99356;2.96165
414000;415;26.8619;1.1069;0.0429781;-2.3173;26.7523;-0.710632;-0.128262;1.09053;-0.73698;-0.0263947;-0.598721;-0.11893;0.610989;-6.1971;-0.00278519;-0.000448375;0.00855317;0.00857088;-0.00280289;0.00568688;0.325632;3.07095;0.00684233;0.00758251;3.05787;0.327025;83.3294;128.329;0.00762637;-0.0027852;-0.00138593;0.000478643;0.00855232;-0.000188553;0.0113564;0;0.0214055;-0.151421;-1.72132;-0.862087;1.93108;-6.90888;-0.00854928;-0.00493483;0.0875292;0.087782;-0.00880208;0.048292;0.0976735;10.2382;0.0616651;0.0643894;9.97287;0.100272;101.342;146.342;-0.0190421;-0.00867919;0.00807051;-0.0167905;0.0875104;0.0352313;0.0385494;0;0.122022;8.99702;2.96869
415000;416;;;;;;;;;;-0.0246444;-0.601771;-0.105996;0.611532;-6.18417;-0.00290132;-0.000351361;0.00849171;0.00850253;-0.00291215;0.00570734;0.341665;2.92684;0.00684866;0.00760979;2.91968;0.342503;82.6876;127.688;0.0076486;-0.00290142;-0.00127583;0.00056266;0.00849096;-0.000350388;0.0111633;0;0.0225335;-0.15052;-1.73266;-0.855619;1.93826;-6.9087;-0.00793687;-0.00248856;0.0870256;0.0870908;-0.00800203;0.0475464;0.0912015;10.9647;0.0609033;0.0633952;10.8836;0.0918815;98.6296;143.63;-0.0289798;-0.00801213;0.00844971;-0.012471;0.0869956;0.0332405;0.0461643;0;0.125641;8.99653;2.97557
416000;417;26.875;1.12006;0.0434892;-2.32118;26.7652;-0.710049;-0.132149;1.10343;-0.736397;-0.0244844;-0.599856;-0.117978;0.611838;-6.19615;-0.00310548;-0.000306159;0.0082506;0.00825885;-0.00311372;0.00568629;0.376394;2.65679;0.00678625;0.00758172;2.6524;0.377017;82.7069;127.707;0.00742272;-0.00310556;-0.00113268;0.000511054;0.00825001;7.55423e-05;0.0107054;0;0.0209637;-0.152642;-1.74375;-0.873547;1.95629;-6.9349;-0.00895359;-0.00330728;0.0882682;0.0883806;-0.00906597;0.0487233;0.101436;9.85842;0.0621632;0.0649644;9.74862;0.102579;98.7763;143.776;-0.00708566;-0.00903165;0.00719441;-0.0128705;0.0882495;0.0315346;0.0397304;0;0.117381;8.99708;2.98341
417000;418;;;;;;;;;;-0.0239383;-0.599896;-0.117585;0.61178;-6.19576;-0.00322493;-0.000546782;0.00836656;0.0083923;-0.00325067;0.00582148;0.385455;2.59434;0.00693712;0.00776198;2.58172;0.387339;85.7143;130.714;0.0069496;-0.00322479;-0.00119129;9.03178e-05;0.00836601;0.000707846;0.011159;0;0.0312586;-0.152675;-1.75169;-0.873158;1.96319;-6.93183;-0.00884475;-0.00318278;0.0913065;0.0914075;-0.00894579;0.0501767;0.0968688;10.3232;0.0641286;0.0669022;10.2179;0.0978671;99.6315;144.632;-0.00381404;-0.00894763;0.00942297;-0.0146313;0.0912704;0.0254221;0.0595482;0;0.115514;8.99347;2.99056
418000;419;26.9236;1.1686;0.0453739;-2.32424;26.8132;-0.727794;-0.135211;1.15143;-0.754142;-0.0252324;-0.601134;-0.113308;0.612239;-6.19148;-0.00320208;-0.000506601;0.00838677;0.00840887;-0.00322419;0.00581653;0.381802;2.61916;0.00693514;0.00775537;2.60806;0.383427;85.8192;130.819;0.00724388;-0.00320196;-0.0011274;0.000107062;0.00838627;-0.000356317;0.0119492;0;0.0215354;-0.154131;-1.7631;-0.869888;1.97205;-6.92597;-0.0089997;-0.00299403;0.0916107;0.0916997;-0.00908872;0.0503942;0.0982386;10.1793;0.0643769;0.0671923;10.0894;0.099114;98.9171;143.917;-0.0171564;-0.00908768;0.00862265;-0.0135397;0.0915807;0.0301233;0.0338173;0;0.117948;8.99338;2.99839
419000;420;26.9016;1.14666;0.044522;-2.32129;26.7916;-0.721079;-0.13226;1.12983;-0.747427;-0.0246772;-0.596782;-0.124937;0.610219;-6.20311;-0.00316202;-0.000486687;0.00792207;0.0079434;-0.00318334;0.00556337;0.39914;2.50539;0.00661708;0.00741783;2.4953;0.400754;84.542;129.542;0.00772963;-0.00316192;-0.00117166;0.000190753;0.0079215;-0.00137965;0.0117646;0;0.0231937;-0.153881;-1.76517;-0.890202;1.98292;-6.94613;-0.00829895;-0.00341482;0.0933114;0.0934261;-0.00841359;0.0509198;0.0889382;11.2438;0.0652696;0.0678931;11.1042;0.0900561;99.8916;144.892;-0.0122759;-0.0084138;0.00987989;-0.0154735;0.0932721;0.0257559;0.0438061;0;0.112192;9.00382;3.00584
420000;421;26.9068;1.15188;0.0447245;-2.32414;26.7958;-0.748396;-0.135102;1.13407;-0.774744;-0.0253756;-0.601375;-0.116685;0.613116;-6.19486;-0.00321051;-0.000576113;0.00765389;0.00768436;-0.00324098;0.00546267;0.419461;2.38401;0.0064793;0.00728356;2.371;0.421763;84.5943;129.594;0.00802039;-0.00321035;-0.00125486;9.53201e-05;0.00765328;-0.00106627;0.0135606;0;0.0302097;-0.155206;-1.78462;-0.891984;2.00115;-6.96768;-0.0091911;-0.00274899;0.0939021;0.0939753;-0.00926435;0.0516198;0.0978796;10.2166;0.0659556;0.0688265;10.1438;0.0985828;98.1699;143.17;-0.0205447;-0.00926831;0.00820572;-0.012671;0.0938748;0.0401733;0.0588524;0;0.124208;9.0006;3.01369
421000;422;26.9023;1.14736;0.044549;-2.32101;26.7922;-0.724691;-0.131979;1.13046;-0.751039;-0.0262547;-0.602139;-0.112187;0.613063;-6.19036;-0.00361683;-0.00102129;0.0078387;0.00792903;-0.00370717;0.0058181;0.461407;2.16728;0.00686398;0.00775747;2.13884;0.467544;90.2021;135.202;0.00741415;-0.00361653;-0.00138517;-0.000661539;0.00783826;-0.000132892;0.0121378;0;0.0207331;-0.155331;-1.78793;-0.883917;2.00053;-6.9477;-0.00874927;-0.000183082;0.0945101;0.0945104;-0.0087496;0.05163;0.092575;10.802;0.0661167;0.06884;10.8017;0.0925781;95.6824;140.682;-0.0290809;-0.00878636;0.00908491;-0.0085767;0.0944724;0.032598;0.0363598;0;0.108112;8.99878;3.01947
422000;423;26.9246;1.16965;0.0454144;-2.32344;26.8142;-0.729649;-0.134411;1.15249;-0.755997;-0.0256772;-0.602287;-0.112951;0.613325;-6.19112;-0.00331337;-0.000631003;0.0071358;0.00717377;-0.00335133;0.00526255;0.46433;2.15364;0.00620882;0.00701674;2.14057;0.467165;83.3627;128.363;0.00795998;-0.00331317;-0.00133783;6.84868e-05;0.00713511;-0.00106935;0.0122084;0;0.0205567;-0.156859;-1.79781;-0.887476;2.01106;-6.95228;-0.00894317;-0.00179508;0.096179;0.0962096;-0.00897381;0.0525917;0.0929846;10.7545;0.0673307;0.0701223;10.7212;0.0932735;97.6396;142.64;-0.0248233;-0.00901474;0.00954184;-0.0120446;0.0961389;0.0448544;0.067134;0;0.117445;8.99697;3.02494
423000;424;;;;;;;;;;-0.0257989;-0.601681;-0.113587;0.612852;-6.19176;-0.00334851;-0.000651489;0.00796579;0.00800318;-0.0033859;0.00569454;0.420362;2.3789;0.00675321;0.00759272;2.36368;0.42307;86.2785;131.278;0.00779884;-0.0033483;-0.00123226;-7.72393e-05;0.00796525;-0.000977582;0.0112659;0;0.0218669;-0.158626;-1.80305;-0.889555;2.01679;-6.94922;-0.00887482;-0.00352296;0.0957317;0.0958502;-0.00899334;0.0524218;0.0927052;10.7869;0.0670991;0.0698957;10.6579;0.093827;99.3297;144.33;-0.0134917;-0.00898083;0.00907455;-0.0149174;0.0956997;0.0433055;0.0514311;0;0.114043;8.99673;3.02877
424000;425;26.9726;1.21768;0.0472793;-2.33086;26.8614;-0.743484;-0.141821;1.1997;-0.769832;-0.0252949;-0.603031;-0.111532;0.613779;-6.18971;-0.00333956;-0.000767051;0.00733883;0.00739364;-0.00339438;0.00539401;0.455054;2.19754;0.00636953;0.00719202;2.1782;0.459094;85.8782;130.878;0.00768641;-0.00333928;-0.00136067;-0.000179725;0.0073382;8.41999e-05;0.0130644;0;0.0219774;-0.158587;-1.81287;-0.896085;2.02845;-6.9597;-0.00756909;-0.00305547;0.0947222;0.0948134;-0.00766028;0.0512368;0.0799083;12.5143;0.0659109;0.0683158;12.3773;0.0807932;98.8122;143.812;-0.0110438;-0.0076634;0.00903761;-0.0140182;0.0946892;0.033432;0.0547658;0;0.11603;9.00047;3.03516
425000;426;26.977;1.22203;0.0474485;-2.33288;26.8652;-0.760232;-0.143849;1.20343;-0.78658;-0.0255677;-0.603103;-0.111778;0.613906;-6.18995;-0.00337492;-0.000670431;0.00724548;0.00728764;-0.00341707;0.00535235;0.465796;2.14686;0.0063136;0.00713647;2.13271;0.468886;85.7329;130.733;0.00776799;-0.0033747;-0.0012195;-0.000127154;0.00724497;0.000417413;0.0121536;0;0.0233141;-0.159993;-1.82225;-0.898935;2.0382;-6.95899;-0.00939028;-0.00368151;0.0972294;0.0973564;-0.00951725;0.0534368;0.0965786;10.3543;0.0682981;0.0712491;10.2295;0.0977568;98.6067;143.607;-0.0174076;-0.00948165;0.0076913;-0.0139488;0.0972086;0.0207727;0.0458508;0;0.119862;9.00637;3.04277
426000;427;26.9566;1.20167;0.0466579;-2.32774;26.8455;-0.748517;-0.138711;1.18376;-0.774864;-0.0261624;-0.60301;-0.113104;0.614083;-6.19128;-0.00341811;-0.000680483;0.00776679;0.00780804;-0.00345936;0.0056337;0.440093;2.27225;0.00666478;0.0075116;2.25708;0.443051;87.0107;132.011;0.00796686;-0.0034179;-0.00118302;-0.000183523;0.00776633;-0.00113365;0.0113049;0;0.0226647;-0.160446;-1.83386;-0.905541;2.05153;-6.97954;-0.00827838;-0.00288387;0.0997074;0.0997844;-0.00835534;0.0540699;0.0830267;12.0443;0.0694757;0.0720932;11.9426;0.0837339;98.004;143.004;-0.0265485;-0.00836366;0.0086911;-0.0133219;0.0996769;0.0457635;0.0567414;0;0.118368;9.00497;3.05
427000;428;26.9677;1.21274;0.0470874;-2.32445;26.8567;-0.757033;-0.135416;1.19491;-0.78338;-0.0275609;-0.604933;-0.112572;0.615935;-6.19075;-0.00386244;-0.00110379;0.00768978;0.0077943;-0.00396696;0.00588063;0.502283;1.99091;0.00690918;0.00784084;1.9648;0.508957;90.5044;135.504;0.00809129;-0.00386213;-0.00143722;-0.000774175;0.00768936;-0.000702512;0.0132083;0;0.026121;-0.16281;-1.84501;-0.905547;2.06169;-6.97523;-0.00770753;-0.00343021;0.0990065;0.0991166;-0.00781767;0.0534671;0.0778487;12.8454;0.0688318;0.0712895;12.6785;0.0788735;98.9013;143.901;-0.017203;-0.00781264;0.00921246;-0.0148448;0.0989732;0.0207845;0.0409204;0;0.120682;9.01525;3.05751
428000;429;26.9602;1.20525;0.0467967;-2.32409;26.8495;-0.743624;-0.135059;1.1878;-0.769972;-0.0270447;-0.608025;-0.102704;0.617231;-6.18088;-0.00383494;-0.000938956;0.00765411;0.00773034;-0.00391117;0.00582076;0.50103;1.99589;0.00684073;0.00776101;1.97648;0.505951;87.9943;132.994;0.00718292;-0.00383462;-0.00139364;-0.000489453;0.00765359;0.000181831;0.0108268;0;0.0240033;-0.162525;-1.85198;-0.895201;2.0634;-6.95491;-0.00844393;-0.0027676;0.101749;0.101818;-0.0085134;0.0551658;0.082988;12.0499;0.0708872;0.0735544;11.9598;0.0836137;98.4867;143.487;-0.0218689;-0.00854466;0.0101602;-0.014402;0.101705;0.0402196;0.0665093;0;0.116628;9.01441;3.06499
429000;430;;;;;;;;;;-0.0279517;-0.606763;-0.106269;0.616633;-6.18444;-0.003797;-0.00117763;0.00744762;0.00756963;-0.00391901;0.00574432;0.509828;1.96145;0.00674367;0.00765909;1.93151;0.517728;90.5261;135.526;0.00760439;-0.00379666;-0.00152769;-0.000831477;0.00744715;-0.000321314;0.0112879;0;0.0213438;-0.165154;-1.85839;-0.901753;2.07221;-6.95697;-0.00952084;-0.00389142;0.100134;0.100272;-0.00965876;0.0549652;0.0950812;10.5173;0.0702889;0.073287;10.3814;0.0963259;99.3725;144.372;-0.0141503;-0.00963715;0.00919151;-0.0156698;0.100102;0.0275577;0.0675159;0;0.121657;9.00749;3.0726
430000;431;27.0224;1.26745;0.049212;-2.33707;26.91;-0.77535;-0.148032;1.24824;-0.801698;-0.0277597;-0.608261;-0.10385;0.617687;-6.18202;-0.00373616;-0.00127751;0.00763886;0.00778057;-0.00387787;0.00582922;0.489099;2.04458;0.00685557;0.0077723;2.0064;0.498404;91.5583;136.558;0.00739463;-0.0037358;-0.00160807;-0.000950677;0.00763839;0.000437331;0.0109611;0;0.0348953;-0.166248;-1.87284;-0.914573;2.09084;-6.98318;-0.00836295;-0.00408761;0.103108;0.103258;-0.00851264;0.0558851;0.0811088;12.3291;0.0718442;0.0745134;12.1299;0.0824409;98.2817;143.282;-0.0172399;-0.00845909;0.00738532;-0.0144008;0.103091;0.0327262;0.0577098;0;0.117258;9.004;3.07979
431000;432;27.0008;1.24582;0.0483721;-2.32907;26.8894;-0.759042;-0.140038;1.22768;-0.78539;-0.0269859;-0.605859;-0.107155;0.615854;-6.18533;-0.00373081;-0.00114553;0.0075349;0.0076502;-0.00384611;0.00574816;0.495137;2.01964;0.00675744;0.00766421;1.98907;0.502746;89.6501;134.65;0.00734145;-0.00373042;-0.00155972;-0.00073598;0.00753435;-8.0757e-05;0.0116929;0;0.0246381;-0.164318;-1.87964;-0.916479;2.09762;-6.98173;-0.00844367;-0.00274533;0.103879;0.103946;-0.00851073;0.0562283;0.0812838;12.3026;0.0723013;0.0749711;12.2135;0.0818765;97.1844;142.184;-0.0150106;-0.00851792;0.00804955;-0.0124415;0.103853;0.0243001;0.0530347;0;0.119119;9.00906;3.08683
432000;433;27.0353;1.28039;0.0497145;-2.33558;26.9228;-0.786444;-0.146549;1.26105;-0.812792;-0.0260671;-0.609281;-0.098577;0.617754;-6.17675;-0.0039223;-0.00104699;0.00740463;0.0075006;-0.00401827;0.00575943;0.529709;1.88783;0.00675096;0.00767924;1.86663;0.535726;89.8488;134.849;0.00826322;-0.00392201;-0.00138086;-0.00071688;0.00740423;-0.00193515;0.0117499;0;0.0290095;-0.164738;-1.88577;-0.91318;2.10171;-6.9779;-0.00766154;-0.00411673;0.102583;0.102736;-0.00781505;0.0552756;0.0746866;13.3893;0.0712388;0.0737008;13.1459;0.0760692;99.3015;144.302;-0.0215336;-0.00778472;0.00927388;-0.0161679;0.102551;0.0205357;0.0458233;0;0.125632;9.00494;3.09206
433000;434;27.0133;1.25835;0.0488584;-2.32988;26.9013;-0.782658;-0.14085;1.23951;-0.809006;-0.0269068;-0.609799;-0.09865;0.618313;-6.17682;-0.0039569;-0.00109794;0.00757622;0.00767982;-0.0040605;0.00587016;0.522279;1.91469;0.0068848;0.00782687;1.89135;0.528723;90.7986;135.799;0.00796874;-0.00395662;-0.00139271;-0.000806547;0.00757586;-0.00114993;0.012173;0;0.0219589;-0.166079;-1.90064;-0.919221;2.11778;-6.99485;-0.00855116;-0.00217015;0.105281;0.105322;-0.00859252;0.0569574;0.0812223;12.3119;0.0732472;0.0759432;12.2574;0.0815831;96.9237;141.924;-0.0225952;-0.00862237;0.00887661;-0.012079;0.105247;0.0406062;0.0601788;0;0.121631;9.00531;3.0954
434000;435;27.0232;1.26826;0.0492435;-2.33016;26.9112;-0.783712;-0.141125;1.24941;-0.81006;-0.0279863;-0.609927;-0.0988023;0.618511;-6.17698;-0.00401942;-0.00131552;0.00785074;0.00799478;-0.00416347;0.00607913;0.51198;1.9532;0.0071348;0.0081055;1.92022;0.520773;90.7252;135.725;0.00775516;-0.004019;-0.00169248;-0.000943001;0.00785018;-1.4704e-05;0.0108724;0;0.0221612;-0.16757;-1.90637;-0.918478;2.12272;-6.9855;-0.00881301;-0.00220043;0.109145;0.109186;-0.00885405;0.0590203;0.0807456;12.3846;0.0759146;0.0786937;12.3318;0.0810911;97.6979;142.698;-0.0254626;-0.00890851;0.0109292;-0.0139334;0.109094;0.0435236;0.068787;0;0.12709;9.01152;3.10158
435000;436;27.0134;1.25841;0.0488608;-2.33165;26.9015;-0.770643;-0.14262;1.23977;-0.796991;-0.0278991;-0.610636;-0.100438;0.619469;-6.17861;-0.0039284;-0.00117079;0.00780374;0.00791943;-0.00404409;0.00598176;0.503399;1.98649;0.0070269;0.00797568;1.95827;0.510654;92.0736;137.074;0.00736704;-0.00392814;-0.00141542;-0.000929017;0.00780342;0.000188753;0.010948;0;0.0221987;-0.168132;-1.91259;-0.920238;2.12911;-6.98152;-0.00904464;-0.00172741;0.106771;0.106797;-0.0090704;0.0579335;0.0847108;11.8049;0.0744057;0.0772447;11.7742;0.0849315;97.1746;142.175;-0.0234661;-0.00912324;0.0104163;-0.0126002;0.106723;0.0397361;0.0658085;0;0.117275;9.01491;3.10817
436000;437;27.0732;1.31823;0.0511836;-2.33972;26.96;-0.801163;-0.150682;1.29825;-0.827511;-0.0283084;-0.610845;-0.0978536;0.61928;-6.17603;-0.00380457;-0.00104601;0.00716314;0.007262;-0.00390344;0.00558272;0.531132;1.88277;0.00654286;0.00744363;1.86041;0.537516;87.7554;132.755;0.00820085;-0.0038042;-0.00150835;-0.000588694;0.00716255;-0.00123742;0.0115898;0;0.0258427;-0.17018;-1.92669;-0.922797;2.14305;-6.98496;-0.00883123;-0.00442572;0.108661;0.108827;-0.0089977;0.0589125;0.0812734;12.3042;0.0757291;0.07855;12.095;0.0826787;98.8856;143.886;-0.0150644;-0.00895515;0.00884121;-0.0162861;0.108634;0.0280249;0.0949091;0;0.124826;9.03775;3.12252
437000;438;27.0528;1.29785;0.0503923;-2.33601;26.9407;-0.770517;-0.146981;1.279;-0.796864;-0.0274748;-0.610305;-0.0999056;0.619038;-6.17808;-0.00397549;-0.00111409;0.00820119;0.00830229;-0.00407658;0.00618943;0.484746;2.06294;0.00728443;0.00825258;2.03658;0.49102;90.7266;135.727;0.00803373;-0.00397518;-0.0014483;-0.000783912;0.00820077;-0.0001337;0.0111083;0;0.0205476;-0.169706;-1.94131;-0.934916;2.16137;-7.01244;-0.00785351;-0.00277725;0.109827;0.109892;-0.00791902;0.0589055;0.0715083;13.9844;0.0760386;0.0785407;13.877;0.0720618;97.4204;142.42;-0.0153679;-0.00794381;0.00940803;-0.0136702;0.10979;0.0249236;0.0565881;0;0.118017;8.99939;3.12826
438000;439;27.0549;1.29992;0.0504725;-2.33721;26.9421;-0.792183;-0.148172;1.28034;-0.818531;-0.0289636;-0.610991;-0.0954504;0.61908;-6.17362;-0.00408504;-0.00148436;0.00810296;0.00828113;-0.00426321;0.00627217;0.504142;1.98357;0.00736528;0.0083629;1.94246;0.514811;92.7779;137.778;0.00749955;-0.00408466;-0.00177381;-0.0011984;0.00810249;0.000360989;0.0116751;0;0.0221307;-0.171885;-1.94687;-0.933038;2.16574;-7.0067;-0.00860056;-0.00211517;0.113284;0.11332;-0.00863726;0.0609788;0.0759206;13.1717;0.0785843;0.081305;13.1199;0.0762198;96.3822;141.382;-0.0162381;-0.00867095;0.0089865;-0.0120012;0.113249;0.0277774;0.0757439;0;0.130559;8.98947;3.13108
439000;440;27.0616;1.30668;0.0507352;-2.33663;26.9488;-0.797192;-0.147601;1.28704;-0.823539;-0.0277319;-0.609682;-0.098789;0.618256;-6.17696;-0.00390841;-0.00114174;0.00795092;0.00805984;-0.00401733;0.00603858;0.491567;2.03431;0.00710177;0.00805144;2.00627;0.498437;91.6311;136.631;0.00817578;-0.00390813;-0.0014149;-0.000871787;0.00795057;-0.00116085;0.010669;0;0.0216137;-0.170926;-1.95128;-0.93875;2.17208;-7.0092;-0.00894443;-0.00310619;0.113628;0.113707;-0.00902309;0.0613649;0.0787168;12.7038;0.0789841;0.0818198;12.6017;0.0793541;97.6114;142.611;-0.0225356;-0.00904492;0.00964178;-0.0144507;0.113591;0.0234586;0.0652171;0;0.14138;8.98456;3.13778
440000;441;27.0696;1.31469;0.0510462;-2.3363;26.9567;-0.803397;-0.147265;1.29492;-0.829745;-0.0275811;-0.612203;-0.0965647;0.620385;-6.17474;-0.00417003;-0.00145814;0.00782286;0.0079976;-0.00434477;0.00617118;0.533057;1.87597;0.00722915;0.00822824;1.84074;0.543259;93.0756;138.076;0.00818318;-0.00416971;-0.00170099;-0.00121817;0.00782248;-0.000919274;0.0124604;0;0.0210277;-0.171947;-1.95746;-0.941102;2.17874;-7.00619;-0.00946561;-0.00407332;0.113468;0.113603;-0.00960043;0.0616018;0.0834207;11.9874;0.0791299;0.0821357;11.8331;0.0845085;99.0592;144.059;-0.0182519;-0.00960746;0.0107403;-0.0172507;0.113424;0.0355953;0.0686285;0;0.125328;8.9935;3.1431
441000;442;27.0813;1.32631;0.0514971;-2.33592;26.9684;-0.800835;-0.146887;1.3067;-0.827183;-0.0282574;-0.613824;-0.0906724;0.621128;-6.16885;-0.00428834;-0.00143628;0.00814995;0.00831365;-0.00445203;0.00638284;0.526179;1.90049;0.00748183;0.00851046;1.86738;0.535509;93.8975;138.898;0.00859355;-0.0042881;-0.00161375;-0.00126101;0.00814968;-0.00213869;0.0102929;0;0.0215183;-0.172549;-1.97052;-0.940316;2.19019;-7.01382;-0.00914998;-0.00067378;0.114628;0.114632;-0.00915365;0.0618928;0.0798231;12.5277;0.079648;0.0825237;12.5231;0.0798526;95.5191;140.519;-0.0201759;-0.00920315;0.0101402;-0.0102868;0.114582;0.0312302;0.0768124;0;0.128395;9.01165;3.15106
442000;443;27.0685;1.31351;0.0510001;-2.33689;26.9556;-0.797269;-0.147852;1.29387;-0.823617;-0.0276823;-0.613854;-0.091781;0.621294;-6.16995;-0.00433865;-0.00135411;0.00812397;0.0082694;-0.00448408;0.00637674;0.534056;1.87246;0.00747055;0.00850232;1.84417;0.54225;92.5587;137.559;0.00860931;-0.00433836;-0.00159321;-0.00111796;0.00812362;-0.00149412;0.00961682;0;0.0231439;-0.172818;-1.97241;-0.940554;2.19201;-6.99783;-0.0100533;-0.00321725;0.114424;0.114507;-0.0101364;0.0623217;0.0878598;11.3818;0.0799314;0.0830957;11.2967;0.0885217;97.1408;142.141;-0.0168879;-0.0101411;0.00843973;-0.0135719;0.114397;0.00851367;0.0543949;0;0.139862;9.01898;3.15881
443000;444;27.1317;1.3767;0.0534539;-2.34352;27.018;-0.814732;-0.154485;1.35623;-0.84108;-0.027813;-0.61425;-0.0918977;0.621708;-6.17007;-0.00404338;-0.00122127;0.00763649;0.00776283;-0.00416971;0.00596627;0.529481;1.88864;0.00699259;0.00795502;1.86172;0.537138;90.3955;135.395;0.00884679;-0.00404301;-0.00157385;-0.000872781;0.00763601;-0.00178469;0.0106215;0;0.0232873;-0.173996;-1.98874;-0.946857;2.2095;-7.01822;-0.00880939;-0.0026852;0.118393;0.11845;-0.00886604;0.063658;0.0744077;13.4395;0.0820818;0.0848774;13.36;0.0748505;96.5918;141.592;-0.0275986;-0.00889129;0.00897847;-0.013022;0.118361;0.0454529;0.0425594;0;0.142867;9.02626;3.16734
444000;445;27.1062;1.35122;0.0524644;-2.33876;26.9929;-0.811273;-0.149731;1.33116;-0.83762;-0.0285632;-0.614668;-0.091913;0.622158;-6.17009;-0.00431818;-0.00148826;0.00794233;0.0081204;-0.00449625;0.00630833;0.543692;1.83928;0.00738372;0.0084111;1.80604;0.553698;92.2434;137.243;0.0081896;-0.00431779;-0.00178275;-0.00119735;0.00794186;-0.000407185;0.0106482;0;0.0223909;-0.175319;-1.99718;-0.949888;2.2185;-7.01499;-0.0100014;-0.00298244;0.119047;0.119115;-0.0100703;0.0645929;0.0840128;11.9029;0.0829711;0.0861239;11.8284;0.0845426;96.9519;141.952;-0.0194325;-0.0100923;0.00917527;-0.0137378;0.119013;0.0370512;0.0678311;0;0.137041;9.02558;3.17512
445000;446;27.1106;1.35567;0.0526372;-2.34223;26.9967;-0.824831;-0.153199;1.33491;-0.851178;-0.0270361;-0.61281;-0.0904017;0.620032;-6.16858;-0.00437922;-0.00133204;0.00776861;0.00791296;-0.00452357;0.00621826;0.563707;1.77397;0.00726857;0.00829102;1.74927;0.571666;92.3746;137.375;0.00892553;-0.00437895;-0.00156054;-0.0011063;0.00776828;-0.0016729;0.011658;0;0.0239393;-0.174529;-2.00627;-0.95624;2.22934;-7.02555;-0.0083646;-0.00343018;0.121585;0.121676;-0.00845508;0.0650655;0.068796;14.5357;0.0840775;0.086754;14.3909;0.0694885;98.1049;143.105;-0.0297454;-0.00849769;0.0114714;-0.0166046;0.121532;0.0290546;0.0644355;0;0.124994;9.00175;3.18265
446000;447;27.1534;1.39847;0.0542992;-2.34633;27.0386;-0.847038;-0.157297;1.37686;-0.873386;-0.0274244;-0.615329;-0.0822294;0.621404;-6.1604;-0.00448275;-0.00151095;0.00769518;0.00787985;-0.00466742;0.00627364;0.58254;1.71662;0.00732289;0.00836485;1.68827;0.592323;93.7804;138.78;0.00807104;-0.0044825;-0.00169181;-0.00133228;0.0076949;0.000999029;0.010659;0;0.0306139;-0.176482;-2.01485;-0.951943;2.23539;-7.0217;-0.00841161;-0.00342242;0.123118;0.123207;-0.0085006;0.0658538;0.0683215;14.6367;0.0851131;0.0878051;14.4939;0.0689945;97.8424;142.842;-0.0341091;-0.00853908;0.0111223;-0.0162633;0.123068;0.0475274;0.064016;0;0.14129;8.99368;3.18652
447000;448;27.1318;1.37684;0.0534591;-2.3401;27.0178;-0.833485;-0.151069;1.35609;-0.859833;-0.0294411;-0.615379;-0.0873356;0.622242;-6.16551;-0.00456377;-0.00162488;0.00777515;0.00798554;-0.00477416;0.00637985;0.586969;1.70367;0.00744418;0.00850646;1.67266;0.59785;94.4768;139.477;0.00833429;-0.00456352;-0.00178929;-0.00146247;0.00777487;0.000487818;0.0124535;0;0.0232546;-0.178361;-2.02375;-0.957741;2.24603;-7.02448;-0.00825463;-0.00436897;0.122956;0.123102;-0.00839994;0.0657508;0.0671347;14.8954;0.0850062;0.0876677;14.6551;0.0682359;98.2424;143.242;-0.0203201;-0.0083938;0.0101364;-0.0171788;0.122919;0.0321295;0.0554381;0;0.141001;8.99145;3.1905
448000;449;27.139;1.38402;0.0537382;-2.34181;27.0248;-0.835787;-0.152772;1.36309;-0.862134;-0.0288949;-0.616098;-0.0845392;0.622542;-6.16271;-0.00440646;-0.001549;0.00786318;0.00805571;-0.00459899;0.00632735;0.560391;1.78447;0.0073965;0.00843647;1.75163;0.570898;93.9408;138.941;0.00843404;-0.00440618;-0.00174098;-0.00135936;0.00786286;-0.000670246;0.0114137;0;0.0227078;-0.177659;-2.03386;-0.962703;2.2572;-7.0345;-0.0103244;-0.00110508;0.125155;0.125164;-0.0103334;0.0677489;0.0824927;12.1223;0.087092;0.0903319;12.1126;0.0825587;95.0189;140.019;-0.032776;-0.0103765;0.00925375;-0.0102165;0.125118;0.0306417;0.0754706;0;0.142824;8.98924;3.19665
449000;450;27.1817;1.42676;0.0553975;-2.34668;27.0671;-0.844473;-0.157643;1.40531;-0.870821;-0.0297395;-0.617841;-0.0810299;0.623842;-6.1592;-0.00451508;-0.00153312;0.00781277;0.00800057;-0.00470288;0.00635173;0.57791;1.73037;0.00741626;0.00846897;1.70121;0.587818;94.5756;139.576;0.00804093;-0.00451488;-0.00167314;-0.00139482;0.00781254;0.000456766;0.0124802;0;0.0225209;-0.180486;-2.04347;-0.959176;2.26459;-7.02663;-0.0103677;-0.00256543;0.122518;0.122568;-0.0104172;0.0664924;0.0846218;11.8173;0.0853962;0.0886565;11.7659;0.0849916;96.4868;141.487;-0.0220561;-0.0104514;0.00941154;-0.0131243;0.122482;0.0432439;0.0354478;0;0.141471;8.99315;3.20378
450000;451;27.19;1.43505;0.0557192;-2.34886;27.0754;-0.837945;-0.159821;1.41365;-0.864293;-0.0302139;-0.616065;-0.0867816;0.62288;-6.16495;-0.00435764;-0.00152318;0.00803273;0.00821723;-0.00454214;0.00637969;0.542486;1.84337;0.00746779;0.00850625;1.80911;0.552758;93.0029;138.003;0.00842004;-0.00435729;-0.00177716;-0.00127233;0.00803231;0.000285689;0.0106373;0;0.0223371;-0.181374;-2.05185;-0.966102;2.27516;-7.03042;-0.00999022;-0.00266524;0.125804;0.125856;-0.0100425;0.0679492;0.0794112;12.5927;0.0874439;0.090599;12.5323;0.0797937;97.0292;142.029;-0.0198958;-0.0100953;0.0109839;-0.0146677;0.125753;0.0508458;0.0400995;0;0.142962;8.99422;3.21107
451000;452;27.1966;1.44165;0.0559757;-2.3513;27.0817;-0.839963;-0.162269;1.42001;-0.866311;-0.0302416;-0.615415;-0.0900183;0.622698;-6.16819;-0.00440582;-0.00162139;0.00834118;0.00854419;-0.00460883;0.00657651;0.528201;1.89322;0.00770636;0.00876867;1.85387;0.539411;93.982;138.982;0.00849743;-0.00440549;-0.00184075;-0.0014048;0.00834081;0.000310515;0.0119074;0;0.0238554;-0.180777;-2.05789;-0.977205;2.28528;-7.04712;-0.00881888;-0.00131263;0.128202;0.128214;-0.00883146;0.0685228;0.0687892;14.5372;0.0885669;0.0913638;14.5179;0.0688805;95.5215;140.521;-0.0519776;-0.00888703;0.0105066;-0.0116963;0.128154;0.0427781;0.0408237;0;0.14253;8.99351;3.21862
452000;453;27.1674;1.41247;0.0548425;-2.3469;27.0524;-0.852354;-0.157862;1.39069;-0.878702;-0.0297537;-0.61883;-0.0789373;0.624554;-6.15711;-0.00450636;-0.00154669;0.00764309;0.0078369;-0.00470017;0.00626854;0.589599;1.69607;0.00731341;0.00835805;1.66737;0.599749;93.3273;138.327;0.00898449;-0.00450606;-0.0017584;-0.00133753;0.00764275;-0.000792499;0.0130103;0;0.0216646;-0.181971;-2.06385;-0.972297;2.28866;-7.03328;-0.00885594;-0.003841;0.127328;0.127436;-0.00896419;0.0682003;0.0695521;14.3777;0.0880978;0.0909337;14.2162;0.0703425;97.2609;142.261;-0.022639;-0.00897094;0.00951054;-0.0155791;0.127295;0.0382187;0.0630669;0;0.132692;8.99769;3.22561
453000;454;27.1827;1.42775;0.0554359;-2.34496;27.0681;-0.847496;-0.15593;1.40636;-0.873844;-0.030892;-0.618119;-0.0880607;0.625124;-6.16623;-0.00442497;-0.00176285;0.00814147;0.00838409;-0.00466758;0.00652583;0.543509;1.83989;0.00763654;0.00870111;1.79624;0.556719;94.3298;139.33;0.00826033;-0.00442459;-0.0019933;-0.00153528;0.00814104;0.00108726;0.0123942;0;0.0248611;-0.181943;-2.0803;-0.982063;2.30764;-7.04866;-0.0102475;-0.0017729;0.130407;0.130429;-0.0102698;0.0703494;0.0785812;12.7257;0.0905702;0.0937992;12.7002;0.078739;95.7152;140.715;-0.027312;-0.0103218;0.0101969;-0.0122531;0.130362;0.0422762;0.053192;0;0.150827;8.99332;3.23327
454000;455;27.1909;1.43595;0.0557544;-2.3473;27.0759;-0.855158;-0.158271;1.41415;-0.881506;-0.028465;-0.61881;-0.0828502;0.62498;-6.16102;-0.00451815;-0.00121073;0.00766373;0.0077829;-0.00463732;0.00621011;0.58955;1.69621;0.00724707;0.00828014;1.67832;0.595834;91.3585;136.358;0.00912916;-0.00451789;-0.00144831;-0.00097602;0.00766342;-0.000893451;0.0123961;0;0.0231837;-0.182482;-2.09303;-0.98278;2.31946;-7.05356;-0.0102409;-0.00302122;0.130347;0.130412;-0.0103058;0.0703588;0.0785663;12.7281;0.0905721;0.0938118;12.6543;0.0790248;97.1152;142.115;-0.0244734;-0.0103564;0.0111405;-0.0154212;0.130296;0.0363116;0.0498686;0;0.125597;8.9888;3.24049
455000;456;27.2336;1.47868;0.0574134;-2.35108;27.118;-0.869003;-0.162048;1.4563;-0.895351;-0.0294121;-0.62054;-0.0763494;0.625911;-6.15452;-0.00466633;-0.00163074;0.00782895;0.00803827;-0.00487565;0.00645696;0.596035;1.67775;0.00753002;0.00860928;1.64866;0.606554;93.5894;138.589;0.00848187;-0.00466602;-0.00183915;-0.00142492;0.0078286;0.001267;0.0119914;0;0.0215703;-0.184042;-2.09975;-0.986268;2.32713;-7.05295;-0.0104422;-0.00309354;0.129088;0.129156;-0.0105107;0.0698335;0.080892;12.3622;0.089813;0.0931113;12.2881;0.0813799;97.2087;142.209;-0.0200636;-0.0105581;0.0110139;-0.0154572;0.129038;0.0440702;0.0256053;0;0.140224;8.98591;3.24708
456000;457;27.2428;1.48782;0.0577684;-2.35436;27.1269;-0.869683;-0.165323;1.46517;-0.896031;-0.027585;-0.620268;-0.0747319;0.625363;-6.15291;-0.0046501;-0.00153752;0.00789861;0.00808424;-0.00483574;0.00645999;0.588724;1.69859;0.00753754;0.00861332;1.67177;0.598168;95.0996;140.1;0.00872891;-0.00464995;-0.00163965;-0.00143667;0.00789845;0.000776605;0.0096797;0;0.0210775;-0.182529;-2.10598;-0.985827;2.33245;-7.04836;-0.00872508;-0.00436884;0.132933;0.133068;-0.00885969;0.0709638;0.0656351;15.2358;0.0918078;0.0946184;15.0195;0.0665803;98.0608;143.061;-0.0187193;-0.00888148;0.011373;-0.0181416;0.132885;0.0410174;0.072566;0;0.162101;8.98187;3.25274
457000;458;27.2463;1.49134;0.057905;-2.35716;27.1297;-0.886606;-0.168128;1.46791;-0.912954;-0.0288559;-0.622803;-0.068303;0.627201;-6.14648;-0.00472226;-0.00147957;0.00771649;0.00789006;-0.00489583;0.00639295;0.61197;1.63407;0.00744911;0.00852393;1.61159;0.620506;93.2377;138.238;0.00858901;-0.00472201;-0.00166231;-0.00129909;0.00771621;0.000525252;0.00941181;0;0.022672;-0.184691;-2.10624;-0.98642;2.33311;-7.03253;-0.0072774;-0.00803606;0.126097;0.12658;-0.00775984;0.0671698;0.0577126;17.3272;0.0870884;0.0895597;16.3121;0.061304;101.917;146.917;-0.0213025;-0.00758734;0.0124283;-0.0260741;0.126057;0.0305563;0.125587;0;0.154664;8.9782;3.25826
458000;459;27.2168;1.4618;0.0567582;-2.35521;27.1002;-0.885407;-0.166174;1.43846;-0.911755;-0.028736;-0.622916;-0.0681964;0.627297;-6.14637;-0.00478408;-0.00148139;0.00754877;0.00772421;-0.00495953;0.00634187;0.633757;1.57789;0.00738072;0.00845583;1.55745;0.642076;93.2344;138.234;0.00832984;-0.00478385;-0.00165338;-0.0013115;0.0075485;0.00216434;0.0120169;0;0.022914;-0.185503;-2.10641;-0.978012;2.32978;-7.00607;-0.0116817;-0.0101071;0.127711;0.12844;-0.0124107;0.0704256;0.0914697;10.9326;0.0900494;0.0939008;10.3491;0.0966265;102.15;147.15;-0.00291282;-0.0119891;0.00875927;-0.0266387;0.127723;0.0213095;0.0956143;0;0.147578;8.97158;3.26309
459000;460;;;;;;;;;;-0.0295711;-0.621205;-0.0763577;0.626579;-6.15453;-0.00464406;-0.00151364;0.00760746;0.00779169;-0.0048283;0.00630999;0.610462;1.6381;0.00735281;0.00841333;1.61376;0.619673;94.0645;139.064;0.00886392;-0.00464385;-0.00166399;-0.00136512;0.00760722;2.75316e-06;0.0122686;0;0.0255417;-0.186739;-2.13561;-1.00348;2.367;-7.07343;-0.00991544;-0.00501093;0.136811;0.136982;-0.0100864;0.0735344;0.0724752;13.7978;0.0948626;0.0980458;13.5809;0.0736326;97.679;142.679;-0.0222343;-0.0100619;0.00961838;-0.0177513;0.136782;0.0559943;0.0411062;0;0.125661;8.96566;3.26984
460000;461;27.2378;1.48285;0.0575755;-2.35076;27.1215;-0.893728;-0.16173;1.45971;-0.920076;-0.0300041;-0.623028;-0.0701493;0.627682;-6.14832;-0.00473812;-0.00149598;0.00792733;0.00810163;-0.00491241;0.00650702;0.597694;1.6731;0.00758849;0.00867603;1.64921;0.606349;92.8671;137.867;0.00902855;-0.00473782;-0.00170921;-0.00128542;0.00792699;0.000188558;0.0108594;0;0.0234117;-0.187849;-2.14076;-1.00335;2.37168;-7.0655;-0.0107925;-0.00736752;0.13755;0.137915;-0.0111575;0.0745364;0.0784621;12.745;0.0958794;0.0993819;12.3608;0.080901;99.9887;144.989;-0.0113002;-0.0110415;0.0110552;-0.023386;0.137521;0.0269165;0.0500642;0;0.153015;8.96533;3.27777
461000;462;27.2462;1.49127;0.0579024;-2.35303;27.1297;-0.894453;-0.163997;1.46795;-0.920801;-0.0275388;-0.622122;-0.0673751;0.626366;-6.14555;-0.00478384;-0.00145172;0.00769846;0.00786507;-0.00495046;0.00640777;0.621403;1.60926;0.00746256;0.00854369;1.58876;0.629423;94.8142;139.814;0.00860026;-0.00478372;-0.00154066;-0.00136388;0.00769833;0.000462992;0.0128671;0;0.032079;-0.186262;-2.15241;-1.00129;2.38121;-7.06771;-0.0108601;-0.00502404;0.140083;0.14025;-0.0110271;0.0756387;0.077526;12.8989;0.0973842;0.100852;12.7187;0.0786246;98.0728;143.073;-0.0338611;-0.0110303;0.0111125;-0.0190232;0.14004;0.0462447;0.0421893;0;0.144591;8.96056;3.28501
462000;463;27.2923;1.53732;0.0596903;-2.35791;27.1753;-0.900026;-0.168878;1.51359;-0.926374;-0.0295629;-0.621594;-0.0713618;0.626375;-6.14954;-0.00480522;-0.0017934;0.0077705;0.00802125;-0.00505598;0.00653861;0.618393;1.61709;0.00761457;0.00871815;1.58649;0.630323;92.8727;137.873;0.00862751;-0.00480478;-0.00206153;-0.0015286;0.00776999;0.0019869;0.0115832;0;0.0275776;-0.189111;-2.16159;-1.00812;2.3926;-7.07458;-0.0102982;-0.00614461;0.140021;0.140271;-0.0105489;0.0754102;0.0735475;13.5966;0.0972216;0.100547;13.2972;0.0752037;98.6998;143.7;-0.0213604;-0.0104949;0.0105825;-0.0206649;0.139988;0.0377817;0.0706404;0;0.146806;8.9609;3.29284
463000;464;27.2989;1.54397;0.0599485;-2.36028;27.1817;-0.902337;-0.171244;1.51998;-0.928685;-0.0283074;-0.624556;-0.0609334;0.62816;-6.13911;-0.00505354;-0.00156573;0.00758846;0.00777949;-0.00524457;0.00651203;0.665951;1.50161;0.00756677;0.00868271;1.48334;0.674154;92.8222;137.822;0.0082382;-0.00505327;-0.00175131;-0.00138248;0.00758815;0.00260093;0.0106832;0;0.022541;-0.189384;-2.16831;-1.00131;2.39584;-7.05905;-0.0119389;-0.00633963;0.141343;0.141605;-0.0122007;0.0769026;0.0844678;11.8388;0.0987216;0.102537;11.6063;0.0861602;98.6256;143.626;-0.0345263;-0.0121325;0.0100893;-0.020561;0.141316;0.0465828;0.111045;0;0.158253;8.96089;3.29999
464000;465;27.2659;1.51093;0.0586656;-2.36033;27.1484;-0.906644;-0.171301;1.48665;-0.932992;-0.028463;-0.622106;-0.0714038;0.626837;-6.14958;-0.00465479;-0.00142486;0.00792465;0.00808402;-0.00481417;0.0064491;0.587382;1.70247;0.00752612;0.0085988;1.67922;0.595516;93.1054;138.105;0.0094523;-0.00465454;-0.00161417;-0.00123792;0.00792437;-0.000220007;0.0113209;0;0.0418337;-0.188564;-2.18327;-1.02266;2.41827;-7.09515;-0.00921096;-0.00406693;0.14285;0.142959;-0.00931965;0.0761393;0.0644798;15.5087;0.0985595;0.101519;15.3395;0.0651911;96.8552;141.855;-0.0279375;-0.0093405;0.0103088;-0.0165293;0.142811;0.0508626;0.0935304;0;0.145291;8.95448;3.30743
465000;466;27.2806;1.52569;0.0592386;-2.35744;27.1634;-0.908825;-0.168407;1.50165;-0.935173;-0.0284033;-0.622436;-0.0690614;0.626899;-6.14723;-0.00482759;-0.00164703;0.00788865;0.00809851;-0.00503745;0.00656798;0.611966;1.63408;0.00765238;0.00875731;1.60766;0.622022;94.8384;139.838;0.00854809;-0.00482738;-0.00177782;-0.0015179;0.00788843;0.00137064;0.0104309;0;0.023857;-0.190099;-2.19053;-1.02282;2.42502;-7.09062;-0.0100059;-0.00587922;0.148744;0.148961;-0.0102233;0.0795923;0.0672694;14.8656;0.102885;0.106123;14.5707;0.0686309;98.0678;143.068;-0.0366338;-0.0101981;0.0109394;-0.0203724;0.148707;0.0437322;0.0781172;0;0.141292;8.95002;3.3146
466000;467;27.2894;1.53443;0.0595779;-2.35435;27.1721;-0.918389;-0.165314;1.51037;-0.944737;-0.0296098;-0.623921;-0.0609703;0.627592;-6.13914;-0.00485473;-0.0015902;0.00790791;0.00810306;-0.00504988;0.00657647;0.613908;1.62891;0.00766175;0.00876863;1.6046;0.623206;93.5364;138.536;0.00829961;-0.00485445;-0.00177695;-0.00140582;0.00790759;0.00131115;0.0102138;0;0.0251371;-0.191147;-2.19496;-1.02533;2.43016;-7.08838;-0.0100045;-0.00623969;0.147039;0.147287;-0.010252;0.0787693;0.0680397;14.6973;0.101781;0.105026;14.3666;0.0696059;98.211;143.211;-0.0167443;-0.0101977;0.0103172;-0.0205286;0.14701;-0.00281789;0.0473837;0;0.150653;8.94876;3.32154
467000;468;27.2966;1.54161;0.0598568;-2.35548;27.179;-0.924842;-0.16645;1.51727;-0.95119;-0.0314374;-0.623565;-0.0588805;0.627128;-6.13705;-0.00483135;-0.00168878;0.00747447;0.00770202;-0.0050589;0.00638046;0.646381;1.54708;0.00742001;0.00850728;1.52247;0.656828;93.2801;138.28;0.00886779;-0.00483102;-0.00189461;-0.00148546;0.0074741;0.0015805;0.0109958;0;0.0218326;-0.193581;-2.21056;-1.02515;2.44438;-7.09709;-0.0102582;-0.00553655;0.150522;0.150712;-0.0104486;0.0805805;0.068151;14.6733;0.104133;0.107441;14.4241;0.0693284;97.884;142.884;-0.044827;-0.0104467;0.0113884;-0.0200952;0.150479;0.0410874;0.0436214;0;0.120054;8.93821;3.32696
468000;469;27.3436;1.58866;0.0616836;-2.36562;27.2248;-0.941406;-0.176589;1.56307;-0.967754;-0.0276694;-0.618003;-0.07277;0.622887;-6.15094;-0.00475974;-0.00139498;0.00814088;0.00829;-0.00490885;0.00659943;0.584671;1.71036;0.00770326;0.00879924;1.68879;0.592142;93.2036;138.204;0.00888411;-0.00475951;-0.00156798;-0.00122419;0.00814063;-0.00109967;0.0103459;0;0.0234234;-0.192828;-2.21995;-1.03682;2.45772;-7.1118;-0.0101711;-0.00589107;0.152293;0.152506;-0.0103845;0.0814453;0.0667868;14.973;0.105303;0.108594;14.686;0.0680922;98.1493;143.149;-0.0453533;-0.0103777;0.0117686;-0.0210596;0.152248;0.0461114;0.0560471;0;0.121146;8.93566;3.33061
469000;470;27.3521;1.59719;0.062015;-2.36491;27.2337;-0.935146;-0.175881;1.57192;-0.961493;-0.0305989;-0.623194;-0.0616671;0.626985;-6.13984;-0.00488567;-0.00154538;0.00754232;0.0077316;-0.00507496;0.00640328;0.647768;1.54376;0.00744671;0.00853771;1.52348;0.656391;92.8518;137.852;0.00843752;-0.0048854;-0.00173972;-0.00135344;0.00754201;0.00191636;0.0133301;0;0.0220636;-0.194919;-2.22895;-1.03482;2.46517;-7.1057;-0.008862;-0.00643607;0.152263;0.15252;-0.00911868;0.0808193;0.0582018;17.1816;0.104852;0.107759;16.7261;0.0597868;98.8574;143.857;-0.0399252;-0.00910956;0.0129004;-0.023067;0.152209;0.045925;0.048485;0;0.122604;8.92726;3.33629
470000;471;27.3801;1.62513;0.0630997;-2.37191;27.2604;-0.955163;-0.182874;1.59868;-0.981511;-0.0282249;-0.620968;-0.0661298;0.625117;-6.1443;-0.00487041;-0.001625;0.00788319;0.00808698;-0.0050742;0.00658059;0.617822;1.61859;0.00766469;0.00877412;1.59374;0.627453;93.4314;138.431;0.00900311;-0.00487011;-0.0018231;-0.00142941;0.00788285;0.000798703;0.0114621;0;0.0218663;-0.194336;-2.23325;-1.03834;2.47049;-7.10766;-0.00961329;-0.00587023;0.154974;0.155183;-0.00982239;0.0825026;0.0620317;16.1208;0.10688;0.110003;15.7989;0.0632956;97.7275;142.728;-0.0388269;-0.00980543;0.011043;-0.0203721;0.154936;0.0466525;0.0455837;0;0.122297;8.9271;3.34231
471000;472;;;;;;;;;;-0.0305119;-0.623401;-0.0548678;0.626554;-6.13304;-0.00492008;-0.00181254;0.00777818;0.00803183;-0.00517373;0.00660278;0.632549;1.58091;0.00768353;0.00880371;1.55243;0.644153;94.2;139.2;0.00884986;-0.00491975;-0.00200298;-0.00162449;0.00777782;0.000508831;0.0100803;0;0.0242371;-0.197061;-2.24207;-1.0336;2.47669;-7.09547;-0.0118984;-0.00765453;0.154558;0.154909;-0.0122496;0.0835794;0.0769833;12.9898;0.107589;0.111439;12.646;0.0790763;98.9156;143.916;-0.0259755;-0.012146;0.010752;-0.0234056;0.154533;0.0413509;0.0603034;0;0.129899;8.92292;3.35064
472000;473;;;;;;;;;;-0.031434;-0.627865;-0.0407404;0.62997;-6.11891;-0.0047913;-0.00150399;0.00726742;0.00745217;-0.00497605;0.00621411;0.659284;1.5168;0.00722275;0.00828548;1.49761;0.667731;93.4296;138.43;0.00823326;-0.00479107;-0.00166036;-0.00134949;0.00726718;0.0034394;0.0120884;0;0.0221177;-0.197816;-2.26019;-1.02492;2.48959;-7.09359;-0.00875895;-0.00827102;0.156248;0.156661;-0.00917251;0.0829169;0.0560581;17.8386;0.107629;0.110556;17.0794;0.0585499;99.8149;144.815;-0.0283775;-0.00907626;0.0128875;-0.0264074;0.156206;0.0262184;0.071065;0;0.121685;8.91997;3.35785
473000;474;;;;;;;;;;-0.0301804;-0.625698;-0.0497009;0.628394;-6.12787;-0.00499547;-0.00148017;0.00731228;0.00748779;-0.00517098;0.00632938;0.683161;1.46378;0.00734923;0.00843918;1.44804;0.690588;91.0052;136.005;0.00835418;-0.00499515;-0.00171788;-0.00124538;0.00731191;0.0026024;0.0125492;0;0.0229051;-0.197703;-2.27298;-1.03978;2.50732;-7.11883;-0.00854854;-0.00780705;0.161169;0.161528;-0.00890691;0.0852173;0.0530407;18.8534;0.110774;0.113623;18.1351;0.0551417;98.9323;143.932;-0.0303064;-0.00882705;0.012052;-0.0247614;0.161133;0.0247999;0.0709769;0;0.11241;8.91552;3.36535
474000;475;27.3974;1.64242;0.0637709;-2.3705;27.2773;-0.971863;-0.181465;1.61558;-0.998211;-0.0293031;-0.622804;-0.0501282;0.625505;-6.1283;-0.00485261;-0.00180359;0.00771165;0.00796543;-0.00510639;0.00653591;0.629257;1.58918;0.00760695;0.00871454;1.55989;0.641069;96.5571;141.557;0.0083977;-0.00485248;-0.00187668;-0.00173141;0.00771152;0.00326274;0.0119717;0;0.0230254;-0.198918;-2.27928;-1.04767;2.51641;-7.12302;-0.00973228;-0.00800436;0.161222;0.161596;-0.0101062;0.0858512;0.0603656;16.5657;0.111253;0.114468;15.9898;0.06254;98.9878;143.988;-0.0436184;-0.0100114;0.0117368;-0.0248371;0.161191;0.0177011;0.0372485;0;0.133229;8.90559;3.3723
475000;476;27.4312;1.67622;0.0650832;-2.37075;27.3112;-0.973712;-0.181714;1.64944;-1.00006;-0.0324424;-0.624932;-0.0459428;0.627458;-6.12412;-0.00463169;-0.00135381;0.00737053;0.00752134;-0.0047825;0.00615192;0.628407;1.59133;0.00716205;0.00820256;1.57268;0.635857;90.8483;135.848;0.00869606;-0.00463137;-0.00162236;-0.00108845;0.00737014;0.00186972;0.0122134;0;0.0239326;-0.203077;-2.29186;-1.04916;2.52876;-7.12684;-0.0109529;-0.00857457;0.167144;0.167555;-0.0113648;0.0894601;0.0655301;15.2602;0.115678;0.11928;14.7434;0.0678271;98.692;143.692;-0.0367127;-0.0112281;0.0106412;-0.0248561;0.167127;0.026557;0.0381872;0;0.10963;8.88776;3.3791
476000;477;27.4361;1.68116;0.0652753;-2.37667;27.3154;-0.981093;-0.187639;1.65363;-1.00744;-0.0299639;-0.623022;-0.0528134;0.625974;-6.13099;-0.00493415;-0.00156061;0.00739212;0.00758664;-0.00512867;0.00635765;0.667488;1.49815;0.00738676;0.00847687;1.47926;0.676013;91.7218;136.722;0.00857873;-0.00493381;-0.00179603;-0.00132808;0.00739173;0.00187544;0.011456;0;0.0249435;-0.202064;-2.29641;-1.05658;2.53588;-7.13072;-0.0107072;-0.0101033;0.167778;0.168348;-0.0112773;0.0898125;0.0638179;15.6696;0.116174;0.11975;14.928;0.0669882;99.5345;144.535;-0.0352369;-0.0110384;0.0104555;-0.027517;0.167775;0.0306632;0.0307525;0;0.10941;8.88351;3.38561
477000;478;;;;;;;;;;-0.0296633;-0.621433;-0.0569799;0.624745;-6.13515;-0.00479964;-0.00162465;0.00742311;0.00763537;-0.00501191;0.00632364;0.646581;1.5466;0.00735409;0.00843152;1.52345;0.656406;93.7971;138.797;0.00846277;-0.00479938;-0.00179377;-0.00145758;0.00742282;0.00110395;0.0126365;0;0.021537;-0.202714;-2.30805;-1.07051;2.55229;-7.15309;-0.0105284;-0.0110166;0.169325;0.169998;-0.0112007;0.0905991;0.0621785;16.0827;0.117244;0.120799;15.1774;0.0658872;99.6787;144.679;-0.040898;-0.0108713;0.00939135;-0.0282825;0.169339;0.0309757;0.0188223;0;0.0952613;8.88118;3.39108
478000;479;;;;;;;;;;-0.0290158;-0.621642;-0.0525203;0.624531;-6.13069;-0.00486678;-0.00163482;0.00748995;0.00770258;-0.00507941;0.006391;0.649775;1.539;0.00743131;0.00852133;1.51643;0.659443;91.8012;136.801;0.00889454;-0.00486639;-0.00189692;-0.00137594;0.00748949;0.00215691;0.0129868;0;0.022538;-0.202579;-2.30945;-1.06486;2.55118;-7.13539;-0.00907978;-0.0117838;0.166889;0.167675;-0.00986538;0.0887699;0.0544061;18.3803;0.115212;0.11836;16.9963;0.0588365;100.818;145.818;-0.0148057;-0.00950527;0.0112451;-0.0313357;0.166894;0.000820395;0.0475471;0;0.109489;8.87747;3.39566
479000;480;;;;;;;;;;-0.0302468;-0.625439;-0.0431086;0.627652;-6.12128;-0.00490567;-0.0018304;0.00698784;0.00726316;-0.00518099;0.00622208;0.702029;1.42444;0.00721808;0.0082961;1.40189;0.713325;91.8432;136.843;0.00866879;-0.00490524;-0.00208059;-0.00158317;0.00698735;0.00203995;0.0123268;0;0.0215724;-0.204282;-2.33339;-1.06596;2.57346;-7.15163;-0.00880069;-0.00857085;0.176136;0.176532;-0.00919706;0.0928647;0.0499653;20.0139;0.120871;0.12382;19.1944;0.0520984;98.4957;143.496;-0.0346583;-0.00909863;0.0118381;-0.0257683;0.176108;0.0285172;0.0188405;0;0.0913772;8.8734;3.4018
480000;481;;;;;;;;;;-0.0306718;-0.62244;-0.0445462;0.624785;-6.12272;-0.00488473;-0.00151236;0.00734585;0.00753008;-0.00506897;0.00629952;0.664965;1.50384;0.00732018;0.00839937;1.48553;0.673162;91.1926;136.193;0.00824961;-0.00488438;-0.00176469;-0.00126308;0.00734544;0.00324191;0.0102709;0;0.0295272;-0.203935;-2.33895;-1.07212;2.58103;-7.15118;-0.00884018;-0.00843125;0.17487;0.175256;-0.00922631;0.0922412;0.0505529;19.7813;0.120031;0.122988;18.9952;0.0526447;99.0767;144.077;-0.032888;-0.00918116;0.0139732;-0.0273296;0.174817;0.0284182;0.044857;0;0.0978687;8.86275;3.41046
481000;482;27.4892;1.73422;0.0673353;-2.37708;27.3679;-1.00134;-0.188045;1.70614;-1.02769;-0.0309727;-0.624691;-0.0398061;0.626724;-6.11798;-0.0048306;-0.00166413;0.0069072;0.00713857;-0.00506197;0.00610027;0.699357;1.42988;0.00707791;0.00813369;1.41024;0.709101;90.8528;135.853;0.00910021;-0.0048302;-0.00192724;-0.0014041;0.00690673;0.00195517;0.0121271;0;0.0250998;-0.204405;-2.34905;-1.07208;2.5902;-7.14605;-0.00875027;-0.00907218;0.173421;0.173871;-0.00920095;0.0915361;0.0504569;19.8189;0.1191;0.122048;18.8971;0.0529182;99.5719;144.572;-0.0426615;-0.00912269;0.0141005;-0.0286441;0.173371;0.0411777;0.0314729;0;0.110519;8.85213;3.41657
482000;483;27.4926;1.73762;0.0674673;-2.3811;27.3705;-1.0142;-0.19207;1.70874;-1.04055;-0.0297971;-0.624701;-0.0388658;0.626617;-6.11704;-0.00479442;-0.00183941;0.00694812;0.00722951;-0.00507581;0.00615266;0.690032;1.44921;0.00714066;0.00820355;1.42431;0.702096;92.2218;137.222;0.00826722;-0.004794;-0.00208879;-0.00159293;0.00694763;0.0042464;0.0129563;0;0.0222694;-0.205918;-2.36149;-1.0764;2.6034;-7.16052;-0.00935871;-0.00883269;0.179757;0.180168;-0.00977035;0.0949694;0.0520632;19.2074;0.123498;0.126626;18.4403;0.054229;98.3233;143.323;-0.0481882;-0.0096538;0.0113059;-0.0257407;0.179736;0.0353625;0.061308;0;0.114985;8.83515;3.42402
483000;484;27.502;1.74707;0.0678343;-2.38019;27.3801;-1.01408;-0.191151;1.71831;-1.04043;-0.0305425;-0.624168;-0.0406138;0.626233;-6.11879;-0.00464552;-0.00153882;0.0068791;0.00708104;-0.00484745;0.00596424;0.675308;1.48081;0.00692704;0.00795232;1.46078;0.684568;92.0798;137.08;0.00888008;-0.00464521;-0.00175317;-0.00132692;0.00687875;0.0019292;0.0133909;0;0.022598;-0.206391;-2.37025;-1.08176;2.6136;-7.16341;-0.00908359;-0.00796544;0.180572;0.180906;-0.00941755;0.0951616;0.0503046;19.8789;0.123862;0.126882;19.2094;0.0520578;97.8525;142.853;-0.0488285;-0.00935098;0.0115664;-0.0243576;0.180542;0.022504;0.0429586;0;0.099363;8.82073;3.43027
484000;485;;;;;;;;;;-0.0300616;-0.623779;-0.0404563;0.625812;-6.11863;-0.00491094;-0.00174545;0.00725469;0.00750016;-0.00515641;0.00632829;0.676933;1.47725;0.00734892;0.00843772;1.45453;0.687507;93.0895;138.089;0.00823608;-0.00491061;-0.00195001;-0.00154336;0.00725431;0.00502217;0.0124933;0;0.0219326;-0.207168;-2.37781;-1.08783;2.62302;-7.16911;-0.00941266;-0.00729542;0.183465;0.18374;-0.00968821;0.0967143;0.051305;19.4913;0.125847;0.128952;18.9654;0.0527277;97.5733;142.573;-0.0500931;-0.00967168;0.012422;-0.0237975;0.183422;0.0183856;0.0371074;0;0.101843;8.82151;3.43736
485000;486;;;;;;;;;;-0.0292818;-0.621889;-0.0405857;0.623899;-6.11876;-0.0047651;-0.00175503;0.00733428;0.0075837;-0.00501453;0.00629912;0.649703;1.53916;0.00732383;0.00839882;1.51235;0.661224;93.9246;138.925;0.00793098;-0.00476479;-0.00194446;-0.00156787;0.00733393;0.00472622;0.0120222;0;0.0285815;-0.208122;-2.38108;-1.09364;2.62848;-7.17637;-0.00779362;-0.0115623;0.184498;0.185191;-0.00848636;0.0968387;0.0422423;23.673;0.126384;0.129118;21.8222;0.0458249;100.342;145.342;-0.029877;-0.00828162;0.0142674;-0.0331938;0.184469;-0.00783489;0.0184111;0;0.0982562;8.79664;3.43825
486000;487;;;;;;;;;;-0.0308881;-0.624012;-0.0353769;0.625777;-6.11355;-0.00462812;-0.00153293;0.00705356;0.00725136;-0.00482593;0.00603865;0.656141;1.52406;0.00701954;0.00805153;1.50258;0.665521;92.5805;137.58;0.00867405;-0.00462783;-0.00173828;-0.00132996;0.00705322;0.00188904;0.0118908;0;0.0234911;-0.209226;-2.39276;-1.09089;2.63801;-7.16701;-0.00904835;-0.0101184;0.185176;0.185702;-0.00957407;0.0976381;0.0488634;20.4652;0.127113;0.130184;19.3964;0.051556;99.4053;144.405;-0.0319648;-0.00945357;0.0137703;-0.0300885;0.18514;0.0263216;0.0154716;0;0.124277;8.84122;3.45021
487000;488;27.5449;1.78997;0.0695;-2.38125;27.4224;-1.03259;-0.19222;1.76062;-1.05894;-0.0319966;-0.624799;-0.0325452;0.626463;-6.11072;-0.0045623;-0.00146537;0.00722872;0.00740811;-0.00474168;0.00607489;0.631135;1.58445;0.00707077;0.00809986;1.56234;0.640067;90.6224;135.622;0.00849661;-0.0045619;-0.00176834;-0.00116595;0.00722823;0.00253431;0.0113047;0;0.0266344;-0.211246;-2.41025;-1.09183;2.65444;-7.17253;-0.00957066;-0.0106914;0.187818;0.188395;-0.0101481;0.0992717;0.0509571;19.6243;0.129113;0.132362;18.5647;0.0538658;99.3081;144.308;-0.0449603;-0.00997326;0.0127019;-0.0301934;0.187798;0.0394832;0.0331832;0;0.106736;8.80713;3.45856
488000;489;27.5517;1.79678;0.0697643;-2.38862;27.428;-1.04697;-0.199584;1.76628;-1.07331;-0.0298194;-0.625896;-0.0292372;0.627288;-6.10741;-0.00463959;-0.00159635;0.007341;0.00755006;-0.00484865;0.00619936;0.632011;1.58225;0.00721481;0.00826581;1.55715;0.642201;95.4677;140.468;0.00813285;-0.00463945;-0.00169118;-0.00150266;0.00734085;0.0038609;0.0110157;0;0.0255259;-0.211846;-2.42691;-1.10041;2.67314;-7.18737;-0.00812829;-0.0121143;0.194537;0.195259;-0.00884986;0.102054;0.0417827;23.9334;0.133221;0.136073;22.0635;0.0453237;99.1663;144.166;-0.0402785;-0.0085383;0.0106144;-0.0309829;0.194552;0.000398324;0.00976235;0;0.101766;8.79245;3.4663
489000;490;;;;;;;;;;-0.0273724;-0.619708;-0.050171;0.622337;-6.12834;-0.00493064;-0.00185104;0.00765404;0.00792065;-0.00519726;0.00655895;0.644188;1.55234;0.00762784;0.00874527;1.52401;0.656165;96.2874;141.287;0.00797348;-0.00493048;-0.0019426;-0.00176062;0.00765386;0.00383054;0.0102371;0;0.0375211;-0.209525;-2.43682;-1.12056;2.69029;-7.2097;-0.00736302;-0.00907935;0.19757;0.197971;-0.00776448;0.102868;0.037268;26.8327;0.134644;0.137157;25.497;0.0392203;97.9088;142.909;-0.0330544;-0.0076898;0.0125908;-0.0270385;0.197538;-0.0172955;0.0255347;0;0.102922;8.7699;3.47359
490000;491;;;;;;;;;;-0.0309399;-0.624386;-0.0271568;0.625741;-6.10533;-0.00484431;-0.00184771;0.00759484;0.0078635;-0.00511297;0.00648823;0.637842;1.56779;0.00754786;0.00865098;1.53795;0.650215;95.4126;140.413;0.00728642;-0.00484406;-0.00198653;-0.00171062;0.00759458;0.00517224;0.00831808;0;0.0236996;-0.214324;-2.4485;-1.10871;2.69636;-7.19769;-0.00909054;-0.00995128;0.199143;0.199618;-0.00956502;0.104591;0.0456483;21.9066;0.136379;0.139455;20.8695;0.0479167;97.8536;142.854;-0.0353444;-0.00940845;0.0106827;-0.0269994;0.199137;0.000521261;0.0172237;0;0.0969771;8.74485;3.48103
491000;492;;;;;;;;;;-0.028658;-0.622129;-0.0351652;0.623781;-6.11334;-0.004764;-0.00175154;0.00791329;0.00815084;-0.00500155;0.0065762;0.602025;1.66106;0.00766575;0.00876826;1.62966;0.613623;96.2192;141.219;0.00732494;-0.00476386;-0.00183495;-0.00166918;0.00791315;0.00349464;0.00798132;0;0.0343505;-0.211884;-2.45931;-1.1187;2.71009;-7.20793;-0.00773258;-0.0112517;0.199488;0.200097;-0.00834174;0.104219;0.0387622;25.7983;0.136264;0.138959;23.9874;0.0416885;98.6028;143.603;-0.0363201;-0.00811603;0.0111617;-0.0297895;0.199489;0.000337127;0.0261576;0;0.104838;8.74031;3.48254
492000;493;;;;;;;;;;-0.0301456;-0.621386;-0.0309523;0.622887;-6.10913;-0.00476529;-0.00164826;0.00761995;0.00783556;-0.00498089;0.00640822;0.62537;1.59905;0.00746051;0.0085443;1.57312;0.635678;95.1025;140.103;0.00654604;-0.0047651;-0.00176649;-0.00153148;0.00761975;0.00564753;0.00859876;0;0.0256213;-0.213328;-2.46736;-1.11933;2.71777;-7.20636;-0.00831868;-0.00930174;0.199559;0.199974;-0.00873407;0.104354;0.0416854;23.9892;0.136321;0.139139;22.8959;0.043676;98.0111;143.011;-0.0426141;-0.0086594;0.0128447;-0.0276074;0.199526;-0.0246215;0.00471159;0;0.0928661;8.73377;3.4881
493000;494;;;;;;;;;;-0.0294551;-0.622895;-0.0279984;0.624219;-6.10617;-0.00463262;-0.00163068;0.00752636;0.00774126;-0.00484751;0.00629438;0.615519;1.62465;0.00733186;0.00839251;1.59695;0.626192;94.5655;139.566;0.00720999;-0.00463238;-0.0017809;-0.00148226;0.00752611;0.00543124;0.00930978;0;0.0268083;-0.212651;-2.48403;-1.12382;2.7347;-7.21671;-0.00738059;-0.0052774;0.204479;0.20461;-0.00751197;0.106061;0.0360946;27.705;0.138979;0.141415;27.2379;0.0367135;96.3093;141.309;-0.0719502;-0.00761348;0.0151849;-0.0221391;0.204395;0.00818682;-0.0154095;0;0.0829104;8.72321;3.49577
494000;495;27.6217;1.8667;0.0724793;-2.38991;27.4976;-1.06227;-0.200878;1.83582;-1.08862;-0.0300795;-0.622394;-0.0256243;0.623647;-6.1038;-0.00467172;-0.00162452;0.00822167;0.0084232;-0.00487325;0.00664823;0.56822;1.75988;0.00776738;0.0088643;1.72846;0.578551;95.9036;140.904;0.00668582;-0.0046716;-0.00169753;-0.00155244;0.00822155;0.0052515;0.00801085;0;0.024391;-0.215195;-2.4872;-1.12234;2.73718;-7.19954;-0.00846469;-0.0116676;0.198318;0.198975;-0.00912094;0.104048;0.0426823;23.4289;0.135792;0.13873;21.8151;0.0458397;99.5349;144.535;-0.0469281;-0.00893895;0.0138881;-0.0328086;0.198295;-0.00721929;-0.0106243;0;0.120192;8.71021;3.50269
495000;496;;;;;;;;;;-0.0289926;-0.620015;-0.0322144;0.621528;-6.11039;-0.00466026;-0.00164609;0.00785856;0.00807138;-0.00487308;0.00647223;0.593017;1.68629;0.00754915;0.00862964;1.65632;0.603748;94.8412;139.841;0.00651228;-0.00466003;-0.00178856;-0.00150539;0.00785832;0.00590942;0.00842387;0;0.0241486;-0.215058;-2.50071;-1.1294;2.75234;-7.20981;-0.010544;-0.00956466;0.201451;0.201882;-0.0109747;0.106428;0.0523404;19.1057;0.138391;0.141904;18.3952;0.0543619;98.3941;143.394;-0.0601666;-0.0109242;0.0140931;-0.0290447;0.201406;0.0232767;0.0363712;0;0.095949;8.68214;3.51102
496000;497;;;;;;;;;;-0.0302886;-0.622197;-0.022832;0.623352;-6.10101;-0.00462835;-0.00151096;0.0078792;0.00805914;-0.0048083;0.00643372;0.587415;1.70238;0.00750763;0.00857829;1.67609;0.596627;93.5872;138.587;0.00665494;-0.0046281;-0.00169496;-0.00132924;0.0078789;0.00577331;0.0103049;0;0.0262407;-0.21621;-2.51543;-1.12911;2.76568;-7.2139;-0.0103143;-0.00903089;0.203322;0.203703;-0.0106954;0.107199;0.0507287;19.7127;0.139504;0.142932;19.046;0.0525046;97.8453;142.845;-0.0666904;-0.0106519;0.0132844;-0.0273815;0.203283;0.0211895;0.0128995;0;0.101575;8.64234;3.51813
497000;498;;;;;;;;;;-0.0283696;-0.622575;-0.0243925;0.623698;-6.10257;-0.0046449;-0.00186985;0.00780602;0.00808076;-0.00491964;0.0065002;0.595041;1.68056;0.00757939;0.00866694;1.64255;0.608809;96.9124;141.912;0.00742848;-0.00464475;-0.00195035;-0.00179034;0.00780586;0.00685893;0.0132344;0;0.0241666;-0.215324;-2.53035;-1.13823;2.78291;-7.23303;-0.00702077;-0.00643333;0.211641;0.21183;-0.00720988;0.10952;0.033173;30.145;0.143684;0.146027;29.3805;0.0340362;96.6759;141.676;-0.0710046;-0.00729841;0.0154251;-0.0243451;0.21156;-0.00692129;-0.0329056;0;0.0873177;8.64919;3.51918
498000;499;27.6635;1.90858;0.0741054;-2.39595;27.5378;-1.09435;-0.206915;1.8761;-1.1207;-0.0282227;-0.623811;-0.0155465;0.624643;-6.09372;-0.00468358;-0.00193559;0.00793443;0.00822468;-0.00497382;0.00659925;0.590285;1.6941;0.00769682;0.008799;1.65359;0.604743;96.5205;141.521;0.00676932;-0.00468336;-0.00205058;-0.00182204;0.00793421;0.00656513;0.0100215;0;0.0265585;-0.21614;-2.54237;-1.13487;2.79255;-7.22942;-0.00698633;-0.00554454;0.211937;0.212077;-0.00712667;0.109602;0.0329643;30.3359;0.143819;0.146136;29.7582;0.0336042;96.6032;141.603;-0.0732835;-0.00726286;0.0170795;-0.0240801;0.211829;0.0277441;-0.00856769;0;0.0938612;8.64927;3.52826
499000;500;27.6842;1.92927;0.0749085;-2.39691;27.5588;-1.08909;-0.207873;1.89701;-1.11543;-0.0284144;-0.622017;-0.0135749;0.622813;-6.09175;-0.0045807;-0.00183919;0.00818441;0.00844411;-0.0048404;0.00664226;0.559686;1.78672;0.00776332;0.00885634;1.74451;0.573228;97.3934;142.393;0.00615068;-0.00458063;-0.00188003;-0.00179886;0.00818433;0.00797033;0.00787193;0;0.0259154;-0.219084;-2.56283;-1.13382;2.81099;-7.22955;-0.00868936;-0.00774663;0.212355;0.212626;-0.00896052;0.110793;0.040919;24.4385;0.14483;0.147725;23.7293;0.0421421;97.6834;142.683;-0.0642701;-0.00905639;0.0171041;-0.0280634;0.212259;0.0423437;0.0281634;0;0.0933078;8.62415;3.54133
500000;501;;;;;;;;;;-0.0256874;-0.619909;-0.0128116;0.620574;-6.09098;-0.0047614;-0.00205677;0.00811755;0.00843804;-0.00508189;0.00675997;0.586556;1.70487;0.0078855;0.00901329;1.66041;0.602259;97.7229;142.723;0.00554212;-0.00476126;-0.00212376;-0.00199063;0.00811741;0.00974048;0.0102163;0;0.0253015;-0.199272;-2.44449;-1.12336;2.69763;-7.07575;-0.00252038;0.000208558;0.00104318;0.00105534;-0.00253254;0.00179394;2.41606;0.413896;0.00212918;0.00239192;0.416711;2.39974;131.048;176.048;-0.130996;-0.00464222;0.0656765;-0.0650272;-0.00111358;0.0414567;-0.00713244;0;0.0544838;8.53982;3.5486
501000;502;;;;;;;;;;-0.0271128;-0.617061;-0.0127163;0.617787;-6.09089;-0.00452429;-0.00164714;0.00802631;0.00823888;-0.00473686;0.00648787;0.563683;1.77405;0.00758195;0.00865049;1.73931;0.57494;95.4039;140.404;0.00567566;-0.0045241;-0.00176745;-0.00152832;0.00802611;0.0102753;0.0111271;0;0.0244289;-0.217061;-2.58259;-1.15027;2.83549;-7.24371;-0.00784921;-0.00558842;0.217181;0.217319;-0.00798791;0.112654;0.0361414;27.6691;0.147614;0.150205;27.206;0.0367566;96.6038;141.604;-0.0661213;-0.0081388;0.017753;-0.0246127;0.217064;0.00339466;-0.0255624;0;0.0787474;8.4727;3.54831
502000;503;;;;;;;;;;-0.02689;-0.61577;-0.0234971;0.616804;-6.10167;-0.00454909;-0.0015633;0.00822175;0.00841033;-0.00473767;0.006574;0.553299;1.80734;0.00768908;0.00876533;1.77521;0.563315;95.8995;140.899;0.00615766;-0.00454899;-0.00162658;-0.00150081;0.00822165;0.00721033;0.00671033;0;0.0321754;-0.218453;-2.58877;-1.15766;2.84423;-7.25105;-0.00813749;-0.00507491;0.215098;0.215214;-0.0082528;0.111733;0.0378314;26.433;0.146304;0.148978;26.0777;0.038347;97.1944;142.194;-0.0642769;-0.00847957;0.0212208;-0.0265375;0.214924;0.0442445;0.0084059;0;0.0841391;8.51855;3.55527
503000;504;27.738;1.98308;0.0769979;-2.40035;27.6119;-1.10504;-0.211311;1.95013;-1.13139;-0.0282195;-0.619601;-0.0117663;0.620355;-6.08994;-0.00448916;-0.00183068;0.00835284;0.00860871;-0.00474504;0.00667688;0.537442;1.86067;0.00781662;0.0089025;1.81426;0.55119;96.0178;141.018;0.00583089;-0.00448893;-0.00196271;-0.00170033;0.00835259;0.00969563;0.00931572;0;0.0316569;-0.225201;-2.6204;-1.15426;2.8722;-7.26213;-0.00849943;-0.00735692;0.224512;0.224744;-0.00873148;0.116738;0.0378573;26.415;0.152823;0.15565;25.7395;0.0388508;96.9428;141.943;-0.0711802;-0.00883433;0.0166563;-0.0267981;0.224421;0.0300947;0.0168304;0;0.08525;8.54927;3.56244
504000;505;;;;;;;;;;-0.0262017;-0.614261;-0.010845;0.614915;-6.08902;-0.0043355;-0.00171466;0.00870577;0.00892745;-0.00455717;0.00674231;0.498003;2.00802;0.00792047;0.00898975;1.95899;0.510468;96.9681;141.968;0.00553813;-0.00433545;-0.00174531;-0.0016844;0.00870572;0.0109544;0.00930107;0;0.0335613;-0.223871;-2.64723;-1.16207;2.89972;-7.26572;-0.00800852;-0.00285779;0.228582;0.228617;-0.00804304;0.11833;0.0350356;28.5424;0.155162;0.157773;28.4242;0.0351813;95.0728;140.073;-0.0735972;-0.00820085;0.0180531;-0.0197411;0.228453;0.0115838;-0.0417471;0;0.104572;8.41756;3.57664
505000;506;;;;;;;;;;-0.0262747;-0.614385;0.00162304;0.614949;-6.07655;-0.00446036;-0.00175819;0.00844134;0.00867665;-0.00469567;0.00668616;0.528395;1.89252;0.00783372;0.00891488;1.8478;0.541185;96.0646;141.065;0.00523786;-0.00446017;-0.00186748;-0.0016503;0.00844114;0.0130293;0.0118986;0;0.0441289;-0.223052;-2.65302;-1.16084;2.90445;-7.26227;-0.00751562;-0.00477802;0.224867;0.224966;-0.00761382;0.11629;0.0334224;29.92;0.152578;0.155053;29.547;0.0338444;96.0907;141.091;-0.0620807;-0.00778213;0.0183172;-0.02349;0.22474;0.00862696;-0.022664;0;0.0960883;8.33603;3.57657
506000;507;;;;;;;;;;-0.0239546;-0.61548;0.00154457;0.615948;-6.07663;-0.00442764;-0.00185198;0.0084511;0.00871213;-0.00468866;0.0067004;0.523912;1.90872;0.00785233;0.00893386;1.85813;0.538177;96.383;141.383;0.00507519;-0.00442743;-0.00196823;-0.00173722;0.00845088;0.0126445;0.0086049;0;0.0274967;-0.220374;-2.65481;-1.15974;2.90544;-7.25422;-0.00718446;-0.00591016;0.218447;0.218602;-0.00733917;0.11297;0.0328888;30.4055;0.148241;0.150627;29.7856;0.0335732;97.0206;142.021;-0.0645672;-0.00751835;0.0192587;-0.0264159;0.218309;0.0141601;-0.0103902;0;0.101645;8.31512;3.5764
507000;508;27.8027;2.0477;0.0795072;-2.40503;27.6752;-1.13418;-0.215998;2.01347;-1.16052;-0.0246901;-0.6161;0.00632628;0.616627;-6.07185;-0.00419176;-0.00172889;0.00840095;0.008634;-0.00442481;0.00652941;0.498963;2.00416;0.00766895;0.00870587;1.95127;0.512487;97.3943;142.394;0.00619455;-0.00419172;-0.00174984;-0.0017082;0.00840091;0.0115456;0.0108549;0;0.0280622;-0.225467;-2.67485;-1.1596;2.92409;-7.25966;-0.0081938;-0.00725872;0.223496;0.223723;-0.00842099;0.116072;0.0366619;27.2762;0.152034;0.154763;26.5673;0.0376402;97.3485;142.348;-0.077996;-0.00857022;0.0186651;-0.0282705;0.223375;0.0478691;-0.00365927;0;0.0809044;8.39473;3.59173
508000;509;;;;;;;;;;-0.0242922;-0.607168;-0.00538561;0.607677;-6.08356;-0.00440119;-0.00165018;0.00810205;0.00831618;-0.00461531;0.00646574;0.543219;1.84088;0.00756723;0.00862099;1.80187;0.55498;96.0842;141.084;0.00639573;-0.00440105;-0.00173548;-0.00156594;0.00810191;0.0108084;0.0103495;0;0.0255808;-0.228446;-2.71401;-1.18125;2.96873;-7.29087;-0.00689385;-0.00629428;0.232663;0.232828;-0.00705912;0.119944;0.0296303;33.7493;0.157624;0.159925;32.9826;0.030319;96.4516;141.452;-0.0682741;-0.00721124;0.018022;-0.0258827;0.232547;0.000913818;-0.0226691;0;0.0858014;8.26215;3.60574
509000;510;;;;;;;;;;-1.22069;13.2848;-5.58486;14.4626;-11.6117;-0.00384962;-0.000480471;-0.00481695;-0.00365154;-0.00501504;0.000681751;-0.799182;-1.25128;0.0029942;0.000909001;-0.728117;-1.3734;29.4585;74.4585;-0.0242823;-0.00400416;0.016575;-0.0175524;-0.00495488;-0.00395082;-0.235338;0;0.0793422;;;;;;;;;;;;;;;;;;;;;;;;;;;;;-0.0216495;3.63645
510000;511;;;;;;;;;;-1.22083;13.286;-5.57401;14.4595;-11.5953;-0.00355874;0.00133851;-0.00493295;-0.00274128;-0.00575041;0.00150457;-0.721422;-1.38615;0.0033212;0.00200609;-0.47671;-2.09771;83.2648;128.265;-0.0227186;-0.00367738;0.0180877;-0.0154342;-0.00509645;-0.00765634;-0.242482;0;0.090316;;;;;;;;;;;;;;;;;;;;;;;;;;;;;-0.0210286;3.6179
511000;512;;;;;;;;;;-1.22104;13.2865;-5.5785;14.4617;-11.5995;-0.00341767;0.000796372;-0.00488179;-0.00306801;-0.00523145;0.00108172;-0.700085;-1.4284;0.00303539;0.0014423;-0.586454;-1.70516;75.458;120.458;-0.0236961;-0.00354328;0.0174106;-0.0158426;-0.00503379;-0.0144077;-0.239484;0;0.0848522;;;;;;;;;;;;;;;;;;;;;;;;;;;;;-0.0209959;3.61783
