Time;Image index (Image index);Distance L(t) (Extensometer 1);Change in distance (Extensometer 1);Strain - RC (Extensometer 1);Distance x L(t) (Extensometer 1);Distance y L(t) (Extensometer 1);Distance z L(t) (Extensometer 1);Change in distance x (Extensometer 1);Change in distance y (Extensometer 1);Change in distance z (Extensometer 1);X-displacement (Strain Gauge 1);Y-displacement (Strain Gauge 1);Z-displacement (Strain Gauge 1);Displacement (Strain Gauge 1);Height (Strain Gauge 1);Exx - RC (Strain Gauge 1);Exy - RC (Strain Gauge 1);Eyy - RC (Strain Gauge 1);Max. principal strain - RC (Strain Gauge 1);Min. principal strain - RC (Strain Gauge 1);Max. shear strain - RC (Strain Gauge 1);Poisson ratio -Exx/Eyy (Strain Gauge 1);Poisson ratio -Eyy/Exx (Strain Gauge 1);Von Mises - RC (Strain Gauge 1);Tresca - RC (Strain Gauge 1);Poisson ratio -strain max/min (Strain Gauge 1);Poisson ratio -strain min/max (Strain Gauge 1);Max. strain angle (Strain Gauge 1);Max. shear angle (Strain Gauge 1);Vorticity-z (Strain Gauge 1);du/dx (Strain Gauge 1);du/dy (Strain Gauge 1);dv/dx (Strain Gauge 1);dv/dy (Strain Gauge 1);dw/dx (Strain Gauge 1);dw/dy (Strain Gauge 1);Ezz plane stress state (Strain Gauge 1);Stereo reconstruction error (Strain Gauge 1);X-displacement (Strain Gauge 2);Y-displacement (Strain Gauge 2);Z-displacement (Strain Gauge 2);Displacement (Strain Gauge 2);Height (Strain Gauge 2);Exx - RC (Strain Gauge 2);Exy - RC (Strain Gauge 2);Eyy - RC (Strain Gauge 2);Max. principal strain - RC (Strain Gauge 2);Min. principal strain - RC (Strain Gauge 2);Max. shear strain - RC (Strain Gauge 2);Poisson ratio -Exx/Eyy (Strain Gauge 2);Poisson ratio -Eyy/Exx (Strain Gauge 2);Von Mises - RC (Strain Gauge 2);Tresca - RC (Strain Gauge 2);Poisson ratio -strain max/min (Strain Gauge 2);Poisson ratio -strain min/max (Strain Gauge 2);Max. strain angle (Strain Gauge 2);Max. shear angle (Strain Gauge 2);Vorticity-z (Strain Gauge 2);du/dx (Strain Gauge 2);du/dy (Strain Gauge 2);dv/dx (Strain Gauge 2);dv/dy (Strain Gauge 2);dw/dx (Strain Gauge 2);dw/dy (Strain Gauge 2);Ezz plane stress state (Strain Gauge 2);Stereo reconstruction error (Strain Gauge 2);Load ADC 1 channel 1;Position ADC 1 channel 2
ms;;mm;mm;S;mm;mm;mm;mm;mm;mm;mm;mm;mm;mm;mm;S;S;S;S;S;S;;;S;S;;;°;°;S;S;S;S;S;S;S;S;pixel;mm;mm;mm;mm;mm;S;S;S;S;S;S;;;S;S;;;°;°;S;S;S;S;S;S;S;S;pixel;kN;mm
0.02515;1;25.7577;0;0;-2.18725;25.6647;0.00244188;0;0;0;0;0;0;0;-6.55343;0;-2.77556e-17;0;2.77556e-17;-2.77556e-17;2.77556e-17;;;3.20494e-17;3.70074e-17;;;0;45;0;0;-2.81606e-28;-5.55112e-17;0;0;0;0;0;0;0;0;0;-6.57296;-2.22045e-16;1.249e-16;0;5.60884e-17;-2.78133e-16;1.67111e-16;;;2.06671e-16;2.22814e-16;;;0;45;0;-2.22045e-16;1.66533e-16;8.32667e-17;0;0;0;0;0;-0.012867;2.18994
1000.03;2;25.7576;-0.000153606;-5.96351e-06;-2.18613;25.6646;0.00658344;0.00111906;-5.95447e-05;0.00414156;-0.000274929;-0.00168255;-0.00729282;0.00748944;-6.56072;-0.000269534;0.000295098;-0.000435623;-4.60176e-05;-0.000659139;0.000306561;-0.618732;-1.61621;0.000424918;0.000408748;-0.0698147;-14.3236;133.558;178.558;4.52525e-05;-0.000269561;0.000214814;0.000375396;-0.000435602;0.00195452;0.00120432;0;0.00877648;-3.24917e-05;-0.0017517;-0.00996045;0.0101134;-6.58292;0.000291925;0.000247291;-3.11343e-05;0.000425768;-0.000164977;0.000295372;9.37632;0.106652;0.000351971;0.00039383;2.58077;0.387481;2.28477;47.2848;0.000767583;0.00029187;7.86997e-05;0.000415937;-3.11069e-05;-0.000373721;-0.000174685;0;0.0150063;-0.0125895;2.19602
2000.03;3;25.7574;-0.000382876;-1.48645e-05;-2.1865;25.6644;0.00642137;0.000756523;-0.000320488;0.00397948;-0.000421712;-0.00520186;-0.00387216;0.00649853;-6.5573;-0.000178432;3.05672e-05;1.08945e-05;1.57073e-05;-0.000183245;9.9476e-05;16.3781;0.061057;0.000127721;0.000132635;0.0857178;11.6662;7.32661;52.3266;0.000356788;-0.000178435;-2.28992e-05;8.40236e-05;1.08947e-05;0.00153024;0.00349172;0;0.00938443;-0.00018261;-0.00515489;-0.00862065;0.010046;-6.58158;0.000299348;0.000256817;3.10856e-05;0.000454952;-0.000124518;0.000289735;-9.6298;-0.103844;0.000352222;0.000386313;3.65369;0.273696;4.4903;49.4903;0.000868945;0.000299266;3.39703e-05;0.000479724;3.1118e-05;-0.00111742;0.00228236;0;0.017455;-0.0121127;2.20385
3000.03;4;25.7558;-0.00196879;-7.6435e-05;-2.18722;25.6627;0.00313681;3.62102e-05;-0.00197292;0.000694932;-0.001685;-0.00770432;-0.00724902;0.0107119;-6.56068;-0.000332884;0.000441282;-0.000351803;9.90396e-05;-0.000783727;0.000441383;-0.946221;-1.05684;0.000558433;0.000588511;0.12637;7.91327;145.432;10.4316;0.000488373;-0.000332955;0.000302384;0.000580183;-0.000351752;0.00245776;0.00418699;0;0.00942969;-0.00132778;-0.00711272;-0.0163141;0.0178467;-6.58927;0.000404485;0.000291479;4.71747e-06;0.000558033;-0.00014883;0.000353431;;;0.000430298;0.000471242;3.74947;0.266704;23.8118;68.8118;0.000733021;0.000404477;0.000262958;0.000320012;4.72538e-06;0.000360016;-0.000441798;0;0.0166111;-0.0119083;2.20813
4000.03;5;25.7534;-0.00429083;-0.000166584;-2.18688;25.6604;-0.00180447;0.00037438;-0.00427443;-0.00424636;-0.00345637;-0.00974779;-0.0112293;0.0152664;-6.56466;-0.00032388;0.000369563;-0.000591371;-6.46057e-05;-0.000850645;0.00039302;-0.547676;-1.8259;0.000546835;0.000524026;-0.0759491;-13.1667;129.887;174.887;0.000234628;-0.000323912;0.000291646;0.0004475;-0.000591345;0.0034455;0.00380334;0;0.0231219;-0.00253083;-0.00842525;-0.0242531;0.0257993;-6.59721;0.000534816;0.000333014;9.83333e-06;0.000696353;-0.000151704;0.000424028;;;0.000522201;0.000565371;4.59021;0.217855;22.413;67.413;0.000660808;0.000534804;0.000299925;0.000366121;9.8438e-06;-0.000637454;0.000122179;0;0.0240247;-0.0116656;2.21445
5000.03;6;25.7529;-0.00488179;-0.000189527;-2.18692;25.6598;-0.00880563;0.000334052;-0.00487241;-0.0112475;-0.00354175;-0.0103184;-0.016931;0.0201413;-6.57036;-0.000390338;0.0002163;-0.000531724;-0.000233472;-0.00068859;0.000227559;-0.734099;-1.36221;0.000404365;0.000303412;-0.339058;-2.94935;133.447;178.447;0.000295662;-0.000390372;9.29039e-05;0.000339714;-0.000531705;0.00297332;0.00270061;0;0.0117592;-0.0031811;-0.0099779;-0.0309711;0.0326939;-6.60393;0.000681563;0.000307671;-0.00011462;0.0007866;-0.000219657;0.000503128;5.94628;0.168172;0.000610927;0.000670838;3.58104;0.279249;2.65476;47.6548;0.000797803;0.000681491;0.000127857;0.000487628;-0.000114581;-0.00104015;-0.00075763;0;0.021454;-0.0114249;2.22227
6000.03;7;25.7533;-0.00446164;-0.000173216;-2.18709;25.6602;-0.0083173;0.00016291;-0.00446516;-0.0107592;-0.00324469;-0.0121013;-0.0186641;0.0224793;-6.57209;-0.000251582;0.000435985;-0.000296149;0.000162688;-0.000710419;0.000436554;-0.849513;-1.17714;0.000536134;0.000582071;0.229003;4.36676;137.02;2.01995;0.00056343;-0.000251598;0.000402534;0.000469436;-0.000296135;0.00335585;0.00336011;0;0.0120527;-0.00317444;-0.0116911;-0.0350202;0.0370563;-6.60798;0.000640995;0.000349488;-0.000155757;0.000772568;-0.000287329;0.000529949;4.11536;0.242992;0.000632947;0.000706598;2.68879;0.371914;11.6709;56.6709;0.00119252;0.000640965;0.000271051;0.000427987;-0.000155732;-0.000441924;-0.00209972;0;0.0274989;-0.0114481;2.22656
7000.03;8;25.7535;-0.0042148;-0.000163632;-2.18664;25.6605;-0.00808618;0.000611124;-0.00417916;-0.0105281;-0.00367205;-0.0138102;-0.0195105;0.024184;-6.57294;-0.000524523;0.000203427;-0.000773297;-0.000410468;-0.000887352;0.000238442;-0.678294;-1.47429;0.000512791;0.000317923;-0.462576;-2.16181;122.249;167.249;0.000587978;-0.000524539;0.000135939;0.000270932;-0.000773286;0.00272697;0.00441824;0;0.011342;-0.00306874;-0.0126171;-0.040446;0.0424793;-6.61341;0.000425719;0.00037558;-0.000228787;0.000596617;-0.000399685;0.000498151;1.86076;0.537414;0.000578949;0.000664202;1.49272;0.66992;50.6311;95.6311;0.00111864;0.000425759;0.000503094;0.000247982;-0.000228843;-0.000316948;-0.00197466;0;0.0224298;-0.0112472;2.23489
8000.03;9;25.754;-0.00375316;-0.00014571;-2.18651;25.661;-0.0106162;0.000742789;-0.00370554;-0.0130581;-0.00392216;-0.0143677;-0.0245668;0.0287288;-6.57799;-0.000398706;0.000113173;-0.00106455;-0.000379996;-0.00108326;0.000351631;-0.374531;-2.67001;0.000634634;0.000468841;-0.35079;-2.85071;105.815;150.815;0.000910685;-0.000398739;-5.36099e-05;0.000280068;-0.00106454;0.00374798;0.00397686;0;0.0117479;-0.00344648;-0.0135341;-0.0463494;0.0484078;-6.61931;0.000603014;0.000357229;-0.000235481;0.000734567;-0.000367034;0.000550801;2.56077;0.390507;0.000647701;0.000734401;2.00136;0.499661;12.5908;57.5908;0.00162153;0.000602994;0.000307134;0.000407367;-0.000235465;-0.000920435;-0.00237714;0;0.0229562;-0.0111858;2.24162
9000.03;10;25.7518;-0.00596915;-0.000231742;-2.1863;25.6588;-0.019761;0.000950396;-0.00591728;-0.0222029;-0.00445591;-0.0161112;-0.027486;0.0321699;-6.58091;-0.00044064;0.000184522;-0.000795053;-0.000362014;-0.000873679;0.000255833;-0.554228;-1.80431;0.00050688;0.00034111;-0.414355;-2.41339;114.959;159.959;0.000319875;-0.000440649;0.000143968;0.000225091;-0.000795046;0.00483552;0.00440506;0;0.0117506;-0.00376039;-0.0155298;-0.0507294;0.0531863;-6.62369;0.000604493;0.000292184;-0.000188952;0.000700478;-0.000284937;0.000492707;3.19919;0.312579;0.000585548;0.000656943;2.45836;0.406775;29.314;74.314;0.00178834;0.000604514;0.000377199;0.000207102;-0.00018898;-0.00155559;-0.00346262;0;0.0245985;-0.0112359;2.24917
10000;11;25.7517;-0.00606879;-0.000235611;-2.18633;25.6587;-0.0203611;0.000922061;-0.00602018;-0.022803;-0.00348937;-0.019042;-0.0253828;0.0319228;-6.57881;-0.000461536;0.000245841;-0.00106502;-0.000374066;-0.00115249;0.000389213;-0.433358;-2.30756;0.000678906;0.00051895;-0.324572;-3.08098;114.282;159.282;0.000489395;-0.000461575;0.000119717;0.000372041;-0.001065;0.00462373;0.00524142;0;0.0115683;-0.00290174;-0.0180586;-0.0518076;0.0549414;-6.62477;0.000507941;0.000373302;-0.000261608;0.000659269;-0.000412936;0.000536102;1.94161;0.515036;0.00062446;0.000714803;1.59654;0.626354;41.9813;86.9813;0.00159765;0.000507974;0.000476006;0.000270519;-0.000261651;-0.000532056;-0.0039883;0;0.0234059;-0.0112026;2.2561
11000;12;25.7509;-0.0068353;-0.000265369;-2.18634;25.6579;-0.0284889;0.000917359;-0.0067976;-0.0309308;-0.0040189;-0.0203051;-0.0274365;0.0343688;-6.58086;-0.000438556;0.000268568;-0.000986227;-0.000328836;-0.00109595;0.000383555;-0.444681;-2.2488;0.000649391;0.000511407;-0.300048;-3.3328;122.334;167.334;0.000635087;-0.000438661;6.37894e-06;0.000530901;-0.000986191;0.0039061;0.00595191;0;0.0122838;-0.00316968;-0.0193186;-0.0561486;0.0594636;-6.62911;0.000525121;0.000306743;-0.000338093;0.000623019;-0.000435991;0.000529505;1.55318;0.643838;0.00061459;0.000706006;1.42897;0.699804;52.7668;97.7668;0.00208926;0.000525166;0.000565533;4.7729e-05;-0.000338206;-0.00136628;-0.00328588;0;0.0226823;-0.0111997;2.26311
12000;13;25.7514;-0.00637133;-0.000247356;-2.18679;25.6583;-0.0262054;0.000464333;-0.00636812;-0.0286473;-0.00422368;-0.0211245;-0.0318231;0.0384291;-6.58525;-0.000413024;0.000340857;-0.000975359;-0.000252333;-0.00113605;0.000441858;-0.423459;-2.36151;0.000688837;0.000589144;-0.222114;-4.50219;122.799;167.799;0.000763135;-0.000413105;0.000153529;0.000528291;-0.000975312;0.00368759;0.00500508;0;0.0139454;-0.00310418;-0.0202684;-0.0621426;0.0654381;-6.6351;0.000534975;0.000312348;-0.000333573;0.000635636;-0.000434234;0.000534935;1.60377;0.62353;0.000621327;0.000713247;1.46381;0.683149;51.8088;96.8088;0.00217686;0.000535022;0.000560242;6.42394e-05;-0.000333681;-0.00220184;-0.00383358;0;0.0279826;-0.0111891;2.2701
13000;14;25.7521;-0.00558769;-0.000216933;-2.18526;25.6592;-0.0284096;0.00199018;-0.00545399;-0.0308515;-0.00430919;-0.022598;-0.035867;0.0426108;-6.5893;-0.00062157;-7.61235e-05;-0.0010278;-0.000607774;-0.0010416;0.000216913;-0.604756;-1.65356;0.000604157;0.000289217;-0.583501;-1.71379;88.8501;133.85;0.000962213;-0.000621587;-0.000347694;0.000195557;-0.00102786;0.00276528;0.00503565;0;0.0136059;-0.00243979;-0.0220467;-0.0678372;0.0713715;-6.6408;0.000411313;0.000326768;-0.000294296;0.000539391;-0.000422374;0.000480882;1.39762;0.715504;0.000556643;0.000641177;1.27705;0.783057;60.769;105.769;0.00253533;0.000411365;0.000620562;3.27664e-05;-0.000294435;-0.00276293;-0.00271575;0;0.0266709;-0.0111176;2.27777
14000;15;25.7516;-0.00608586;-0.000236273;-2.18509;25.6588;-0.0334204;0.00216238;-0.00594534;-0.0358623;-0.00415861;-0.0228325;-0.0403511;0.0465492;-6.59378;-0.000644378;0.000134478;-0.00104126;-0.000603104;-0.00108254;0.000239716;-0.618843;-1.61592;0.00062636;0.000319621;-0.557121;-1.79494;117.523;162.523;0.000622237;-0.000644473;-0.00018738;0.000456465;-0.00104127;0.00347073;0.00588031;0;0.0122765;-0.00160172;-0.0226183;-0.0736557;0.077067;-6.64662;0.00039379;0.000324705;-0.000267309;0.000526594;-0.000400113;0.000463354;1.47316;0.678811;0.000536693;0.000617805;1.31611;0.759813;59.9212;104.921;0.00295903;0.000393839;0.00056673;8.25209e-05;-0.000267417;-0.00372411;-0.000611355;0;0.0240933;-0.0110683;2.2832
15000;16;25.7523;-0.00540074;-0.000209674;-2.18319;25.6596;-0.0351399;0.00406284;-0.00509826;-0.0375818;-0.00411411;-0.0247578;-0.0419175;0.0488565;-6.59535;-0.000558566;0.000326081;-0.000668829;-0.000282989;-0.000944406;0.000330709;-0.83514;-1.1974;0.000559654;0.000440945;-0.299648;-3.33725;144.294;9.29369;0.000596413;-0.000558728;-2.5093e-06;0.000654707;-0.000668776;0.00299076;0.0059241;0;0.0138596;-0.000565427;-0.0249668;-0.0773549;0.0812862;-6.65032;0.00032896;0.000313517;-0.000317381;0.000456048;-0.000444468;0.000450258;1.03648;0.9648;0.000519927;0.000600344;1.02605;0.974609;65.4959;110.496;0.00283861;0.000328988;0.00041914;0.000207826;-0.00031742;-0.00374106;-0.000215148;0;0.0254826;-0.0109612;2.2922
16000;17;25.7535;-0.00419739;-0.000162957;-2.18157;25.6609;-0.0342875;0.00567841;-0.00375202;-0.0367294;-0.00361663;-0.0260697;-0.0440697;0.0513307;-6.5975;-0.000513398;0.000171249;-0.000945282;-0.000453737;-0.00100494;0.000275603;-0.543117;-1.84123;0.000581113;0.000367471;-0.451505;-2.21481;123.966;168.966;0.000798237;-0.000513554;-0.00024123;0.000583906;-0.000945297;0.0043762;0.00785524;0;0.0139343;0.00162254;-0.0266943;-0.0802131;0.0845539;-6.65317;0.000306178;0.000276666;-0.000344384;0.000407924;-0.00044613;0.000427027;0.889061;1.12478;0.000493253;0.000569369;0.914362;1.09366;102.604;147.604;0.00356514;0.00030618;0.000281845;0.000271483;-0.000344385;-0.00434419;-6.82406e-06;0;0.0253352;-0.0108;2.29679
17000;18;25.7547;-0.00299473;-0.000116265;-2.18019;25.6623;-0.0291691;0.00706511;-0.00242084;-0.031611;-0.00216952;-0.0267032;-0.0461406;0.0533547;-6.59957;-0.000435594;0.000189361;-0.000794956;-0.000354233;-0.000876317;0.000261042;-0.547947;-1.82499;0.000509026;0.000348056;-0.404229;-2.47385;132.21;177.21;0.00114773;-0.000435799;-0.000289447;0.000668342;-0.00079498;0.00360637;0.00587404;0;0.016677;0.0049888;-0.0279817;-0.0809091;0.0857563;-6.65387;0.000218464;0.000333208;-0.000376053;0.000367736;-0.000525326;0.000446531;0.580937;1.72136;0.000518279;0.000595375;0.700015;1.42854;104.557;149.557;0.00345523;0.000218472;0.00036056;0.00030584;-0.000376063;-0.0029288;-0.000492775;0;0.0297735;-0.0109411;2.30033
18000;19;25.755;-0.0027648;-0.000107339;-2.17652;25.6628;-0.0252168;0.0107286;-0.00187492;-0.0276587;-0.00115188;-0.0252095;-0.0488051;0.0549435;-6.60223;-0.000331399;0.000404462;-0.000818504;-0.000102821;-0.00104708;0.00047213;-0.404885;-2.46984;0.00066643;0.000629507;-0.098198;-10.1835;141.818;6.81807;0.00165396;-0.000331791;-0.000163695;0.000972896;-0.000818435;0.00242313;0.00730054;0;0.0177457;0.00827598;-0.0275643;-0.0793922;0.0844476;-6.65235;0.000179908;0.000308974;-0.000434759;0.000308371;-0.000563222;0.000435797;0.413811;2.41656;0.000510335;0.000581062;0.547513;1.82644;146.948;11.9476;0.00407699;0.000179753;-1.82952e-05;0.000636444;-0.000434711;-0.00320101;-0.000270852;0;0.0288809;-0.010696;2.30807
19000;20;25.7552;-0.00255943;-9.93656e-05;-2.17605;25.6631;-0.0210507;0.0112058;-0.00162459;-0.0234926;-0.000290635;-0.0240017;-0.0471709;0.0529269;-6.6006;-0.000426579;0.00035875;-0.000707699;-0.000181835;-0.000952442;0.000385303;-0.602769;-1.65901;0.000583865;0.000513738;-0.190915;-5.23794;148.223;13.2229;0.0012883;-0.000426999;-0.000266966;0.000984642;-0.00070767;0.00354947;0.00639005;0;0.0166573;0.0100983;-0.0260404;-0.0756588;0.0806494;-6.64862;0.000352998;0.000319441;-0.00044026;0.00046564;-0.000552901;0.000509271;0.801796;1.2472;0.000588774;0.000679028;0.842176;1.1874;149.979;14.9794;0.00350411;0.000352871;4.08363e-05;0.000598266;-0.000440209;-0.00192031;-0.00121688;0;0.0285687;-0.0106877;2.31472
20000;21;25.7544;-0.00338114;-0.000131267;-2.1753;25.6623;-0.0216901;0.0119494;-0.00238674;-0.024132;0.000115412;-0.02458;-0.0449472;0.0512293;-6.59838;-0.000423052;0.000169821;-0.000674792;-0.00033754;-0.000760304;0.000211382;-0.626937;-1.59506;0.00043988;0.000281843;-0.443953;-2.25249;139.35;4.35027;0.00159198;-0.000423299;-0.000383309;0.00072309;-0.000674851;0.00360774;0.00588618;0;0.0127683;0.0110984;-0.0271637;-0.0710832;0.0769016;-6.64404;0.000259834;0.000327319;-0.000428239;0.000390664;-0.00055907;0.000474867;0.606749;1.64813;0.000551195;0.000633156;0.698775;1.43108;149.875;14.8751;0.0040367;0.000259663;-1.45052e-05;0.000669378;-0.000428186;-0.00196058;-0.00170563;0;0.0244604;-0.0105196;2.32219
21000;22;25.7551;-0.00267146;-0.000103715;-2.17557;25.663;-0.0221891;0.0116836;-0.00169748;-0.024631;6.1125e-05;-0.024649;-0.0459382;0.0521334;-6.59937;-0.00037259;9.83714e-05;-0.000426697;-0.00029762;-0.000501667;0.000102024;-0.873196;-1.14522;0.000291312;0.000136032;-0.593262;-1.6856;154.188;19.1879;0.00162979;-0.000372792;-0.000446292;0.000643064;-0.000426792;0.00250949;0.00618312;0;0.0158919;0.0113125;-0.0275343;-0.0730854;0.078915;-6.64605;0.00021255;0.000248032;-0.000378661;0.000302824;-0.000468934;0.000385879;0.56132;1.78151;0.000449002;0.000514505;0.64577;1.54854;147.348;12.3484;0.00341977;0.000212429;-5.52423e-05;0.000551486;-0.000378632;-0.000914508;-0.00122405;0;0.0273314;-0.0105782;2.32954
22000;23;25.756;-0.00177766;-6.90145e-05;-2.1746;25.664;-0.0210165;0.0126493;-0.000717629;-0.0234584;-0.000136452;-0.0254113;-0.0476614;0.0540126;-6.60109;-0.000459998;0.000478633;-0.000624922;-5.67751e-05;-0.00102815;0.000485685;-0.736088;-1.35853;0.000667311;0.00064758;-0.0552209;-18.1091;155.428;20.4278;0.00148117;-0.000460532;-0.000181818;0.00113919;-0.000624824;0.00279935;0.00694153;0;0.0124426;0.0115087;-0.0288195;-0.0743615;0.080577;-6.64732;0.000291498;0.000179419;-0.000465993;0.000331846;-0.000506341;0.000419094;0.625541;1.59862;0.000487411;0.000558791;0.65538;1.52583;141.733;6.73253;0.0039601;0.000291338;-0.000234621;0.000593772;-0.000466005;-0.00172062;-0.000382902;0;0.0218071;-0.0106581;2.33702
23000;24;25.7567;-0.00107535;-4.17486e-05;-2.1754;25.6646;-0.0240078;0.0118526;-8.29484e-05;-0.0264497;-8.00435e-05;-0.0253684;-0.0504974;0.0565115;-6.60393;-0.000244806;0.000444891;-0.000702792;2.65668e-05;-0.000974165;0.000500366;-0.348333;-2.87081;0.000658477;0.000667154;0.0272714;36.6685;147.999;12.9986;0.00153595;-0.000245289;-0.000188493;0.00107857;-0.000702711;0.00399549;0.00685141;0;0.0206481;0.0112726;-0.0288955;-0.0785845;0.084484;-6.65155;0.000205471;0.000255725;-0.000416459;0.000297116;-0.000508104;0.00040261;0.493376;2.02685;0.000470183;0.000536813;0.584754;1.71012;148.342;13.342;0.00429822;0.000205243;-0.00020987;0.00072161;-0.000416448;-0.00344525;-0.000967298;0;0.0312608;-0.0102213;2.3442
24000;25;25.7563;-0.00145742;-5.6582e-05;-2.17513;25.6643;-0.0234798;0.0121259;-0.00044274;-0.0259216;0.000244031;-0.0268495;-0.0496908;0.0564812;-6.60312;-0.000250052;0.000234023;-0.000972041;-0.000180833;-0.00104126;0.000430214;-0.257244;-3.88736;0.000642436;0.000573619;-0.173667;-5.75815;129.806;174.806;0.0014464;-0.000250413;-0.000412591;0.000881104;-0.000972099;0.00348782;0.00695989;0;0.0135819;0.0116373;-0.0303223;-0.0792723;0.0856678;-6.65223;0.000145543;0.000260368;-0.000495079;0.000238017;-0.000587552;0.000412784;0.29398;3.40159;0.000490676;0.000550379;0.405099;2.46853;142.723;7.72297;0.00402279;0.00014536;-0.000138134;0.000659127;-0.000495055;-0.00191124;-4.12925e-05;0;0.023869;-0.0103094;2.35235
25000;26;25.7581;0.000349703;1.35766e-05;-2.1754;25.666;-0.0223982;0.0118499;0.00134844;-0.0248401;-0.000115797;-0.0267799;-0.055055;0.0612228;-6.60848;-0.000324842;0.000133391;-0.000479657;-0.000248025;-0.000556473;0.000154224;-0.677238;-1.47659;0.000321911;0.000205632;-0.445709;-2.24362;148.146;13.1455;0.0011412;-0.000325106;-0.000471884;0.00073876;-0.000479759;0.00248744;0.00564952;0;0.0131441;0.0107614;-0.0303364;-0.0866986;0.0924811;-6.65966;0.000165062;0.000293892;-0.000411868;0.000288403;-0.000535209;0.000411806;0.400764;2.49523;0.000482577;0.000549075;0.538861;1.85577;149.241;14.2409;0.0042435;0.000164863;-0.000108002;0.000696018;-0.00041183;-0.00354451;0.000798426;0;0.0205498;-0.0102037;2.35869
26000;27;25.7554;-0.00233493;-9.06496e-05;-2.17566;25.6633;-0.0324738;0.0115917;-0.00137848;-0.0349157;0.00014197;-0.0290683;-0.0518606;0.0594518;-6.60529;-0.000357683;0.000141452;-0.000734615;-0.000310505;-0.000781793;0.000235644;-0.486899;-2.05381;0.000454539;0.000314191;-0.397171;-2.51781;133.343;178.343;0.00111459;-0.000357983;-0.000503997;0.000787144;-0.000734732;0.00371479;0.00678919;0;0.0125195;0.0111138;-0.0316769;-0.0857272;0.0920658;-6.65869;0.000176874;0.000222608;-0.000456499;0.000247285;-0.000526911;0.000387098;0.387457;2.58093;0.000456597;0.000516131;0.469312;2.13078;146.194;11.1936;0.00483026;0.000176545;-0.000395784;0.000841392;-0.000456553;-0.00444941;-0.000141955;0;0.0222803;-0.0100546;2.36143
27000;28;25.7571;-0.000669535;-2.59936e-05;-2.17577;25.665;-0.0296061;0.0114796;0.000286853;-0.032048;0.000521614;-0.0311128;-0.0534863;0.0618794;-6.60691;-0.000442322;0.000222513;-0.000524955;-0.000257322;-0.000709955;0.000226317;-0.842589;-1.18682;0.000415031;0.000301756;-0.362448;-2.75902;157.467;22.4668;0.00145544;-0.000442724;-0.000479215;0.000924299;-0.000525045;0.00203204;0.0052271;0;0.0131468;0.0114967;-0.0345643;-0.0865751;0.0939261;-6.65954;0.000231133;0.00028351;-0.000445737;0.000334191;-0.000548795;0.000441493;0.518542;1.92849;0.000514787;0.000588657;0.608955;1.64216;148.704;13.7045;0.00442892;0.00023088;-0.000197996;0.000765342;-0.000445716;-0.00388578;0.00098444;0;0.0245295;-0.00994985;2.36855
28000;29;25.7585;0.000748012;2.90403e-05;-2.17728;25.6663;-0.0337483;0.00997242;0.00157657;-0.0361901;0.000240537;-0.0324571;-0.05635;0.0650295;-6.60978;-0.000152107;0.000268391;-0.000162079;0.000111344;-0.000425531;0.000268437;-0.938473;-1.06556;0.000327179;0.000357917;0.26166;3.82176;172.542;37.5415;0.00154836;-0.00015248;-0.000367728;0.000904516;-0.000162111;0.00179605;0.00605895;0;0.027472;0.0107383;-0.0366536;-0.0940882;0.101545;-6.66705;0.00027143;0.000340434;-0.000263679;0.000436866;-0.000429115;0.00043299;1.0294;0.971444;0.000499981;0.00057732;1.01806;0.982258;161.125;26.125;0.00422809;0.000271086;-0.000216261;0.000897426;-0.000263645;-0.00217257;0.00136174;0;0.0318464;-0.00985298;2.37791
29000;30;25.7599;0.00221053;8.582e-05;-2.17689;25.6678;-0.0329869;0.0103627;0.00307843;-0.0354288;-0.000698221;-0.0330768;-0.0599155;0.0684428;-6.61334;-0.000301978;9.71433e-05;-0.000285793;-0.000196406;-0.000391365;9.74798e-05;-1.05663;-0.946405;0.000225955;0.000129973;-0.501847;-1.99264;169.62;34.62;0.00137362;-0.000302227;-0.00051782;0.000712096;-0.000285922;0.00198304;0.00689748;0;0.0152633;0.00973248;-0.0381571;-0.0990226;0.106565;-6.67198;0.000208267;0.000305823;-0.000103496;0.000395645;-0.000290873;0.000343259;2.01232;0.496938;0.000397897;0.000457679;1.36019;0.735189;169.161;34.1606;0.00344427;0.000207936;-0.000257364;0.000869186;-0.000103482;-0.00299078;0.00186063;0;0.0220397;-0.0091979;2.38239
30000;31;25.7607;0.00296195;0.000114993;-2.17718;25.6685;-0.031763;0.0100763;0.0038098;-0.0342048;-0.000758024;-0.0348785;-0.0604403;0.0697862;-6.61387;-0.000385384;0.000154246;4.82017e-05;9.74749e-05;-0.000434657;0.000266066;7.99522;0.125075;0.00032714;0.000354754;0.224257;4.45917;20.4321;65.4321;0.00122396;-0.000385728;-0.000536175;0.000844369;4.80699e-05;0.0020251;0.00679456;0;0.0183841;0.00921691;-0.0398846;-0.102391;0.110271;-6.67535;0.000347387;0.000375468;-5.65831e-05;0.000571752;-0.000280948;0.00042635;6.13941;0.162882;0.000501759;0.000568467;2.03508;0.491381;173.159;38.1587;0.00340671;0.000347021;-0.000183481;0.000934643;-5.65294e-05;-0.00317831;0.0025492;0;0.0244225;-0.00901019;2.38929
31000;32;25.7596;0.0018544;7.1994e-05;-2.17861;25.6673;-0.0392116;0.00864749;0.00256674;-0.0416535;-0.00152068;-0.0351033;-0.0596784;0.0692536;-6.61311;-0.000222396;0.000264697;-0.00055792;-7.67754e-05;-0.00070354;0.000313383;-0.398616;-2.50868;0.000445645;0.000417843;-0.109127;-9.16361;148.589;13.5889;0.00112437;-0.000222791;-0.000398079;0.000927695;-0.000557964;0.00190111;0.00619381;0;0.0190793;0.00737876;-0.0397285;-0.103135;0.110768;-6.6761;0.000330241;0.000297372;4.46369e-05;0.000517322;-0.000142444;0.000329883;-7.3984;-0.135164;0.000400889;0.000439844;3.63176;0.275348;0.588814;45.5888;0.00305888;0.000330062;-7.3387e-05;0.000668237;4.46784e-05;-0.00345813;0.00249133;0;0.0246429;-0.00883673;2.39694
32000;33;25.757;-0.000757289;-2.94004e-05;-2.17921;25.6646;-0.0435871;0.00803807;-0.00011314;-0.046029;-0.0016778;-0.0330683;-0.0555394;0.0646603;-6.60897;-0.000240225;0.000133784;-0.000307634;-0.000135965;-0.000411893;0.000137964;-0.78088;-1.28061;0.00024234;0.000183952;-0.330097;-3.02941;159.239;24.239;0.000827736;-0.000240435;-0.000394663;0.000662266;-0.000307702;0.00256805;0.00639924;0;0.0159772;0.00617752;-0.0361919;-0.0983685;0.104997;-6.67133;0.000196835;0.000335134;-0.000186563;0.000391224;-0.000380951;0.000386088;1.05506;0.947812;0.000445829;0.000514783;1.02697;0.973743;165.661;30.6608;0.00403344;0.000196707;6.36545e-05;0.000606718;-0.000186509;-0.00474001;0.00139186;0;0.0293254;-0.00851907;2.4035
33000;34;25.7555;-0.00227089;-8.81634e-05;-2.18139;25.6629;-0.0384446;0.00586408;-0.00180867;-0.0408864;-0.00238461;-0.0287708;-0.0542243;0.0614306;-6.60765;-0.000361053;4.18126e-05;-0.000924532;-0.000357967;-0.000927617;0.000284825;-0.390526;-2.56065;0.000540188;0.000379767;-0.3859;-2.59135;112.102;157.102;0.000712147;-0.00036118;-0.000420649;0.000504535;-0.000924619;0.00323775;0.00737035;0;0.0117473;0.00404249;-0.0306699;-0.0930128;0.0980222;-6.66597;0.000206993;0.000280856;-0.000364722;0.000321878;-0.000479607;0.000400743;0.567536;1.762;0.000465715;0.000534323;0.671129;1.49003;104;149;0.00378477;0.000206999;0.0003042;0.000257499;-0.000364729;-0.00520641;0.000573124;0;0.0239938;-0.00882723;2.41112
34000;35;25.7551;-0.00262167;-0.000101782;-2.18258;25.6624;-0.0333405;0.00467424;-0.00225475;-0.0357824;-0.0027745;-0.0251491;-0.0523495;0.0581433;-6.60578;-0.00029774;0.000217561;-0.000515529;-0.000163343;-0.000649926;0.000243292;-0.577542;-1.73148;0.000390398;0.000324389;-0.251325;-3.97891;143.276;8.27632;0.00119774;-0.000297895;-0.000163252;0.000598457;-0.000515519;0.00260272;0.00791547;0;0.0133021;0.00189157;-0.0266123;-0.088017;0.0919716;-6.66098;0.000331217;0.000292766;-0.000417551;0.000432096;-0.00051843;0.000475263;0.793237;1.26066;0.000549541;0.000633684;0.83347;1.1998;75.1061;120.106;0.0033568;0.000331243;0.000398554;0.000186898;-0.000417588;-0.00438287;-9.25048e-05;0;0.0232096;-0.00864153;2.41829
35000;36;25.7531;-0.00464576;-0.000180364;-2.18414;25.6603;-0.0314485;0.00310967;-0.00441688;-0.0338904;-0.00322819;-0.022098;-0.0505352;0.0552499;-6.60396;-0.000385852;0.000412042;-0.000912265;-0.000160125;-0.00113799;0.000488934;-0.422961;-2.36429;0.00071132;0.000651911;-0.140708;-7.1069;131.646;176.646;0.00121806;-0.000386031;9.773e-05;0.000726519;-0.000912185;0.00199765;0.00744123;0;0.0186345;-0.00023501;-0.0230459;-0.0831899;0.0863234;-6.65615;0.000410315;0.000346941;-0.000369115;0.000542372;-0.000501172;0.000521772;1.11162;0.899589;0.000602647;0.000695696;1.08221;0.924037;63.6867;108.687;0.00315456;0.000410372;0.000621088;7.25806e-05;-0.000369248;-0.00370408;-0.00130037;0;0.0281976;-0.00834616;2.4262
36000;37;25.7528;-0.00495621;-0.000192416;-2.18469;25.6599;-0.0325244;0.00256513;-0.00477615;-0.0349663;-0.00467743;-0.0208882;-0.0463725;0.0510745;-6.5998;-0.000473334;0.000453869;-0.000694487;-0.000116766;-0.00105106;0.000467145;-0.68156;-1.46722;0.000665206;0.000622859;-0.111094;-9.00137;139.735;4.73451;0.000477845;-0.000473479;0.000204258;0.000703535;-0.000694405;0.00400339;0.00620403;0;0.0206414;-0.00258502;-0.020969;-0.0787385;0.0815238;-6.6517;0.000350445;0.000303068;-0.000311462;0.000468246;-0.000429263;0.000448754;1.12516;0.888762;0.00051834;0.000598339;1.09081;0.916747;64.3052;109.305;0.0027159;0.000350491;0.000591635;1.43101e-05;-0.000311591;-0.00362841;-0.00165998;0;0.034231;-0.00839478;2.43176
37000;38;25.7507;-0.00704816;-0.000273633;-2.18532;25.6578;-0.0330274;0.00193507;-0.00692997;-0.0354693;-0.00550279;-0.018194;-0.0430274;0.0470389;-6.59646;-0.000454822;-1.87412e-05;-0.00138463;-0.000454444;-0.001385;0.00046528;-0.32848;-3.04433;0.000815229;0.000620373;-0.328118;-3.04769;92.4822;137.482;-0.000153704;-0.000454826;-0.000135954;9.85811e-05;-0.00138463;0.00554681;0.00672583;0;0.013741;-0.00357912;-0.0175468;-0.075788;0.077875;-6.64875;0.000528653;0.000304318;-0.000375244;0.00062156;-0.000468151;0.000544855;1.40882;0.709811;0.000631219;0.000726474;1.32769;0.753187;56.3698;101.37;0.00203529;0.000528696;0.000691418;-8.31311e-05;-0.000375437;-0.00195377;-0.00265877;0;0.0294237;-0.00817745;2.43919
38000;39;25.7521;-0.00562356;-0.000218325;-2.1869;25.6591;-0.0268493;0.000352768;-0.00562781;-0.0292911;-0.00551965;-0.0174637;-0.039552;0.0435868;-6.59298;-0.000456795;0.000443357;-0.000992818;-0.000206738;-0.00124288;0.000518069;-0.4601;-2.17344;0.000768991;0.000690759;-0.166338;-6.01185;127.682;172.682;0.0003499;-0.000456914;0.000228655;0.000658174;-0.000992746;0.00391574;0.00487952;0;0.0143448;-0.00524666;-0.0184212;-0.0655118;0.0682544;-6.63847;0.000669;0.000345097;-0.000246191;0.000784541;-0.000361732;0.000573137;2.71741;0.367998;0.000676641;0.000764182;2.16885;0.461074;40.5161;85.5161;0.0022452;0.00066905;0.000549292;0.000140715;-0.000246282;-0.00265466;-0.00267412;0;0.0237645;-0.00831965;2.44149
39000;40;25.7508;-0.00692435;-0.000268826;-2.18625;25.6578;-0.0304506;0.00100651;-0.00688163;-0.0328925;-0.00484268;-0.0172364;-0.0434654;0.0470084;-6.59689;-0.000300919;0.000265252;-0.000894663;-0.000199681;-0.000995901;0.00039811;-0.336349;-2.9731;0.000608396;0.000530814;-0.200503;-4.98747;116.735;161.735;0.000537183;-0.000300959;0.000141689;0.000388889;-0.000894638;0.00475854;0.00611457;0;0.0145101;-0.00401946;-0.017083;-0.0723775;0.0744747;-6.64534;0.000566355;0.00026891;-0.000370261;0.00063807;-0.000441976;0.000540023;1.52961;0.653762;0.000626981;0.000720031;1.44367;0.692677;51.9931;96.9931;0.00215441;0.000566388;0.00061367;-7.61739e-05;-0.000370413;-0.0022298;-0.00201905;0;0.0297313;-0.00838399;2.44717
40000;41;25.7515;-0.00626158;-0.000243095;-2.1853;25.6586;-0.0245732;0.00195428;-0.00612941;-0.0270151;-0.00559912;-0.0172272;-0.042724;0.0464055;-6.59615;-0.000497115;0.000332448;-0.00135148;-0.000382997;-0.0014656;0.000541303;-0.367829;-2.71866;0.000877713;0.000721737;-0.261324;-3.82667;116;161;0.00103714;-0.000497219;0.000100462;0.000564634;-0.00135143;0.00196708;0.00627177;0;0.0191674;-0.00480588;-0.0170916;-0.0709089;0.0730978;-6.64387;0.000549146;0.00031029;-0.000418021;0.000640134;-0.000509009;0.000574572;1.31368;0.761221;0.000664896;0.000766096;1.25761;0.795161;55.5399;100.54;0.00190997;0.000549194;0.000629618;-9.34655e-06;-0.000418171;-0.00226407;-0.00201692;0;0.0355441;-0.00848397;2.45486
41000;42;25.7516;-0.00615663;-0.000239021;-2.18565;25.6586;-0.0252687;0.00160415;-0.00605459;-0.0277105;-0.00547966;-0.0171234;-0.038334;0.0423407;-6.59176;-0.000466705;0.000226751;-0.00113605;-0.000397123;-0.00120563;0.000404255;-0.410813;-2.4342;0.000709451;0.000539007;-0.32939;-3.03592;116.208;161.208;0.000206267;-0.0004668;-3.79094e-05;0.000491589;-0.00113603;0.0053203;0.0063626;0;0.0184366;-0.00488892;-0.0166606;-0.0678625;0.0700485;-6.64082;0.000605545;0.000319855;-0.000321992;0.000705149;-0.000421596;0.000563372;1.88062;0.531739;0.000657357;0.000751163;1.67257;0.597882;52.6732;97.6732;0.00168994;0.000605592;0.000726012;-8.66783e-05;-0.000322204;-0.00132215;-0.00295364;0;0.0286206;-0.00809557;2.46175
42000;43;25.7527;-0.00500934;-0.000194479;-2.18625;25.6597;-0.0225104;0.000999812;-0.00495205;-0.0249523;-0.00656436;-0.0186091;-0.0379232;0.04275;-6.59135;-0.000605071;8.10537e-05;-0.001249;-0.000595025;-0.00125905;0.000332011;-0.484444;-2.06422;0.000727275;0.000442681;-0.4726;-2.11595;103.596;148.596;0.000227218;-0.000605112;-0.000133736;0.000295982;-0.00124901;0.00357664;0.00737578;0;0.0165722;-0.00582524;-0.0182816;-0.0660635;0.0687935;-6.63902;0.000640901;0.000329816;-0.000363693;0.000739504;-0.000462296;0.0006009;1.7622;0.567471;0.000699986;0.0008012;1.59963;0.625143;50.7224;95.7224;0.0018483;0.000640955;0.00067559;-1.63043e-05;-0.000363867;-0.00167516;-0.0032511;0;0.031661;-0.00841415;2.46943
43000;44;25.7526;-0.00515255;-0.000200039;-2.18622;25.6596;-0.0219743;0.00102973;-0.00509277;-0.0244162;-0.00643909;-0.0166036;-0.0434126;0.0469233;-6.59684;-0.000448605;0.000274958;-0.00123503;-0.000362006;-0.00132163;0.000479809;-0.363235;-2.75304;0.000788615;0.000639746;-0.27391;-3.65083;113.238;158.238;0.000275302;-0.000448667;0.000103706;0.000446345;-0.00123499;0.0041667;0.00556757;0;0.0160092;-0.00598426;-0.016535;-0.0701814;0.0723508;-6.64314;0.000550902;0.000302046;-0.000283911;0.000648723;-0.000381733;0.000515228;1.9404;0.515357;0.000601554;0.000686971;1.69942;0.588437;53.9063;98.9063;0.0019752;0.000550941;0.000711149;-0.000107398;-0.000284118;-0.000568357;-0.00323046;0;0.0297494;-0.00839368;2.47774
44000;45;25.7523;-0.00547652;-0.000212616;-2.18586;25.6593;-0.0219903;0.00139613;-0.00538671;-0.0244322;-0.0056104;-0.0162145;-0.0450899;0.048244;-6.59852;-0.000471356;0.000166213;-0.00109533;-0.000429843;-0.00113685;0.000353501;-0.430332;-2.32379;0.000662828;0.000471335;-0.378101;-2.64479;112.371;157.371;0.000680798;-0.000471423;-6.84575e-05;0.000401031;-0.00109532;0.0042278;0.00658622;0;0.0186772;-0.00512141;-0.0166588;-0.0714275;0.073523;-6.64439;0.000559791;0.000261853;-0.000288521;0.000634108;-0.000362838;0.000498473;1.94021;0.515408;0.000582646;0.000664631;1.74763;0.572202;52.0904;97.0904;0.00186039;0.000559811;0.000691985;-0.000168644;-0.000288726;-0.00233436;-0.00220801;0;0.0295019;-0.00846697;2.48498
45000;46;25.752;-0.00576028;-0.000223633;-2.18701;25.6589;-0.0270642;0.000246684;-0.00577429;-0.0295061;-0.00669719;-0.0189471;-0.037592;0.0426263;-6.59102;-0.000598157;6.60364e-05;-0.00100361;-0.000587673;-0.0010141;0.000213212;-0.596004;-1.67784;0.000587951;0.000284282;-0.579504;-1.72561;104.479;149.479;0.000530408;-0.00059818;-8.82533e-05;0.000220389;-0.00100361;0.00411636;0.00553607;0;0.0139416;-0.00590128;-0.0187115;-0.0657165;0.0685828;-6.63868;0.000607677;0.000318021;-0.000430927;0.000697318;-0.000520568;0.000608943;1.41016;0.709139;0.000705611;0.000811924;1.33953;0.74653;54.829;99.829;0.00187745;0.000607722;0.000740358;-0.000104755;-0.000431151;-0.00260498;-0.00262629;0;0.0289554;-0.00859876;2.49043
46000;47;25.7534;-0.00436856;-0.000169602;-2.18619;25.6604;-0.0176691;0.00106743;-0.0042994;-0.020111;-0.00665937;-0.0165659;-0.0434526;0.0469777;-6.59688;-0.000511946;0.000635401;-0.000932633;-5.29768e-05;-0.0013916;0.000669313;-0.548925;-1.82174;0.00091059;0.000892417;-0.038069;-26.2681;134.319;179.319;0.000299321;-0.00051211;0.000415419;0.000855477;-0.000932517;0.00352002;0.0057291;0;0.0129958;-0.00649194;-0.0172567;-0.066506;0.0690144;-6.63947;0.000599132;0.000275067;-0.000377574;0.000671271;-0.000449713;0.000560492;1.58679;0.630201;0.0006514;0.000747322;1.49267;0.669942;48.7185;93.7185;0.00193076;0.00059917;0.000549886;-1.92626e-08;-0.000377688;-0.00264718;-0.00312893;0;0.0305227;-0.00835237;2.49868
47000;48;25.7501;-0.00766202;-0.000297465;-2.18657;25.6571;-0.0277208;0.00068437;-0.00764633;-0.0301627;-0.00578028;-0.0190698;-0.0357742;0.0409495;-6.5892;-0.000589414;8.39878e-05;-0.000875174;-0.000566557;-0.00089803;0.000165737;-0.673482;-1.48482;0.000524366;0.000220982;-0.630889;-1.58507;108.481;153.481;0.000213708;-0.000589425;4.53837e-07;0.000167546;-0.00087517;0.0042077;0.00619655;0;0.0158983;-0.00530527;-0.0178355;-0.0643254;0.0669627;-6.63729;0.000526102;0.000293548;-0.0003545;0.000614985;-0.000443383;0.000529184;1.48407;0.673824;0.00061372;0.000705578;1.38703;0.720966;51.5864;96.5864;0.00184892;0.000526143;0.000522795;6.40988e-05;-0.000354594;-0.00174087;-0.00310483;0;0.0316218;-0.00853058;2.50549
48000;49;25.7535;-0.00418838;-0.000162607;-2.18711;25.6605;-0.0173823;0.000144486;-0.00419702;-0.0198242;-0.00448867;-0.0162617;-0.041976;0.0452391;-6.5954;-0.000415945;4.50459e-05;-0.00127283;-0.000413584;-0.00127519;0.000430804;-0.326788;-3.06009;0.000751226;0.000574405;-0.324331;-3.08327;97.2597;142.26;0.000693536;-0.000415959;-8.12501e-05;0.00017145;-0.00127283;0.00359985;0.00729294;0;0.0196788;-0.00442918;-0.0161606;-0.0690509;0.0710549;-6.64201;0.000562617;0.00030068;-0.000360066;0.000651952;-0.000449401;0.000550677;1.56254;0.639984;0.000639441;0.000734235;1.45071;0.689316;54.4724;99.4724;0.00195404;0.000562657;0.000702579;-0.000101589;-0.000360268;-0.00175597;-0.00341757;0;0.0390127;-0.00843334;2.51011
49000;50;25.7526;-0.00518053;-0.000201125;-2.18657;25.6595;-0.0225666;0.000681554;-0.00515103;-0.0250085;-0.00473701;-0.0169358;-0.0446738;0.0480105;-6.5981;-0.000599877;0.000175201;-0.000918923;-0.000522455;-0.000996344;0.000236945;-0.652804;-1.53185;0.000575467;0.000315926;-0.524372;-1.90704;119.309;164.309;0.000152608;-0.000599913;2.85983e-05;0.00032185;-0.000918908;0.00486389;0.00561526;0;0.0214306;-0.00452711;-0.0165878;-0.0714339;0.0734741;-6.64439;0.00059467;0.000340221;-0.000329831;0.000706376;-0.000441536;0.000573956;1.80296;0.554644;0.000668601;0.000765275;1.59981;0.625073;53.0669;98.0669;0.00184789;0.000594728;0.000699802;-1.9693e-05;-0.000330018;-0.00199298;-0.00174082;0;0.038869;-0.008662;2.51325
50000;51;25.7519;-0.00587514;-0.000228092;-2.18726;25.6588;-0.0256534;-7.29571e-06;-0.00590977;-0.0280953;-0.00487921;-0.0171253;-0.0414528;0.0451156;-6.59488;-0.000411253;0.000245059;-0.000943087;-0.000315554;-0.00103879;0.000361616;-0.436071;-2.2932;0.000614946;0.000482154;-0.303772;-3.29194;115.389;160.389;0.000759997;-0.000411282;0.000148581;0.00034159;-0.000943068;0.00401266;0.00614927;0;0.019607;-0.00454897;-0.0169227;-0.0684048;0.0706137;-6.64137;0.00056655;0.000273366;-0.000332592;0.000643138;-0.000409179;0.000526159;1.70344;0.587047;0.00061254;0.000701545;1.57178;0.636223;50.4821;95.4821;0.00192038;0.000566587;0.000588989;-4.25413e-05;-0.000332728;-0.00146579;-0.0032991;0;0.031996;-0.00832441;2.5204
51000;52;25.7525;-0.00520253;-0.000201979;-2.18621;25.6596;-0.0213192;0.00104033;-0.00514148;-0.0237611;-0.00528561;-0.0153778;-0.0423445;0.0453594;-6.59577;-0.000410155;0.000158679;-0.000981992;-0.000369074;-0.00102307;0.000326999;-0.417676;-2.3942;0.000598258;0.000435999;-0.360751;-2.772;106.766;151.766;0.000818381;-0.000410165;0.000103909;0.000213481;-0.000981985;0.00307586;0.00668388;0;0.0167918;-0.00490853;-0.0152932;-0.0698868;0.0717088;-6.64285;0.000619902;0.000238527;-0.000322874;0.000676815;-0.000379786;0.000528301;1.91995;0.520846;0.000618012;0.000704401;1.78209;0.561138;46.6011;91.6011;0.00187411;0.000619925;0.000577876;-0.000101142;-0.000323012;-0.00181138;-0.00247572;0;0.0306608;-0.00866803;2.52739
52000;53;25.7511;-0.00658611;-0.000255694;-2.18722;25.6581;-0.025935;2.91183e-05;-0.0066205;-0.0283769;-0.00631183;-0.0176085;-0.0373477;0.0417702;-6.59078;-0.000444598;0.000246437;-0.00092803;-0.000341122;-0.00103151;0.000345192;-0.479077;-2.08735;0.000606813;0.000460256;-0.330703;-3.02387;117.221;162.221;0.000619706;-0.00044463;0.000139203;0.000353723;-0.000928009;0.00369087;0.00564914;0;0.0153992;-0.00564703;-0.0170937;-0.0648411;0.0672937;-6.6378;0.000490734;0.000294634;-0.000312322;0.000587235;-0.000408824;0.00049803;1.57124;0.636439;0.000578142;0.00066404;1.4364;0.696184;56.9934;101.993;0.00186738;0.00049077;0.000704586;-0.000115647;-0.000312527;-0.00173666;-0.00398224;0;0.0290609;-0.00851468;2.53501
53000;54;25.7514;-0.00634236;-0.000246231;-2.18652;25.6584;-0.0257052;0.000736843;-0.00631532;-0.0281471;-0.00596749;-0.0181025;-0.0341218;0.0390846;-6.58755;-0.000351778;0.00038248;-0.00103517;-0.000180594;-0.00120636;0.000512882;-0.339825;-2.94269;0.000751311;0.000683843;-0.149701;-6.67996;122.656;167.656;0.000761969;-0.000351882;0.000169505;0.0005956;-0.00103512;0.00381069;0.00620391;0;0.0145132;-0.00544267;-0.0169383;-0.0631229;0.0655822;-6.63608;0.000629906;0.000335279;-0.000318168;0.000736492;-0.000424754;0.000580623;1.97979;0.505103;0.000678451;0.000774164;1.73393;0.576726;48.5679;93.5679;0.00149111;0.000629961;0.000626751;4.35314e-05;-0.000318308;-0.00141033;-0.00326245;0;0.0288921;-0.00854155;2.54267
54000;55;25.7511;-0.00663816;-0.000257715;-2.18704;25.658;-0.0252898;0.000213624;-0.00665637;-0.0277317;-0.00626983;-0.0177594;-0.0350036;0.0397487;-6.58843;-0.000446853;0.000411992;-0.000799174;-0.000174939;-0.00107109;0.000448074;-0.559143;-1.78845;0.000663478;0.000597432;-0.163329;-6.12262;129.959;174.959;-1.92092e-05;-0.000446923;0.000267491;0.000556544;-0.000799125;0.00526487;0.00656602;0;0.0163997;-0.00580368;-0.0169513;-0.062235;0.0647629;-6.6352;0.000577867;0.0002859;-0.000290367;0.000663554;-0.000376054;0.000519804;1.99012;0.502482;0.00060782;0.000693072;1.76452;0.566728;47.6972;92.6972;0.00170894;0.000577907;0.000556544;1.50203e-05;-0.000290481;-0.00197626;-0.00347164;0;0.0328587;-0.00826354;2.54958
55000;56;25.7514;-0.00630819;-0.000244905;-2.18654;25.6584;-0.0265801;0.000711698;-0.00628405;-0.0290219;-0.00601084;-0.0169682;-0.0389941;0.0429487;-6.59242;-0.000362064;0.000270786;-0.000917782;-0.00025194;-0.00102791;0.000387983;-0.394499;-2.53486;0.000618634;0.00051731;-0.245101;-4.07996;118.165;163.165;0.000443014;-0.00036211;0.000134092;0.000407555;-0.000917754;0.00351496;0.00588279;0;0.0206932;-0.00557482;-0.0167864;-0.0663219;0.0686401;-6.63928;0.000611981;0.000358583;-0.00029421;0.000736706;-0.000418936;0.000577821;2.08008;0.480751;0.000675566;0.000770428;1.75852;0.568661;50.0421;95.0421;0.00186998;0.000612043;0.000653978;6.29192e-05;-0.00029436;-0.00191407;-0.00326262;0;0.0328508;-0.00848946;2.55728
56000;57;25.7516;-0.00610072;-0.00023685;-2.18621;25.6587;-0.0240726;0.00103825;-0.00604554;-0.0265145;-0.00568779;-0.0168423;-0.0389829;0.0428448;-6.59241;-0.00044274;0.000301378;-0.00091457;-0.000295922;-0.00106139;0.000382733;-0.484096;-2.06571;0.000632465;0.000510311;-0.278806;-3.58672;121.875;166.875;0.000786604;-0.000442792;0.000159701;0.000443122;-0.000914538;0.00363896;0.00657089;0;0.0232682;-0.00541858;-0.0163976;-0.0660222;0.0682434;-6.63898;0.000582429;0.000331612;-0.000312711;0.000691892;-0.000422174;0.000557033;1.86251;0.536909;0.000649459;0.000742711;1.63888;0.610173;53.8353;98.8353;0.00213733;0.000582482;0.000726401;-6.35296e-05;-0.00031292;-0.00322813;-0.00381182;0;0.0369689;-0.00832806;2.56423
57000;58;25.7531;-0.00467684;-0.00018157;-2.18582;25.6601;-0.0198533;0.00143579;-0.00457902;-0.0222951;-0.00548491;-0.0168213;-0.0393243;0.0431212;-6.59275;-0.000469743;0.000367818;-0.00146155;-0.000348225;-0.00158307;0.000617424;-0.3214;-3.11139;0.000960582;0.000823232;-0.219968;-4.54612;112.981;157.981;0.000595486;-0.000469815;0.000208249;0.000527545;-0.00146151;0.00325223;0.0064726;0;0.0186066;-0.00517558;-0.0163343;-0.0665592;0.0687294;-6.63952;0.000670659;0.000270034;-0.000389479;0.000735478;-0.000454298;0.000594888;1.72194;0.580741;0.000693283;0.000793184;1.61893;0.617691;43.8916;88.8916;0.00181863;0.000670695;0.00052142;1.83825e-05;-0.000389579;-0.00188598;-0.00356246;0;0.0359057;-0.00846149;2.57213
58000;59;25.7527;-0.00499701;-0.000194001;-2.18652;25.6597;-0.0226698;0.000735824;-0.00496232;-0.0251117;-0.00590728;-0.0166044;-0.0398952;0.0436145;-6.59332;-0.000467504;0.000282732;-0.00110097;-0.00035967;-0.00120881;0.000424568;-0.424628;-2.355;0.000716722;0.00056609;-0.297542;-3.36087;118.429;163.429;0.000418139;-0.000467586;7.13053e-05;0.000494292;-0.00110093;0.00489213;0.00725901;0;0.0225607;-0.00556192;-0.0166147;-0.0664845;0.0687544;-6.63945;0.000563391;0.000307273;-0.000353318;0.000656857;-0.000446783;0.00055182;1.59457;0.627127;0.000641023;0.00073576;1.47019;0.680184;54.7781;99.7781;0.00184533;0.000563433;0.000720107;-0.00010594;-0.00035353;-0.00181804;-0.00272964;0;0.0315685;-0.00851578;2.57867
59000;60;25.7529;-0.00487678;-0.000189332;-2.18628;25.6599;-0.0190612;0.000969574;-0.00481879;-0.0215031;-0.00646186;-0.0180619;-0.0374797;0.0421036;-6.59091;-0.000389575;0.000514168;-0.0012944;-0.000157118;-0.00152685;0.000684868;-0.30097;-3.32259;0.000969782;0.000913158;-0.102903;-9.7179;120.953;165.953;0.000696037;-0.000389696;0.000316171;0.000712345;-0.00129431;0.00350502;0.00655339;0;0.0149811;-0.0060381;-0.0173583;-0.0654115;0.0679443;-6.63837;0.000615885;0.000309385;-0.000403209;0.000702457;-0.000489781;0.000596119;1.52746;0.654683;0.00069198;0.000794825;1.43423;0.69724;52.5166;97.5166;0.00179428;0.000615932;0.000674723;-5.63249e-05;-0.000403389;-0.00217652;-0.00293778;0;0.0280675;-0.00841963;2.5855
60000;61;25.7517;-0.00607682;-0.000235922;-2.18547;25.6587;-0.0225531;0.0017861;-0.00595645;-0.024995;-0.00764548;-0.0175823;-0.035108;0.040002;-6.58854;-0.000569836;0.00017135;-0.0012994;-0.000531596;-0.00133764;0.000403023;-0.438537;-2.28031;0.000777688;0.000537364;-0.397413;-2.51628;105.994;150.994;0.000659713;-0.000569862;5.95953e-05;0.000283186;-0.00129939;0.00306967;0.00767217;0;0.0134767;-0.00661581;-0.016482;-0.062957;0.0654142;-6.63592;0.000693442;0.000271816;-0.000295748;0.000763212;-0.000365519;0.000564365;2.3447;0.426493;0.00066502;0.000752487;2.08802;0.478922;46.4044;91.4044;0.00188388;0.000693469;0.000679865;-0.000136636;-0.000295943;-0.00252087;-0.00302361;0;0.0280092;-0.00808533;2.59183
61000;62;25.7516;-0.00618112;-0.000239972;-2.18583;25.6586;-0.0245577;0.00142515;-0.00609372;-0.0269996;-0.00766138;-0.0183078;-0.0376351;0.0425473;-6.59106;-0.000516439;0.000306571;-0.00131032;-0.000411835;-0.00141492;0.000501544;-0.394132;-2.53722;0.000840344;0.000668726;-0.291065;-3.43566;113.501;158.501;0.000363562;-0.000516496;0.000156844;0.000456416;-0.00131028;0.00482277;0.00692971;0;0.0271064;-0.0065929;-0.0173268;-0.0662978;0.068841;-6.63926;0.000586049;0.000268302;-0.000320008;0.000659538;-0.000393497;0.000526518;1.83136;0.546043;0.000614404;0.000702024;1.67609;0.596626;49.2342;94.2342;0.00197917;0.000586083;0.000594818;-5.85089e-05;-0.000320149;-0.00119212;-0.00270259;0;0.0355084;-0.00839167;2.59676
62000;63;25.7511;-0.00660027;-0.000256244;-2.18615;25.6582;-0.0246062;0.00110429;-0.00654177;-0.0270481;-0.0063124;-0.0183627;-0.0360141;0.0409152;-6.58944;-0.000381552;7.42616e-05;-0.00132795;-0.00037576;-0.00133374;0.000478989;-0.287325;-3.48038;0.000794114;0.000638652;-0.281735;-3.54944;98.1575;143.158;0.000490518;-0.000381566;-3.65432e-05;0.000185172;-0.00132794;0.00430309;0.00605077;0;0.0151214;-0.0053491;-0.0177897;-0.0629748;0.0656576;-6.63594;0.000653825;0.0002738;-0.000268558;0.000728977;-0.000343709;0.000536343;2.43458;0.410748;0.000632491;0.000715124;2.12091;0.471495;42.5997;87.5997;0.002137;0.000653863;0.000543868;3.48289e-06;-0.000268668;-0.00283115;-0.00309369;0;0.0281978;-0.00839021;2.60198
63000;64;25.7529;-0.00479989;-0.000186348;-2.18538;25.66;-0.0198057;0.00186965;-0.00466552;-0.0222476;-0.00645202;-0.01733;-0.0397555;0.0438459;-6.59318;-0.000435234;-2.51717e-05;-0.00127035;-0.000434476;-0.00127111;0.000418316;-0.342609;-2.91878;0.000746017;0.000557754;-0.341809;-2.92561;93.5616;138.562;0.000506044;-0.000435242;-0.000184147;0.000133937;-0.00127037;0.00417893;0.00735351;0;0.0127999;-0.0057293;-0.0174779;-0.0654834;0.0680174;-6.63844;0.000630408;0.000333968;-0.000355571;0.000732879;-0.000458042;0.000595461;1.77295;0.564033;0.000693655;0.000793947;1.60003;0.62499;53.2351;98.2351;0.00192341;0.000630459;0.000766132;-9.86228e-05;-0.000355809;-0.00207465;-0.00320326;0;0.0238528;-0.00821182;2.6093
64000;65;25.7539;-0.00387934;-0.000150609;-2.18573;25.6609;-0.0194281;0.00151872;-0.00377124;-0.02187;-0.00744886;-0.0144298;-0.0466836;0.0494273;-6.60011;-0.00048981;0.00027206;-0.00115621;-0.000392849;-0.00125317;0.000430161;-0.423635;-2.36052;0.000740108;0.000573548;-0.313484;-3.18996;115.022;160.022;0.000820491;-0.000489866;0.000115056;0.000429169;-0.00115618;0.00298623;0.0075322;0;0.0174123;-0.00647875;-0.0150579;-0.0726331;0.0744599;-6.64559;0.00057252;0.000246037;-0.000269533;0.000639138;-0.000336152;0.000487645;2.12411;0.470784;0.00057207;0.000650193;1.90134;0.525945;50.2327;95.2327;0.00188843;0.000572535;0.000666138;-0.000174418;-0.000269725;-0.000528897;-0.0030026;0;0.0309752;-0.0082597;2.61627
65000;66;25.7494;-0.00829794;-0.000322153;-2.18669;25.6564;-0.0291484;0.000566476;-0.00829619;-0.0315903;-0.00431315;-0.0198652;-0.0302655;0.0364586;-6.58369;-0.000415058;0.000390317;-0.000912523;-0.000200957;-0.00112662;0.000462834;-0.454847;-2.19854;0.000693866;0.000617112;-0.178371;-5.60631;126.375;171.375;0.00025981;-0.000415145;0.00020942;0.000571305;-0.000912468;0.00479147;0.00504848;0;0.0191928;-0.00414471;-0.0182497;-0.0588081;0.0617141;-6.63177;0.000577271;0.000277284;-0.000337003;0.000654794;-0.000414525;0.000534659;1.71296;0.583786;0.000622545;0.000712879;1.57962;0.633062;44.0561;89.0561;0.00168507;0.000577305;0.000461342;9.30576e-05;-0.000337071;-0.000499577;-0.00419289;0;0.0367526;-0.00838765;2.62304
66000;67;25.7533;-0.00444911;-0.000172729;-2.18609;25.6603;-0.0195575;0.00115938;-0.00437378;-0.0219994;-0.00580764;-0.0166087;-0.0412715;0.0448655;-6.5947;-0.000522769;7.29741e-05;-0.00135057;-0.000516385;-0.00135696;0.000420285;-0.387072;-2.5835;0.000790856;0.00056038;-0.380547;-2.6278;99.8346;144.835;0.000688731;-0.000522793;-8.64143e-05;0.000232495;-0.00135057;0.00398051;0.00777339;0;0.0168162;-0.00540751;-0.0163791;-0.0673168;0.0694915;-6.64028;0.000643323;0.000323851;-0.000332687;0.000741004;-0.000430368;0.000585686;1.93372;0.517138;0.000684173;0.000780915;1.72179;0.580791;50.2207;95.2207;0.00186816;0.000643374;0.000687534;-4.0187e-05;-0.000332871;-0.0016132;-0.00370249;0;0.0325826;-0.00826756;2.63057
67000;68;25.7507;-0.00706295;-0.000274207;-2.18699;25.6576;-0.0241922;0.000267021;-0.00707709;-0.0266341;-0.00569091;-0.0191389;-0.0332642;0.0387968;-6.58669;-0.000342114;0.000429845;-0.000998953;-0.000129584;-0.00121148;0.000540949;-0.342473;-2.91994;0.000768112;0.000721265;-0.106964;-9.34898;126.78;171.78;0.000881991;-0.000342258;0.000173501;0.000686358;-0.000998875;0.00288149;0.00625554;0;0.0146292;-0.00543596;-0.0178722;-0.0607463;0.0635538;-6.63371;0.00057937;0.000271345;-0.000365644;0.00065174;-0.000438014;0.000544877;1.58452;0.631106;0.000633191;0.000726503;1.48794;0.672069;50.6941;95.6941;0.00186181;0.000579406;0.00059115;-4.8763e-05;-0.000365782;-0.00108624;-0.00310815;0;0.0307917;-0.00850572;2.63756
68000;69;25.7535;-0.00421915;-0.000163801;-2.18625;25.6605;-0.0201737;0.00100371;-0.00415673;-0.0226155;-0.00712038;-0.0152894;-0.0445153;0.0476033;-6.59794;-0.000413011;0.000398613;-0.00109662;-0.000229722;-0.00127991;0.000525093;-0.376622;-2.65518;0.000787941;0.000700124;-0.179483;-5.57154;119.248;164.248;0.00030867;-0.000413067;0.000277718;0.000519591;-0.00109658;0.00435063;0.00702935;0;0.0210965;-0.00658855;-0.0155653;-0.0707427;0.0727339;-6.6437;0.000613078;0.000251925;-0.00025293;0.000681032;-0.000320884;0.000500958;2.42391;0.412557;0.000590782;0.000667944;2.12236;0.471173;45.7036;90.7036;0.00209602;0.000613107;0.00057971;-7.61442e-05;-0.000253066;-0.00146289;-0.00352718;0;0.0321009;-0.00843426;2.64531
69000;70;25.7516;-0.00614502;-0.00023857;-2.18585;25.6586;-0.0234634;0.0014041;-0.00605826;-0.0259053;-0.00652656;-0.016933;-0.0391268;0.0431303;-6.59255;-0.00042663;0.000255738;-0.00107997;-0.000338432;-0.00116817;0.000414867;-0.395039;-2.53139;0.000694039;0.000553156;-0.289712;-3.4517;113.825;158.825;0.000346857;-0.00042667;0.000128552;0.000383007;-0.00107994;0.00457602;0.00676905;0;0.0191235;-0.00595672;-0.0166697;-0.0653466;0.0677019;-6.63831;0.000674256;0.000252094;-0.000352419;0.000732816;-0.000410979;0.000571897;1.91322;0.522678;0.000669027;0.00076253;1.7831;0.560821;45.2293;90.2293;0.0017288;0.000674284;0.00058651;-8.26653e-05;-0.000352559;-0.000785349;-0.00332314;0;0.0325077;-0.00843115;2.65033
70000;71;25.753;-0.00474006;-0.000184025;-2.186;25.66;-0.0196086;0.00125127;-0.00465799;-0.0220505;-0.00667953;-0.0164697;-0.041409;0.0450619;-6.59484;-0.00042276;0.000410854;-0.000899791;-0.000186207;-0.00113634;0.000475069;-0.469842;-2.12837;0.000703754;0.000633425;-0.163865;-6.1026;126.032;171.032;0.00105565;-0.000422829;0.000268003;0.000553773;-0.000899742;0.00278412;0.00714891;0;0.0168819;-0.00617689;-0.0164513;-0.0675654;0.0698132;-6.64053;0.000592116;0.000286632;-0.000303893;0.000675963;-0.00038774;0.000531851;1.94844;0.513232;0.000621599;0.000709135;1.74334;0.573611;47.5307;92.5307;0.00211421;0.000592157;0.000562872;1.01452e-05;-0.00030401;-0.000480479;-0.00374412;0;0.0301446;-0.00843206;2.65953
71000;72;25.7525;-0.00523166;-0.00020311;-2.18657;25.6595;-0.0217424;0.000680891;-0.00520169;-0.0241843;-0.00624744;-0.0173546;-0.0394088;0.0435117;-6.59284;-0.000459668;0.000468057;-0.00103903;-0.000198901;-0.00129979;0.000550446;-0.442403;-2.26038;0.000808426;0.000733928;-0.153025;-6.53489;124.153;169.153;0.000606657;-0.000459739;0.000335266;0.000600925;-0.00103897;0.003445;0.00664462;0;0.0154162;-0.00580145;-0.0170496;-0.0659138;0.0683299;-6.63887;0.000610525;0.000316944;-0.000255433;0.000714132;-0.00035904;0.000536586;2.39016;0.418383;0.000630801;0.000715448;1.989;0.502764;46.8206;91.8206;0.00165114;0.000610575;0.000594948;3.86997e-05;-0.00025556;-0.00105233;-0.00346194;0;0.0284182;-0.00849421;2.66523
72000;73;25.7512;-0.00648489;-0.000251765;-2.18709;25.6582;-0.0269382;0.000161716;-0.00650864;-0.0293801;-0.00651672;-0.0177647;-0.0385447;0.0429388;-6.59197;-0.00049608;0.000146028;-0.00119187;-0.000466675;-0.00122127;0.000377299;-0.41622;-2.40257;0.000711604;0.000503066;-0.382122;-2.61697;107.192;152.192;0.000263264;-0.00049612;-2.72297e-05;0.000319406;-0.00119186;0.00480871;0.00519384;0;0.0201349;-0.0058149;-0.0173181;-0.0659445;0.0684281;-6.63891;0.000602863;0.000384437;-0.000369922;0.000736446;-0.000503505;0.000619976;1.6297;0.613609;0.000720085;0.000826634;1.46264;0.683696;57.9645;102.965;0.00191029;0.000602927;0.000914919;-0.000146561;-0.000370267;-0.00172814;-0.00284785;0;0.0330401;-0.00831454;2.66776
73000;74;25.7529;-0.0048149;-0.00018693;-2.18613;25.66;-0.0218847;0.00112652;-0.00474557;-0.0243266;-0.00606796;-0.018263;-0.0398865;0.0442865;-6.59331;-0.000418848;0.000223136;-0.00147658;-0.000373703;-0.00152173;0.000574013;-0.28366;-3.52535;0.000915699;0.00076535;-0.245578;-4.07203;109.872;154.872;0.000563879;-0.000418953;-6.38101e-05;0.000510385;-0.00147656;0.00413978;0.00695469;0;0.0148133;-0.00535788;-0.0179593;-0.0685239;0.0710406;-6.64148;0.000627907;0.00028749;-0.000288084;0.000710661;-0.000370838;0.00054075;2.1796;0.458801;0.000634596;0.000721;1.91636;0.521821;49.9859;94.9859;0.00191947;0.00062794;0.000705079;-0.000130482;-0.000288291;-0.00155733;-0.0035302;0;0.0285524;-0.00839295;2.67403
74000;75;25.7512;-0.00655141;-0.000254347;-2.18508;25.6583;-0.0283451;0.00217365;-0.00640551;-0.030787;-0.00614224;-0.0200695;-0.0396712;0.0448812;-6.5931;-0.000506907;0.000339348;-0.000954413;-0.000324185;-0.00113714;0.000406475;-0.531119;-1.88282;0.000676439;0.000541967;-0.285089;-3.50768;126.735;171.735;0.000731349;-0.000507007;0.000118004;0.000560791;-0.000954362;0.00383076;0.00647721;0;0.0136039;-0.0051417;-0.0196578;-0.0701534;0.0730367;-6.64311;0.000585943;0.000249085;-0.00033208;0.000649172;-0.000395309;0.00052224;1.76447;0.566744;0.00060894;0.000696321;1.64219;0.608943;46.0722;91.0722;0.00215664;0.000585974;0.000505417;-7.48186e-06;-0.000332177;-0.00247713;-0.00230857;0;0.0268545;-0.00807967;2.68096
75000;76;25.7519;-0.00579416;-0.000224948;-2.18598;25.659;-0.0310719;0.00126788;-0.00572582;-0.0335137;-0.00601876;-0.0214028;-0.0411246;0.0467497;-6.59455;-0.000436685;0.000114157;-0.00101094;-0.000414824;-0.0010328;0.00030899;-0.431958;-2.31504;0.000600122;0.000411987;-0.401648;-2.48974;108.853;153.853;0.000726521;-0.00043673;-9.35166e-05;0.000321949;-0.00101094;0.00390102;0.00707218;0;0.0139334;-0.00493062;-0.0212075;-0.0727444;0.075933;-6.6457;0.000506772;0.000326448;-0.000354727;0.000616498;-0.000464452;0.000540475;1.42863;0.699973;0.000626141;0.000720633;1.32736;0.753372;59.4145;104.415;0.00201415;0.000506807;0.000846533;-0.000194086;-0.000355032;-0.00242152;-0.00190849;0;0.0268673;-0.00845911;2.68871
76000;77;25.7519;-0.0058687;-0.000227842;-2.18597;25.6589;-0.0346805;0.00128734;-0.0058036;-0.0371224;-0.00605226;-0.0225406;-0.0414823;0.0475972;-6.59491;-0.000510558;-3.21216e-05;-0.00115924;-0.000508972;-0.00116083;0.000325928;-0.440425;-2.27054;0.000671894;0.000434571;-0.438456;-2.28073;95.1884;140.188;0.000807942;-0.000510579;-0.000271756;0.000207668;-0.00115928;0.00373237;0.00599125;0;0.0165525;-0.00468219;-0.0222438;-0.0752182;0.0785779;-6.64818;0.000526324;0.000276236;-0.000377314;0.000604078;-0.000455067;0.000529572;1.39493;0.716884;0.000613511;0.000706096;1.32745;0.753325;55.908;100.908;0.00212709;0.000526349;0.000715974;-0.0001639;-0.000377532;-0.0020472;-0.000430217;0;0.029075;-0.00825641;2.69585
77000;78;25.7546;-0.00313831;-0.000121839;-2.18472;25.6618;-0.0249052;0.00253034;-0.00294611;-0.0273471;-0.00626916;-0.0225624;-0.0456439;0.0513004;-6.59907;-0.000345546;0.000332976;-0.000836375;-0.000177317;-0.0010046;0.000413643;-0.413148;-2.42044;0.000619153;0.000551525;-0.176505;-5.66558;130.869;175.869;0.00082475;-0.000345701;1.73368e-05;0.000648769;-0.00083632;0.00306121;0.00778108;0;0.0131;-0.00450376;-0.0227466;-0.0801489;0.0834358;-6.65311;0.000436106;0.000296141;-0.0003699;0.000533214;-0.000467009;0.000500111;1.17898;0.848189;0.0005779;0.000666815;1.14177;0.875836;61.343;106.343;0.00226148;0.000436124;0.000820804;-0.000228944;-0.000370194;-0.00348053;-0.00106278;0;0.0252636;-0.00834762;2.70361
78000;79;25.7539;-0.00382168;-0.00014837;-2.18459;25.6611;-0.0293985;0.00266082;-0.00362559;-0.0318404;-0.00656342;-0.0236141;-0.0475088;0.0534583;-6.60094;-0.000404301;2.05441e-05;-0.00127093;-0.000403814;-0.00127141;0.0004338;-0.318115;-3.14352;0.000750154;0.0005784;-0.31761;-3.14851;99.4662;144.466;0.000745803;-0.000404336;-0.000222773;0.000264072;-0.00127095;0.00335182;0.00729899;0;0.0144756;-0.00458749;-0.0241307;-0.083057;0.0866129;-6.65602;0.000371918;0.000293732;-0.000398292;0.000471152;-0.000497525;0.000484339;0.933784;1.07091;0.000559335;0.000645785;0.946991;1.05598;64.5298;109.53;0.00238656;0.000371951;0.00072814;-0.000141011;-0.000398514;-0.00363015;-0.000568934;0;0.0266059;-0.00811421;2.71119
79000;80;25.7542;-0.00354186;-0.000137507;-2.18452;25.6614;-0.0331374;0.002732;-0.00334326;-0.0355793;-0.00687068;-0.0262138;-0.0463223;0.0536668;-6.59975;-0.000288783;9.46014e-05;-0.0011764;-0.000278812;-0.00118637;0.000453779;-0.24548;-4.07364;0.000716298;0.000605038;-0.235013;-4.25508;105.693;150.693;0.000261705;-0.00028884;-0.000162392;0.000351823;-0.00117641;0.00439708;0.00646572;0;0.0131863;-0.00447516;-0.0266384;-0.0840983;0.0883298;-6.65706;0.00036594;0.000271657;-0.000367207;0.000455627;-0.000456894;0.00045626;0.99655;1.00346;0.000526844;0.000608347;0.997227;1.00278;63.3354;108.335;0.00212525;0.000365977;0.000535755;7.36465e-06;-0.000367314;-0.00279353;-0.00126654;0;0.0254175;-0.00816374;2.71905
80000;81;25.7551;-0.0026817;-0.000104112;-2.18481;25.6622;-0.0321344;0.00244658;-0.00250301;-0.0345763;-0.00703847;-0.0273616;-0.0461505;0.0541117;-6.59958;-0.000517103;0.000376825;-0.000446528;-0.000103342;-0.000860289;0.000378474;-1.15805;-0.863518;0.000542371;0.000504632;-0.120124;-8.32472;150.239;15.2386;0.000677509;-0.000517214;0.000150958;0.000602676;-0.000446468;0.00273157;0.00691073;0;0.0175724;-0.00472382;-0.0277061;-0.0861276;0.0905975;-6.65909;0.000455092;0.000280586;-0.000456649;0.000534522;-0.000536079;0.0005353;0.99659;1.00342;0.000618112;0.000713734;0.997095;1.00291;60.9305;105.931;0.00277172;0.000455126;0.000456093;0.000104918;-0.000456714;-0.00432018;0.000296818;0;0.0298799;-0.0079137;2.72553
81000;82;25.7547;-0.00300486;-0.000116659;-2.18433;25.6619;-0.0392133;0.00292525;-0.00279644;-0.0416552;-0.00722731;-0.0291395;-0.0468631;0.0556551;-6.60029;-0.000545332;-9.41584e-05;-0.00097498;-0.000525603;-0.000994709;0.000234553;-0.559327;-1.78786;0.000574604;0.000312737;-0.528399;-1.89251;89.8252;134.825;0.000464432;-0.000545355;-0.000421482;0.000233306;-0.000975064;0.00352642;0.00730958;0;0.0121439;-0.00450861;-0.0299914;-0.0889482;0.0939765;-6.66191;0.000346073;0.000311856;-0.000383575;0.000461198;-0.0004987;0.000479949;0.90223;1.10837;0.000554338;0.000639932;0.9248;1.08131;67.359;112.359;0.00263253;0.00034612;0.000567038;5.64875e-05;-0.000383688;-0.00406277;-9.96709e-05;0;0.0226409;-0.00815698;2.73226
82000;83;25.7546;-0.00312932;-0.000121491;-2.18484;25.6617;-0.0412796;0.00241452;-0.00296807;-0.0437215;-0.00653695;-0.0323072;-0.0462645;0.0568057;-6.59969;-0.000471789;9.1588e-05;-0.000633742;-0.000430514;-0.000675018;0.000122252;-0.74445;-1.34327;0.000394623;0.000163003;-0.637782;-1.56793;133.156;178.156;0.0010432;-0.000471921;-0.000336742;0.000519987;-0.000633795;0.00225165;0.00710088;0;0.0122445;-0.00392664;-0.0330285;-0.0908084;0.0967081;-6.66377;0.000369911;0.000327655;-0.000344488;0.000497427;-0.000472004;0.000484716;1.0738;0.931273;0.000559766;0.000646288;1.05386;0.948891;63.7152;108.715;0.00290523;0.000369947;0.000470167;0.000185043;-0.000344544;-0.00532475;-0.000211898;0;0.0218706;-0.00830211;2.73551
83000;84;25.7558;-0.00194256;-7.54165e-05;-2.18414;25.663;-0.0437114;0.00310818;-0.00172199;-0.0461532;-0.00689062;-0.0320722;-0.0531433;0.0624525;-6.60657;-0.000341407;0.000269929;-0.000637974;-0.000181714;-0.000797667;0.000307977;-0.535143;-1.86866;0.000482745;0.000410636;-0.227806;-4.38969;139.665;4.66494;0.000875497;-0.000341585;-0.000113895;0.000653868;-0.000637944;0.0028895;0.00657525;0;0.0140877;-0.00396255;-0.0339357;-0.0999871;0.105663;-6.67295;0.000380307;0.000334198;-0.00029759;0.000517357;-0.00043464;0.000475998;1.27795;0.782501;0.000550327;0.000634664;1.19031;0.840117;58.7973;103.797;0.00312289;0.000380343;0.000469454;0.00019885;-0.000297645;-0.00495316;-0.00151014;0;0.0251639;-0.00805938;2.74384
84000;85;25.7584;0.000692424;2.68822e-05;-2.18482;25.6656;-0.0391588;0.00243369;0.000872464;-0.0416006;-0.0067243;-0.0330447;-0.0566032;0.0658869;-6.61003;-0.000235259;0.000371934;-0.00057655;3.30786e-06;-0.000815117;0.000409212;-0.408047;-2.4507;0.000544517;0.000545616;;;144.298;9.29752;0.000685108;-0.000235474;-9.49302e-06;0.000753491;-0.00057648;0.00159758;0.0072188;0;0.0160438;-0.00373641;-0.0362012;-0.104451;0.11061;-6.67741;0.00037967;0.000302233;-0.00028051;0.000497134;-0.000397973;0.000447554;1.3535;0.738825;0.000517846;0.000596738;1.24916;0.800536;60.0587;105.059;0.00248345;0.000379713;0.000528543;7.57736e-05;-0.000280604;-0.00504023;-0.00134851;0;0.0278112;-0.00827999;2.74822
85000;86;25.7573;-0.000480694;-1.86621e-05;-2.18493;25.6644;-0.0493334;0.00232384;-0.000331791;-0.0517753;-0.00705708;-0.0381012;-0.0547725;0.0670935;-6.6082;-0.000216925;0.00033086;-0.000489141;4.72946e-06;-0.000710795;0.000357762;-0.443482;-2.25488;0.000475448;0.000477017;;;148.774;13.7738;0.000574665;-0.000217152;-8.81998e-05;0.000750035;-0.00048909;0.0017952;0.00701211;0;0.0209489;-0.00397616;-0.0411448;-0.106456;0.114199;-6.67942;0.000444095;0.000283778;-0.000111873;0.000563357;-0.000231136;0.000397247;3.96964;0.251912;0.000471879;0.000529662;2.43735;0.410282;33.2599;78.2599;0.0021935;0.000444111;0.000347299;0.000220221;-0.000111893;-0.00529566;-0.000694425;0;0.0342129;-0.00780623;2.75519
86000;87;25.7609;0.00314029;0.000121916;-2.18474;25.668;-0.0417944;0.00250945;0.00333147;-0.0442363;-0.00712965;-0.0403904;-0.0601675;0.0728172;-6.6136;-0.000381914;0.00016943;-0.000244778;-0.000130567;-0.000496125;0.000182779;-1.56025;-0.640924;0.000296955;0.000243705;-0.263173;-3.79978;170.833;35.8326;0.000420063;-0.000382044;-0.000198997;0.000537807;-0.000244783;0.00138515;0.00561334;0;0.0151574;-0.00388065;-0.0436041;-0.112961;0.121147;-6.68592;0.000555461;0.000342072;-9.07849e-05;0.000702893;-0.000238217;0.000470555;6.11843;0.163441;0.000564996;0.000627406;2.95064;0.338909;31.8199;76.8199;0.0020701;0.000555483;0.000413135;0.000270963;-9.08117e-05;-0.00451799;-0.00225984;0;0.0279239;-0.00779435;2.7624
87000;88;25.7609;0.00315655;0.000122548;-2.18455;25.6681;-0.0430636;0.0027049;0.00336234;-0.0455055;-0.00718815;-0.0427729;-0.0648512;0.0780184;-6.61828;-0.000317903;0.000324236;-3.22753e-06;0.000199829;-0.00052096;0.000360394;;;0.000429694;0.000480526;0.383579;2.60702;0.971187;45.9712;0.000657956;-0.000318085;-3.72203e-05;0.000685578;-3.17566e-06;0.000701075;0.00698217;0;0.0200709;-0.00380524;-0.0458259;-0.118842;0.127428;-6.6918;0.000586613;0.000317765;-0.000133066;0.000706835;-0.000253288;0.000480061;4.40843;0.226838;0.000574574;0.000640082;2.79064;0.358341;35.6541;80.6541;0.0018844;0.000586646;0.00044795;0.000187486;-0.000133116;-0.00391056;-0.000212181;0;0.0307247;-0.00737524;2.77008
88000;89;25.7574;-0.000305494;-1.18603e-05;-2.18413;25.6646;-0.0469274;0.00312684;-8.30945e-05;-0.0493693;-0.00720202;-0.0481241;-0.0637324;0.0801849;-6.61716;-0.000250851;0.000235135;-0.000282337;-3.09322e-05;-0.000502256;0.000235662;-0.88848;-1.12552;0.000325018;0.000314216;-0.0615866;-16.2373;154.791;19.7911;0.000273163;-0.000250942;-1.69797e-05;0.000487258;-0.00028231;0.00066324;0.00579536;0;0.0177734;-0.00382545;-0.0494902;-0.120642;0.130454;-6.6936;0.000555239;0.000265401;-8.81295e-05;0.00065059;-0.00018348;0.000417035;6.30026;0.158724;0.000506097;0.000556047;3.54582;0.282022;27.1682;72.1682;0.00214611;0.000555253;0.000327158;0.000203603;-8.81478e-05;-0.00440573;0.000785255;0;0.0317968;-0.00783036;2.77752
89000;90;25.7558;-0.00192238;-7.46332e-05;-2.18469;25.6629;-0.0488813;0.00256086;-0.00175765;-0.0513232;-0.00699301;-0.0513084;-0.0673968;0.0849928;-6.62083;-0.000257896;0.000252639;-0.000519961;-0.000104331;-0.000673526;0.000284598;-0.49599;-2.01617;0.000418597;0.000379464;-0.154902;-6.45569;135.197;0.197404;0.000548561;-0.000257969;4.76228e-05;0.000457708;-0.000519931;0.00183916;0.00816749;0;0.0237148;-0.00365161;-0.0521844;-0.125806;0.136249;-6.69877;0.000579567;0.000329228;-0.000212896;0.000698496;-0.000331825;0.000515161;2.7223;0.367336;0.000607283;0.000686881;2.10501;0.475057;31.1775;76.1775;0.00184902;0.000579589;0.000405648;0.000252748;-0.000212924;-0.00336221;-0.00204319;0;0.0351035;-0.00747778;2.78463
90000;91;25.7543;-0.00340817;-0.000132316;-2.18419;25.6615;-0.0536966;0.00306135;-0.00321584;-0.0561384;-0.00745105;-0.0542602;-0.0691237;0.0881917;-6.62255;-0.000268837;0.000202561;-0.000999781;-0.000216456;-0.00105216;0.000417852;-0.268896;-3.71891;0.000641578;0.000557137;-0.205725;-4.86085;114.372;159.372;0.000854572;-0.000268909;-2.49112e-05;0.000430199;-0.000999761;0.00226921;0.00780506;0;0.0186812;-0.00396613;-0.0546289;-0.129937;0.141009;-6.7029;0.000668777;0.000308526;-0.000290484;0.000759439;-0.000381146;0.000570292;2.30229;0.434351;0.000670481;0.00076039;1.99251;0.501878;31.0861;76.0861;0.00225894;0.000668804;0.000415167;0.000201782;-0.000290522;-0.00362939;-0.00161435;0;0.0310888;-0.0072833;2.792
91000;92;25.7537;-0.0040119;-0.000155755;-2.18376;25.6609;-0.0558311;0.00349209;-0.00378965;-0.0582729;-0.00723795;-0.0566401;-0.0715009;0.0915034;-6.62493;-0.000284425;0.000263001;-0.000767163;-0.000168823;-0.000882765;0.000356971;-0.370749;-2.69724;0.000541087;0.000475961;-0.191243;-5.22894;119.897;164.897;0.000451454;-0.000284462;0.000148073;0.000377984;-0.000767139;0.00360294;0.0071647;0;0.0149258;-0.00387522;-0.0568609;-0.133468;0.145128;-6.70643;0.000691502;0.000316864;-0.000245061;0.000788632;-0.000342191;0.000565411;2.82176;0.354389;0.000669626;0.000753882;2.30466;0.433904;36.3053;81.3053;0.00222176;0.000691542;0.000494558;0.000139003;-0.000245133;-0.0026814;-0.00154369;0;0.0287123;-0.00724236;2.79927
92000;93;25.7531;-0.00461173;-0.000179043;-2.18429;25.6603;-0.0571415;0.00295879;-0.00443992;-0.0595834;-0.0070025;-0.0581539;-0.0759748;0.0959327;-6.6294;-0.000399899;0.000217592;-0.0010104;-0.000330284;-0.00108001;0.000374864;-0.395784;-2.52663;0.000639028;0.000499819;-0.305815;-3.26995;115.391;160.391;0.000347243;-0.000399959;2.48973e-05;0.000410403;-0.00101037;0.00362169;0.00740313;0;0.018061;-0.00370489;-0.0584114;-0.139613;0.151385;-6.71257;0.000640431;0.000232008;-0.000202726;0.000700055;-0.00026235;0.000481203;3.1591;0.316546;0.000574481;0.000641603;2.6684;0.374756;36.6492;81.6492;0.00282933;0.000640458;0.00044685;1.69845e-05;-0.000202799;-0.00285909;-0.00032788;0;0.0314432;-0.00736372;2.8039
93000;94;25.7534;-0.00433301;-0.000168222;-2.18382;25.6606;-0.0590674;0.00343172;-0.0041243;-0.0615093;-0.00688721;-0.062059;-0.0763127;0.0986022;-6.62974;-0.000328969;0.000370533;-0.00103116;-0.00016961;-0.00119052;0.000510453;-0.319029;-3.13452;0.000743617;0.000680604;-0.142468;-7.01912;122.463;167.463;0.000697876;-0.000329078;0.000144773;0.000596452;-0.0010311;0.00376126;0.00696807;0;0.0129682;-0.00349451;-0.0617988;-0.143154;0.155963;-6.71611;0.00061353;0.000267668;-0.000210153;0.000692871;-0.000289493;0.000491182;2.91945;0.34253;0.000582888;0.000654909;2.39339;0.417817;38.8688;83.8688;0.00315011;0.000613564;0.000467349;6.78237e-05;-0.000210226;-0.00269964;0.000456056;0;0.0267867;-0.00728312;2.81162
94000;95;25.7536;-0.00410513;-0.000159375;-2.18348;25.6608;-0.063824;0.00377406;-0.00387786;-0.0662659;-0.00770562;-0.0629536;-0.0818555;0.103551;-6.63528;-0.00040969;0.000161721;-0.001144;-0.000375651;-0.00117804;0.000401192;-0.358122;-2.79235;0.000694855;0.000534923;-0.318879;-3.13598;110.799;155.799;0.000482495;-0.000409762;-8.7784e-05;0.000411409;-0.00114399;0.00470414;0.00718587;0;0.0157104;-0.00411046;-0.0634217;-0.149154;0.16213;-6.72211;0.000595406;0.000275185;-0.000412475;0.000665645;-0.000482714;0.00057418;1.4435;0.692763;0.000665804;0.000765573;1.37896;0.725183;44.6626;89.6626;0.00248493;0.000595437;0.000438049;0.000112156;-0.000412533;-0.00359749;0.000967447;0;0.0295228;-0.00718405;2.81685
95000;96;25.754;-0.0037509;-0.000145622;-2.18353;25.6612;-0.0642654;0.00372304;-0.00352779;-0.0667073;-0.00756954;-0.065164;-0.0828118;0.105648;-6.63624;-0.000384307;0.000258095;-0.00123712;-0.00031228;-0.00130915;0.000498433;-0.310646;-3.2191;0.000789533;0.000664578;-0.238537;-4.19221;116.27;161.27;0.00105215;-0.000384439;-5.84667e-05;0.000574927;-0.00123709;0.00325614;0.00920521;0;0.0183406;-0.00399537;-0.0655033;-0.15342;0.166866;-6.72638;0.000584587;0.000307979;-0.000448207;0.000669453;-0.000533073;0.000601263;1.30428;0.766707;0.000695765;0.000801684;1.25584;0.796281;42.8438;87.8438;0.00275984;0.000584612;0.000404879;0.000210979;-0.000448241;-0.00394044;0.00130965;0;0.0299629;-0.00701279;2.82196
96000;97;25.7548;-0.00294593;-0.000114371;-2.18361;25.662;-0.0686783;0.00363889;-0.0027385;-0.0711202;-0.00684602;-0.0676288;-0.0844751;0.108428;-6.6379;-0.00040876;0.000212468;-0.0010629;-0.000345807;-0.00112585;0.000390022;-0.384571;-2.6003;0.000665932;0.00052003;-0.307152;-3.25572;116.496;161.496;0.00083344;-0.000408852;-5.48078e-05;0.00047992;-0.00106288;0.00332203;0.00896312;0;0.0182389;-0.00345228;-0.0683726;-0.15726;0.171515;-6.73022;0.000503484;0.000334271;-0.000536488;0.000601658;-0.000634662;0.00061816;0.938481;1.06555;0.000713875;0.000824214;0.947997;1.05486;70.3575;115.357;0.00275652;0.000503499;0.000385088;0.000283401;-0.000536506;-0.00421942;0.00158161;0;0.0322734;-0.00706433;2.82974
97000;98;25.7536;-0.00415048;-0.000161135;-2.18345;25.6607;-0.0765926;0.00380574;-0.00395561;-0.0790345;-0.00675595;-0.0706883;-0.0849499;0.11072;-6.63838;-0.000296351;0.000432008;-0.000881127;-6.70868e-05;-0.00111039;0.000521653;-0.336332;-2.97325;0.000718943;0.000695537;-0.0604172;-16.5516;131.069;176.069;0.000965154;-0.000296519;0.000142211;0.000721974;-0.000881044;0.00315418;0.0092184;0;0.0183827;-0.00337496;-0.0718135;-0.160798;0.176138;-6.73376;0.000456345;0.000256796;-0.000477651;0.000522293;-0.000543599;0.000532946;0.955395;1.04669;0.000615434;0.000710595;0.960807;1.04079;141.752;6.75198;0.00270979;0.000456335;0.000217883;0.000295746;-0.000477642;-0.00367795;0.00193556;0;0.0308309;-0.00714768;2.83692
98000;99;25.7556;-0.00216372;-8.40027e-05;-2.1846;25.6626;-0.07554;0.00265492;-0.00205648;-0.0779818;-0.00641398;-0.0727426;-0.0862227;0.112991;-6.63965;-0.000517013;0.000224855;-0.00105579;-0.000435503;-0.0011373;0.000350899;-0.489693;-2.0421;0.000662594;0.000467865;-0.382927;-2.61147;117.39;162.39;0.000631603;-0.000517082;1.54184e-05;0.000434404;-0.00105577;0.00331668;0.00903742;0;0.019297;-0.00327513;-0.0746031;-0.164741;0.180876;-6.7377;0.000462519;0.00013033;-0.000443715;0.000480889;-0.000462086;0.000471488;1.04238;0.959345;0.000544463;0.00062865;1.04069;0.960898;47.1301;92.1301;0.00294465;0.000462523;0.000175371;8.52476e-05;-0.000443722;-0.00377381;0.00100868;0;0.0306912;-0.00703966;2.84314
99000;100;25.7563;-0.00145438;-5.6464e-05;-2.18387;25.6634;-0.0778994;0.00338286;-0.00128968;-0.0803413;-0.0062065;-0.0739644;-0.0927071;0.11876;-6.64614;-0.000475952;0.000215047;-0.000921693;-0.000389119;-0.00100853;0.000309704;-0.516389;-1.93653;0.000587311;0.000412939;-0.385829;-2.59182;123.534;168.534;0.000427057;-0.000476061;-8.26082e-05;0.000512835;-0.000921674;0.00365951;0.00810764;0;0.0144645;-0.00300969;-0.077663;-0.172135;0.188868;-6.7451;0.000381931;0.000344863;-0.00053519;0.000497137;-0.000650396;0.000573767;0.713637;1.40127;0.000664495;0.000765022;0.764361;1.30828;104.922;149.922;0.00355743;0.000381935;0.000354405;0.000335312;-0.000535194;-0.00422083;0.000568402;0;0.0251341;-0.00679766;2.85033
100000;101;25.7571;-0.000639616;-2.4832e-05;-2.18389;25.6642;-0.0801712;0.00335922;-0.000480967;-0.0826131;-0.00619773;-0.0767449;-0.0941055;0.12159;-6.64753;-0.00031764;0.000293872;-0.000704775;-0.000159314;-0.0008631;0.000351893;-0.450698;-2.21878;0.000530333;0.000469191;-0.184584;-5.4176;134.55;179.55;0.000855905;-0.000317789;-3.11935e-05;0.000619063;-0.000704732;0.00256399;0.0100356;0;0.0157347;-0.00310592;-0.082052;-0.1765;0.194665;-6.74946;0.000481724;0.000324713;-0.000299582;0.000599055;-0.000416913;0.000507984;1.60799;0.621896;0.000589704;0.000677312;1.43688;0.695951;37.5057;82.5057;0.00236758;0.000481743;0.000389124;0.000260251;-0.000299605;-0.00312574;0.000986932;0;0.0268072;-0.0066158;2.85705
101000;102;25.7588;0.00102522;3.98022e-05;-2.18437;25.6658;-0.0817967;0.00288211;0.00114416;-0.0842386;-0.00640403;-0.0790701;-0.0986107;0.126559;-6.65204;-0.000333591;0.000187892;-0.000711465;-0.000256069;-0.000788987;0.000266459;-0.468879;-2.13275;0.000464776;0.000355279;-0.324554;-3.08115;130.343;175.343;0.000690078;-0.000333733;-0.000189281;0.000565207;-0.000711465;0.00312178;0.00969402;0;0.0149932;-0.0033893;-0.0856683;-0.182469;0.201607;-6.75543;0.000504499;0.000294849;-0.000304874;0.000600519;-0.000400894;0.000500707;1.65478;0.604311;0.000581983;0.000667609;1.49795;0.667579;12.3751;57.3751;0.00248598;0.000504493;0.000274863;0.000314851;-0.000304868;-0.00438092;0.00101022;0;0.0270783;-0.00680205;2.8647
102000;103;25.7602;0.00247649;9.61453e-05;-2.18388;25.6673;-0.0841357;0.00337622;0.00263517;-0.0865776;-0.00768208;-0.0812291;-0.100146;0.129176;-6.65357;-0.000301895;0.000285584;-0.000147947;7.08548e-05;-0.000520697;0.000295776;-2.04056;-0.490061;0.000372999;0.000394368;0.136077;7.34879;171.506;36.5058;0.000759127;-0.000302062;-7.31895e-05;0.000644302;-0.000147909;0.00241357;0.010257;0;0.0173199;-0.00427722;-0.0879798;-0.186721;0.206454;-6.75968;0.000519158;0.000258813;-0.000275271;0.000596036;-0.000352149;0.000474092;1.88599;0.530226;0.000553438;0.000632123;1.69257;0.590818;4.30273;49.3027;0.00215007;0.000519142;0.000203302;0.000314368;-0.000275258;-0.00431373;0.00155528;0;0.0285624;-0.00636246;2.8714
103000;104;25.7609;0.00313925;0.000121876;-2.18395;25.668;-0.0816796;0.00329856;0.00330165;-0.0841215;-0.006551;-0.0852364;-0.102696;0.133621;-6.65612;-0.000262034;0.000227482;6.6969e-05;0.000183197;-0.000378261;0.000280729;3.91276;0.255574;0.000330615;0.000374305;0.484312;2.06478;11.0842;56.0842;0.00029061;-0.000262204;-0.000172197;0.000627029;6.69801e-05;0.00274641;0.00817009;0;0.0136971;-0.00338512;-0.0916736;-0.190215;0.211181;-6.76318;0.000594207;0.000250279;-0.000299901;0.000659497;-0.000365191;0.000512344;1.98134;0.504708;0.000599683;0.000683126;1.80589;0.553742;18.7051;63.7051;0.00224158;0.000594212;0.000271395;0.000229145;-0.000299906;-0.00376449;0.00198563;0;0.0288549;-0.00598503;2.87821
104000;105;25.7617;0.00398498;0.00015471;-2.18373;25.6689;-0.0812799;0.00352519;0.00417099;-0.0837217;-0.0064816;-0.088366;-0.105124;0.137483;-6.65855;-0.000127356;0.00029436;0.000333668;0.000477033;-0.00027072;0.000373876;0.381684;2.61997;0.000437158;0.000498502;1.76209;0.567509;27.5841;72.5841;0.00010429;-0.000127511;-4.11689e-05;0.000629733;0.000333711;0.00236246;0.00927812;0;0.0130795;-0.00314134;-0.094113;-0.194597;0.216183;-6.76756;0.000622289;0.000246583;-0.000287079;0.000684849;-0.000349639;0.000517244;2.16766;0.461327;0.000607624;0.000689658;1.95873;0.510534;6.80111;51.8011;0.00235122;0.000622277;0.000202095;0.000291112;-0.000287069;-0.00340947;0.00181457;0;0.0269733;-0.00566096;2.88245
105000;106;25.7601;0.0023794;9.23761e-05;-2.18351;25.6673;-0.0828074;0.0037414;0.00257312;-0.0852493;-0.00645311;-0.0912474;-0.109838;0.142941;-6.66327;-0.000261347;0.000300353;0.000409921;0.000524689;-0.000376115;0.000450402;0.637555;1.56849;0.000522432;0.000600536;1.39502;0.716834;29.8722;74.8722;0.00074068;-0.000261522;-6.30074e-05;0.000663469;0.000409964;0.000747516;0.00896021;0;0.0133317;-0.00303436;-0.0961174;-0.200965;0.222789;-6.77393;0.000666728;0.000258515;-0.000341723;0.000729135;-0.000404131;0.000566633;1.95107;0.512538;0.0006632;0.000755511;1.8042;0.554261;18.8303;63.8303;0.00235915;0.000666735;0.000288671;0.000228328;-0.000341732;-0.00291816;0.00133623;0;0.0285898;-0.00531588;2.8887
106000;107;25.7575;-0.000225761;-8.7648e-06;-2.18309;25.6647;-0.0855981;0.00416362;-1.47047e-05;-0.08804;-0.00643601;-0.0966605;-0.108966;0.145802;-6.66239;-0.000212031;0.000261764;5.80276e-05;0.000217537;-0.000371541;0.000294539;3.65397;0.273675;0.000343957;0.000392719;0.585501;1.70794;4.85728;49.8573;-0.000111466;-0.000212124;1.86923e-05;0.00050477;5.80617e-05;0.00237015;0.00917139;0;0.0174099;-0.00281277;-0.0995817;-0.202863;0.226004;-6.77582;0.00064089;0.000223077;-0.000248187;0.000693722;-0.000301019;0.000497371;2.58228;0.387254;0.000589043;0.000663161;2.30458;0.433919;24.1502;69.1502;0.00266586;0.000640904;0.000301006;0.000145078;-0.000248208;-0.00224088;0.00141268;0;0.0331947;-0.00565127;2.89437
107000;108;25.757;-0.000781944;-3.03576e-05;-2.1828;25.6641;-0.0895654;0.00445003;-0.000562077;-0.0920073;-0.00636502;-0.0992115;-0.111263;0.149208;-6.66469;-0.000188871;0.000235661;-0.000234707;2.49845e-05;-0.000448562;0.000236773;-0.80471;-1.24268;0.000307708;0.000315698;0.0556992;17.9536;154.006;19.0063;0.000812722;-0.000188939;3.42762e-05;0.000437056;-0.000234679;0.000879922;0.00926814;0;0.023116;-0.00249384;-0.101484;-0.207044;0.230591;-6.78;0.000668869;0.000256407;-0.000309459;0.000731997;-0.000372586;0.000552291;2.16142;0.46266;0.000648887;0.000736389;1.96464;0.509;30.4211;75.4211;0.00277761;0.000668892;0.000373881;0.000138819;-0.000309496;-0.00193687;0.000635084;0;0.0376818;-0.00491011;2.90021
108000;109;25.7541;-0.00368172;-0.000142936;-2.18264;25.6612;-0.0938192;0.00461361;-0.00347362;-0.0962611;-0.00616769;-0.103504;-0.112203;0.152777;-6.66563;-0.000203183;0.000467303;-0.000626262;9.82309e-05;-0.000927676;0.000512954;-0.324438;-3.08225;0.000653659;0.000683938;0.105889;9.44384;139.944;4.94385;0.000531194;-0.000203355;0.000185206;0.00074952;-0.00062617;0.00230865;0.00909319;0;0.0146447;-0.00218161;-0.104648;-0.210655;0.235226;-6.78362;0.000599001;0.000278996;-0.000333307;0.000676114;-0.00041042;0.000543267;1.79714;0.556439;0.000633531;0.000724356;1.64737;0.607028;38.3763;83.3763;0.00287116;0.00059903;0.000415817;0.000142048;-0.000333355;-0.00174067;0.0018684;0;0.0298258;-0.00459207;2.90753
109000;110;25.7532;-0.00452278;-0.000175589;-2.18241;25.6604;-0.0962028;0.00484294;-0.00430705;-0.0986446;-0.00541922;-0.105053;-0.116055;0.156634;-6.66948;-0.000348521;0.000277434;-0.000428142;-0.000108056;-0.000668607;0.000280275;-0.814032;-1.22845;0.000414442;0.000373701;-0.161614;-6.18758;143.492;8.49228;0.000515172;-0.000348588;9.51942e-05;0.000459688;-0.000428108;0.00279499;0.00919429;0;0.017165;-0.0011965;-0.105933;-0.216431;0.240968;-6.78939;0.000611867;0.000289467;-0.000386082;0.000689752;-0.000463967;0.000576859;1.58481;0.63099;0.000670338;0.000769145;1.48664;0.672658;43.2234;88.2234;0.00303425;0.000611901;0.000458876;0.000119889;-0.000386145;-0.00367967;0.00347694;0;0.0309262;-0.00430859;2.91483
110000;111;25.7548;-0.00289304;-0.000112317;-2.18261;25.662;-0.0978124;0.00464549;-0.00269429;-0.100254;-0.00578315;-0.105889;-0.120511;0.160527;-6.67394;-0.00023937;0.000274624;-0.000731271;-0.000116661;-0.00085398;0.00036866;-0.327334;-3.05498;0.000534692;0.000491546;-0.136609;-7.32017;126.242;171.242;0.000199549;-0.000239455;5.53391e-05;0.000494016;-0.000731235;0.00273758;0.00865268;0;0.0178184;-0.00153768;-0.1073;-0.222734;0.247237;-6.79569;0.000549847;0.00025415;-0.000469225;0.000609713;-0.000529092;0.000569403;1.17182;0.853374;0.000658038;0.000759203;1.15238;0.867771;47.392;92.392;0.00340587;0.000549867;0.000355281;0.000152916;-0.000469256;-0.0020828;0.00282953;0;0.0300616;-0.00446376;2.92239
111000;112;25.7532;-0.00453608;-0.000176105;-2.18189;25.6604;-0.104696;0.00536144;-0.00430955;-0.107138;-0.00571213;-0.109122;-0.122459;0.164123;-6.67589;-0.00028335;0.000327097;-0.00105642;-0.000163524;-0.00117625;0.000506362;-0.268217;-3.72832;0.00073574;0.000675149;-0.139022;-7.19313;123.401;168.401;0.000741776;-0.000283516;-7.43278e-06;0.000661886;-0.00105637;0.00373097;0.0101004;0;0.0156051;-0.0014465;-0.110241;-0.227969;0.253229;-6.80093;0.000483725;0.000233821;-0.000546049;0.00053433;-0.000596654;0.000565492;0.885863;1.12884;0.000653304;0.000753989;0.895543;1.11664;137.453;2.45264;0.00366746;0.0004837;0.000145971;0.000321762;-0.000546033;-0.00305399;0.00346902;0;0.0250655;-0.00381582;2.92932
112000;113;25.754;-0.00370294;-0.00014376;-2.18284;25.6611;-0.108552;0.0044149;-0.00356991;-0.110993;-0.00537622;-0.112118;-0.121502;0.165415;-6.67493;-0.000293858;0.000342287;-0.00104748;-0.000161604;-0.00117973;0.000509064;-0.280539;-3.56457;0.000738537;0.000678751;-0.136984;-7.30015;122.374;167.374;0.000550748;-0.000293992;6.48319e-05;0.000619952;-0.00104742;0.00410887;0.010172;0;0.0163499;-0.00107838;-0.113528;-0.22974;0.256262;-6.8027;0.000480623;0.000227446;-0.000495301;0.000531027;-0.000545706;0.000538366;0.970365;1.03054;0.000621671;0.000717822;0.973102;1.02764;145.885;10.8849;0.00325083;0.000480584;9.72563e-05;0.000357764;-0.00049528;-0.00306353;0.00383202;0;0.0267892;-0.00398306;2.93712
113000;114;25.7557;-0.00199622;-7.74997e-05;-2.18316;25.6628;-0.109013;0.00408839;-0.00188675;-0.111455;-0.0060184;-0.113717;-0.126727;0.170374;-6.68015;-0.000399111;0.000349615;-0.00112931;-0.000258712;-0.00126971;0.000505498;-0.353412;-2.82956;0.000774769;0.000673997;-0.203757;-4.9078;121.533;166.533;0.000699518;-0.000399241;8.22063e-05;0.00061722;-0.00112925;0.00424516;0.0100088;0;0.0176721;-0.00171413;-0.116497;-0.236787;0.263899;-6.80975;0.00043851;0.000239233;-0.000659357;0.000488375;-0.000709223;0.000598799;0.665057;1.50363;0.000695341;0.000798398;0.688606;1.45221;131.421;176.421;0.00341471;0.000438448;5.34595e-05;0.00042521;-0.00065933;-0.00322955;0.00323194;0;0.0272648;-0.0038308;2.94432
114000;115;25.7561;-0.00165348;-6.41935e-05;-2.18296;25.6632;-0.114497;0.00428914;-0.00154957;-0.116939;-0.00601911;-0.116122;-0.127481;0.172546;-6.68091;-0.000278837;0.000117201;-0.00113578;-0.000263097;-0.00115152;0.000444213;-0.245502;-4.07329;0.000696742;0.000592284;-0.228477;-4.3768;108.247;153.247;0.000121066;-0.000278906;-0.000156765;0.000391402;-0.00113579;0.0050252;0.0106765;0;0.0229521;-0.00164686;-0.119617;-0.241095;0.269143;-6.81406;0.000391581;0.000275401;-0.000772247;0.00045346;-0.000834126;0.000643793;0.507068;1.97212;0.00075414;0.000858391;0.543635;1.83947;127.171;172.171;0.0032833;0.000391497;5.65188e-05;0.000494538;-0.000772211;-0.00214095;0.0022957;0;0.0306661;-0.00373484;2.95157
115000;116;25.756;-0.00170543;-6.62104e-05;-2.18242;25.6631;-0.118571;0.00483392;-0.00157387;-0.121013;-0.00710335;-0.116415;-0.134725;0.178196;-6.68815;-0.000247344;0.000341039;-0.00112307;-0.000130202;-0.00124022;0.000555008;-0.220239;-4.54053;0.000787009;0.00074001;-0.104983;-9.52536;119.191;164.191;0.00092158;-0.000247464;8.55962e-05;0.000596706;-0.00112302;0.00305993;0.0105702;0;0.0262664;-0.00262363;-0.121408;-0.251375;0.27917;-6.82434;0.000444147;0.000288252;-0.000591843;0.000518949;-0.000666645;0.000592797;0.750447;1.33254;0.000686271;0.000790396;0.778449;1.28461;142.494;7.49415;0.00243032;0.00044402;-5.26027e-06;0.000582069;-0.000591802;-0.000480415;0.00269951;0;0.0360323;-0.00377469;2.95681
116000;117;25.757;-0.000748911;-2.90752e-05;-2.18204;25.6641;-0.121548;0.00521431;-0.000595475;-0.12399;-0.00658864;-0.120903;-0.131764;0.178949;-6.68519;-0.000330249;0.000212853;-0.00102647;-0.000270331;-0.00108639;0.000408029;-0.321732;-3.10818;0.000653073;0.000544039;-0.248834;-4.01874;118.223;163.223;0.000776892;-0.000330366;-0.000103167;0.000529094;-0.00102645;0.00373567;0.0111435;0;0.0178064;-0.0019695;-0.127468;-0.249921;0.280558;-6.82288;0.000342681;0.000297832;-0.000397649;0.000447622;-0.00050259;0.000475106;0.861769;1.1604;0.000548911;0.000633475;0.890631;1.1228;150.735;15.7347;0.00182028;0.000342595;8.50359e-05;0.000510785;-0.000397608;-0.00114172;0.00344339;0;0.0257261;-0.00379735;2.96236
117000;118;25.7578;7.29105e-05;2.83062e-06;-2.18345;25.6648;-0.123203;0.00380233;0.000101345;-0.125644;-0.00620362;-0.122583;-0.133151;0.181092;-6.68658;-0.000304571;0.000432459;-0.000587661;8.91749e-06;-0.00090115;0.000455034;-0.518276;-1.92947;0.000603761;0.000606711;;;145.412;10.4124;0.000747481;-0.000304792;7.2131e-05;0.000792888;-0.00058757;0.00304491;0.0105934;0;0.0277489;-0.00171844;-0.129177;-0.254773;0.285656;-6.82773;0.000428617;0.000253528;-0.000388074;0.00050092;-0.000460376;0.000480648;1.10447;0.905409;0.000555169;0.000640864;1.08807;0.919062;156.248;21.2484;0.00153475;0.000428584;0.000145863;0.00036128;-0.000388052;-0.00148888;0.00511427;0;0.0363203;-0.00361074;2.96593
118000;119;25.7594;0.00167451;6.50099e-05;-2.18276;25.6665;-0.12198;0.00449103;0.00177316;-0.124422;-0.005881;-0.124478;-0.136856;0.185092;-6.69028;-0.000298144;0.000363482;-0.000837528;-0.00011523;-0.00102044;0.000452607;-0.355981;-2.80914;0.000645324;0.000603475;-0.112921;-8.85573;134.165;179.165;0.000979222;-0.000298367;-3.23362e-05;0.000759513;-0.000837463;0.00265236;0.0124758;0;0.0182336;-0.00143013;-0.131977;-0.260449;0.291982;-6.83341;0.000525528;0.000251716;-0.000295811;0.000596533;-0.000366816;0.000481675;1.77657;0.562884;0.000561436;0.000642233;1.62625;0.614913;163.088;28.0875;0.00121527;0.000525434;1.64819e-06;0.000501989;-0.000295779;-0.000944545;0.00410519;0;0.028132;-0.00372059;2.97296
119000;120;25.76;0.00228801;8.88281e-05;-2.18286;25.6671;-0.12126;0.00439073;0.00238377;-0.123702;-0.00629031;-0.12715;-0.137742;0.187562;-6.69117;-0.000209501;0.00035265;-0.00062985;-9.14462e-06;-0.000830206;0.000410531;-0.332621;-3.00643;0.000550448;0.000547374;;;142.681;7.68059;0.000686085;-0.00020975;-8.3929e-05;0.000789413;-0.000629791;0.0031274;0.0116305;0;0.0167023;-0.00165907;-0.134526;-0.264431;0.296688;-6.83739;0.000507435;0.000283543;-0.000388137;0.000589657;-0.00047036;0.000530008;1.30736;0.7649;0.000613292;0.000706678;1.25363;0.797683;160.081;25.0811;0.00150031;0.000507365;9.79961e-05;0.000469257;-0.000388102;-0.00141894;0.00328449;0;0.0307548;-0.00360416;2.98063
120000;121;25.7583;0.000518416;2.01266e-05;-2.18249;25.6653;-0.128614;0.00476751;0.00060401;-0.131056;-0.0059575;-0.129241;-0.140361;0.190893;-6.69379;-0.000292783;0.000310524;-0.000148938;9.78844e-05;-0.000539605;0.000318745;-1.9658;-0.508699;0.000396414;0.000424993;0.1814;5.51268;172.702;37.7023;0.00090443;-0.000293002;-0.000111064;0.000732052;-0.000148896;0.00244605;0.0111508;0;0.0142453;-0.00118814;-0.136313;-0.269229;0.301773;-6.84219;0.000576409;0.00022715;-0.000472352;0.000623493;-0.000519436;0.000571464;1.2203;0.819473;0.000660781;0.000761953;1.20033;0.833106;152.277;17.2769;0.00172151;0.000576314;-3.72996e-05;0.000491876;-0.000472327;-0.00101822;0.00351412;0;0.0288541;-0.00351441;2.98771
121000;122;25.7601;0.00240536;9.33838e-05;-2.18169;25.6673;-0.124902;0.00556342;0.00258378;-0.127344;-0.00590934;-0.131513;-0.14278;0.194208;-6.69621;-0.000380417;0.000343534;9.54229e-05;0.00027538;-0.000560374;0.000417877;3.98664;0.250838;0.000491786;0.00055717;0.491422;2.03491;9.01054;54.0105;0.000353224;-0.000380693;-0.000131583;0.000818424;9.54732e-05;0.00368228;0.0113019;0;0.0142183;-0.000900686;-0.138318;-0.273762;0.306722;-6.84672;0.000535275;0.000242492;-0.000380603;0.000595516;-0.000440844;0.00051818;1.40639;0.711043;0.00060056;0.000690907;1.35085;0.740273;166.678;31.6775;0.00157231;0.000535242;0.000133914;0.000351169;-0.000380583;-0.00070723;0.00263921;0;0.0286219;-0.00349705;2.99541
122000;123;25.7595;0.00176822;6.86482e-05;-2.18162;25.6666;-0.126036;0.00563472;0.00194486;-0.128478;-0.00609985;-0.133895;-0.144893;0.197381;-6.69832;-0.000293406;0.000298766;0.000320787;0.000442141;-0.00041476;0.00042845;0.914644;1.09332;0.000494816;0.000571267;1.06602;0.938072;23.8303;68.8303;0.000683481;-0.000293621;-0.000122774;0.000720048;0.000320824;0.00240181;0.010989;0;0.0135774;-0.000878536;-0.139835;-0.277911;0.311109;-6.85087;0.000559496;0.00018751;-0.000366736;0.000596016;-0.000403256;0.000499636;1.52561;0.655475;0.000580497;0.000666181;1.47801;0.676585;160.762;25.7624;0.0018064;0.000559449;1.70726e-05;0.000358105;-0.000366718;-0.000847214;0.00334627;0;0.030784;-0.00314977;3.00306
123000;124;25.7596;0.00182891;7.10043e-05;-2.1807;25.6668;-0.128158;0.00655032;0.00207307;-0.1306;-0.00625398;-0.137132;-0.147758;0.201685;-6.70119;-0.000311192;0.000488978;0.000549884;0.000770854;-0.000532162;0.000651508;0.565923;1.76702;0.000756493;0.000868678;1.44853;0.690354;28.1334;73.1334;0.000552402;-0.000311512;3.99242e-05;0.000937646;0.000550003;0.0029148;0.0113665;0;0.0179458;-0.000612443;-0.142032;-0.28355;0.317134;-6.85651;0.00058222;0.000144163;-0.000348428;0.00060404;-0.000370248;0.000487144;1.67099;0.598448;0.000567878;0.000649526;1.63144;0.612954;164.388;29.388;0.00193693;0.000582192;1.23618e-05;0.000276088;-0.000348418;-0.000871282;0.00302042;0;0.0349013;-0.003107;3.01094
124000;125;25.7592;0.00150018;5.8242e-05;-2.17987;25.6665;-0.129332;0.00738004;0.00180774;-0.131774;-0.00663978;-0.138912;-0.153167;0.206883;-6.70659;-0.000165789;0.000375337;0.000931115;0.00104725;-0.000281925;0.000664588;0.178055;5.61626;0.000808693;0.000886118;3.71464;0.269205;45.182;90.182;0.000522869;-0.000166149;-0.000177;0.000927068;0.00093117;0.00233801;0.011298;0;0.014901;-0.000666165;-0.143236;-0.290325;0.323738;-6.86329;0.000575902;0.000157214;-0.000351845;0.000601819;-0.000377762;0.000489791;1.63681;0.610945;0.000570472;0.000653054;1.59312;0.6277;165.186;30.1863;0.00203167;0.000575874;3.12915e-05;0.000283254;-0.000351833;-0.00145634;0.00308521;0;0.0280089;-0.002829;3.01783
125000;126;25.7574;-0.000325766;-1.26473e-05;-2.17897;25.6647;-0.131834;0.00828711;3.94953e-05;-0.134276;-0.00703307;-0.141174;-0.15508;0.209832;-6.70851;-0.000283073;0.00030417;0.000792501;0.00087256;-0.000363132;0.000617846;0.357189;2.79964;0.000733358;0.000823795;2.40287;0.416169;47.1296;92.1296;0.00073653;-0.000283261;-7.74243e-05;0.000685355;0.000792544;0.00273248;0.0111642;0;0.0149754;-0.000804567;-0.144681;-0.294366;0.328001;-6.86733;0.000635557;0.000137908;-0.000383903;0.000653883;-0.000402229;0.000528056;1.65551;0.604042;0.00061549;0.000704075;1.62565;0.615139;160.806;25.8064;0.00208886;0.000635519;-3.22548e-05;0.000308244;-0.000383894;-0.00153688;0.00240005;0;0.0287007;-0.00233092;3.02387
126000;127;25.7566;-0.0011708;-4.54544e-05;-2.18032;25.6637;-0.140182;0.00693269;-0.000967867;-0.142624;-0.00681605;-0.144463;-0.157541;0.213858;-6.71097;-0.000109505;0.000276791;0.000462337;0.000574366;-0.000221534;0.00039795;0.236851;4.22207;0.000474326;0.0005306;2.59268;0.385701;35.7427;80.7427;0.000583718;-0.000109675;-9.24595e-05;0.000645831;0.000462371;0.00120959;0.0118804;0;0.01567;-0.000310566;-0.146656;-0.300317;0.334213;-6.87328;0.000556363;0.000125406;-0.000482965;0.00057128;-0.000497883;0.000534581;1.15197;0.868077;0.000617766;0.000712775;1.14742;0.871521;147.261;12.2606;0.00212975;0.000556321;-6.42089e-05;0.000315218;-0.00048296;-0.000869473;0.00223314;0;0.0274126;-0.00193722;3.03176
127000;128;25.7527;-0.0050266;-0.000195149;-2.17983;25.6598;-0.151058;0.007426;-0.00485742;-0.153499;-0.0068222;-0.146726;-0.159616;0.216916;-6.71304;-0.000251871;0.00042855;0.000293806;0.000528999;-0.000487065;0.000508032;0.857273;1.16649;0.000586791;0.000677376;1.0861;0.920729;17.8619;62.8619;0.000580193;-0.0002521;5.69273e-05;0.00079997;0.000293896;0.00243977;0.0110606;0;0.0179582;-8.34896e-05;-0.147882;-0.30571;0.339599;-6.87867;0.00052511;0.000109;-0.000494081;0.000536637;-0.000505607;0.000521122;1.0628;0.940908;0.000601829;0.00069483;1.06137;0.942178;142.58;7.5803;0.00215721;0.000525037;-0.000179284;0.000397578;-0.000494091;-0.00111517;0.00291131;0;0.0305116;-0.00166397;3.03482
128000;129;25.7538;-0.00391377;-0.000151945;-2.17963;25.661;-0.150068;0.0076207;-0.00371822;-0.15251;-0.00730577;-0.149006;-0.162275;0.22043;-6.7157;-0.00025389;0.00028517;0.00012458;0.00027759;-0.0004069;0.000342245;2.03797;0.490684;0.000397534;0.000456327;0.682206;1.46583;10.7325;55.7325;0.00073392;-0.000254022;-1.61774e-05;0.000586403;0.00012462;0.00234486;0.0112087;0;0.0235815;-0.00031914;-0.149782;-0.31025;0.344514;-6.88321;0.000530249;8.75063e-05;-0.000592947;0.000537025;-0.000599723;0.000568374;0.89426;1.11824;0.000656635;0.000757832;0.895455;1.11675;135.244;0.243618;0.0025083;0.000530207;-0.000125302;0.000300554;-0.000592951;-0.00144438;0.00282728;0;0.0345265;-0.00143312;3.0407
129000;130;25.7535;-0.00424088;-0.000164645;-2.18022;25.6606;-0.153647;0.0070338;-0.00411755;-0.156089;-0.00701378;-0.151584;-0.162684;0.22247;-6.71611;-0.000350049;0.000234285;-0.000243736;-5.66534e-05;-0.000537132;0.000240239;-1.43618;-0.696291;0.000340777;0.000320319;-0.105474;-9.48102;165.518;30.5185;0.000977423;-0.000350182;-9.82546e-05;0.000566788;-0.000243713;0.00232513;0.011678;0;0.0184517;0.000150494;-0.151847;-0.315375;0.350027;-6.88834;0.000351081;0.000165585;-0.000685945;0.000376879;-0.000711742;0.00054431;0.511821;1.95381;0.00063835;0.000725747;0.529515;1.88852;125.404;170.404;0.00215958;0.000351019;-5.71996e-05;0.000388602;-0.000685932;-0.000433417;0.00278046;0;0.0298499;-0.000888987;3.04733
130000;131;25.7527;-0.00500748;-0.000194407;-2.18;25.6598;-0.156348;0.0072496;-0.00488491;-0.15879;-0.00737226;-0.153223;-0.165678;0.22579;-6.71911;-0.000144911;0.000360567;-0.000285982;0.000151955;-0.000582849;0.000367402;-0.506715;-1.9735;0.000447894;0.000489869;0.26071;3.83567;153.814;18.814;5.82955e-05;-0.00014503;0.000115462;0.000605707;-0.000285924;0.00408674;0.0109277;0;0.0160695;0.000121689;-0.153515;-0.32099;0.355811;-6.89395;0.000362434;0.000104427;-0.000724877;0.000372372;-0.000734816;0.000553594;0.499993;2.00003;0.000650552;0.000738125;0.506756;1.97334;130.326;175.326;0.00280558;0.000362262;-0.000386876;0.000596265;-0.000724947;-0.00174812;0.00234266;0;0.0227171;-0.000677147;3.05473
131000;132;25.754;-0.003744;-0.000145355;-2.1791;25.6612;-0.156437;0.00815149;-0.00354079;-0.158879;-0.00702518;-0.155551;-0.165513;0.227245;-6.71894;-0.000252233;0.000323191;-0.000633058;-6.75336e-05;-0.000817758;0.000375112;-0.398436;-2.50981;0.000524113;0.000500149;-0.0825839;-12.1089;134.566;179.566;0.000439114;-0.000252346;7.15382e-05;0.000574939;-0.000633008;0.00364483;0.0123586;0;0.0175117;0.000698511;-0.155904;-0.325025;0.360483;-6.89799;0.000395078;0.000183973;-0.000813614;0.00042246;-0.000840996;0.000631728;0.485584;2.05938;0.000742678;0.000842304;0.502333;1.99071;133.179;178.179;0.00228391;0.00039482;-0.0003727;0.00074132;-0.000813666;-0.000817617;0.00304246;0;0.0232715;-0.00046421;3.06263
132000;133;25.7548;-0.00294603;-0.000114374;-2.17837;25.662;-0.15914;0.00888149;-0.00269458;-0.161582;-0.0070317;-0.157581;-0.168712;0.230965;-6.72214;-0.000282918;0.000333282;-0.000755831;-0.000110732;-0.000928017;0.000408643;-0.374314;-2.67156;0.00058527;0.000544857;-0.119321;-8.38077;134.932;179.932;0.000869264;-0.000283107;-3.30252e-05;0.000699763;-0.000755776;0.00303672;0.0117998;0;0.0188083;0.0010048;-0.158775;-0.332002;0.368016;-6.90496;0.000294724;0.000203047;-0.000857121;0.000329469;-0.000891866;0.000610667;0.343853;2.90822;0.000729632;0.000814223;0.369415;2.70698;129.788;174.788;0.00236245;0.000294505;-0.00028645;0.000693107;-0.000857141;-0.00083755;0.00272593;0;0.0228257;9.73387e-06;3.06976
133000;134;25.7541;-0.00363613;-0.000141167;-2.17904;25.6612;-0.16747;0.00821027;-0.00349717;-0.169912;-0.00826852;-0.160492;-0.1691;0.233283;-6.72253;-0.000324618;0.000363152;-0.000964344;-0.000160547;-0.00112841;0.000483934;-0.33662;-2.9707;0.000704882;0.000645245;-0.142277;-7.02855;128.299;173.299;0.000485129;-0.000324801;2.12449e-05;0.000705278;-0.000964278;0.00410383;0.0118232;0;0.0262152;-0.000264421;-0.162807;-0.334948;0.372419;-6.90791;0.000361635;0.000138724;-0.000692667;0.000379582;-0.000710614;0.000545098;0.52209;1.91538;0.000639024;0.000726798;0.534161;1.8721;134.419;179.419;0.00136134;0.000361386;-0.00044111;0.000719169;-0.000692754;-0.000193375;0.00262289;0;0.0274714;-0.000135575;3.07699
134000;135;25.7559;-0.00185724;-7.21043e-05;-2.17899;25.663;-0.169382;0.00825825;-0.00172032;-0.171823;-0.007466;-0.160594;-0.174598;0.237341;-6.72803;-0.000323511;0.000518548;-0.000728792;3.05847e-05;-0.00108289;0.000556736;-0.4439;-2.25276;0.000732333;0.000742315;0.0282437;35.4062;142.171;7.17083;0.000908708;-0.000323778;0.000140985;0.000896264;-0.000728668;0.0030784;0.01194;0;0.018037;0.00100711;-0.163909;-0.343795;0.38087;-6.91676;0.000381293;0.000143766;-0.00062583;0.000401413;-0.00064595;0.000523682;0.60926;1.64134;0.000610165;0.000698242;0.621431;1.60919;136.774;1.77389;0.000816249;0.000381058;-0.000411933;0.000700024;-0.000625904;5.23395e-05;0.00287678;0;0.0218023;9.41774e-05;3.08411
135000;136;25.7572;-0.000543377;-2.10957e-05;-2.17942;25.6643;-0.167602;0.00783388;-0.000426046;-0.170044;-0.00762379;-0.161843;-0.177094;0.240029;-6.73052;-0.000358415;0.000364;-0.000556139;-8.009e-05;-0.000834464;0.000377187;-0.64447;-1.55166;0.000531627;0.000502916;-0.0959778;-10.4191;150.436;15.4362;0.000688808;-0.0003587;-0.000110258;0.000838353;-0.000556079;0.00484276;0.0121884;0;0.0181077;0.000686746;-0.165692;-0.348989;0.386326;-6.92195;0.00040788;0.000151062;-0.0005478;0.000431189;-0.000571109;0.000501149;0.744579;1.34304;0.000580554;0.000668199;0.755004;1.3245;140.837;5.83665;0.000724973;0.000407547;-0.000526768;0.00082954;-0.000547927;0.000273963;0.00435176;0;0.0227555;0.000132926;3.09076
136000;137;25.7568;-0.00090642;-3.51902e-05;-2.17842;25.664;-0.174079;0.00883627;-0.000748413;-0.17652;-0.00766502;-0.164097;-0.179305;0.243181;-6.73273;-0.000294891;0.000401831;-0.000533144;5.0998e-06;-0.000833136;0.000419118;-0.553117;-1.80793;0.000557131;0.000558824;;;145.461;10.4608;0.000605383;-0.000295069;8.51027e-05;0.000718636;-0.000533067;0.00357809;0.0129309;0;0.0189923;0.000979254;-0.169012;-0.353941;0.392225;-6.9269;0.000497553;0.000212967;-0.000435544;0.000543862;-0.000481852;0.000512857;1.14237;0.875371;0.000592557;0.00068381;1.12869;0.885983;148.605;13.6054;0.000998638;0.000497187;-0.000455058;0.000881616;-0.000435625;-0.000404815;0.0028457;0;0.0254504;0.00013055;3.0987
137000;138;25.7569;-0.000825918;-3.20648e-05;-2.179;25.664;-0.175264;0.00825255;-0.000725243;-0.177706;-0.00743557;-0.164726;-0.182844;0.246215;-6.73627;-0.000246115;0.000343983;-0.000661987;-5.21041e-05;-0.000855998;0.000401947;-0.371782;-2.68975;0.000554115;0.000535929;-0.0608694;-16.4286;137.063;2.06267;0.00070432;-0.000246277;2.30055e-05;0.000665093;-0.000661928;0.00369012;0.0129458;0;0.026119;0.00135825;-0.16981;-0.36121;0.399137;-6.93417;0.000456924;0.000242122;-0.00038978;0.000521271;-0.000454127;0.000487699;1.17226;0.853052;0.000563591;0.000650265;1.14785;0.871191;151.338;16.3376;0.000933227;0.000456542;-0.000422572;0.000907379;-0.00038984;0.000105234;0.00477773;0;0.0320799;0.000201651;3.1039
138000;139;25.7584;0.000711488;2.76223e-05;-2.17837;25.6656;-0.174288;0.00888248;0.00087785;-0.17673;-0.00823761;-0.167476;-0.18102;0.246748;-6.73445;-0.000384644;0.000398811;-0.000805339;-0.000144107;-0.00104588;0.000450884;-0.477617;-2.09373;0.000654524;0.000601179;-0.137786;-7.25761;138.266;3.26634;0.000831218;-0.000384889;-7.31213e-06;0.000805105;-0.000805259;0.00336437;0.0137295;0;0.0157114;0.000691579;-0.172588;-0.361412;0.400506;-6.93437;0.000445162;0.000186481;-0.000478776;0.00048138;-0.000514994;0.000498187;0.929791;1.07551;0.000575366;0.000664249;0.934729;1.06983;145;10.0003;0.000873964;0.000444955;-0.000295672;0.000669081;-0.000478802;7.99003e-05;0.00259077;0;0.0253467;0.000197995;3.11019
139000;140;25.7585;0.000744197;2.88922e-05;-2.17805;25.6656;-0.175904;0.00919896;0.000926515;-0.178346;-0.00840035;-0.168059;-0.185574;0.250504;-6.739;-0.00023902;0.000414852;-0.000432208;9.03347e-05;-0.000761563;0.000425949;-0.553022;-1.80825;0.000540343;0.000567932;0.118618;8.43045;156.08;21.08;0.00106011;-0.000239338;-6.88648e-05;0.000898662;-0.000432124;0.00364345;0.0141222;0;0.0148038;0.000712605;-0.174418;-0.366733;0.406097;-6.93969;0.000482464;0.000196113;-0.000375386;0.000525171;-0.000418093;0.000471632;1.28525;0.778059;0.000545762;0.000628843;1.25611;0.796107;150.233;15.2333;0.00107843;0.000482227;-0.000323451;0.000716122;-0.000375419;0.000526496;0.00324695;0;0.024349;0.000260688;3.11296
140000;141;25.7574;-0.000325243;-1.2627e-05;-2.17743;25.6646;-0.18035;0.00981834;-0.000125094;-0.182791;-0.00850125;-0.173253;-0.180432;0.250289;-6.73386;-0.000366327;0.000222119;-0.000430575;-0.000174022;-0.000622881;0.00022443;-0.850785;-1.17538;0.000371106;0.00029924;-0.279382;-3.57933;156.064;21.0641;0.00110671;-0.00036655;-0.000258453;0.000702721;-0.000430584;0.00312919;0.0135156;0;0.0188565;0.00124461;-0.177386;-0.367522;0.408093;-6.94048;0.000478879;0.000184008;-0.000340331;0.000518312;-0.000379764;0.000449038;1.4071;0.710683;0.000520557;0.000598718;1.36483;0.732694;151.516;16.5158;0.00145484;0.000478697;-0.000261882;0.000630264;-0.000340349;0.000410413;0.0029915;0;0.0305538;0.000242593;3.12046
141000;142;25.7573;-0.000428397;-1.66318e-05;-2.17711;25.6645;-0.183778;0.0101407;-0.000225594;-0.18622;-0.00604842;-0.174784;-0.185789;0.255154;-6.73922;-0.000360359;0.000216046;5.35778e-05;0.000145795;-0.000452576;0.000299185;6.7259;0.148679;0.000360286;0.000398914;0.322144;3.1042;12.5698;57.5698;0.000467783;-0.00036056;-0.000238648;0.000670551;5.35726e-05;0.00453036;0.0129391;0;0.0172811;0.00331537;-0.178996;-0.375985;0.416431;-6.94895;0.000590592;0.000228102;-0.000388379;0.000641131;-0.000438918;0.000540024;1.52066;0.657609;0.000627199;0.000720032;1.46071;0.684599;155.883;20.8834;0.00178082;0.000590459;-0.000107236;0.000563767;-0.000388358;-0.0017203;0.00224095;0;0.0315348;0.000444564;3.12804
142000;143;25.7563;-0.00141889;-5.50859e-05;-2.17766;25.6634;-0.187178;0.00958886;-0.00129106;-0.18962;-0.00794312;-0.177939;-0.18511;0.256887;-6.73854;-0.00038165;0.000502813;0.000241693;0.000521595;-0.000661553;0.000591574;1.57907;0.633283;0.000684682;0.000788765;0.788441;1.26833;11.7762;56.7762;0.000880202;-0.000382009;2.02989e-05;0.000985025;0.000241819;0.00329223;0.0134624;0;0.0163882;0.00134137;-0.181407;-0.375623;0.417136;-6.94858;0.000491275;0.00025361;-0.00042594;0.000556728;-0.000491392;0.00052406;1.15339;0.867009;0.000605524;0.000698747;1.13296;0.882644;151.653;16.6527;0.00164238;0.000491074;-0.000175612;0.000683226;-0.000425923;-0.00085727;0.0021393;0;0.0317582;0.000630084;3.13516
143000;144;25.7568;-0.000949325;-3.68559e-05;-2.17724;25.6639;-0.189689;0.0100123;-0.00080231;-0.192131;-0.00749203;-0.178849;-0.189232;0.260484;-6.74266;-0.00036976;0.0003291;0.000100191;0.000269592;-0.000539161;0.000404377;3.69054;0.270963;0.000475501;0.000539169;0.500022;1.99991;10.9509;55.9509;0.000880364;-0.000370097;-0.000226395;0.000884334;0.00010022;0.00353109;0.0139588;0;0.0150082;0.00248852;-0.181955;-0.384169;0.425088;-6.95713;0.00049102;0.000219439;-0.000403116;0.000541971;-0.000454067;0.000498019;1.21806;0.820976;0.000575809;0.000664026;1.19359;0.837806;151.334;16.3335;0.00228192;0.000490862;-0.000165425;0.000604647;-0.000403105;-0.00125737;0.00125087;0;0.0273966;0.000669564;3.14225
144000;145;25.758;0.000265032;1.02894e-05;-2.17598;25.6652;-0.190624;0.011268;0.00051601;-0.193065;-0.00784244;-0.180641;-0.190419;0.262587;-6.74385;-0.000291732;0.000555565;0.000324799;0.000651892;-0.000618824;0.000635358;0.898191;1.11335;0.000733731;0.000847144;1.05344;0.949275;15.3789;60.3789;0.00104828;-0.00029219;4.00376e-06;0.00110679;0.000324953;0.0023093;0.0138932;0;0.0156687;0.00263654;-0.183125;-0.389294;0.430222;-6.96225;0.000467214;0.000176043;-0.00041056;0.000501205;-0.000444551;0.000472878;1.13799;0.878741;0.000546359;0.000630503;1.12744;0.886964;147.856;12.8556;0.00227613;0.000467051;-0.000245501;0.000597957;-0.000410575;-0.00163484;0.00166075;0;0.026497;0.00151894;3.14971
145000;146;25.7577;6.80335e-06;2.64129e-07;-2.17671;25.6649;-0.19222;0.0105435;0.000183505;-0.194662;-0.00788105;-0.183918;-0.193506;0.267082;-6.74693;-0.000303937;0.00032952;0.000985239;0.00106458;-0.00038328;0.000723932;0.30849;3.24159;0.000866224;0.000965242;2.77756;0.360029;46.7525;91.7525;0.00080799;-0.000304293;-0.000247765;0.000906061;0.000985263;0.00285814;0.0126325;0;0.0159652;0.00239457;-0.185958;-0.391864;0.433755;-6.96482;0.000342208;0.000227953;-0.000453793;0.000402866;-0.000514451;0.000458658;0.754107;1.32607;0.000530917;0.000611544;0.783099;1.27698;145.895;10.8946;0.00235522;0.00034204;-0.000167664;0.000623886;-0.000453781;-0.00174843;0.00200202;0;0.029431;0.0020457;3.15735
146000;147;25.7583;0.000550426;2.13694e-05;-2.1764;25.6654;-0.196594;0.0108556;0.000722426;-0.199036;-0.00749144;-0.185273;-0.197219;0.270698;-6.75065;-0.00026602;0.000479185;0.0010749;0.00122853;-0.000419657;0.000824096;0.247484;4.04066;0.000989045;0.00109879;2.92747;0.341591;42.649;87.649;0.000724611;-0.000266574;-0.00019899;0.00115645;0.00107499;0.00354593;0.0140507;0;0.0153083;0.00268059;-0.186706;-0.399843;0.441294;-6.9728;0.000450285;0.000222335;-0.000492317;0.000500096;-0.000542128;0.000521112;0.914624;1.09335;0.000601891;0.000694816;0.922469;1.08405;146.237;11.2368;0.00273725;0.000450097;-0.000208072;0.000653147;-0.000492314;-0.00160606;0.00164477;0;0.028914;0.00225699;3.16468
147000;148;25.7564;-0.0013109;-5.08936e-05;-2.17608;25.6636;-0.195184;0.0111694;-0.00110826;-0.197626;-0.00742871;-0.188755;-0.197737;0.273466;-6.75117;-0.000267858;0.000331882;0.0013366;0.00140254;-0.000333798;0.000868169;0.200402;4.98996;0.00106389;0.00115756;4.20177;0.237995;56.1104;101.11;0.00111269;-0.000268183;-0.000209065;0.000871962;0.00133663;0.00201295;0.0139403;0;0.0184458;0.00306469;-0.189215;-0.401784;0.444119;-6.97474;0.000306515;0.00020482;-0.000605184;0.000350415;-0.000649085;0.00049975;0.506482;1.9744;0.000585586;0.000666333;0.539861;1.85233;136.155;1.15527;0.00275138;0.000306369;-0.000166554;0.000576533;-0.000605177;-0.00223683;0.00303525;0;0.0320843;0.00288685;3.17197
148000;149;25.7554;-0.00237689;-9.22787e-05;-2.17635;25.6624;-0.204542;0.0109042;-0.00227347;-0.206984;-0.00704964;-0.191092;-0.197618;0.274989;-6.75105;-0.000289278;9.53739e-05;0.00109398;0.00110052;-0.000295823;0.000698173;0.264427;3.78176;0.000849633;0.000930898;3.72021;0.268802;58.6694;103.669;0.000608116;-0.000289495;-0.000476055;0.000666013;0.00109387;0.00285275;0.0142483;0;0.0158741;0.0035421;-0.190741;-0.405077;0.447753;-6.97804;0.000376055;0.000168587;-0.000675371;0.000402425;-0.000701741;0.000552083;0.556812;1.79594;0.00064525;0.00073611;0.573466;1.74378;131.543;176.543;0.00288173;0.000375947;-0.000156534;0.000494049;-0.000675369;-0.00147788;0.00322969;0;0.0244692;0.00364337;3.17836
149000;150;25.7531;-0.00459181;-0.000178269;-2.17657;25.6602;-0.20848;0.0106801;-0.00454712;-0.210922;-0.00645083;-0.194757;-0.199597;0.278946;-6.75303;-0.000295367;0.000415455;0.00046736;0.000649948;-0.000477954;0.000563951;0.631989;1.58231;0.000653713;0.000751935;1.35985;0.735373;25.6393;70.6393;0.000822722;-0.000295757;-0.000145964;0.000976445;0.000467436;0.00254492;0.0143152;0;0.0168655;0.00428222;-0.193666;-0.409818;0.453295;-6.98278;0.000282066;0.000214629;-0.000729784;0.000325709;-0.000773428;0.000549569;0.386505;2.58729;0.0006519;0.000732758;0.421124;2.3746;134.682;179.682;0.00328062;0.000281825;-0.000296502;0.000726279;-0.000729805;-0.001895;0.00226507;0;0.0261373;0.00343098;3.1833
150000;151;25.7542;-0.00351816;-0.000136587;-2.17644;25.6612;-0.212381;0.0108113;-0.00349044;-0.214823;-0.00672981;-0.196762;-0.201728;0.281877;-6.75516;-0.000234782;0.000286053;0.000235605;0.000370738;-0.000369916;0.000370327;0.996508;1.0035;0.000427617;0.000493769;1.00222;0.997781;19.7467;64.7467;0.000770914;-0.000235004;-0.00015269;0.000724589;0.000235634;0.00273014;0.0146649;0;0.0211739;0.00419022;-0.195635;-0.415148;0.458954;-6.98811;0.000318192;0.00018695;-0.000857498;0.000347203;-0.00088651;0.000616857;0.37107;2.69491;0.00073462;0.000822475;0.391652;2.55329;128.161;173.161;0.00318181;0.000318011;-0.00025567;0.00063009;-0.000857514;-0.00128305;0.00516045;0;0.0247477;0.00376473;3.18904
151000;152;25.7539;-0.00383771;-0.000148992;-2.17615;25.6609;-0.212321;0.0111007;-0.0037861;-0.214762;-0.00713818;-0.199087;-0.200986;0.282987;-6.75441;-0.000284624;0.000210596;0.000309287;0.000376383;-0.00035172;0.000364051;0.92026;1.08665;0.000420451;0.000485402;1.07012;0.934475;28.1222;73.1222;0.000626883;-0.000284819;-0.00023793;0.000658856;0.000309281;0.00317791;0.0138335;0;0.0182223;0.00411573;-0.198309;-0.417207;0.461958;-6.99017;0.000263219;0.000235408;-0.000888327;0.000309484;-0.000934592;0.000622038;0.296308;3.37486;0.000747881;0.000829384;0.331143;3.01984;133.033;178.033;0.00316247;0.000262867;-0.000399636;0.000871184;-0.000888379;-0.0020344;0.00427427;0;0.0232396;0.00383876;3.19519
152000;153;25.7569;-0.000841193;-3.26579e-05;-2.17699;25.6638;-0.216373;0.0102601;-0.000883863;-0.218815;-0.00689886;-0.200725;-0.205898;0.287632;-6.75933;-0.000279231;0.000211103;-0.000104357;3.67007e-05;-0.000420288;0.000228494;-2.67574;-0.373728;0.000293192;0.000304659;0.0873228;11.4518;0.144851;45.1449;0.000681684;-0.00027944;-0.000258337;0.000680461;-0.000104368;0.00368993;0.0139922;0;0.0223181;0.00363067;-0.201777;-0.425142;0.47061;-6.9981;0.000252774;0.00017468;-0.000848708;0.000279812;-0.000875746;0.000577779;0.297834;3.35758;0.000696106;0.000770372;0.319513;3.12977;128.807;173.807;0.00177065;0.00025255;-0.000341078;0.000691006;-0.00084875;-0.000439131;0.00542752;0;0.0281745;0.00380531;3.20163
153000;154;25.7571;-0.000647885;-2.5153e-05;-2.17649;25.6641;-0.213571;0.0107626;-0.000623768;-0.216013;-0.00667545;-0.202003;-0.211528;0.292564;-6.76496;-0.000303255;0.000264825;-0.000520541;-0.000125654;-0.000698142;0.000286244;-0.582577;-1.71651;0.000429712;0.000381659;-0.179983;-5.55607;148.37;13.3704;0.00066029;-0.000303493;-0.000209407;0.000739161;-0.000520528;0.00362377;0.0147023;0;0.0172795;0.00432749;-0.203984;-0.430687;0.47657;-7.00365;0.000250308;0.000209445;-0.000770609;0.000291606;-0.000811907;0.000551757;0.324818;3.07864;0.000660298;0.000735675;0.359162;2.78426;136.564;1.56386;0.00209663;0.000249872;-0.000537025;0.000956678;-0.000770732;-0.00148876;0.00579134;0;0.0214409;0.00399558;3.20828
154000;155;25.7577;-6.54418e-05;-2.54067e-06;-2.17753;25.6645;-0.217236;0.00971927;-0.000158471;-0.219678;-0.0072704;-0.205736;-0.205574;0.290931;-6.759;-0.000264311;0.000394037;-0.000706437;-3.35621e-05;-0.000937186;0.000451812;-0.374147;-2.67275;0.000613909;0.000602416;-0.0358116;-27.9239;139.95;4.95035;0.00085535;-0.000264545;-1.39635e-06;0.000789645;-0.000706359;0.00374601;0.0150494;0;0.0202265;0.00309831;-0.2087;-0.42873;0.476838;-7.00169;0.000252737;0.000224068;-0.00062899;0.00030641;-0.000682664;0.000494537;0.401813;2.48872;0.000584653;0.000659383;0.448845;2.22794;141.106;6.10639;0.00200879;0.000252321;-0.000490129;0.000938895;-0.000629085;-0.00226658;0.00546101;0;0.0272838;0.00392503;3.21688
155000;156;25.7576;-0.000129675;-5.0344e-06;-2.17636;25.6646;-0.219478;0.0108974;-0.00014208;-0.22192;-0.00828532;-0.206041;-0.211856;0.295642;-6.76528;-0.000320834;0.000481911;-0.000699989;7.44753e-06;-0.00102827;0.000517859;-0.458341;-2.18178;0.00068801;0.000690479;;;144.231;9.23112;0.000937849;-0.000321131;5.49669e-05;0.000909017;-0.000699875;0.00332148;0.0141518;0;0.0164503;0.00298929;-0.208559;-0.439611;0.486584;-7.01257;0.000363345;0.000227872;-0.00043846;0.000423581;-0.000498696;0.000461138;0.828685;1.20673;0.000533065;0.000614851;0.849377;1.17733;148.346;13.3456;0.00149992;0.000362912;-0.000502217;0.000958547;-0.00043856;-0.00181187;0.00700825;0;0.0241021;0.0041376;3.22412
156000;157;25.7565;-0.00120638;-4.68358e-05;-2.17613;25.6634;-0.22577;0.0111258;-0.00125791;-0.228212;-0.00706488;-0.208667;-0.21531;0.299917;-6.76874;-0.000382524;0.000449304;-0.00099459;-0.00014493;-0.00123218;0.000543627;-0.384605;-2.60007;0.00077766;0.000724836;-0.117621;-8.50191;136.768;1.76782;0.000961426;-0.000382906;-8.40677e-05;0.000983002;-0.000994492;0.00427718;0.0147681;0;0.0262702;0.0040623;-0.211346;-0.445698;0.493285;-7.01866;0.00041735;0.000251612;-0.000433476;0.000486189;-0.000502315;0.000494252;0.962798;1.03864;0.000570738;0.000659003;0.967896;1.03317;149.96;14.9602;0.00156601;0.000416967;-0.000407259;0.000911043;-0.000433528;-0.000890452;0.00661607;0;0.0308654;0.00412791;3.23137
157000;158;25.7585;0.000799194;3.10273e-05;-2.17614;25.6655;-0.220659;0.0111125;0.000798269;-0.223101;-0.00743269;-0.209648;-0.219049;0.303299;-6.77248;-0.000281992;0.00027949;-0.00095208;-0.000180723;-0.00105335;0.000436313;-0.296185;-3.37627;0.000650416;0.000581751;-0.17157;-5.82854;130.781;175.781;0.000867112;-0.000282297;-0.000270146;0.000829494;-0.000952078;0.0039836;0.0145416;0;0.0196364;0.00371042;-0.213181;-0.45082;0.498697;-7.02378;0.000486958;0.000299457;-0.000357663;0.000582354;-0.000453059;0.000517707;1.3615;0.734484;0.000599348;0.000690276;1.28538;0.777979;155.376;20.3756;0.00189108;0.000486518;-0.000385281;0.000984774;-0.000357692;-0.00151273;0.00617972;0;0.028502;0.00437357;3.23836
158000;159;25.7563;-0.0014655;-5.68956e-05;-2.17678;25.6631;-0.231088;0.0104728;-0.00162067;-0.233529;-0.00733868;-0.211317;-0.218405;0.303989;-6.77183;-0.00030788;0.000460862;-0.000646148;1.3903e-05;-0.000967931;0.000490917;-0.476485;-2.0987;0.000649972;0.000654556;0.0143637;69.6202;147.665;12.6647;0.000878204;-0.000308221;-2.38188e-05;0.000945706;-0.000646042;0.00398158;0.0147796;0;0.0216188;0.00370982;-0.21392;-0.455122;0.502903;-7.02808;0.000390637;0.000295655;-0.000361014;0.000492992;-0.000463369;0.000478181;1.08205;0.924168;0.000552244;0.000637574;1.06393;0.939912;154.65;19.6505;0.00145584;0.000390101;-0.000484582;0.00107648;-0.000361088;-0.000159594;0.006211;0;0.0301291;0.00467479;3.24602
159000;160;25.7561;-0.00166075;-6.4476e-05;-2.17599;25.6629;-0.233581;0.0112672;-0.00177184;-0.236023;-0.00733684;-0.213727;-0.219285;0.306299;-6.77271;-0.000367185;0.000467601;-0.000649129;-1.97678e-05;-0.000996546;0.000488389;-0.565659;-1.76785;0.000657874;0.000651186;-0.0198363;-50.4127;152.251;17.2512;0.00101738;-0.000367682;-0.000165552;0.00110093;-0.000649033;0.00372358;0.0153269;0;0.0152191;0.00399632;-0.216857;-0.456881;0.50575;-7.02984;0.000444739;0.00029553;-0.000395069;0.000538311;-0.000488641;0.000513476;1.12572;0.888318;0.000593142;0.000684634;1.10165;0.907731;153.713;18.7125;0.00192122;0.000444357;-0.000330981;0.000922568;-0.00039508;-0.00092699;0.00614912;0;0.0285915;0.00540243;3.25274
160000;161;25.757;-0.000695794;-2.7013e-05;-2.1758;25.6639;-0.233901;0.0114538;-0.00079047;-0.236343;-0.00764625;-0.213482;-0.223746;0.309347;-6.77717;-0.000392878;0.000329016;-0.00085973;-0.000222895;-0.00102971;0.00040341;-0.456979;-2.18829;0.000625558;0.00053788;-0.216463;-4.61974;137.962;2.9625;0.00114686;-0.00039321;-0.000220201;0.000878491;-0.000859701;0.00379514;0.0159506;0;0.0167886;0.0037017;-0.216928;-0.464355;0.51254;-7.03732;0.000483371;0.000318179;-0.000357743;0.000590171;-0.000464544;0.000527358;1.35117;0.740102;0.000610378;0.000703143;1.27043;0.787134;156.439;21.4392;0.00209265;0.000482978;-0.000305319;0.000942201;-0.000357739;-0.000621253;0.00550977;0;0.0289999;0.00575318;3.25785
161000;162;25.7561;-0.0016821;-6.53048e-05;-2.17591;25.6629;-0.238924;0.011342;-0.00183611;-0.241365;-0.00739889;-0.215301;-0.221901;0.309273;-6.77533;-0.000455019;0.000294552;-0.000703293;-0.000259514;-0.000898798;0.000319642;-0.646984;-1.54563;0.000534139;0.000426189;-0.288734;-3.46339;146.754;11.7537;0.0011353;-0.000455382;-0.00031215;0.000901405;-0.000703298;0.00387988;0.015741;0;0.0232759;0.00389135;-0.218209;-0.466287;0.514834;-7.03925;0.000391937;0.00028819;-0.000354127;0.000490293;-0.000452483;0.000471388;1.10677;0.903531;0.000544458;0.000628517;1.08356;0.922883;154.531;19.5315;0.00214978;0.000391385;-0.000512708;0.00108969;-0.000354217;-0.00107941;0.00577622;0;0.0343652;0.00624759;3.26059
162000;163;25.7584;0.000663004;2.574e-05;-2.17513;25.6653;-0.237277;0.0121188;0.000598629;-0.239719;-0.00831875;-0.215561;-0.229354;0.314864;-6.78278;-0.000326587;0.000256672;-0.000480958;-0.000135746;-0.000671799;0.000268027;-0.679034;-1.47268;0.000410175;0.000357369;-0.202063;-4.94896;155.79;20.7901;0.00117058;-0.000326968;-0.000396868;0.000910314;-0.000481004;0.00425866;0.0161261;0;0.0171046;0.00349135;-0.219188;-0.475102;0.523238;-7.04806;0.000418915;0.000280451;-0.000384456;0.000507131;-0.000472673;0.000489902;1.08963;0.917744;0.000565806;0.000653202;1.0729;0.932052;153.207;18.2071;0.00258524;0.000418502;-0.000389356;0.000950796;-0.000384493;-0.00145826;0.00588696;0;0.0293307;0.00705858;3.26829
163000;164;25.7563;-0.00147295;-5.71849e-05;-2.17441;25.6632;-0.24398;0.0128423;-0.00154662;-0.246422;-0.00787059;-0.217848;-0.227741;0.315255;-6.78117;-0.000325792;0.000477249;-0.000400891;0.000115382;-0.000842065;0.000478724;-0.812671;-1.23051;0.000603525;0.000638298;0.137023;7.29806;164.351;29.3508;0.000921764;-0.000326394;-0.000241257;0.00119581;-0.000400806;0.0046025;0.0160304;0;0.017669;0.00389089;-0.220876;-0.476987;0.52566;-7.04995;0.000439286;0.000317876;-0.000531696;0.000534094;-0.000626504;0.000580299;0.826198;1.21036;0.000670779;0.000773732;0.852499;1.17302;149.478;14.478;0.00262842;0.000438899;-0.000299715;0.000936066;-0.000531691;-0.000761423;0.00511314;0;0.0292596;0.00757347;3.27594
164000;165;25.7571;-0.000665798;-2.58485e-05;-2.17424;25.664;-0.246673;0.0130174;-0.000747441;-0.249115;-0.00821053;-0.218;-0.233278;0.31939;-6.78671;-0.000340739;0.000317531;-0.000463548;-7.87304e-05;-0.000725557;0.000323413;-0.735067;-1.36042;0.000459714;0.000431218;-0.10851;-9.21571;157.283;22.2834;0.00102347;-0.000341096;-0.000267328;0.00090246;-0.000463534;0.00479255;0.0171547;0;0.0163402;0.00359448;-0.22138;-0.48383;0.532084;-7.05679;0.000398619;0.000259458;-0.000523814;0.00046659;-0.000591785;0.000529187;0.760993;1.31407;0.000612476;0.000705583;0.788445;1.26832;146.87;11.87;0.00256106;0.000398253;-0.000374303;0.000893804;-0.000523851;-0.00113726;0.00563039;0;0.0288441;0.00781291;3.28297
165000;166;25.7568;-0.000946105;-3.67309e-05;-2.17361;25.6637;-0.245724;0.0136473;-0.000966292;-0.248165;-0.00902395;-0.219767;-0.234915;0.321813;-6.78834;-0.000294164;0.00029464;-2.5197e-05;0.0001642;-0.000483561;0.000323881;-11.6746;-0.0856562;0.000388841;0.000431841;0.339564;2.94495;5.53942;50.5394;0.00117761;-0.000294583;-0.000371857;0.000960957;-2.52227e-05;0.0042585;0.0162396;0;0.0194957;0.00302321;-0.222369;-0.490064;0.538163;-7.06302;0.000335984;0.00025174;-0.000512085;0.000405081;-0.000581182;0.000493131;0.65611;1.52413;0.000572437;0.000657508;0.696995;1.43473;146.841;11.8411;0.00308233;0.00033555;-0.000461449;0.000965535;-0.00051216;-0.0015824;0.00606579;0;0.0328561;0.00778915;3.29073
166000;167;25.7577;-5.40693e-05;-2.09915e-06;-2.17379;25.6646;-0.251093;0.0134606;-0.000138805;-0.253535;-0.00878535;-0.2206;-0.23829;0.324844;-6.79172;-0.000445556;0.000404382;-2.84919e-05;0.00021796;-0.000692008;0.000454984;-15.638;-0.0639469;0.000548619;0.000606645;0.314968;3.17493;5.93418;50.9342;0.00121995;-0.000446271;-0.000454126;0.00126253;-2.85133e-05;0.00436824;0.0159529;0;0.0146178;0.00333809;-0.223466;-0.49622;0.544226;-7.06918;0.000236454;0.000285942;-0.000683034;0.000318122;-0.000764703;0.000541412;0.346181;2.88866;0.000642647;0.000721883;0.416007;2.4038;141.524;6.524;0.00329172;0.000236053;-0.0003677;0.000940185;-0.000683061;-0.00233891;0.00540207;0;0.0238181;0.00784124;3.29823
167000;168;25.7578;4.58615e-05;1.78049e-06;-2.17381;25.6646;-0.253573;0.0134458;-6.41466e-05;-0.256014;-0.00872332;-0.222669;-0.236273;0.324781;-6.7897;-0.0003562;0.000382133;0.000114771;0.000328149;-0.000569579;0.000448864;3.10357;0.322209;0.000524514;0.000598485;0.576127;1.73573;11.5042;56.5042;0.0013117;-0.000356817;-0.000410827;0.00117472;0.00011476;0.00417847;0.0167236;0;0.0151045;0.00354885;-0.22506;-0.497347;0.545911;-7.07031;0.000248368;0.000223091;-0.00074879;0.000296004;-0.000796426;0.000546215;0.331692;3.01484;0.0006524;0.000728286;0.371665;2.69059;136.542;1.54172;0.00347036;0.000248011;-0.000426916;0.000873747;-0.000748856;-0.0027235;0.00548531;0;0.0252975;0.00790868;3.30543
168000;169;25.7579;0.000133765;5.19321e-06;-2.1735;25.6647;-0.256509;0.0137505;2.07035e-05;-0.258951;-0.00913756;-0.225165;-0.236185;0.326445;-6.78961;-0.000397929;0.00048086;0.000536791;0.000739991;-0.00060113;0.000670561;0.741312;1.34896;0.000775679;0.000894081;1.231;0.812347;24.4877;69.4877;0.00150146;-0.000398676;-0.000352094;0.00131304;0.000536844;0.00359926;0.0162646;0;0.0158667;0.00320755;-0.22725;-0.499952;0.549185;-7.07291;0.000289193;0.000266932;-0.000801579;0.000351013;-0.000863399;0.000607206;0.360779;2.77178;0.000721644;0.000809608;0.406547;2.45974;138.172;3.17192;0.00335828;0.000288748;-0.000445931;0.000980574;-0.000801643;-0.0021263;0.0075773;0;0.0278582;0.00793683;3.31258
169000;170;25.7578;9.90056e-05;3.84372e-06;-2.17355;25.6646;-0.262337;0.0137046;-7.69861e-05;-0.264779;-0.00818483;-0.224452;-0.240553;0.329107;-6.79398;-0.000412861;0.000284891;0.000684533;0.000754085;-0.000482412;0.000618248;0.603127;1.65803;0.000719612;0.000824331;1.56316;0.639732;35.7449;80.7449;0.00124571;-0.000413483;-0.000582696;0.00115153;0.000684404;0.00445954;0.0163093;0;0.014756;0.00442877;-0.226695;-0.507819;0.556139;-7.08078;0.000284587;0.000209221;-0.000840082;0.000322247;-0.000877742;0.000599994;0.338761;2.95194;0.000717131;0.000799993;0.367132;2.72382;134.432;179.432;0.00380436;0.000284193;-0.000493104;0.000912336;-0.000840182;-0.00264414;0.00647688;0;0.0233964;0.00853836;3.31911
170000;171;25.7584;0.000707251;2.74578e-05;-2.17321;25.6652;-0.266454;0.0140435;0.000519763;-0.268896;-0.00841569;-0.226924;-0.243199;0.332733;-6.79663;-0.000441318;0.00028252;0.00101549;0.00106836;-0.000494188;0.000781276;0.434585;2.30105;0.000922218;0.0010417;2.16186;0.462566;42.7661;87.7661;0.00145877;-0.000442045;-0.00067498;0.00123863;0.00101531;0.00369437;0.015739;0;0.0139579;0.0042903;-0.228694;-0.514786;0.563315;-7.08775;0.000159607;0.000262637;-0.000833532;0.000224785;-0.000898709;0.000561747;0.191483;5.22238;0.000686447;0.000748996;0.25012;3.99809;137.132;2.13242;0.00407925;0.000159109;-0.000506965;0.001033;-0.000833626;-0.00419365;0.00995728;0;0.0208592;0.00865076;3.32541
171000;172;25.7595;0.00181518;7.04713e-05;-2.1732;25.6663;-0.270316;0.0140534;0.00159217;-0.272758;-0.00814484;-0.228011;-0.245906;0.335448;-6.79933;-0.000278641;0.000406055;0.000983378;0.00110274;-0.000398001;0.000750369;0.283351;3.52919;0.000897731;0.00100049;2.77069;0.360921;38.6749;83.6749;0.00150323;-0.000279497;-0.000558478;0.00136937;0.000983304;0.00381626;0.0169441;0;0.0144273;0.00476375;-0.230173;-0.521457;0.570018;-7.09442;0.000174451;0.000297617;-0.000906962;0.000250947;-0.000983458;0.000617203;0.192346;5.19895;0.000753351;0.000822937;0.255168;3.91898;136.704;1.70443;0.00370929;0.000173925;-0.000471681;0.00106775;-0.000907029;-0.00361195;0.00997495;0;0.0231749;0.00917991;3.33058
172000;173;25.7586;0.000868953;3.37356e-05;-2.17301;25.6653;-0.276758;0.0142401;0.000589657;-0.2792;-0.00904315;-0.230372;-0.247338;0.338126;-6.80077;-0.000274314;0.000332414;0.00142909;0.00149166;-0.000336885;0.000914275;0.191949;5.20971;0.0011237;0.00121903;4.42782;0.225845;50.3284;95.3284;0.00119721;-0.000275049;-0.000594434;0.00125769;0.00142897;0.00395885;0.0173372;0;0.0161175;0.00374297;-0.232427;-0.525138;0.574288;-7.0981;0.000100813;0.000347226;-0.000862567;0.000212917;-0.000974671;0.000593794;0.116876;8.55609;0.000731161;0.000791725;0.21845;4.57771;141.671;6.67063;0.0037853;0.000100069;-0.000572991;0.00126833;-0.000862671;-0.00397167;0.0109452;0;0.0202185;0.00988379;3.33392
173000;174;25.7602;0.00246612;9.5743e-05;-2.17294;25.6669;-0.279466;0.0143084;0.00216907;-0.281908;-0.00930138;-0.230711;-0.249279;0.339786;-6.80271;-0.000230487;0.000403896;0.00154586;0.00163338;-0.000318011;0.000975697;0.1491;6.70692;0.00120895;0.00130093;5.13626;0.194694;47.7521;92.7521;0.00142542;-0.000231601;-0.000740091;0.00154585;0.00154567;0.00355597;0.0174682;0;0.0171557;0.00358332;-0.232312;-0.533888;0.582252;-7.10685;6.93936e-06;0.000247768;-0.000793296;7.74416e-05;-0.000863798;0.00047062;;;0.000603338;0.000627493;0.0896524;11.1542;138.345;3.34483;0.00377298;6.37904e-06;-0.00059101;0.00108722;-0.00079344;-0.00484207;0.011129;0;0.0203111;0.0105445;3.34029
174000;175;25.7591;0.0013631;5.29202e-05;-2.17394;25.6656;-0.288787;0.0133119;0.000874459;-0.291229;-0.00833782;-0.232496;-0.254031;0.344464;-6.80746;-0.00021205;0.000267756;0.000997342;0.00105397;-0.000268679;0.000661325;0.212615;4.70334;0.000807251;0.000881767;3.92279;0.25492;42.3427;87.3427;0.00169353;-0.000213049;-0.000904284;0.00143838;0.00099697;0.00365773;0.0174145;0;0.013971;0.00429769;-0.233658;-0.543332;0.59146;-7.11629;7.88819e-05;0.000274611;-0.000764068;0.00016045;-0.000845636;0.000503043;0.103239;9.68623;0.000624153;0.000670724;0.189739;5.2704;141.888;6.88829;0.00339393;7.81371e-05;-0.000701052;0.0012511;-0.000764276;-0.00411947;0.010396;0;0.0191659;0.0106862;3.34788
175000;176;25.76;0.00224907;8.73164e-05;-2.17329;25.6665;-0.287344;0.013964;0.00183508;-0.289786;-0.00939091;-0.234038;-0.25453;0.345901;-6.80796;-0.000173723;0.000281809;0.00159106;0.00163497;-0.000217632;0.0009263;0.109187;9.15858;0.00116929;0.00123507;7.51255;0.133111;53.5077;98.5077;0.0015992;-0.000174535;-0.00074298;0.00130479;0.00159082;0.003935;0.0182329;0;0.0271742;0.00405668;-0.235687;-0.545963;0.594677;-7.11892;0.000213027;0.000306659;-0.000823937;0.000296926;-0.000907837;0.000602381;0.258547;3.86777;0.000724766;0.000803175;0.32707;3.05745;140.911;5.91125;0.00240213;0.000212349;-0.00058972;0.00120397;-0.000824064;-0.00155797;0.0112664;0;0.0240116;0.0108947;3.35576
176000;177;25.7592;0.00148765;5.77553e-05;-2.17316;25.6658;-0.289703;0.0140948;0.00105544;-0.292145;-0.00961113;-0.235149;-0.255242;0.347183;-6.80867;-0.000200638;0.000124908;0.00139467;0.00140439;-0.000210359;0.000807376;0.14386;6.95118;0.00101368;0.0010765;6.67618;0.149786;54.3551;99.3551;0.00101714;-0.000201434;-0.00101943;0.00126742;0.00139416;0.00555713;0.0182251;0;0.0186685;0.00368848;-0.236406;-0.551861;0.600377;-7.12482;0.000211831;0.000305252;-0.00079433;0.000297197;-0.000879696;0.000588446;0.266679;3.74982;0.000706677;0.000784595;0.337841;2.95997;142.456;7.45624;0.00267838;0.000211036;-0.000685991;0.00129749;-0.000794519;-0.00339774;0.0123393;0;0.0254557;0.0109479;3.36342
177000;178;25.7598;0.00205073;7.96161e-05;-2.17237;25.6664;-0.29138;0.014882;0.00166822;-0.293822;-0.00867371;-0.235703;-0.262378;0.352808;-6.81581;-0.000296476;0.000114413;0.00142483;0.0014324;-0.000304047;0.000868226;0.208077;4.8059;0.00107077;0.00115763;4.71113;0.212263;55.7022;100.702;0.000957871;-0.000297112;-0.00090676;0.00113383;0.00142443;0.00435403;0.0184462;0;0.0195931;0.00497907;-0.237492;-0.563472;0.611497;-7.13643;0.000307872;0.000295773;-0.000516353;0.000403025;-0.000611506;0.000507265;0.596243;1.67717;0.000589848;0.000676354;0.659069;1.51729;148.686;13.6864;0.00161985;0.000307406;-0.000417163;0.0010093;-0.000516397;-0.000884728;0.00980553;0;0.0251118;0.0110282;3.36948
178000;179;25.7585;0.000744111;2.88889e-05;-2.17272;25.665;-0.292722;0.0145355;0.000312254;-0.295164;-0.00977443;-0.239063;-0.260059;0.35338;-6.81349;-0.000223659;0.000263433;0.000748055;0.000814876;-0.000290481;0.000552679;0.298988;3.34462;0.000661684;0.000736905;2.80527;0.356472;37.1805;82.1805;0.00167116;-0.00022463;-0.000891849;0.00141759;0.000747692;0.00368232;0.0184631;0;0.0166678;0.00390061;-0.240459;-0.564054;0.613182;-7.13701;0.000329772;0.000324037;-0.000528087;0.000438411;-0.000636726;0.000537569;0.624465;1.60137;0.000624241;0.000716758;0.688539;1.45235;149.372;14.3716;0.00211531;0.000329324;-0.000351569;0.00100022;-0.000528096;-0.000877242;0.00951642;0;0.0264931;0.0112477;3.37695
179000;180;25.7593;0.00151698;5.8894e-05;-2.1727;25.6658;-0.29312;0.0145576;0.00108526;-0.295562;-0.00977866;-0.240148;-0.261943;0.355501;-6.81537;-0.000229167;0.000154757;0.00078273;0.000805869;-0.000252306;0.000529088;0.292779;3.41554;0.000638195;0.00070545;3.19401;0.313086;43.7812;88.7812;0.00108894;-0.000229901;-0.000913127;0.00122156;0.000782325;0.0055696;0.0181189;0;0.0217111;0.00383508;-0.241436;-0.569332;0.618421;-7.14229;0.000354365;0.000386957;-0.000463048;0.000508488;-0.000617171;0.00056283;0.765289;1.3067;0.000650909;0.000750439;0.823902;1.21374;154.561;19.5612;0.00202429;0.000353831;-0.000330013;0.00110451;-0.000463028;-0.000751668;0.00910559;0;0.0318969;0.0115005;3.38458
180000;181;25.7576;-9.29221e-05;-3.60754e-06;-2.17194;25.6642;-0.299017;0.0153097;-0.000534865;-0.301458;-0.00998268;-0.241628;-0.262748;0.357099;-6.81618;-0.000271486;6.1646e-05;0.000419294;0.000424752;-0.000276944;0.000350848;0.647483;1.54444;0.000408109;0.000467798;1.53371;0.652013;42.0049;87.0049;0.00165105;-0.000272081;-0.000969786;0.00109237;0.000418826;0.00434762;0.018372;0;0.0201043;0.00433508;-0.242267;-0.57508;0.624043;-7.14804;0.000380843;0.000414894;-0.000512217;0.000543842;-0.000675216;0.000609529;0.743519;1.34496;0.000705185;0.000812706;0.805434;1.24157;154.125;19.1254;0.00205252;0.000380186;-0.000389034;0.00121954;-0.000512207;-0.0014185;0.00963836;0;0.0317802;0.0122955;3.39197
181000;182;25.7573;-0.000466717;-1.81195e-05;-2.17279;25.6636;-0.305398;0.0144589;-0.00105718;-0.30784;-0.0098178;-0.242426;-0.26416;0.358674;-6.81759;-0.000213349;0.00022556;0.000225163;0.000320471;-0.000308657;0.000314564;0.947531;1.05537;0.000363248;0.000419418;1.03828;0.963136;22.2582;67.2582;0.000833781;-0.000214262;-0.000919639;0.00137026;0.000224765;0.00608195;0.0172424;0;0.0223879;0.00472006;-0.243101;-0.579457;0.628404;-7.15242;0.000302831;0.000307498;-0.000441593;0.00041342;-0.000552182;0.000482801;0.68577;1.45822;0.000559406;0.000643734;0.748702;1.33564;151.959;16.9593;0.00276604;0.000302371;-0.000391926;0.00100744;-0.000441623;-0.00181691;0.00811984;0;0.0329862;0.0133653;3.39934
182000;183;25.7562;-0.00151303;-5.87408e-05;-2.17176;25.6626;-0.31094;0.015495;-0.00208616;-0.313382;-0.0096102;-0.24391;-0.268804;0.363098;-6.82223;-0.000174099;0.000144781;-0.000133019;-7.32806e-06;-0.00029979;0.000146231;-1.30882;-0.764046;0.000197462;0.000194974;;;0.232622;45.2326;0.00127524;-0.000174919;-0.000999618;0.00128913;-0.000133508;0.00457824;0.0181247;0;0.0283723;0.00525668;-0.244106;-0.588597;0.63723;-7.16156;0.000384235;0.000321168;-0.000445053;0.00049407;-0.000554888;0.000524479;0.863346;1.15828;0.000605955;0.000699305;0.890395;1.1231;152.814;17.8145;0.00256523;0.000383648;-0.000486858;0.00112986;-0.00044512;-0.000973708;0.00695736;0;0.0398168;0.0138175;3.40406
183000;184;25.7557;-0.0020477;-7.94986e-05;-2.17207;25.662;-0.312737;0.0151791;-0.00267136;-0.315179;-0.00903846;-0.244009;-0.271133;0.364877;-6.82456;-0.000217263;9.78931e-05;2.82125e-05;6.24704e-05;-0.000251521;0.000156996;7.70093;0.129854;0.000191923;0.000209327;0.248371;4.02624;23.4177;68.4177;0.00116678;-0.00021806;-0.00107119;0.00126669;2.76436e-05;0.00508287;0.0174328;0;0.0171742;0.00619039;-0.244215;-0.594062;0.642331;-7.16702;0.00039421;0.000271311;-0.00042361;0.000476031;-0.000505431;0.000490731;0.930596;1.07458;0.000566732;0.000654308;0.941831;1.06176;151.263;16.2635;0.00256252;0.000393678;-0.000522843;0.00106612;-0.00042371;-0.000558127;0.00649557;0;0.0300451;0.0142913;3.40745
184000;185;25.755;-0.00276988;-0.000107536;-2.17131;25.6613;-0.315903;0.0159417;-0.00337042;-0.318345;-0.00877227;-0.245227;-0.271718;0.36612;-6.82515;-0.000288466;0.000199861;-0.000236286;-6.08191e-05;-0.000463933;0.000201557;-1.22083;-0.819112;0.000291141;0.000268742;-0.131095;-7.62808;177.413;42.4128;0.00153283;-0.000289383;-0.000969483;0.00136914;-0.000236736;0.00629937;0.0189621;0;0.0170009;0.0071347;-0.244694;-0.599081;0.647166;-7.17204;0.00042433;0.000223666;-0.00044615;0.000478437;-0.000500257;0.000489347;0.951094;1.05142;0.000565096;0.000652463;0.956383;1.04561;148.255;13.2545;0.00276135;0.000423752;-0.000651108;0.0010992;-0.000446337;-0.00021114;0.00550777;0;0.0260611;0.0145039;3.41427
185000;186;25.7542;-0.00352883;-0.000137001;-2.17055;25.6605;-0.324129;0.0167001;-0.00417056;-0.326571;-0.00898073;-0.247559;-0.269348;0.365944;-6.82278;-0.000282786;8.16123e-05;-0.000766636;-0.000269391;-0.000780031;0.00025532;-0.368866;-2.71101;0.000457475;0.000340427;-0.345359;-2.89554;131.452;176.452;0.00177647;-0.000283465;-0.00100474;0.00116849;-0.000767138;0.00398018;0.0189944;0;0.0170136;0.00707108;-0.246384;-0.601793;0.650315;-7.17475;0.000375028;0.000178149;-0.000444087;0.000412096;-0.000481155;0.000446626;0.844493;1.18414;0.000516232;0.000595501;0.856473;1.16758;145.427;10.4265;0.00254539;0.000374624;-0.000560277;0.00091718;-0.000444228;-0.000380313;0.00477161;0;0.0290052;0.0145432;3.42214
186000;187;25.753;-0.00472499;-0.00018344;-2.17045;25.6592;-0.331055;0.0167978;-0.00545125;-0.333497;-0.00965146;-0.249081;-0.272544;0.369343;-6.82597;-0.000253656;0.000168633;-0.00045491;-0.000157908;-0.000550658;0.000196375;-0.557596;-1.79341;0.000327418;0.000261833;-0.286763;-3.4872;156.118;21.1182;0.00182603;-0.000254526;-0.000991924;0.00132942;-0.000455388;0.00525852;0.0196854;0;0.01918;0.00695034;-0.247765;-0.609139;0.657637;-7.1821;0.000435415;0.000173378;-0.000542036;0.000465258;-0.000571879;0.000518568;0.803296;1.24487;0.000599845;0.000691424;0.81356;1.22917;142.694;7.69397;0.00291104;0.00043502;-0.000558246;0.000905717;-0.000542177;-0.000691907;0.0041204;0;0.0351184;0.0149659;3.42838
187000;188;25.7528;-0.00497281;-0.000193061;-2.16982;25.659;-0.336659;0.0174328;-0.00571918;-0.339101;-0.00954671;-0.248387;-0.276363;0.371704;-6.82979;-0.000171582;0.00022294;-0.000756244;-9.62727e-05;-0.000831553;0.00036764;-0.226887;-4.40747;0.000525227;0.000490187;-0.115775;-8.63747;142.736;7.73629;0.00133294;-0.000172506;-0.00093102;0.00137757;-0.000756653;0.00548021;0.0189214;0;0.0258684;0.00753903;-0.246767;-0.617838;0.665338;-7.1908;0.000487496;0.000220446;-0.000450688;0.000536712;-0.000499905;0.000518309;1.08167;0.924497;0.000598617;0.000691078;1.07363;0.931421;148.344;13.3442;0.00268702;0.000487093;-0.000483252;0.000924804;-0.000450781;-0.00139499;0.00325395;0;0.0389414;0.0150124;3.43574
188000;189;25.7523;-0.00547952;-0.000212733;-2.16943;25.6585;-0.338476;0.0178248;-0.0062185;-0.340918;-0.00907359;-0.24979;-0.276955;0.37307;-6.83038;-0.000301621;5.52699e-05;-0.00116805;-0.00029811;-0.00117156;0.000436727;-0.258226;-3.87258;0.000703066;0.000582303;-0.254454;-3.92998;122.309;167.309;0.00135505;-0.000302341;-0.0010891;0.00120063;-0.00116865;0.00594856;0.0196492;0;0.0245332;0.00849111;-0.247279;-0.622945;0.670283;-7.19591;0.000454051;0.000223049;-0.000552247;0.000501274;-0.00059947;0.000550372;0.822188;1.21627;0.000636357;0.000733829;0.836195;1.19589;144.673;9.67276;0.00316866;0.000453726;-0.000389532;0.000836247;-0.000552298;-0.00227048;0.00444037;0;0.0390868;0.0160303;3.44275
189000;190;25.7519;-0.00587747;-0.000228183;-2.16851;25.6581;-0.345863;0.0187447;-0.00663866;-0.348305;-0.00941335;-0.251542;-0.27633;0.373791;-6.82976;-0.000222046;0.000133621;-0.00101737;-0.000200197;-0.00103922;0.00041951;-0.218255;-4.58179;0.000636658;0.000559346;-0.192642;-5.19098;130.104;175.104;0.00169634;-0.000222856;-0.00101183;0.00127998;-0.00101787;0.00507818;0.0191216;0;0.0212663;0.00875587;-0.248714;-0.627608;0.67515;-7.20057;0.000418035;0.000199893;-0.000587721;0.000456307;-0.000625994;0.00054115;0.71128;1.40592;0.000627421;0.000721534;0.728932;1.37187;141.324;6.32383;0.00298625;0.000417786;-0.000332764;0.000733087;-0.000587757;-0.00208528;0.00481683;0;0.0325246;0.0173598;3.45031
190000;191;25.7509;-0.00679855;-0.000263942;-2.16793;25.657;-0.356261;0.0193187;-0.00765686;-0.358702;-0.00968129;-0.251461;-0.280059;0.37651;-6.83349;-0.000192862;0.000159586;-0.00111234;-0.000165951;-0.00113925;0.000486649;-0.173384;-5.76755;0.000710671;0.000648865;-0.145667;-6.86497;130.616;175.616;0.00188939;-0.000193815;-0.00106955;0.00138985;-0.0011129;0.00575997;0.0199291;0;0.0199194;0.00870134;-0.248212;-0.637322;0.684007;-7.21028;0.000561554;0.000273459;-0.000602446;0.000622597;-0.000663488;0.000643043;0.932123;1.07282;0.000742647;0.00085739;0.938368;1.06568;146.244;11.2441;0.00306637;0.00056134;-0.000161257;0.000708681;-0.000602422;-0.00161443;0.00524773;0;0.0317674;0.0179522;3.45729
191000;192;25.7509;-0.00681789;-0.000264693;-2.16778;25.657;-0.358776;0.019476;-0.00769803;-0.361218;-0.0096944;-0.252371;-0.279031;0.376356;-6.83246;-0.000241559;3.14952e-05;-0.000962417;-0.000240186;-0.00096379;0.000361802;-0.250992;-3.98419;0.000579307;0.000482403;-0.24921;-4.01269;123.963;168.963;0.00152818;-0.000242288;-0.001144;0.00120784;-0.000963071;0.00543753;0.0199211;0;0.0281484;0.0089753;-0.248902;-0.639985;0.686741;-7.21295;0.000410347;0.000196836;-0.000653657;0.000445594;-0.000688904;0.000567249;0.627771;1.59294;0.000660005;0.000756332;0.646816;1.54604;137.671;2.67053;0.00344593;0.000410154;-0.000257678;0.000651835;-0.000653671;-0.0030418;0.00626138;0;0.0395287;0.0179173;3.46423
192000;193;25.7511;-0.00667822;-0.000259271;-2.1679;25.6571;-0.364134;0.0193556;-0.0076435;-0.366575;-0.00975851;-0.252945;-0.282876;0.379599;-6.8363;-0.000240022;0.000102522;-0.00121192;-0.000229325;-0.00122261;0.000496644;-0.198052;-5.04918;0.000750406;0.000662192;-0.18757;-5.33135;125.552;170.552;0.001224;-0.000240886;-0.00111212;0.00131834;-0.00121253;0.00661683;0.020314;0;0.0230967;0.00917317;-0.249478;-0.648297;0.694703;-7.22126;0.000460073;0.000229649;-0.000735408;0.00050267;-0.000778005;0.000640338;0.625602;1.59846;0.000745072;0.000853783;0.646101;1.54775;137.678;2.67842;0.00305796;0.00045984;-0.000260656;0.00072054;-0.000735416;-0.00249415;0.00603239;0;0.0333291;0.0183132;3.47195
193000;194;25.7512;-0.00651277;-0.000252847;-2.16767;25.6572;-0.369833;0.0195855;-0.00753954;-0.372275;-0.0103234;-0.254019;-0.281247;0.37912;-6.83468;-0.000304088;0.000187676;-0.00105861;-0.000259985;-0.00110272;0.000421366;-0.287252;-3.48127;0.000665627;0.000561821;-0.235768;-4.24147;134.752;179.752;0.00151871;-0.000305235;-0.00114957;0.00152594;-0.00105926;0.006434;0.0202736;0;0.0211508;0.00911495;-0.250349;-0.651975;0.698447;-7.22494;0.0004667;0.00027814;-0.000805283;0.00052486;-0.000863443;0.000694152;0.579548;1.72548;0.000809444;0.000925536;0.607869;1.64509;138.038;3.03842;0.0032095;0.000466408;-0.000256451;0.000813411;-0.000805277;-0.00352856;0.00525667;0;0.0298472;0.0190722;3.47908
194000;195;25.7511;-0.00659864;-0.000256181;-2.16746;25.6571;-0.372699;0.0197949;-0.00764951;-0.375141;-0.0100297;-0.254735;-0.282;0.380151;-6.83543;-0.000217605;0.000204831;-0.00109224;-0.000172012;-0.00113783;0.000482909;-0.199229;-5.01935;0.000708214;0.000643879;-0.151176;-6.61483;134.559;179.559;0.0017171;-0.000218781;-0.00113592;0.00154675;-0.00109286;0.00636788;0.0201164;0;0.0248328;0.00967273;-0.251071;-0.655863;0.702343;-7.22882;0.000502953;0.000278422;-0.000970927;0.000553795;-0.00102177;0.000787782;0.518013;1.93045;0.00092293;0.00105038;0.541996;1.84503;133.535;178.535;0.00345843;0.000502661;-0.0002556;0.000813233;-0.000970921;-0.00352676;0.00670595;0;0.0306438;0.0200196;3.48078
195000;196;25.7516;-0.00613093;-0.000238023;-2.16749;25.6574;-0.378502;0.0197616;-0.00726785;-0.380944;-0.0101885;-0.255198;-0.284178;0.382082;-6.83761;-0.000335697;0.000110868;-0.000858062;-0.00031314;-0.000880619;0.000283739;-0.391227;-2.55606;0.000515445;0.000378319;-0.355591;-2.81222;135.249;0.248955;0.001873;-0.00033689;-0.00132621;0.0015487;-0.000858936;0.00625387;0.0191074;0;0.0215318;0.00976344;-0.251486;-0.662727;0.708906;-7.23569;0.000459337;0.000327463;-0.000964585;0.000531034;-0.00103628;0.000783658;0.476201;2.09995;0.000920429;0.00104488;0.512441;1.95144;131.624;176.624;0.00339686;0.000459116;-8.50246e-05;0.000740538;-0.000964535;-0.00411297;0.00673399;0;0.0288098;0.0211577;3.48664
196000;197;25.7521;-0.00565251;-0.000219449;-2.16627;25.658;-0.380056;0.0209861;-0.00670723;-0.382498;-0.0102748;-0.256246;-0.284357;0.382919;-6.83779;-0.000327632;6.8753e-05;-0.000976279;-0.000320425;-0.000983486;0.000331531;-0.335593;-2.9798;0.000579189;0.000442041;-0.325805;-3.06932;128.087;173.087;0.00176136;-0.000328632;-0.00127701;0.00141539;-0.000977093;0.00583674;0.0203641;0;0.0267687;0.0100384;-0.252326;-0.668216;0.71434;-7.24118;0.000448738;0.000252769;-0.00116498;0.000487404;-0.00120364;0.000845524;0.38519;2.59612;0.00100509;0.00112737;0.404941;2.4695;127.632;172.632;0.00375198;0.000448431;-0.000316506;0.000822963;-0.001165;-0.00438594;0.00824276;0;0.0305674;0.0217691;3.49423
197000;198;25.7528;-0.00492771;-0.00019131;-2.16593;25.6587;-0.383127;0.0213254;-0.0059968;-0.385569;-0.009998;-0.256276;-0.285721;0.383945;-6.83915;-0.000287791;0.000212033;-0.00102396;-0.000231088;-0.00108066;0.000424786;-0.281058;-3.55798;0.000657098;0.000566381;-0.21384;-4.67639;137.457;2.4568;0.0017857;-0.000289072;-0.00118901;0.00161411;-0.00102464;0.00627935;0.0205502;0;0.0247402;0.010598;-0.252615;-0.673534;0.719427;-7.24649;0.000466013;0.000329588;-0.00114746;0.000530742;-0.00121219;0.000871464;0.406126;2.46229;0.0010316;0.00116195;0.437838;2.28395;129.372;174.372;0.00379718;0.00046571;-0.000184806;0.000844813;-0.00114742;-0.00522125;0.00729498;0;0.0298181;0.0218472;3.50121
198000;199;25.7531;-0.0045913;-0.000178249;-2.16574;25.659;-0.389126;0.0215088;-0.00573395;-0.391568;-0.0101752;-0.257243;-0.288417;0.386603;-6.84185;-0.000290048;-1.12751e-05;-0.00112242;-0.000289896;-0.00112257;0.000416337;-0.258414;-3.86976;0.000672895;0.000555116;-0.258243;-3.87232;121.551;166.551;0.00166016;-0.000291139;-0.00149817;0.00147686;-0.00112354;0.0074712;0.021769;0;0.0208854;0.0107921;-0.254215;-0.680329;0.726354;-7.25329;0.000510847;0.000322728;-0.00125086;0.000568107;-0.00130812;0.000938113;0.408397;2.4486;0.00111097;0.00125082;0.434293;2.30259;127.176;172.176;0.00364555;0.00051055;-0.000190036;0.000836397;-0.00125083;-0.00568141;0.0072334;0;0.0224216;0.0224096;3.50944
199000;200;25.7542;-0.00349526;-0.000135698;-2.16587;25.66;-0.393401;0.0213829;-0.00470969;-0.395843;-0.0104769;-0.258112;-0.289417;0.387936;-6.84285;-0.000286078;0.000214434;-0.000804601;-0.000208889;-0.00088179;0.00033645;-0.355552;-2.81253;0.000532078;0.0004486;-0.236892;-4.22133;145.456;10.4558;0.0020211;-0.000287717;-0.0013932;0.00182291;-0.000805549;0.00602076;0.0201893;0;0.0223555;0.0107267;-0.255128;-0.686416;0.732375;-7.25938;0.000435994;0.000293822;-0.00117598;0.00048788;-0.00122787;0.000857873;0.37075;2.69724;0.00102083;0.00114383;0.39734;2.51673;129.747;174.747;0.00353673;0.000435613;-0.000332334;0.000920989;-0.00117599;-0.0043877;0.00707126;0;0.0256068;0.0231846;3.51574
200000;201;25.7528;-0.00494408;-0.000191946;-2.166;25.6584;-0.401111;0.0212573;-0.00629382;-0.403553;-0.0100376;-0.258371;-0.291534;0.389677;-6.84496;-0.00024094;0.000240358;-0.000672388;-0.000133695;-0.000779633;0.000322969;-0.358335;-2.79068;0.000481419;0.000430625;-0.171485;-5.83143;150.832;15.8325;0.00197137;-0.000242505;-0.00130349;0.00178488;-0.000673209;0.00597199;0.0208722;0;0.0219698;0.0113555;-0.255762;-0.69295;0.738731;-7.26591;0.000680213;0.000280802;-0.00130654;0.000719138;-0.00134546;0.0010323;0.520623;1.92078;0.00121014;0.0013764;0.534492;1.87094;129.42;174.42;0.00382047;0.000679851;-0.00033413;0.000896957;-0.00130655;-0.00596975;0.00768689;0;0.0254126;0.0243214;3.52335
201000;202;25.7544;-0.00331957;-0.000128877;-2.16544;25.66;-0.404892;0.0218087;-0.00467617;-0.407334;-0.0105493;-0.259068;-0.292431;0.390824;-6.84586;-0.00023666;0.000172082;-0.000708196;-0.00018054;-0.000764317;0.000291889;-0.334173;-2.99246;0.000461295;0.000389185;-0.236211;-4.23351;145.017;10.0169;0.00200197;-0.000238274;-0.00145986;0.00180479;-0.000709248;0.00733459;0.0214559;0;0.0177936;0.0111502;-0.257556;-0.697934;0.744024;-7.27089;0.000579215;0.000324055;-0.00121713;0.000635886;-0.0012738;0.000954841;0.475888;2.10134;0.00112287;0.00127312;0.499205;2.00318;131.509;176.509;0.00327351;0.000578812;-0.000305627;0.000954869;-0.00121712;-0.00428843;0.00723616;0;0.0250882;0.0250677;3.53088
202000;203;25.7543;-0.00345021;-0.000133949;-2.16551;25.6598;-0.409037;0.0217424;-0.00487862;-0.411479;-0.0106765;-0.260155;-0.294234;0.392897;-6.84766;-0.000223131;0.000410788;-0.000334068;0.000135916;-0.000693116;0.000414516;-0.667922;-1.49718;0.000513415;0.000552688;0.196095;5.09957;171.405;36.4046;0.00208448;-0.000225184;-0.00124517;0.00206693;-0.000334759;0.00719528;0.0215345;0;0.0244355;0.0113911;-0.259;-0.704386;0.750579;-7.27735;0.000717425;0.000377255;-0.00131231;0.000785275;-0.00138016;0.00108272;0.54669;1.82919;0.00126584;0.00144362;0.568975;1.75755;130.941;175.941;0.00331029;0.000717068;-0.00016935;0.000924971;-0.00131225;-0.00359922;0.00591468;0;0.0255187;0.0252189;3.5385
203000;204;25.7557;-0.00201129;-7.80849e-05;-2.16536;25.6612;-0.412737;0.0218921;-0.00348102;-0.415179;-0.01099;-0.261534;-0.294574;0.394075;-6.848;-0.00030351;0.000345534;-8.95601e-05;0.000165179;-0.00055825;0.000361715;-3.3889;-0.295081;0.000437741;0.000482286;0.295888;3.37965;5.2301;50.2301;0.00219758;-0.000305443;-0.0013053;0.00199602;-9.03524e-05;0.0067969;0.0219584;0;0.0229133;0.0114495;-0.261069;-0.709125;0.755742;-7.28209;0.000713269;0.00035995;-0.00112394;0.000781273;-0.00119195;0.000986612;0.634612;1.57577;0.00114744;0.00131548;0.655458;1.52565;134.149;179.149;0.00282194;0.000712979;-0.000120651;0.000841435;-0.00112389;-0.00376734;0.00636007;0;0.0255629;0.0259423;3.54512
204000;205;25.7561;-0.00160041;-6.21333e-05;-2.16555;25.6616;-0.415037;0.0217038;-0.00312162;-0.417479;-0.0108659;-0.261978;-0.296125;0.395526;-6.84955;-0.00022167;0.000387434;-8.16277e-05;0.000242061;-0.000545359;0.00039371;-2.71563;-0.368239;0.000465723;0.000524947;0.443857;2.25298;2.75995;47.7599;0.00228569;-0.00022402;-0.00142737;0.00220198;-8.25714e-05;0.00630834;0.0221143;0;0.0196036;0.0118323;-0.26185;-0.714984;0.761517;-7.28794;0.000714598;0.000371531;-0.00113635;0.000786389;-0.00120814;0.000997265;0.628853;1.5902;0.00116009;0.00132969;0.650908;1.53632;136.186;1.1862;0.00281625;0.0007142;-0.000222773;0.000966935;-0.00113631;-0.00386449;0.00635563;0;0.0250649;0.0275404;3.55095
205000;206;25.7559;-0.00185296;-7.1938e-05;-2.16457;25.6613;-0.421051;0.0226809;-0.00339063;-0.423493;-0.0104342;-0.263537;-0.296341;0.39671;-6.84977;-0.000327467;6.52323e-05;-0.00026049;-0.000220653;-0.000367305;7.33261e-05;-1.25712;-0.795471;0.000213493;9.77681e-05;-0.600734;-1.66463;9.06734;54.0673;0.00263989;-0.000329274;-0.00177146;0.0019018;-0.000262058;0.00645524;0.0224033;0;0.0293765;0.012394;-0.264146;-0.719217;0.76629;-7.29218;0.000816654;0.000332644;-0.000912965;0.000878423;-0.000974733;0.000926578;0.894508;1.11793;0.0010704;0.00123544;0.901193;1.10964;143.09;8.09043;0.00334932;0.000816307;-0.000231542;0.000897806;-0.000912936;-0.00524986;0.00735512;0;0.0409894;0.0286569;3.5561
206000;207;25.757;-0.000765083;-2.9703e-05;-2.16434;25.6624;-0.420811;0.0229166;-0.00227493;-0.423253;-0.0110989;-0.264605;-0.297378;0.398212;-6.85081;-0.000328011;0.000138216;8.09158e-05;0.00012325;-0.000370345;0.000246798;4.05373;0.246686;0.000296641;0.000329064;0.332797;3.00483;26.1168;71.1168;0.0023878;-0.000330036;-0.00174113;0.00201679;7.94097e-05;0.00655772;0.0209975;0;0.0187733;0.0121439;-0.265193;-0.724125;0.771253;-7.29709;0.000782426;0.00028532;-0.000885225;0.000829891;-0.00093269;0.00088129;0.883872;1.13139;0.0010182;0.00117505;0.889782;1.12387;141.844;6.8444;0.00301756;0.000782107;-0.000277098;0.000848676;-0.000885223;-0.00425409;0.00611361;0;0.0282515;0.0288291;3.56057
207000;208;25.756;-0.0016871;-6.54987e-05;-2.16245;25.6615;-0.428022;0.0248032;-0.00316055;-0.430464;-0.0110691;-0.265812;-0.299301;0.40045;-6.85273;-0.000328175;0.000163262;0.000394604;0.000429771;-0.000363342;0.000396556;0.831656;1.20242;0.000458439;0.000528742;1.18283;0.845431;33.3613;78.3613;0.00236254;-0.000330383;-0.00178225;0.00210737;0.00039303;0.00761862;0.0222293;0;0.0179602;0.0125242;-0.266588;-0.72948;0.776767;-7.30244;0.000811471;0.000297989;-0.000845225;0.00086344;-0.000897194;0.000880317;0.960065;1.0416;0.00101657;0.00117376;0.962378;1.03909;143.915;8.91538;0.003261;0.000811205;-0.000192528;0.000789319;-0.0008452;-0.00481484;0.00612026;0;0.0306613;0.0291492;3.5671
208000;209;25.7568;-0.000962924;-3.73839e-05;-2.16289;25.6622;-0.430602;0.0243663;-0.00251368;-0.433044;-0.0104899;-0.266058;-0.303042;0.4034;-6.85647;-0.000295348;0.000118198;0.000246797;0.000271446;-0.000319997;0.000295721;1.19673;0.835613;0.000341853;0.000394295;0.848275;1.17886;32.9099;77.9099;0.0027072;-0.000297682;-0.0019279;0.00216318;0.000244946;0.00666532;0.0230156;0;0.0187653;0.0131564;-0.266979;-0.737292;0.784252;-7.31025;0.00091037;0.000276872;-0.000874647;0.000952329;-0.000916606;0.000934468;1.04084;0.96076;0.0010791;0.00124596;1.03897;0.962489;144.474;9.4744;0.00321258;0.000910021;-0.00032558;0.0008804;-0.000874662;-0.00465477;0.00642461;0;0.0325566;0.0305655;3.57435
209000;210;25.757;-0.000743537;-2.88665e-05;-2.16269;25.6624;-0.432734;0.0245637;-0.00231272;-0.435176;-0.0109609;-0.268583;-0.298284;0.401535;-6.85171;-0.000299382;0.000190885;0.000755449;0.00078893;-0.000332863;0.000560896;0.396297;2.52336;0.00066527;0.000747862;2.37013;0.421917;38.2125;83.2125;0.0026263;-0.000301937;-0.00188858;0.00226815;0.000753685;0.00706334;0.0222769;0;0.0176075;0.0134392;-0.268389;-0.738581;0.785949;-7.31154;0.000851359;0.000253448;-0.000808709;0.000889191;-0.000846542;0.000867867;1.05274;0.949904;0.00100223;0.00115716;1.05038;0.952036;144.645;9.64451;0.00358968;0.000851082;-0.000278469;0.000786248;-0.000808716;-0.00497829;0.00584173;0;0.0323267;0.031819;3.58137
210000;211;25.7576;-0.00010061;-3.90602e-06;-2.16246;25.663;-0.435861;0.0247919;-0.00170112;-0.438303;-0.0108635;-0.268801;-0.303071;0.405245;-6.8565;-0.000285859;0.000267548;0.000734828;0.000800707;-0.000351738;0.000576222;0.389014;2.5706;0.000681987;0.000768296;2.27643;0.439284;34.0696;79.0696;0.00300578;-0.000288948;-0.00196668;0.00249949;0.000732931;0.00659803;0.0227991;0;0.0221383;0.01349;-0.269424;-0.744904;0.792246;-7.31786;0.000973685;0.00023337;-0.000729257;0.00100509;-0.000760659;0.000882873;1.33517;0.748966;0.0010227;0.00117716;1.32134;0.756809;149.526;14.5257;0.00323646;0.000973442;-0.000267198;0.00073479;-0.000729266;-0.00370704;0.00789828;0;0.0430268;0.0325911;3.58853
211000;212;25.7572;-0.000538422;-2.09033e-05;-2.16144;25.6626;-0.438334;0.0258109;-0.00209681;-0.440776;-0.0101765;-0.269461;-0.306775;0.40844;-6.8602;-0.000298289;0.000203738;0.000717698;0.000757031;-0.000337622;0.000547327;0.415619;2.40605;0.000647277;0.000729769;2.24224;0.445982;36.7546;81.7546;0.00326471;-0.000301305;-0.00205888;0.00246406;0.000715601;0.00549834;0.0242245;0;0.022072;0.0143698;-0.269965;-0.751372;0.798529;-7.32433;0.000887132;0.000235597;-0.000650243;0.000922426;-0.000685537;0.000803982;1.36431;0.732973;0.00093171;0.00107198;1.34555;0.74319;151.169;16.1692;0.00325977;0.000886935;-0.000197469;0.000669329;-0.000650235;-0.00319213;0.0079295;0;0.040355;0.0330306;3.59645
212000;213;25.7585;0.000789617;3.06555e-05;-2.16136;25.6639;-0.440883;0.0258924;-0.00080068;-0.443325;-0.0112216;-0.270398;-0.304127;0.407104;-6.85755;-0.000231279;0.000272642;0.00120933;0.0012592;-0.000281152;0.000770176;0.191246;5.22887;0.000947197;0.0010269;4.47873;0.223278;40.6311;85.6311;0.00296343;-0.000234588;-0.00204455;0.0025865;0.00120728;0.0068984;0.0242541;0;0.0214295;0.0138034;-0.270953;-0.754692;0.801976;-7.32765;0.000828379;0.000226541;-0.000656646;0.000862169;-0.000690436;0.000776303;1.26153;0.792688;0.000898223;0.00103507;1.24873;0.800813;147.892;12.8924;0.00355695;0.0008281;-0.000327614;0.00078152;-0.000656674;-0.00332824;0.00782435;0;0.0451349;0.0348526;3.60292
213000;214;25.7572;-0.000521325;-2.02396e-05;-2.16005;25.6626;-0.445575;0.0271979;-0.00208756;-0.448017;-0.0111496;-0.271417;-0.308087;0.410742;-6.86152;-0.000307914;0.000181242;0.000970656;0.000995851;-0.000333109;0.00066448;0.317223;3.15236;0.000798445;0.000885974;2.98956;0.334497;41.1416;86.1416;0.00293207;-0.000311086;-0.00216527;0.00252475;0.000968331;0.00736093;0.024481;0;0.0260044;0.0143935;-0.27151;-0.761686;0.808759;-7.33465;0.000900281;0.000191908;-0.000649895;0.000923685;-0.000673299;0.000798492;1.38527;0.72188;0.000925789;0.00106466;1.37188;0.728927;147.637;12.637;0.00362632;0.000899966;-0.000431362;0.000816145;-0.000649969;-0.00293862;0.00734827;0;0.0443924;0.0364731;3.61061
214000;215;25.757;-0.000714876;-2.77538e-05;-2.16054;25.6623;-0.452455;0.0267154;-0.00244282;-0.454897;-0.0104855;-0.270287;-0.311715;0.412712;-6.86514;-0.000241739;0.000275977;0.000856775;0.00092221;-0.000307174;0.000614692;0.28215;3.54421;0.0007388;0.00081959;3.00224;0.333085;35.2847;80.2847;0.00346723;-0.000245394;-0.00216791;0.00271718;0.000854465;0.00672277;0.0256826;0;0.0194634;0.0151354;-0.270154;-0.770834;0.816944;-7.34379;0.000939162;0.000179367;-0.0007435;0.000958069;-0.000762407;0.000860238;1.26316;0.791663;0.000995457;0.00114698;1.25664;0.795775;145.301;10.3014;0.00356651;0.000938833;-0.000470901;0.00083073;-0.000743595;-0.00391498;0.00889362;0;0.0394346;0.0366904;3.61755
215000;216;25.7556;-0.00212553;-8.252e-05;-2.1595;25.6608;-0.457919;0.0277547;-0.00386815;-0.460361;-0.0116748;-0.273095;-0.30806;0.411847;-6.86149;-0.000149725;0.000221113;0.00127292;0.00130649;-0.000183299;0.000744894;0.117623;8.50172;0.000938081;0.000993192;7.12766;0.140298;42.8115;87.8115;0.00278395;-0.000153313;-0.00224919;0.0026879;0.00127041;0.00730114;0.024041;0;0.0178616;0.0146929;-0.271994;-0.772483;0.819101;-7.34544;0.000851154;0.000192059;-0.000818924;0.000872957;-0.000840726;0.000856841;1.03936;0.962133;0.000989453;0.00114245;1.03834;0.963079;142.62;7.61998;0.00351082;0.000850994;-0.000213153;0.000597948;-0.000818928;-0.00350994;0.00886509;0;0.0371402;0.0378759;3.62195
216000;217;25.7582;0.00049766;1.93208e-05;-2.15886;25.6635;-0.456602;0.0283974;-0.00115773;-0.459044;-0.0117192;-0.272392;-0.313871;0.415752;-6.8673;-0.000213827;0.000259634;0.00143227;0.00147225;-0.000253807;0.000863028;0.149293;6.69826;0.00107612;0.0011507;5.80066;0.172394;42.9533;87.9533;0.00308207;-0.000217791;-0.00231219;0.00282723;0.00142963;0.00719846;0.0239032;0;0.0202961;0.01519;-0.271965;-0.780911;0.827054;-7.35387;0.000845315;0.000154258;-0.000828119;0.000859415;-0.00084222;0.000850818;1.02076;0.979658;0.000982456;0.00113442;1.02042;0.979992;140.658;5.6581;0.00345713;0.000845059;-0.000422129;0.00073161;-0.000828196;-0.00329614;0.00985102;0;0.039674;0.0396982;3.62864
217000;218;25.7577;-6.40647e-05;-2.4872e-06;-2.15802;25.6629;-0.46273;0.0292374;-0.00176063;-0.465172;-0.0117481;-0.274878;-0.309356;0.414001;-6.86278;-0.00034984;0.000107119;0.00140258;0.00140911;-0.000356363;0.000882735;0.249425;4.00922;0.00107801;0.00117698;3.95413;0.2529;47.5427;92.5427;0.00330593;-0.000353177;-0.00237544;0.00258533;0.00139977;0.00704392;0.0249249;0;0.0167626;0.0158849;-0.274235;-0.780661;0.82758;-7.35362;0.000777431;0.000132571;-0.000868192;0.000788042;-0.000878803;0.000833423;0.89546;1.11674;0.000962829;0.00111123;0.896722;1.11517;137.12;2.12017;0.00415826;0.000777222;-0.000393345;0.000659354;-0.00086826;-0.00261538;0.00996974;0;0.0300297;0.0399347;3.63304
218000;219;25.7567;-0.000989764;-3.84259e-05;-2.15869;25.6618;-0.472636;0.0285597;-0.00292727;-0.475077;-0.0118386;-0.274097;-0.314031;0.416995;-6.86746;-9.42656e-05;0.000281264;0.00168031;0.00172382;-0.000137778;0.000930798;0.0561003;17.8252;0.00119778;0.00124106;12.5115;0.0799262;44.7114;89.7114;0.00331838;-9.83857e-05;-0.00232625;0.00288416;0.00167764;0.00730905;0.025502;0;0.0167472;0.0160581;-0.272682;-0.791745;0.83754;-7.36471;0.000778646;0.000101877;-0.000853721;0.00078498;-0.000860055;0.000822517;0.912061;1.09642;0.000950091;0.00109669;0.912709;1.09564;136.865;1.8653;0.00378014;0.000778382;-0.000528972;0.000733757;-0.000853856;-0.00179213;0.0101284;0;0.0331588;0.0412356;3.63986
219000;220;25.7561;-0.00160968;-6.24932e-05;-2.1572;25.6612;-0.476817;0.030055;-0.00350109;-0.479258;-0.0114368;-0.276728;-0.310451;0.41604;-6.86388;-5.73552e-05;0.000244927;0.00104387;0.00109589;-0.000109373;0.000602631;0.0549447;18.2001;0.000769645;0.000803508;10.0198;0.0998028;38.2226;83.2226;0.00340617;-6.1663e-05;-0.00245847;0.00294534;0.00104088;0.00762193;0.0263551;0;0.0174608;0.0172037;-0.274471;-0.794296;0.840557;-7.36726;0.000691177;0.000114366;-0.00103861;0.000698706;-0.00104613;0.00087242;0.665486;1.50266;0.00101402;0.00116323;0.667893;1.49725;130.396;175.396;0.00392429;0.000690944;-0.000462035;0.000691766;-0.00103871;-0.0031996;0.0116819;0;0.0331738;0.0433271;3.64741
220000;221;25.7556;-0.00210365;-8.16705e-05;-2.15689;25.6606;-0.483038;0.0303634;-0.00408731;-0.48548;-0.0121263;-0.277729;-0.310658;0.41688;-6.86409;-0.000249144;0.000350207;0.00128958;0.00136553;-0.0003251;0.000845317;0.193198;5.17604;0.00103587;0.00112709;4.20035;0.238075;38.1338;83.1338;0.00351525;-0.000253925;-0.00241554;0.0031117;0.00128673;0.00684227;0.0259173;0;0.0187903;0.0167899;-0.275035;-0.799118;0.84529;-7.37208;0.000656123;7.30878e-05;-0.00108468;0.000659187;-0.00108774;0.000873464;0.604901;1.65316;0.00101866;0.00116462;0.606014;1.65013;129.053;174.053;0.00429026;0.000655816;-0.000639783;0.000787201;-0.00108488;-0.00229927;0.0117177;0;0.0282758;0.04381;3.65524
221000;222;25.7559;-0.00185276;-7.19304e-05;-2.15666;25.6608;-0.486578;0.0305892;-0.0038834;-0.48902;-0.0116853;-0.277881;-0.313055;0.418757;-6.86648;-0.000235821;0.000245693;0.00162191;0.00165385;-0.000267765;0.00096081;0.145397;6.87772;0.00120181;0.00128108;6.1765;0.161904;44.7704;89.7704;0.003638;-0.000240194;-0.0024809;0.00296723;0.00161887;0.00806804;0.0262455;0;0.0177202;0.0175685;-0.275165;-0.806296;0.852137;-7.37926;0.000712429;8.97701e-05;-0.00109313;0.000716881;-0.00109759;0.000907234;0.65173;1.53438;0.00105524;0.00120965;0.653143;1.53106;130.443;175.443;0.00431331;0.000712105;-0.000629311;0.000810151;-0.00109333;-0.00251949;0.0127503;0;0.0315094;0.045969;3.66184
222000;223;25.7561;-0.00159982;-6.21102e-05;-2.15596;25.661;-0.492186;0.0312906;-0.00367753;-0.494628;-0.0120121;-0.277787;-0.310339;0.416677;-6.86377;-0.000135245;0.000371947;0.00171336;0.00178539;-0.000207276;0.000996332;0.0789357;12.6685;0.00126502;0.00132844;8.61358;0.116096;41.8743;86.8743;0.00373669;-0.000140293;-0.00246018;0.00319884;0.0017104;0.00719988;0.0256365;0;0.0204685;0.0178932;-0.275409;-0.808786;0.854579;-7.38175;0.000671022;0.000102661;-0.00126092;0.000676462;-0.00126636;0.00097141;0.53217;1.8791;0.00113879;0.00129521;0.534179;1.87203;127.248;172.248;0.00427376;0.000670668;-0.000641776;0.000848539;-0.00126112;-0.00317124;0.011873;0;0.0342586;0.0471112;3.66928
223000;224;25.7561;-0.00164787;-6.39758e-05;-2.15573;25.6609;-0.499155;0.0315199;-0.00384112;-0.501597;-0.0134756;-0.279541;-0.315296;0.421587;-6.86872;-0.000284945;0.000162035;0.00161007;0.00162383;-0.0002987;0.000961263;0.176977;5.65047;0.00119463;0.00128168;5.43631;0.183948;46.7263;91.7263;0.00325818;-0.000289472;-0.00269438;0.00301305;0.00160646;0.00829317;0.026071;0;0.0212841;0.0170204;-0.276387;-0.820406;0.865878;-7.39337;0.000617168;0.000172615;-0.00155311;0.000630812;-0.00156675;0.00109878;0.397376;2.51651;0.00130656;0.00146504;0.402624;2.48371;125.335;170.335;0.00412883;0.000616644;-0.000691975;0.00103908;-0.00155333;-0.00279321;0.0118217;0;0.0236667;0.0490886;3.6763
224000;225;25.7568;-0.000951823;-3.69529e-05;-2.15552;25.6615;-0.502843;0.0317306;-0.00319678;-0.505284;-0.0124977;-0.278754;-0.318971;0.423796;-6.8724;-0.000196027;6.47603e-05;0.00154685;0.00154925;-0.00019843;0.00087384;0.126727;7.891;0.00110493;0.00116512;7.80755;0.128081;49.2914;94.2914;0.00370799;-0.000200673;-0.00292436;0.00304868;0.00154258;0.00822394;0.0264364;0;0.0189161;0.0181852;-0.276209;-0.828336;0.873363;-7.4013;0.000583736;0.00010673;-0.00152348;0.000589128;-0.00152888;0.001059;0.383158;2.60989;0.00126232;0.001412;0.385334;2.59515;125.219;170.219;0.00441185;0.000583139;-0.000882709;0.00109826;-0.00152387;-0.00226267;0.0123592;0;0.0291826;0.0510436;3.6842
225000;226;25.7548;-0.00294929;-0.000114501;-2.15464;25.6594;-0.513455;0.032615;-0.00533756;-0.515897;-0.0121933;-0.281192;-0.314009;0.421686;-6.86744;-0.000270628;-2.45777e-05;0.00142273;0.00142309;-0.000270985;0.000847037;0.190217;5.25715;0.00105077;0.00112938;5.25155;0.19042;51.5305;96.5305;0.00365686;-0.000274697;-0.00290654;0.00285251;0.00141852;0.00869642;0.0271039;0;0.0232078;0.0185276;-0.27826;-0.826825;0.872589;-7.39979;0.000456648;8.12664e-05;-0.00160413;0.000459848;-0.00160733;0.00103359;0.284671;3.51283;0.00125328;0.00137812;0.286095;3.49535;120.681;165.681;0.00428613;0.000456191;-0.000795263;0.000959605;-0.00160444;-0.00149206;0.0116037;0;0.0325714;0.053317;3.69099
226000;227;25.7552;-0.0025703;-9.97874e-05;-2.15483;25.6597;-0.516882;0.0324211;-0.00504223;-0.519324;-0.0129976;-0.280492;-0.320471;0.426083;-6.8739;-0.000112627;0.000329029;0.00139166;0.00146048;-0.000181446;0.000820963;0.0809297;12.3564;0.00103943;0.00109462;8.04911;0.124237;39.4043;84.4043;0.00382889;-0.000117848;-0.00259438;0.00324804;0.00138835;0.00799893;0.0275559;0;0.0220071;0.0179895;-0.277914;-0.838078;0.883139;-7.41104;0.000521686;0.000114607;-0.00178615;0.000527364;-0.00179182;0.00115959;0.292074;3.42379;0.00140375;0.00154612;0.294317;3.3977;123.04;168.04;0.00359522;0.00052094;-0.000995593;0.00122737;-0.00178664;-0.00136259;0.0133866;0;0.0254104;0.0546398;3.69536
227000;228;25.7562;-0.00155378;-6.03228e-05;-2.15485;25.6606;-0.519057;0.0324036;-0.00406731;-0.521499;-0.0129146;-0.280927;-0.321606;0.42722;-6.87503;-0.000217037;0.000361529;0.00146024;0.00153485;-0.000291644;0.000913246;0.148631;6.72809;0.00113303;0.00121766;5.26275;0.190015;39.3291;84.3291;0.00374598;-0.000222455;-0.00259309;0.0033112;0.00145695;0.00820971;0.0271746;0;0.0191737;0.0181153;-0.278777;-0.844996;0.889979;-7.41796;0.000446609;7.93683e-05;-0.00176312;0.000449456;-0.00176597;0.00110771;0.253306;3.94779;0.00135226;0.00147695;0.25451;3.92912;122.545;167.545;0.00380104;0.000445812;-0.00110389;0.00126524;-0.00176373;-0.00119322;0.0142766;0;0.0227732;0.0579274;3.70124
228000;229;25.7556;-0.00211418;-8.20795e-05;-2.15405;25.66;-0.526097;0.0331989;-0.00470639;-0.528539;-0.0124207;-0.281133;-0.32228;0.427848;-6.87571;-0.000160035;0.000224696;0.00121907;0.00125476;-0.000195721;0.000725239;0.131276;7.61755;0.000908798;0.000966986;6.41096;0.155983;40.9883;85.9883;0.00365696;-0.000165276;-0.00280012;0.00324535;0.00121518;0.00902623;0.0273641;0;0.0255471;0.0189666;-0.278896;-0.851828;0.896523;-7.42479;0.000390303;7.75607e-05;-0.00192701;0.000392896;-0.0019296;0.00116125;0.202543;4.93721;0.0014354;0.00154833;0.203615;4.91123;120.69;165.69;0.00346532;0.00038948;-0.00112743;0.00128535;-0.00192764;-0.00107407;0.0138991;0;0.0250947;0.058732;3.70678
229000;230;25.7568;-0.000970847;-3.76915e-05;-2.15487;25.661;-0.530763;0.03238;-0.00372363;-0.533205;-0.012174;-0.282651;-0.32209;0.428697;-6.87552;-0.00031261;0.000188427;0.00105726;0.0010827;-0.000338056;0.000710379;0.295681;3.38203;0.000857008;0.000947172;3.20273;0.312233;40.8885;85.8885;0.00388609;-0.000317675;-0.00281496;0.00318771;0.00105332;0.00816759;0.0281576;0;0.0265581;0.0190841;-0.280842;-0.855495;0.900615;-7.42846;0.000446297;7.56442e-05;-0.00202339;0.000448611;-0.00202571;0.00123716;0.220568;4.53374;0.00152221;0.00164955;0.221459;4.51551;118.905;163.905;0.00268897;0.000445612;-0.00101884;0.00117283;-0.00202391;0.000704347;0.0140648;0;0.0239815;0.0621414;3.71373
230000;231;25.7546;-0.00309286;-0.000120075;-2.15436;25.6587;-0.539928;0.032893;-0.0060017;-0.54237;-0.0120899;-0.283812;-0.322868;0.430046;-6.8763;-0.000201464;0.00019509;0.000740845;0.000779639;-0.000240257;0.000509948;0.271938;3.67731;0.000615674;0.00067993;3.24502;0.308165;36.3149;81.3149;0.00430368;-0.000206743;-0.00286777;0.00325507;0.000736755;0.00780088;0.0277517;0;0.0322922;0.0197091;-0.281555;-0.863682;0.90863;-7.43664;0.000510604;5.83639e-05;-0.001982;0.00051197;-0.00198337;0.00124767;0.257621;3.88167;0.00152188;0.00166356;0.258132;3.87399;120.537;165.537;0.00246848;0.000509821;-0.00113364;0.00125335;-0.00198264;0.00152643;0.0145249;0;0.0263617;0.0644802;3.72093
231000;232;25.7547;-0.00303895;-0.000117982;-2.1549;25.6586;-0.545774;0.032356;-0.00611636;-0.548216;-0.0124964;-0.28536;-0.320608;0.42939;-6.87404;-0.000390531;3.54214e-05;0.000548381;0.000549715;-0.000391866;0.00047079;0.712153;1.40419;0.000546162;0.00062772;1.40282;0.712852;43.6498;88.6498;0.00335615;-0.000395001;-0.00292145;0.00298952;0.000544116;0.00933103;0.027194;0;0.0274016;0.0193969;-0.283188;-0.867441;0.912702;-7.4404;0.000436071;-7.57291e-07;-0.00187373;0.000436072;-0.00187373;0.0011549;0.232729;4.29683;0.00141705;0.00153987;0.23273;4.29683;120.27;165.27;0.00218759;0.000435261;-0.0012715;0.00127293;-0.00187454;0.00107852;0.0159001;0;0.0254476;0.0665169;3.72806
232000;233;25.7565;-0.00122518;-4.75654e-05;-2.15467;25.6604;-0.547204;0.0325873;-0.00430684;-0.549646;-0.0129975;-0.286526;-0.323013;0.431976;-6.87644;-0.00022731;0.000334108;0.00086283;0.00095708;-0.00032156;0.00063932;0.263447;3.79583;0.000768016;0.000852426;2.97637;0.33598;32.3112;77.3112;0.00394193;-0.000232815;-0.00266949;0.00333443;0.000859326;0.00799389;0.0266937;0;0.0238156;0.0193662;-0.28499;-0.8744;0.919875;-7.44736;0.000402203;-5.29682e-05;-0.00173557;0.000403515;-0.00173688;0.0010702;0.231741;4.31516;0.00131325;0.00142693;0.232322;4.30438;119.456;164.456;0.00251554;0.0004015;-0.00129006;0.00118677;-0.0017364;-8.04822e-05;0.0162717;0;0.0238336;0.069541;3.73529
233000;234;25.757;-0.000751599;-2.91796e-05;-2.15485;25.6607;-0.552757;0.0324065;-0.00396569;-0.555199;-0.0128751;-0.287669;-0.322763;0.432545;-6.87619;-0.000221605;0.000171351;0.000205264;0.000265536;-0.000281878;0.000273707;1.07961;0.926259;0.000316097;0.000364943;0.942027;1.06154;25.5843;70.5843;0.00390393;-0.000226509;-0.00279475;0.00313619;0.000201374;0.00771662;0.0270987;0;0.0259203;0.01983;-0.286135;-0.879494;0.925082;-7.45246;0.000464501;-0.000148483;-0.00156042;0.000475331;-0.00157125;0.00102329;0.297677;3.35935;0.00123678;0.00136439;0.302517;3.3056;119.374;164.374;0.00185381;0.000463855;-0.00144107;0.00114673;-0.00156145;0.00150976;0.0154273;0;0.0269871;0.0717354;3.74301
234000;235;25.7559;-0.00181644;-7.05201e-05;-2.15471;25.6596;-0.558031;0.032544;-0.00513713;-0.560473;-0.0126934;-0.289208;-0.325129;0.435329;-6.87856;-0.000256486;0.000196933;-0.000360355;-0.000104754;-0.000512087;0.000203666;-0.711761;-1.40497;0.000312384;0.000271555;-0.204564;-4.88845;169.762;34.7619;0.00393352;-0.000261711;-0.00284407;0.00323825;-0.000364381;0.00727913;0.0274608;0;0.0225421;0.0203403;-0.287358;-0.888378;0.933919;-7.46134;0.000468415;-7.07019e-05;-0.00135385;0.000471154;-0.00135659;0.000913871;0.345987;2.89028;0.00109575;0.00121849;0.347308;2.87929;123.063;168.063;0.00174221;0.000467719;-0.00132139;0.00118227;-0.00135472;0.00115049;0.0142522;0;0.0261011;0.0739103;3.74999
235000;236;25.7561;-0.00164404;-6.38269e-05;-2.15405;25.6597;-0.561404;0.0332031;-0.00498232;-0.563846;-0.012615;-0.290937;-0.325481;0.43674;-6.87891;-0.000323274;-0.000102076;-0.000333505;-0.000226186;-0.000430593;0.000102204;-0.969325;-1.03165;0.000248709;0.000136272;-0.525289;-1.90371;88.2552;133.255;0.00368734;-0.000327207;-0.0030101;0.00280598;-0.000338031;0.00891837;0.0271976;0;0.022433;0.0207705;-0.288892;-0.895283;0.940969;-7.46824;0.000542555;-3.81362e-05;-0.00117273;0.000543403;-0.00117357;0.000858489;0.462644;2.16149;0.00101331;0.00114465;0.463032;2.15968;126.211;171.211;0.00176884;0.000541914;-0.00120756;0.00113329;-0.00117346;0.00147777;0.0151789;0;0.0283056;0.076925;3.75772
236000;237;25.7562;-0.00151811;-5.89382e-05;-2.15363;25.6598;-0.565139;0.0336205;-0.00490288;-0.567581;-0.01233;-0.292062;-0.327403;0.438914;-6.88083;-0.000307162;0.000102422;-0.000761159;-0.000285125;-0.000783196;0.000249035;-0.403545;-2.47804;0.000457716;0.000332047;-0.364053;-2.74685;142.071;7.07066;0.00385097;-0.000311848;-0.00285637;0.00306256;-0.000765236;0.00924217;0.0276233;0;0.0237999;0.0211339;-0.290008;-0.901847;0.947565;-7.47481;0.000517646;-5.09253e-05;-0.00100577;0.000519346;-0.00100747;0.000763407;0.514678;1.94296;0.000896396;0.00101788;0.515497;1.93987;127.516;172.516;0.00176941;0.000516946;-0.00128479;0.00118482;-0.00100659;0.00178164;0.0151824;0;0.0317679;0.0803774;3.76433
237000;238;25.756;-0.00176837;-6.8654e-05;-2.15334;25.6594;-0.571404;0.0339119;-0.00526835;-0.573845;-0.0125337;-0.294726;-0.325755;0.439473;-6.87918;-0.000200143;0.00013514;-0.000794883;-0.000170876;-0.00082415;0.000326637;-0.251789;-3.97158;0.000502259;0.000435516;-0.207336;-4.82308;142.415;7.41498;0.00368283;-0.00020478;-0.00277602;0.00304803;-0.00079873;0.00897702;0.0271579;0;0.0221629;0.0212376;-0.292168;-0.905425;0.951634;-7.47839;0.000594955;-2.12775e-05;-0.00089111;0.00059526;-0.000891415;0.000743337;0.667656;1.49778;0.00086399;0.000991116;0.667769;1.49752;130.515;175.515;0.00160268;0.000594322;-0.00116645;0.0011256;-0.000891791;0.0019884;0.0148929;0;0.0319846;0.0834687;3.77109
238000;239;25.7543;-0.00347738;-0.000135003;-2.15375;25.6575;-0.578954;0.0335005;-0.0071876;-0.581396;-0.0124361;-0.29592;-0.325746;0.440265;-6.87917;-0.000246231;0.000126621;-0.00105091;-0.000226776;-0.00107036;0.000421792;-0.234303;-4.26797;0.000651277;0.000562389;-0.211869;-4.71989;137.498;2.49822;0.00345918;-0.000250841;-0.00278317;0.00303875;-0.00105477;0.00887758;0.0267274;0;0.0266054;0.0214911;-0.292643;-0.9114;0.957472;-7.48436;0.000686749;-6.79991e-05;-0.0008279;0.000689795;-0.000830947;0.000760371;0.829507;1.20554;0.000879261;0.00101383;0.830132;1.20463;130.821;175.821;0.00187481;0.000686066;-0.00130479;0.00117066;-0.00082875;0.00164613;0.0137138;0;0.0376883;0.086881;3.77281
239000;240;25.7535;-0.00423875;-0.000164562;-2.15291;25.6566;-0.588719;0.0343448;-0.00810318;-0.591161;-0.0131494;-0.298078;-0.323369;0.43999;-6.8768;-0.000251402;0.000300444;-0.000959335;-0.000141085;-0.00106965;0.000464283;-0.262058;-3.81595;0.000671035;0.000619044;-0.131898;-7.58161;149.267;14.2672;0.00381174;-0.000256414;-0.0025772;0.00318013;-0.000962614;0.00800985;0.0268755;0;0.0319001;0.0211116;-0.293932;-0.916399;0.962616;-7.48936;0.000600462;-1.92561e-05;-0.000835015;0.00060072;-0.000835273;0.000717997;0.719103;1.39062;0.00083275;0.000957329;0.71919;1.39045;131.295;176.295;0.00180139;0.00059984;-0.00115215;0.00111527;-0.000835679;0.00135624;0.0137055;0;0.0435871;0.0907425;3.78092
240000;241;25.7533;-0.00439895;-0.000170782;-2.15308;25.6563;-0.592977;0.0341771;-0.00837611;-0.595419;-0.0131436;-0.300018;-0.322596;0.44074;-6.87602;-0.000267284;0.000281516;-0.00119637;-0.00018864;-0.00127501;0.000543186;-0.223412;-4.47603;0.000794627;0.000724248;-0.147952;-6.75896;143.647;8.64708;0.0037881;-0.000272416;-0.00264991;0.00321567;-0.00119984;0.00871927;0.0267205;0;0.0283593;0.0213377;-0.295407;-0.920767;0.96723;-7.49373;0.000692265;-2.92533e-05;-0.000783068;0.000692845;-0.000783648;0.000738247;0.884042;1.13117;0.000852991;0.000984329;0.884128;1.13106;132.8;177.8;0.00210852;0.000691577;-0.00123068;0.00117395;-0.000783826;0.000231986;0.0139336;0;0.0414391;0.0943986;3.78536
241000;242;25.7544;-0.0032919;-0.000127802;-2.15304;25.6574;-0.594575;0.0342159;-0.00729861;-0.597017;-0.0132908;-0.302587;-0.322671;0.442552;-6.8761;-0.000398572;0.00020401;-0.00106875;-0.000341355;-0.00112597;0.000392308;-0.372932;-2.68146;0.00066666;0.000523078;-0.303165;-3.29854;143.333;8.33272;0.00325582;-0.000403026;-0.00258101;0.0029909;-0.00107207;0.00960158;0.0263719;0;0.0281821;0.021449;-0.29747;-0.925287;0.972165;-7.49825;0.000645777;-4.14594e-05;-0.000909266;0.000646881;-0.000910371;0.000778626;0.710217;1.40802;0.00090336;0.00103817;0.710569;1.40732;130.347;175.347;0.00240601;0.000645111;-0.00123589;0.00115483;-0.00091003;0.000353888;0.0143934;0;0.0402522;0.0972262;3.79203
242000;243;25.7529;-0.00486905;-0.000189033;-2.15216;25.6556;-0.60707;0.0350912;-0.0091009;-0.609512;-0.0125491;-0.303688;-0.321894;0.442718;-6.87532;-0.000294364;0.000154751;-0.00130674;-0.000271237;-0.00132987;0.000529317;-0.225265;-4.43921;0.000811423;0.000705756;-0.203957;-4.90299;135.915;0.914558;0.00390979;-0.000299129;-0.0027781;0.00309058;-0.0013106;0.00887507;0.0273584;0;0.0183556;0.0225285;-0.298283;-0.931597;0.978445;-7.50456;0.000652001;4.68708e-05;-0.00102485;0.00065331;-0.00102616;0.000839735;0.636191;1.57186;0.000977575;0.00111965;0.636655;1.57071;131.572;176.572;0.00244188;0.000651402;-0.00100025;0.00109575;-0.00102535;-0.000193489;0.0133149;0;0.0289239;0.10121;3.79991
243000;244;25.7544;-0.00334251;-0.000129767;-2.15229;25.6571;-0.608189;0.0349615;-0.00760593;-0.61063;-0.0122959;-0.303453;-0.328078;0.447069;-6.88151;-0.000358992;0.000231459;-0.00131638;-0.000305971;-0.00136941;0.000531717;-0.272711;-3.66689;0.000829964;0.000708956;-0.223434;-4.4756;139.924;4.9243;0.00406069;-0.000363914;-0.00267969;0.0031454;-0.00131995;0.00824328;0.0271586;0;0.0249734;0.0224503;-0.298331;-0.941935;0.988305;-7.5149;0.000628016;0.000101136;-0.00108965;0.00063395;-0.00109559;0.00086477;0.576344;1.73507;0.00101034;0.00115303;0.578639;1.72819;131.874;176.874;0.00264561;0.000627414;-0.000897907;0.0011019;-0.00109005;-3.11253e-05;0.0153521;0;0.0326798;0.104881;3.80614
244000;245;25.7537;-0.00403715;-0.000156736;-2.15201;25.6562;-0.616178;0.0352387;-0.00847059;-0.61862;-0.0117442;-0.304721;-0.329369;0.448862;-6.8828;-0.000561968;0.000165816;-0.00142508;-0.000531209;-0.00145584;0.000462314;-0.394342;-2.53587;0.000850696;0.000616418;-0.364882;-2.74061;136.323;1.32332;0.00356908;-0.000566894;-0.00280818;0.00314238;-0.00142901;0.00956187;0.0268208;0;0.0199349;0.0232333;-0.299183;-0.948443;0.994783;-7.5214;0.000498784;8.16203e-05;-0.00128978;0.000502501;-0.0012935;0.000898001;0.386719;2.58585;0.00106992;0.00119733;0.388482;2.57412;127.202;172.202;0.00273853;0.000498159;-0.00095615;0.00112125;-0.00129024;-0.000236175;0.0163514;0;0.0293025;0.108706;3.81395
245000;246;25.7539;-0.00383586;-0.000148921;-2.15221;25.6564;-0.61839;0.0350441;-0.00833809;-0.620832;-0.0114735;-0.306105;-0.329126;0.449617;-6.88255;-0.000417418;1.79034e-05;-0.00165033;-0.000417158;-0.00165059;0.000616714;-0.252931;-3.95365;0.000991048;0.000822285;-0.252733;-3.95674;126.44;171.44;0.00385143;-0.00042205;-0.00300352;0.00304306;-0.00165484;0.00917279;0.0274632;0;0.0229269;0.0236628;-0.300461;-0.952709;0.999245;-7.52567;0.00057315;7.81859e-05;-0.00134102;0.000576338;-0.0013442;0.000960271;0.4274;2.33973;0.00113798;0.00128036;0.428758;2.33232;127.951;172.951;0.00318252;0.000572425;-0.00104833;0.00120686;-0.00134156;-0.00116335;0.0162122;0;0.0296276;0.112223;3.8213
246000;247;25.7527;-0.00505945;-0.000196425;-2.15116;25.655;-0.627793;0.0360907;-0.00970692;-0.630235;-0.0117272;-0.308283;-0.32613;0.448928;-6.87956;-0.000379423;0.000158185;-0.00141007;-0.000355691;-0.00143381;0.000539058;-0.26908;-3.71637;0.000862123;0.000718744;-0.248075;-4.03105;135.451;0.450649;0.00362864;-0.000384622;-0.00290836;0.00322789;-0.0014143;0.00994211;0.0269054;0;0.0201282;0.0237395;-0.302181;-0.956585;1.00346;-7.52955;0.000555716;3.53861e-05;-0.00144621;0.000556341;-0.00144683;0.00100159;0.384258;2.60242;0.00119402;0.00133545;0.384524;2.60062;125.216;170.216;0.00339792;0.000555045;-0.00108635;0.00115937;-0.0014468;-0.00137148;0.0173935;0;0.0254294;0.116616;3.82908
247000;248;25.7538;-0.0039201;-0.000152191;-2.15112;25.656;-0.632399;0.0361337;-0.00867275;-0.634841;-0.011285;-0.311027;-0.324766;0.44982;-6.87819;-0.000512006;0.000216811;-0.00142581;-0.000463174;-0.00147464;0.000505732;-0.359099;-2.78475;0.000870779;0.00067431;-0.314093;-3.18377;139.036;4.03639;0.0045515;-0.000517457;-0.00287179;0.00330824;-0.00142991;0.00788151;0.0278167;0;0.0250487;0.0240975;-0.304357;-0.961323;1.00864;-7.53428;0.000452385;0.00011339;-0.00173548;0.000458246;-0.00174134;0.00109979;0.260668;3.83629;0.00134002;0.00146639;0.263157;3.80002;121.854;166.854;0.00295463;0.000451752;-0.000902414;0.00113142;-0.00173588;-0.000365435;0.0169869;0;0.0265333;0.121854;3.83514
248000;249;25.7528;-0.00498222;-0.000193426;-2.15045;25.6549;-0.63862;0.0368061;-0.00983664;-0.641062;-0.0108854;-0.310889;-0.326479;0.450954;-6.87991;-0.000419647;0.000195005;-0.00174046;-0.000391458;-0.00176864;0.000688593;-0.241113;-4.14742;0.00107269;0.000918124;-0.221332;-4.51809;133.955;178.955;0.00424957;-0.000425407;-0.00300451;0.00339875;-0.00174496;0.00898749;0.0275737;0;0.0267399;0.0245128;-0.304431;-0.967716;1.01477;-7.54068;0.000510703;0.000151181;-0.00175002;0.000520768;-0.00176008;0.00114043;0.291827;3.42668;0.00138013;0.00152057;0.295877;3.37978;124.834;169.834;0.00351474;0.000509846;-0.00101335;0.00131835;-0.00175052;-0.00232642;0.0184896;0;0.0263296;0.127378;3.84106
249000;250;25.7552;-0.00256677;-9.96503e-05;-2.15162;25.6571;-0.644164;0.0356372;-0.00764855;-0.646605;-0.0104536;-0.310488;-0.330621;0.453676;-6.88405;-0.000430455;9.55975e-05;-0.00172855;-0.000423452;-0.00173555;0.00065605;-0.249027;-4.01563;0.00104489;0.000874733;-0.243987;-4.09858;130.077;175.077;0.00424835;-0.000436086;-0.00316105;0.00335648;-0.00173355;0.0092527;0.0271694;0;0.0376717;0.0246202;-0.303895;-0.977553;1.024;-7.55051;0.000466562;0.000161683;-0.00182236;0.000477927;-0.00183372;0.00115583;0.256021;3.90593;0.00140907;0.0015411;0.260632;3.83683;123.3;168.3;0.00340584;0.000465769;-0.000944106;0.00127001;-0.00182279;-0.00101705;0.0186641;0;0.0381425;0.131458;3.84614
250000;251;25.7558;-0.0019666;-7.635e-05;-2.15204;25.6575;-0.649411;0.0352163;-0.00721369;-0.651853;-0.010694;-0.311506;-0.331038;0.454683;-6.88447;-0.000391967;0.00011101;-0.00117043;-0.000376446;-0.00118595;0.000404753;-0.334891;-2.98605;0.000699761;0.000539671;-0.317421;-3.15039;136.395;1.3949;0.00458988;-0.000397865;-0.00321086;0.00343547;-0.00117559;0.00922296;0.0275265;0;0.0326086;0.0244213;-0.305422;-0.982877;1.02953;-7.55584;0.000450283;0.000184511;-0.0018982;0.000464691;-0.00191261;0.00118865;0.237215;4.21558;0.00145492;0.00158487;0.242961;4.11588;123.934;168.934;0.00325601;0.00044934;-0.00101394;0.00138578;-0.0018987;-0.00105925;0.0209362;0;0.0269793;0.138494;3.85228
251000;252;25.7554;-0.00230567;-8.95137e-05;-2.15153;25.6571;-0.654024;0.0357216;-0.00762884;-0.656466;-0.0104679;-0.313278;-0.330556;0.455544;-6.88398;-0.000478594;0.000280668;-0.00116313;-0.000378231;-0.00126349;0.00044263;-0.411471;-2.4303;0.0007488;0.000590173;-0.299354;-3.34053;147.927;12.9271;0.00479992;-0.000485309;-0.00311091;0.00367457;-0.00116793;0.00898258;0.0275631;0;0.0325649;0.0246715;-0.307544;-0.98728;1.03437;-7.56024;0.00037863;0.00019104;-0.00220603;0.000392674;-0.00222008;0.00130638;0.171634;5.82636;0.00162682;0.00174183;0.176874;5.65374;121.449;166.449;0.00339609;0.000377567;-0.00108539;0.00147078;-0.00220661;-0.00278891;0.0204859;0;0.0257955;0.142695;3.85763
252000;253;25.7564;-0.00133293;-5.17488e-05;-2.1516;25.6579;-0.660006;0.0356499;-0.00681155;-0.662447;-0.0113913;-0.315694;-0.32782;0.455257;-6.88125;-0.000377227;0.000208474;-0.000698248;-0.000274631;-0.000800844;0.000263107;-0.540247;-1.851;0.000469911;0.000350809;-0.342927;-2.91607;156.668;21.6681;0.00474246;-0.000383477;-0.00312294;0.00354095;-0.000703106;0.00898752;0.0275194;0;0.0273578;0.0239798;-0.309766;-0.991184;1.03874;-7.56414;0.000366811;0.00019712;-0.00201492;0.000383015;-0.00203113;0.00120707;0.182047;5.49309;0.00149817;0.00160943;0.188572;5.303;120.75;165.75;0.00261197;0.000366042;-0.000858617;0.00125538;-0.00201527;-0.00138573;0.020512;0;0.0213532;0.14987;3.86467
253000;254;25.7565;-0.00128308;-4.98134e-05;-2.15172;25.6578;-0.663989;0.0355315;-0.00687421;-0.666431;-0.0105022;-0.317995;-0.328951;0.457646;-6.88238;-0.000391792;0.000472418;-0.000431925;6.09858e-05;-0.000884703;0.000472844;-0.907084;-1.10243;0.000611146;0.000630459;0.0689336;14.5067;175.481;40.4814;0.00491211;-0.000399583;-0.00302991;0.00397488;-0.000436405;0.0087008;0.0274031;0;0.0238101;0.0246767;-0.312335;-0.997105;1.04517;-7.57007;0.000358006;0.000228032;-0.00198759;0.000379969;-0.00200955;0.00119476;0.180121;5.55183;0.00148268;0.00159301;0.189081;5.28873;122.706;167.706;0.00217539;0.000357099;-0.000907248;0.00136598;-0.00198798;-0.00154053;0.0228696;0;0.0214444;0.157221;3.87265
254000;255;25.7567;-0.00100742;-3.91115e-05;-2.15053;25.6582;-0.664598;0.0367269;-0.00651304;-0.66704;-0.0105715;-0.320971;-0.324897;0.456828;-6.87833;-0.000536255;0.0001415;-0.00025928;-0.000199775;-0.00059576;0.000197992;-2.06825;-0.483501;0.000350125;0.00026399;-0.335329;-2.98215;18.9766;63.9766;0.00476878;-0.000542784;-0.00333327;0.0036153;-0.000264827;0.0094007;0.0286871;0;0.0211618;0.0248062;-0.315198;-0.997741;1.04664;-7.5707;0.000409621;0.000234905;-0.00194065;0.000432869;-0.0019639;0.00119838;0.211074;4.73767;0.00147488;0.00159785;0.220413;4.53693;123.525;168.525;0.00212144;0.000408726;-0.000886144;0.00135859;-0.00194102;-0.00120049;0.0230149;0;0.0226672;0.16492;3.87994
255000;256;25.7567;-0.000985477;-3.82595e-05;-2.15145;25.658;-0.668804;0.0358044;-0.00667764;-0.671246;-0.0102828;-0.321229;-0.329434;0.460239;-6.88286;-0.000374924;0.00022152;-6.73421e-05;4.85383e-05;-0.000490805;0.000269672;-5.56745;-0.179615;0.000344524;0.000359562;0.0988953;10.1117;15.6719;60.6719;0.0053801;-0.000382145;-0.00336386;0.00380579;-7.29758e-05;0.00927647;0.0290201;0;0.0202044;0.0247872;-0.315972;-1.00574;1.05449;-7.5787;0.000486622;0.00023736;-0.0018248;0.000510744;-0.00184892;0.00117983;0.266672;3.74993;0.00143352;0.00157311;0.276239;3.62005;125.272;170.272;0.00208373;0.000485742;-0.000870425;0.00134771;-0.00182515;-0.00100464;0.0235175;0;0.0233932;0.171657;3.88793
256000;257;25.7577;-5.81751e-05;-2.25855e-06;-2.15099;25.6589;-0.670742;0.0362604;-0.00575912;-0.673184;-0.00963376;-0.321647;-0.33253;0.462738;-6.88596;-0.000410618;0.000353765;-0.000309598;-2.7554e-06;-0.000717461;0.000357353;-1.32629;-0.753981;0.000477391;0.00047647;;;1.33261;46.3326;0.0051872;-0.000418752;-0.00334078;0.00404793;-0.000315118;0.00911991;0.0284509;0;0.034189;0.024883;-0.31678;-1.01353;1.06217;-7.58649;0.000490769;0.000234854;-0.00147892;0.000518385;-0.00150654;0.00101246;0.331842;3.01348;0.00121461;0.00134995;0.34409;2.90622;127.344;172.344;0.00167526;0.000490152;-0.00066459;0.00113607;-0.00147912;-0.00106761;0.0239248;0;0.0352676;0.179646;3.89451
257000;258;25.7574;-0.000299809;-1.16396e-05;-2.15144;25.6586;-0.672489;0.0358138;-0.00608487;-0.674931;-0.0100571;-0.324908;-0.330085;0.463274;-6.88351;-0.000422083;0.000264849;0.000108173;0.000217796;-0.000531705;0.000374751;3.90191;0.256285;0.000445196;0.000499667;0.409618;2.4413;21.3891;66.3891;0.00539857;-0.000430334;-0.00354248;0.00407015;0.000101935;0.00833442;0.0282786;0;0.0204188;0.0247325;-0.319366;-1.01639;1.06567;-7.58935;0.000602228;0.000295939;-0.00143182;0.00064441;-0.001474;0.00105921;0.420603;2.37754;0.00125394;0.00141228;0.437184;2.28737;130.288;175.288;0.00179997;0.000601599;-0.000565906;0.00115954;-0.00143194;-0.00129113;0.0240258;0;0.0264511;0.188769;3.90167
258000;259;25.7568;-0.00098106;-3.8088e-05;-2.151;25.6578;-0.678997;0.0362552;-0.00690312;-0.681439;-0.00960019;-0.326529;-0.328723;0.463436;-6.88215;-0.000292707;0.000487549;6.72624e-05;0.000406988;-0.000632433;0.00051971;4.35172;0.229794;0.000604797;0.000692947;0.643527;1.55394;9.39123;54.3912;0.00590184;-0.000302865;-0.00355931;0.00453295;6.10473e-05;0.00825285;0.0290802;0;0.0238215;0.0250388;-0.321006;-1.01811;1.06781;-7.59107;0.000599234;0.000329695;-0.00118908;0.00065808;-0.00124793;0.000953005;0.503946;1.98434;0.00111786;0.00127067;0.527338;1.89632;136.366;1.36565;0.00206955;0.00059849;-0.000602701;0.00126376;-0.00118921;-0.000797855;0.0227633;0;0.0294442;0.196637;3.90762
259000;260;25.7578;7.31878e-05;2.84139e-06;-2.15152;25.6589;-0.675736;0.035733;-0.00580251;-0.678178;-0.0103468;-0.325813;-0.334121;0.466795;-6.88755;-0.000253775;0.000510047;0.000280495;0.000589128;-0.000562408;0.000575768;0.90474;1.10529;0.000664899;0.000767691;1.04751;0.954645;13.9743;58.9743;0.00566817;-0.000263918;-0.00351424;0.00453218;0.000274451;0.00860394;0.0299371;0;0.0297191;0.0241125;-0.320201;-1.02782;1.07681;-7.60078;0.000513593;0.00033385;-0.00117437;0.000577224;-0.001238;0.000907612;0.437336;2.28657;0.00107092;0.00121015;0.466256;2.14475;135.715;0.715495;0.00235446;0.000512889;-0.000564334;0.00123355;-0.00117447;-0.0016138;0.0220767;0;0.0381399;0.204551;3.91122
260000;261;25.7567;-0.00100314;-3.89453e-05;-2.15144;25.6576;-0.682474;0.0358162;-0.00705434;-0.684915;-0.00886695;-0.329571;-0.328292;0.465264;-6.88172;-0.000394;0.000564155;-4.32788e-05;0.000372141;-0.000809421;0.000590781;-9.10377;-0.109845;0.000697574;0.000787708;0.459763;2.17504;7.1411;52.1411;0.00535546;-0.000404422;-0.00347229;0.00459917;-4.91484e-05;0.010441;0.0290695;0;0.0239852;0.0254311;-0.322998;-1.02656;1.07648;-7.59952;0.000565963;0.000249389;-0.00107901;0.000602941;-0.00111599;0.000859465;0.52452;1.9065;0.00100705;0.00114595;0.540275;1.85091;133.91;178.91;0.00199128;0.000565502;-0.000492018;0.000992017;-0.0010791;-0.000248519;0.0232752;0;0.0407044;0.217788;3.92186
261000;262;25.7568;-0.000899125;-3.4907e-05;-2.15194;25.6576;-0.687315;0.0353143;-0.00712125;-0.689757;-0.00806762;-0.329298;-0.333798;0.46896;-6.88723;-0.000416937;0.000326803;-0.000181954;4.78358e-05;-0.000646726;0.000347281;-2.29144;-0.436407;0.000447948;0.000463041;0.0739661;13.5197;7.90304;52.903;0.00547462;-0.00042708;-0.00386246;0.00451507;-0.000189361;0.0114053;0.0302191;0;0.0283043;0.0258337;-0.323377;-1.03423;1.08392;-7.60719;0.000692474;0.000364178;-0.000982582;0.000768226;-0.00105833;0.000913279;0.70475;1.41894;0.00105899;0.00121771;0.725883;1.37763;140.002;5.00175;0.00213634;0.000692072;-0.000238795;0.000968163;-0.000982544;0.000101861;0.0230128;0;0.0430538;0.226574;3.92548
262000;263;25.7566;-0.00112595;-4.3713e-05;-2.15141;25.6573;-0.69043;0.035841;-0.00738842;-0.692872;-0.00878383;-0.331687;-0.334072;0.470848;-6.8875;-0.00041439;0.000239073;0.000185778;0.000269368;-0.000497981;0.000383675;2.23057;0.448315;0.000449536;0.000511566;0.540921;1.8487;24.9983;69.9983;0.00577963;-0.000423984;-0.00391024;0.0043859;0.000178162;0.0101567;0.0305336;0;0.0254147;0.025174;-0.324981;-1.03864;1.08858;-7.6116;0.00057507;0.000313365;-0.000913918;0.000638332;-0.000977179;0.000807755;0.629236;1.58923;0.00093953;0.00107701;0.653239;1.53083;139.645;4.64524;0.00235042;0.000574603;-0.000388708;0.00101648;-0.000913944;-0.000948895;0.0234713;0;0.0423165;0.236938;3.93089
263000;264;25.7555;-0.00227757;-8.84226e-05;-2.1506;25.6561;-0.696175;0.0366574;-0.0086313;-0.698617;-0.00976401;-0.335015;-0.3301;0.470421;-6.88353;-0.00030044;0.000258383;8.94236e-05;0.000218159;-0.000429175;0.000323667;3.35973;0.297643;0.0003803;0.000431556;0.508322;1.96726;17.8662;62.8662;0.0062031;-0.000310576;-0.00399425;0.00450935;8.14807e-05;0.00941482;0.0312779;0;0.0253794;0.024417;-0.326632;-1.04077;1.0911;-7.61373;0.000620245;0.000349103;-0.00101582;0.000691623;-0.00108719;0.000889408;0.610589;1.63776;0.00103543;0.00118588;0.636155;1.57194;134.309;179.309;0.0022634;0.00062;-8.43845e-05;0.0007833;-0.00101576;-0.000235777;0.0232415;0;0.0410829;0.248197;3.93834
264000;265;25.7562;-0.00151254;-5.87218e-05;-2.15243;25.6567;-0.695809;0.0348182;-0.0080076;-0.698251;-0.00874379;-0.335504;-0.33771;0.476118;-6.89114;-0.00030035;0.000181775;-0.000338142;-0.000136491;-0.000502001;0.000182755;-0.888236;-1.12583;0.000299715;0.000243673;-0.271894;-3.6779;175.011;40.0113;0.00579426;-0.000310741;-0.00419807;0.00456178;-0.00034694;0.0110143;0.029685;0;0.0179846;0.0249037;-0.327497;-1.05012;1.10028;-7.62308;0.000528097;0.000351304;-0.000994001;0.000605266;-0.00107117;0.000838218;0.531284;1.88223;0.000980271;0.00111762;0.565052;1.76975;133.689;178.689;0.00245824;0.000527838;-9.74556e-05;0.000800746;-0.000993944;-0.000672126;0.0224633;0;0.0354676;0.262009;3.94621
265000;266;25.7549;-0.00284782;-0.000110562;-2.15219;25.6552;-0.702805;0.0350609;-0.00951839;-0.705247;-0.00779664;-0.336737;-0.33862;0.477615;-6.89205;-0.000335506;0.000359277;-8.52203e-05;0.000170085;-0.000590812;0.000380448;-3.93693;-0.254005;0.000461146;0.000507265;0.287884;3.47362;8.28396;53.284;0.00622554;-0.000346584;-0.00400251;0.00471996;-9.31665e-05;0.00987419;0.0301061;0;0.0178245;0.0254047;-0.328452;-1.05493;1.10517;-7.62789;0.000499601;0.000297425;-0.00098423;0.000556998;-0.00104163;0.000799312;0.507606;1.97003;0.000936997;0.00106575;0.534739;1.87007;130.565;175.565;0.00271205;0.000499397;-0.000109898;0.000705354;-0.000984191;-0.000909103;0.0236779;0;0.0293148;0.276967;3.95306
266000;267;25.7541;-0.0036611;-0.000142136;-2.15265;25.6542;-0.707999;0.0346063;-0.0105158;-0.710441;-0.00796093;-0.336921;-0.341147;0.479542;-6.89457;-0.000357963;0.000261225;-0.000233358;-2.71095e-05;-0.000564212;0.000268551;-1.53396;-0.651906;0.000367439;0.000358069;-0.0480484;-20.8123;4.88787;49.8879;0.00565674;-0.000369216;-0.00422837;0.00475025;-0.000242266;0.0118034;0.0282255;0;0.0182153;0.0250998;-0.328401;-1.06034;1.11031;-7.6333;0.000518203;0.000281279;-0.0010805;0.000566248;-0.00112855;0.000847397;0.479596;2.08509;0.000996279;0.00112986;0.501751;1.99302;122.158;167.158;0.00263058;0.000518085;1.16736e-06;0.00056184;-0.00108046;-0.000543177;0.0241523;0;0.0345779;0.285451;3.96061
267000;268;25.7541;-0.00362403;-0.000140697;-2.15307;25.6541;-0.712884;0.0341817;-0.0106495;-0.715326;-0.00728071;-0.338464;-0.340025;0.479821;-6.89345;-0.000574348;-0.000175944;-0.000489357;-0.000350849;-0.000712856;0.000181003;-1.17368;-0.852022;0.000411584;0.000241338;-0.492174;-2.0318;79.855;124.855;0.00550019;-0.000583401;-0.00460978;0.00425752;-0.000499972;0.0120079;0.0299502;0;0.0309126;0.0253735;-0.329136;-1.06336;1.11342;-7.63632;0.00047807;0.000315016;-0.00117002;0.00053623;-0.00122818;0.000882206;0.408599;2.44739;0.00104447;0.00117627;0.436604;2.2904;122.354;167.354;0.00305163;0.000477911;-1.61727e-05;0.000646751;-0.00116997;-0.00174294;0.0245917;0;0.0498497;0.299939;3.96796
268000;269;25.7527;-0.00502291;-0.000195006;-2.1537;25.6524;-0.71824;0.0335575;-0.0122556;-0.720682;-0.00846589;-0.342374;-0.339367;0.482143;-6.8928;-0.000553696;0.000124423;-0.000951926;-0.000518018;-0.000987604;0.000234793;-0.581658;-1.71922;0.000570422;0.000313058;-0.524519;-1.90651;146.321;11.3211;0.00569692;-0.000564405;-0.00437774;0.00462838;-0.00096151;0.0126246;0.0292823;0;0.0247444;0.0246437;-0.332072;-1.06813;1.11883;-7.64109;0.000449384;0.000222102;-0.00145284;0.000474972;-0.00147843;0.000976702;0.309313;3.23297;0.00117635;0.00130227;0.321268;3.11267;109.946;154.946;0.00342249;0.000449296;-3.03746e-05;0.00047506;-0.00145282;-0.00265013;0.0262309;0;0.0353503;0.314449;3.97593
269000;270;25.7529;-0.00483622;-0.000187758;-2.15407;25.6525;-0.721904;0.0331863;-0.0122022;-0.724346;-0.00775574;-0.342441;-0.34344;0.485053;-6.89687;-0.000558757;-0.000120597;-0.0010556;-0.000531032;-0.00108333;0.000276148;-0.529325;-1.8892;0.000625499;0.000368197;-0.490186;-2.04004;117.028;162.028;0.00601037;-0.000568323;-0.00461351;0.00437455;-0.00106625;0.0115755;0.0295794;0;0.030765;0.0247897;-0.332627;-1.07311;1.12376;-7.64608;0.000421003;0.000248709;-0.00145779;0.000453369;-0.00149015;0.000971761;0.288796;3.46265;0.00117411;0.00129568;0.304243;3.28684;99.5306;144.531;0.0028741;0.000420993;0.000210405;0.000287085;-0.00145778;-0.00194827;0.0272342;0;0.0401309;0.329182;3.9831
270000;271;25.7522;-0.00553754;-0.000214985;-2.1541;25.6516;-0.728313;0.0331554;-0.0130901;-0.730755;-0.00730203;-0.344451;-0.342962;0.48613;-6.89639;-0.000516003;-3.14769e-05;-0.00120132;-0.000514561;-0.00120276;0.000344099;-0.429531;-2.32812;0.000696822;0.000458799;-0.427817;-2.33745;127.186;172.186;0.00618423;-0.000526566;-0.00465493;0.00459515;-0.00121216;0.0123038;0.0296994;0;0.0356577;0.0248037;-0.334124;-1.07715;1.12806;-7.65012;0.000435938;0.00018421;-0.00151038;0.00045322;-0.00152766;0.000990438;0.288629;3.46465;0.00119843;0.00132058;0.296676;3.37068;97.3729;142.373;0.0032391;0.000435931;0.000146446;0.000222048;-0.00151037;-0.00322987;0.0279682;0;0.0408359;0.344616;3.98818
271000;272;25.7526;-0.00512346;-0.000198909;-2.15446;25.6519;-0.730984;0.0327897;-0.012781;-0.733426;-0.00654483;-0.346212;-0.343624;0.487835;-6.89705;-0.000620727;-0.000208562;-0.00179712;-0.000584846;-0.001833;0.000624077;-0.345401;-2.89518;0.00108113;0.000832103;-0.319065;-3.13416;117.907;162.907;0.00570257;-0.000630256;-0.00478091;0.00436918;-0.00180855;0.0130665;0.0291334;0;0.0278614;0.0252144;-0.335957;-1.08015;1.13147;-7.65311;0.000397229;0.000131363;-0.00168334;0.000405491;-0.0016916;0.00104854;0.235978;4.23769;0.00128441;0.00139806;0.239709;4.17173;88.577;133.577;0.00311551;0.000397238;0.000245056;1.7433e-05;-0.00168336;-0.00318907;0.0290885;0;0.0330278;0.361054;3.99129
272000;273;25.753;-0.00476627;-0.000185042;-2.15518;25.652;-0.738131;0.0320778;-0.0126869;-0.740573;-0.00605827;-0.348864;-0.342392;0.488851;-6.89582;-0.000698308;-0.000170795;-0.00193682;-0.000675187;-0.00195994;0.000642378;-0.360543;-2.77359;0.00114967;0.000856505;-0.344493;-2.90282;119.14;164.14;0.00596412;-0.000707533;-0.00463317;0.00429712;-0.00194756;0.0129407;0.029327;0;0.0298189;0.0252364;-0.338586;-1.08274;1.13473;-7.65571;0.000421645;0.000114698;-0.00189758;0.000427303;-0.00190324;0.00116527;0.222201;4.50042;0.00143266;0.00155369;0.224514;4.45407;81.7083;126.708;0.00242565;0.000421634;0.000415751;-0.000187054;-0.00189766;-0.00181672;0.0310724;0;0.0286724;0.380754;4.00064
273000;274;25.7527;-0.00498613;-0.000193578;-2.15585;25.6515;-0.745352;0.031406;-0.0131729;-0.747794;-0.00666429;-0.352656;-0.336245;0.48731;-6.88967;-0.000712185;-0.000254021;-0.00249934;-0.00067678;-0.00253474;0.000928981;-0.284949;-3.5094;0.00151547;0.00123864;-0.267002;-3.7453;117.283;162.283;0.00560745;-0.000721116;-0.00473254;0.00423253;-0.00251053;0.0135081;0.0291883;0;0.0283341;0.0242843;-0.341696;-1.08197;1.1349;-7.65493;0.000348083;1.96452e-05;-0.00209485;0.000348241;-0.00209501;0.00122162;0.166162;6.01824;0.00152605;0.00162883;0.166224;6.01596;76.8653;121.865;0.00187231;0.000347991;0.000467335;-0.000429141;-0.00209496;-0.00190104;0.0321798;0;0.0227134;0.402139;4.00654
274000;275;25.7553;-0.00245613;-9.53552e-05;-2.15742;25.654;-0.744583;0.0298301;-0.0107431;-0.747025;-0.00581518;-0.354667;-0.339447;0.490965;-6.89287;-0.000740097;-0.000350852;-0.00257445;-0.00067528;-0.00263927;0.000981993;-0.287478;-3.47853;0.00158317;0.00130932;-0.255859;-3.9084;114.437;159.437;0.00541013;-0.000748549;-0.00481829;0.0041248;-0.00258603;0.0145931;0.0292678;0;0.0395191;0.0242489;-0.344936;-1.08852;1.14213;-7.66148;0.000387741;-6.06588e-05;-0.00207041;0.000389237;-0.00207191;0.00123057;0.187277;5.33969;0.00152764;0.00164076;0.187864;5.32301;67.6614;112.661;0.00132709;0.000387411;0.000691137;-0.000814306;-0.00207065;-0.000469703;0.0320303;0;0.0308985;0.423423;4.01326
275000;276;25.7551;-0.00261435;-0.000101498;-2.15754;25.6536;-0.751762;0.0297177;-0.0111207;-0.754204;-0.00528064;-0.357369;-0.344944;0.496716;-6.89837;-0.000666669;-0.000254742;-0.00294701;-0.000638558;-0.00297512;0.00116828;-0.226219;-4.4205;0.00180854;0.00155771;-0.214632;-4.65913;117.92;162.92;0.00562855;-0.000675834;-0.0047866;0.00428748;-0.00295847;0.0145136;0.028552;0;0.0330238;0.0238465;-0.348788;-1.10003;1.15424;-7.67299;0.000535476;-0.000109123;-0.00190603;0.000540344;-0.0019109;0.00122562;0.280938;3.55951;0.00148714;0.00163416;0.282769;3.53645;58.5348;103.535;0.000136934;0.000534765;0.000977002;-0.0011979;-0.0019065;0.000761039;0.0342207;0;0.0231098;0.457676;4.02692
276000;277;25.7562;-0.00155038;-6.0191e-05;-2.15738;25.6548;-0.748661;0.0298725;-0.00994884;-0.751103;-0.00488436;-0.35751;-0.34511;0.496929;-6.89854;-0.000551763;-0.00015617;-0.00269597;-0.000540448;-0.00270728;0.00108342;-0.204662;-4.8861;0.0016544;0.00144456;-0.199628;-5.00933;121.178;166.178;0.00630622;-0.000561584;-0.00473603;0.00443354;-0.0027072;0.0130351;0.0284804;0;0.0351453;0.0242443;-0.349495;-1.09929;1.15376;-7.67225;0.000355709;-0.000117538;-0.00193788;0.000361716;-0.00194389;0.0011528;0.183555;5.44795;0.00143181;0.00153707;0.186079;5.37407;61.5741;106.574;-0.000157543;0.000355117;0.000856884;-0.0010942;-0.00193824;0.00154144;0.0336481;0;0.0252143;0.456307;4.0269
277000;278;25.755;-0.00271128;-0.000105261;-2.15797;25.6534;-0.753531;0.029287;-0.0113061;-0.755973;-0.00482839;-0.358003;-0.344036;0.496538;-6.89746;-0.000575279;-0.000232891;-0.0028418;-0.000551597;-0.00286548;0.00115694;-0.202435;-4.93986;0.00175558;0.00154259;-0.192497;-5.19489;118.939;163.939;0.00559416;-0.000584522;-0.00475987;0.00430438;-0.00285314;0.0150585;0.0280172;0;0.0320372;0.0241183;-0.349595;-1.10016;1.15462;-7.67312;0.000523101;-9.11683e-05;-0.00191538;0.000526505;-0.00191878;0.00122264;0.273106;3.66159;0.00148611;0.00163019;0.274395;3.64438;58.585;103.585;0.000152536;0.00052235;0.00104399;-0.0012291;-0.00191592;0.000612871;0.0337148;0;0.0240982;0.463091;4.02698
278000;279;25.7578;0.000109408;4.24757e-06;-2.15903;25.6562;-0.752466;0.0282187;-0.00853292;-0.754908;-0.00519541;-0.361001;-0.345187;0.499502;-6.89861;-0.000709555;-0.000218406;-0.00259581;-0.000684596;-0.00262077;0.000968085;-0.273346;-3.65836;0.00156956;0.00129078;-0.26122;-3.82819;118.648;163.648;0.00541712;-0.000719101;-0.00480161;0.00437347;-0.00260734;0.0160216;0.0285507;0;0.0401749;0.0227019;-0.353878;-1.10679;1.16221;-7.67975;0.000522768;-0.00020032;-0.00153693;0.00054207;-0.00155623;0.00104915;0.340138;2.93998;0.00125774;0.00139887;0.348323;2.8709;50.0572;95.0572;6.25091e-05;0.000521647;0.00110809;-0.00151142;-0.00153752;0.000622392;0.0339251;0;0.0344604;0.50106;4.04097
279000;280;25.7586;0.000835826;3.24495e-05;-2.15978;25.6568;-0.754502;0.0274778;-0.00792578;-0.756944;-0.00494276;-0.362935;-0.348266;0.503026;-6.90169;-0.000734952;-6.80365e-05;-0.00243196;-0.000732228;-0.00243469;0.000851229;-0.302205;-3.30901;0.00144239;0.00113497;-0.300748;-3.32504;123.499;168.499;0.00613984;-0.00074577;-0.00477839;0.00465033;-0.00244341;0.0150816;0.0287609;0;0.0412653;0.0223167;-0.356626;-1.11242;1.1684;-7.68538;0.000582529;-0.00020077;-0.00133187;0.000603358;-0.0013527;0.000978027;0.437377;2.28635;0.00115662;0.00130404;0.446041;2.24195;45.9356;90.9356;7.62883e-05;0.00058105;0.00132735;-0.00173182;-0.00133273;0.00247939;0.0327788;0;0.043848;0.530357;4.04851
280000;281;25.7582;0.000432314;1.67839e-05;-2.16033;25.6563;-0.75684;0.0269238;-0.00844639;-0.759282;-0.00515578;-0.364891;-0.349382;0.505212;-6.90281;-0.000721319;-0.000242174;-0.00231497;-0.000685331;-0.00235096;0.000832815;-0.311589;-3.20936;0.00139611;0.00111042;-0.291511;-3.4304;117.84;162.84;0.00658397;-0.000731683;-0.00503424;0.00455755;-0.00232764;0.0148914;0.0290909;0;0.0347828;0.0215638;-0.358604;-1.11719;1.17354;-7.69015;0.0006359;-0.000150575;-0.00115363;0.000648481;-0.00116621;0.000907346;0.551217;1.81417;0.00106183;0.00120979;0.556058;1.79837;44.8012;89.8012;-0.000115323;0.000634381;0.00144595;-0.00174996;-0.00115466;0.00322186;0.0311509;0;0.0394922;0.554475;4.05581
281000;282;25.757;-0.000705165;-2.73768e-05;-2.16116;25.6549;-0.762743;0.0260882;-0.00983359;-0.765185;-0.00492674;-0.367503;-0.347278;0.505653;-6.90071;-0.000804156;-3.4684e-05;-0.00199708;-0.000803148;-0.00199808;0.000597468;-0.402667;-2.48344;0.00116096;0.000796624;-0.401959;-2.48781;125.393;170.393;0.00633189;-0.000815883;-0.00490467;0.00484112;-0.00200913;0.0154742;0.0291422;0;0.0282611;0.0209926;-0.36087;-1.11922;1.17615;-7.69218;0.000697396;-0.000221306;-0.000985763;0.000726008;-0.00101437;0.000870191;0.707468;1.41349;0.0010094;0.00116026;0.715719;1.3972;39.7249;84.7249;0.000320497;0.000695072;0.00172228;-0.00216817;-0.000987223;0.00341097;0.0304142;0;0.0378331;0.585143;4.06343
282000;283;25.7589;0.00117615;4.56622e-05;-2.16133;25.6568;-0.760483;0.025921;-0.00789176;-0.762925;-0.00429976;-0.36946;-0.345907;0.506133;-6.89934;-0.000761253;-1.33063e-05;-0.00173257;-0.000761071;-0.00173275;0.000485838;-0.439379;-2.27594;0.00100286;0.000647784;-0.439228;-2.27672;127.211;172.211;0.00718146;-0.000773423;-0.0049535;0.0049317;-0.00174486;0.0137468;0.0291111;0;0.0301456;0.0212257;-0.36283;-1.12003;1.17752;-7.69299;0.000568247;-0.000201005;-0.000916321;0.000594981;-0.000943055;0.000769018;0.62014;1.61254;0.000895533;0.00102536;0.630908;1.58502;39.9172;84.9172;5.65394e-05;0.000565904;0.00176961;-0.00217455;-0.000917868;0.00414047;0.029151;0;0.0405241;0.60693;4.06437
283000;284;25.7589;0.00119512;4.63984e-05;-2.1624;25.6566;-0.7645;0.0248491;-0.00808244;-0.766942;-0.00376092;-0.371568;-0.347208;0.508557;-6.90064;-0.000740813;0.000112792;-0.00144537;-0.000723197;-0.00146298;0.000369894;-0.512543;-1.95106;0.000844672;0.000493191;-0.49433;-2.02294;137.932;2.93217;0.00688024;-0.000754537;-0.00500905;0.00523824;-0.00145792;0.0157553;0.0291528;0;0.026475;0.0207655;-0.365193;-1.12351;1.18155;-7.69647;0.000671669;-0.00025539;-0.000786088;0.000715117;-0.000829536;0.000772326;0.854444;1.17035;0.000892621;0.00102977;0.862068;1.16;36.0735;81.0735;0.000148878;0.000668788;0.00190073;-0.00241466;-0.000787864;0.00380314;0.0299147;0;0.0404747;0.644247;4.0726
284000;285;25.7577;6.44352e-06;2.50159e-07;-2.1624;25.6552;-0.771658;0.0248514;-0.00948993;-0.7741;-0.00351843;-0.37425;-0.345939;0.509656;-6.89937;-0.00083469;0.000219313;-0.00139553;-0.000759114;-0.00147111;0.000355998;-0.598115;-1.67192;0.000849491;0.000474665;-0.516014;-1.93793;148.073;13.0733;0.00710057;-0.000849528;-0.00500823;0.00544978;-0.00140807;0.0154987;0.0289162;0;0.024048;0.0205567;-0.367743;-1.12561;1.18433;-7.69857;0.000641328;-0.000235488;-0.0006843;0.000681918;-0.00072489;0.000703404;0.937203;1.067;0.000812347;0.000937872;0.940719;1.06302;35.4394;80.4394;0.000175139;0.000637814;0.00218818;-0.00266237;-0.000686668;0.00525693;0.0303616;0;0.0395286;0.672613;4.07843
285000;286;25.7584;0.00071515;2.77645e-05;-2.1632;25.6558;-0.772369;0.0240515;-0.00886723;-0.774811;-0.00306789;-0.375376;-0.348091;0.511941;-6.90152;-0.000655975;0.000224995;-0.000739207;-0.00046878;-0.000926403;0.000228811;-0.887404;-1.12688;0.000534872;0.000305082;-0.506022;-1.9762;171.061;36.0613;0.00738476;-0.000671015;-0.00503681;0.00548724;-0.000751876;0.0141989;0.028724;0;0.0271155;0.0202855;-0.368921;-1.12964;1.18852;-7.7026;0.000518158;-0.000274453;-0.000671213;0.000578434;-0.000731489;0.000654962;0.771972;1.29538;0.000758004;0.000873282;0.790762;1.2646;33.429;78.429;0.000499797;0.000514147;0.00229432;-0.00284628;-0.000673809;0.00571594;0.0310157;0;0.0437838;0.697847;4.08514
286000;287;25.7608;0.00311415;0.000120902;-2.16401;25.6582;-0.77201;0.0232412;-0.00651615;-0.774452;-0.002614;-0.377922;-0.348962;0.514399;-6.90239;-0.000641407;0.000282739;-0.000442361;-0.00024214;-0.000841627;0.000299744;-1.44996;-0.689673;0.000500301;0.000399658;-0.287705;-3.47578;6.89394;51.8939;0.00696926;-0.000657365;-0.00509025;0.00565465;-0.000455282;0.0151802;0.0299469;0;0.02568;0.0198838;-0.371491;-1.13332;1.19282;-7.70628;0.000508987;-0.000275423;-0.000736004;0.000567196;-0.000794213;0.000680704;0.691554;1.44602;0.000789644;0.000907606;0.714161;1.40025;34.2064;79.2064;0.000409517;0.000504429;0.00247834;-0.00303262;-0.00073904;0.00569723;0.0311011;0;0.0419021;0.736224;4.09298
287000;288;25.7585;0.000750047;2.91193e-05;-2.16488;25.6555;-0.780457;0.0223694;-0.00921885;-0.782899;-0.00165616;-0.382794;-0.339684;0.51178;-6.89311;-0.000748061;0.00021524;-0.000426992;-0.000319013;-0.00085604;0.000268513;-1.75193;-0.570798;0.000499549;0.000358018;-0.372661;-2.6834;15.3174;60.3174;0.00705718;-0.00076367;-0.00516054;0.00558929;-0.00044029;0.0160387;0.0293282;0;0.0220389;0.0197711;-0.375147;-1.12926;1.19011;-7.70222;0.000460683;-0.000216609;-0.000759277;0.000498002;-0.000796596;0.000647299;0.606739;1.64815;0.000754034;0.000863065;0.625162;1.59958;36.686;81.686;0.000287235;0.000456017;0.00262649;-0.00306317;-0.000762706;0.00571428;0.0325877;0;0.037096;0.774032;4.10023
288000;289;25.7598;0.00204953;7.95694e-05;-2.16605;25.6566;-0.782879;0.0212068;-0.00808607;-0.785321;-0.000457601;-0.384216;-0.344169;0.515824;-6.8976;-0.000469708;0.000214679;0.000168362;0.000233866;-0.000535212;0.000384539;2.78987;0.35844;0.000455247;0.000512719;0.43696;2.28854;27.3137;72.3137;0.00763875;-0.000485577;-0.00521051;0.0056364;0.000154812;0.014524;0.0289497;0;0.0219397;0.0201351;-0.376696;-1.13638;1.19736;-7.70934;0.000375291;-0.000353141;-0.000934499;0.000464436;-0.00102364;0.00074404;0.401596;2.49006;0.000879132;0.000992053;0.453709;2.20406;33.5232;78.5232;-0.000282365;0.000369986;0.00256703;-0.00327713;-0.000937734;0.00591861;0.0342554;0;0.0345215;0.805935;4.10811
289000;290;25.7597;0.00193743;7.52174e-05;-2.16625;25.6564;-0.78579;0.0210071;-0.00830446;-0.788232;0.00058498;-0.386575;-0.345131;0.518224;-6.89856;-0.000629212;0.000375693;0.000239476;0.000379414;-0.000769151;0.000574282;2.62745;0.380597;0.00067573;0.00076571;0.49329;2.0272;23.615;68.615;0.00764702;-0.000645825;-0.0050278;0.00577448;0.00022691;0.0157222;0.0287318;0;0.0210689;0.0199088;-0.379205;-1.14043;1.20198;-7.71339;0.00034626;-0.000333072;-0.00104415;0.000421929;-0.00111982;0.000770873;0.33162;3.0155;0.000920023;0.00102783;0.376784;2.65404;35.2796;80.2796;-0.000966743;0.000340118;0.00285049;-0.00352106;-0.00104816;0.00547537;0.0342292;0;0.0323974;0.846687;4.11555
290000;291;25.7605;0.00277994;0.000107926;-2.16839;25.6568;-0.795443;0.0188665;-0.00793685;-0.797885;0.00114099;-0.388778;-0.34417;0.519233;-6.8976;-0.000535;0.000491632;0.00025527;0.000490875;-0.000770605;0.00063074;2.09582;0.47714;0.000734261;0.000840987;0.636999;1.56986;18.7518;63.7518;0.0074926;-0.000553094;-0.00505519;0.00603406;0.000242616;0.0157181;0.0293926;0;0.0227233;0.019647;-0.381393;-1.14337;1.20547;-7.71633;0.000301924;-0.000401859;-0.0011383;0.000406465;-0.00124285;0.000824655;0.26524;3.77017;0.000992203;0.00109954;0.327044;3.0577;34.0747;79.0747;-0.0011509;0.000295451;0.00281267;-0.00362102;-0.00114218;0.00668894;0.0367887;0;0.0271354;0.888377;4.12311
291000;292;25.7618;0.00408065;0.000158424;-2.16833;25.6582;-0.792295;0.0189196;-0.006529;-0.794737;0.00187495;-0.391684;-0.343095;0.520705;-6.89652;-0.000488958;0.000261241;0.000614112;0.000672853;-0.000547699;0.000610276;0.796203;1.25596;0.00070592;0.000813702;1.22851;0.813995;32.7292;77.7292;0.00721735;-0.000505902;-0.00530942;0.00582575;0.000600059;0.0158445;0.0298849;0;0.0209726;0.0193841;-0.384585;-1.14547;1.20846;-7.71843;0.000364398;-0.000460059;-0.00128547;0.000484011;-0.00140508;0.000944548;0.283474;3.52766;0.00113306;0.0012594;0.344471;2.903;34.0321;79.0321;-0.00203321;0.000356306;0.00312375;-0.00404978;-0.00129025;0.00837809;0.0363808;0;0.024328;0.925979;4.12973
292000;293;25.7625;0.00474193;0.000184097;-2.17002;25.6587;-0.791547;0.0172305;-0.00598476;-0.793989;0.00288279;-0.39352;-0.343782;0.522544;-6.89721;-0.000491152;0.000562982;0.000919416;0.00111656;-0.000688295;0.000902427;0.5342;1.87196;0.00105177;0.00120324;1.62221;0.616443;26.8839;71.8839;0.00742887;-0.000509711;-0.00499871;0.00611682;0.000907093;0.0157758;0.028774;0;0.0295239;0.0193069;-0.386629;-1.14886;1.21233;-7.72182;0.000177617;-0.000496525;-0.00123623;0.000334567;-0.00139318;0.000863875;0.143676;6.96008;0.00105809;0.00115183;0.240146;4.16413;31.3647;76.3647;-0.00312092;0.000168488;0.00330377;-0.00430219;-0.00124157;0.00910259;0.0378747;0;0.0252873;0.964517;4.13507
293000;294;25.7623;0.00455234;0.000176737;-2.17074;25.6581;-0.801671;0.0165128;-0.00655012;-0.804113;0.00316348;-0.396191;-0.339913;0.522033;-6.89334;-0.000524235;0.000741197;0.00120818;0.00148201;-0.000798067;0.00114004;0.433906;2.30464;0.001336;0.00152005;1.857;0.538504;26.5018;71.5018;0.00707714;-0.000545148;-0.00503549;0.00650786;0.00119579;0.016301;0.0289948;0;0.0194053;0.0187584;-0.389912;-1.15088;1.21528;-7.72384;0.000202473;-0.000673946;-0.00105401;0.000495584;-0.00134712;0.000921353;0.192098;5.20569;0.0011011;0.00122847;0.367883;2.71826;24.3065;69.3065;-0.00320244;0.000190657;0.00355501;-0.00490821;-0.00106011;0.00982252;0.0368061;0;0.0216493;1.01675;4.14297
294000;295;25.7666;0.00885877;0.000343927;-2.17323;25.6623;-0.800984;0.0140239;-0.00241541;-0.803426;0.00450509;-0.39994;-0.34106;0.525637;-6.89449;-0.000462352;0.000617028;0.0012998;0.00149437;-0.000656924;0.00107565;0.35571;2.81127;0.00127303;0.0014342;2.2748;0.439599;29.6767;74.6767;0.00702968;-0.000482164;-0.00509957;0.00632354;0.001287;0.0161199;0.0273866;0;0.0174464;0.0182091;-0.398657;-1.14943;1.21674;-7.72239;0.000188045;-0.000499319;-0.00100113;0.000369895;-0.00118298;0.000776436;0.187833;5.32388;0.000936622;0.00103525;0.312681;3.19815;27.6385;72.6385;-0.0040045;0.000176729;0.00378011;-0.00478384;-0.00100816;0.00955317;0.0377106;0;0.02401;1.05292;4.14479
295000;296;25.7634;0.00567715;0.000220406;-2.17391;25.6588;-0.808714;0.0133478;-0.00590971;-0.811156;0.00545331;-0.403668;-0.335968;0.525217;-6.8894;-0.000530798;0.000354625;0.00123773;0.00130619;-0.000599257;0.000952723;0.428848;2.33183;0.00112506;0.0012703;2.17968;0.458783;35.9539;80.9539;0.00702729;-0.000548561;-0.00527008;0.00596939;0.00122392;0.0166279;0.0276687;0;0.0173484;0.0189956;-0.398569;-1.15223;1.21937;-7.72519;0.000174366;-0.000499127;-0.000913383;0.000368683;-0.0011077;0.000738192;0.190901;5.23832;0.000887272;0.000984256;0.332837;3.00448;26.0297;71.0297;-0.00401012;0.000162163;0.00396263;-0.00496574;-0.000921116;0.0111165;0.0375959;0;0.0291461;1.10496;4.15261
296000;297;25.7633;0.0055294;0.00021467;-2.17409;25.6586;-0.808677;0.0131589;-0.00607289;-0.811118;0.00564301;-0.405412;-0.335646;0.526355;-6.88907;-0.00057939;0.000550566;0.00101579;0.00118736;-0.000750961;0.000969161;0.570383;1.75321;0.00112851;0.00129221;1.58112;0.632462;28.8699;73.8699;0.00708135;-0.00059874;-0.00515143;0.00624345;0.00100269;0.016036;0.0263981;0;0.0178319;0.0186152;-0.400655;-1.15451;1.2222;-7.72747;0.000214316;-0.000484201;-0.000729617;0.000418517;-0.000933819;0.000676168;0.293737;3.4044;0.000799443;0.000901558;0.448178;2.23125;23.7281;68.7281;-0.00435606;0.000202274;0.00395916;-0.00493175;-0.000737343;0.011154;0.0372932;0;0.0276466;1.14944;4.15895
297000;298;25.7626;0.00483459;0.000187695;-2.17619;25.6577;-0.809417;0.0110645;-0.00697142;-0.811858;0.00706685;-0.41089;-0.335444;0.530474;-6.88887;-0.000649723;0.00056139;0.00067946;0.000884834;-0.000855097;0.000869966;0.956234;1.04577;0.0010046;0.00115995;1.03478;0.966393;25.0621;70.0621;0.00660001;-0.000667358;-0.00484778;0.00596336;0.000667875;0.0165683;0.026082;0;0.0197275;0.01861;-0.40518;-1.15917;1.22808;-7.73213;1.88376e-05;-0.000416575;-0.000489956;0.000252552;-0.00072367;0.000488111;0.0384476;26.0094;0.000585091;0.000650814;0.348988;2.86543;17.0646;62.0646;-0.00426681;5.69332e-06;0.00430862;-0.00514417;-0.000499156;0.0122782;0.0369634;0;0.0266666;1.19555;4.16633
298000;299;25.7646;0.0068282;0.000265093;-2.17707;25.6597;-0.8071;0.0101869;-0.00497116;-0.809542;0.00792581;-0.413234;-0.333651;0.531177;-6.88708;-0.000630023;0.000585527;0.000907412;0.00110501;-0.000827623;0.000966317;0.694308;1.44028;0.00111963;0.00128842;1.33516;0.748972;27.1602;72.1602;0.00676187;-0.000647982;-0.00485712;0.0060198;0.000895798;0.0159309;0.0254075;0;0.0218856;0.0187114;-0.409562;-1.15723;1.22771;-7.73019;9.56094e-05;-0.000236709;-0.000202358;0.000226317;-0.000333065;0.000279691;0.472478;2.1165;0.000324914;0.000372922;0.679498;1.47168;16.3253;61.3253;-0.00403151;8.17894e-05;0.00478804;-0.00526295;-0.000213795;0.0123134;0.0364029;0;0.0374058;1.25813;4.17361
299000;300;25.7642;0.00649863;0.000252298;-2.17726;25.6592;-0.812391;0.00999118;-0.00548565;-0.814833;0.00830185;-0.415715;-0.334295;0.533517;-6.88772;-0.000707095;0.000578134;0.000651016;0.000863787;-0.000919867;0.000891827;1.08614;0.920691;0.00102996;0.0011891;0.939035;1.06492;24.725;69.725;0.00650721;-0.000725017;-0.00486387;0.00601273;0.000639362;0.0169098;0.0250076;0;0.0281406;0.0185528;-0.411405;-1.16161;1.23246;-7.73458;-5.02513e-06;-0.000189093;-9.83838e-05;0.000143065;-0.000246474;0.00019477;;;0.000227527;0.000259693;0.580447;1.72281;7.17342;52.1734;-0.0038582;-1.74384e-05;0.00460755;-0.00498618;-0.000108982;0.0123716;0.0353093;0;0.0377873;1.30227;4.18165
300000;301;25.7644;0.00669828;0.000260049;-2.17794;25.6592;-0.818151;0.0093138;-0.00552567;-0.820593;0.00734025;-0.415132;-0.343344;0.53877;-6.89677;-0.000464244;0.000604996;0.000120689;0.000500202;-0.000843758;0.00067198;3.84662;0.259968;0.000784341;0.000895973;0.592827;1.68683;12.0394;57.0394;0.00691019;-0.000481233;-0.00465219;0.00585909;0.000110051;0.0150569;0.0259168;0;0.024029;0.0172993;-0.412539;-1.17099;1.24165;-7.74395;5.63061e-05;-0.000267789;0.000122601;0.000359287;-0.000180379;0.000269833;-0.459261;-2.17741;0.000317232;0.000359777;1.99184;0.502048;175.894;40.8941;-0.0033643;4.20766e-05;0.00480631;-0.00534154;0.000111088;0.0135412;0.0338593;0;0.0410515;1.35148;4.18858
301000;302;25.7667;0.0089695;0.000348226;-2.17779;25.6615;-0.815827;0.00945894;-0.00315881;-0.818268;0.00927119;-0.418032;-0.337973;0.537645;-6.8914;-0.000396846;0.000777837;0.000659534;0.00107156;-0.000808877;0.000940221;0.601707;1.66194;0.0010892;0.00125363;1.32476;0.754856;17.8675;62.8675;0.0063435;-0.000415393;-0.00458876;0.00613875;0.000649315;0.0168521;0.0249408;0;0.0325856;0.0192146;-0.416845;-1.16611;1.23852;-7.73907;-0.00010261;-0.000119532;0.00023214;0.00027044;-0.000140911;0.000205675;0.44202;2.26234;0.000241386;0.000274234;1.91923;0.521042;152.337;17.3368;-0.00314161;-0.000116907;0.00511104;-0.00534835;0.000219088;0.0138314;0.0367279;0;0.0422011;1.40902;4.19614
302000;303;25.7663;0.00861418;0.000334431;-2.17865;25.6611;-0.817621;0.00860098;-0.00364552;-0.820063;0.00917441;-0.419643;-0.341683;0.541231;-6.89511;-0.000496541;0.000728028;0.000679843;0.0010276;-0.000844295;0.000935946;0.730376;1.36916;0.00108246;0.00124793;1.21711;0.821621;20.0484;65.0484;0.00685691;-0.000513747;-0.00445979;0.00590973;0.000670169;0.0151203;0.0255445;0;0.032092;0.018186;-0.417739;-1.1724;1.24473;-7.74536;-9.62327e-05;-0.00014498;0.000380513;0.00042114;-0.00013686;0.000279;0.252902;3.9541;0.000335809;0.000372;3.07717;0.324974;149.817;14.8171;-0.00334988;-0.00011134;0.00521106;-0.00549846;0.000366952;0.0145679;0.0367048;0;0.0635884;1.46024;4.20331
303000;304;25.7655;0.00772599;0.000299948;-2.17958;25.6598;-0.825207;0.00766906;-0.00485936;-0.827649;0.0102433;-0.423024;-0.337615;0.54133;-6.89104;-0.000579524;0.000742683;0.000612375;0.000968651;-0.0009358;0.000952226;0.946354;1.05669;0.00109959;0.00126963;1.0351;0.966086;19.5376;64.5376;0.00647101;-0.000596355;-0.00436834;0.00584759;0.000603116;0.0157049;0.024408;0;0.0297359;0.0185465;-0.42064;-1.17313;1.2464;-7.74609;-0.000166204;-0.000109719;0.000403796;0.000424186;-0.000186594;0.00030539;0.411603;2.42952;0.000361418;0.000407187;2.27331;0.439887;144.841;9.84137;-0.00345533;-0.000182578;0.00550691;-0.00572315;0.000388645;0.0142643;0.0366338;0;0.0450106;1.5072;4.20803
304000;305;25.767;0.00925815;0.000359432;-2.17994;25.6613;-0.826857;0.00731531;-0.00340402;-0.829298;0.0111191;-0.425565;-0.340859;0.545357;-6.89429;-0.000483718;0.000827768;0.000961672;0.00133783;-0.000859881;0.00109886;0.502997;1.98808;0.00127881;0.00146514;1.55584;0.642741;21.9602;66.9602;0.0069055;-0.000501318;-0.0043409;0.00598895;0.000952602;0.0156495;0.0238913;0;0.0227603;0.0190978;-0.424484;-1.175;1.24947;-7.74796;-0.000292588;-3.93128e-05;0.000165565;0.000168914;-0.000295937;0.000232425;1.76721;0.565864;0.000271701;0.000309901;0.570777;1.752;140.108;5.10803;-0.00374783;-0.000308929;0.00564001;-0.00571603;0.000149663;0.0138145;0.0378601;0;0.0356395;1.57247;4.21522
305000;306;25.7674;0.00968483;0.000375997;-2.18041;25.6616;-0.830918;0.00684204;-0.00314699;-0.83336;0.0110773;-0.427449;-0.338911;0.545616;-6.89234;-0.000475077;0.00088408;0.000961326;0.00138216;-0.000895915;0.00113904;0.494189;2.02352;0.0013252;0.00151872;1.54274;0.648197;20.9417;65.9417;0.00679735;-0.000493591;-0.00438699;0.00614756;0.000952103;0.0154943;0.0249844;0;0.0355174;0.0185964;-0.426375;-1.17768;1.25263;-7.75064;-0.000252012;2.82698e-05;0.000209441;0.000211166;-0.000253738;0.000232452;1.20326;0.831073;0.000268787;0.000309936;0.832222;1.2016;131.528;176.528;-0.00413906;-0.000268916;0.00587298;-0.00581375;0.000192199;0.0132194;0.0385499;0;0.0425447;1.62864;4.22134
306000;307;25.7686;0.010873;0.000422126;-2.17982;25.6628;-0.831207;0.00743562;-0.00191283;-0.833649;0.0112955;-0.428209;-0.34158;0.547875;-6.89501;-0.000458991;0.000880104;0.000844094;0.00128758;-0.000902479;0.00109503;0.543768;1.83902;0.00127093;0.00146004;1.42672;0.70091;19.3942;64.3942;0.00676575;-0.000476979;-0.00430731;0.00606075;0.000835213;0.0150544;0.0245091;0;0.0355372;0.0184294;-0.427522;-1.18151;1.25662;-7.75447;-0.00037446;-7.79576e-05;0.000260305;0.000269739;-0.000383894;0.000326817;1.43854;0.695147;0.000379289;0.000435755;0.702639;1.42321;142.096;7.09571;-0.00454174;-0.000392029;0.00577489;-0.00592709;0.000243637;0.0142997;0.0392658;0;0.0443204;1.67596;4.22644
307000;308;25.7699;0.0121821;0.000472951;-2.17983;25.664;-0.832873;0.00742697;-0.000653048;-0.835315;0.011382;-0.431569;-0.342598;0.551139;-6.89603;-0.00053185;0.00101183;0.00139539;0.00182904;-0.000965498;0.00139727;0.381148;2.62365;0.0016389;0.00186302;1.8944;0.527873;24.2396;69.2396;0.00723327;-0.000550747;-0.00421529;0.00622886;0.00138703;0.0156062;0.0243658;0;0.0269758;0.0184345;-0.432611;-1.18224;1.25904;-7.7552;-0.000440294;-2.36318e-05;4.12789e-05;4.24358e-05;-0.000441451;0.000241943;10.6663;0.093753;0.000309417;0.000322591;0.096128;10.4028;138.649;3.64881;-0.00494123;-0.000459151;0.00609558;-0.00613989;2.27017e-05;0.0140817;0.040874;0;0.0304215;1.74088;4.23366
308000;309;25.7712;0.0134897;0.000523714;-2.18128;25.6651;-0.836831;0.0059689;0.000407243;-0.839273;0.0123101;-0.433251;-0.343984;0.553338;-6.89741;-0.000462374;0.00107778;0.0015108;0.00198536;-0.000936938;0.00146115;0.306047;3.26748;0.001723;0.0019482;2.11899;0.471924;24.1822;69.1822;0.00725249;-0.000481552;-0.00413962;0.00628487;0.00150282;0.0152649;0.0261142;0;0.0286427;0.0187186;-0.434605;-1.18863;1.26573;-7.7616;-0.000507107;-0.000216052;2.82149e-05;0.000104532;-0.000583424;0.000343978;17.973;0.055639;0.000428069;0.000458637;0.179169;5.58131;155.43;20.4299;-0.00584604;-0.000529134;0.00621055;-0.00663921;8.95313e-06;0.0156197;0.0427343;0;0.0279481;1.80773;4.24123
309000;310;25.7714;0.0136957;0.000531711;-2.18146;25.6651;-0.843863;0.00579002;0.00036863;-0.846305;0.0122822;-0.435699;-0.343917;0.555215;-6.89735;-0.000595707;0.00125707;0.00211443;0.00260772;-0.001089;0.00184836;0.281734;3.54944;0.00219352;0.00246448;2.3946;0.417606;27.6728;72.6728;0.00768917;-0.000616878;-0.00412588;0.00662544;0.00210672;0.0141564;0.0255824;0;0.0434295;0.0181226;-0.438144;-1.18899;1.26728;-7.76195;-0.000543324;-0.000309733;3.43626e-05;0.000169034;-0.000677995;0.000423515;15.8115;0.0632451;0.000517625;0.000564686;0.249315;4.01099;159.512;24.5124;-0.00643725;-0.000567008;0.00627183;-0.00688748;1.47431e-05;0.0168099;0.0410816;0;0.0299119;1.85681;4.2496
310000;311;25.7731;0.0153406;0.000595571;-2.1816;25.6667;-0.842946;0.00565422;0.00203894;-0.845388;0.0125448;-0.437898;-0.344194;0.557119;-6.89762;-0.000624073;0.00119105;0.00222684;0.00265894;-0.00105618;0.00185756;0.280251;3.56823;0.00221046;0.00247675;2.51751;0.397218;29.2747;74.2747;0.00730243;-0.000645805;-0.00433091;0.00669727;0.00221819;0.0155229;0.0250399;0;0.0394662;0.0182381;-0.441432;-1.19139;1.27067;-7.76435;-0.000519234;-0.00041557;0.000338842;0.000507108;-0.0006875;0.000597304;1.53238;0.65258;0.000692323;0.000796405;0.737611;1.35573;157.333;22.3328;-0.00685405;-0.000544462;0.00628816;-0.00711353;0.000319164;0.0168587;0.0413198;0;0.0259763;1.91081;4.25677
311000;312;25.7738;0.0160494;0.000623091;-2.18183;25.6673;-0.847717;0.00542707;0.00257428;-0.850159;0.0132612;-0.440732;-0.343145;0.558721;-6.89657;-0.000465912;0.00123198;0.0028109;0.00322241;-0.00087742;0.00204992;0.165752;6.03312;0.00249276;0.00273322;3.6726;0.272287;32.5249;77.5249;0.00733059;-0.000488445;-0.00437805;0.00682364;0.0028021;0.0150319;0.0252867;0;0.0221998;0.0183713;-0.44527;-1.19428;1.27472;-7.76724;-0.000489421;-0.000339168;0.000451823;0.000561304;-0.000598902;0.000580103;1.08321;0.923179;0.000669963;0.000773471;0.937222;1.06698;152.875;17.8745;-0.0074553;-0.000514036;0.00635085;-0.00702288;0.000431723;0.0173333;0.0425355;0;0.02308;1.97774;4.26323
312000;313;25.7763;0.0185985;0.000722056;-2.18156;25.67;-0.844061;0.00569505;0.00527725;-0.846502;0.0144487;-0.443871;-0.343807;0.561634;-6.89724;-0.000561136;0.0013125;0.00309126;0.00351399;-0.000983863;0.00224893;0.181523;5.50894;0.00273036;0.00299857;3.57163;0.279984;33.4656;78.4656;0.00743131;-0.000584964;-0.00442088;0.00702497;0.00308238;0.0146695;0.0260055;0;0.0255605;0.0197314;-0.449822;-1.19647;1.27838;-7.76943;-0.000483085;-0.000270034;0.000514053;0.000582484;-0.000551517;0.000567001;0.939758;1.0641;0.000654797;0.000756001;1.05615;0.946835;149.056;14.0563;-0.0074407;-0.000510049;0.0068137;-0.0073467;0.000490888;0.017712;0.0408053;0;0.0242288;2.04216;4.27066
313000;314;25.779;0.0212553;0.000825199;-2.18133;25.6728;-0.838493;0.00591834;0.00814641;-0.840935;0.0146121;-0.446141;-0.345151;0.564256;-6.89858;-0.000450315;0.00118699;0.003822;0.00412963;-0.000757947;0.00244379;0.117822;8.48739;0.00303743;0.00325839;5.44844;0.183539;38.6848;83.6848;0.00702781;-0.00047383;-0.00460895;0.00695822;0.00381212;0.0162515;0.0252743;0;0.0201068;0.0201219;-0.45342;-1.19675;1.27992;-7.76971;-0.00059233;-7.50938e-05;0.000540812;0.000545767;-0.000597285;0.000571526;1.09526;0.913024;0.000660165;0.000762035;0.913745;1.0944;138.778;3.7784;-0.00726362;-0.000617769;0.00698894;-0.00713112;0.000516405;0.0181851;0.0411302;0;0.0267819;2.09301;4.27711
314000;315;25.7794;0.0216918;0.000842146;-2.18172;25.6733;-0.836269;0.00553251;0.00862449;-0.838711;0.0152505;-0.449546;-0.343802;0.566149;-6.89723;-0.000515787;0.00129033;0.00381289;0.00416834;-0.000871233;0.00251978;0.135275;7.39237;0.00311025;0.00335971;4.78441;0.209012;37.5127;82.5127;0.00736723;-0.000540623;-0.00460806;0.00716325;0.00380314;0.0155251;0.0261271;0;0.0248682;0.019991;-0.457428;-1.19725;1.28181;-7.77021;-0.000585467;7.94062e-05;0.000789688;0.000794258;-0.000590037;0.000692148;0.74139;1.34882;0.000802117;0.000922863;1.34612;0.742878;131.19;176.19;-0.00707884;-0.000609705;0.0071293;-0.00696081;0.000764297;0.0175033;0.0408967;0;0.0363152;2.15494;4.28162
315000;316;25.779;0.0212733;0.000825901;-2.18257;25.6727;-0.841042;0.00468352;0.00797622;-0.843484;0.0153612;-0.451091;-0.344677;0.56791;-6.8981;-0.000417241;0.00146885;0.00366359;0.00413729;-0.000890946;0.00251412;0.113889;8.78051;0.00309818;0.00335216;4.64371;0.215345;34.7691;79.7691;0.00764112;-0.000444079;-0.0045576;0.00747073;0.00365431;0.0155222;0.026051;0;0.0314555;0.0200667;-0.459758;-1.20041;1.2856;-7.77337;-0.000574806;0.000224854;0.00100311;0.00103453;-0.000606222;0.000820376;0.573022;1.74513;0.000957986;0.00109383;1.70652;0.585988;126.096;171.096;-0.00692829;-0.000599412;0.00747793;-0.0070168;0.000975206;0.019465;0.039871;0;0.0363638;2.23072;4.29199
316000;317;25.7803;0.0226131;0.000877915;-2.18194;25.6741;-0.84171;0.00531661;0.00935348;-0.844152;0.0162452;-0.453998;-0.344523;0.570153;-6.89795;-0.000470686;0.00136555;0.0038533;0.00424844;-0.000865826;0.00255713;0.122152;8.18655;0.00316068;0.00340951;4.9068;0.203799;36.811;81.811;0.00713582;-0.000496879;-0.00465858;0.00736368;0.00384342;0.0172083;0.0256252;0;0.0205227;0.0208942;-0.463573;-1.20032;1.2869;-7.77328;-0.000523775;0.000326707;0.00119668;0.00125663;-0.000583727;0.000920178;0.437691;2.28472;0.00108595;0.0012269;2.15277;0.464518;123.164;168.164;-0.00683305;-0.000547454;0.00755338;-0.00688757;0.00116824;0.01923;0.038977;0;0.0310959;2.29137;4.29599
317000;318;25.7817;0.0239611;0.000930249;-2.18262;25.6755;-0.837845;0.00463309;0.0107754;-0.840287;0.0166486;-0.454384;-0.347908;0.572522;-6.90134;-0.000378774;0.00148445;0.00394246;0.00440327;-0.000839581;0.00262142;0.0960755;10.4085;0.0032517;0.00349523;5.2446;0.190672;36.0633;81.0633;0.00734672;-0.000405908;-0.00457064;0.00751343;0.00393315;0.016352;0.0256694;0;0.0222846;0.0208613;-0.464982;-1.20337;1.29025;-7.77633;-0.000541535;0.000411765;0.00131079;0.0013982;-0.000628943;0.00101357;0.413134;2.42052;0.00119813;0.00135143;2.2231;0.449822;121.407;166.407;-0.00635243;-0.000565318;0.00774434;-0.00690727;0.00128093;0.0185668;0.0379126;0;0.0466704;2.34152;4.30014
318000;319;25.7809;0.0231993;0.000900673;-2.18306;25.6746;-0.841048;0.00418789;0.00986783;-0.84349;0.0162652;-0.459051;-0.346644;0.57546;-6.90007;-0.000623144;0.00121404;0.0035216;0.00385102;-0.000952567;0.00240179;0.176949;5.65134;0.00293682;0.00320239;4.04278;0.247355;36.7604;81.7604;0.00720077;-0.000647948;-0.00474145;0.00714489;0.00351113;0.0169387;0.0251223;0;0.0218728;0.0199905;-0.470067;-1.20246;1.29123;-7.77542;-0.00045931;0.000532996;0.00146902;0.00160653;-0.000596825;0.00110168;0.312665;3.19831;0.00131588;0.0014689;2.6918;0.371499;118.471;163.471;-0.00604232;-0.000482592;0.00792319;-0.00684299;0.00143782;0.0183429;0.0382757;0;0.0447935;2.41501;4.3062
319000;320;25.78;0.02226;0.000864207;-2.18266;25.6733;-0.850507;0.00459393;0.00864757;-0.852949;0.0165506;-0.460258;-0.349749;0.578304;-6.90318;-0.00050767;0.00145995;0.00390208;0.00434161;-0.000947207;0.00264441;0.130103;7.68624;0.00325639;0.00352588;4.58359;0.218169;36.224;81.224;0.00746838;-0.000534406;-0.00456155;0.00745494;0.00389277;0.0158811;0.0251874;0;0.0211625;0.0211265;-0.471318;-1.21084;1.29951;-7.7838;-0.000564277;0.000440349;0.00150606;0.00159583;-0.000654045;0.00112494;0.374671;2.66901;0.00133636;0.00149991;2.43994;0.409847;121.482;166.482;-0.00550526;-0.000586405;0.00756056;-0.00666516;0.00147762;0.0194333;0.0393673;0;0.0297408;2.48819;4.31375
320000;321;25.7796;0.0218381;0.000847826;-2.18191;25.673;-0.851313;0.0053437;0.00826091;-0.853755;0.0168755;-0.463709;-0.349465;0.580893;-6.90289;-0.00063997;0.00136554;0.00359817;0.00400005;-0.00104185;0.00252095;0.17786;5.62241;0.00307342;0.00336126;3.83939;0.260458;35.7107;80.7107;0.00728803;-0.000665463;-0.00456155;0.00726756;0.00358874;0.0163935;0.0248844;0;0.0294072;0.0217056;-0.474098;-1.21181;1.30143;-7.78477;-0.000622152;0.000559174;0.0014271;0.00156975;-0.000764803;0.00116728;0.435955;2.29382;0.0013743;0.00155637;2.05249;0.487212;119.006;164.006;-0.00573138;-0.000644688;0.00786789;-0.00673462;0.00139635;0.0172924;0.0394186;0;0.0479435;2.54118;4.32112
321000;322;25.7799;0.0221297;0.000859146;-2.18239;25.673;-0.85659;0.00485988;0.00833705;-0.859032;0.0175196;-0.465056;-0.356605;0.586303;-6.91003;-0.000666197;0.00138023;0.00360479;0.004012;-0.00107341;0.00254271;0.184809;5.41099;0.00309515;0.00339028;3.73761;0.26755;35.6208;80.6208;0.00706084;-0.000691817;-0.00455257;0.00728774;0.00359541;0.0162938;0.0250308;0;0.0243369;0.0221169;-0.47623;-1.22048;1.31029;-7.79344;-0.0005132;0.000427848;0.00136389;0.00145681;-0.00060612;0.00103146;0.376277;2.65762;0.00122432;0.00137529;2.4035;0.41606;120.973;165.973;-0.00570542;-0.000536635;0.0077271;-0.00685774;0.00133417;0.0169911;0.0392332;0;0.0360761;2.60738;4.32898
322000;323;25.7802;0.0224713;0.000872411;-2.18208;25.6733;-0.858598;0.00516944;0.00863938;-0.86104;0.0183094;-0.468004;-0.355434;0.587959;-6.90886;-0.000591511;0.00115159;0.00285758;0.00320673;-0.00094066;0.0020737;0.206997;4.83099;0.00251081;0.00276493;3.40902;0.293339;33.7071;78.7071;0.00725422;-0.000615252;-0.00470129;0.00698429;0.00284722;0.0163527;0.0244215;0;0.0245785;0.0229349;-0.479543;-1.22074;1.31176;-7.7937;-0.000640926;0.000467112;0.00140962;0.00151101;-0.00074232;0.00112667;0.45468;2.19935;0.00132596;0.00150222;2.03553;0.491272;121.147;166.147;-0.00648194;-0.000664339;0.00780598;-0.00685675;0.00137931;0.0171669;0.0409572;0;0.0340288;2.67417;4.33621
323000;324;25.7816;0.0238266;0.000925027;-2.18219;25.6746;-0.86138;0.00506109;0.00989791;-0.863822;0.0188338;-0.470268;-0.354272;0.58908;-6.9077;-0.000681033;0.00110043;0.00265713;0.00298725;-0.00101115;0.0019992;0.256304;3.90162;0.00240061;0.0026656;2.95431;0.338488;33.2198;78.2198;0.00685039;-0.000704192;-0.00471033;0.00689181;0.00264667;0.0166824;0.0255914;0;0.0283253;0.0240386;-0.482778;-1.22182;1.31396;-7.79478;-0.000703302;0.000445342;0.00152059;0.00160646;-0.000789168;0.00119781;0.462518;2.16208;0.00140969;0.00159709;2.03564;0.491247;122.358;167.358;-0.00674401;-0.000725952;0.00764953;-0.00674287;0.00149148;0.0161781;0.0416808;0;0.0298496;2.73937;4.3437
324000;325;25.7831;0.0253874;0.000985623;-2.1824;25.6761;-0.862044;0.00485065;0.011425;-0.864486;0.0184134;-0.473895;-0.35263;0.590985;-6.90606;-0.000712063;0.00122263;0.00251388;0.00292488;-0.00112307;0.00202398;0.283253;3.53041;0.00241303;0.00269864;2.60436;0.383971;30.951;75.951;0.0074466;-0.000735619;-0.00454271;0.00696937;0.00250433;0.0161675;0.0247303;0;0.0301097;0.0235781;-0.48772;-1.21984;1.31394;-7.7928;-0.000646806;0.000286082;0.00154389;0.00158064;-0.000683549;0.00113209;0.418945;2.38695;0.00134099;0.00150946;2.3124;0.432452;125.884;170.884;-0.00769529;-0.000673507;0.00789959;-0.00731079;0.00151278;0.0173663;0.0441005;0;0.0242497;2.80886;4.35131
325000;326;25.7859;0.0281352;0.0010923;-2.18238;25.6788;-0.865822;0.00487618;0.0140594;-0.868264;0.0199232;-0.474575;-0.354873;0.592919;-6.9083;-0.000551646;0.0011917;0.00231089;0.00274206;-0.000982816;0.00186244;0.238716;4.18909;0.00222908;0.00248325;2.79001;0.358422;29.5695;74.5695;0.00779719;-0.000574729;-0.00452939;0.00689641;0.00230137;0.0159265;0.026082;0;0.027987;0.0253981;-0.489536;-1.22396;1.31847;-7.79692;-0.000514611;0.00023158;0.00150486;0.00153108;-0.000540826;0.00103595;0.341965;2.92427;0.00124092;0.00138127;2.831;0.353233;126.546;171.546;-0.00841103;-0.000540974;0.00774137;-0.00726308;0.00147497;0.0168632;0.0429586;0;0.0219765;2.87342;4.3578
326000;327;25.7869;0.0291926;0.00113335;-2.18153;25.68;-0.861762;0.00572477;0.0153298;-0.864204;0.0200423;-0.477527;-0.356497;0.596258;-6.90993;-0.000725293;0.0010435;0.00213785;0.0024778;-0.00106524;0.00177152;0.339263;2.94757;0.00209907;0.00236203;2.32604;0.429915;30.6648;75.6648;0.00711054;-0.000746423;-0.0045106;0.0065817;0.00212824;0.0172956;0.0253943;0;0.0242116;0.0255853;-0.494162;-1.22676;1.3228;-7.79973;-0.000417243;0.000320738;0.00181627;0.00186142;-0.000462389;0.00116191;0.229725;4.35304;0.00142039;0.00154921;4.02566;0.248407;124.236;169.236;-0.00805429;-0.000443347;0.00788946;-0.00723113;0.00178526;0.0159543;0.042471;0;0.0239939;2.95319;4.36513
327000;328;25.7879;0.0301776;0.0011716;-2.18134;25.6809;-0.867034;0.00591315;0.0161575;-0.869475;0.0203487;-0.478087;-0.36225;0.600172;-6.91568;-0.000717328;0.00105431;0.00205568;0.002411;-0.00107265;0.00174183;0.348949;2.86575;0.00206017;0.00232243;2.24771;0.444898;29.8716;74.8716;0.00722235;-0.000738787;-0.00453991;0.00663301;0.00204595;0.0167647;0.0245327;0;0.0342893;0.0259239;-0.496169;-1.23448;1.33071;-7.80744;-0.000330792;0.0002864;0.00185818;0.00189504;-0.000367643;0.00113134;0.178019;5.61738;0.00140206;0.00150845;5.15455;0.194003;124.611;169.611;-0.00860023;-0.000355938;0.00768522;-0.00709627;0.00182875;0.0155303;0.0423365;0;0.0235387;3.01669;4.36873
328000;329;25.7907;0.0329522;0.00127931;-2.18097;25.6839;-0.858895;0.00628404;0.0192486;-0.861337;0.0209724;-0.48249;-0.356107;0.60004;-6.90953;-0.00068841;0.000952775;0.00208902;0.00238444;-0.00098383;0.00168413;0.329537;3.03456;0.00199993;0.00224551;2.42363;0.412604;31.4865;76.4865;0.0073713;-0.000708689;-0.00454684;0.00643712;0.00207916;0.0166995;0.0248392;0;0.0307246;0.0266884;-0.501462;-1.22853;1.32721;-7.8015;-0.000286212;0.000406294;0.00179528;0.00187177;-0.000362707;0.00111724;0.159425;6.27254;0.00138468;0.00148965;5.16056;0.193777;121.386;166.386;-0.00935614;-0.000311818;0.00799507;-0.00716674;0.00176346;0.0183489;0.0426965;0;0.0233013;3.06791;4.37299
329000;330;25.792;0.0343136;0.00133217;-2.18018;25.6854;-0.858101;0.00707076;0.020709;-0.860543;0.0218852;-0.484687;-0.355782;0.601649;-6.90921;-0.00068985;0.00104217;0.00216576;0.00250565;-0.00102974;0.0017677;0.318526;3.13947;0.00209961;0.00235693;2.43328;0.410968;30.8123;75.8123;0.00721008;-0.000710922;-0.0045042;0.00657272;0.00215618;0.0171317;0.0248141;0;0.0266492;0.0278332;-0.505834;-1.22791;1.32831;-7.80087;-0.000150724;0.000564716;0.00185517;0.00200323;-0.00029878;0.001151;0.0812455;12.3084;0.00144541;0.00153467;6.7047;0.149149;116.997;161.997;-0.009383;-0.00017521;0.0081648;-0.00702018;0.00182206;0.0197194;0.0423411;0;0.025691;3.14537;4.37996
330000;331;25.7938;0.0360231;0.00139853;-2.17979;25.6872;-0.856194;0.00746291;0.0225224;-0.858636;0.0226389;-0.485065;-0.361377;0.605305;-6.91481;-0.000816962;0.0010063;0.00197448;0.00229943;-0.0011419;0.00172066;0.41376;2.41686;0.00202397;0.00229422;2.01368;0.496604;30.1519;75.1519;0.00752609;-0.000838035;-0.00456983;0.00656687;0.00196457;0.0161708;0.0248339;0;0.0393075;0.0285911;-0.507417;-1.23546;1.33591;-7.80842;-2.01142e-05;0.000622572;0.001903;0.00208695;-0.000204065;0.00114551;0.0105698;94.6094;0.00146407;0.00152734;10.2269;0.0977816;114.689;159.689;-0.00898236;-4.12298e-05;0.00778707;-0.00652821;0.00187293;0.0182671;0.043029;0;0.0367697;3.21956;4.38755
331000;332;25.7939;0.0361781;0.00140455;-2.17951;25.6874;-0.856395;0.00773928;0.0226949;-0.858837;0.0234483;-0.488728;-0.361995;0.608642;-6.91542;-0.000878043;0.00106946;0.00240861;0.00272597;-0.0011954;0.00196068;0.364543;2.74316;0.00232077;0.00261424;2.28039;0.438522;32.4162;77.4162;0.00756986;-0.000899953;-0.00458238;0.00670273;0.00239871;0.0160983;0.0265643;0;0.0290808;0.0296678;-0.512018;-1.23545;1.33768;-7.80841;-3.09032e-05;0.000770713;0.00205357;0.00230758;-0.000284913;0.00129625;0.0150485;66.4518;0.00164162;0.00172833;8.09923;0.123469;112.675;157.675;-0.00867123;-5.14548e-05;0.00801366;-0.00645721;0.00202182;0.0188106;0.0406743;0;0.0315159;3.27604;4.39445
332000;333;25.7965;0.0387245;0.00150341;-2.18068;25.69;-0.850703;0.00657225;0.0253419;-0.853145;0.0235997;-0.489931;-0.361698;0.609438;-6.91513;-0.000760665;0.00119391;0.00244086;0.00283706;-0.00115686;0.00199696;0.311639;3.20884;0.00237293;0.00266261;2.45237;0.407769;30.9204;75.9204;0.00754177;-0.000783636;-0.00451026;0.00687982;0.00243142;0.016201;0.0262253;0;0.0432239;0.0292353;-0.51492;-1.23311;1.33662;-7.80607;-4.04896e-05;0.00087033;0.00216514;0.0024672;-0.000342551;0.00140487;0.0187007;53.4739;0.00177007;0.00187317;7.20244;0.138842;111.552;156.552;-0.00835005;-6.00272e-05;0.00806761;-0.00631116;0.00213304;0.019773;0.040702;0;0.0424107;3.35108;4.40206
333000;334;25.7971;0.0393965;0.0015295;-2.17968;25.6907;-0.85431;0.00757757;0.0259823;-0.856752;0.0241643;-0.491305;-0.365364;0.612744;-6.91879;-0.00088721;0.00102698;0.00262613;0.0029043;-0.00116538;0.00203484;0.33784;2.95998;0.00242007;0.00271312;2.49214;0.401261;34.1781;79.1781;0.00723875;-0.00091007;-0.00480272;0.00683622;0.00261515;0.0178862;0.0261975;0;0.0306241;0.0300959;-0.516466;-1.23953;1.34316;-7.81249;-4.09908e-05;0.000960161;0.00214352;0.00250555;-0.000403015;0.00145428;0.0191231;52.2928;0.00181964;0.00193904;6.21701;0.160849;109.974;154.974;-0.00750112;-5.87771e-05;0.00797648;-0.00604091;0.00211224;0.0178734;0.0400751;0;0.0376568;3.41263;4.40966
334000;335;25.7978;0.0400557;0.00155509;-2.17878;25.6914;-0.855161;0.00847097;0.0266917;-0.857602;0.0241336;-0.494712;-0.366701;0.616273;-6.92013;-0.000737925;0.00124031;0.00313506;0.00349821;-0.00110108;0.00229964;0.235379;4.24848;0.00277301;0.00306619;3.17708;0.314755;34.5162;79.5162;0.00705768;-0.000762535;-0.00466415;0.00712193;0.00312498;0.017761;0.0254951;0;0.0394018;0.0306976;-0.520561;-1.24205;1.34707;-7.81501;2.3177e-05;0.000908106;0.00232954;0.00264417;-0.000291457;0.00146782;-0.00994916;-100.511;0.00186753;0.00195709;9.07225;0.110226;110.746;155.746;-0.00658145;7.38473e-06;0.00752434;-0.00569295;0.00230171;0.0154628;0.0400364;0;0.0503703;3.48417;4.41737
335000;336;25.7993;0.0415572;0.00161339;-2.17926;25.6929;-0.854593;0.00799256;0.0281777;-0.857035;0.0239029;-0.498413;-0.361035;0.6159;-6.91446;-0.000794102;0.00141614;0.00342797;0.00385896;-0.0012251;0.00254203;0.231654;4.31679;0.00306377;0.00338937;3.14992;0.317468;34.428;79.428;0.00767261;-0.000819967;-0.00452035;0.0073276;0.00341879;0.0169327;0.0262799;0;0.0304602;0.0307109;-0.524916;-1.23662;1.34377;-7.80958;-0.000129334;0.000856419;0.00240921;0.00267112;-0.000391239;0.00153118;0.0536829;18.6279;0.00192446;0.00204157;6.82733;0.14647;113.044;158.044;-0.00690502;-0.000145784;0.00752883;-0.00579913;0.0023813;0.0159601;0.0402325;0;0.0438455;3.54054;4.42377
336000;337;25.8003;0.0425288;0.00165111;-2.1789;25.6938;-0.855992;0.00835284;0.0291374;-0.858434;0.0256732;-0.500934;-0.362939;0.619127;-6.91637;-0.000921189;0.0011821;0.00347241;0.00377026;-0.00121904;0.00249465;0.265288;3.76949;0.00300348;0.0033262;3.09281;0.32333;36.8728;81.8728;0.00761187;-0.000946786;-0.00491122;0.00724869;0.00346109;0.0173556;0.0270815;0;0.0221455;0.0324934;-0.52821;-1.23797;1.34634;-7.81093;-0.000129603;0.000769721;0.00237086;0.00258881;-0.000347551;0.00146818;0.0546651;18.2932;0.00185262;0.00195757;7.44872;0.134251;114.206;159.206;-0.00659455;-0.000145697;0.00728069;-0.00572504;0.00234471;0.0149187;0.0406118;0;0.0376154;3.62351;4.43096
337000;338;25.801;0.0432956;0.00168088;-2.1791;25.6945;-0.858278;0.00815311;0.0298142;-0.86072;0.0247673;-0.503421;-0.36351;0.621438;-6.91694;-0.000620357;0.00137447;0.00381775;0.00420894;-0.00101155;0.00261025;0.162493;6.15412;0.00319694;0.00348033;4.1609;0.240333;36.4203;81.4203;0.0077033;-0.000648125;-0.00485426;0.00757561;0.00380696;0.0170464;0.0256105;0;0.0236218;0.0315269;-0.531839;-1.23826;1.34801;-7.81122;-0.00015004;0.000804778;0.00234221;0.00257949;-0.000387322;0.00148341;0.0640592;15.6106;0.00186224;0.00197788;6.65982;0.150154;113.632;158.632;-0.0064238;-0.00016543;0.00723105;-0.00560555;0.00231645;0.0141253;0.0407764;0;0.0364236;3.68854;4.43533
338000;339;25.8014;0.0436602;0.00169503;-2.17847;25.6947;-0.863801;0.00878291;0.0300486;-0.866243;0.0263175;-0.505887;-0.360686;0.621859;-6.91411;-0.000840561;0.00109252;0.00317392;0.00345198;-0.00111862;0.0022853;0.264834;3.77595;0.00275108;0.00304707;3.08592;0.324053;36.146;81.146;0.00788234;-0.000866439;-0.00511352;0.00727368;0.00316148;0.0178605;0.0285082;0;0.0210999;0.034013;-0.53447;-1.23873;1.34955;-7.8117;-0.000127562;0.000680138;0.00216445;0.00235108;-0.000314192;0.00133263;0.058935;16.9678;0.00168193;0.00177684;7.48293;0.133637;115.081;160.081;-0.00645995;-0.00014399;0.0071469;-0.00577186;0.00213919;0.0160899;0.0410828;0;0.0333909;3.7548;4.44161
339000;340;25.8028;0.0450737;0.00174991;-2.17884;25.6962;-0.862332;0.00841473;0.0314861;-0.864774;0.0277046;-0.506467;-0.366079;0.625532;-6.91951;-0.000745542;0.00113917;0.00338996;0.003683;-0.00103858;0.00236079;0.219926;4.54698;0.00286498;0.00314772;3.5462;0.281992;36.5226;81.5226;0.00830582;-0.000773091;-0.00525499;0.00750694;0.00337685;0.0175749;0.0286294;0;0.0336521;0.0348208;-0.536625;-1.24211;1.35352;-7.81507;-6.88145e-05;0.000649101;0.00212408;0.00230181;-0.000246545;0.00127418;0.0323973;30.8667;0.00162297;0.0016989;9.33626;0.107109;115.068;160.068;-0.00670808;-8.53999e-05;0.00710797;-0.00579566;0.00209908;0.0163013;0.0423322;0;0.040968;3.83773;4.44721
340000;341;25.8042;0.0464898;0.00180489;-2.17798;25.6976;-0.86459;0.00927013;0.0329047;-0.867032;0.0267357;-0.508936;-0.368185;0.628722;-6.92161;-0.000855869;0.00120967;0.003649;0.00395327;-0.00116015;0.00255671;0.234549;4.2635;0.00309557;0.00340895;3.40757;0.293464;37.2197;82.2197;0.00767162;-0.000883293;-0.00510987;0.0075008;0.00363672;0.0188208;0.0289206;0;0.0309729;0.0339728;-0.540783;-1.24516;1.35794;-7.81812;-0.000142626;0.000420439;0.00221292;0.00228571;-0.00021542;0.00125056;0.0644516;15.5155;0.00160045;0.00166742;10.6105;0.0942466;120.624;165.624;-0.00700187;-0.000161592;0.00702921;-0.00617282;0.00218835;0.0161395;0.0432104;0;0.0266316;3.89338;4.45398
341000;342;25.805;0.0472376;0.00183392;-2.17917;25.6983;-0.863573;0.00808382;0.0335893;-0.866015;0.0294283;-0.511783;-0.366178;0.629979;-6.91961;-0.000858853;0.000944715;0.00297971;0.00319962;-0.00107876;0.00213919;0.288234;3.46941;0.0025693;0.00285225;2.96601;0.337153;36.6254;81.6254;0.00798825;-0.000886039;-0.00556643;0.0074309;0.00296471;0.0193778;0.030197;0;0.0219622;0.0363634;-0.544574;-1.24216;1.35678;-7.81513;-0.000152467;0.000202834;0.0021339;0.00215176;-0.000170322;0.00116104;0.0714498;13.9958;0.00149452;0.00154805;12.6335;0.0791548;125.63;170.63;-0.00740104;-0.000173128;0.00685179;-0.00643096;0.0021105;0.0164273;0.0440903;0;0.0230504;3.97618;4.46166
342000;343;25.8025;0.0447433;0.00173708;-2.17889;25.6956;-0.870175;0.00836612;0.0308858;-0.872617;0.0308797;-0.51981;-0.352179;0.628638;-6.90561;-0.000874386;0.000844253;0.00254581;0.00274286;-0.00107143;0.00190714;0.34346;2.91154;0.00227156;0.00254286;2.55999;0.390626;35.6586;80.6586;0.00792925;-0.000900431;-0.00559696;0.00726346;0.00253054;0.0192924;0.0290621;0;0.0219148;0.0382999;-0.551199;-1.23209;1.35031;-7.80505;-9.95729e-05;0.000117188;0.0021765;0.00218252;-0.000105591;0.00114405;0.0457491;21.8584;0.00149145;0.00152541;20.6696;0.0483802;127.321;172.321;-0.00751589;-0.000118923;0.00647059;-0.00622179;0.00215562;0.0171284;0.0448879;0;0.0327456;4.0276;4.46927
343000;344;25.8076;0.0498239;0.00193433;-2.17876;25.7008;-0.866479;0.00849495;0.0361234;-0.868921;0.0310817;-0.516559;-0.368471;0.635272;-6.9219;-0.000968055;0.000831785;0.00239221;0.00258683;-0.00116268;0.00187476;0.40467;2.47115;0.00221622;0.00249967;2.22489;0.44946;35.0294;80.0294;0.00840416;-0.000994873;-0.00572565;0.0073672;0.0023762;0.0185435;0.0297275;0;0.0414903;0.0381502;-0.551293;-1.24741;1.36434;-7.82038;-8.10633e-05;8.06692e-05;0.00219947;0.00220232;-8.39133e-05;0.00114311;0.0368559;27.1327;0.00149697;0.00152415;26.2452;0.0381023;128.4;173.4;-0.00798019;-0.000103052;0.00680845;-0.0066318;0.00217634;0.0173645;0.0465453;0;0.0277268;4.11215;4.47668
344000;345;25.8088;0.0510244;0.00198094;-2.17928;25.7021;-0.863051;0.0079743;0.0374;-0.865493;0.0315537;-0.519675;-0.366661;0.636787;-6.92009;-0.00110142;0.000579929;0.00280598;0.00289024;-0.00118568;0.00203796;0.392526;2.5476;0.00242085;0.00271727;2.43763;0.410235;40.5879;85.5879;0.00760774;-0.00112594;-0.00588844;0.00702307;0.00278886;0.02039;0.0298286;0;0.0302494;0.0386149;-0.556674;-1.24401;1.36343;-7.81698;5.53163e-05;9.21248e-05;0.00229396;0.00229775;5.15316e-05;0.00112311;-0.0241139;-41.4699;0.00151495;0.00149748;-44.5891;-0.022427;127.503;172.503;-0.00839386;3.42055e-05;0.00669761;-0.00649861;0.00227159;0.0180463;0.0442196;0;0.022784;4.17402;4.48411
345000;346;25.8069;0.0491874;0.00190962;-2.179;25.7001;-0.869789;0.0082512;0.0353517;-0.872231;0.0315106;-0.521844;-0.363068;0.6365;-6.9165;-0.000860888;0.000664922;0.0023042;0.00243821;-0.000994901;0.00171655;0.373618;2.67653;0.00203966;0.00228874;2.4507;0.408046;36.9087;81.9087;0.00758781;-0.000885656;-0.00575685;0.00706639;0.00228788;0.0208027;0.0292443;0;0.0169179;0.0386885;-0.558241;-1.24444;1.36446;-7.8174;-0.000104899;0.000141476;0.00227074;0.00227913;-0.000113295;0.00119621;0.0461962;21.6468;0.00155856;0.00159495;20.1168;0.0497098;126.815;171.815;-0.00812519;-0.000125387;0.00670082;-0.00640233;0.00224835;0.0184576;0.0434219;0;0.0279479;4.23876;4.49114
346000;347;25.8115;0.0538063;0.00208894;-2.17955;25.7048;-0.866182;0.0077024;0.040065;-0.868624;0.0335979;-0.522677;-0.373723;0.64342;-6.92715;-0.00113102;0.000487798;0.00161403;0.00169813;-0.00121512;0.00145663;0.700742;1.42706;0.00168966;0.00194217;1.3975;0.715563;36.369;81.369;0.00804358;-0.00115553;-0.006058;0.00701564;0.00159583;0.0202424;0.0311573;0;0.0331123;0.0402138;-0.56249;-1.25279;1.37386;-7.82575;4.51893e-05;0.000139049;0.00222734;0.00223616;3.63646e-05;0.0010999;-0.0202885;-49.289;0.0014788;0.00146653;-61.4927;-0.0162621;126.367;171.367;-0.00845656;2.456e-05;0.00671731;-0.00642489;0.00220483;0.0188814;0.0417244;0;0.0336801;4.3061;4.49771
347000;348;25.8124;0.0546358;0.00212114;-2.18018;25.7056;-0.86453;0.00707031;0.0409;-0.866972;0.0336135;-0.526111;-0.372404;0.645452;-6.92583;-0.00117859;0.00038577;0.00118416;0.00124555;-0.00123998;0.00124277;0.995296;1.00473;0.00143503;0.00165702;1.00449;0.995528;36.0622;81.0622;0.00832166;-0.00120158;-0.00603161;0.00678799;0.00116607;0.0192943;0.0298478;0;0.0477075;0.0402577;-0.567041;-1.25221;1.3752;-7.82517;2.97392e-05;0.000163617;0.00249201;0.00250283;1.89146e-05;0.00124196;-0.0119338;-83.7953;0.00166229;0.00165595;-132.323;-0.00755726;125.543;170.543;-0.0080108;1.03847e-05;0.00656682;-0.00622387;0.00247051;0.0183049;0.0416508;0;0.047361;4.40232;4.50554
348000;349;25.8114;0.0536357;0.00208232;-2.18045;25.7044;-0.868303;0.00680394;0.039746;-0.870745;0.034986;-0.529175;-0.368867;0.645998;-6.92229;-0.00119756;0.000268472;0.000844919;0.000879619;-0.00123226;0.00105594;1.41736;0.705535;0.00122495;0.00140792;0.713827;1.4009;36.9337;81.9337;0.00770298;-0.00121952;-0.0061057;0.00662962;0.000826331;0.0213614;0.0298937;0;0.03423;0.0416005;-0.570788;-1.24906;1.37393;-7.82202;2.2333e-05;0.000202582;0.00255311;0.00256922;6.21936e-06;0.0012815;-0.00874735;-114.32;0.00171075;0.00170867;;;124.38;169.38;-0.00739884;5.13936e-06;0.00628812;-0.0058676;0.00253341;0.0171945;0.0403925;0;0.0491963;4.44561;4.51077
349000;350;25.8096;0.0518789;0.00201411;-2.18091;25.7024;-0.874981;0.00633933;0.037716;-0.877423;0.0360701;-0.531346;-0.368718;0.647752;-6.92215;-0.00129286;0.00019051;6.88741e-05;9.50247e-05;-0.00131901;0.00070702;18.7714;0.0532725;0.000912669;0.000942693;0.0720422;13.8808;34.5336;79.5336;0.0080225;-0.00131438;-0.00618672;0.00655905;4.97556e-05;0.0212074;0.0309832;0;0.0245844;0.0422287;-0.573183;-1.25002;1.37581;-7.82298;2.25585e-05;0.000333891;0.00264353;0.0026854;-1.93079e-05;0.00135235;-0.00853349;-117.185;0.00179673;0.00180314;139.083;0.00718995;121.574;166.574;-0.00708117;6.18256e-06;0.00641637;-0.0057327;0.00262305;0.0178122;0.0407813;0;0.0441977;4.52224;4.51289
350000;351;25.8113;0.0535671;0.00207965;-2.18183;25.7041;-0.874141;0.00542705;0.0393624;-0.876583;0.0369133;-0.533679;-0.36896;0.649852;-6.92239;-0.00116372;0.000141572;-0.000193114;-0.000172886;-0.00118395;0.00050553;-6.02607;-0.165946;0.000738446;0.00067404;-0.146025;-6.84814;33.9042;78.9042;0.0078023;-0.00118469;-0.00619669;0.00647367;-0.000212307;0.020983;0.0317209;0;0.0279152;0.0428795;-0.576209;-1.25176;1.37868;-7.82472;-9.47522e-05;0.000319659;0.00268301;0.00271932;-0.000131063;0.00142519;0.0353156;28.3161;0.00185811;0.00190026;20.7482;0.0481971;122.482;167.482;-0.00706634;-0.000111624;0.00647374;-0.00581739;0.00266216;0.0173679;0.0409549;0;0.0483516;4.5883;4.52045
351000;352;25.8116;0.0538982;0.00209251;-2.1815;25.7042;-0.87938;0.00575243;0.0395438;-0.881822;0.0378235;-0.53674;-0.367807;0.651769;-6.92123;-0.00118215;7.3704e-05;-0.000655364;-0.000645246;-0.00119227;0.000273513;-1.80381;-0.554381;0.000689137;0.000364684;-0.541191;-1.84778;33.1111;78.1111;0.0080577;-0.00120232;-0.0062037;0.0063478;-0.000674617;0.0205232;0.0302638;0;0.0215292;0.0436432;-0.579469;-1.2521;1.38038;-7.82507;-9.17723e-06;0.000325239;0.00262826;0.00266777;-4.86924e-05;0.00135823;;;0.00179497;0.00181098;54.7883;0.0182521;121.83;166.83;-0.00643578;-2.51992e-05;0.00633629;-0.00567002;0.00260829;0.0170735;0.041718;0;0.0420808;4.66357;4.52711
352000;353;25.8131;0.0553934;0.00215055;-2.18201;25.7058;-0.877248;0.00524656;0.0410751;-0.87969;0.038938;-0.537836;-0.370273;0.654129;-6.9237;-0.00118325;-0.000122082;-0.00104157;-0.000971265;-0.00125356;0.000141147;-1.13603;-0.880261;0.000759306;0.000188196;-0.774806;-1.29065;69.9312;114.931;0.00723074;-0.00120165;-0.00630801;0.00606298;-0.00106148;0.0236125;0.030527;0;0.0300878;0.0443899;-0.581869;-1.25409;1.38322;-7.82705;-4.56798e-05;0.000280498;0.00273643;0.00276443;-7.36783e-05;0.00141906;0.0166932;59.9047;0.001868;0.00189207;37.5203;0.0266523;122.961;167.961;-0.00623666;-6.23554e-05;0.00635955;-0.0057817;0.00271631;0.0169585;0.042299;0;0.0495198;4.72213;4.53515
353000;354;25.8146;0.0569026;0.00220915;-2.18242;25.7072;-0.878766;0.00483097;0.0425035;-0.881208;0.0401753;-0.540488;-0.36943;0.655912;-6.92286;-0.00121283;8.44797e-05;-0.00124476;-0.00114282;-0.00131477;8.59751e-05;-0.974348;-1.02633;0.000825192;0.000114634;-0.869217;-1.15046;169.1;34.1;0.00761863;-0.00123235;-0.00607522;0.00624438;-0.00126324;0.0216751;0.0307875;0;0.0255242;0.0453598;-0.58517;-1.255;1.38547;-7.82797;-0.000161212;0.000198768;0.00263976;0.00265379;-0.000175248;0.00141452;0.0610709;16.3744;0.00183041;0.00188603;15.1431;0.0660366;124.99;169.99;-0.00570429;-0.000177686;0.00615707;-0.0057429;0.00262087;0.0162309;0.0418949;0;0.0432972;4.79923;4.54137
354000;355;25.814;0.0562819;0.00218505;-2.18241;25.7064;-0.884801;0.00484431;0.0416744;-0.887243;0.0418209;-0.544592;-0.367636;0.658396;-6.92106;-0.00117666;0.00025907;-0.000941378;-0.000774489;-0.00134354;0.000284528;-1.24993;-0.800046;0.000778712;0.00037937;-0.576452;-1.73475;7.44819;52.4482;0.00736286;-0.00119744;-0.00593183;0.0064485;-0.000958954;0.0223267;0.029907;0;0.0260116;0.0465198;-0.589212;-1.25546;1.38763;-7.82842;-0.000238789;0.00014514;0.00261123;0.0026186;-0.000246162;0.00143238;0.0914472;10.9353;0.00183331;0.00190984;10.6377;0.0940051;126.56;171.56;-0.00564298;-0.000256884;0.00632459;-0.00601675;0.00259129;0.016465;0.041681;0;0.0391052;4.86622;4.54913
355000;356;25.8151;0.0573432;0.00222625;-2.18288;25.7074;-0.883793;0.00437687;0.0427352;-0.886235;0.0425713;-0.546391;-0.367947;0.660106;-6.92138;-0.0011851;-9.64002e-05;-0.000504046;-0.000490664;-0.00119848;0.000353909;-2.35118;-0.425319;0.00069572;0.000471879;-0.409404;-2.44257;49.02;94.02;0.00690205;-0.00120284;-0.00615141;0.00595449;-0.000522971;0.0235451;0.0292613;0;0.023872;0.0471031;-0.591802;-1.25593;1.38918;-7.82889;-0.000237539;-4.59668e-05;0.0026825;0.00268322;-0.000238262;0.00146074;0.0885513;11.2929;0.00187329;0.00194765;11.2616;0.0887971;130.006;175.006;-0.00538303;-0.000255454;0.0059107;-0.00598529;0.00266508;0.0160332;0.0416333;0;0.035306;4.92452;4.55634
356000;357;25.8167;0.0590043;0.00229074;-2.1827;25.7092;-0.8811;0.00455219;0.0445105;-0.883542;0.0439237;-0.548542;-0.36958;0.662886;-6.92301;-0.00116636;-2.82338e-05;-0.000321701;-0.000320759;-0.0011673;0.000423273;-3.62561;-0.275816;0.00069636;0.000564364;-0.274786;-3.6392;43.5807;88.5807;0.00775099;-0.00118541;-0.00623039;0.00616869;-0.000341116;0.0217369;0.0313359;0;0.0245336;0.0481233;-0.594903;-1.25888;1.3932;-7.83184;-0.000406252;-3.38951e-05;0.00252623;0.00252663;-0.000406644;0.00146664;0.160813;6.21839;0.00183505;0.00195551;6.21336;0.160943;130.795;175.795;-0.00556381;-0.000426269;0.00627663;-0.00632596;0.00250659;0.015888;0.0422522;0;0.033081;4.99711;4.56412
357000;358;25.8189;0.061144;0.00237381;-2.18331;25.7113;-0.882526;0.00394033;0.0465582;-0.884967;0.044934;-0.551166;-0.370197;0.665469;-6.92363;-0.0011622;0.000368758;0.000202315;0.000295594;-0.00125548;0.000775539;5.74454;0.174078;0.000950959;0.00103405;0.235442;4.24733;28.7092;73.7092;0.00819399;-0.00118422;-0.00591348;0.00664242;0.000184901;0.0199786;0.0305507;0;0.0228914;0.0489382;-0.598864;-1.26162;1.3974;-7.83458;-0.000453746;-0.000238236;0.00260761;0.00262604;-0.000472174;0.00154911;0.174008;5.74685;0.00192746;0.00206547;5.56158;0.179805;134.456;179.456;-0.00567434;-0.000474823;0.0060382;-0.0064955;0.00258945;0.0162686;0.041964;0;0.0251482;5.08448;4.57126
358000;359;25.8185;0.06072;0.00235735;-2.18266;25.7107;-0.88726;0.00459752;0.0460254;-0.889702;0.0459031;-0.55247;-0.37147;0.667324;-6.9249;-0.00122361;0.000302291;0.000740493;0.000785966;-0.00126908;0.00102752;1.65242;0.605172;0.00119736;0.00137003;0.61932;1.61468;35.4303;80.4303;0.00797415;-0.00124508;-0.00596381;0.00655609;0.000722768;0.0202185;0.0300847;0;0.0236622;0.0496544;-0.601247;-1.26386;1.40047;-7.83682;-0.000502502;-0.00029546;0.00272458;0.00275141;-0.00052933;0.00164037;0.184433;5.42202;0.00203381;0.00218716;5.1979;0.192385;135.235;0.234717;-0.00578137;-0.000525412;0.00620371;-0.0067737;0.00270543;0.0171256;0.0421057;0;0.0234475;5.12987;4.57833
359000;360;25.8201;0.0623829;0.00242191;-2.18294;25.7123;-0.889426;0.00431088;0.047596;-0.891868;0.0464655;-0.55504;-0.371699;0.669618;-6.92513;-0.00114966;0.000360802;0.00135982;0.00141066;-0.00120051;0.00130558;0.845455;1.1828;0.00150918;0.00174078;1.17505;0.851025;37.5465;82.5465;0.00795699;-0.00117177;-0.00595006;0.00665583;0.0013422;0.0197547;0.0311151;0;0.0211012;0.0503295;-0.605272;-1.26599;1.40414;-7.83895;-0.000624607;-0.00023105;0.00267311;0.00268922;-0.000640716;0.00166497;0.233663;4.27967;0.0020402;0.00221996;4.19721;0.238253;134.372;179.372;-0.00622909;-0.000646743;0.00621477;-0.00665566;0.00265388;0.0167352;0.0424149;0;0.0232776;5.20858;4.58274
360000;361;25.8213;0.0635722;0.00246808;-2.18282;25.7135;-0.890105;0.00443644;0.0487775;-0.892547;0.0474593;-0.557082;-0.373942;0.672626;-6.92737;-0.00120917;0.000458143;0.00176418;0.00183317;-0.00127816;0.00155567;0.685398;1.45901;0.00180583;0.00207422;1.43423;0.697238;37.7581;82.7581;0.00779384;-0.00123298;-0.00601528;0.00691233;0.00174623;0.0193846;0.0293244;0;0.0233239;0.051303;-0.60885;-1.26901;1.40845;-7.84197;-0.000734993;-0.000246243;0.00278198;0.00279914;-0.00075215;0.00177565;0.264197;3.78505;0.0021609;0.00236753;3.72152;0.268707;134.34;179.34;-0.00613779;-0.000756906;0.00615214;-0.00662218;0.00276314;0.0173511;0.0402693;0;0.0233961;5.28425;4.5916
361000;362;25.8244;0.0666786;0.00258868;-2.18376;25.7165;-0.889801;0.00349594;0.0518276;-0.892243;0.0487606;-0.559136;-0.373494;0.674173;-6.92692;-0.00103561;0.000645963;0.00223498;0.00235794;-0.00115857;0.00175825;0.463366;2.15812;0.00206925;0.00234434;2.03521;0.49135;36.9874;81.9874;0.0077803;-0.00106025;-0.00577483;0.00704577;0.00221855;0.0195373;0.0294762;0;0.0221071;0.0524231;-0.611924;-1.27058;1.41123;-7.84354;-0.000752555;-0.000225882;0.00293097;0.00294477;-0.000766354;0.00185556;0.25676;3.89469;0.00226232;0.00247408;3.84256;0.260243;133.761;178.761;-0.00705182;-0.000776237;0.00645609;-0.0068833;0.00291021;0.0197951;0.0427237;0;0.0247854;5.35243;4.5961
362000;363;25.8253;0.067549;0.00262247;-2.18353;25.7174;-0.891732;0.00371879;0.0526537;-0.894174;0.0489997;-0.561587;-0.372733;0.675804;-6.92616;-0.00109332;0.000457729;0.00249634;0.00255379;-0.00115077;0.00185228;0.437969;2.28327;0.00218936;0.0024697;2.2192;0.450612;41.0238;86.0238;0.00755963;-0.00111731;-0.00604656;0.00693871;0.00247821;0.0202313;0.0298588;0;0.0202751;0.0529094;-0.61551;-1.27095;1.41314;-7.84391;-0.000723525;-0.000197904;0.00283298;0.00284396;-0.000734504;0.00178923;0.255394;3.91552;0.0021824;0.00238564;3.87195;0.258268;133.613;178.613;-0.00666294;-0.000747331;0.00652845;-0.00690039;0.00281175;0.01958;0.0415744;0;0.0249852;5.40013;4.60068
363000;364;25.8282;0.0704879;0.00273657;-2.18355;25.7205;-0.886993;0.00370276;0.0557674;-0.889435;0.0499448;-0.563955;-0.37465;0.678898;-6.92808;-0.000998904;0.000661431;0.00277694;0.00288945;-0.00111142;0.00200044;0.359714;2.77999;0.00238473;0.00266725;2.59979;0.384646;39.3764;84.3764;0.00784305;-0.00102376;-0.00577951;0.00707809;0.0027605;0.0190309;0.0300096;0;0.0203491;0.0537384;-0.619251;-1.27437;1.41788;-7.84733;-0.000826281;-0.000238686;0.00305827;0.00307288;-0.000840892;0.00195688;0.27018;3.70124;0.00237895;0.00260918;3.65431;0.27365;133.823;178.823;-0.0071285;-0.000851829;0.00669858;-0.00714907;0.00303593;0.020407;0.0388607;0;0.026145;5.48458;4.60786
364000;365;25.8307;0.072951;0.0028322;-2.18313;25.7231;-0.883774;0.00412271;0.0583873;-0.886216;0.0505558;-0.567715;-0.374872;0.682192;-6.9283;-0.00108387;0.000666129;0.00343521;0.00353135;-0.00118002;0.00235569;0.315519;3.16938;0.00283078;0.00314091;2.99263;0.334155;41.98;86.98;0.00756346;-0.00110953;-0.00588733;0.00719005;0.00341816;0.0203962;0.0305015;0;0.0200726;0.0545615;-0.624356;-1.27535;1.42103;-7.84831;-0.000855496;-0.000112766;0.00327198;0.00327505;-0.000858575;0.00206681;0.261462;3.82465;0.00251882;0.00275575;3.81452;0.262156;131.46;176.46;-0.00685505;-0.000879636;0.006749;-0.0069463;0.00324928;0.0208182;0.0399043;0;0.0265812;5.56076;4.61485
365000;366;25.8309;0.0731362;0.00283939;-2.18243;25.7233;-0.883877;0.00482559;0.0586294;-0.886319;0.051338;-0.56966;-0.374053;0.683421;-6.92748;-0.000854155;0.000927089;0.00335185;0.00354713;-0.00104944;0.00229828;0.254831;3.92417;0.00278136;0.00306438;3.38003;0.295855;38.5221;83.5221;0.00780211;-0.000882344;-0.00573607;0.00756228;0.00333588;0.0187617;0.0305591;0;0.0210342;0.055298;-0.626811;-1.27631;1.423;-7.84927;-0.000938552;3.59738e-05;0.00325819;0.0032585;-0.00093886;0.00209868;0.288059;3.47151;0.00254371;0.00279824;3.4707;0.288127;129.754;174.754;-0.00673388;-0.000963285;0.00713161;-0.00702999;0.00323284;0.0207013;0.039608;0;0.0322427;5.61251;4.62265
366000;367;25.8318;0.0741035;0.00287694;-2.18176;25.7244;-0.883217;0.00548887;0.0596797;-0.885659;0.0512938;-0.570588;-0.377337;0.685992;-6.93077;-0.00103086;0.000736687;0.00343552;0.00355389;-0.00114923;0.00235156;0.300059;3.33268;0.00283118;0.00313541;3.09241;0.323373;41.1301;86.1301;0.0076095;-0.00105743;-0.00587957;0.00732346;0.00341856;0.0196905;0.0297153;0;0.0241892;0.0554695;-0.628826;-1.27959;1.42683;-7.85255;-0.00103287;9.81275e-06;0.00346703;0.00346705;-0.0010329;0.00224998;0.297913;3.35668;0.0027218;0.00299997;3.35663;0.297917;129.844;174.844;-0.00613123;-0.00105726;0.00703114;-0.00698003;0.0034424;0.0218805;0.0385591;0;0.0410819;5.67156;4.62969
367000;368;25.8315;0.0737394;0.00286281;-2.18416;25.7236;-0.888495;0.00308801;0.0589286;-0.890937;0.0518438;-0.574505;-0.377408;0.689333;-6.93084;-0.000886594;0.0010315;0.00398353;0.00419299;-0.00109606;0.00264452;0.222565;4.49307;0.0032234;0.00352603;3.82552;0.261402;40.1947;85.1947;0.00777022;-0.000915307;-0.00561381;0.00764452;0.00396836;0.0191454;0.0300088;0;0.0240714;0.0560571;-0.633471;-1.28145;1.43058;-7.85441;-0.00103669;0.00010305;0.00363781;0.00364008;-0.00103896;0.00233952;0.284976;3.50907;0.00283717;0.00311936;3.50358;0.285422;128.404;173.404;-0.00538513;-0.00106069;0.00716398;-0.006925;0.00361225;0.0214663;0.0416709;0;0.0437628;5.76758;4.63707
368000;369;25.8311;0.0734127;0.00285012;-2.18328;25.7233;-0.890725;0.00397019;0.0585983;-0.893167;0.0522044;-0.576384;-0.378225;0.691374;-6.93165;-0.0010517;0.000854291;0.00407859;0.00421711;-0.00119022;0.00270366;0.25786;3.87808;0.00328091;0.00360488;3.54313;0.282236;42.3715;87.3715;0.0077305;-0.00107883;-0.0057361;0.00741097;0.00406257;0.0192339;0.0292028;0;0.0281581;0.0567987;-0.635774;-1.28291;1.43294;-7.85588;-0.00102137;0.000109998;0.00357852;0.00358115;-0.001024;0.00230258;0.285418;3.50364;0.00279208;0.0030701;3.49721;0.285942;128.434;173.434;-0.00508025;-0.00104583;0.00724342;-0.00699073;0.00355239;0.0208939;0.0408489;0;0.0489258;5.81003;4.64466
369000;370;25.8304;0.0726435;0.00282026;-2.18296;25.7223;-0.897839;0.0042948;0.0576061;-0.900281;0.0527477;-0.578473;-0.37926;0.693723;-6.93269;-0.00097068;0.000798048;0.00411313;0.00423546;-0.00109301;0.00266424;0.235996;4.23737;0.00324984;0.00355232;3.87503;0.258062;43.066;88.066;0.00724666;-0.000997736;-0.00583312;0.00739561;0.0040965;0.0205995;0.0281116;0;0.0237366;0.0574981;-0.638337;-1.28561;1.43651;-7.85857;-0.00115408;0.000177668;0.00355185;0.00355855;-0.00116078;0.00235967;0.324925;3.07764;0.00283952;0.00314622;3.06565;0.326195;127.941;172.941;-0.00569772;-0.00117791;0.00728975;-0.00690107;0.00352539;0.0197969;0.0408556;0;0.0454962;5.87642;4.65087
370000;371;25.8296;0.0718636;0.00278998;-2.18185;25.7214;-0.902728;0.00539811;0.0567453;-0.90517;0.0534718;-0.581262;-0.379447;0.696207;-6.93288;-0.00113399;0.000881541;0.00412648;0.00427027;-0.00127779;0.00277403;0.274809;3.63889;0.0033549;0.00369871;3.34192;0.299229;42.2454;87.2454;0.00808034;-0.0011613;-0.00570946;0.00743798;0.00411063;0.0182733;0.027493;0;0.0262292;0.0585073;-0.641555;-1.28797;1.44009;-7.86093;-0.00127634;0.00013989;0.00362516;0.00362915;-0.00128033;0.00245474;0.352079;2.84027;0.00294064;0.00327299;2.83454;0.352791;128.58;173.58;-0.00554417;-0.00130061;0.00727839;-0.00696375;0.00359878;0.0203713;0.042009;0;0.0451013;5.95309;4.65813
371000;372;25.8305;0.0727758;0.0028254;-2.18243;25.7222;-0.905146;0.00482377;0.0575277;-0.907588;0.0545869;-0.583473;-0.379681;0.698268;-6.93311;-0.00103037;0.000984239;0.00392852;0.00411672;-0.00121857;0.00266765;0.262279;3.81274;0.00322827;0.00355687;3.37831;0.296006;40.5709;85.5709;0.00759051;-0.00105767;-0.00551529;0.00745162;0.00391385;0.0191044;0.0286864;0;0.0299596;0.0597809;-0.644386;-1.2899;1.44313;-7.86286;-0.00134684;0.000151373;0.0037027;0.00370724;-0.00135137;0.0025293;0.363745;2.74918;0.00302432;0.00337241;2.74331;0.364523;128.471;173.471;-0.00593811;-0.00137089;0.00727064;-0.00693208;0.00367638;0.0206664;0.0431837;0;0.041804;6.01295;4.66402
372000;373;25.8313;0.073597;0.00285728;-2.1829;25.723;-0.905215;0.00435513;0.0583101;-0.907657;0.0550859;-0.586001;-0.37929;0.700209;-6.93272;-0.00110174;0.000905854;0.00373392;0.00389804;-0.00126586;0.00258195;0.295062;3.38912;0.0031078;0.0034426;3.07937;0.324742;40.5637;85.5637;0.00759944;-0.00112855;-0.005594;0.00737435;0.00371874;0.0188184;0.0281302;0;0.0256428;0.060311;-0.647848;-1.28954;1.44439;-7.8625;-0.00137162;0.000176317;0.00372042;0.00372652;-0.00137772;0.00255212;0.368674;2.71242;0.00304916;0.00340282;2.70484;0.369707;128.288;173.288;-0.00656928;-0.00139625;0.00740538;-0.00701609;0.00369311;0.0200947;0.0443975;0;0.0342008;6.0699;4.66667
373000;374;25.8315;0.0737598;0.0028636;-2.18154;25.7232;-0.908707;0.00570954;0.0584654;-0.911149;0.0557562;-0.587831;-0.379989;0.702172;-6.93342;-0.00101733;0.000977511;0.00415652;0.00433504;-0.00119586;0.00276545;0.244756;4.0857;0.00336034;0.00368727;3.62505;0.275858;41.6059;86.6059;0.00783944;-0.0010442;-0.00546933;0.00739109;0.0041421;0.0180052;0.0279954;0;0.0273362;0.0614533;-0.650681;-1.29256;1.44841;-7.86552;-0.0013816;0.000154082;0.00392207;0.00392654;-0.00138608;0.00265631;0.352264;2.83878;0.00318199;0.00354175;2.83285;0.353002;128.299;173.299;-0.00658972;-0.00140707;0.00748036;-0.0071335;0.00389421;0.0192884;0.0439425;0;0.028792;6.14225;4.67384
374000;375;25.8333;0.0755632;0.00293361;-2.18109;25.7249;-0.911023;0.00616602;0.0602332;-0.913465;0.0565385;-0.590538;-0.380029;0.704524;-6.93346;-0.0010476;0.000955899;0.00387975;0.00405869;-0.00122654;0.00264262;0.270017;3.70347;0.00319413;0.00352349;3.30905;0.302201;40.7911;85.7911;0.00789193;-0.00107364;-0.00539558;0.00727616;0.0038657;0.0174285;0.0274137;0;0.0301654;0.0626128;-0.654965;-1.2946;1.4522;-7.86756;-0.00139208;-9.26934e-05;0.00411168;0.00411324;-0.00139364;0.00275344;0.338568;2.95361;0.00330611;0.00367126;2.95143;0.338819;130.608;175.608;-0.0071104;-0.00141959;0.00726697;-0.00741201;0.00408539;0.0181991;0.0444461;0;0.024242;6.20954;4.68206
375000;376;25.8352;0.0774879;0.00300834;-2.18097;25.7267;-0.91518;0.00628291;0.0620284;-0.917622;0.0574078;-0.592235;-0.380693;0.706374;-6.93412;-0.000974325;0.00106031;0.00392739;0.00414692;-0.00119385;0.00267039;0.248085;4.03088;0.00323681;0.00356052;3.47356;0.287889;39.9973;84.9973;0.00774998;-0.00100073;-0.00525039;0.00734016;0.00391422;0.0177789;0.0268624;0;0.0294372;0.0636589;-0.657671;-1.29689;1.45551;-7.86985;-0.00126986;-1.87617e-05;0.00421122;0.00421129;-0.00126992;0.00274061;0.301542;3.31629;0.00331298;0.00365414;3.31617;0.301553;129.373;174.373;-0.00732563;-0.00129634;0.0072748;-0.00727251;0.00418487;0.0180645;0.044811;0;0.0219859;6.25161;4.68867
376000;377;25.8368;0.0790935;0.00307067;-2.18058;25.7284;-0.913931;0.00667776;0.0637186;-0.916373;0.0585348;-0.595108;-0.383281;0.71027;-6.93671;-0.00113399;0.00106602;0.00363258;0.00386013;-0.00136154;0.00261084;0.312173;3.20335;0.00312766;0.00348112;2.83511;0.35272;38.8034;83.8034;0.00787771;-0.00115923;-0.00507634;0.00717917;0.00362031;0.0174479;0.0262443;0;0.030746;0.0650173;-0.661966;-1.29987;1.46017;-7.87283;-0.00115809;9.51793e-05;0.0043726;0.00437424;-0.00115972;0.00276698;0.26485;3.77572;0.00336992;0.00368931;3.7718;0.265125;127.754;172.754;-0.00766745;-0.00118444;0.00748709;-0.00725604;0.0043447;0.0181812;0.0454301;0;0.0230139;6.31026;4.69652
377000;378;25.8403;0.0825661;0.00320549;-2.17966;25.7322;-0.907405;0.00759446;0.0675145;-0.909847;0.0592533;-0.598715;-0.383801;0.713634;-6.93723;-0.00101155;0.00117131;0.00390629;0.00417102;-0.00127627;0.00272365;0.258954;3.86169;0.00328969;0.00363153;3.26812;0.305986;39.0396;84.0396;0.00774241;-0.00103715;-0.00493485;0.00724751;0.00389485;0.0183489;0.0267515;0;0.0223096;0.0667324;-0.66695;-1.30311;1.46539;-7.87607;-0.00113525;0.000174312;0.00433481;0.00434036;-0.0011408;0.00274058;0.261891;3.81838;0.00333943;0.0036541;3.80467;0.262835;126.733;171.733;-0.00726326;-0.0011592;0.00730735;-0.00691989;0.00430824;0.0155726;0.0452891;0;0.0269524;6.37377;4.70388
378000;379;25.842;0.0842158;0.00326953;-2.17856;25.7341;-0.904551;0.00869687;0.0693649;-0.906993;0.0608154;-0.601217;-0.385218;0.716627;-6.93865;-0.000948385;0.00119667;0.0040066;0.00428047;-0.00122225;0.00275136;0.236706;4.22466;0.00333654;0.00366848;3.50212;0.285542;39.3323;84.3323;0.00747554;-0.00097359;-0.00483317;0.0071967;0.00399568;0.0179591;0.0254935;0;0.024826;0.0687804;-0.671016;-1.30516;1.46916;-7.87812;-0.000768931;0.000259759;0.0043906;0.00440364;-0.000781975;0.00259281;0.175131;5.71001;0.00322815;0.00345708;5.63143;0.177575;124.694;169.694;-0.00783614;-0.000791016;0.0072037;-0.00664853;0.0043648;0.0169691;0.0445745;0;0.0252651;6.41202;4.7111
379000;380;25.8431;0.0853944;0.00331529;-2.17863;25.7352;-0.905135;0.00862507;0.0705219;-0.907577;0.0619063;-0.603653;-0.385419;0.718872;-6.93885;-0.000901007;0.001375;0.00389518;0.00426141;-0.00126724;0.00276432;0.231314;4.32314;0.00334436;0.00368576;3.36275;0.297375;37.1904;82.1904;0.007916;-0.000927115;-0.00463124;0.0073525;0.00388544;0.0167041;0.0268702;0;0.0327897;0.0702694;-0.674697;-1.30608;1.47173;-7.87904;-0.000730273;0.000484389;0.00425187;0.00429853;-0.000776931;0.00253773;0.171753;5.8223;0.0031567;0.00338364;5.53271;0.180743;122.063;167.063;-0.00741099;-0.000749557;0.00722903;-0.00622681;0.00422597;0.0166153;0.0434123;0;0.0343065;6.46274;4.71739
380000;381;25.8442;0.0864649;0.00335685;-2.177;25.7365;-0.904109;0.0102554;0.0717708;-0.906551;0.0636319;-0.607221;-0.385187;0.721897;-6.93862;-0.00104573;0.0012882;0.00445141;0.00473832;-0.00133263;0.00303547;0.234921;4.25676;0.00368432;0.0040473;3.55561;0.281246;40.5017;85.5017;0.0079165;-0.00107111;-0.00469359;0.00723721;0.00444127;0.0167429;0.0254817;0;0.0349058;0.0728619;-0.67979;-1.30562;1.47379;-7.87858;-0.000490869;0.000662896;0.00433702;0.00442638;-0.000580234;0.00250331;0.113181;8.8354;0.00316213;0.00333775;7.62862;0.131085;119.224;164.224;-0.00758964;-0.000508847;0.00738956;-0.00603147;0.00431005;0.0184571;0.0430079;0;0.042589;6.52438;4.72531
381000;382;25.8473;0.0895713;0.00347745;-2.17582;25.7399;-0.899327;0.0114325;0.0751573;-0.901769;0.0653996;-0.609974;-0.388577;0.72618;-6.94201;-0.000872881;0.00153097;0.00472319;0.00511465;-0.00126434;0.00318949;0.184808;5.41103;0.00390013;0.00425266;4.04531;0.2472;39.5189;84.5189;0.00785061;-0.000900669;-0.00457943;0.00760728;0.00471392;0.0172286;0.025612;0;0.0351891;0.075175;-0.683791;-1.31007;1.4797;-7.88303;-0.000332336;0.000753984;0.00445318;0.00456917;-0.000448319;0.00250874;0.0746288;13.3996;0.00320602;0.00334499;10.1918;0.0981183;117.261;162.261;-0.00633992;-0.000348035;0.0071915;-0.00565289;0.00442772;0.0156311;0.0434307;0;0.0478906;6.5741;4.73176
382000;383;25.847;0.0892405;0.00346461;-2.17498;25.7395;-0.901924;0.0122696;0.074805;-0.904366;0.0665799;-0.612224;-0.392893;0.730491;-6.94632;-0.000978848;0.00148175;0.00501805;0.00536419;-0.00132499;0.00334459;0.195066;5.12648;0.00408997;0.00445945;4.04848;0.247006;41.0703;86.0703;0.00783313;-0.00100658;-0.00466279;0.00758957;0.00500832;0.0167467;0.0264009;0;0.0278901;0.0764884;-0.687189;-1.3114;1.48252;-7.88436;-0.000451157;0.000777225;0.00444284;0.0045633;-0.000571624;0.00256746;0.101547;9.84766;0.00324955;0.00342329;7.98305;0.125265;117.09;162.09;-0.00592915;-0.000465161;0.00693222;-0.0053478;0.00441922;0.0151133;0.0426485;0;0.0386804;6.61521;4.73892
383000;384;25.8481;0.0903989;0.00350958;-2.17506;25.7407;-0.900493;0.0121882;0.0760115;-0.902935;0.0673562;-0.614025;-0.395098;0.733257;-6.94853;-0.000917789;0.0014725;0.00560419;0.00592124;-0.00123483;0.00357804;0.163768;6.10619;0.00441702;0.00477071;4.79517;0.208543;43.4258;88.4258;0.00768388;-0.00094539;-0.00466567;0.00757081;0.00559445;0.0170367;0.0257966;0;0.0254436;0.0780137;-0.689628;-1.3149;1.48682;-7.88786;-0.000311999;0.000733915;0.00453429;0.00464299;-0.000420703;0.00253185;0.0688088;14.533;0.00324467;0.0033758;11.0363;0.0906104;116.813;161.813;-0.00573176;-0.000325616;0.00676604;-0.00526913;0.00451177;0.0148562;0.0429794;0;0.0383632;6.6515;4.74079
384000;385;25.8498;0.0920918;0.00357531;-2.17473;25.7424;-0.900384;0.0125258;0.0777438;-0.902826;0.068285;-0.6181;-0.396974;0.737766;-6.9504;-0.000918102;0.00170031;0.00559454;0.00601173;-0.00133529;0.00367351;0.164107;6.0936;0.00451916;0.00489802;4.50218;0.222114;41.393;86.393;0.00803239;-0.00094909;-0.00469126;0.00805042;0.00558504;0.0171534;0.0271741;0;0.0280166;0.0794635;-0.69425;-1.31651;1.49047;-7.88947;-0.000341796;0.00065947;0.00451489;0.00460284;-0.00042975;0.0025163;0.0757041;13.2093;0.00322138;0.00335506;10.7105;0.0933661;117.621;162.621;-0.00563799;-0.000355411;0.00660651;-0.00525884;0.00449338;0.0137104;0.0437159;0;0.0448415;6.69648;4.74656
385000;386;25.8515;0.0938109;0.00364205;-2.17491;25.7441;-0.900799;0.0123386;0.0794397;-0.903241;0.0696237;-0.620333;-0.398007;0.740318;-6.95144;-0.000990895;0.00156614;0.00577321;0.00611823;-0.00133592;0.00372707;0.171637;5.82626;0.0045894;0.00496943;4.5798;0.21835;42.9741;87.9741;0.00760272;-0.00102097;-0.00481975;0.00790902;0.00576288;0.0185612;0.0275128;0;0.0257601;0.0810598;-0.697318;-1.31745;1.49282;-7.89041;-0.000394893;0.000626947;0.00447276;0.00455221;-0.000474346;0.00251328;0.0882884;11.3265;0.00320465;0.00335104;9.59682;0.104201;118.081;163.081;-0.00567458;-0.00040828;0.00649349;-0.00521119;0.00445197;0.0150743;0.0446212;0;0.0388468;6.72565;4.75354
386000;387;25.8519;0.0941886;0.00365671;-2.17438;25.7445;-0.902305;0.0128775;0.0798117;-0.904747;0.0709488;-0.62252;-0.401285;0.744039;-6.95471;-0.00101426;0.00148069;0.0057611;0.00607056;-0.00132372;0.00369714;0.176053;5.68011;0.00455288;0.00492951;4.586;0.218055;43.3846;88.3846;0.0077131;-0.00104455;-0.00500173;0.00791938;0.00574975;0.0186766;0.0280438;0;0.0247011;0.0826436;-0.700519;-1.31909;1.49584;-7.89205;-0.000350358;0.000405733;0.00439486;0.00442931;-0.0003848;0.00240705;0.0797199;12.5439;0.00308914;0.0032094;11.5107;0.0868759;120.604;165.604;-0.00584138;-0.000365332;0.00632592;-0.0054865;0.00437502;0.0155981;0.0455108;0;0.0366189;6.7722;4.76109
387000;388;25.8525;0.0947614;0.00367895;-2.17337;25.7451;-0.904038;0.013881;0.0804109;-0.90648;0.0718078;-0.625915;-0.402318;0.74752;-6.95575;-0.000934165;0.00148425;0.00593019;0.00623738;-0.00124135;0.00373936;0.157527;6.34812;0.00462787;0.00498582;5.02466;0.199018;43.8667;88.8667;0.00793153;-0.000965096;-0.00507667;0.00800034;0.00591847;0.0191896;0.028635;0;0.0282294;0.0839488;-0.704563;-1.32096;1.49946;-7.89392;-0.000515876;0.000245327;0.00449501;0.00450699;-0.000527858;0.00251742;0.114766;8.71335;0.00319518;0.00335657;8.53826;0.11712;122.522;167.522;-0.00567192;-0.000530756;0.00597856;-0.00545931;0.00447725;0.0158721;0.0474263;0;0.0324211;6.80104;4.76892
388000;389;25.8527;0.0949561;0.00368651;-2.17405;25.7452;-0.904517;0.0131991;0.080532;-0.906959;0.0724597;-0.627747;-0.404321;0.750195;-6.95775;-0.00116147;0.00145134;0.00571113;0.00600505;-0.00145539;0.00373022;0.20337;4.91714;0.00456647;0.00497363;4.12607;0.242361;43.0402;88.0402;0.00813956;-0.00119345;-0.00526681;0.00812352;0.00569839;0.0188546;0.0288684;0;0.0290654;0.0847915;-0.707541;-1.32276;1.5025;-7.89572;-0.0005526;8.15029e-05;0.00461187;0.00461315;-0.000553886;0.00258352;0.119821;8.34576;0.00327571;0.00344469;8.32871;0.120067;124.343;169.343;-0.00577718;-0.000568804;0.00588454;-0.0056917;0.00459464;0.0161157;0.0480034;0;0.0293383;6.84358;4.77528
389000;390;25.8545;0.0967631;0.00375666;-2.17316;25.747;-0.908589;0.0140978;0.082279;-0.91103;0.0730935;-0.632513;-0.404486;0.754337;-6.95791;-0.00118524;0.00135313;0.00557384;0.00583466;-0.00144606;0.00364036;0.212643;4.70272;0.0044508;0.00485382;4.03487;0.24784;43.3996;88.3996;0.00795985;-0.00121574;-0.00526057;0.00792231;0.00556099;0.0191738;0.0288958;0;0.0307873;0.0859146;-0.713818;-1.32518;1.50765;-7.89814;-0.000553203;-8.29962e-05;0.00473077;0.00473207;-0.000554506;0.00264329;0.116937;8.5516;0.00335486;0.00352439;8.53385;0.11718;126.069;171.069;-0.00657513;-0.000571057;0.00583977;-0.00597461;0.0047138;0.0171889;0.0507633;0;0.0237445;6.90347;4.78268
390000;391;25.8547;0.0969325;0.00376324;-2.17421;25.747;-0.909957;0.0130447;0.0823119;-0.912399;0.0735324;-0.634614;-0.407647;0.757838;-6.96108;-0.00107135;0.00126604;0.00527907;0.00552216;-0.00131444;0.0034183;0.202943;4.9275;0.00418891;0.00455774;4.20114;0.238031;43.06;88.06;0.00789108;-0.00110144;-0.00536622;0.00785635;0.00526554;0.019071;0.0286908;0;0.0226603;0.0864136;-0.71712;-1.328;1.51173;-7.90097;-0.000559566;-0.00014784;0.00473006;0.00473419;-0.000563694;0.00264894;0.1183;8.45308;0.00335982;0.00353192;8.3985;0.119069;126.748;171.748;-0.00661895;-0.000577657;0.00575064;-0.00601526;0.00471361;0.0176367;0.0490037;0;0.0227929;6.90735;4.79012
391000;392;25.854;0.0962813;0.00373796;-2.1733;25.7464;-0.910707;0.0139489;0.0817078;-0.913148;0.0737421;-0.635511;-0.409033;0.759355;-6.96246;-0.00125252;0.00121638;0.00509397;0.00531912;-0.00147767;0.00339839;0.245883;4.06697;0.00412776;0.00453119;3.59967;0.277803;42.616;87.616;0.0081577;-0.00128298;-0.00550359;0.00789386;0.00507964;0.0190865;0.0288583;0;0.0233683;0.086718;-0.718439;-1.32972;1.51388;-7.90268;-0.000595777;-4.0138e-05;0.00478478;0.00478508;-0.000596076;0.00269058;0.124515;8.03117;0.00340618;0.00358744;8.02763;0.12457;125.743;170.743;-0.00662626;-0.000614065;0.00599821;-0.00604615;0.00476688;0.0180965;0.0501181;0;0.023332;6.91464;4.79065
392000;393;25.856;0.0982728;0.00381528;-2.17415;25.7484;-0.908416;0.0131045;0.0837173;-0.910858;0.0747756;-0.639116;-0.410316;0.763165;-6.96374;-0.00115594;0.00122878;0.00451164;0.00476659;-0.00141088;0.00308874;0.256213;3.90301;0.00373786;0.00411831;3.37844;0.295995;40.353;85.353;0.00828319;-0.00118696;-0.00554794;0.00796722;0.00449707;0.0186315;0.0291334;0;0.0307104;0.0878747;-0.723519;-1.33181;1.5182;-7.90477;-0.000507506;-9.96431e-05;0.00473119;0.00473309;-0.000509401;0.00262124;0.107268;9.32243;0.00333817;0.00349499;9.29148;0.107626;126.399;171.399;-0.00729438;-0.000526435;0.00598448;-0.00615204;0.00471338;0.0187795;0.0473311;0;0.0257797;6.98102;4.8012
393000;394;25.8575;0.0997287;0.0038718;-2.17419;25.75;-0.906201;0.0130638;0.0852539;-0.908643;0.075772;-0.642721;-0.409898;0.76606;-6.96333;-0.00145194;0.000905383;0.00411319;0.00425678;-0.00159553;0.00292615;0.352996;2.83289;0.00349334;0.00390154;2.66794;0.374821;41.7542;86.7542;0.0083932;-0.00147988;-0.00575107;0.0075249;0.00409713;0.018052;0.0286597;0;0.0281016;0.0891637;-0.728425;-1.33156;1.5204;-7.90452;-0.000650078;-0.000108369;0.00473793;0.00474011;-0.000652257;0.00269618;0.137207;7.28825;0.00339842;0.00359491;7.26725;0.137604;126.71;171.71;-0.00742816;-0.00066889;0.00594847;-0.00613272;0.00472033;0.0196037;0.0457446;0;0.0300407;7.00909;4.80733
394000;395;25.857;0.0992985;0.0038551;-2.17492;25.7493;-0.909598;0.0123287;0.0846401;-0.91204;0.076464;-0.646123;-0.412892;0.770586;-6.96632;-0.0014859;0.000833977;0.00377637;0.00390538;-0.00161491;0.00276014;0.393474;2.54147;0.00327731;0.00368019;2.41833;0.413509;41.2879;86.2879;0.00840864;-0.00151247;-0.00569759;0.00733127;0.00376055;0.0194728;0.028161;0;0.0232694;0.0895993;-0.733171;-1.33334;1.52426;-7.9063;-0.000551612;-7.21649e-05;0.00475689;0.00475787;-0.000552593;0.00265523;0.115961;8.62361;0.00337124;0.00354031;8.61008;0.116143;125.71;170.71;-0.00681855;-0.000568722;0.00573507;-0.00584871;0.00474052;0.018139;0.0449392;0;0.0316403;7.05449;4.8145
395000;396;25.8579;0.100157;0.00388844;-2.1745;25.7503;-0.907836;0.012751;0.0856003;-0.910278;0.0766899;-0.64851;-0.414012;0.773209;-6.96744;-0.00153935;0.000832957;0.00343353;0.00356934;-0.00167516;0.00262225;0.448328;2.23051;0.00309304;0.00349633;2.13075;0.469319;39.9528;84.9528;0.00881072;-0.00156613;-0.00572704;0.00736041;0.00341753;0.0182202;0.0288259;0;0.0291437;0.0900624;-0.736277;-1.33503;1.52726;-7.908;-0.000621772;3.50999e-05;0.00490584;0.00490607;-0.000621995;0.00276403;0.126741;7.8901;0.00349653;0.00368537;7.88763;0.126781;124.35;169.35;-0.00675625;-0.000638099;0.00581474;-0.00571275;0.00488902;0.0195033;0.045383;0;0.0412452;7.07958;4.82072
396000;397;25.8591;0.101344;0.0039345;-2.17437;25.7514;-0.909814;0.0128827;0.0867331;-0.912256;0.0773683;-0.6506;-0.417143;0.776708;-6.97057;-0.00147177;0.000858276;0.00336604;0.0035138;-0.00161952;0.00256666;0.437239;2.28708;0.00303024;0.00342221;2.16965;0.460903;39.4622;84.4622;0.00861036;-0.00149851;-0.00567389;0.00735891;0.00335037;0.0194532;0.029579;0;0.0293829;0.0906533;-0.739125;-1.33867;1.53185;-7.91163;-0.00069929;4.97814e-05;0.00488558;0.00488602;-0.000699733;0.00279288;0.143133;6.98649;0.00351389;0.00372384;6.98269;0.143211;124.56;169.56;-0.00632412;-0.000716055;0.00592097;-0.00578877;0.00486814;0.0189862;0.0460934;0;0.0445787;7.11728;4.82793
397000;398;25.8592;0.101442;0.00393832;-2.17484;25.7515;-0.909979;0.0124099;0.0867862;-0.912421;0.0777733;-0.654304;-0.414181;0.778272;-6.96761;-0.00145952;0.000697942;0.00301927;0.00312551;-0.00156576;0.00234564;0.483401;2.06867;0.00275796;0.00312752;1.99616;0.500962;39.8847;84.8847;0.00823044;-0.00148477;-0.00576813;0.00713511;0.00300293;0.020137;0.0287814;0;0.0259162;0.0912961;-0.742912;-1.33693;1.5322;-7.90989;-0.000726316;-7.81149e-06;0.00482617;0.00482618;-0.000726327;0.00277625;0.150495;6.64472;0.00348488;0.00370167;6.64463;0.150497;125.169;170.169;-0.0060951;-0.000742778;0.00575194;-0.00573573;0.0048097;0.0188199;0.0454409;0;0.0463519;7.14246;4.83441
398000;399;25.8589;0.101122;0.00392587;-2.1744;25.751;-0.916377;0.0128491;0.0862744;-0.918819;0.0786615;-0.657064;-0.414572;0.780892;-6.968;-0.00147911;0.00078686;0.00249096;0.00264123;-0.00162938;0.0021353;0.593793;1.68409;0.0024886;0.00284707;1.621;0.616903;36.542;81.542;0.00857638;-0.00150454;-0.0056213;0.00716961;0.00247551;0.0191736;0.0309569;0;0.0306589;0.0922699;-0.74625;-1.33801;1.53482;-7.91097;-0.000776321;-7.41791e-05;0.00499255;0.0049935;-0.000777275;0.00288539;0.155496;6.43103;0.00361605;0.00384718;6.42437;0.155657;125.638;170.638;-0.00593615;-0.000793417;0.00573049;-0.00584552;0.00497621;0.0188789;0.0451539;0;0.0514867;7.18227;4.84177
399000;400;25.8609;0.103211;0.00400698;-2.17411;25.7532;-0.914195;0.0131458;0.0884748;-0.916637;0.0792633;-0.660059;-0.416232;0.784353;-6.96966;-0.00157105;0.000640138;0.00221559;0.00232088;-0.00167634;0.00199861;0.709089;1.41026;0.00231777;0.00266481;1.38449;0.722286;37.1684;82.1684;0.00852018;-0.00159642;-0.00589072;0.0071463;0.00219848;0.020001;0.030942;0;0.0319118;0.0931058;-0.749751;-1.33978;1.53812;-7.91274;-0.000824396;-7.21455e-05;0.00504081;0.0050417;-0.000825284;0.00293349;0.163544;6.11455;0.00366731;0.00391132;6.10905;0.163692;125.83;170.83;-0.00565978;-0.000842338;0.00587863;-0.00598819;0.00502362;0.0182357;0.0454071;0;0.0527843;7.21466;4.84879
400000;401;25.8609;0.103126;0.0040037;-2.17391;25.753;-0.918243;0.0133437;0.0882627;-0.920685;0.0797665;-0.663212;-0.414254;0.786015;-6.96768;-0.00165532;0.000635431;0.00260732;0.00270002;-0.00174803;0.00222403;0.634876;1.57511;0.00258762;0.00296537;1.54461;0.647413;38.9125;83.9125;0.00874525;-0.00167994;-0.0057963;0.0070398;0.00259076;0.0190591;0.0302239;0;0.027912;0.0935738;-0.753139;-1.33912;1.53922;-7.91208;-0.000938769;-0.000166715;0.00495997;0.00496468;-0.000943477;0.00295408;0.189269;5.28348;0.00366499;0.00393877;5.26211;0.190038;127.169;172.169;-0.00527276;-0.000957291;0.00578718;-0.00608566;0.00494332;0.0183926;0.04595;0;0.0447026;7.24032;4.85673
401000;402;25.8614;0.103694;0.00402576;-2.17397;25.7534;-0.921875;0.0132868;0.0886987;-0.924317;0.0806481;-0.665915;-0.416969;0.789816;-6.9704;-0.00153612;0.00061701;0.00292029;0.00300414;-0.00161997;0.00231205;0.526018;1.90108;0.00270931;0.00308274;1.85444;0.539248;40.387;85.387;0.00881588;-0.0015613;-0.00591285;0.00711783;0.00290305;0.0197484;0.0300839;0;0.0296651;0.0945158;-0.756411;-1.34368;1.54485;-7.91664;-0.00110009;-0.000339726;0.00509963;0.00511819;-0.00111865;0.00311842;0.21572;4.63565;0.00383972;0.0041579;4.57532;0.218564;128.702;173.702;-0.00541918;-0.00111954;0.005599;-0.0062418;0.0050841;0.0178223;0.0474998;0;0.0398645;7.27709;4.86334
402000;403;25.8624;0.104667;0.00406351;-2.17277;25.7545;-0.922571;0.014479;0.0897507;-0.925013;0.0813331;-0.668503;-0.419914;0.793624;-6.97334;-0.00156456;0.000457049;0.00305116;0.00309598;-0.00160938;0.00235268;0.512776;1.95017;0.00276147;0.00313691;1.92371;0.51983;42.7201;87.7201;0.00836274;-0.0015891;-0.0061313;0.00701506;0.00303253;0.0194876;0.0302561;0;0.0354677;0.0951949;-0.759913;-1.34779;1.55019;-7.92076;-0.00123268;-0.00051639;0.00515768;0.00519914;-0.00127413;0.00323664;0.238998;4.18414;0.00395974;0.00431552;4.08053;0.245066;130.622;175.622;-0.0054343;-0.00125454;0.00563575;-0.00662939;0.00514202;0.0183434;0.0473507;0;0.0380696;7.3106;4.87099
403000;404;25.8643;0.106588;0.0041381;-2.17279;25.7564;-0.920607;0.0144654;0.0917493;-0.923049;0.0818213;-0.6705;-0.420898;0.795877;-6.97433;-0.00173372;0.000463397;0.00319949;0.00324265;-0.00177687;0.00250976;0.541873;1.84545;0.00293892;0.00334634;1.82492;0.547969;42.9393;87.9393;0.00873779;-0.00175855;-0.00616254;0.00705673;0.00318067;0.01955;0.0318945;0;0.0258974;0.0957538;-0.763002;-1.34924;1.55299;-7.9222;-0.00134769;-0.00060819;0.00535477;0.00540951;-0.00140243;0.00340597;0.251681;3.97329;0.00415351;0.0045413;3.85723;0.259253;131.064;176.064;-0.00562148;-0.00137043;0.00559177;-0.00676679;0.0053394;0.0179644;0.0460353;0;0.0278643;7.32936;4.87744
404000;405;25.8666;0.108819;0.0042247;-2.17372;25.7586;-0.92044;0.0135304;0.0939163;-0.922882;0.0821061;-0.673531;-0.420884;0.798454;-6.97431;-0.00172373;0.000750977;0.00297049;0.00308771;-0.00184095;0.00246433;0.580285;1.72329;0.00287575;0.00328577;1.67724;0.596218;38.8534;83.8534;0.00898193;-0.00175173;-0.00604439;0.00751451;0.00295256;0.0192881;0.0320633;0;0.0264379;0.0961707;-0.766961;-1.35162;1.55704;-7.92458;-0.00135791;-0.000681238;0.00546253;0.00552991;-0.00142529;0.0034776;0.248586;4.02276;0.00424228;0.0046368;3.87986;0.257741;131.467;176.467;-0.00547577;-0.00138161;0.00559432;-0.0069142;0.0054472;0.0197022;0.0454652;0;0.0241976;7.37138;4.88548
405000;406;25.8671;0.109333;0.00424465;-2.17321;25.7591;-0.923131;0.01404;0.0943792;-0.925573;0.0828389;-0.676013;-0.42286;0.801664;-6.97629;-0.0015358;0.000556998;0.00279087;0.00286142;-0.00160636;0.00223389;0.550295;1.81721;0.00261318;0.00297852;1.78131;0.561383;40.4919;85.4919;0.00880213;-0.00156311;-0.00632121;0.00740551;0.0027711;0.0194972;0.0337088;0;0.027139;0.0969751;-0.770521;-1.35507;1.56183;-7.92803;-0.00149508;-0.000632256;0.00550088;0.00555756;-0.00155176;0.00355466;0.27179;3.67932;0.0043163;0.00473955;3.58145;0.279217;131.253;176.253;-0.00575849;-0.00151904;0.0057261;-0.00694635;0.00548477;0.0192227;0.0453111;0;0.0224238;7.3954;4.88902
406000;407;25.8677;0.10994;0.00426824;-2.17252;25.7597;-0.925236;0.0147315;0.094972;-0.927678;0.0831826;-0.678548;-0.421534;0.803143;-6.97496;-0.00144462;0.000516634;0.00342189;0.00347613;-0.00149886;0.0024875;0.42217;2.36871;0.00294696;0.00331666;2.31918;0.431187;43.2006;88.2006;0.00872206;-0.00147169;-0.00637112;0.00737096;0.0034018;0.0203924;0.0331129;0;0.0251119;0.0973438;-0.774179;-1.3547;1.56334;-7.92766;-0.00154598;-0.000671332;0.00569185;0.00575359;-0.00160772;0.00368066;0.271613;3.68171;0.00446909;0.00490754;3.57872;0.279429;131.112;176.112;-0.0059789;-0.00157026;0.00569873;-0.00699552;0.00567593;0.0194972;0.0460281;0;0.022363;7.42298;4.89315
407000;408;25.8705;0.112758;0.00437764;-2.17335;25.7625;-0.923171;0.0139013;0.0978058;-0.925613;0.0838469;-0.68164;-0.422709;0.806441;-6.97614;-0.00159831;0.000434883;0.00346016;0.00349727;-0.00163542;0.00256635;0.461917;2.16489;0.00302765;0.0034218;2.13845;0.467628;44.0077;89.0077;0.00844894;-0.00162582;-0.00659003;0.00742437;0.00343861;0.0218668;0.0319577;0;0.0291416;0.0980677;-0.778617;-1.3573;1.56784;-7.93026;-0.00150961;-0.000700792;0.00578405;0.00585077;-0.00157634;0.00371355;0.260996;3.83148;0.00451856;0.0049514;3.71163;0.269424;131.205;176.205;-0.00674052;-0.00153499;0.00579827;-0.00715269;0.00576758;0.020483;0.0445728;0;0.0283276;7.46299;4.90067
408000;409;25.8704;0.112623;0.00437241;-2.17217;25.7624;-0.92537;0.015078;0.0976909;-0.927812;0.0843891;-0.684471;-0.422428;0.808745;-6.97586;-0.00150992;0.000580201;0.00323553;0.00330543;-0.00157983;0.00244263;0.46667;2.14284;0.00287856;0.00325684;2.09227;0.47795;41.7317;86.7317;0.00855466;-0.0015386;-0.00646309;0.00759015;0.00321487;0.0222029;0.0324813;0;0.0239444;0.0988529;-0.782179;-1.35941;1.57149;-7.93237;-0.00154432;-0.000635999;0.00581468;0.00586924;-0.00159888;0.00373406;0.265589;3.76521;0.00454061;0.00497875;3.67085;0.272416;130.802;175.802;-0.0066507;-0.00156996;0.00596083;-0.00718453;0.00579722;0.0203747;0.0432017;0;0.029037;7.48465;4.90782
409000;410;25.871;0.113311;0.00439911;-2.17206;25.7631;-0.924188;0.0151926;0.0984335;-0.92663;0.0852284;-0.6869;-0.42419;0.811808;-6.97762;-0.00155347;0.00032991;0.00295265;0.00297668;-0.00157749;0.00227709;0.526126;1.90069;0.0026704;0.00303611;1.88697;0.529951;43.7813;88.7813;0.00845576;-0.00158036;-0.00670703;0.00733522;0.00293028;0.0226123;0.0344029;0;0.0219418;0.0993648;-0.785894;-1.36119;1.57491;-7.93415;-0.00144116;-0.000582004;0.00593491;0.00598055;-0.0014868;0.00373368;0.242828;4.11814;0.00456409;0.00497824;4.02243;0.248606;129.565;174.565;-0.00626943;-0.00146453;0.00573799;-0.00685563;0.00591871;0.0199136;0.0427915;0;0.0334474;7.51747;4.91546
410000;411;25.8712;0.113444;0.00440425;-2.17319;25.7632;-0.924102;0.0140657;0.0984747;-0.926544;0.0851357;-0.689674;-0.423539;0.813809;-6.97697;-0.00175895;0.000425202;0.00349327;0.00352747;-0.00179315;0.00266031;0.503525;1.986;0.00312578;0.00354708;1.96719;0.508339;43.9954;88.9954;0.00869286;-0.00178693;-0.00667379;0.00748702;0.00347116;0.0213378;0.0325355;0;0.0231803;0.0996681;-0.789397;-1.36221;1.57756;-7.93517;-0.00150871;-0.000418476;0.00595835;0.00598173;-0.00153209;0.00375691;0.253209;3.94931;0.00458466;0.00500921;3.9043;0.256128;128.682;173.682;-0.00602473;-0.0015326;0.00613139;-0.00691971;0.00593975;0.0201614;0.0425684;0;0.0386146;7.54273;4.9226
411000;412;25.8705;0.112787;0.00437877;-2.17265;25.7625;-0.926844;0.0145995;0.097762;-0.929286;0.0862958;-0.693024;-0.425367;0.81772;-6.9788;-0.00181897;0.000337456;0.00276951;0.0027942;-0.00184366;0.00231893;0.656784;1.52257;0.00269635;0.0030919;1.51557;0.659816;42.8497;87.8497;0.00833578;-0.00184603;-0.00671419;0.00735682;0.00274709;0.0228117;0.0316645;0;0.0304314;0.100821;-0.79336;-1.36549;1.58245;-7.93845;-0.00136321;-0.000450158;0.00602101;0.00604836;-0.00139056;0.00371946;0.226409;4.41678;0.00456688;0.00495927;4.3496;0.229906;128.126;173.126;-0.00570164;-0.0013853;0.00580182;-0.00665623;0.00600438;0.021731;0.0414851;0;0.048596;7.57758;4.93038
412000;413;25.871;0.113294;0.00439846;-2.17209;25.763;-0.927952;0.0151602;0.0982787;-0.930394;0.0866839;-0.695425;-0.426381;0.820323;-6.97981;-0.00172198;0.000446999;0.00314853;0.00318921;-0.00176266;0.00247594;0.546914;1.82844;0.00289824;0.00330125;1.80932;0.552694;42.758;87.758;0.00910417;-0.00175052;-0.00670266;0.00756192;0.00312624;0.0212529;0.0311241;0;0.0317978;0.101379;-0.796499;-1.36703;1.58539;-7.93999;-0.00137474;-0.000357956;0.00601948;0.00603677;-0.00139203;0.0037144;0.228381;4.37864;0.00455991;0.00495253;4.33668;0.230591;127.523;172.523;-0.00542613;-0.00139661;0.00594883;-0.00661837;0.00600196;0.0196438;0.0425216;0;0.0552731;7.60606;4.938
413000;414;25.8725;0.114786;0.00445636;-2.17271;25.7645;-0.924565;0.0145447;0.0998463;-0.927007;0.0864554;-0.696505;-0.431717;0.823999;-6.98515;-0.00169939;0.000193299;0.0027443;0.00275269;-0.00170778;0.00223023;0.619243;1.61488;0.0025987;0.00297365;1.61185;0.620404;44.7349;89.7349;0.00833794;-0.00172552;-0.00687099;0.00722627;0.00272077;0.0229152;0.0306821;0;0.0229969;0.101517;-0.798755;-1.37159;1.59047;-7.94455;-0.0013794;-0.000390006;0.00605985;0.00608024;-0.00139979;0.00374001;0.227629;4.39311;0.00459177;0.00498668;4.34369;0.230219;127.592;172.592;-0.00522241;-0.00140108;0.00585845;-0.00659224;0.00604287;0.0184959;0.0427882;0;0.0484354;7.62856;4.94547
414000;415;25.8712;0.113486;0.00440589;-2.17232;25.7629;-0.935185;0.0149349;0.0981903;-0.937627;0.0876112;-0.701011;-0.427454;0.825717;-6.98088;-0.00173987;0.000200317;0.00228791;0.00229785;-0.00174981;0.00202383;0.760463;1.31499;0.00234405;0.00269844;1.3132;0.761499;43.3777;88.3777;0.00849158;-0.00176589;-0.00683715;0.00720949;0.00226461;0.0227799;0.0308794;0;0.0276984;0.102527;-0.802977;-1.37086;1.59203;-7.94383;-0.00140727;-0.000301786;0.00618062;0.0061926;-0.00141925;0.00380592;0.22769;4.39193;0.00467387;0.00507457;4.36329;0.229185;127.017;172.017;-0.00502303;-0.00142988;0.00617212;-0.00672686;0.00616173;0.0177094;0.0435586;0;0.0501969;7.66274;4.95228
415000;416;25.8716;0.113908;0.00442229;-2.17112;25.7633;-0.937808;0.016133;0.0986202;-0.94025;0.0883747;-0.702945;-0.42998;0.828749;-6.98341;-0.00186978;0.000162607;0.00219464;0.00220114;-0.00187628;0.00203871;0.851978;1.17374;0.00235659;0.00271828;1.17314;0.852415;43.4847;88.4847;0.00877435;-0.00189475;-0.00676381;0.00706092;0.00217183;0.0214546;0.029084;0;0.0229638;0.103453;-0.805742;-1.37472;1.59681;-7.94768;-0.0014238;-0.000302977;0.00623481;0.00624678;-0.00143577;0.00384127;0.228363;4.379;0.00471652;0.0051217;4.35083;0.229841;126.852;171.852;-0.00515592;-0.00144605;0.00611633;-0.00667342;0.00621627;0.0177586;0.0450834;0;0.0419657;7.68744;4.95788
416000;417;25.8736;0.115878;0.00449876;-2.17147;25.7652;-0.938659;0.0157794;0.100538;-0.941101;0.0892462;-0.705032;-0.430772;0.831023;-6.9842;-0.00186706;0.000136238;0.00216792;0.00217251;-0.00187166;0.00202208;0.861224;1.16114;0.00233705;0.00269611;1.16074;0.861517;43.789;88.789;0.00866323;-0.001892;-0.00681297;0.00705746;0.00214477;0.0218608;0.0295652;0;0.0256575;0.104382;-0.80883;-1.37638;1.59985;-7.94934;-0.00154453;-0.000293522;0.00633248;0.0063434;-0.00155545;0.00394942;0.243906;4.09994;0.00483161;0.0052659;4.07818;0.245208;126.714;171.714;-0.00525293;-0.00156648;0.00609017;-0.00662724;0.00631409;0.0165794;0.0448195;0;0.0387163;7.71391;4.96353
417000;418;25.8741;0.116355;0.00451727;-2.17199;25.7654;-0.944996;0.0152647;0.100741;-0.947438;0.0897201;-0.707928;-0.432191;0.834267;-6.98562;-0.0019747;0.000109433;0.00229595;0.00229876;-0.00197751;0.00213813;0.86008;1.16268;0.00247122;0.00285084;1.16245;0.86025;44.3122;89.3122;0.00824041;-0.00199811;-0.00664625;0.00683633;0.00227392;0.0230404;0.0297129;0;0.0197555;0.105004;-0.812935;-1.37977;1.60489;-7.95273;-0.00154251;-0.000458551;0.00665727;0.00668284;-0.00156807;0.00412546;0.231703;4.31587;0.00505957;0.00550061;4.26181;0.234642;127.115;172.115;-0.00555052;-0.00156542;0.00591463;-0.0067798;0.00664;0.0167034;0.0442169;0;0.0265129;7.7456;4.967
418000;419;25.8749;0.117195;0.00454989;-2.17175;25.7662;-0.948696;0.0155027;0.101469;-0.951138;0.0907309;-0.710684;-0.431196;0.836202;-6.98462;-0.00191712;0.000293534;0.00261643;0.00263535;-0.00193605;0.0022857;0.732725;1.36477;0.00264957;0.0030476;1.3612;0.734644;42.8771;87.8771;0.00849232;-0.00194228;-0.00653721;0.00709338;0.00259516;0.0222931;0.0297679;0;0.0252814;0.105975;-0.816797;-1.38069;1.6077;-7.95365;-0.00151571;-0.000480337;0.00692141;0.00694867;-0.00154297;0.00424582;0.218989;4.56644;0.0052233;0.00566109;4.50344;0.222053;126.633;171.633;-0.005543;-0.00153885;0.00590785;-0.00681498;0.0069042;0.0162535;0.0451917;0;0.0257356;7.77042;4.9746
419000;420;25.8773;0.119614;0.00464381;-2.17111;25.7687;-0.946468;0.0161472;0.104035;-0.94891;0.0916768;-0.713418;-0.431841;0.838962;-6.98527;-0.00183624;0.000197705;0.00235467;0.00236397;-0.00184554;0.00210476;0.779829;1.28233;0.0024365;0.00280634;1.28091;0.780695;43.504;88.504;0.00808103;-0.00186018;-0.00654953;0.00691672;0.00233329;0.0223315;0.0297941;0;0.02569;0.106975;-0.821397;-1.38251;1.61167;-7.95547;-0.00154088;-0.000407868;0.00711422;0.0071334;-0.00156006;0.00434673;0.216591;4.617;0.00535196;0.00579564;4.57253;0.218697;125.802;170.802;-0.00545422;-0.00156373;0.00600739;-0.00676798;0.00709639;0.0152552;0.0444654;0;0.0225448;7.80818;4.98122
420000;421;25.8794;0.121697;0.00472468;-2.17141;25.7707;-0.949947;0.0158434;0.105973;-0.952389;0.0920402;-0.7149;-0.431519;0.840096;-6.98495;-0.00173843;0.000346199;0.00267396;0.00270095;-0.00176543;0.00223319;0.650135;1.53814;0.00259746;0.00297759;1.52991;0.653632;42.6283;87.6283;0.00831584;-0.00176328;-0.00638933;0.00705207;0.00265366;0.0220375;0.0311023;0;0.0276752;0.107551;-0.823945;-1.38322;1.61362;-7.95618;-0.00150481;-0.000367082;0.00731986;0.00733511;-0.00152005;0.00442758;0.205579;4.86431;0.00546765;0.00590344;4.82556;0.20723;124.698;169.698;-0.00583679;-0.00152611;0.00585254;-0.00653221;0.00730293;0.0148503;0.0460384;0;0.0215153;7.81897;4.98867
421000;422;25.8804;0.122711;0.00476404;-2.17101;25.7716;-0.953578;0.0162461;0.106891;-0.95602;0.0924542;-0.71845;-0.429297;0.84203;-6.98272;-0.00179611;0.000330045;0.00245661;0.00248208;-0.00182157;0.00215182;0.731133;1.36774;0.00249445;0.0028691;1.3626;0.733891;42.0953;87.0953;0.00852595;-0.00182073;-0.00638636;0.00701794;0.00243633;0.0209557;0.0311141;0;0.0316155;0.108171;-0.829235;-1.38274;1.61595;-7.9557;-0.00139414;-0.000362575;0.00769199;0.00770643;-0.00140858;0.00455751;0.181246;5.51737;0.00566582;0.00607668;5.47105;0.18278;123.719;168.719;-0.006155;-0.00141548;0.00586918;-0.00653812;0.00767496;0.014996;0.0464193;0;0.025212;7.85836;4.99628
422000;423;25.8841;0.126353;0.00490546;-2.17026;25.7753;-0.953133;0.0169921;0.110628;-0.955574;0.0929877;-0.721212;-0.429204;0.844399;-6.98263;-0.00170827;0.000623124;0.00329227;0.00336875;-0.00178475;0.00257675;0.518873;1.92725;0.00302186;0.00343566;1.88752;0.529796;41.4871;86.4871;0.00869692;-0.00173457;-0.00606016;0.00727307;0.00327416;0.0199394;0.0311995;0;0.0298945;0.108939;-0.834011;-1.38433;1.61982;-7.95729;-0.00142213;-0.000198135;0.00774149;0.00774577;-0.00142641;0.00458609;0.183702;5.4436;0.00569913;0.00611479;5.43026;0.184153;122.348;167.348;-0.00629506;-0.00144149;0.00588101;-0.00622199;0.00772435;0.0152928;0.047012;0;0.0277881;7.88243;5.00363
423000;424;25.8865;0.128766;0.00499912;-2.17001;25.778;-0.947187;0.0172385;0.113291;-0.949629;0.093764;-0.724589;-0.426194;0.84585;-6.97962;-0.00189993;0.000441197;0.00355929;0.00359472;-0.00193535;0.00276504;0.533794;1.87338;0.00324035;0.00368671;1.8574;0.538388;44.0786;89.0786;0.00838003;-0.00192466;-0.00619416;0.00704044;0.00354027;0.0206747;0.0292903;0;0.035413;0.109723;-0.838963;-1.38252;1.62088;-7.95548;-0.00142482;3.59416e-05;0.00790402;0.00790416;-0.00142496;0.00466456;0.180265;5.54737;0.00580304;0.00621941;5.54693;0.18028;120.641;165.641;-0.00660791;-0.00144292;0.00614036;-0.00601198;0.00788532;0.0142423;0.0469971;0;0.0340402;7.91909;5.01059
424000;425;25.8889;0.131203;0.00509375;-2.16974;25.7805;-0.946854;0.0175178;0.115774;-0.949296;0.0950575;-0.725194;-0.42917;0.848015;-6.9826;-0.00173973;0.000474925;0.00362692;0.00366863;-0.00178144;0.00272503;0.479672;2.08476;0.00320886;0.00363338;2.05936;0.485587;44.14;89.14;0.00813749;-0.00176464;-0.00615296;0.00706735;0.00360817;0.0204928;0.0284096;0;0.0351755;0.111104;-0.842225;-1.38518;1.62493;-7.95814;-0.00136898;0.00022475;0.00783693;0.00784242;-0.00137446;0.00460844;0.174683;5.72466;0.00574153;0.00614459;5.70581;0.17526;118.828;163.828;-0.00636835;-0.0013841;0.00600326;-0.00550098;0.00781908;0.013433;0.0457101;0;0.0386147;7.92271;5.0183
425000;426;25.8919;0.134187;0.0052096;-2.16953;25.7838;-0.939058;0.0177204;0.119073;-0.941499;0.0962754;-0.72622;-0.434717;0.851847;-6.98814;-0.00162411;0.000775768;0.00425136;0.00435207;-0.00172481;0.00303844;0.382021;2.61766;0.00361614;0.00405125;2.52321;0.396321;43.3728;88.3728;0.00862431;-0.00165053;-0.00579159;0.00730467;0.00423496;0.0185394;0.0288029;0;0.028328;0.112482;-0.845464;-1.38991;1.63074;-7.96287;-0.00118384;0.000505658;0.00791864;0.00794664;-0.00121185;0.00457925;0.149501;6.68893;0.00574448;0.00610566;6.55747;0.152498;116.421;161.421;-0.0055071;-0.00119704;0.00622216;-0.00515923;0.00789956;0.0138166;0.044449;0;0.0380482;7.95808;5.02538
426000;427;25.8941;0.136415;0.00529607;-2.16921;25.7862;-0.934141;0.0180451;0.121515;-0.936583;0.0968534;-0.728446;-0.436178;0.854556;-6.98961;-0.0015544;0.000699129;0.00497288;0.00504692;-0.00162844;0.00333768;0.312575;3.19924;0.00401895;0.00445024;3.09924;0.32266;46.3531;91.3531;0.0085104;-0.00158041;-0.00588517;0.00724064;0.00495589;0.0196313;0.0298277;0;0.0315374;0.113535;-0.849826;-1.3906;1.63367;-7.96356;-0.00098294;0.000674237;0.007993;0.00804336;-0.0010333;0.00453833;0.122975;8.13173;0.00573777;0.00605111;7.78413;0.128467;114.441;159.441;-0.00540431;-0.000994389;0.00622806;-0.00483015;0.00797398;0.0128417;0.0440611;0;0.0504895;7.98024;5.03327
427000;428;25.8951;0.137346;0.00533223;-2.16894;25.7869;-0.942465;0.018317;0.122171;-0.944907;0.0961886;-0.731031;-0.432775;0.854957;-6.9862;-0.00161614;0.000698197;0.0050447;0.0051171;-0.00168854;0.00340282;0.320365;3.12144;0.00409207;0.00453709;3.03048;0.32998;46.4729;91.4729;0.00801138;-0.00164233;-0.00591164;0.0072642;0.00502756;0.0188005;0.029417;0;0.0224589;0.113407;-0.854545;-1.38753;1.6335;-7.96049;-0.00103873;0.000663111;0.00818399;0.00823143;-0.00108616;0.00465879;0.126922;7.87886;0.00588319;0.00621173;7.57845;0.131953;114.589;159.589;-0.00479362;-0.00105069;0.00631148;-0.00493361;0.00816445;0.0122236;0.046667;0;0.0362198;8.00478;5.03837
428000;429;25.8986;0.140891;0.00546985;-2.1689;25.7905;-0.939925;0.0183479;0.125826;-0.942367;0.0974148;-0.732073;-0.438516;0.858904;-6.99194;-0.00142149;0.000884701;0.00555688;0.00566729;-0.0015319;0.0035996;0.255806;3.90921;0.00437907;0.00479946;3.69952;0.270305;46.659;91.659;0.00862651;-0.00144914;-0.00576077;0.00748402;0.00554077;0.0179596;0.0287839;0;0.0254914;0.114704;-0.858379;-1.39271;1.64001;-7.96567;-0.00103182;0.000649019;0.00838494;0.00842946;-0.00107634;0.0047529;0.123056;8.1264;0.00601063;0.0063372;7.83162;0.127687;114.464;159.464;-0.00453118;-0.00104403;0.00633403;-0.00498292;0.00836526;0.0116962;0.0462228;0;0.0408707;8.01873;5.04167
429000;430;25.9013;0.143591;0.00557467;-2.16786;25.793;-0.947861;0.0193884;0.128334;-0.950303;0.0984563;-0.733634;-0.43769;0.859933;-6.99112;-0.00141538;0.000840112;0.00578772;0.00588441;-0.00151207;0.00369824;0.244549;4.08916;0.00451222;0.00493098;3.89163;0.256962;47.7187;92.7187;0.00838162;-0.00144247;-0.00577046;0.00740331;0.00577152;0.0186741;0.0301249;0;0.0246364;0.116061;-0.862286;-1.39267;1.64212;-7.96563;-0.00105431;0.000597487;0.00871938;0.00875577;-0.0010907;0.00492323;0.120916;8.27023;0.00623264;0.00656431;8.02766;0.124569;114.329;159.329;-0.00536189;-0.00106676;0.00627304;-0.00502309;0.00870005;0.0117529;0.0490819;0;0.0382907;8.0491;5.0482
430000;431;25.9048;0.147069;0.0057097;-2.16895;25.7961;-0.956514;0.0183074;0.131416;-0.958956;0.0985787;-0.735744;-0.439464;0.86265;-6.99289;-0.00147444;0.000952866;0.00594163;0.0060621;-0.00159491;0.00382851;0.248154;4.02976;0.00466482;0.00510467;3.8009;0.263096;47.2342;92.2342;0.00821236;-0.00150244;-0.00568113;0.00753791;0.00592603;0.0193215;0.0292191;0;0.0296366;0.116435;-0.867314;-1.39589;1.64751;-7.96885;-0.00113482;0.000408622;0.0093128;0.00932876;-0.00115078;0.00523977;0.121856;8.20639;0.00663611;0.00698636;8.10646;0.123358;114.545;159.545;-0.00473466;-0.00114799;0.00601984;-0.00514452;0.00929493;0.0112886;0.0485342;0;0.038386;8.07087;5.05563
431000;432;25.9098;0.152089;0.00590461;-2.16944;25.8013;-0.95189;0.0178164;0.136588;-0.954331;0.0998967;-0.737286;-0.437446;0.863093;-6.99087;-0.00138677;0.00118204;0.00607206;0.0062549;-0.00156961;0.00391226;0.228386;4.37856;0.00477983;0.00521634;3.98499;0.250941;45.8226;90.8226;0.00845829;-0.00141775;-0.00564048;0.00795392;0.00605694;0.0184071;0.0294902;0;0.0339274;0.117865;-0.871976;-1.39308;1.6477;-7.96604;-0.00132483;0.000304575;0.00993296;0.0099412;-0.00133307;0.00563713;0.133377;7.49753;0.00711358;0.00751618;7.45739;0.134095;114.419;159.419;-0.00504952;-0.00133834;0.00587487;-0.00520363;0.00991592;0.0112406;0.0504279;0;0.0394987;8.08658;5.06343
432000;433;25.9141;0.156319;0.00606883;-2.17021;25.8052;-0.958009;0.0170448;0.140544;-0.960451;0.0998565;-0.739072;-0.441526;0.866686;-6.99495;-0.00148597;0.00103414;0.00635906;0.00649309;-0.00162;0.00405655;0.233678;4.27939;0.00495775;0.00540873;4.00808;0.249496;47.652;92.652;0.00801064;-0.00151554;-0.00573837;0.0077538;0.00634323;0.0201295;0.0284283;0;0.0432444;0.117876;-0.877359;-1.39925;1.65576;-7.97221;-0.00145626;0.00042492;0.0104898;0.0105049;-0.00147135;0.00598813;0.138826;7.20328;0.00754172;0.00798418;7.13963;0.140063;113.182;158.182;-0.00557664;-0.00146894;0.00596687;-0.00505153;0.0104723;0.0141182;0.0515163;0;0.0364058;8.10816;5.07024
433000;434;25.9173;0.159543;0.00619399;-2.1688;25.8089;-0.950542;0.0184499;0.144176;-0.952984;0.0999384;-0.740222;-0.438736;0.86626;-6.99216;-0.0014729;0.00100522;0.00656158;0.00668543;-0.00159676;0.0041411;0.224473;4.45487;0.00507366;0.00552146;4.18689;0.238841;48.4861;93.4861;0.00823335;-0.00150189;-0.00571779;0.00767451;0.00654584;0.018842;0.0284077;0;0.0338063;0.118243;-0.882259;-1.39615;1.65577;-7.96911;-0.00155701;0.000537446;0.0110992;0.011122;-0.00157979;0.00635087;0.140281;7.12853;0.00799344;0.00846783;7.04015;0.142042;111.839;156.839;-0.00593514;-0.00156874;0.00601312;-0.0048697;0.0110814;0.0160768;0.0512448;0;0.030656;8.12237;5.07752
434000;435;25.9224;0.16464;0.00639186;-2.16856;25.8142;-0.945192;0.018689;0.14951;-0.947633;0.100915;-0.742472;-0.438416;0.868134;-6.99184;-0.00131208;0.00117794;0.0066393;0.00681014;-0.00148291;0.00414653;0.197623;5.06013;0.00510668;0.0055287;4.5924;0.217751;47.5824;92.5824;0.00793717;-0.00134288;-0.00562853;0.00793059;0.00662426;0.0194678;0.0281711;0;0.0339925;0.119578;-0.888681;-1.39605;1.65922;-7.96901;-0.00169115;0.000678741;0.0115054;0.0115402;-0.00172597;0.00663308;0.146988;6.80327;0.00832861;0.00884411;6.6862;0.149562;110.096;155.096;-0.00624608;-0.0017007;0.00584411;-0.00441926;0.0114887;0.0174767;0.0521115;0;0.0323981;8.14524;5.0846
435000;436;25.9257;0.167917;0.00651907;-2.1675;25.8176;-0.944561;0.0197487;0.152913;-0.947003;0.101599;-0.742587;-0.440207;0.869218;-6.99363;-0.00130732;0.00119225;0.00658346;0.00675967;-0.00148353;0.0041216;0.198576;5.03585;0.00507377;0.00549546;4.55648;0.219467;47.3575;92.3575;0.00810855;-0.00133808;-0.00559694;0.00792817;0.00656861;0.0195531;0.0287875;0;0.0299237;0.120368;-0.893292;-1.39845;1.66377;-7.97141;-0.0018253;0.000874159;0.011628;0.0116845;-0.00188186;0.00678319;0.156975;6.37046;0.0084868;0.00904426;6.20904;0.161056;109.533;154.533;-0.0062268;-0.00183413;0.00610804;-0.00429015;0.0116099;0.01708;0.0503267;0;0.034945;8.16708;5.0922
436000;437;25.9282;0.170508;0.00661969;-2.16728;25.8202;-0.944268;0.0199732;0.155545;-0.94671;0.101922;-0.743333;-0.440113;0.869845;-6.99354;-0.00130475;0.0014127;0.00681387;0.00705266;-0.00154355;0.0042981;0.191485;5.22235;0.00529187;0.00573081;4.56913;0.21886;46.6667;91.6667;0.00825238;-0.00133661;-0.00532994;0.0081009;0.00680075;0.0176182;0.0284876;0;0.0302638;0.12088;-0.898499;-1.39912;1.66717;-7.97208;-0.00183339;0.00103388;0.0117491;0.0118273;-0.00191164;0.00686947;0.156046;6.40838;0.00859326;0.0091593;6.187;0.161629;107.65;152.65;-0.00625581;-0.0018399;0.00588174;-0.00374892;0.0117325;0.0168656;0.0506139;0;0.041026;8.17849;5.09869
437000;438;25.9319;0.174172;0.00676193;-2.16592;25.8242;-0.939819;0.0213317;0.1595;-0.942261;0.102348;-0.745317;-0.437964;0.870508;-6.99139;-0.00137469;0.00131625;0.00690131;0.00710561;-0.00157899;0.0043423;0.199193;5.02026;0.00534177;0.00578973;4.50009;0.222218;47.3943;92.3943;0.00836043;-0.00140631;-0.00547853;0.00805512;0.00688727;0.0184686;0.0280073;0;0.0265984;0.121533;-0.904706;-1.39693;1.66874;-7.96989;-0.0019721;0.00107879;0.0117268;0.0118112;-0.00205654;0.00693389;0.168171;5.94634;0.00864163;0.00924518;5.74327;0.174117;106.767;151.767;-0.00599144;-0.00197727;0.00560715;-0.00338828;0.0117118;0.0180238;0.0485913;0;0.0427722;8.19511;5.10436
438000;439;25.9352;0.177428;0.00688834;-2.1658;25.8273;-0.944117;0.021453;0.162623;-0.946559;0.102931;-0.746226;-0.437735;0.871241;-6.99116;-0.00140623;0.00111778;0.00709742;0.0072419;-0.00155071;0.0043963;0.198133;5.04712;0.0054193;0.00586173;4.67006;0.21413;49.2959;94.2959;0.00803151;-0.00143576;-0.00558143;0.00776038;0.00708258;0.0194029;0.0286759;0;0.0331341;0.122379;-0.910434;-1.39747;1.67236;-7.97043;-0.00197903;0.00101505;0.0118246;0.0118988;-0.00205327;0.00697605;0.167365;5.97496;0.00869814;0.0093014;5.79507;0.17256;106.973;151.973;-0.005731;-0.00198453;0.00555852;-0.00346647;0.0118098;0.0166674;0.0499052;0;0.052512;8.21851;5.11319
439000;440;25.9394;0.181705;0.0070544;-2.16636;25.8315;-0.946766;0.020888;0.166774;-0.949207;0.103414;-0.746944;-0.439724;0.872913;-6.99315;-0.00141018;0.00129035;0.00702098;0.00721405;-0.00160324;0.00440864;0.200852;4.97879;0.00542335;0.00587819;4.49966;0.222239;47.9448;92.9448;0.00812368;-0.00144117;-0.00544818;0.00797241;0.00700707;0.0181398;0.0279419;0;0.0248852;0.122846;-0.915479;-1.40006;1.67731;-7.97302;-0.00207537;0.000795023;0.0123898;0.0124334;-0.00211893;0.00727615;0.167506;5.96994;0.00907803;0.00970154;5.86776;0.170423;107.195;152.195;-0.00555217;-0.00208167;0.00528845;-0.00363422;0.0123763;0.016204;0.0498666;0;0.0442755;8.22882;5.11775
440000;441;25.9447;0.186997;0.00725986;-2.16632;25.8366;-0.952685;0.0209282;0.171874;-0.955127;0.103517;-0.747641;-0.438588;0.87295;-6.99202;-0.00130594;0.00128815;0.00715241;0.00734424;-0.00149776;0.004421;0.182587;5.47684;0.00546427;0.00589467;4.90347;0.203937;48.39;93.39;0.00818594;-0.00133702;-0.005464;0.00798354;0.00713841;0.0183665;0.02782;0;0.0271982;0.123294;-0.920768;-1.39987;1.68007;-7.97283;-0.00227041;0.000698614;0.0129688;0.0130007;-0.00230237;0.00765156;0.175067;5.7121;0.0095278;0.0102021;5.64669;0.177095;107.594;152.594;-0.0054615;-0.00227762;0.00532349;-0.0038567;0.012955;0.0161019;0.0508307;0;0.0475657;8.23706;5.12211
441000;442;25.9519;0.194152;0.00753763;-2.16853;25.8432;-0.963324;0.0187196;0.178479;-0.965766;0.103889;-0.748809;-0.439771;0.874589;-6.9932;-0.00128517;0.00140148;0.00729809;0.00752113;-0.00150821;0.00451467;0.176097;5.67869;0.00558512;0.00601956;4.98679;0.20053;48.1595;93.1595;0.00825873;-0.00131678;-0.00532283;0.00806843;0.007285;0.0183861;0.0277772;0;0.0287911;0.123564;-0.926765;-1.40265;1.68571;-7.97562;-0.0024346;0.000661688;0.0140557;0.0140822;-0.00246111;0.00827167;0.173211;5.77332;0.0103069;0.0110289;5.7219;0.174767;106.967;151.967;-0.00512931;-0.00244225;0.00536102;-0.00396124;0.0140418;0.0153034;0.0528579;0;0.047579;8.26284;5.12902
442000;443;25.9574;0.199652;0.00775114;-2.17047;25.8479;-0.980585;0.0167838;0.183191;-0.983027;0.10376;-0.749393;-0.438757;0.874565;-6.99219;-0.00147973;0.00132246;0.00692584;0.007129;-0.00168288;0.00440594;0.213653;4.68049;0.00540173;0.00587459;4.23619;0.236061;47.4349;92.4349;0.00826486;-0.00151085;-0.00540556;0.00799426;0.0069122;0.0182348;0.0278352;0;0.0336888;0.123307;-0.932575;-1.40382;1.68986;-7.97679;-0.00277914;0.000705367;0.015159;0.0151867;-0.00280683;0.00899676;0.183332;5.45457;0.0111782;0.0119957;5.41062;0.184822;104.944;149.944;-0.00450046;-0.00278512;0.00501161;-0.0035248;0.0151469;0.0162275;0.0504709;0;0.0462947;8.27275;5.13666
443000;444;25.9624;0.20464;0.0079448;-2.17031;25.8532;-0.97404;0.0169456;0.188461;-0.976482;0.104409;-0.749626;-0.438125;0.874525;-6.99155;-0.00140494;0.00122715;0.00732209;0.00749136;-0.00157421;0.00453279;0.191877;5.21168;0.00559331;0.00604371;4.75881;0.210137;49.152;94.152;0.0081158;-0.00143551;-0.0055136;0.00790943;0.00730775;0.0191319;0.0275234;0;0.0315259;0.123839;-0.937862;-1.40481;1.69364;-7.97777;-0.00284591;0.000868701;0.0160545;0.0160944;-0.00288575;0.00949006;0.177265;5.64127;0.0118096;0.0126534;5.57719;0.179302;104.109;149.109;-0.00485959;-0.00285164;0.00531146;-0.00349143;0.016041;0.0178559;0.0502303;0;0.0446101;8.28022;5.14338
444000;445;25.9658;0.208063;0.00807767;-2.16923;25.8566;-0.977649;0.018021;0.191852;-0.980091;0.10422;-0.750408;-0.437186;0.874703;-6.99061;-0.00142202;0.00131596;0.00712525;0.00732327;-0.00162004;0.00447165;0.199574;5.01066;0.00550227;0.00596221;4.52043;0.221218;47.9093;92.9093;0.00801123;-0.00145401;-0.00552678;0.00810056;0.00711095;0.0190501;0.0275488;0;0.0294986;0.123535;-0.943679;-1.40593;1.69777;-7.97889;-0.0030315;0.000963353;0.0164493;0.0164968;-0.00307902;0.0097879;0.184294;5.42612;0.0121549;0.0130505;5.3578;0.186644;103.558;148.558;-0.00609961;-0.00303665;0.00535819;-0.00334727;0.0164356;0.019305;0.050224;0;0.0443119;8.29161;5.15144
445000;446;25.9722;0.214494;0.00832737;-2.1681;25.8636;-0.965314;0.0191502;0.198869;-0.967756;0.104259;-0.751562;-0.437596;0.875903;-6.99102;-0.00137198;0.00148481;0.00726451;0.00751266;-0.00162013;0.00456639;0.188861;5.29489;0.00562677;0.00608852;4.63708;0.215653;47.3897;92.3897;0.00821743;-0.00140473;-0.00531032;0.00822161;0.00725161;0.0180773;0.0280831;0;0.0288112;0.123557;-0.951401;-1.40732;1.70323;-7.98028;-0.00322639;0.00114993;0.0169508;0.0170162;-0.00329171;0.0101539;0.190338;5.25381;0.0125857;0.0135386;5.1694;0.193446;102.249;147.249;-0.00709461;-0.00323013;0.00534825;-0.00296512;0.0169374;0.0197083;0.0520015;0;0.0475993;8.31673;5.15862
446000;447;25.9756;0.217836;0.00845711;-2.16775;25.867;-0.962822;0.0194999;0.202347;-0.965264;0.104889;-0.750907;-0.439329;0.876284;-6.99276;-0.00135372;0.00119889;0.00725631;0.00742013;-0.00151754;0.00446884;0.186558;5.36026;0.00552255;0.00595845;4.88957;0.204517;49.2789;94.2789;0.00812933;-0.00138371;-0.00549021;0.00783076;0.00724207;0.0188007;0.0280211;0;0.0279582;0.124158;-0.956156;-1.40997;1.70812;-7.98293;-0.00333805;0.00126418;0.017069;0.0171471;-0.00341607;0.0102816;0.195562;5.11347;0.0127238;0.0137088;5.01953;0.199222;102.286;147.286;-0.00707355;-0.00334164;0.00557156;-0.00295679;0.0170546;0.0196117;0.0525782;0;0.0483837;8.31367;5.16584
447000;448;25.9784;0.220651;0.00856638;-2.16682;25.8699;-0.965141;0.0204329;0.205165;-0.967582;0.104901;-0.752766;-0.436058;0.876246;-6.98949;-0.00137609;0.00148911;0.00742851;0.00767354;-0.00162112;0.00464733;0.185245;5.39827;0.00573298;0.00619644;4.73347;0.211261;47.8627;92.8627;0.00857301;-0.00140862;-0.00527743;0.00819645;0.00741578;0.0181545;0.026967;0;0.0252475;0.124191;-0.963483;-1.4086;1.7111;-7.98156;-0.00332998;0.00124315;0.0169425;0.0170185;-0.00340593;0.0102122;0.196546;5.08787;0.0126349;0.0136163;4.99672;0.200131;102.873;147.873;-0.00726395;-0.00333411;0.00569938;-0.00312427;0.0169273;0.018386;0.0542459;0;0.0502319;8.34101;5.17277
448000;449;25.9836;0.225869;0.008769;-2.16612;25.8753;-0.962278;0.0211318;0.210571;-0.96472;0.105194;-0.753131;-0.437015;0.877071;-6.99044;-0.00144549;0.00143276;0.00712903;0.0073621;-0.00167856;0.00452033;0.202761;4.93191;0.00555281;0.00602711;4.38595;0.228001;47.351;92.351;0.00835005;-0.00147741;-0.00530359;0.0081117;0.00711609;0.0186373;0.0266406;0;0.0274686;0.124294;-0.970854;-1.41102;1.71726;-7.98398;-0.00356701;0.00104323;0.0175448;0.0175963;-0.00361844;0.0106074;0.203308;4.91864;0.0131046;0.0141431;4.86295;0.205637;103.325;148.325;-0.00738745;-0.00357215;0.00554424;-0.00336442;0.0175303;0.0177603;0.0552266;0;0.0558418;8.3575;5.18082
449000;450;25.9904;0.232649;0.00903219;-2.16843;25.8813;-0.976626;0.0188241;0.216648;-0.979068;0.105164;-0.753131;-0.436824;0.876972;-6.99025;-0.00148512;0.00126365;0.00708611;0.00726853;-0.00166754;0.00446803;0.209582;4.7714;0.00548666;0.00595738;4.35884;0.229419;48.229;93.229;0.00792776;-0.0015159;-0.00547078;0.0079407;0.00707204;0.018779;0.0275526;0;0.0264434;0.124097;-0.976163;-1.4124;1.72139;-7.98536;-0.00377056;0.00107518;0.0184099;0.0184619;-0.00382256;0.0111422;0.204812;4.88253;0.0137602;0.0148563;4.82972;0.207051;102.835;147.835;-0.00657865;-0.00377561;0.00559716;-0.00334833;0.0183951;0.0160098;0.0545306;0;0.0553737;8.34276;5.18729
450000;451;25.9968;0.23902;0.00927954;-2.16985;25.8874;-0.983783;0.0173984;0.222655;-0.986225;0.105605;-0.755002;-0.432962;0.876719;-6.98639;-0.00154509;0.00142589;0.00743344;0.00765445;-0.0017661;0.00471027;0.207857;4.81101;0.00578228;0.00628037;4.3341;0.230728;48.119;93.119;0.00817892;-0.00157712;-0.00533161;0.0081231;0.00742035;0.0179932;0.0272371;0;0.0300854;0.124473;-0.981993;-1.41016;1.72289;-7.98312;-0.00384571;0.00106743;0.0189186;0.0189685;-0.00389565;0.0114321;0.203277;4.9194;0.0141245;0.0152428;4.86915;0.205375;103.342;148.342;-0.00589503;-0.00385178;0.00588058;-0.00363821;0.0189022;0.0188213;0.0532911;0;0.0574321;8.35063;5.18772
451000;452;26.0035;0.245747;0.00954072;-2.16974;25.894;-0.987544;0.0175158;0.229278;-0.989986;0.105705;-0.753152;-0.434916;0.876108;-6.98834;-0.00148054;0.0013028;0.00725068;0.00744093;-0.00167079;0.00455586;0.204193;4.89732;0.00560124;0.00607448;4.45355;0.22454;48.5395;93.5395;0.00823919;-0.00151108;-0.00536909;0.00791679;0.00723722;0.0177269;0.028033;0;0.0480981;0.124309;-0.985409;-1.41486;1.72868;-7.98782;-0.00405786;0.000960503;0.0197325;0.0197712;-0.00409658;0.0119339;0.205644;4.86278;0.0147374;0.0159119;4.82627;0.207199;103.095;148.095;-0.00549081;-0.00406427;0.00573248;-0.00370016;0.0197168;0.0173053;0.053339;0;0.069979;8.36716;5.19479
452000;453;26.0116;0.253837;0.00985479;-2.17175;25.9017;-0.993329;0.0155017;0.237012;-0.995771;0.105417;-0.754859;-0.43264;0.876414;-6.98607;-0.00149695;0.00127728;0.00709689;0.00728271;-0.00168277;0.00448274;0.210931;4.74089;0.00550251;0.00597699;4.32781;0.231064;48.1731;93.1731;0.00826042;-0.00152777;-0.0054511;0.00794819;0.00708294;0.0184646;0.0270737;0;0.0304258;0.123593;-0.992136;-1.41469;1.73233;-7.98765;-0.00422048;0.00114339;0.0204552;0.0205081;-0.00427335;0.0123907;0.206328;4.84666;0.0152968;0.016521;4.79907;0.208374;101.748;146.748;-0.00471418;-0.00422531;0.005701;-0.00330405;0.02044;0.0163641;0.052027;0;0.0579852;8.3884;5.20097
453000;454;26.0171;0.259318;0.0100676;-2.17245;25.9072;-0.991328;0.0148005;0.242534;-0.99377;0.106077;-0.756196;-0.43233;0.877493;-6.98576;-0.00140868;0.00137266;0.00731945;0.00753023;-0.00161947;0.00457485;0.192458;5.19595;0.00563805;0.0060998;4.64982;0.215062;48.3127;93.3127;0.00840757;-0.00143998;-0.00533705;0.00802417;0.00730624;0.0172545;0.0263321;0;0.0278923;0.123974;-1.00035;-1.41601;1.73815;-7.98897;-0.00435945;0.00119593;0.0211209;0.021177;-0.00441546;0.0127962;0.206404;4.84486;0.0157968;0.0170616;4.79609;0.208503;101.527;146.527;-0.00620809;-0.00436428;0.00583203;-0.0033245;0.021105;0.0193304;0.0518459;0;0.0523835;8.41634;5.20914
454000;455;26.0225;0.264737;0.010278;-2.17178;25.913;-0.983766;0.0154707;0.24832;-0.986208;0.106083;-0.756734;-0.431229;0.877415;-6.98466;-0.00148536;0.00133536;0.00736105;0.00755823;-0.00168254;0.00462038;0.201786;4.95573;0.0056833;0.00616051;4.49216;0.22261;48.7164;93.7164;0.00837319;-0.00151573;-0.00528843;0.00790092;0.00734805;0.0173267;0.0266803;0;0.0355242;0.123784;-1.00743;-1.4163;1.74245;-7.98926;-0.00449395;0.00130857;0.0217744;0.0218394;-0.00455898;0.0131992;0.206387;4.84527;0.0162933;0.0175989;4.79042;0.20875;101.076;146.076;-0.00704834;-0.00449836;0.0059771;-0.00323996;0.0217578;0.0200257;0.0536873;0;0.0577316;8.41677;5.21541
455000;456;26.0242;0.266458;0.0103448;-2.17001;25.915;-0.982167;0.0172405;0.250257;-0.984609;0.10644;-0.756707;-0.430201;0.876931;-6.98363;-0.00149103;0.00146821;0.00715704;0.00739951;-0.0017335;0.0045665;0.208331;4.80006;0.00560098;0.00608867;4.26855;0.234272;47.1043;92.1043;0.00873118;-0.0015236;-0.00531966;0.00819773;0.00714406;0.0167219;0.0269746;0;0.0359912;0.123872;-1.0135;-1.41818;1.7475;-7.99114;-0.00468144;0.00135696;0.022116;0.0221845;-0.00474998;0.0134672;0.211677;4.72418;0.0166011;0.0179563;4.67044;0.214113;101.362;146.362;-0.00748251;-0.00468619;0.00620218;-0.00336127;0.0220981;0.0194525;0.0552199;0;0.0581583;8.41992;5.22318
456000;457;26.0267;0.268983;0.0104428;-2.17073;25.9173;-0.986959;0.016527;0.252551;-0.989401;0.106591;-0.75711;-0.429338;0.876874;-6.98277;-0.00156315;0.00132701;0.00751258;0.00770263;-0.0017532;0.00472791;0.20807;4.80607;0.00580836;0.00630388;4.39348;0.22761;49.0121;94.0121;0.00806593;-0.00159388;-0.0053521;0.0079459;0.00749924;0.0181887;0.0271972;0;0.0386681;0.12383;-1.01952;-1.41925;1.75187;-7.99221;-0.00480051;0.00127079;0.0221213;0.0221812;-0.00486036;0.0135208;0.217008;4.60812;0.0166458;0.0180277;4.56369;0.219121;101.084;146.084;-0.00728261;-0.00480495;0.00589642;-0.00323304;0.0221051;0.0185692;0.0545956;0;0.0651239;8.42701;5.23059
457000;458;26.0349;0.277215;0.0107624;-2.17036;25.9256;-0.98642;0.0168906;0.260869;-0.988862;0.106571;-0.757449;-0.430645;0.877805;-6.98407;-0.0015095;0.00136667;0.00747834;0.00768156;-0.00171272;0.00469714;0.20185;4.95417;0.0057772;0.00626285;4.48501;0.222965;48.7105;93.7105;0.00830708;-0.00154065;-0.00533055;0.00800408;0.00746517;0.017481;0.0262223;0;0.0299839;0.123587;-1.02647;-1.4211;1.75739;-7.99406;-0.00485905;0.00118084;0.0224395;0.0224904;-0.00491004;0.0137002;0.21654;4.61807;0.0168702;0.018267;4.58051;0.218316;101.185;146.185;-0.00675443;-0.00486396;0.00582801;-0.00334229;0.0224235;0.0167683;0.0594671;0;0.0600816;8.4383;5.23842
458000;459;26.0422;0.284504;0.0110454;-2.17085;25.9328;-0.988859;0.0164057;0.268055;-0.991301;0.106498;-0.759429;-0.429734;0.879059;-6.98316;-0.00147192;0.00137237;0.00737841;0.00758633;-0.00167984;0.00463309;0.19949;5.01278;0.00570061;0.00617745;4.5161;0.22143;48.3851;93.3851;0.00836395;-0.00150339;-0.00536011;0.00804565;0.00736508;0.0180605;0.0272589;0;0.0320342;0.123185;-1.03425;-1.42243;1.763;-7.99539;-0.00499235;0.00110077;0.0231006;0.0231437;-0.00503541;0.0140895;0.216113;4.6272;0.0173528;0.018786;4.59618;0.217572;101.765;146.765;-0.0064392;-0.00499861;0.00603492;-0.00369792;0.0230834;0.0174183;0.0571796;0;0.0705659;8.45846;5.24452
459000;460;26.0509;0.293131;0.0113803;-2.1726;25.9409;-0.99846;0.0146542;0.276204;-1.0009;0.106471;-0.761389;-0.42425;0.878088;-6.97768;-0.0015015;0.0014526;0.00752117;0.00774927;-0.00172959;0.00473943;0.199636;5.00912;0.00582888;0.00631924;4.4804;0.223194;48.2657;93.2657;0.00882496;-0.00153357;-0.00528861;0.00813339;0.00750834;0.0166132;0.0267024;0;0.0243958;0.122511;-1.044;-1.41491;1.76264;-7.98787;-0.00505458;0.00117474;0.0240647;0.024112;-0.0051019;0.0146069;0.210042;4.76096;0.0180177;0.0194759;4.72608;0.211592;101.378;146.378;-0.00546683;-0.00506087;0.00622005;-0.00372714;0.0240464;0.0135506;0.0535916;0;0.0629673;8.46728;5.25148
460000;461;26.059;0.301259;0.0116959;-2.17493;25.9484;-1.01157;0.01232;0.283663;-1.01401;0.106536;-0.760625;-0.425365;0.877972;-6.97879;-0.00161874;0.00114154;0.00713475;0.00728117;-0.00176516;0.00452316;0.226881;4.4076;0.00553709;0.00603088;4.12494;0.242428;48.9311;93.9311;0.00803504;-0.00164895;-0.00562583;0.00785005;0.00711968;0.0188299;0.02694;0;0.0305567;0.122629;-1.04847;-1.42147;1.77057;-7.99443;-0.00523518;0.00120291;0.0250113;0.0250591;-0.00528294;0.015171;0.209312;4.77755;0.0187172;0.020228;4.74339;0.21082;101.058;146.058;-0.00639944;-0.00524149;0.0062989;-0.00374272;0.0249926;0.0161296;0.053785;0;0.0654149;8.48155;5.25757
461000;462;26.0651;0.307407;0.0119346;-2.17404;25.9549;-1.00438;0.0132174;0.290192;-1.00682;0.105212;-0.761938;-0.422096;0.877373;-6.97552;-0.00156677;0.00129198;0.00686531;0.00705883;-0.00176029;0.00440956;0.228215;4.38182;0.00538934;0.00587941;4.01004;0.249374;47.2856;92.2856;0.0081426;-0.0015982;-0.00550015;0.00802718;0.00685112;0.0191436;0.0274449;0;0.0247198;0.120732;-1.05536;-1.42166;1.77468;-7.99462;-0.00528949;0.00130921;0.0254047;0.0254605;-0.00534523;0.0154028;0.208209;4.80287;0.0190076;0.0205371;4.76321;0.209942;100.93;145.93;-0.00656714;-0.00529565;0.00651109;-0.00373698;0.0253849;0.0186712;0.0558028;0;0.0583143;8.48564;5.26105
462000;463;26.0697;0.311933;0.0121103;-2.17387;25.9598;-0.995998;0.0133797;0.295074;-0.99844;0.106919;-0.762496;-0.424843;0.879388;-6.97827;-0.00150828;0.00148188;0.00720127;0.0074465;-0.00175351;0.00460001;0.209446;4.77449;0.00564044;0.00613334;4.24663;0.235481;47.1423;92.1423;0.00872691;-0.0015409;-0.00530065;0.0082057;0.00718842;0.0175555;0.0272229;0;0.0262869;0.122059;-1.06202;-1.42726;1.78322;-8.00022;-0.00559444;0.00136168;0.0259257;0.0259844;-0.00565316;0.0158188;0.215788;4.63419;0.0194827;0.0210917;4.59644;0.21756;100.602;145.602;-0.00766351;-0.00560005;0.00648679;-0.00360602;0.0259061;0.0208231;0.0577384;0;0.0555443;8.49658;5.26759
463000;464;26.0719;0.314169;0.0121971;-2.17495;25.9617;-1.0028;0.0123037;0.296967;-1.00524;0.107744;-0.763809;-0.423418;0.879941;-6.97685;-0.00153334;0.00115024;0.00727201;0.00741979;-0.00168112;0.00455046;0.210856;4.74258;0.00559178;0.00606727;4.4136;0.226573;49.4447;94.4447;0.00850998;-0.00156299;-0.00553789;0.00777986;0.00725745;0.0175592;0.0270545;0;0.03164;0.122479;-1.0699;-1.42751;1.78815;-8.00047;-0.00566487;0.00137181;0.026419;0.0264775;-0.00572342;0.0161005;0.214425;4.66365;0.0198366;0.0214673;4.62617;0.216162;100.856;145.856;-0.00781854;-0.00567119;0.00671234;-0.00380181;0.0263979;0.0209004;0.0582762;0;0.0590474;8.50584;5.27407
464000;465;26.0772;0.319477;0.0124032;-2.1752;25.9668;-1.00665;0.0120503;0.302128;-1.0091;0.106631;-0.76416;-0.42117;0.87903;-6.9746;-0.00160569;0.00136924;0.00737977;0.00758379;-0.00180971;0.00469675;0.21758;4.596;0.00575474;0.00626234;4.19061;0.238629;48.3666;93.3666;0.00864947;-0.00163673;-0.00531214;0.00799096;0.0073667;0.0171214;0.026233;0;0.0296039;0.121019;-1.07663;-1.42793;1.79242;-8.00089;-0.00559095;0.0011939;0.0268502;0.0268941;-0.00563483;0.0162644;0.208228;4.80243;0.020073;0.0216859;4.77282;0.20952;100.8;145.8;-0.00806963;-0.00559798;0.00647939;-0.00392464;0.0268304;0.0184057;0.0598748;0;0.0607623;8.51685;5.2822
465000;466;26.0842;0.32651;0.0126762;-2.17476;25.9737;-1.01157;0.0124895;0.309036;-1.01401;0.106892;-0.765374;-0.420451;0.879774;-6.97388;-0.00163837;0.00132271;0.00733876;0.00752959;-0.0018292;0.0046794;0.223249;4.47931;0.00572767;0.0062392;4.11632;0.242935;48.4682;93.4682;0.00868867;-0.00166925;-0.00537769;0.00796335;0.00732527;0.0173992;0.0270013;0;0.0318;0.121023;-1.08423;-1.42812;1.79714;-8.00108;-0.00579709;0.00101147;0.0269117;0.026943;-0.00582834;0.0163857;0.215411;4.64228;0.0201872;0.0218475;4.62276;0.216321;101.32;146.32;-0.00788905;-0.00580526;0.00634809;-0.0041552;0.0268926;0.0174882;0.0566781;0;0.0647182;8.52432;5.28933
466000;467;26.0906;0.33283;0.0129215;-2.17393;25.9802;-1.01061;0.0133233;0.31549;-1.01305;0.107992;-0.764365;-0.425463;0.881439;-6.97889;-0.00157149;0.00134172;0.0072488;0.00744838;-0.00177108;0.00460973;0.216794;4.61268;0.00564926;0.00614631;4.20557;0.23778;48.0964;93.0964;0.00839855;-0.00160292;-0.00541002;0.00803427;0.00723516;0.0179151;0.0261647;0;0.0256012;0.122111;-1.0893;-1.43564;1.80625;-8.00949;-0.0059491;0.00130655;0.0273627;0.0274139;-0.00600027;0.0167071;0.217416;4.59947;0.0205698;0.0222761;4.56877;0.218877;101.155;146.155;-0.00726428;-0.0059566;0.00686956;-0.00407613;0.0273406;0.014988;0.0578911;0;0.0696077;8.53723;5.297
467000;468;26.1037;0.345935;0.0134303;-2.17684;25.9921;-1.03657;0.0104097;0.327384;-1.03901;0.10524;-0.766739;-0.413917;0.877662;-6.96735;-0.00179086;0.000986064;0.00643567;0.00655221;-0.0019074;0.00422981;0.278271;3.59361;0.00512369;0.00563974;3.43514;0.291109;47.7891;92.7891;0.00825966;-0.00182056;-0.00584652;0.00776275;0.00641917;0.0190062;0.0275395;0;0.0227524;0.119813;-1.09789;-1.42976;1.80664;-8.00272;-0.00614018;0.00112039;0.0283374;0.0283738;-0.00617655;0.0172752;0.216681;4.61508;0.0212757;0.0230336;4.59379;0.217685;101.592;146.592;-0.00559811;-0.00614966;0.0069195;-0.00448434;0.0283147;0.0183226;0.0536548;0;0.0702561;8.54308;5.30318
468000;469;26.107;0.349303;0.0135611;-2.17783;25.9957;-1.0294;0.00941891;0.330969;-1.03184;0.107838;-0.765939;-0.422802;0.881506;-6.97623;-0.00160107;0.0014154;0.00718029;0.00740279;-0.00182357;0.00461318;0.222981;4.48469;0.00564215;0.00615091;4.05951;0.246335;47.5047;92.5047;0.00876292;-0.00163267;-0.00529646;0.00806869;0.00716736;0.0173256;0.0273502;0;0.0229247;0.12111;-1.10373;-1.43706;1.81604;-8.01091;-0.00622867;0.00127647;0.0288864;0.0289327;-0.00627501;0.0176039;0.215627;4.63764;0.0216849;0.0234718;4.61078;0.216883;100.997;145.997;-0.00735353;-0.00623698;0.00700782;-0.00425932;0.0288633;0.0157028;0.057151;0;0.0687465;8.55785;5.31042
469000;470;26.114;0.356312;0.0138332;-2.17776;26.0028;-1.02802;0.00949323;0.338069;-1.03046;0.108273;-0.767263;-0.418413;0.880616;-6.97184;-0.00160034;0.00138012;0.00731035;0.00751921;-0.00180921;0.00466421;0.218915;4.56799;0.00571219;0.00621895;4.15608;0.240611;48.2028;93.2028;0.00839558;-0.00163103;-0.00524709;0.00794864;0.00729763;0.0176422;0.0257918;0;0.0308061;0.121114;-1.11114;-1.43485;1.81882;-8.00781;-0.00632897;0.0014287;0.0295661;0.0296229;-0.00638574;0.0180043;0.214061;4.67156;0.0221857;0.0240058;4.63891;0.215568;101.14;146.14;-0.00661546;-0.00633777;0.00748859;-0.00441996;0.0295399;0.0174304;0.0568775;0;0.0723259;8.56932;5.31751
470000;471;26.1201;0.362402;0.0140696;-2.17886;26.0088;-1.02832;0.00839356;0.344081;-1.03076;0.106992;-0.768773;-0.418532;0.881832;-6.97196;-0.00167627;0.00124569;0.00698082;0.0071565;-0.00185195;0.00450423;0.240125;4.1645;0.00549338;0.00600564;3.8643;0.258779;48.0179;93.0179;0.00832917;-0.00170614;-0.00538859;0.00782288;0.00696717;0.0186219;0.0260498;0;0.0301203;0.119363;-1.11888;-1.43748;1.82551;-8.01044;-0.00630675;0.00143603;0.0300983;0.0301549;-0.00636331;0.0182591;0.209538;4.7724;0.022526;0.0243455;4.73887;0.211021;100.293;145.293;-0.0074469;-0.00631421;0.00718286;-0.00410775;0.0300743;0.0201673;0.0573688;0;0.0638211;8.57829;5.32501
471000;472;26.1223;0.364544;0.0141528;-2.17816;26.011;-1.02694;0.00908941;0.346345;-1.02938;0.107559;-0.771507;-0.413076;0.881716;-6.9665;-0.00170765;0.00143634;0.00699801;0.00722887;-0.00193851;0.00458369;0.244019;4.09804;0.00557883;0.00611158;3.72909;0.268162;46.8247;91.8247;0.00899765;-0.00173912;-0.00524113;0.00805602;0.0069854;0.0173957;0.0261437;0;0.0279197;0.119427;-1.1279;-1.43559;1.82957;-8.00855;-0.00638379;0.00126866;0.0301923;0.0302363;-0.00642774;0.018332;0.211438;4.72952;0.0226068;0.0244427;4.70402;0.212584;100.392;145.392;-0.00799891;-0.00639182;0.00693028;-0.00419198;0.0301698;0.0216124;0.0575641;0;0.0577604;8.58434;5.331
472000;473;26.127;0.369237;0.014335;-2.17836;26.0158;-1.02629;0.00889731;0.351067;-1.02873;0.107213;-0.769958;-0.416614;0.881985;-6.97004;-0.00173936;0.00126541;0.00705309;0.00723159;-0.00191786;0.00457472;0.24661;4.05498;0.00557148;0.00609963;3.77066;0.265206;48.0628;93.0628;0.00853281;-0.00176921;-0.00534966;0.00782267;0.00703968;0.0171689;0.0253386;0;0.0210321;0.118943;-1.13203;-1.44012;1.83564;-8.01308;-0.00660533;0.00117766;0.0310419;0.0310787;-0.00664213;0.0188604;0.212787;4.69953;0.0232516;0.0251472;4.67903;0.21372;100.752;145.752;-0.00834815;-0.00661487;0.00708253;-0.00451163;0.0310183;0.0224981;0.0588336;0;0.0603985;8.59108;5.33361
473000;474;26.1331;0.375355;0.0145725;-2.17919;26.0217;-1.03092;0.00805984;0.356958;-1.03336;0.108092;-0.770143;-0.416406;0.882155;-6.96983;-0.00174374;0.00128454;0.00720578;0.0073865;-0.00192446;0.00465548;0.241992;4.13237;0.00567564;0.00620731;3.83821;0.260538;48.3851;93.3851;0.00851781;-0.00177358;-0.00531472;0.00782511;0.00719257;0.0171367;0.0260319;0;0.038159;0.11827;-1.13842;-1.4434;1.84212;-8.01636;-0.00642897;0.000932527;0.0312696;0.0312926;-0.00645203;0.0188723;0.205598;4.86385;0.023312;0.0251631;4.85005;0.206184;101.508;146.508;-0.00911109;-0.00644139;0.007147;-0.00505481;0.0312452;0.0215143;0.0601614;0;0.0690236;8.60183;5.34004
474000;475;26.1406;0.382874;0.0148644;-2.17792;26.0295;-1.02658;0.00932809;0.364787;-1.02902;0.107962;-0.770097;-0.417521;0.882626;-6.97095;-0.0016083;0.00140573;0.00741557;0.00762949;-0.00182221;0.00472585;0.216881;4.61082;0.00579011;0.00630113;4.18694;0.238838;48.3098;93.3098;0.00896418;-0.00163927;-0.00523712;0.007989;0.00740294;0.0169995;0.0263181;0;0.026598;0.118716;-1.14563;-1.44421;1.84725;-8.01718;-0.00686708;0.0010168;0.0315866;0.0316135;-0.00689394;0.0192537;0.217405;4.59972;0.0237101;0.0256716;4.58569;0.21807;100.768;145.768;-0.00738668;-0.00687721;0.00685201;-0.00460092;0.0315644;0.0168815;0.0610886;0;0.0703945;8.61652;5.3469
475000;476;26.1446;0.386844;0.0150185;-2.17689;26.0333;-1.03341;0.0103657;0.36859;-1.03586;0.107952;-0.771598;-0.415438;0.882953;-6.96887;-0.00157478;0.00133953;0.00706195;0.00726493;-0.00177777;0.00452135;0.222995;4.4844;0.00553193;0.00602846;4.08655;0.244705;47.6341;92.6341;0.00885569;-0.00160598;-0.00538449;0.00800582;0.00704844;0.0165909;0.026262;0;0.0311299;0.118603;-1.15348;-1.44646;1.85387;-8.01942;-0.00690443;0.00115404;0.0326095;0.0326432;-0.00693811;0.0197906;0.211731;4.72298;0.0244058;0.0263875;4.70491;0.212544;100.264;145.264;-0.00737789;-0.00691397;0.00703446;-0.00450139;0.0325862;0.0158394;0.0634804;0;0.0809379;8.62296;5.35492
476000;477;26.1628;0.405039;0.015725;-2.18162;26.0506;-1.04796;0.00562812;0.385886;-1.0504;0.107878;-0.772198;-0.413857;0.882726;-6.96729;-0.00159669;0.00135617;0.00707322;0.00728041;-0.00180387;0.00454214;0.225737;4.42993;0.00555343;0.00605619;4.03599;0.247771;47.6691;92.6691;0.00877071;-0.00162734;-0.00528527;0.00794037;0.00706027;0.0172013;0.0257921;0;0.0315074;0.117999;-1.16081;-1.44498;1.85725;-8.01795;-0.0069882;0.00134599;0.0331098;0.0331549;-0.00703333;0.0200941;0.211061;4.73796;0.0247827;0.0267922;4.71397;0.212135;99.9689;144.969;-0.0064639;-0.00699693;0.00729875;-0.00437577;0.0330849;0.0196182;0.0616467;0;0.0797167;8.62783;5.36179
477000;478;26.1625;0.404752;0.0157138;-2.18086;26.0505;-1.04571;0.00639264;0.385752;-1.04815;0.107382;-0.771641;-0.416997;0.883656;-6.97043;-0.00170329;0.00131719;0.00740279;0.00758949;-0.00188999;0.00473974;0.230088;4.34617;0.00579335;0.00631966;4.01562;0.249028;48.7136;93.7136;0.00849605;-0.0017336;-0.00531579;0.00789016;0.00738963;0.0175696;0.0257245;0;0.0301221;0.117076;-1.16649;-1.45056;1.86508;-8.02352;-0.00715955;0.00151265;0.0332476;0.0333041;-0.0072161;0.0202601;0.21534;4.64381;0.0249583;0.0270135;4.61526;0.216673;99.683;144.683;-0.00739993;-0.00716713;0.00742169;-0.00416536;0.0332221;0.0180088;0.0638447;0;0.0739232;8.64152;5.36904
478000;479;26.1723;0.414539;0.0160938;-2.18246;26.0598;-1.05438;0.0047911;0.395098;-1.05682;0.107711;-0.773437;-0.415858;0.884729;-6.96929;-0.00162876;0.00123635;0.00695832;0.00713278;-0.00180322;0.004468;0.234074;4.27216;0.0054565;0.00595733;3.95557;0.252808;47.9345;92.9345;0.00890976;-0.00165924;-0.00548323;0.00789857;0.00694415;0.0170973;0.0256015;0;0.0278321;0.117033;-1.17439;-1.45278;1.87176;-8.02575;-0.00719165;0.00166368;0.0345866;0.0346528;-0.00725779;0.0209553;0.207931;4.80928;0.0258628;0.0279404;4.77456;0.209443;99.2244;144.224;-0.00879615;-0.00719879;0.00768713;-0.00411658;0.0345594;0.0193026;0.0633861;0;0.0649916;8.6565;5.37641
479000;480;26.1811;0.423384;0.0164372;-2.18295;26.0689;-1.04917;0.00430137;0.40415;-1.05161;0.107561;-0.774603;-0.41387;0.884798;-6.9673;-0.00173771;0.00142402;0.00714358;0.00736632;-0.00196045;0.00466338;0.243255;4.11091;0.00567831;0.00621784;3.75746;0.266137;47.2875;92.2875;0.00900051;-0.00176906;-0.00524921;0.00803834;0.0071309;0.0161384;0.0253288;0;0.0255515;0.116294;-1.18234;-1.4533;1.87711;-8.02627;-0.00745865;0.00101924;0.0347503;0.0347749;-0.00748325;0.0211291;0.214636;4.65906;0.0260386;0.0281721;4.64703;0.215191;100.625;145.625;-0.00809127;-0.00747084;0.00731853;-0.00502312;0.0347249;0.0206119;0.0634262;0;0.0610168;8.65694;5.38401
480000;481;26.1799;0.422139;0.0163888;-2.18132;26.068;-1.04271;0.00593194;0.403296;-1.04515;0.10811;-0.773409;-0.416397;0.885006;-6.96983;-0.00159902;0.00139933;0.00727179;0.0074873;-0.00181452;0.00465091;0.219893;4.54766;0.00569358;0.00620121;4.12632;0.242347;47.9985;92.9985;0.00839946;-0.00162977;-0.00521918;0.0079595;0.00725924;0.0178259;0.0256575;0;0.0296658;0.116404;-1.18757;-1.4584;1.88436;-8.03136;-0.00760444;0.00102046;0.0349342;0.0349586;-0.00762891;0.0212938;0.217679;4.59392;0.0262213;0.0283917;4.58239;0.218227;100.46;145.46;-0.00897126;-0.00761617;0.00722708;-0.00493109;0.0349094;0.0220376;0.0635301;0;0.0663404;8.6631;5.39112
481000;482;26.1847;0.427007;0.0165778;-2.18169;26.0727;-1.04673;0.00555976;0.407993;-1.04917;0.107662;-0.774343;-0.414179;0.884727;-6.96761;-0.00170903;0.00136125;0.0071312;0.00733606;-0.00191389;0.00462497;0.239655;4.17266;0.00563801;0.00616663;3.83306;0.260888;47.6703;92.6703;0.00918923;-0.00173985;-0.00529761;0.0079616;0.00711818;0.0159609;0.0257247;0;0.0309386;0.115614;-1.19464;-1.4582;1.88862;-8.03116;-0.00763743;0.000737812;0.0357315;0.0357441;-0.00764998;0.021697;0.213745;4.67848;0.0267466;0.0289294;4.67244;0.214021;101.089;146.089;-0.00886454;-0.00765248;0.00726298;-0.00551416;0.0357063;0.0213059;0.0622935;0;0.0725613;8.67099;5.39655
482000;483;26.192;0.434243;0.0168587;-2.18154;26.0799;-1.04727;0.00570785;0.41525;-1.04971;0.107633;-0.775108;-0.41487;0.885717;-6.9683;-0.00167627;0.00139519;0.00695718;0.00717705;-0.00189613;0.00453659;0.24094;4.15041;0.00552626;0.00604879;3.7851;0.264194;47.0619;92.0619;0.00884594;-0.00170704;-0.00522794;0.00796147;0.00694458;0.0180154;0.0262228;0;0.033561;0.115279;-1.20255;-1.46239;1.89684;-8.03535;-0.00785995;0.000907468;0.0359844;0.0360032;-0.00787873;0.021941;0.218426;4.5782;0.0270141;0.0292546;4.56967;0.218834;100.465;145.465;-0.0088595;-0.00787269;0.00719013;-0.00510934;0.0359599;0.0170935;0.0665985;0;0.0772472;8.6872;5.40575
483000;484;26.1979;0.440118;0.0170868;-2.18001;26.0859;-1.04912;0.00724032;0.421204;-1.05157;0.107453;-0.776025;-0.41431;0.886236;-6.96774;-0.00169544;0.00116477;0.00726002;0.00740903;-0.00184446;0.00462674;0.233532;4.28208;0.00565534;0.00616899;4.01692;0.248947;49.2589;94.2589;0.00840032;-0.00172467;-0.00545709;0.00772769;0.00724591;0.0183595;0.0257871;0;0.0389457;0.1148;-1.21043;-1.46337;1.90257;-8.03633;-0.00779989;0.00112252;0.0366239;0.0366523;-0.00782824;0.0222403;0.212972;4.69544;0.0274193;0.0296537;4.68206;0.213581;99.355;144.355;-0.00823994;-0.00780967;0.00704526;-0.00454644;0.0366006;0.0186244;0.0686032;0;0.0887675;8.68942;5.40968
484000;485;26.2083;0.450586;0.0174932;-2.18274;26.0958;-1.05976;0.00451365;0.431059;-1.0622;0.10749;-0.777611;-0.408608;0.884982;-6.96204;-0.00182584;0.00130022;0.00707495;0.00726099;-0.00201188;0.00463644;0.258071;3.87491;0.00563237;0.00618192;3.60905;0.277081;47.8764;92.8764;0.00879572;-0.00185566;-0.00528213;0.00782434;0.00706193;0.0168804;0.0254602;0;0.0332496;0.114515;-1.2188;-1.45814;1.90388;-8.0311;-0.00778125;0.00144944;0.0368548;0.0369018;-0.00782827;0.022365;0.211133;4.73635;0.0275834;0.02982;4.71391;0.212138;99.0782;144.078;-0.00840615;-0.00778972;0.00750713;-0.00434752;0.0368286;0.0186518;0.0680341;0;0.0834092;8.69996;5.41458
485000;486;26.216;0.458275;0.0177918;-2.18552;26.1027;-1.07291;0.00173141;0.438012;-1.07535;0.107658;-0.777904;-0.410168;0.885982;-6.9636;-0.00180045;0.00131695;0.00703808;0.00723014;-0.00199251;0.00461132;0.255816;3.90906;0.00560361;0.00614843;3.62866;0.275584;47.5226;92.5226;0.0089337;-0.00183134;-0.00538692;0.00796193;0.00702454;0.0168302;0.0258753;0;0.0277111;0.114008;-1.22609;-1.46351;1.91263;-8.04;-0.0081641;0.00162122;0.0374758;0.0375334;-0.00822161;0.0228775;0.21785;4.59032;0.0281656;0.0305033;4.56521;0.219048;98.9988;143.999;-0.00920534;-0.00817199;0.00779085;-0.00427705;0.0374479;0.0169261;0.0639589;0;0.0736738;8.70919;5.42105
486000;487;26.2284;0.470707;0.0182744;-2.18611;26.1152;-1.07167;0.00114093;0.450499;-1.07411;0.107369;-0.777172;-0.413366;0.88679;-6.96679;-0.00170293;0.00141362;0.00708248;0.00730433;-0.00192479;0.00461456;0.240443;4.15899;0.00562207;0.00615275;3.79488;0.263513;47.2165;92.2165;0.00898007;-0.00173417;-0.00525437;0.00802338;0.00706976;0.0167896;0.0255876;0;0.032023;0.113557;-1.23214;-1.46911;1.92077;-8.0456;-0.00839201;0.00152615;0.0386407;0.0386901;-0.00844148;0.0235658;0.217181;4.60446;0.0290194;0.0314211;4.58333;0.218182;98.6204;143.62;-0.00911128;-0.00839983;0.00754834;-0.00422338;0.0386144;0.0177687;0.0646011;0;0.0745026;8.71231;5.42841
487000;488;26.2266;0.468915;0.0182048;-2.18459;26.1141;-1.05675;0.00266381;0.449435;-1.05919;0.107301;-0.782383;-0.401645;0.885977;-6.95507;-0.00178512;0.00132876;0.0065925;0.0067982;-0.00199082;0.00439451;0.27078;3.69303;0.00532136;0.00585934;3.41478;0.292845;46.1836;91.1836;0.00882327;-0.00181624;-0.0053926;0.00799411;0.00657893;0.0171549;0.0256203;0;0.0369714;0.112377;-1.2433;-1.45638;1.91819;-8.03287;-0.00829087;0.00103322;0.0394067;0.0394291;-0.00831324;0.0238712;0.210392;4.75302;0.0294509;0.0318282;4.74293;0.21084;99.2373;144.237;-0.0096314;-0.00830235;0.0072333;-0.00488239;0.0393821;0.00999393;0.0598403;0;0.0745395;8.72281;5.43512
488000;489;26.2304;0.472617;0.0183486;-2.18403;26.1178;-1.05997;0.00321884;0.453068;-1.06242;0.108651;-0.779521;-0.411786;0.888271;-6.96521;-0.0018006;0.00125925;0.00714768;0.00732151;-0.00197443;0.00464797;0.251914;3.96961;0.00565523;0.00619729;3.70816;0.269675;48.513;93.513;0.00871695;-0.0018293;-0.0052131;0.00767405;0.00713497;0.017804;0.0257718;0;0.0471298;0.114295;-1.24492;-1.4754;1.93383;-8.04836;-0.00882243;0.000695663;0.0395207;0.0395308;-0.00883244;0.0241816;0.223235;4.47958;0.0297385;0.0322421;4.47563;0.223432;100.996;145.996;-0.0085684;-0.00884019;0.00769018;-0.00597361;0.0394925;0.0208285;0.0637207;0;0.0767422;8.72649;5.44302
489000;490;26.2388;0.481095;0.0186777;-2.18579;26.1257;-1.07075;0.00146774;0.460996;-1.07319;0.108712;-0.781074;-0.410868;0.889217;-6.9643;-0.00175978;0.00145286;0.00709486;0.00732715;-0.00199207;0.00465961;0.248036;4.03167;0.00566674;0.00621282;3.67815;0.271876;47.2362;92.2362;0.00875827;-0.00178988;-0.00503845;0.00788703;0.00708331;0.0170683;0.0259338;0;0.025532;0.113406;-1.25441;-1.47403;1.93885;-8.04371;-0.00841225;0.000896057;0.0395708;0.0395875;-0.00842898;0.0240083;0.212587;4.70395;0.0296041;0.032011;4.6966;0.21292;100.27;145.27;-0.0110219;-0.00842748;0.00767341;-0.00556852;0.0395429;0.0227365;0.0739711;0;0.0779027;8.74319;5.44953
490000;491;26.2455;0.487758;0.0189364;-2.18398;26.1326;-1.06813;0.00327293;0.467947;-1.07057;0.107761;-0.783221;-0.406409;0.88894;-6.95984;-0.00176908;0.00128821;0.00690679;0.00709403;-0.00195632;0.00452517;0.256136;3.90417;0.00549871;0.00603356;3.62622;0.275769;47.5751;92.5751;0.00873536;-0.00179863;-0.00526871;0.00778858;0.00689383;0.0172346;0.0259301;0;0.0320621;0.112123;-1.26422;-1.47209;1.94367;-8.04505;-0.00868401;0.000776135;0.0403593;0.0403716;-0.00869629;0.0245339;0.215167;4.64754;0.030233;0.0327119;4.64239;0.215406;99.6704;144.67;-0.00952859;-0.00869791;0.00715934;-0.00530619;0.040335;0.0162987;0.0685445;0;0.0834983;8.75115;5.4571
491000;492;26.2537;0.495962;0.0192549;-2.18342;26.1412;-1.06184;0.00383246;0.476489;-1.06429;0.107936;-0.782215;-0.41088;0.890131;-6.96431;-0.00171679;0.00141013;0.00706593;0.00728678;-0.00193764;0.00461221;0.242967;4.11578;0.00561628;0.00614962;3.76064;0.265912;47.2561;92.2561;0.00895862;-0.00174759;-0.00520536;0.00796787;0.00705346;0.0167536;0.0259773;0;0.0427823;0.111505;-1.27172;-1.47521;1.95089;-8.04817;-0.00867487;0.00109826;0.040921;0.0409453;-0.00869918;0.0248222;0.211991;4.71719;0.0306114;0.0330963;4.7068;0.212459;98.8243;143.824;-0.00802846;-0.0086858;0.00727471;-0.00478394;0.0408961;0.018047;0.0680014;0;0.0917414;8.7555;5.46464
492000;493;26.2627;0.504928;0.019603;-2.18714;26.1488;-1.08862;0.000112647;0.484082;-1.09106;0.107813;-0.784782;-0.401231;0.887971;-6.95466;-0.00183264;0.00139508;0.00696674;0.00718262;-0.00204853;0.00461557;0.263056;3.80147;0.00559763;0.0061541;3.50624;0.285206;46.8749;91.8749;0.00885049;-0.0018638;-0.00527691;0.0080087;0.00695388;0.0173791;0.027204;0;0.0355734;0.111395;-1.27975;-1.47129;1.95317;-8.04425;-0.00881874;0.00129303;0.0416016;0.0416348;-0.00885188;0.0252433;0.211981;4.71741;0.0311295;0.0336578;4.7035;0.212608;99.0228;144.023;-0.0085572;-0.00883023;0.00784849;-0.00494515;0.0415729;0.0184445;0.0692638;0;0.0838947;8.75551;5.47223
493000;494;26.2692;0.511492;0.0198578;-2.18931;26.1552;-1.08945;-0.00205942;0.490458;-1.0919;0.107853;-0.783175;-0.406965;0.889166;-6.96039;-0.00179187;0.00133134;0.0069316;0.00713025;-0.00199053;0.00456039;0.258508;3.86835;0.00553758;0.00608053;3.58208;0.279167;47.3268;92.3268;0.00881904;-0.00182189;-0.00524952;0.00785512;0.00691879;0.0175703;0.0257712;0;0.04684;0.110677;-1.28501;-1.47968;1.9629;-8.05617;-0.00902407;0.00158168;0.0422801;0.0423288;-0.00907278;0.0257008;0.213436;4.68526;0.0316795;0.0342677;4.66547;0.214341;97.3123;142.312;-0.0091261;-0.00903019;0.00726915;-0.00382589;0.0422559;0.0160581;0.0654877;0;0.0941252;8.75581;5.47444
494000;495;26.2826;0.52485;0.0203764;-2.18998;26.1683;-1.09369;-0.00272813;0.503642;-1.09613;0.10755;-0.784153;-0.404355;0.888801;-6.95778;-0.00184568;0.00142248;0.0071367;0.00735659;-0.00206556;0.00471107;0.258618;3.86671;0.00571864;0.00628143;3.56154;0.280777;47.2167;92.2167;0.00878434;-0.0018768;-0.00522388;0.00800949;0.00712416;0.0174212;0.0259261;0;0.0397514;0.109943;-1.29172;-1.48169;1.96877;-8.05818;-0.00913844;0.00127976;0.0428837;0.0429151;-0.00916991;0.0260425;0.213099;4.69267;0.0321062;0.0347234;4.67999;0.213675;98.067;143.067;-0.00856402;-0.00914768;0.00732768;-0.00446651;0.0428587;0.0151091;0.0661377;0;0.0818069;8.76529;5.47918
495000;496;26.2934;0.535638;0.0207952;-2.18938;26.1796;-1.08407;-0.00213104;0.514927;-1.08652;0.107066;-0.783928;-0.412623;0.892336;-6.96605;-0.00176524;0.00130418;0.00721259;0.00739821;-0.00195086;0.00467453;0.244745;4.08589;0.00569492;0.00623271;3.79228;0.263694;48.4252;93.4252;0.0087649;-0.00179442;-0.00519205;0.00774245;0.00720005;0.0169561;0.0264781;0;0.0334161;0.109033;-1.29869;-1.48994;1.9795;-8.0629;-0.00906087;0.000706549;0.0431892;0.0431988;-0.00907042;0.0261346;0.209795;4.76657;0.0322507;0.0348461;4.7626;0.209969;99.6774;144.677;-0.00844373;-0.00907736;0.00751404;-0.00576;0.0431624;0.0115865;0.0623457;0;0.0778211;8.7848;5.48637
496000;497;26.2857;0.527944;0.0204965;-2.18732;26.1725;-1.07486;-6.73323e-05;0.507752;-1.0773;0.108235;-0.786113;-0.403833;0.890376;-6.95726;-0.00177774;0.00139521;0.00691132;0.00712985;-0.00199627;0.00456306;0.257221;3.8877;0.00553988;0.00608408;3.57158;0.279988;46.9858;91.9858;0.00823369;-0.00180772;-0.00512743;0.00786151;0.00689923;0.0178897;0.0271217;0;0.0363306;0.109525;-1.30824;-1.48227;1.98006;-8.05523;-0.00936272;0.000823721;0.0439613;0.043974;-0.00937544;0.0266747;0.212976;4.69536;0.0328896;0.0355663;4.69034;0.213204;99.7131;144.713;-0.0109209;-0.00937953;0.00783622;-0.00583062;0.0439322;0.0177608;0.067411;0;0.0826614;8.7959;5.49398
497000;498;26.2935;0.535749;0.0207995;-2.18817;26.1797;-1.08696;-0.000918972;0.51502;-1.0894;0.108535;-0.78736;-0.400531;0.890023;-6.95396;-0.00178094;0.00130234;0.00697247;0.00716212;-0.00197059;0.00456636;0.255424;3.91506;0.00554949;0.00608848;3.63451;0.27514;47.6716;92.6716;0.00882045;-0.00181053;-0.00524822;0.0077959;0.00695964;0.0169907;0.0269035;0;0.0280697;0.109971;-1.31675;-1.48483;1.98763;-8.05779;-0.00963818;0.000650142;0.0441606;0.0441685;-0.00964604;0.0269073;0.218253;4.58184;0.0331324;0.0358763;4.57892;0.218392;99.086;144.086;-0.0101489;-0.00965285;0.00705957;-0.00542907;0.044137;0.0167653;0.068994;0;0.0852332;8.79817;5.50126
498000;499;26.3145;0.556742;0.0216146;-2.19136;26.1999;-1.10105;-0.00410865;0.535249;-1.10349;0.107778;-0.786537;-0.403747;0.890656;-6.95718;-0.00183963;0.00135966;0.00723129;0.00743071;-0.00203905;0.00473488;0.254398;3.93085;0.00575518;0.00631317;3.64421;0.274408;47.9794;92.9794;0.00872763;-0.00186965;-0.00519973;0.00785993;0.00721879;0.017313;0.0259549;0;0.0292301;0.10816;-1.32386;-1.48876;1.99517;-8.06172;-0.00941924;0.000997729;0.0447782;0.0447966;-0.0094376;0.0271171;0.210353;4.75391;0.0334569;0.0361561;4.74661;0.210677;98.8436;143.844;-0.010588;-0.00943298;0.00765386;-0.00531316;0.0447507;0.020571;0.0708365;0;0.0802644;8.79863;5.5083
499000;500;26.3114;0.553616;0.0214932;-2.19034;26.1968;-1.10413;-0.00309102;0.532064;-1.10657;0.108394;-0.78734;-0.400935;0.89017;-6.95436;-0.00180854;0.00133325;0.00729376;0.00748503;-0.00199981;0.00474242;0.247957;4.03295;0.00577326;0.00632323;3.74287;0.267175;48.3945;93.3945;0.00864294;-0.00183809;-0.00518781;0.00779533;0.00728129;0.0170248;0.0270961;0;0.0414794;0.108595;-1.33058;-1.48939;2.00013;-8.06235;-0.00947944;0.00103906;0.0451635;0.0451833;-0.00949919;0.0273412;0.209891;4.76437;0.0337373;0.036455;4.75654;0.210237;98.6146;143.615;-0.00925338;-0.00949251;0.00761592;-0.005194;0.0451363;0.0192517;0.0723929;0;0.0933915;8.79934;5.51583
500000;501;26.3207;0.562922;0.0218545;-2.19312;26.2054;-1.11571;-0.00586568;0.540689;-1.11815;0.108167;-0.788665;-0.400482;0.891111;-6.95391;-0.00180946;0.00136304;0.00737746;0.00757543;-0.00200742;0.00479143;0.245268;4.07717;0.00583568;0.00638857;3.77371;0.264991;48.4025;93.4025;0.00918285;-0.00183943;-0.0051883;0.00785458;0.00736503;0.0167491;0.0267784;0;0.0289922;0.108015;-1.33888;-1.49033;2.00633;-8.06329;-0.00965036;0.0012899;0.0461128;0.0461426;-0.00968018;0.0279114;0.209277;4.77835;0.0344449;0.0372152;4.76671;0.209788;97.8019;142.802;-0.00870031;-0.00966054;0.00758606;-0.00467069;0.0460861;0.0191237;0.0750114;0;0.0806553;8.81284;5.52336
501000;502;;;;;;;;;;0.10734;-0.788397;-0.401999;0.891457;-6.95543;-0.00201638;0.00137115;0.00728219;0.00748016;-0.00221435;0.00484726;0.276892;3.61151;0.00586591;0.00646301;3.37803;0.29603;47.9648;92.9648;0.00827773;-0.00204599;-0.00512663;0.00780889;0.00727008;0.0177224;0.0265079;0;0.0503924;0.106963;-1.34609;-1.4946;2.01426;-8.06907;-0.00932299;0.00148238;0.0466078;0.046647;-0.00936225;0.0280046;0.200031;4.99923;0.0346431;0.0373395;4.98246;0.200704;96.0183;141.018;-0.0103477;-0.00932804;0.00673985;-0.00349418;0.0465871;0.0156608;0.0658548;0;0.100194;8.82359;5.5312
502000;503;26.3422;0.584428;0.0226894;-2.19246;26.2274;-1.10728;-0.00520443;0.562702;-1.10972;0.107964;-0.790199;-0.396661;0.890736;-6.95009;-0.0020429;0.00120058;0.00720856;0.00736183;-0.00219616;0.00477899;0.283399;3.5286;0.00578071;0.00637199;3.35214;0.298317;48.6643;93.6643;0.00885488;-0.00207166;-0.00533058;0.0076717;0.00719517;0.017518;0.0265009;0;0.0392998;0.106723;-1.35439;-1.49237;2.01816;-8.06886;-0.0101024;0.000786021;0.0474015;0.0474123;-0.0101131;0.0287627;0.213123;4.69212;0.0354632;0.0383503;4.6882;0.213302;97.2612;142.261;-0.00950826;-0.0101125;0.00642421;-0.00454264;0.0473821;0.0127947;0.0649713;0;0.0948256;8.83023;5.53782
503000;504;26.3438;0.586049;0.0227524;-2.19038;26.2301;-1.08467;-0.00312546;0.565449;-1.08812;0.107842;-0.790069;-0.39862;0.891481;-6.95205;-0.00186908;0.00138929;0.00740495;0.0076086;-0.00207273;0.00484067;0.25241;3.96181;0.00588624;0.00645422;3.67081;0.27242;48.3244;93.3244;0.00825032;-0.00189894;-0.00512568;0.00784423;0.00739287;0.0175817;0.0261326;0;0.041441;0.105564;-1.36403;-1.49694;2.02794;-8.07481;-0.0101639;0.000573781;0.0477983;0.047804;-0.0101696;0.0289868;0.212642;4.70275;0.0357447;0.038649;4.70068;0.212735;98.0974;143.097;-0.0105092;-0.0101776;0.0067314;-0.00524323;0.0477768;0.0138256;0.0647139;0;0.0977151;8.83862;5.54486
504000;505;26.3563;0.59852;0.0232365;-2.19569;26.2405;-1.12465;-0.00843639;0.575846;-1.1271;0.108061;-0.791013;-0.395949;0.891154;-6.94938;-0.00193844;0.00133436;0.00738763;0.0075748;-0.0021256;0.0048502;0.262389;3.81113;0.00588772;0.00646693;3.5636;0.280615;48.503;93.503;0.00892187;-0.00196801;-0.00518958;0.00779785;0.00737515;0.0166875;0.0266517;0;0.0468462;0.105697;-1.37058;-1.49582;2.03153;-8.06878;-0.0103259;0.000524532;0.0477625;0.0477672;-0.0103307;0.0290489;0.216194;4.62548;0.0357889;0.0387319;4.62382;0.216271;96.9026;141.903;-0.00994145;-0.0103355;0.00572435;-0.00438702;0.0477469;0.0165747;0.0703267;0;0.0977914;8.83757;5.5516
505000;506;;;;;;;;;;0.107712;-0.790548;-0.397648;0.891455;-6.95108;-0.00198347;0.00149424;0.00754896;0.0077777;-0.00221221;0.00499495;0.262747;3.80594;0.00605869;0.00665994;3.51581;0.284429;48.0108;93.0108;0.00859776;-0.00201403;-0.00502482;0.00795156;0.00753754;0.0175299;0.0257616;0;0.0468454;0.105015;-1.37916;-1.49881;2.0395;-8.07297;-0.0101369;0.000665913;0.0487611;0.0487686;-0.0101444;0.0294565;0.207888;4.81028;0.0363686;0.0392753;4.80745;0.208011;97.9129;142.913;-0.00807782;-0.0101504;0.00691072;-0.00522822;0.0487385;0.0113085;0.0734006;0;0.100215;8.84305;5.55406
506000;507;26.3727;0.615001;0.0238764;-2.19486;26.2572;-1.12313;-0.00760282;0.592535;-1.12557;0.107245;-0.79161;-0.398841;0.892873;-6.95227;-0.00192288;0.00148141;0.00734497;0.007576;-0.00215391;0.00486496;0.261795;3.81978;0.00590115;0.00648661;3.51732;0.284307;47.3943;92.3943;0.0084505;-0.00195433;-0.00515899;0.00806064;0.00733284;0.0175537;0.025354;0;0.0409456;0.103972;-1.38617;-1.50384;2.04788;-8.0768;-0.0102805;0.000818452;0.0493379;0.0493491;-0.0102917;0.0298204;0.208368;4.79919;0.0368127;0.0397605;4.79505;0.208549;97.6269;142.627;-0.00941024;-0.0102929;0.0070213;-0.00503201;0.0493147;0.0177842;0.0790447;0;0.0873743;8.84718;5.55998
507000;508;26.368;0.610304;0.023694;-2.19458;26.2526;-1.12275;-0.00732533;0.587856;-1.12519;0.108006;-0.793329;-0.394616;0.892613;-6.94804;-0.00188999;0.0015121;0.00747642;0.00771448;-0.00212806;0.00492127;0.252794;3.95579;0.00597992;0.00656169;3.62513;0.275852;47.671;92.671;0.00868441;-0.00192136;-0.00509275;0.00805549;0.00746468;0.0182214;0.0266011;0;0.0372979;0.104121;-1.39439;-1.50295;2.05281;-8.07591;-0.0105173;0.00113314;0.0497189;0.0497402;-0.0105386;0.0301394;0.211535;4.72735;0.0371743;0.0401858;4.71981;0.211873;96.296;141.296;-0.00836091;-0.0105246;0.00655255;-0.00397532;0.049699;0.0148531;0.0753944;0;0.0922042;8.86225;5.56693
508000;509;26.3853;0.627598;0.0243654;-2.19499;26.2699;-1.12318;-0.00773319;0.605174;-1.12562;0.108372;-0.79268;-0.398889;0.893979;-6.95232;-0.00193358;0.00137592;0.00785974;0.00804938;-0.00212322;0.0050863;0.246011;4.06487;0.00619645;0.00678173;3.79112;0.263774;49.5552;94.5552;0.00853826;-0.00196326;-0.00513106;0.00781962;0.00784762;0.0172722;0.0249714;0;0.0459649;0.104316;-1.40247;-1.50881;2.0626;-8.08546;-0.0108084;0.00172292;0.0502993;0.0503478;-0.0108569;0.0306024;0.214881;4.65373;0.0377088;0.0408031;4.63739;0.215638;94.8624;139.862;-0.00873793;-0.0108108;0.00649509;-0.00277164;0.0502806;0.0157886;0.0638148;0;0.096198;8.86595;5.5743
509000;510;26.3962;0.638458;0.024787;-2.1951;26.2809;-1.11998;-0.0078475;0.616209;-1.12242;0.107837;-0.793657;-0.397653;0.89423;-6.95108;-0.00199029;0.00149959;0.0077126;0.00793908;-0.00221677;0.00507792;0.258057;3.87511;0.00616593;0.00677056;3.58137;0.279223;48.1452;93.1452;0.00875634;-0.00202226;-0.00519311;0.00812778;0.00770033;0.0177119;0.0256612;0;0.0327665;0.103053;-1.41066;-1.51211;2.07052;-8.08948;-0.0111404;0.000755767;0.0516691;0.0516782;-0.0111495;0.0314138;0.21561;4.63799;0.0387076;0.0418851;4.63503;0.215748;96.1909;141.191;-0.00995682;-0.0111488;0.0059779;-0.0041545;0.0516523;0.0176792;0.0696488;0;0.0961931;8.86673;5.58191
510000;511;26.3903;0.632562;0.0245581;-2.1925;26.2757;-1.10852;-0.00524758;0.61099;-1.11097;0.107991;-0.794877;-0.394369;0.893878;-6.9478;-0.00187165;0.0015686;0.00786611;0.00811255;-0.00211809;0.00511532;0.237939;4.20276;0.00623549;0.00682043;3.83012;0.261088;48.4883;93.4883;0.00895598;-0.00190312;-0.00500522;0.00807884;0.0078549;0.0165727;0.0268668;0;0.0337246;0.102713;-1.41944;-1.51015;2.07506;-8.08848;-0.0115084;0.000606133;0.0524415;0.0524472;-0.0115141;0.0319807;0.219452;4.55681;0.0393682;0.0426409;4.55503;0.219537;96.2567;141.257;-0.00859597;-0.0115175;0.00582001;-0.00429095;0.0524256;0.0144582;0.0704908;0;0.100031;8.8705;5.58961
511000;512;;;;;;;;;;0.108475;-0.796205;-0.391136;0.893699;-6.94456;-0.00203752;0.00149102;0.00786153;0.00808124;-0.00225722;0.00516923;0.259176;3.85838;0.00627668;0.00689231;3.58017;0.279317;48.6869;93.6869;0.00874878;-0.00206866;-0.00510648;0.00802364;0.0078497;0.0172577;0.0264863;0;0.0314791;0.102307;-1.42933;-1.51014;2.08183;-8.08791;-0.0112918;0.0007717;0.0520983;0.0521077;-0.0113012;0.0317044;0.21674;4.61382;0.0390544;0.0422726;4.61081;0.216881;95.9834;140.983;-0.0103988;-0.0112997;0.00587338;-0.00402262;0.0520822;0.0111685;0.0687538;0;0.0976103;8.87844;5.59635
512000;513;26.4204;0.662622;0.0257252;-2.19725;26.3047;-1.12741;-0.0100005;0.639981;-1.12986;0.108132;-0.795752;-0.391832;0.893558;-6.94526;-0.00201258;0.00131419;0.0080385;0.00820749;-0.00218157;0.00519453;0.250368;3.99412;0.00632552;0.00692605;3.76219;0.265803;50.0735;95.0735;0.00919331;-0.00204273;-0.0053054;0.00786772;0.0080254;0.0166773;0.0257331;0;0.0327808;0.10177;-1.43496;-1.51383;2.08833;-8.09057;-0.0113619;0.000673923;0.0534931;0.0535001;-0.0113689;0.0324345;0.212399;4.70813;0.0399986;0.043246;4.70584;0.212502;96.8411;141.841;-0.010582;-0.0113736;0.00657195;-0.00486103;0.0534728;0.0173302;0.078035;0;0.0874081;8.88061;5.60382
513000;514;26.4257;0.667962;0.0259325;-2.1963;26.31;-1.13102;-0.00904911;0.64527;-1.13347;0.108034;-0.798572;-0.388389;0.894558;-6.94182;-0.00208985;0.00128306;0.00795226;0.0081136;-0.00225119;0.0051824;0.2628;3.80518;0.0062951;0.00690986;3.60413;0.277459;49.9872;94.9872;0.00856507;-0.00211956;-0.00530548;0.00780591;0.00793911;0.0175791;0.0261785;0;0.039015;0.1012;-1.44367;-1.51353;2.09409;-8.08649;-0.0112778;0.000834143;0.0534596;0.0534704;-0.0112886;0.0323795;0.21096;4.74025;0.0399451;0.0431726;4.73669;0.211118;96.2132;141.213;-0.0108753;-0.011287;0.00633723;-0.00433079;0.0534409;0.0124551;0.0756386;0;0.0855332;8.88662;5.61096
514000;515;26.4297;0.671977;0.0260884;-2.19684;26.3136;-1.13983;-0.00958347;0.648878;-1.14227;0.108663;-0.796901;-0.390379;0.89401;-6.94381;-0.00202648;0.00135258;0.00805965;0.00823789;-0.00220472;0.0052213;0.251436;3.97716;0.0063556;0.00696174;3.73648;0.267632;49.9227;94.9227;0.00885066;-0.00205681;-0.00525754;0.00789651;0.00804685;0.0176154;0.0271983;0;0.0368949;0.101674;-1.45036;-1.517;2.10124;-8.09049;-0.0112664;0.0011798;0.0534026;0.0534241;-0.011288;0.032356;0.210972;4.73997;0.0399144;0.0431414;4.73284;0.21129;95.1988;140.199;-0.0099011;-0.0112717;0.00609729;-0.00343583;0.0533856;0.0195848;0.0834977;0;0.0938225;8.8969;5.61894
515000;516;26.4354;0.67763;0.0263078;-2.19805;26.3188;-1.14805;-0.0107979;0.654097;-1.15049;0.108367;-0.798289;-0.388963;0.894595;-6.94239;-0.00213689;0.00122803;0.00783899;0.00798793;-0.00228583;0.00513688;0.272598;3.66841;0.00622865;0.00684918;3.49454;0.286161;49.8859;94.8859;0.00831088;-0.00216653;-0.00539791;0.00778833;0.00782528;0.0180012;0.025444;0;0.0298562;0.100536;-1.45939;-1.51891;2.10879;-8.0954;-0.011639;0.000904413;0.0546238;0.0546362;-0.0116513;0.0331437;0.213075;4.69318;0.0408653;0.0441917;4.68927;0.213253;95.0323;140.032;-0.00967373;-0.0116447;0.00557089;-0.00346888;0.0546095;0.0147772;0.0695089;0;0.0987858;8.90204;5.62587
516000;517;26.4475;0.689801;0.0267804;-2.19692;26.3314;-1.14037;-0.00966722;0.66675;-1.14281;0.107698;-0.797281;-0.393284;0.895504;-6.94671;-0.00210124;0.00128129;0.00808194;0.00824068;-0.00225998;0.00525033;0.259992;3.84627;0.00638192;0.00700044;3.64635;0.274247;50.1891;95.1891;0.00838364;-0.0021315;-0.00538078;0.007876;0.00806839;0.0180669;0.0260821;0;0.0275695;0.0996231;-1.46657;-1.5256;2.11854;-8.10117;-0.0120633;0.000830262;0.0562352;0.0562453;-0.0120734;0.0341594;0.214515;4.66167;0.0421024;0.0455458;4.65861;0.214656;95.356;140.356;-0.00928698;-0.0120705;0.0058359;-0.00385171;0.0562194;0.0132215;0.0683199;0;0.0943121;8.90197;5.63083
517000;518;26.4526;0.694859;0.0269767;-2.20024;26.3358;-1.15123;-0.0129882;0.671081;-1.15367;0.108074;-0.800295;-0.386721;0.895379;-6.94015;-0.00207316;0.00126589;0.00808533;0.0082407;-0.00222853;0.00523462;0.25641;3.9;0.00636798;0.00697949;3.69782;0.27043;50.4315;95.4315;0.00860109;-0.00210274;-0.00532171;0.00778705;0.00807208;0.0171185;0.0257878;0;0.0305952;0.0990345;-1.47669;-1.52368;2.12415;-8.10228;-0.0122651;0.000399221;0.057099;0.0571013;-0.0122674;0.0346844;0.214804;4.65541;0.0427475;0.0462458;4.65472;0.214836;95.8591;140.859;-0.0105893;-0.0122751;0.0056025;-0.00446264;0.0570842;0.0132398;0.0776525;0;0.096726;8.90731;5.63518
518000;519;26.4655;0.707769;0.0274779;-2.20022;26.349;-1.14447;-0.0129684;0.684343;-1.14691;0.108819;-0.802318;-0.382559;0.895492;-6.93599;-0.00202611;0.00157156;0.00811413;0.00835211;-0.00226409;0.0053081;0.249701;4.00479;0.00645648;0.00707746;3.68895;0.271079;48.8712;93.8712;0.00888135;-0.0020581;-0.0050671;0.00814337;0.00810262;0.0164;0.0261703;0;0.0291853;0.0990628;-1.48601;-1.52139;2.129;-8.09999;-0.0125517;0.000529181;0.0576152;0.0576192;-0.0125557;0.0350874;0.217854;4.59023;0.0432104;0.0467832;4.58909;0.217908;95.3981;140.398;-0.0114957;-0.0125599;0.00544928;-0.0040645;0.0576013;0.0148974;0.0700055;0;0.0885224;8.91297;5.64126
519000;520;26.4734;0.715616;0.0277826;-2.2014;26.3567;-1.14779;-0.0141509;0.691983;-1.15023;0.107965;-0.800143;-0.388268;0.895901;-6.9417;-0.00206786;0.00133686;0.00856035;0.00872592;-0.00223344;0.00547968;0.241563;4.13971;0.00668726;0.00730624;3.90695;0.255954;51.0428;96.0428;0.00867042;-0.00209874;-0.00536017;0.00796326;0.00854699;0.0173866;0.0261474;0;0.0342873;0.0975286;-1.4923;-1.53036;2.13974;-8.10896;-0.0123197;0.000591295;0.0580501;0.058055;-0.0123246;0.0351898;0.212225;4.71198;0.0433989;0.0469198;4.71049;0.212292;96.0877;141.088;-0.0121661;-0.0123306;0.00624157;-0.00468321;0.0580318;0.0182889;0.0684023;0;0.091015;8.91597;5.6487
520000;521;26.4778;0.72009;0.0279563;-2.19939;26.3613;-1.14845;-0.0121361;0.696616;-1.15089;0.108319;-0.802665;-0.386227;0.897316;-6.93965;-0.00213898;0.0013184;0.00854359;0.0087039;-0.00229929;0.00550159;0.250361;3.99423;0.00670182;0.00733546;3.78547;0.264168;51.1468;96.1468;0.00880464;-0.00216913;-0.0053013;0.00786793;0.00853052;0.0171367;0.0258265;0;0.0418294;0.0982534;-1.50096;-1.53002;2.14557;-8.10298;-0.0119271;0.000722898;0.0580908;0.0580983;-0.0119346;0.0350164;0.205318;4.87049;0.0432626;0.0466886;4.86807;0.20542;95.1198;140.12;-0.0120725;-0.0119345;0.00565968;-0.00388721;0.058076;0.00925982;0.0783365;0;0.0988639;8.93083;5.65476
521000;522;26.4833;0.725573;0.0281691;-2.19971;26.3663;-1.15997;-0.0124581;0.701592;-1.16241;0.107934;-0.804176;-0.383564;0.897479;-6.93699;-0.00220623;0.00140353;0.00849458;0.0086756;-0.00238726;0.00553143;0.259723;3.85026;0.0067223;0.00737524;3.63413;0.275169;50.5635;95.5635;0.00904237;-0.00223676;-0.00519285;0.00792985;0.00848218;0.016455;0.0258491;0;0.0400587;0.0974015;-1.51154;-1.52911;2.15231;-8.10524;-0.012281;0.000751785;0.0579865;0.0579945;-0.012289;0.0351418;0.211791;4.72164;0.043344;0.0468557;4.71921;0.2119;95.1791;140.179;-0.00900618;-0.0122883;0.0057101;-0.00387723;0.0579714;0.0153606;0.0820091;0;0.106679;8.93229;5.66199
522000;523;26.4844;0.7267;0.0282129;-2.19931;26.3676;-1.15713;-0.0120611;0.702881;-1.15957;0.108189;-0.803581;-0.385568;0.897836;-6.939;-0.0020924;0.00134215;0.00874678;0.0089105;-0.00225612;0.00558331;0.239219;4.18027;0.00681795;0.00744441;3.94949;0.253197;51.6102;96.6102;0.00893414;-0.00212248;-0.00525029;0.00786371;0.00873401;0.0165133;0.025283;0;0.0321776;0.0967473;-1.51904;-1.53481;2.16159;-8.1134;-0.0128402;0.000908306;0.0593394;0.0593509;-0.0128516;0.0361012;0.216385;4.62139;0.0444744;0.048135;4.61817;0.216536;94.8326;139.833;-0.00918861;-0.0128463;0.0057456;-0.00359941;0.0593243;0.014941;0.0789532;0;0.0999269;8.93193;5.66855
523000;524;26.4895;0.731735;0.0284083;-2.199;26.3729;-1.15179;-0.0117425;0.708199;-1.15423;0.108218;-0.805614;-0.381277;0.89783;-6.93471;-0.00210339;0.00124991;0.008625;0.00876869;-0.00224708;0.00550789;0.243871;4.10053;0.00672122;0.00734385;3.90225;0.256262;51.6981;96.6981;0.00871248;-0.00213321;-0.00538678;0.00781596;0.00861139;0.0173179;0.0262756;0;0.0329503;0.0961801;-1.5284;-1.534;2.16758;-8.11259;-0.0131694;0.000479831;0.0606355;0.0606386;-0.0131725;0.0369056;0.21719;4.60427;0.0454573;0.0492074;4.60342;0.21723;94.7414;139.741;-0.0112266;-0.0131764;0.00502333;-0.00374752;0.0606237;0.013586;0.0804024;0;0.106575;8.93124;5.67633
524000;525;26.5001;0.742388;0.028822;-2.20108;26.3833;-1.15412;-0.0138315;0.718624;-1.15656;0.108265;-0.8055;-0.37966;0.897047;-6.93309;-0.00217412;0.00141551;0.00853348;0.00871745;-0.00235808;0.00553777;0.254775;3.92503;0.00673666;0.00738369;3.69683;0.270502;50.5459;95.5459;0.00877093;-0.00220514;-0.0052334;0.00799376;0.0085209;0.0171916;0.0265004;0;0.0331655;0.09572;-1.53571;-1.53386;2.17262;-8.11245;-0.0131489;0.000608621;0.0619141;0.061919;-0.0131538;0.0375364;0.212373;4.70871;0.0462912;0.0500486;4.70731;0.212435;94.7893;139.789;-0.0119195;-0.0131562;0.00541302;-0.00385618;0.0619005;0.014199;0.0763129;0;0.100699;8.93133;5.68291
525000;526;26.5194;0.76162;0.0295686;-2.2026;26.402;-1.16666;-0.0153496;0.737262;-1.1691;0.10877;-0.804008;-0.383724;0.897498;-6.93715;-0.00210813;0.00141688;0.00892871;0.00910771;-0.00228712;0.00569741;0.236107;4.23537;0.00696058;0.00759655;3.98217;0.251119;51.5399;96.5399;0.0087226;-0.0021392;-0.00524072;0.00800159;0.0089161;0.0176966;0.0251882;0;0.0248617;0.0955047;-1.54095;-1.54249;2.18242;-8.12109;-0.0133789;0.000498;0.0628302;0.0628335;-0.0133822;0.0381078;0.212937;4.69622;0.0469892;0.0508104;4.69532;0.212978;94.6521;139.652;-0.0122007;-0.0133862;0.00515858;-0.00382841;0.0628178;0.0163032;0.0804928;0;0.0887995;8.93519;5.68956
526000;527;26.5252;0.767452;0.029795;-2.20195;26.408;-1.16307;-0.0146924;0.743334;-1.16552;0.108832;-0.806162;-0.380794;0.89819;-6.93422;-0.00212845;0.00151218;0.00880175;0.0090071;-0.0023338;0.00567045;0.241821;4.13529;0.00691521;0.0075606;3.85941;0.259107;50.8252;95.8252;0.00863818;-0.00215982;-0.00510317;0.00805579;0.00878997;0.0172588;0.0259974;0;0.02479;0.0951773;-1.55101;-1.54369;2.19035;-8.12662;-0.0137584;0.000458823;0.063241;0.0632437;-0.0137611;0.0385024;0.217555;4.59654;0.0474198;0.0513366;4.59583;0.217589;94.8998;139.9;-0.0131932;-0.0137666;0.00532803;-0.00405777;0.0632277;0.00801518;0.0708098;0;0.0926992;8.95238;5.69534
527000;528;26.5302;0.772455;0.0299892;-2.20188;26.4126;-1.17298;-0.0146224;0.747926;-1.17542;0.108915;-0.80789;-0.378274;0.898688;-6.9317;-0.00223667;0.0013759;0.0085071;0.00868051;-0.00241008;0.00554529;0.262918;3.80347;0.00673565;0.00739372;3.60176;0.277642;50.4922;95.4922;0.00890395;-0.002268;-0.00534515;0.00802529;0.00849387;0.0166553;0.0262045;0;0.0376032;0.0954473;-1.55946;-1.54162;2.1949;-8.11708;-0.0129577;0.00117366;0.0608176;0.0608363;-0.0129764;0.0369064;0.213059;4.69355;0.045504;0.0492085;4.68823;0.2133;92.894;137.894;-0.0105223;-0.012959;0.00456619;-0.00198294;0.0608085;0.0229739;0.0678519;0;0.0988225;8.9607;5.7052
528000;529;26.5384;0.780675;0.0303084;-2.20264;26.4206;-1.17746;-0.0153869;0.75592;-1.1799;0.109236;-0.807359;-0.376587;0.89754;-6.93002;-0.0021815;0.00137579;0.00906187;0.00922777;-0.0023474;0.00578758;0.240733;4.15397;0.00706551;0.00771678;3.93107;0.254384;51.9847;96.9847;0.00877255;-0.00221221;-0.00527202;0.00794946;0.00904904;0.0175556;0.0261432;0;0.0347309;0.0947278;-1.56813;-1.54181;2.20118;-8.12039;-0.0131819;0.000868248;0.0620228;0.0620328;-0.013192;0.0376124;0.212534;4.70514;0.0463821;0.0501498;4.70232;0.212661;93.5962;138.596;-0.0077426;-0.0131854;0.00475232;-0.00274079;0.0620125;0.00792488;0.0708013;0;0.108645;8.96058;5.71016
529000;530;26.5399;0.782137;0.0303651;-2.20101;26.4223;-1.17563;-0.0137605;0.757606;-1.17807;0.108803;-0.807275;-0.37987;0.898795;-6.9333;-0.00218344;0.00139079;0.00906039;0.00922987;-0.00235292;0.0057914;0.240988;4.14959;0.0070693;0.00772186;3.92273;0.254925;51.6249;96.6249;0.00926939;-0.00221557;-0.00542121;0.00812682;0.00904679;0.0168782;0.0252866;0;0.0451101;0.0936195;-1.57755;-1.54956;2.21327;-8.13064;-0.0136481;0.000465969;0.0643119;0.0643147;-0.0136509;0.0389828;0.212217;4.71215;0.0480772;0.0519771;4.7114;0.212251;94.7193;139.719;-0.010763;-0.0136561;0.00528183;-0.00399714;0.0642989;0.012483;0.0759212;0;0.122671;8.97495;5.71895
530000;531;26.5573;0.799535;0.0310406;-2.20423;26.4393;-1.18114;-0.0169813;0.774567;-1.18358;0.109504;-0.810201;-0.37402;0.899059;-6.92745;-0.0022029;0.00142803;0.00912124;0.00929855;-0.0023802;0.00583937;0.241513;4.14057;0.00712619;0.00778583;3.90662;0.255976;51.5842;96.5842;0.00904631;-0.00223518;-0.00537261;0.00815229;0.00910795;0.0169541;0.0270204;0;0.0378507;0.093417;-1.58858;-1.54793;2.22;-8.12902;-0.0141402;0.000763978;0.0657981;0.0658054;-0.0141475;0.0399764;0.214903;4.65327;0.0492679;0.0533019;4.65138;0.21499;94.2217;139.222;-0.0122606;-0.0141462;0.00539136;-0.00351635;0.0657847;0.0140327;0.0841239;0;0.110593;8.97032;5.72621
531000;532;26.554;0.79627;0.0309138;-2.20325;26.4362;-1.17762;-0.0159987;0.771527;-1.18006;0.109454;-0.810742;-0.373499;0.899324;-6.92693;-0.00225404;0.00143946;0.00896562;0.00914736;-0.00243577;0.00579156;0.251409;3.97759;0.00705181;0.00772209;3.75542;0.266282;51.229;96.229;0.00859347;-0.00228586;-0.00529353;0.00809751;0.00895276;0.0177449;0.0266542;0;0.0405768;0.0927311;-1.59702;-1.55074;2.22798;-8.13183;-0.0143958;0.000420421;0.0673808;0.067383;-0.0143979;0.0408904;0.213648;4.6806;0.0504114;0.0545206;4.68004;0.213673;94.1961;139.196;-0.0122367;-0.0144027;0.00489119;-0.00370783;0.0673697;0.0174785;0.0784552;0;0.105055;8.96839;5.72984
532000;533;26.572;0.814248;0.0316118;-2.20601;26.4535;-1.18911;-0.0187531;0.78884;-1.19155;0.109439;-0.810715;-0.373146;0.899151;-6.92657;-0.00239173;0.00148802;0.00922284;0.00941045;-0.00257934;0.0059949;0.259327;3.85614;0.0072872;0.00799319;3.6484;0.274093;51.5642;96.5642;0.00897501;-0.0024233;-0.00517597;0.00807524;0.00921067;0.0173685;0.0268125;0;0.0330194;0.0922702;-1.60385;-1.55193;2.23368;-8.12841;-0.0140316;0.000705481;0.0667979;0.0668041;-0.0140378;0.0404209;0.210061;4.76053;0.0498782;0.0538946;4.75888;0.210134;93.6315;138.631;-0.0126636;-0.0140362;0.00479404;-0.00307331;0.0667874;0.0116733;0.078167;0;0.0954108;8.96528;5.73424
533000;534;26.5805;0.822732;0.0319411;-2.20321;26.4626;-1.183;-0.015957;0.797869;-1.18545;0.10969;-0.810893;-0.373077;0.899314;-6.92651;-0.00231347;0.00122995;0.00906152;0.00919299;-0.00244494;0.00581897;0.255307;3.91685;0.00708567;0.00775862;3.76;0.265957;52.4301;97.4301;0.00933075;-0.00234369;-0.00547753;0.00786177;0.0090474;0.0168848;0.0270087;0;0.0381198;0.0922809;-1.61194;-1.5581;2.24378;-8.14554;-0.0149368;0.00169214;0.0680327;0.0680672;-0.0149713;0.0415192;0.219553;4.55471;0.0511048;0.055359;4.54652;0.219949;92.0872;137.087;-0.00987099;-0.0149362;0.00492837;-0.00129271;0.0680226;0.00936029;0.0776235;0;0.1071;8.9609;5.74132
534000;535;26.5852;0.827495;0.0321261;-2.20451;26.4666;-1.19642;-0.0172592;0.801942;-1.19887;0.10987;-0.811522;-0.372853;0.89981;-6.92628;-0.00221702;0.0013481;0.0093666;0.00952142;-0.00237184;0.00594663;0.236694;4.22486;0.00726839;0.00792884;4.01436;0.249106;52.6156;97.6156;0.00929713;-0.00224821;-0.00538536;0.00800422;0.00935313;0.0176525;0.0259656;0;0.0318968;0.0919511;-1.6185;-1.55928;2.2493;-8.14429;-0.0143535;0.00106671;0.0677551;0.0677689;-0.0143673;0.0410681;0.211843;4.72047;0.0506522;0.0547575;4.71688;0.212004;92.6442;137.644;-0.0113942;-0.014355;0.00445526;-0.00206127;0.0677463;0.00809966;0.0733919;0;0.109012;8.96472;5.74889
535000;536;26.5923;0.834597;0.0324018;-2.20505;26.4736;-1.19983;-0.0177937;0.808877;-1.20227;0.109889;-0.812037;-0.372215;0.900014;-6.92564;-0.0023769;0.00150692;0.00926093;0.00945289;-0.00256886;0.00601088;0.256659;3.89622;0.00731025;0.0080145;3.6798;0.271754;51.3737;96.3737;0.00912854;-0.00240958;-0.00527761;0.00821316;0.00924826;0.0178379;0.0261434;0;0.035335;0.0914232;-1.62652;-1.56043;2.25585;-8.1443;-0.0142885;0.000780648;0.0681213;0.0681287;-0.0142959;0.0412123;0.209751;4.76757;0.0508586;0.0549497;4.76562;0.209836;93.546;138.546;-0.00914965;-0.0142928;0.00491309;-0.00303297;0.0681103;0.00655387;0.0767912;0;0.119412;8.9715;5.75536
536000;537;26.5902;0.832503;0.0323205;-2.20478;26.4713;-1.20331;-0.0175254;0.806638;-1.20575;0.109877;-0.812762;-0.371528;0.900383;-6.92496;-0.00236755;0.00153112;0.00964085;0.009833;-0.0025597;0.00619635;0.245575;4.07208;0.00755453;0.0082618;3.84147;0.260317;52.0916;97.0916;0.00902927;-0.00240055;-0.00527668;0.00825789;0.00962822;0.0182162;0.0253206;0;0.0346209;0.0907195;-1.63431;-1.56159;2.26225;-8.14267;-0.0145491;0.000692978;0.0683703;0.068376;-0.0145549;0.0414655;0.212799;4.69926;0.0511309;0.0552873;4.69779;0.212866;93.3033;138.303;-0.0118263;-0.014553;0.00451168;-0.00282935;0.068361;0.0109834;0.0812049;0;0.130209;8.9795;5.75943
537000;538;26.6082;0.850466;0.0330179;-2.20557;26.4893;-1.20407;-0.0183187;0.824582;-1.20651;0.110017;-0.813612;-0.37055;0.900764;-6.92398;-0.00233409;0.00157787;0.00946782;0.00967513;-0.0025414;0.00610827;0.246529;4.05632;0.00744328;0.00814436;3.80701;0.262674;51.602;96.602;0.0095327;-0.00236706;-0.00518692;0.0082635;0.00945572;0.0162401;0.0273373;0;0.0302464;0.0903213;-1.64216;-1.5642;2.26971;-8.14529;-0.0148238;0.000344682;0.0699187;0.0699201;-0.0148252;0.0423727;0.212015;4.71664;0.0522608;0.0564969;4.71629;0.212031;93.8528;138.853;-0.0150279;-0.0148302;0.0045782;-0.00355353;0.069909;0.0160886;0.0825508;0;0.115212;8.98912;5.76634
538000;539;26.6006;0.842887;0.0327237;-2.20726;26.4814;-1.20646;-0.0200097;0.816719;-1.2089;0.110314;-0.814447;-0.370327;0.901462;-6.92376;-0.00243906;0.00144469;0.00970294;0.00987247;-0.00260858;0.00624053;0.251373;3.97816;0.00760186;0.0083207;3.78461;0.264228;52.5113;97.5113;0.00937908;-0.00247159;-0.00537796;0.00818523;0.00968965;0.0164574;0.0264084;0;0.0269677;0.0899489;-1.65011;-1.56746;2.27769;-8.1428;-0.014286;0.000372401;0.0707428;0.0707444;-0.0142876;0.042516;0.201943;4.95189;0.0525766;0.056688;4.95144;0.201961;93.0077;138.008;-0.0119328;-0.0142899;0.00382599;-0.00280694;0.070736;0.0160568;0.0830796;0;0.107322;8.9975;5.771
539000;540;26.6218;0.864062;0.0335457;-2.20922;26.502;-1.21752;-0.0219634;0.83732;-1.21996;0.109799;-0.815174;-0.369243;0.901612;-6.92267;-0.00226948;0.00145546;0.00978865;0.00996184;-0.00244267;0.00620226;0.231848;4.31317;0.00758767;0.00826968;4.07826;0.245203;52.7808;97.7808;0.0092919;-0.00230234;-0.00539767;0.00822668;0.00977528;0.0170534;0.0269075;0;0.0296241;0.0887284;-1.65909;-1.57109;2.28665;-8.15218;-0.0151236;0.000271379;0.071579;0.0715799;-0.0151244;0.0433522;0.211285;4.73293;0.0534791;0.0578029;4.73273;0.211295;93.9771;138.977;-0.0110101;-0.0151309;0.00469233;-0.00379188;0.0715688;0.0127647;0.0822573;0;0.0996468;9.00051;5.77869
540000;541;26.6138;0.856083;0.033236;-2.20052;26.4966;-1.17537;-0.0132632;0.831933;-1.17781;0.110423;-0.8154;-0.369866;0.902148;-6.92329;-0.00243908;0.00157095;0.00998277;0.0101784;-0.00263467;0.00640652;0.244329;4.09284;0.0078133;0.00854202;3.86323;0.25885;52.6312;97.6312;0.00929451;-0.00247215;-0.00521463;0.008273;0.00997053;0.0172646;0.026344;0;0.0325893;0.0888667;-1.66683;-1.57337;2.29384;-8.15269;-0.0158787;0.00112768;0.0727487;0.0727631;-0.015893;0.0443281;0.218268;4.58153;0.0545832;0.0591041;4.5783;0.218422;91.5406;136.541;-0.0073224;-0.0158787;0.00354939;-0.00109396;0.0727435;0.00861051;0.0735484;0;0.118704;9.00065;5.78512
541000;542;26.6431;0.885392;0.0343738;-2.20652;26.5242;-1.20532;-0.0192703;0.859528;-1.20777;0.1103;-0.816344;-0.367369;0.901966;-6.9208;-0.00237318;0.00136374;0.00999346;0.0101421;-0.00252179;0.00633193;0.237474;4.21099;0.00774014;0.00844257;4.02178;0.248646;53.6571;98.6571;0.00972815;-0.00240476;-0.00540849;0.00805299;0.0099799;0.016288;0.0255935;0;0.037499;0.08842;-1.67696;-1.57499;2.3023;-8.15841;-0.0153835;0.00131044;0.0741578;0.074177;-0.0154027;0.0447898;0.207443;4.8206;0.0553052;0.0597198;4.81584;0.207648;90.3635;135.363;-0.00790535;-0.0153827;0.00263543;9.58932e-05;0.0741554;0.00724751;0.084291;0;0.13478;9.00322;5.79263
542000;543;26.6396;0.881861;0.0342367;-2.20601;26.5207;-1.2058;-0.0187611;0.856002;-1.20824;0.110174;-0.816567;-0.366135;0.901651;-6.91956;-0.00229675;0.00159019;0.00984329;0.0100481;-0.00250159;0.00627486;0.233332;4.28574;0.00766983;0.00836648;4.0167;0.248961;52.2812;97.2812;0.00957732;-0.00233047;-0.00525737;0.00835536;0.00983086;0.0177004;0.0264435;0;0.0385606;0.0871024;-1.68523;-1.5763;2.30918;-8.15667;-0.014989;0.00135068;0.0748704;0.0748907;-0.0150093;0.04495;0.200199;4.99502;0.0556095;0.0599333;4.98962;0.200416;89.4229;134.423;-0.0107333;-0.0149886;0.00166952;0.0010585;0.0748699;0.0141378;0.0906687;0;0.137941;9.0041;5.79905
543000;544;26.6473;0.889544;0.034535;-2.20803;26.5275;-1.2221;-0.0207811;0.862805;-1.22455;0.109922;-0.818342;-0.361963;0.901546;-6.91539;-0.00238267;0.00124991;0.00957995;0.00970915;-0.00251187;0.00611051;0.248715;4.02067;0.00745253;0.00814735;3.8653;0.258712;52.9458;97.9458;0.00974489;-0.00241506;-0.00571752;0.00813472;0.00956454;0.018578;0.0271706;0;0.0316585;0.086022;-1.695;-1.58011;2.31887;-8.16422;-0.0160283;0.00134902;0.0765641;0.0765837;-0.016048;0.0463159;0.209345;4.7768;0.0571611;0.0617545;4.77218;0.209548;89.3872;134.387;-0.00398402;-0.016028;0.00160118;0.00111854;0.0765637;0.00140456;0.0760942;0;0.136759;9.00155;5.80703
544000;545;26.6658;0.908067;0.0352541;-2.21071;26.5456;-1.22888;-0.0234596;0.880875;-1.23132;0.109077;-0.81764;-0.365659;0.902296;-6.91909;-0.00249057;0.00128265;0.0101864;0.0103149;-0.00261905;0.00646695;0.2445;4.08997;0.00789573;0.0086226;3.9384;0.25391;54.1028;99.1028;0.00941821;-0.00252237;-0.00558836;0.00806737;0.0101717;0.0182167;0.0256186;0;0.0294031;0.0850135;-1.70299;-1.58447;2.32765;-8.1666;-0.0158553;0.00110835;0.0766847;0.0766979;-0.0158685;0.0462832;0.206759;4.83654;0.0571605;0.061711;4.83333;0.206897;90.5822;135.582;-0.00895472;-0.0158547;0.00255913;-0.000217735;0.0766822;0.0103724;0.0754291;0;0.120065;9.0005;5.81448
545000;546;26.6747;0.917009;0.0356013;-2.21234;26.5548;-1.2216;-0.0250865;0.890059;-1.22404;0.109324;-0.818683;-0.363952;0.902582;-6.91738;-0.00236089;0.00138328;0.0103618;0.0105105;-0.00250955;0.00651;0.227845;4.38894;0.00797619;0.00868;4.18819;0.238767;54.0039;99.0039;0.00984355;-0.00239412;-0.00558146;0.00826027;0.0103473;0.0181314;0.0265873;0;0.0232743;0.0844517;-1.71295;-1.58288;2.33385;-8.16827;-0.0162877;0.000575071;0.0763142;0.0763177;-0.0162913;0.0463045;0.213429;4.68539;0.0570891;0.0617393;4.68458;0.213466;91.3253;136.325;-0.0109086;-0.0162882;0.00247295;-0.00115952;0.0763115;0.0117906;0.0781171;0;0.112566;9.00906;5.8223
546000;547;26.682;0.924295;0.0358842;-2.21153;26.5619;-1.22607;-0.0242745;0.89724;-1.22851;0.109251;-0.818087;-0.368136;0.90373;-6.92156;-0.00245412;0.0012888;0.0104975;0.0106245;-0.00258112;0.00660283;0.23378;4.27752;0.00808197;0.00880377;4.11625;0.242939;54.659;99.659;0.00917179;-0.00248633;-0.00563024;0.0081191;0.0104827;0.0195677;0.025895;0;0.0271336;0.0839788;-1.72112;-1.59156;2.34571;-8.18197;-0.0165653;0.000955904;0.0776935;0.0777032;-0.016575;0.0471391;0.213214;4.69013;0.0581204;0.0628522;4.68798;0.213312;91.4984;136.498;-0.0081426;-0.0165656;0.0033511;-0.00122981;0.0776888;0.00797632;0.083938;0;0.112972;9.01264;5.82891
547000;548;26.691;0.933217;0.0362306;-2.20988;26.5716;-1.21281;-0.0226317;0.906947;-1.21526;0.108811;-0.819253;-0.365951;0.903845;-6.91938;-0.0023054;0.00133427;0.0105296;0.0106669;-0.00244264;0.00655475;0.218944;4.56737;0.00804995;0.00873967;4.36694;0.228993;54.501;99.501;0.00936846;-0.0023388;-0.00569227;0.00827151;0.0105145;0.019045;0.0262458;0;0.0381351;0.0831384;-1.72897;-1.58893;2.34967;-8.1731;-0.0161492;0.00131072;0.07913;0.079148;-0.0161672;0.0476576;0.204084;4.89994;0.0588987;0.0635435;4.89559;0.204265;89.8714;134.871;-0.00883847;-0.0161485;0.002093;0.0005975;0.0791288;0.0106773;0.0854647;0;0.135361;9.0138;5.83652
548000;549;26.6988;0.941021;0.0365335;-2.20981;26.5788;-1.22762;-0.0225552;0.914112;-1.23007;0.109449;-0.820043;-0.361307;0.902769;-6.91474;-0.00254974;0.0013332;0.0103903;0.0105262;-0.00268567;0.00660594;0.245396;4.07504;0.00806319;0.00880792;3.9194;0.255141;53.8694;98.8694;0.010135;-0.00258356;-0.00574567;0.00832135;0.0103748;0.0175785;0.0262235;0;0.0380798;0.0832499;-1.73799;-1.59315;2.35916;-8.17946;-0.0163077;0.00198985;0.079066;0.0791075;-0.0163491;0.0477283;0.206254;4.8484;0.0589487;0.0636377;4.83863;0.20667;89.4889;134.489;-0.00775268;-0.0163064;0.00279795;0.00125318;0.0790642;0.0161367;0.0920957;0;0.140274;9.02123;5.84354
549000;550;26.7069;0.949117;0.0368479;-2.21348;26.5855;-1.25132;-0.02623;0.920834;-1.25377;0.109162;-0.82169;-0.356601;0.902361;-6.91003;-0.00274152;0.0013674;0.0102724;0.0104146;-0.00288364;0.0066491;0.266881;3.74699;0.00807769;0.00886547;3.6116;0.276886;53.0866;98.0866;0.0103657;-0.00277651;-0.00582295;0.00846505;0.0102566;0.0187435;0.0272743;0;0.0465442;0.0821502;-1.7461;-1.58914;2.36241;-8.1672;-0.0162874;0.00171703;0.0806427;0.0806731;-0.0163178;0.0484954;0.201969;4.95124;0.059966;0.0646605;4.94388;0.20227;87.9662;132.966;-0.00492447;-0.01629;0.000479256;0.00284377;0.0806439;-0.00229463;0.0874089;0;0.136603;9.0192;5.85171
550000;551;26.7154;0.957676;0.0371801;-2.21427;26.5942;-1.2494;-0.0270174;0.929457;-1.25184;0.108553;-0.821212;-0.36132;0.903728;-6.91475;-0.00269231;0.00125068;0.0104049;0.0105233;-0.00281067;0.00666698;0.258753;3.86469;0.00811629;0.0088893;3.74406;0.26709;53.9159;98.9159;0.0102243;-0.00272638;-0.00592952;0.00833774;0.0103883;0.019798;0.0267896;0;0.0270534;0.0801907;-1.75635;-1.60065;2.37766;-8.18811;-0.0168917;0.000861864;0.0803705;0.0803781;-0.0168993;0.0486387;0.210172;4.758;0.0600169;0.0648516;4.7563;0.210247;89.1972;134.197;-0.00809226;-0.016892;0.000508635;0.00118329;0.0803707;0.00465271;0.075034;0;0.116391;9.02078;5.85484
551000;552;26.7231;0.965327;0.0374772;-2.21657;26.6019;-1.2449;-0.0293182;0.937162;-1.24734;0.109175;-0.822156;-0.360732;0.904426;-6.91416;-0.00272177;0.00121165;0.010348;0.0104593;-0.00283315;0.00664624;0.263025;3.80192;0.00808448;0.00886166;3.69177;0.270873;53.8573;98.8573;0.0097078;-0.00275595;-0.0060159;0.00834565;0.0103308;0.0205218;0.0268325;0;0.0262094;0.0802302;-1.7635;-1.59943;2.38213;-8.17992;-0.0166322;0.000468012;0.0817199;0.0817222;-0.0166344;0.0491783;0.203527;4.91336;0.0607897;0.0655711;4.91283;0.203548;90.4742;135.474;-0.014598;-0.0166322;0.00138596;-0.000366471;0.0817191;0.0100205;0.0928777;0;0.127836;9.02637;5.86112
552000;553;26.7102;0.952503;0.0369793;-2.21119;26.5904;-1.22453;-0.0239416;0.925674;-1.22697;0.109034;-0.822174;-0.360776;0.904444;-6.9142;-0.00282201;0.00152858;0.0105861;0.0107582;-0.00299407;0.00687612;0.266577;3.75126;0.00835101;0.00916817;3.59316;0.278306;52.7701;97.7701;0.0104706;-0.00285915;-0.00578083;0.00874092;0.0105707;0.0195993;0.0264592;0;0.0395389;0.079746;-1.77237;-1.6026;2.39081;-8.18617;-0.0166903;0.00104411;0.0824827;0.0824937;-0.0167013;0.0495975;0.202349;4.94195;0.0613257;0.06613;4.93935;0.202456;90.1789;135.179;-0.0094839;-0.0166898;0.0020164;0.000160887;0.0824813;0.0079245;0.0903701;0;0.134589;9.02441;5.86728
553000;554;26.7197;0.961979;0.0373472;-2.20953;26.6003;-1.21783;-0.0222759;0.935638;-1.22028;0.109315;-0.823549;-0.357214;0.904314;-6.91064;-0.00289609;0.0014166;0.0104631;0.0106117;-0.00304466;0.00682817;0.276791;3.61284;0.00827813;0.00910422;3.48535;0.286916;52.8222;97.8222;0.0102883;-0.00293285;-0.00594193;0.00867777;0.0104466;0.0202933;0.0269012;0;0.0367263;0.0795045;-1.78209;-1.60206;2.39766;-8.18523;-0.0166164;0.000216574;0.0836506;0.0836511;-0.0166169;0.050134;0.198641;5.0342;0.0620525;0.0668453;5.03409;0.198646;90.883;135.883;-0.0117819;-0.0166169;0.00149357;-0.000942262;0.0836496;0.00482056;0.0828446;0;0.13775;9.02637;5.87459
554000;555;26.7499;0.992178;0.0385196;-2.21545;26.6286;-1.25086;-0.0281924;0.96395;-1.2533;0.109503;-0.823894;-0.359081;0.90539;-6.91251;-0.00276559;0.00127253;0.0108724;0.0109901;-0.00288331;0.00693672;0.254367;3.93132;0.00845339;0.00924896;3.81164;0.262354;54.3776;99.3776;0.0102948;-0.00280113;-0.00606887;0.00851482;0.010855;0.019396;0.0278511;0;0.0401447;0.0788044;-1.79148;-1.61049;2.41025;-8.19897;-0.0171385;0.0016243;0.0854277;0.0854534;-0.0171642;0.0513088;0.20062;4.98455;0.0634688;0.0684118;4.97858;0.200861;89.9807;134.981;-0.0118425;-0.0171373;0.00277317;0.000583984;0.0854254;0.0100041;0.088674;0;0.131818;9.02872;5.88218
555000;556;26.7471;0.989341;0.0384095;-2.21384;26.626;-1.2498;-0.0265913;0.961282;-1.25225;0.109409;-0.825207;-0.356123;0.905406;-6.90955;-0.00298537;0.0013233;0.0110261;0.01115;-0.00310926;0.00712963;0.270755;3.69338;0.0086579;0.00950617;3.58607;0.278857;53.9875;98.9875;0.0104978;-0.00302248;-0.00616048;0.00870329;0.0110082;0.0204118;0.0267443;0;0.0420353;0.078303;-1.80008;-1.61094;2.41693;-8.19759;-0.0171897;0.00161088;0.0863956;0.0864206;-0.0172147;0.0518177;0.198964;5.02602;0.0641269;0.0690902;5.02017;0.199197;88.7793;133.779;-0.0105067;-0.0171904;0.00117786;0.00200261;0.0863962;0.0130668;0.0902266;0;0.145326;9.03007;5.88938
556000;557;26.7675;1.00973;0.0392009;-2.21724;26.6457;-1.2601;-0.0299823;0.980994;-1.26255;0.109416;-0.824632;-0.355662;0.904702;-6.90909;-0.00298821;0.00125119;0.0106863;0.0107999;-0.00310175;0.00695081;0.279629;3.57617;0.00842633;0.00926775;3.48187;0.287202;53.7292;98.7292;0.0105308;-0.00302427;-0.00616996;0.00857187;0.0106683;0.0194655;0.0275661;0;0.0339563;0.0775412;-1.80906;-1.61495;2.42627;-8.20395;-0.0173657;0.00181243;0.0854253;0.0854573;-0.0173976;0.0514274;0.203285;4.91921;0.0635693;0.0685699;4.91201;0.203583;88.3635;133.363;-0.0137759;-0.0173673;0.00100426;0.00254406;0.0854264;0.0195596;0.0820888;0;0.143223;9.02997;5.89634
557000;558;26.7712;1.01343;0.0393447;-2.21811;26.6489;-1.26846;-0.0308619;0.984243;-1.27091;0.110135;-0.826153;-0.353949;0.905504;-6.90738;-0.00313186;0.00138804;0.0109599;0.0110953;-0.00326728;0.00718131;0.285755;3.4995;0.00869312;0.00957508;3.3959;0.294473;53.4517;98.4517;0.0105523;-0.0031694;-0.00609082;0.00876259;0.0109425;0.0189721;0.0261413;0;0.0304321;0.0770756;-1.81646;-1.61838;2.43405;-8.20672;-0.0175764;0.000595835;0.087613;0.0876163;-0.0175798;0.0525981;0.200614;4.98469;0.0650673;0.0701307;4.98393;0.200645;88.8409;133.841;-0.0110972;-0.0175775;-0.000513983;0.00159832;0.087613;0.0210996;0.080968;0;0.131459;9.03338;5.903
558000;559;26.7597;1.00194;0.0388984;-2.21309;26.6393;-1.23788;-0.0258385;0.974553;-1.24032;0.109212;-0.82727;-0.350986;0.905259;-6.90441;-0.00322251;0.00131467;0.0110994;0.0112191;-0.00334219;0.00728065;0.290331;3.44435;0.00880745;0.00970753;3.35682;0.297901;53.7358;98.7358;0.0110803;-0.0032604;-0.00626824;0.0087901;0.0110809;0.0191255;0.0266088;0;0.0359117;0.0760689;-1.82577;-1.61765;2.4405;-8.20373;-0.0172944;0.000975307;0.0871112;0.0871203;-0.0173035;0.0522119;0.198532;5.03697;0.0646249;0.0696159;5.03485;0.198616;88.3551;133.355;-0.0144958;-0.0172966;-0.000495468;0.00230483;0.0871115;0.0212461;0.0735501;0;0.139437;9.03864;5.9107
559000;560;26.769;1.01126;0.0392605;-2.21493;26.6481;-1.24607;-0.0276806;0.983388;-1.24852;0.109637;-0.828994;-0.346271;0.905071;-6.8997;-0.00330296;0.00119295;0.0109619;0.011061;-0.00340204;0.00723152;0.301313;3.31881;0.00873179;0.00964202;3.25128;0.307571;53.9684;98.9684;0.0107209;-0.00333935;-0.00631946;0.0085993;0.0109429;0.0193519;0.0270866;0;0.0400318;0.0754597;-1.83609;-1.61499;2.44645;-8.19631;-0.0169339;-0.000196597;0.0852983;0.0852987;-0.0169343;0.0511165;0.198526;5.03712;0.0632705;0.0681553;5.03703;0.19853;91.4381;136.438;-0.0177425;-0.0169355;0.00152431;-0.0017554;0.0852972;0.00966481;0.0871818;0;0.142545;9.04166;5.9176
560000;561;26.7778;1.0201;0.0396036;-2.21391;26.657;-1.24644;-0.026656;0.992332;-1.24888;0.109064;-0.827764;-0.352204;0.906165;-6.90563;-0.00320894;0.001274;0.0111909;0.0113028;-0.00332079;0.00731179;0.286745;3.48742;0.00885224;0.00974905;3.40364;0.293803;54.1244;99.1244;0.0111396;-0.00324626;-0.00627875;0.00871912;0.0111722;0.018737;0.0267914;0;0.0316422;0.074429;-1.84259;-1.62254;2.45628;-8.20304;-0.0172911;0.00053454;0.0891421;0.0891448;-0.0172938;0.0532193;0.193973;5.15537;0.0659546;0.070959;5.15472;0.193997;90.4545;135.454;-0.0144832;-0.017291;0.0015485;-0.000380332;0.0891411;0.0083851;0.0957885;0;0.139221;9.04395;5.92509
561000;562;26.8089;1.05118;0.0408103;-2.2197;26.6864;-1.27592;-0.0324491;1.02168;-1.27836;0.109198;-0.82874;-0.351372;0.90675;-6.9048;-0.00320225;0.0014175;0.0111941;0.0113324;-0.00334049;0.00733643;0.286065;3.49571;0.00888037;0.0097819;3.39243;0.294774;53.4955;98.4955;0.0110357;-0.00324115;-0.00619366;0.00892022;0.0111761;0.0185655;0.026784;0;0.0308659;0.0737286;-1.85326;-1.62824;2.46803;-8.21593;-0.0176671;0.000570473;0.0919834;0.0919864;-0.0176701;0.0548282;0.192069;5.20647;0.0679841;0.0731043;5.20577;0.192095;89.8432;134.843;-0.0128934;-0.017667;0.000770597;0.000390444;0.0919833;0.0141433;0.0937626;0;0.126085;9.04462;5.93018
562000;563;26.8167;1.05895;0.0411117;-2.22168;26.6934;-1.28949;-0.0344238;1.02866;-1.29294;0.108982;-0.830221;-0.34787;0.906729;-6.9013;-0.00314477;0.00129848;0.0106746;0.0107955;-0.00326572;0.00703062;0.294604;3.39439;0.0084974;0.00937415;3.30571;0.302507;53.1773;98.1773;0.0109715;-0.00318206;-0.00622521;0.00871922;0.0106562;0.018465;0.0282123;0;0.0340567;0.0726114;-1.8603;-1.63015;2.47455;-8.21185;-0.0180779;0.00166718;0.0904449;0.0904705;-0.0181035;0.054287;0.199877;5.00307;0.0671664;0.0723827;4.99741;0.200104;88.935;133.935;-0.00909177;-0.0180783;0.00141225;0.00189673;0.0904453;0.0144464;0.0833073;0;0.152179;9.04507;5.93368
563000;564;26.8062;1.04849;0.0407057;-2.21622;26.6847;-1.26065;-0.0289708;1.01999;-1.2641;0.109692;-0.830182;-0.349569;0.907432;-6.903;-0.00298847;0.00133549;0.0112555;0.0113796;-0.0031126;0.0072461;0.265513;3.76629;0.00880918;0.00966147;3.65597;0.273525;54.1715;99.1715;0.010261;-0.0030267;-0.00626849;0.00883229;0.0112369;0.0196515;0.0267017;0;0.0286105;0.0720139;-1.87186;-1.63407;2.48581;-8.22644;-0.0183915;0.000719815;0.09174;0.0917447;-0.0183962;0.0550705;0.200475;4.98816;0.0681282;0.0734273;4.98714;0.200516;88.5116;133.512;-0.0120311;-0.0183936;-0.000837816;0.00212032;0.09174;0.0226891;0.0757937;0;0.142634;9.04692;5.94045
564000;565;26.8098;1.05204;0.0408438;-2.21682;26.6883;-1.25789;-0.0295642;1.02364;-1.26033;0.109687;-0.831066;-0.347998;0.907637;-6.90143;-0.00307629;0.00148157;0.0115633;0.0117117;-0.00322473;0.00746821;0.26604;3.75883;0.00907572;0.00995761;3.63184;0.275343;54.1888;99.1888;0.010503;-0.00311501;-0.00605661;0.00891058;0.0115462;0.018884;0.0261898;0;0.0369973;0.0721569;-1.88069;-1.63648;2.49405;-8.22475;-0.0183042;0.000822851;0.0915679;0.0915741;-0.0183104;0.0549422;0.199898;5.00256;0.0679798;0.0732563;5.00122;0.199951;88.5597;133.56;-0.0140189;-0.0183061;-0.000589196;0.00209277;0.0915681;0.0182641;0.0730187;0;0.147337;9.04398;5.94733
565000;566;26.818;1.06023;0.0411616;-2.21891;26.6957;-1.27149;-0.0316583;1.03105;-1.27393;0.109154;-0.830903;-0.34617;0.906724;-6.8996;-0.0029829;0.00116877;0.0109152;0.0110128;-0.0030805;0.00704665;0.27328;3.65925;0.0085556;0.00939553;3.575;0.27972;54.2977;99.2977;0.0104322;-0.00301942;-0.0063795;0.0086132;0.0108957;0.0192767;0.0265043;0;0.030699;0.0707484;-1.88877;-1.6409;2.503;-8.23454;-0.0185211;0.000578758;0.0945924;0.0945954;-0.0185241;0.0565597;0.195799;5.10728;0.0700594;0.075413;5.10662;0.195824;89.4879;134.488;-0.0128883;-0.0185213;0.000260524;0.000864105;0.0945926;0.0198979;0.0925799;0;0.149581;9.04718;5.95454
566000;567;26.8274;1.06968;0.0415286;-2.21921;26.7053;-1.26942;-0.0319613;1.04062;-1.27186;0.109774;-0.831645;-0.344636;0.906895;-6.89806;-0.00308508;0.00125222;0.0115932;0.0116993;-0.00319114;0.00744522;0.266111;3.75784;0.00905271;0.00992696;3.66618;0.272764;55.1509;100.151;0.0102777;-0.00312182;-0.00625447;0.00864992;0.0115747;0.0211234;0.0271626;0;0.0355772;0.0703291;-1.89936;-1.64235;2.51194;-8.23357;-0.0184627;0.000374874;0.0927193;0.0927206;-0.018464;0.0555923;0.199125;5.02197;0.0687993;0.0741231;5.0217;0.199136;90.0832;135.083;-0.0193996;-0.0184627;0.000766282;2.32912e-05;0.0927191;0.0130327;0.0832886;0;0.141667;9.04824;5.96174
567000;568;26.8554;1.09765;0.0426143;-2.22662;26.7303;-1.32144;-0.0393647;1.06557;-1.32388;0.108815;-0.832133;-0.344483;0.907168;-6.89791;-0.00321936;0.00115748;0.0113929;0.011484;-0.00331048;0.00739724;0.282576;3.53887;0.00896559;0.00986298;3.46899;0.288269;54.9218;99.9218;0.0104316;-0.00325582;-0.006398;0.00860373;0.0113733;0.0195097;0.0267735;0;0.0383674;0.0689072;-1.90667;-1.64698;2.52045;-8.23616;-0.0176504;-0.000102031;0.0936497;0.0936498;-0.0176505;0.0556501;0.188472;5.30582;0.0690726;0.0742002;5.30579;0.188473;90.92;135.92;-0.0200177;-0.0176512;0.00115681;-0.00123276;0.0936491;0.0200556;0.0927986;0;0.134277;9.05214;5.96941
568000;569;26.8649;1.10718;0.0429846;-2.22608;26.7401;-1.31652;-0.0388304;1.07544;-1.31997;0.109881;-0.833345;-0.343177;0.907915;-6.89661;-0.00313725;0.00135332;0.0114737;0.011598;-0.00326154;0.00742978;0.273429;3.65726;0.00901799;0.00990638;3.556;0.281215;54.4002;99.4002;0.0101195;-0.00317525;-0.00621154;0.00880882;0.0114556;0.0194038;0.0261192;0;0.0281633;0.0694974;-1.91391;-1.64617;2.52542;-8.23144;-0.0188127;0.00093048;0.0965532;0.0965607;-0.0188202;0.0576905;0.194843;5.13233;0.0714779;0.0769206;5.13068;0.194906;89.5141;134.514;-0.00704385;-0.0188128;0.000895087;0.000962149;0.0965532;0.00705758;0.0827702;0;0.135911;9.05312;5.97662
569000;570;26.8742;1.11646;0.0433446;-2.2255;26.75;-1.30637;-0.0382439;1.08531;-1.30982;0.109768;-0.832715;-0.344028;0.907645;-6.89746;-0.00304247;0.00142393;0.0113795;0.0115188;-0.00318171;0.00735025;0.267363;3.74023;0.00893073;0.00980034;3.62031;0.276219;53.8856;98.8856;0.0101762;-0.003082;-0.00625297;0.00899128;0.0113612;0.0199909;0.0267948;0;0.030383;0.0685944;-1.92274;-1.65135;2.53547;-8.24156;-0.0191157;0.00124767;0.0963242;0.0963377;-0.0191292;0.0577334;0.198451;5.03902;0.0714601;0.0769779;5.03617;0.198564;88.7331;133.733;-0.00620962;-0.0191171;0.000290587;0.00210397;0.0963249;0.0180177;0.0719177;0;0.146344;9.05295;5.98402
570000;571;26.8597;1.10194;0.0427808;-2.22154;26.7369;-1.28302;-0.0342915;1.07218;-1.28546;0.109233;-0.834658;-0.339856;0.907793;-6.89328;-0.00313368;0.00109992;0.011521;0.0116031;-0.00321577;0.00740945;0.271996;3.67652;0.00900091;0.00987927;3.60819;0.277147;55.2186;100.219;0.0101381;-0.00317105;-0.0066141;0.00870212;0.0115;0.0206157;0.0269319;0;0.034943;0.0681623;-1.93121;-1.64933;2.54057;-8.23614;-0.0187398;0.000342231;0.0986624;0.0986634;-0.0187408;0.0587021;0.189938;5.26487;0.0728307;0.0782694;5.26464;0.189946;88.5395;133.54;-0.0128972;-0.018742;-0.00164147;0.00211396;0.0986612;0.0102097;0.0968763;0;0.159628;9.05566;5.99152
571000;572;26.8689;1.11117;0.0431393;-2.22315;26.7455;-1.29389;-0.0358952;1.0808;-1.29633;0.108892;-0.834395;-0.340868;0.907889;-6.8943;-0.00318185;0.000985328;0.0115243;0.01159;-0.00324757;0.00741881;0.276098;3.6219;0.00900655;0.00989174;3.56884;0.280203;55.6186;100.619;0.00996706;-0.00321828;-0.00672085;0.00857941;0.0115025;0.0208836;0.0260414;0;0.0299767;0.067187;-1.94284;-1.65634;2.55394;-8.25092;-0.0199206;0.00132427;0.100269;0.100283;-0.0199351;0.0601092;0.198672;5.03343;0.0743963;0.0801456;5.03048;0.198788;88.1543;133.154;-0.0245299;-0.0199242;-0.0005508;0.00299451;0.100269;0.00465249;0.0925177;0;0.161187;9.05757;5.99832
572000;573;26.8737;1.11599;0.0433262;-2.22467;26.75;-1.29898;-0.0374157;1.08526;-1.30243;0.109473;-0.83454;-0.339916;0.907736;-6.89334;-0.00325028;0.00100292;0.0116838;0.0117509;-0.00331733;0.00753411;0.278186;3.59471;0.00914256;0.0100455;3.54227;0.282305;55.7106;100.711;0.00997061;-0.00328701;-0.00672388;0.0086156;0.011662;0.0200608;0.0265799;0;0.0362282;0.0663392;-1.95028;-1.65655;2.55972;-8.24803;-0.0193648;0.00106754;0.100774;0.100784;-0.0193743;0.0600791;0.192159;5.20401;0.074492;0.0801055;5.20195;0.192235;87.4451;132.445;-0.0173935;-0.019372;-0.00213803;0.00392325;0.100773;0.0255494;0.0879752;0;0.170768;9.05528;6.00341
573000;574;26.9047;1.14693;0.0445275;-2.22903;26.779;-1.33245;-0.0417732;1.11434;-1.33489;0.10881;-0.834158;-0.338648;0.90683;-6.89208;-0.00344364;0.000986201;0.0115228;0.0115875;-0.00350834;0.00754793;0.298854;3.34612;0.00912219;0.0100639;3.30285;0.302769;55.3698;100.37;0.0101333;-0.00347968;-0.00667337;0.00853238;0.0115013;0.0196906;0.0259813;0;0.0388365;0.0651807;-1.95873;-1.65911;2.56778;-8.25014;-0.0195855;0.000832353;0.100816;0.100822;-0.0195913;0.0602068;0.194269;5.1475;0.0746076;0.0802757;5.14628;0.194315;89.0817;134.082;-0.022803;-0.0195864;1.72864e-05;0.00155827;0.100817;0.0177529;0.0879762;0;0.152169;9.05496;6.00704
574000;575;26.9128;1.15508;0.044844;-2.22828;26.7872;-1.33475;-0.0410266;1.12248;-1.33819;0.109496;-0.836301;-0.336447;0.908067;-6.88988;-0.00338113;0.00105813;0.0118137;0.0118871;-0.00345446;0.00767077;0.286203;3.49402;0.00929275;0.0102277;3.44108;0.290606;55.5412;100.541;0.0099868;-0.00341844;-0.00668808;0.00868795;0.0117922;0.0201645;0.0261137;0;0.0284093;0.0658354;-1.96856;-1.66391;2.5784;-8.2543;-0.0186357;-0.00105868;0.098282;0.0982916;-0.0186453;0.0584684;0.189615;5.27385;0.0725459;0.0779579;5.27165;0.189694;89.5893;134.589;-0.0212925;-0.0186352;-0.00247828;0.000209804;0.0982797;0.0191426;0.0820106;0;0.137084;9.0555;6.01303
575000;576;;;;;;;;;;0.109715;-0.837338;-0.334552;0.908349;-6.88798;-0.00336698;0.000935643;0.0117255;0.0117833;-0.00342476;0.00760403;0.287149;3.48251;0.00921183;0.0101387;3.44062;0.290645;55.9069;100.907;0.00990471;-0.00340312;-0.00678304;0.00853912;0.0117032;0.0201921;0.0260407;0;0.0303262;0.0651836;-1.97477;-1.66488;2.58375;-8.25224;-0.0193364;-0.000832353;0.0996007;0.0996065;-0.0193422;0.0594743;0.194139;5.15095;0.0737026;0.0792991;5.1497;0.194186;90.8425;135.842;-0.0162133;-0.0193371;-0.000152147;-0.00143898;0.099601;0.0135984;0.0925898;0;0.153888;9.06042;6.02
576000;577;;;;;;;;;;0.109178;-0.838493;-0.333939;0.909123;-6.88737;-0.00343572;0.000863817;0.0118552;0.0119038;-0.00348437;0.00769409;0.289808;3.45056;0.00931711;0.0102588;3.41635;0.29271;56.0891;101.089;0.0102856;-0.00347251;-0.00699698;0.00860577;0.0118314;0.0204927;0.0274506;0;0.0342172;0.0636601;-1.98594;-1.66722;2.59377;-8.26288;-0.02071;-0.000337437;0.105502;0.105503;-0.0207109;0.063107;0.196299;5.09426;0.0781591;0.0841427;5.09408;0.196306;89.7509;134.751;-0.017223;-0.02071;-0.000995608;0.000245592;0.105502;0.00236012;0.108976;0;0.155588;9.06291;6.02787
577000;578;;;;;;;;;;0.109675;-0.838745;-0.333233;0.909157;-6.88666;-0.00355921;0.000827765;0.011692;0.0117368;-0.003604;0.00767042;0.304413;3.28501;0.00926263;0.0102272;3.25661;0.307068;56.0047;101.005;0.00941199;-0.00359458;-0.00689828;0.0084373;0.0116689;0.0223286;0.026238;0;0.0356634;0.0641144;-1.99708;-1.67221;2.60552;-8.27476;-0.0213419;-0.000138743;0.108546;0.108546;-0.0213421;0.0649441;0.196616;5.08605;0.0804275;0.0865921;5.08602;0.196618;89.1499;134.15;-0.0194156;-0.0213427;-0.0016769;0.00121919;0.108545;-0.00130584;0.0896069;0;0.178788;9.06343;6.03485
578000;579;;;;;;;;;;0.108929;-0.839204;-0.334582;0.909986;-6.88801;-0.00359121;0.000849922;0.0118129;0.0118597;-0.00363796;0.00774883;0.304006;3.28941;0.00935788;0.0103318;3.25998;0.30675;55.8982;100.898;0.0100129;-0.00362779;-0.0069992;0.0085795;0.0117891;0.0201956;0.0255194;0;0.0332479;0.0623418;-2.00395;-1.67124;2.61012;-8.26385;-0.0219479;0.000185023;0.108934;0.108934;-0.0219482;0.0654413;0.201479;4.9633;0.0809371;0.087255;4.96325;0.201481;88.6899;133.69;-0.0184806;-0.02195;-0.00188554;0.00201121;0.108932;0.013053;0.0894423;0;0.158926;9.06391;6.04207
579000;580;;;;;;;;;;0.108524;-0.839105;-0.33392;0.909603;-6.88735;-0.00367428;0.000941707;0.0119467;0.0120033;-0.00373084;0.00786705;0.307556;3.25144;0.00949338;0.0104894;3.2173;0.310819;55.7184;100.718;0.010136;-0.00371135;-0.00688424;0.00864679;0.0119237;0.0199412;0.0266235;0;0.0370832;0.0611456;-2.01256;-1.67849;2.62135;-8.27479;-0.0205031;0.000949647;0.108206;0.108213;-0.0205101;0.0643615;0.189482;5.27755;0.0798614;0.0858153;5.27609;0.189534;88.0315;133.031;-0.036694;-0.0205081;-0.00167526;0.00326969;0.108205;0.0310017;0.084266;0;0.161383;9.06275;6.0498
580000;581;;;;;;;;;;0.108528;-0.839898;-0.331503;0.909451;-6.88493;-0.00373852;0.000888131;0.0115854;0.0116367;-0.00378982;0.00771324;0.322693;3.09892;0.00928261;0.0102843;3.07051;0.325679;55.1471;100.147;0.0099881;-0.00377568;-0.00699345;0.00865026;0.0115616;0.0209745;0.0273735;0;0.0348938;0.0601445;-2.02181;-1.68148;2.63034;-8.27776;-0.0207834;-0.000568119;0.106701;0.106704;-0.0207859;0.0637448;0.194781;5.13397;0.0789814;0.084993;5.13347;0.1948;89.7627;134.763;-0.0247497;-0.0207832;-0.00138572;0.000155302;0.1067;0.00811011;0.0976532;0;0.150843;9.06298;6.05754
581000;582;;;;;;;;;;0.107996;-0.840357;-0.328933;0.908878;-6.88236;-0.00372228;0.000572428;0.0116825;0.0117037;-0.00374352;0.00772363;0.31862;3.13853;0.00930483;0.0102982;3.1264;0.319857;56.46;101.46;0.0101534;-0.00375717;-0.00733267;0.00835712;0.0116561;0.0211647;0.02696;0;0.042672;0.0593938;-2.02788;-1.68198;2.63531;-8.27293;-0.0198228;-0.000696282;0.107314;0.107318;-0.0198266;0.0635722;0.184718;5.41366;0.0789878;0.0847629;5.41281;0.184747;89.324;134.324;-0.0184222;-0.0198229;-0.00237061;0.000785808;0.107312;0.00662802;0.0854047;0;0.170678;9.06408;6.06424
582000;583;;;;;;;;;;0.108971;-0.841206;-0.327544;0.909278;-6.88097;-0.00364481;0.000731287;0.0118211;0.0118556;-0.00367931;0.00776746;0.308331;3.24327;0.00937404;0.0103566;3.22223;0.310344;56.2231;101.223;0.0100527;-0.00368079;-0.00715637;0.00849833;0.0117961;0.0208981;0.0270914;0;0.0358155;0.0595348;-2.0439;-1.69097;2.65339;-8.29981;-0.022343;-0.00113005;0.109422;0.109432;-0.0223526;0.0658922;0.20419;4.89739;0.0814345;0.0878563;4.8957;0.204261;90.6323;135.632;-0.0197141;-0.0223432;-0.000892311;-0.00133956;0.109422;0.00136744;0.0969281;0;0.16516;9.07032;6.07112
583000;584;;;;;;;;;;0.108735;-0.840403;-0.330974;0.90975;-6.8844;-0.00378012;0.000654306;0.0119028;0.0119301;-0.00380737;0.00786872;0.317582;3.1488;0.00948086;0.0104916;3.13342;0.319141;56.528;101.528;0.0099549;-0.00381512;-0.00718954;0.00837654;0.0118775;0.0217335;0.0268025;0;0.0335579;0.0585423;-2.05431;-1.69842;2.66613;-8.31071;-0.023239;-0.00122868;0.11186;0.111872;-0.0232502;0.0675609;0.20775;4.81348;0.0834183;0.0900812;4.81165;0.207829;89.6418;134.642;-0.0330809;-0.0232382;-0.00274129;0.000100133;0.111858;0.0224115;0.0882176;0;0.162345;9.07048;6.07885
584000;585;;;;;;;;;;0.108742;-0.840857;-0.32668;0.908617;-6.88011;-0.00375085;0.000808189;0.011849;0.0118908;-0.00379261;0.00784169;0.316554;3.15902;0.0094486;0.0104556;3.13525;0.318954;55.8474;100.847;0.0104018;-0.00378746;-0.00708421;0.00857886;0.0118245;0.0207708;0.0279316;0;0.0379281;0.0575586;-2.06376;-1.69589;2.67179;-8.30923;-0.022748;0.000381501;0.114843;0.114844;-0.0227491;0.0687966;0.19808;5.04848;0.0851646;0.0917287;5.04829;0.198087;89.9757;134.976;-0.0519258;-0.022748;0.00062266;0.000170106;0.114843;0.0131861;0.0893146;0;0.166732;9.06733;6.0855
585000;586;27.0078;1.25006;0.0485313;-2.23488;26.8809;-1.35788;-0.0476223;1.21619;-1.36133;0.109127;-0.841233;-0.326936;0.909103;-6.88036;-0.00396189;0.000774779;0.0120259;0.0120633;-0.00399935;0.00803135;0.329447;3.03539;0.0096555;0.0107085;3.01633;0.331529;55.8275;100.827;0.0101083;-0.00399917;-0.00722975;0.0086528;0.0120004;0.0214029;0.0265082;0;0.0362143;0.0563481;-2.07331;-1.7028;2.68353;-8.31918;-0.0209414;0.000885041;0.115737;0.115743;-0.0209472;0.0683451;0.180939;5.52672;0.0850091;0.0911268;5.52548;0.18098;87.3284;132.328;-0.0166294;-0.0209519;-0.00337159;0.00462022;0.115733;0.00437915;0.0896005;0;0.179776;9.06438;6.08919
586000;587;;;;;;;;;;0.109083;-0.841133;-0.326972;0.909019;-6.8804;-0.00373019;0.000666596;0.0119905;0.0120188;-0.00375841;0.00788858;0.311094;3.21446;0.00951601;0.0105181;3.19783;0.312712;56.6231;101.623;0.0103989;-0.00376565;-0.00722103;0.00843165;0.011965;0.0196443;0.0264664;0;0.0389675;0.0573438;-2.07749;-1.70387;2.68746;-8.30898;-0.0229265;-0.000770268;0.115836;0.11584;-0.0229308;0.0693855;0.197922;5.05249;0.0858968;0.0925141;5.05174;0.197952;89.6998;134.7;-0.0168638;-0.0229262;-0.00188911;0.000209442;0.115835;-0.00582002;0.0924189;0;0.167604;9.06145;6.09449
587000;588;27.0241;1.26633;0.0491631;-2.23796;26.8959;-1.37889;-0.050709;1.23122;-1.38234;0.108384;-0.841843;-0.325587;0.909095;-6.87901;-0.00377798;0.000592462;0.0119377;0.01196;-0.00380028;0.00788014;0.316475;3.15981;0.00949702;0.0105069;3.14713;0.31775;56.7302;101.73;0.00979601;-0.00381295;-0.00730584;0.00836806;0.0119115;0.0225235;0.0274154;0;0.031961;0.0567295;-2.08458;-1.70406;2.69305;-8.30388;-0.0225515;-0.00177289;0.11958;0.119602;-0.0225736;0.0710881;0.188589;5.30254;0.0882274;0.0947841;5.29833;0.188739;90.6508;135.651;-0.0161001;-0.0225513;-0.00189382;-0.00166732;0.11958;0.00196992;0.0964127;0;0.165638;9.05902;6.1019
588000;589;;;;;;;;;;0.108346;-0.841575;-0.325586;0.908842;-6.87901;-0.00388855;0.000524927;0.0119467;0.0119641;-0.00390593;0.007935;0.325492;3.07227;0.00954815;0.01058;3.06305;0.326472;56.7947;101.795;0.0100924;-0.00392326;-0.00740674;0.00833244;0.0119197;0.0223109;0.0266346;0;0.026836;0.0566142;-2.09491;-1.70716;2.703;-8.30925;-0.0232756;-0.00128711;0.118416;0.118427;-0.0232872;0.0708572;0.196558;5.08755;0.08775;0.0944763;5.0855;0.196638;89.5112;134.511;-0.0301617;-0.0232748;-0.00316214;0.000350381;0.118412;0.00157646;0.0843134;0;0.169679;9.05818;6.10912
589000;590;;;;;;;;;;0.107643;-0.84147;-0.325358;0.90858;-6.87879;-0.00413229;0.000687094;0.0118533;0.0118827;-0.00416177;0.00802225;0.348621;2.86845;0.00961417;0.0106963;2.85521;0.350237;55.7758;100.776;0.0105707;-0.00416808;-0.00722176;0.00847096;0.0118277;0.0206315;0.0263302;0;0.0321098;0.0545463;-2.09836;-1.70577;2.70476;-8.29571;-0.0221496;-0.00222184;0.120007;0.120042;-0.0221843;0.0711131;0.184569;5.41804;0.088356;0.0948175;5.41113;0.184804;90.3225;135.323;-0.0136555;-0.0221479;-0.00331749;-0.00126524;0.120005;0.00359219;0.0968021;0;0.196239;9.05692;6.11679
590000;591;;;;;;;;;;0.108985;-0.843191;-0.319509;0.908259;-6.87294;-0.00380898;0.000578974;0.011956;0.0119773;-0.00383021;0.00790373;0.318582;3.13891;0.00952192;0.0105383;3.12705;0.31979;56.6475;101.647;0.0104668;-0.00384452;-0.00740164;0.00843522;0.0119291;0.021294;0.0262676;0;0.0355276;0.0550313;-2.11169;-1.70856;2.71689;-8.3086;-0.0234065;-0.0013097;0.120578;0.12059;-0.0234184;0.0720041;0.194119;5.15147;0.0892296;0.0960054;5.14936;0.194199;88.8625;133.863;-0.0301174;-0.0234067;-0.00446552;0.00144062;0.12057;0.0100988;0.115159;0;0.189394;9.05949;6.12506
591000;592;27.0567;1.29898;0.0504307;-2.23868;26.9279;-1.39342;-0.0514251;1.26321;-1.39687;0.108433;-0.844032;-0.32015;0.9092;-6.87358;-0.00392065;0.000579501;0.0118116;0.0118329;-0.00394197;0.00788743;0.331933;3.01265;0.00947983;0.0105166;3.00177;0.333137;56.2622;101.262;0.00978575;-0.00395626;-0.00740739;0.00844217;0.0117846;0.0224889;0.0265625;0;0.0342467;0.0523829;-2.12632;-1.72225;2.73681;-8.33805;-0.0226138;-0.000200871;0.119543;0.119544;-0.0226141;0.0710789;0.189168;5.28631;0.0882055;0.0947719;5.28626;0.18917;87.7535;132.754;-0.01714;-0.0226206;-0.00461938;0.00365659;0.119534;-0.000195112;0.0778978;0;0.177861;9.05928;6.13279
592000;593;;;;;;;;;;0.108516;-0.843882;-0.31824;0.908399;-6.87167;-0.00396681;0.000517778;0.0117348;0.0117519;-0.00398387;0.00786788;0.338037;2.95825;0.00944684;0.0104905;2.94987;0.338998;56.2389;101.239;0.0101483;-0.00400232;-0.0075149;0.00842576;0.0117071;0.0230998;0.027479;0;0.0452388;0.0513574;-2.1343;-1.72206;2.74287;-8.3349;-0.0222126;-0.000524827;0.119975;0.119977;-0.0222145;0.0710959;0.185143;5.40123;0.0883258;0.0947945;5.40084;0.185156;87.9924;132.992;-0.0102234;-0.0222176;-0.00477459;0.00318541;0.119965;-0.00604599;0.097716;0;0.174079;9.05917;6.13926
593000;594;;;;;;;;;;0.108808;-0.845574;-0.314873;0.908834;-6.8683;-0.00399343;0.000323047;0.0119805;0.011987;-0.00399996;0.0079935;0.333327;3.00006;0.0096064;0.010658;2.99679;0.33369;57.246;102.246;0.0101988;-0.0040276;-0.00773829;0.00825711;0.011951;0.0223518;0.0263164;0;0.0341952;0.0535532;-2.13964;-1.71859;2.7449;-8.32018;-0.0263749;-0.00305245;0.125441;0.125502;-0.0264363;0.0759693;0.210258;4.75607;0.0937313;0.101292;4.74735;0.210644;89.4985;134.499;-0.0141695;-0.0263702;-0.00627264;-0.000266631;0.125428;0.00140069;0.0937316;0;0.155925;9.05998;6.14615
594000;595;27.0797;1.32198;0.0513237;-2.24344;26.9498;-1.40975;-0.056187;1.28508;-1.4132;0.108981;-0.845246;-0.314733;0.908501;-6.86816;-0.00388642;0.000439282;0.011987;0.0119991;-0.00389857;0.00794885;0.32422;3.08433;0.00956748;0.0105985;3.07783;0.324904;56.9991;101.999;0.0103069;-0.00392143;-0.00761018;0.00836246;0.0119585;0.0232233;0.0276959;0;0.029734;0.0526774;-2.14791;-1.72231;2.75366;-8.32623;-0.02453;-0.00149599;0.126237;0.126252;-0.0245448;0.0753985;0.194316;5.14625;0.0934307;0.100531;5.14374;0.194411;90.2622;135.262;-0.0233208;-0.0245293;-0.00210824;-0.000965697;0.126236;-0.00783318;0.0871704;0;0.176277;9.05726;6.15187
595000;596;;;;;;;;;;0.108761;-0.844773;-0.314848;0.908075;-6.86828;-0.00390278;0.000333488;0.0119617;0.0119687;-0.00390979;0.00793925;0.326273;3.06491;0.00955293;0.0105857;3.06121;0.326668;57.3774;102.377;0.00987067;-0.00393662;-0.00767542;0.00821682;0.0119326;0.0233736;0.0269362;0;0.0356043;0.0515012;-2.15747;-1.72512;2.76285;-8.33176;-0.0244857;-0.00227032;0.13056;0.130593;-0.0245189;0.0775559;0.187544;5.33208;0.0962813;0.103408;5.32621;0.187751;90.2127;135.213;-0.0257334;-0.0244837;-0.0035809;-0.00113946;0.130556;-0.00566943;0.0909165;0;0.186931;9.05442;6.15695
596000;597;;;;;;;;;;0.109004;-0.845101;-0.310857;0.907034;-6.86429;-0.00398994;0.000278318;0.0118098;0.0118147;-0.00399484;0.00790475;0.33785;2.95989;0.00949252;0.0105397;2.95749;0.338125;57.3392;102.339;0.00960926;-0.0040227;-0.00765059;0.0080834;0.0117809;0.0246033;0.0267786;0;0.0400195;0.0512215;-2.16449;-1.72632;2.76909;-8.33001;-0.0251963;-0.000884395;0.129951;0.129956;-0.0252014;0.0775788;0.193891;5.15754;0.0961453;0.103438;5.15671;0.193922;89.2323;134.232;-0.0367354;-0.0251965;-0.00314635;0.00106699;0.129947;0.0163503;0.0987018;0;0.18319;9.01114;6.16064
597000;598;;;;;;;;;;0.108246;-0.847328;-0.312874;0.90971;-6.8663;-0.00399355;0.000121707;0.0119205;0.0119214;-0.00399448;0.00795794;0.335016;2.98494;0.0095614;0.0106106;2.98447;0.335067;57.8695;102.869;0.0102661;-0.00402618;-0.00794636;0.00806288;0.0118893;0.0242444;0.0269628;0;0.0276434;0.0471945;-2.17984;-1.738;2.7883;-8.34888;-0.024899;-0.00113098;0.133445;0.133453;-0.024907;0.0791801;0.186586;5.35946;0.0983284;0.105574;5.35805;0.186635;88.7416;133.742;-0.0356792;-0.0249003;-0.00471623;0.00195342;0.133436;-0.00843065;0.0824279;0;0.162006;9.09223;6.17575
598000;599;;;;;;;;;;0.108628;-0.845935;-0.311976;0.90815;-6.8654;-0.00401841;0.000173669;0.0117789;0.0117808;-0.00402032;0.00790058;0.341152;2.93124;0.00948247;0.0105341;2.93033;0.341259;57.4402;102.44;0.0104318;-0.00405144;-0.00789164;0.00811304;0.0117482;0.0224601;0.026633;0;0.0324965;0.0471151;-2.18935;-1.74305;2.79887;-8.35326;-0.0230769;-0.0013072;0.135848;0.135858;-0.0230876;0.079473;0.169873;5.88674;0.099168;0.105964;5.88446;0.169939;89.8406;134.841;-0.017926;-0.023076;-0.00271721;-9.4473e-05;0.135845;0.0038524;0.0731068;0;0.181555;9.02613;6.18164
599000;600;;;;;;;;;;0.108156;-0.844449;-0.312486;0.906885;-6.86591;-0.00398325;0.000157448;0.0117654;0.0117669;-0.00398483;0.00787588;0.338558;2.9537;0.00945701;0.0105012;2.95293;0.338646;57.6508;102.651;0.0103945;-0.00401546;-0.00782014;0.00801086;0.0117351;0.02313;0.0266321;0;0.0359506;0.046503;-2.19853;-1.74815;2.80922;-8.36753;-0.0234883;0.000531442;0.136569;0.13657;-0.02349;0.0800302;0.171989;5.81434;0.0998027;0.106707;5.81398;0.171999;88.2022;133.202;-0.017148;-0.0234949;-0.00307863;0.00363312;0.136565;0.0024573;0.0976366;0;0.199097;8.96596;6.18215
600000;601;27.128;1.37029;0.0531993;-2.24705;26.9964;-1.44089;-0.0597994;1.33168;-1.44434;0.107306;-0.845835;-0.310573;0.907418;-6.864;-0.0039276;0.000153149;0.0122005;0.012202;-0.00392905;0.00806552;0.32192;3.10636;0.00971295;0.010754;3.10558;0.322001;58.3217;103.322;0.00994964;-0.00396012;-0.00787165;0.00805008;0.0121699;0.0243685;0.0254216;0;0.0368485;0.0437406;-2.19626;-1.74273;2.80403;-8.34847;-0.0218214;-0.00153543;0.13456;0.134575;-0.0218365;0.0782058;0.162169;6.16641;0.0978114;0.104274;6.16285;0.162263;89.2018;134.202;-0.0228392;-0.0218208;-0.00457564;0.00108575;0.134552;0.0111987;0.100479;0;0.19161;8.99806;6.18326
601000;602;;;;;;;;;;0.107609;-0.84666;-0.312815;0.908992;-6.86624;-0.00409612;0.000333596;0.0122575;0.0122643;-0.00410292;0.00818361;0.334173;2.99247;0.00983342;0.0109115;2.98916;0.334542;57.4135;102.413;0.010331;-0.00413079;-0.00778;0.00831609;0.0122277;0.0228663;0.0253419;0;0.037145;0.04383;-2.20924;-1.75213;2.82004;-8.36459;-0.023111;-0.00237812;0.133463;0.133499;-0.0231471;0.078323;0.173164;5.77487;0.0976339;0.104431;5.76742;0.173388;90.0829;135.083;-0.0373413;-0.0231085;-0.00409685;-0.000896817;0.133458;0.000943938;0.0735121;0;0.186385;9.05245;6.19562
602000;603;;;;;;;;;;0.107741;-0.847588;-0.307775;0.908151;-6.8612;-0.00408122;5.00654e-05;0.012127;0.0121271;-0.00408138;0.00810426;0.336541;2.97141;0.00973472;0.0108057;2.97133;0.336549;58.3341;103.334;0.0100928;-0.00411309;-0.00799607;0.00796735;0.0120954;0.0236444;0.0266155;0;0.0310715;0.0433604;-2.22773;-1.75905;2.83883;-8.38582;-0.0261007;-0.00200424;0.135832;0.135856;-0.0261255;0.080991;0.192155;5.20413;0.100419;0.107988;5.20014;0.192302;90.7282;135.728;-0.0425878;-0.0261008;-0.0019625;-0.00204002;0.135832;-0.00255294;0.0735938;0;0.170015;9.05209;6.20328
603000;604;;;;;;;;;;0.107497;-0.846826;-0.308546;0.907673;-6.86197;-0.00415282;0.000210802;0.0118668;0.0118696;-0.00415559;0.00801258;0.349952;2.85753;0.0096028;0.0106834;2.85629;0.350104;57.1009;102.101;0.0105714;-0.00418702;-0.00796374;0.00825591;0.0118355;0.0226503;0.0270933;0;0.0299947;0.0426193;-2.22902;-1.76029;2.84059;-8.37507;-0.0265676;-0.00175933;0.144023;0.144041;-0.0265857;0.0853134;0.184468;5.42101;0.106006;0.113751;5.41799;0.18457;89.0075;134.008;-0.00717333;-0.026567;-0.00547661;0.00140367;0.144011;-0.00847541;0.0745504;0;0.187912;9.04795;6.21158
604000;605;;;;;;;;;;0.108038;-0.846685;-0.307013;0.907086;-6.86044;-0.00413645;0.000250282;0.0122572;0.012261;-0.00414027;0.00820064;0.337471;2.96321;0.00984859;0.0109342;2.9614;0.337678;57.7225;102.723;0.00992783;-0.00417003;-0.00781174;0.00818172;0.0122271;0.0245288;0.0271805;0;0.0358972;0.0408357;-2.251;-1.77051;2.86415;-8.40487;-0.0232936;-0.0030738;0.141663;0.14172;-0.0233509;0.0825356;0.16443;6.08162;0.103149;0.110047;6.06916;0.164767;91.2341;136.234;-0.0328854;-0.0232948;-0.00267998;-0.00341072;0.141664;0.0133626;0.0741065;0;0.169712;9.04437;6.21932
605000;606;;;;;;;;;;0.108042;-0.846314;-0.305403;0.906196;-6.85883;-0.00417224;0.000177888;0.0121865;0.0121885;-0.00417418;0.00818133;0.342365;2.92086;0.00981744;0.0109084;2.91997;0.342469;57.8488;102.849;0.0101715;-0.00420509;-0.00786477;0.00809055;0.012156;0.0232584;0.0275089;0;0.0307426;0.0408257;-2.26022;-1.7743;2.87374;-8.40467;-0.0246644;-0.000971204;0.14369;0.143695;-0.02467;0.0841826;0.171651;5.82579;0.104991;0.112244;5.8247;0.171683;89.2857;134.286;-0.0243974;-0.0246646;-0.00345479;0.0011468;0.143685;0.0138102;0.0605229;0;0.157111;9.03331;6.22713
606000;607;;;;;;;;;;0.107546;-0.845954;-0.308209;0.906751;-6.86164;-0.00424449;8.00848e-05;0.0122215;0.0122219;-0.00424488;0.00823339;0.347297;2.87938;0.00987195;0.0109779;2.87921;0.347317;58.0954;103.095;0.0100982;-0.00427681;-0.00799426;0.00802308;0.01219;0.0243616;0.0270043;0;0.0320108;0.0392473;-2.27283;-1.77842;2.88619;-8.41193;-0.0258734;-0.00298357;0.143474;0.143526;-0.025926;0.0847261;0.180336;5.54521;0.105394;0.112968;5.53599;0.180636;91.315;136.315;-0.0264265;-0.0258755;-0.00226537;-0.0035954;0.143475;0.0166599;0.064469;0;0.164582;9.01885;6.23457
607000;608;;;;;;;;;;0.107302;-0.846474;-0.304774;0.906045;-6.8582;-0.00402299;0.000220754;0.0120654;0.0120684;-0.00402602;0.0080472;0.333433;2.9991;0.00967109;0.0107296;2.9976;0.3336;57.4535;102.453;0.0105761;-0.00405777;-0.00801666;0.00832721;0.0120336;0.0229944;0.0267453;0;0.023496;0.0399956;-2.27361;-1.77568;2.88512;-8.39462;-0.0269263;-0.000763374;0.146196;0.1462;-0.0269296;0.0865647;0.184179;5.42951;0.107573;0.11542;5.42896;0.184197;89.8451;134.845;-0.0330137;-0.026926;-0.00173589;6.22565e-05;0.146195;0.0138933;0.0716633;0;0.175295;9.00779;6.23869
608000;609;;;;;;;;;;0.105965;-0.847557;-0.300761;0.905559;-6.85419;-0.00420336;-1.69054e-05;0.0119733;0.0119733;-0.00420337;0.00808835;0.351061;2.84851;0.00969208;0.0107845;2.8485;0.351062;58.0648;103.065;0.0104616;-0.00423531;-0.008141;0.00797732;0.0119406;0.0236006;0.0282149;0;0.0246761;0.0371939;-2.28725;-1.78298;2.90033;-8.40945;-0.0253788;-0.00301247;0.145131;0.145185;-0.025432;0.0853083;0.174868;5.71861;0.106286;0.113744;5.70874;0.17517;91.7029;136.703;-0.0328914;-0.0253842;-0.00135811;-0.00442049;0.145134;0.00904222;0.0717903;0;0.178819;9.00582;6.24142
609000;610;;;;;;;;;;0.107631;-0.84927;-0.298048;0.906463;-6.85148;-0.00411351;6.80789e-05;0.0120509;0.0120512;-0.0041138;0.00808251;0.341344;2.9296;0.00970066;0.0107767;2.92946;0.341359;57.9459;102.946;0.0100952;-0.00414649;-0.00809869;0.00810441;0.0120185;0.0246374;0.0271377;0;0.0285025;0.0377662;-2.29483;-1.77799;2.90326;-8.40183;-0.0254815;-0.00493099;0.148743;0.148883;-0.025621;0.0872519;0.171312;5.8373;0.108806;0.116336;5.81098;0.172088;92.1562;137.156;-0.0198273;-0.0254879;-0.00360538;-0.00605554;0.148748;0.00365764;0.0644683;0;0.174248;9.00469;6.24821
610000;611;;;;;;;;;;0.106946;-0.847226;-0.301162;0.905499;-6.85459;-0.00430978;-0.000131052;0.011872;0.0118731;-0.00431084;0.00809196;0.36302;2.75467;0.00967784;0.0107893;2.75424;0.363077;58.2759;103.276;0.00997835;-0.0043402;-0.00817468;0.00778395;0.011839;0.0245959;0.0275623;0;0.0628438;0.0362286;-2.2968;-1.78975;2.91201;-8.40745;-0.0254653;-0.00266794;0.149296;0.149337;-0.025506;0.0874215;0.170569;5.86274;0.109059;0.116562;5.85498;0.170795;90.6031;135.603;-0.0381984;-0.0254639;-0.00334185;-0.0020965;0.149295;-0.00561473;0.0797637;0;0.199662;9.00551;6.25493
611000;612;;;;;;;;;;0.107397;-0.846216;-0.303424;0.905363;-6.85685;-0.00421343;-2.36905e-05;0.0122484;0.0122484;-0.00421346;0.00823095;0.343998;2.90699;0.00987445;0.0109746;2.90698;0.344;58.5957;103.596;0.00987811;-0.00424461;-0.0080584;0.00788035;0.0122163;0.0247788;0.026219;0;0.0379493;0.0350811;-2.3106;-1.79713;2.92742;-8.42529;-0.0257627;-0.00290696;0.147638;0.147687;-0.0258114;0.0867493;0.174498;5.73071;0.108094;0.115666;5.72178;0.174771;90.3782;135.378;-0.0373564;-0.0257598;-0.00432775;-0.00170085;0.147634;-0.0123585;0.0567702;0;0.18081;9.00737;6.2626
612000;613;;;;;;;;;;0.106375;-0.848194;-0.298859;0.905575;-6.85229;-0.00424632;-6.33606e-05;0.0118354;0.0118356;-0.00424657;0.00804111;0.358781;2.78722;0.00962351;0.0107215;2.78711;0.358795;58.0116;103.012;0.0101837;-0.00427765;-0.0081547;0.00789938;0.0118025;0.0246992;0.0273058;0;0.0358453;0.0337809;-2.32475;-1.80049;2.94064;-8.43739;-0.0274597;-0.00247501;0.153975;0.154009;-0.0274934;0.0907512;0.178338;5.60733;0.112958;0.121002;5.60167;0.178518;90.8359;135.836;-0.0412653;-0.02746;-0.00233606;-0.00259211;0.153976;0.0233019;0.0895142;0;0.176053;9.00606;6.26982
613000;614;;;;;;;;;;0.105856;-0.846521;-0.301196;0.904722;-6.85462;-0.00421128;9.06217e-05;0.0121797;0.0121802;-0.00421178;0.00819599;0.345762;2.89216;0.00982958;0.010928;2.89194;0.345789;57.9121;102.912;0.0103422;-0.00424445;-0.00807902;0.00812796;0.0121475;0.0243783;0.0275718;0;0.0416944;0.0334795;-2.33502;-1.80662;2.95251;-8.44137;-0.0269344;-0.00178296;0.149224;0.149242;-0.0269525;0.0880971;0.180497;5.54026;0.109589;0.117463;5.53722;0.180596;89.9824;134.982;-0.0412879;-0.0269329;-0.00324868;-0.000541899;0.149221;-0.00231698;0.074967;0;0.175741;9.00374;6.27733
614000;615;;;;;;;;;;0.106769;-0.846408;-0.299124;0.904036;-6.85255;-0.00429224;-0.00018088;0.0121838;0.0121857;-0.00429422;0.00823998;0.352292;2.83856;0.00987164;0.0109866;2.83771;0.352397;58.9693;103.969;0.00998123;-0.00432199;-0.00819149;0.00769935;0.0121506;0.0246702;0.0264298;0;0.0415003;0.0313189;-2.34381;-1.80536;2.95867;-8.43186;-0.0248664;-0.00335915;0.147084;0.147149;-0.024932;0.0860407;0.169063;5.91495;0.107379;0.114721;5.90202;0.169434;90.161;135.161;-0.0287367;-0.0248616;-0.00570366;-0.00136609;0.147074;-0.00596512;0.0603336;0;0.185652;8.99742;6.28456
615000;616;;;;;;;;;;0.106249;-0.848259;-0.292541;0.903555;-6.84597;-0.00424888;-9.02452e-06;0.0115711;0.0115711;-0.00424889;0.00791;0.367198;2.72333;0.00945417;0.0105467;2.72332;0.367198;57.3867;102.387;0.0101412;-0.00428089;-0.00812879;0.00798376;0.0115384;0.0253513;0.0274379;0;0.036051;0.0317937;-2.35045;-1.80474;2.96356;-8.42716;-0.0270201;-0.00367674;0.156195;0.156269;-0.0270939;0.0916813;0.17299;5.78069;0.114286;0.122242;5.76768;0.17338;89.8308;134.831;-0.0286944;-0.0270135;-0.0071161;-0.000782368;0.156179;0.00502502;0.06753;0;0.178696;8.98947;6.29235
616000;617;;;;;;;;;;0.10642;-0.847627;-0.292151;0.902856;-6.84558;-0.00420713;-0.000114005;0.0117688;0.0117696;-0.00420794;0.00798879;0.357481;2.79735;0.00956282;0.0106517;2.79701;0.357525;58.1601;103.16;0.0101101;-0.00423802;-0.00820087;0.00784518;0.0117356;0.024596;0.0278504;0;0.0316843;0.0314792;-2.36558;-1.81014;2.97886;-8.43862;-0.0287326;-0.00425496;0.152058;0.152158;-0.0288327;0.0904953;0.188958;5.29217;0.11229;0.12066;5.27727;0.189492;91.0321;136.032;-0.0465407;-0.0287299;-0.0050371;-0.00359557;0.152055;0.010607;0.0857999;0;0.179112;8.97894;6.29912
617000;618;;;;;;;;;;0.10593;-0.845915;-0.293483;0.901624;-6.84691;-0.00420594;-0.000139108;0.0118487;0.0118499;-0.00420715;0.00802855;0.35497;2.81714;0.00961425;0.0107047;2.81662;0.355035;58.4114;103.411;0.00982709;-0.00423638;-0.00819328;0.00778728;0.0118156;0.0249334;0.0270973;0;0.0448898;0.0301568;-2.386;-1.82306;3.00291;-8.47055;-0.0294759;-0.00492304;0.155003;0.155134;-0.0296072;0.0923706;0.190164;5.25863;0.114574;0.123161;5.23974;0.190849;92.0066;137.007;-0.0495386;-0.0294816;-0.00371072;-0.00594172;0.155007;0.0105401;0.0772956;0;0.165156;8.96638;6.30605
618000;619;;;;;;;;;;0.106944;-0.848673;-0.28644;0.90207;-6.83987;-0.00417854;-0.000124467;0.0114899;0.0114909;-0.00417953;0.00783522;0.36367;2.74975;0.00936984;0.010447;2.74933;0.363725;57.8083;102.808;0.0099259;-0.00420953;-0.00823208;0.00785756;0.0114564;0.0252045;0.028787;0;0.0305634;0.0280351;-2.39516;-1.8213;3.0091;-8.46205;-0.0271588;-0.00488719;0.152091;0.152224;-0.027292;0.089758;0.17857;5.60005;0.111697;0.119677;5.57761;0.179288;91.9488;136.949;-0.0407434;-0.0271633;-0.00391199;-0.00571065;0.152095;0.00264205;0.0672827;0;0.178055;8.95941;6.31067
619000;620;;;;;;;;;;0.106045;-0.847945;-0.285709;0.901047;-6.83914;-0.00408404;-0.000165555;0.0113055;0.0113073;-0.00408582;0.00769654;0.361244;2.76821;0.00920742;0.010262;2.76744;0.361345;57.8633;102.863;0.00963593;-0.00411455;-0.0082513;0.00779715;0.0112718;0.0262512;0.0278587;0;0.0429239;0.02862;-2.40526;-1.82827;3.02137;-8.4741;-0.0280918;-0.00307146;0.157225;0.157276;-0.0281427;0.0927095;0.178673;5.59683;0.115382;0.123613;5.58852;0.178938;89.5515;134.551;-0.0456428;-0.028087;-0.00672036;-6.86363e-06;0.15721;0.0182129;0.0584926;0;0.169129;8.94959;6.31385
620000;621;;;;;;;;;;0.104102;-0.847979;-0.285987;0.900941;-6.83942;-0.00426709;-9.32515e-05;0.0118312;0.0118318;-0.00426763;0.00804969;0.360663;2.77267;0.00963089;0.0107329;2.77245;0.360692;58.0777;103.078;0.0105319;-0.0042982;-0.00818727;0.007872;0.0117981;0.0249335;0.027122;0;0.0488153;0.0256553;-2.40849;-1.82542;3.02219;-8.45737;-0.0298486;-0.00399538;0.155042;0.155128;-0.0299349;0.0925317;0.192519;5.19429;0.114707;0.123376;5.1822;0.192968;89.5131;134.513;-0.0610294;-0.0298404;-0.00835282;-0.000335392;0.155019;0.0277952;0.0665337;0;0.158803;8.94822;6.32149
621000;622;;;;;;;;;;0.105084;-0.847749;-0.283973;0.900201;-6.8374;-0.00430924;-0.000279487;0.0117216;0.0117265;-0.00431411;0.0080203;0.367631;2.72012;0.00958498;0.0106937;2.71817;0.367894;58.4904;103.49;0.0102632;-0.00433904;-0.0083964;0.00770883;0.0116868;0.0252644;0.0267861;0;0.0391382;0.026824;-2.41738;-1.8234;3.02807;-8.4598;-0.0284872;-0.00438507;0.161357;0.161458;-0.0285884;0.0950232;0.176548;5.66418;0.118325;0.126698;5.64766;0.177064;89.0973;134.097;-0.0366557;-0.0284775;-0.0103913;0.000639455;0.161318;0.0253348;0.0546349;0;0.179721;8.94941;6.32849
622000;623;;;;;;;;;;0.105553;-0.848219;-0.282643;0.90028;-6.83607;-0.004293;-0.00017182;0.0114386;0.0114405;-0.00429488;0.00786767;0.375309;2.66447;0.00939185;0.0104902;2.66375;0.375411;57.8863;102.886;0.00988744;-0.00432272;-0.00816266;0.00769474;0.0114057;0.0251984;0.0280421;0;0.0354908;0.0240223;-2.42564;-1.82836;3.03763;-8.46146;-0.0282121;-0.00314279;0.154483;0.154537;-0.0282661;0.0914018;0.182622;5.47579;0.113625;0.121869;5.46724;0.182908;88.4101;133.41;-0.0314766;-0.0282099;-0.00971406;0.00238867;0.154447;-0.00533389;0.0604884;0;0.171223;8.94604;6.33625
623000;624;;;;;;;;;;0.105812;-0.848504;-0.28073;0.89998;-6.83416;-0.00418858;-0.000155702;0.0113459;0.0113474;-0.00419014;0.00776879;0.369172;2.70876;0.00928246;0.0103584;2.70813;0.369259;57.8605;102.861;0.00964836;-0.00421839;-0.00813973;0.0077057;0.0113131;0.0265096;0.0279185;0;0.0337594;0.0246332;-2.44667;-1.83724;3.05978;-8.48226;-0.0303064;-0.00467357;0.164245;0.164358;-0.0304186;0.0973881;0.184519;5.4195;0.120993;0.129851;5.4032;0.185076;91.1106;136.111;-0.0496281;-0.0303037;-0.00539415;-0.00407341;0.164242;0.00499093;0.0829484;0;0.155067;8.94146;6.34376
624000;625;;;;;;;;;;0.106033;-0.84741;-0.279842;0.898698;-6.83327;-0.00408238;-0.000224847;0.0114962;0.0114994;-0.00408562;0.00779252;0.355107;2.81605;0.00933122;0.01039;2.81461;0.355289;58.4962;103.496;0.00988788;-0.00411163;-0.00820963;0.00763697;0.0114629;0.0250481;0.0276789;0;0.0350746;0.0224165;-2.45611;-1.83845;3.06804;-8.47993;-0.0274064;-0.00336391;0.165976;0.166035;-0.0274649;0.0967498;0.165123;6.0561;0.120889;0.129;6.04533;0.165417;89.5818;134.582;-0.0610528;-0.0274006;-0.0073562;-3.3731e-05;0.165958;-0.0116333;0.0720026;0;0.164557;8.93051;6.35141
625000;626;;;;;;;;;;0.105364;-0.847839;-0.277448;0.898282;-6.83088;-0.00427585;-0.000228448;0.0115154;0.0115187;-0.00427915;0.00789894;0.371315;2.69313;0.00943474;0.0105319;2.69182;0.371495;58.2843;103.284;0.009991;-0.00430482;-0.00817965;0.00759863;0.0114824;0.0246504;0.0274498;0;0.0383853;0.0227309;-2.45953;-1.83784;3.07042;-8.46509;-0.0321657;-0.00450587;0.164504;0.164607;-0.0322689;0.0984379;0.195532;5.11426;0.121926;0.131251;5.1011;0.196036;89.6885;134.689;-0.0420827;-0.0321556;-0.00887707;-0.000872862;0.164479;0.00458405;0.0775082;0;0.149428;8.9093;6.35869
626000;627;;;;;;;;;;0.105945;-0.846597;-0.278267;0.897431;-6.8317;-0.00435359;-0.000253109;0.0114442;0.0114482;-0.00435764;0.00790293;0.38042;2.62867;0.00942663;0.0105372;2.62716;0.380639;58.1535;103.153;0.0094108;-0.00438233;-0.00820049;0.00757016;0.0114109;0.0261031;0.0283654;0;0.0344872;0.0229651;-2.47061;-1.83841;3.07965;-8.47028;-0.0316146;-0.00405384;0.164851;0.164934;-0.0316982;0.0983163;0.191777;5.21439;0.121904;0.131088;5.20327;0.192187;89.0898;134.09;-0.0471845;-0.0316064;-0.00973105;0.000665937;0.164817;-0.00526201;0.0718397;0;0.158098;8.89112;6.36573
627000;628;;;;;;;;;;0.10527;-0.847495;-0.275267;0.897274;-6.8287;-0.00428471;-0.000357699;0.0115763;0.0115844;-0.00429277;0.00793858;0.370126;2.70178;0.00948344;0.0105848;2.69858;0.370565;58.8734;103.873;0.00960254;-0.0043124;-0.00827373;0.00743424;0.0115426;0.0258858;0.0281756;0;0.0391336;0.0217205;-2.47855;-1.84649;3.09082;-8.47861;-0.0324793;-0.0010859;0.16285;0.162856;-0.0324853;0.0976707;0.199443;5.01397;0.120863;0.130228;5.01322;0.199472;88.7685;133.768;-0.0507544;-0.0324814;-0.00519166;0.00233021;0.162839;-0.00274788;0.0858619;0;0.170715;8.8882;6.36709
628000;629;;;;;;;;;;0.105797;-0.847348;-0.275193;0.897175;-6.82862;-0.00419181;-0.000179816;0.0116808;0.0116828;-0.00419385;0.00793832;0.358865;2.78656;0.00950022;0.0105844;2.7857;0.358977;58.5028;103.503;0.0103444;-0.00422102;-0.00811302;0.00762893;0.0116482;0.0240082;0.0273612;0;0.0362676;0.0160636;-2.4908;-1.85424;3.10525;-8.4925;-0.02957;-0.00588664;0.166193;0.16637;-0.0297469;0.0980584;0.177926;5.62032;0.122043;0.130745;5.59286;0.1788;92.4414;137.441;-0.0397666;-0.0295816;-0.00388252;-0.00755433;0.166201;-0.00778771;0.0691253;0;0.1493;8.89048;6.37279
629000;630;;;;;;;;;;0.105432;-0.84697;-0.273927;0.896388;-6.82736;-0.00422012;-0.000212748;0.0118964;0.0118992;-0.00422293;0.00806105;0.35474;2.81897;0.00965339;0.0107481;2.81776;0.354892;58.8907;103.891;0.00979715;-0.00424904;-0.00814465;0.00759283;0.0118636;0.0253402;0.0273978;0;0.0348833;0.0188756;-2.5202;-1.86644;3.13614;-8.52712;-0.0306423;-0.00335773;0.170633;0.170689;-0.0306982;0.100694;0.17958;5.56856;0.125286;0.134258;5.56023;0.179849;91.4987;136.499;-0.0581066;-0.0306476;-0.00180383;-0.00464445;0.170637;0.00731109;0.0487435;0;0.185518;8.89117;6.38007
630000;631;;;;;;;;;;0.105828;-0.847068;-0.269832;0.895284;-6.82326;-0.00416084;-0.00019669;0.0115604;0.0115629;-0.0041633;0.0078631;0.35992;2.77839;0.00940859;0.0104841;2.77734;0.360056;58.4581;103.458;0.00949754;-0.0041898;-0.0081142;0.00759778;0.0115279;0.02576;0.0274534;0;0.0374629;0.0211138;-2.51751;-1.85571;3.12762;-8.49596;-0.0358971;-0.00344821;0.175168;0.175224;-0.0359534;0.105589;0.20493;4.87972;0.130462;0.140785;4.87364;0.205185;89.3704;134.37;-0.0396455;-0.0358909;-0.00792448;0.000224151;0.175146;0.0184609;0.0652837;0;0.147109;8.88075;6.38698
631000;632;;;;;;;;;;0.105896;-0.846693;-0.269377;0.8948;-6.82281;-0.00413409;-0.000274113;0.0114829;0.0114877;-0.0041389;0.0078133;0.360021;2.77761;0.00934866;0.0104177;2.77555;0.360289;58.676;103.676;0.00992047;-0.00416242;-0.00818731;0.00751692;0.0114498;0.0253522;0.0278435;0;0.0298078;0.0187352;-2.526;-1.85675;3.13505;-8.48866;-0.0340037;-0.0025486;0.17342;0.173451;-0.034035;0.103743;0.196077;5.10004;0.128491;0.138324;5.09627;0.196222;89.1989;134.199;-0.040851;-0.0340008;-0.00685002;0.000992502;0.173403;-0.00940922;0.0602384;0;0.153029;8.86598;6.39679
632000;633;;;;;;;;;;0.106209;-0.845047;-0.267075;0.892588;-6.8205;-0.00416708;-0.000170369;0.0114666;0.0114685;-0.00416894;0.00781869;0.36341;2.75171;0.00935038;0.0104249;2.75093;0.363513;58.1942;103.194;0.00975621;-0.00419637;-0.00810312;0.00763978;0.0114342;0.0255895;0.0275362;0;0.0332801;0.0190193;-2.54547;-1.86907;3.15804;-8.51155;-0.0340189;-0.00180549;0.173682;0.173697;-0.0340346;0.103866;0.195869;5.10545;0.128653;0.138488;5.10356;0.195942;88.9903;133.99;-0.068903;-0.0340188;-0.00612346;0.00174837;0.173667;-0.00451803;0.0559721;0;0.164775;8.82147;6.40221
633000;634;;;;;;;;;;0.106233;-0.844195;-0.270944;0.892951;-6.82437;-0.00399025;-0.000158467;0.0111401;0.0111418;-0.00399191;0.00756683;0.358188;2.79183;0.00905664;0.0100891;2.79108;0.358284;57.9243;102.924;0.0102939;-0.00401976;-0.00810416;0.00766834;0.0111076;0.0232363;0.0280744;0;0.0327184;0.0158378;-2.55654;-1.87731;3.17182;-8.52665;-0.0321549;-0.00170257;0.172982;0.172996;-0.0321691;0.102583;0.185886;5.37965;0.127415;0.136777;5.37772;0.185952;89.9954;134.995;-0.0589831;-0.0321536;-0.00308694;-0.000560307;0.172979;-0.00571721;0.0835205;0;0.157552;8.80638;6.4093
634000;635;;;;;;;;;;0.105712;-0.84466;-0.269951;0.893028;-6.82338;-0.00420291;-0.000146089;0.0110412;0.0110426;-0.00420431;0.00762345;0.380657;2.62703;0.00909314;0.0101646;2.62649;0.380736;57.3899;102.39;0.00969527;-0.00423257;-0.00809926;0.00768718;0.0110088;0.0256634;0.0281407;0;0.0424655;0.0148829;-2.56217;-1.87784;3.17667;-8.51644;-0.0344041;-0.00208006;0.173092;0.173113;-0.0344249;0.103769;0.198762;5.03115;0.128431;0.138358;5.02871;0.198858;89.4648;134.465;-0.0571645;-0.034402;-0.00523228;0.000514611;0.173082;0.0117489;0.0605742;0;0.157854;8.81431;6.4158
635000;636;;;;;;;;;;0.105696;-0.84509;-0.267371;0.892657;-6.8208;-0.0039009;-1.28915e-05;0.0112532;0.0112533;-0.00390091;0.00757708;0.346647;2.88478;0.00908603;0.0101028;2.88478;0.346647;57.6562;102.656;0.0101696;-0.00393167;-0.00797427;0.00782918;0.0112218;0.0234948;0.027952;0;0.0437027;0.0154679;-2.57659;-1.88092;3.19013;-8.52879;-0.0342498;-0.00176172;0.176931;0.176946;-0.0342645;0.105605;0.193577;5.16591;0.130889;0.140807;5.16412;0.193644;88.7755;133.776;-0.0587859;-0.034251;-0.00675767;0.00233782;0.176913;0.0229459;0.0540802;0;0.158579;8.81848;6.41851
636000;637;;;;;;;;;;0.10587;-0.845073;-0.264909;0.891927;-6.81834;-0.00391988;-0.000241603;0.0114128;0.0114166;-0.00392368;0.00767013;0.343464;2.91151;0.00920214;0.0102268;2.90966;0.343683;58.8756;103.876;0.00941697;-0.003948;-0.00809178;0.00748958;0.0113804;0.0262872;0.0281555;0;0.0487375;0.0138809;-2.58975;-1.88835;3.20513;-8.53682;-0.0363265;-0.000373394;0.177911;0.177912;-0.0363271;0.107119;0.204183;4.89756;0.132389;0.142826;4.89749;0.204186;89.6858;134.686;-0.0725196;-0.0363266;-0.00157885;0.000612819;0.17791;0.018674;0.0521379;0;0.16471;8.82409;6.42886
637000;638;;;;;;;;;;0.10618;-0.84211;-0.265197;0.889243;-6.81863;-0.00417835;-0.000201886;0.01091;0.0109127;-0.00418105;0.00754686;0.382984;2.61107;0.00899862;0.0100625;2.61003;0.383137;57.433;102.433;0.0102639;-0.00420763;-0.00816258;0.00764001;0.010877;0.0237907;0.0290206;0;0.039195;0.0122886;-2.61155;-1.89087;3.22425;-8.54355;-0.0352651;-4.95707e-05;0.177249;0.177249;-0.0352651;0.106257;0.198958;5.02618;0.131507;0.141676;5.02618;0.198958;90.1085;135.108;-0.0730297;-0.0352651;0.000227914;-0.000276964;0.177249;0.015361;0.0582965;0;0.159916;8.7955;6.4385
638000;639;;;;;;;;;;0.1051;-0.841074;-0.260933;0.88687;-6.81436;-0.00415973;-0.0001166;0.0112789;0.0112798;-0.00416061;0.00772019;0.368806;2.71145;0.00922496;0.0102936;2.71109;0.368856;57.7817;102.782;0.00987045;-0.00418916;-0.00801066;0.00765696;0.0112472;0.0245711;0.0267341;0;0.0429873;0.010577;-2.62794;-1.89702;3.24112;-8.54864;-0.0361423;-0.00192716;0.182922;0.182939;-0.0361593;0.109549;0.197583;5.06116;0.135629;0.146065;5.05925;0.197658;90.419;135.419;-0.0826398;-0.0361419;-0.0021846;-0.00171738;0.182921;0.0140979;0.0637752;0;0.159561;8.73791;6.44565
639000;640;;;;;;;;;;0.105479;-0.840437;-0.261389;0.886445;-6.81482;-0.00409079;-0.000179433;0.010965;0.0109672;-0.00409293;0.00753006;0.373076;2.68042;0.00899183;0.0100401;2.67954;0.373198;57.573;102.573;0.0101421;-0.00412023;-0.00813619;0.00765884;0.0109323;0.0242841;0.0284674;0;0.0388404;0.00868087;-2.63205;-1.89996;3.24617;-8.55026;-0.0368304;-0.000155502;0.181757;0.181757;-0.0368305;0.109294;0.202636;4.93496;0.135132;0.145725;4.93495;0.202636;89.6915;134.692;-0.0609042;-0.0368307;-0.00119947;0.000695368;0.181756;0.0167784;0.0501341;0;0.172413;8.68943;6.44834
640000;641;;;;;;;;;;0.105461;-0.842;-0.256986;0.886639;-6.81041;-0.00420211;-7.85663e-05;0.0109676;0.010968;-0.00420252;0.00758526;0.383138;2.61002;0.00904437;0.0101137;2.60987;0.383161;57.1177;102.118;0.00974599;-0.00423176;-0.00796087;0.00768547;0.0109363;0.0255705;0.0279848;0;0.0352765;0.0084893;-2.63351;-1.90047;3.24765;-8.54359;-0.0361538;-0.00136936;0.183561;0.183569;-0.0361623;0.109866;0.196958;5.07722;0.136045;0.146488;5.07626;0.196996;89.9906;134.991;-0.0644878;-0.0361529;-0.00248543;-0.000460482;0.183559;0.00645043;0.03429;0;0.144846;8.70612;6.45317
641000;642;;;;;;;;;;0.106485;-0.841568;-0.261559;0.887687;-6.81499;-0.00420138;-0.000344473;0.0110553;0.0110631;-0.00420915;0.00763613;0.380032;2.63136;0.00910862;0.0101815;2.62834;0.380468;58.2686;103.269;0.0101382;-0.00422886;-0.00821332;0.00740565;0.011022;0.0248839;0.028626;0;0.0367088;0.00953539;-2.64622;-1.9051;3.26066;-8.55591;-0.0373614;0.00117796;0.182961;0.182967;-0.0373677;0.110167;0.204205;4.89705;0.136154;0.14689;4.89639;0.204232;88.7313;133.731;-0.0594099;-0.0373672;-0.00171627;0.00353314;0.18296;0.0139749;0.0592292;0;0.164041;8.731;6.46052
642000;643;;;;;;;;;;0.105954;-0.841652;-0.25546;0.885926;-6.80889;-0.00421895;-0.000191663;0.0111128;0.0111152;-0.00422135;0.00766829;0.379647;2.63402;0.0091479;0.0102244;2.6331;0.379781;57.7627;102.763;0.00979836;-0.00424757;-0.00805383;0.0075513;0.0110808;0.0249654;0.0281162;0;0.0367224;0.00844809;-2.66784;-1.90603;3.27878;-8.56359;-0.0353525;0.00046627;0.183377;0.183378;-0.0353534;0.109366;0.192786;5.18711;0.135582;0.145821;5.18699;0.19279;90.0607;135.061;-0.0770837;-0.0353523;0.00102522;1.06307e-05;0.183377;0.00386116;0.0659744;0;0.153914;8.73071;6.46853
643000;644;;;;;;;;;;0.10521;-0.840717;-0.249799;0.883331;-6.80323;-0.00405049;4.39776e-05;0.0114222;0.0114224;-0.00405062;0.00773649;0.354615;2.81996;0.00926512;0.0103153;2.8199;0.354622;57.5953;102.595;0.00973692;-0.00408102;-0.00783035;0.00779784;0.0113919;0.0250128;0.0264391;0;0.0369903;0.00639107;-2.68955;-1.90775;3.29746;-8.55591;-0.0394597;-0.000652164;0.185846;0.185848;-0.0394616;0.112655;0.212324;4.70978;0.138933;0.150206;4.7096;0.212332;90.4852;135.485;-0.077041;-0.0394605;0.000315442;-0.00143593;0.185846;0.0088304;0.044214;0;0.165454;8.68603;6.48251
644000;645;;;;;;;;;;0.104931;-0.837191;-0.252165;0.880617;-6.80559;-0.00412196;3.83837e-05;0.0115964;0.0115965;-0.00412205;0.00785928;0.355451;2.81333;0.00941091;0.010479;2.81329;0.355456;57.5482;102.548;0.00994859;-0.0041537;-0.00799937;0.00795124;0.0115648;0.0255942;0.026856;0;0.0333994;0.00339251;-2.70981;-1.92017;3.32117;-8.57528;-0.0373384;0.00186572;0.185816;0.185831;-0.037354;0.111593;0.200943;4.97654;0.138034;0.14879;4.97488;0.20101;89.1192;134.119;-0.0671854;-0.0373408;0.000630904;0.00286816;0.185817;0.0306593;0.0368432;0;0.163213;8.5822;6.48915
645000;646;;;;;;;;;;0.104455;-0.83763;-0.25461;0.881681;-6.80804;-0.00406174;0.000132817;0.0114154;0.0114166;-0.00406288;0.00773973;0.355811;2.81048;0.00926713;0.0103196;2.80997;0.355876;57.1832;102.183;0.0101644;-0.00409327;-0.00778216;0.00792667;0.0113855;0.0230698;0.026693;0;0.0267071;0.00202843;-2.71579;-1.92266;3.32748;-8.57958;-0.0351166;-5.68686e-05;0.187571;0.187571;-0.0351166;0.111344;0.187218;5.34138;0.138247;0.148458;5.34137;0.187218;90.3473;135.347;-0.0845809;-0.035117;0.000994508;-0.000911096;0.18757;0.00292594;0.0484109;0;0.155972;8.54722;6.48944
646000;647;;;;;;;;;;0.104532;-0.839323;-0.25081;0.88221;-6.80424;-0.00420912;-4.28546e-07;0.0116716;0.0116716;-0.00420912;0.00794038;0.360629;2.77294;0.0095002;0.0105872;2.77294;0.360629;57.8731;102.873;0.00999238;-0.00423942;-0.00789262;0.00776788;0.0116408;0.0248179;0.0255407;0;0.0321536;0.000816568;-2.72109;-1.92489;3.33309;-8.58077;-0.0355397;0.000133881;0.188312;0.188312;-0.0355397;0.111926;0.188728;5.29864;0.138912;0.149234;5.29863;0.188728;90.0664;135.066;-0.0769709;-0.0355396;0.000452811;-0.00012497;0.188312;0.00656439;0.0409464;0;0.163939;8.57823;6.48956
647000;648;;;;;;;;;;0.105242;-0.83935;-0.248157;0.88157;-6.80159;-0.00419377;0.000181234;0.0113141;0.0113162;-0.00419589;0.00775603;0.370669;2.69783;0.00926506;0.0103414;2.69697;0.370786;56.5906;101.591;0.0101201;-0.00422606;-0.00778053;0.0080209;0.0112842;0.0239591;0.0258285;0;0.0376986;0.00193213;-2.72601;-1.92155;3.33519;-8.5693;-0.0369527;-0.000947474;0.189589;0.189593;-0.0369566;0.113275;0.194909;5.1306;0.140346;0.151033;5.13016;0.194926;90.1951;135.195;-0.0797288;-0.0369526;-0.00108852;-0.000833291;0.189589;0.0119791;0.053042;0;0.153716;8.62142;6.49739
648000;649;;;;;;;;;;0.105448;-0.837531;-0.245095;0.879005;-6.79852;-0.0040314;6.4398e-05;0.0116011;0.0116014;-0.00403166;0.00781654;0.3475;2.8777;0.00937183;0.010422;2.87757;0.347515;57.6786;102.679;0.0100914;-0.00406286;-0.00791046;0.00791601;0.0115702;0.0244685;0.0269604;0;0.0331014;0.00200915;-2.74758;-1.92451;3.35454;-8.56401;-0.0401548;0.00165931;0.190443;0.190455;-0.0401667;0.115311;0.210849;4.74272;0.142262;0.153748;4.74161;0.210899;88.6;133.6;-0.0810676;-0.0401623;-0.00142648;0.00414734;0.190443;0.0151442;0.0335381;0;0.144763;8.57665;6.5116
649000;650;;;;;;;;;;0.105756;-0.834914;-0.238852;0.874823;-6.79228;-0.00400406;6.68409e-05;0.0116075;0.0116078;-0.00400435;0.00780608;0.344954;2.89894;0.00936323;0.0104081;2.8988;0.34497;57.4687;102.469;0.0106786;-0.00403699;-0.00809152;0.0080993;0.0115752;0.0237717;0.0271415;0;0.0366675;-0.00299519;-2.78412;-1.93742;3.39189;-8.58972;-0.0359768;0.000563491;0.188633;0.188634;-0.0359782;0.112306;0.190724;5.24318;0.139306;0.149742;5.24301;0.19073;90.2642;135.264;-0.0995198;-0.0359768;0.00185563;-0.000484479;0.188632;0.0481528;0.0165134;0;0.164292;8.47761;6.52645
650000;651;;;;;;;;;;0.104957;-0.833399;-0.239263;0.873394;-6.79269;-0.00398988;9.96631e-05;0.0120125;0.0120131;-0.0039905;0.0080018;0.332145;3.01074;0.00961889;0.0106691;3.01042;0.332179;58.1355;103.136;0.0106232;-0.00402207;-0.00793543;0.0080077;0.0119814;0.0244247;0.0270874;0;0.0327731;;;;;;;;;;;;;;;;;;;;;;;;;;;;;8.39688;6.52587
651000;652;;;;;;;;;;0.103654;-0.832879;-0.240569;0.873101;-6.794;-0.0039131;0.00023258;0.0121005;0.0121038;-0.00391648;0.00801016;0.323385;3.09229;0.00964356;0.0106802;3.09049;0.323573;57.8056;102.806;0.0107381;-0.00394685;-0.00786615;0.00820316;0.0120699;0.0239463;0.0260703;0;0.0262349;-0.00494924;-2.79328;-1.93837;3.39995;-8.59154;-0.0363126;0.000670197;0.189607;0.189609;-0.0363146;0.112962;0.191515;5.22152;0.140089;0.150616;5.22129;0.191524;89.6873;134.687;-0.0801698;-0.0363129;0.000215801;0.0010383;0.189607;0.0202964;0.0585284;0;0.158026;8.38748;6.52706
652000;653;;;;;;;;;;0.104816;-0.8342;-0.241405;0.87473;-6.79483;-0.00398961;0.000197706;0.0118533;0.0118558;-0.00399207;0.00792391;0.336582;2.97104;0.00951781;0.0105652;2.96982;0.33672;57.4575;102.458;0.0101365;-0.0040231;-0.00790175;0.00817033;0.0118225;0.0244221;0.0263899;0;0.0338324;-0.00533527;-2.7947;-1.9413;3.4028;-8.58134;-0.0370214;-0.00148616;0.192714;0.192723;-0.037031;0.114877;0.192106;5.20546;0.142439;0.153169;5.20437;0.192146;90.3533;135.353;-0.0776761;-0.0370213;-0.00154243;-0.00144072;0.192713;-0.00181626;0.0103487;0;0.148942;8.46538;6.53386
653000;654;;;;;;;;;;0.103926;-0.829739;-0.231437;0.867658;-6.78487;-0.00390968;0.000266689;0.0126461;0.0126503;-0.00391397;0.00828216;0.309162;3.23455;0.00999697;0.0110429;3.2321;0.309396;58.5526;103.553;0.0107566;-0.0039433;-0.00778761;0.00818929;0.0126161;0.0239782;0.0257823;0;0.0293434;;;;;;;;;;;;;;;;;;;;;;;;;;;;;8.34674;6.54968
654000;655;;;;;;;;;;-2.5333;6.5221;-2.09311;7.30318;-8.64068;-0.00189936;0.00184127;0.00942001;0.00971199;-0.00219134;0.00595167;0.201631;4.95956;0.00731535;0.00793556;4.43198;0.225633;54.9974;99.9974;0.0257056;-0.00191987;-0.00302931;0.00665719;0.00941715;-0.0254074;-0.118561;0;0.0305403;;;;;;;;;;;;;;;;;;;;;;;;;;;;;-0.0218889;6.5833
655000;656;;;;;;;;;;-2.53293;6.52072;-2.09382;7.30203;-8.64139;-0.00196829;0.0020746;0.00906584;0.00944301;-0.00234546;0.00589424;0.217111;4.60594;0.00720555;0.00785898;4.02608;0.24838;52.5506;97.5506;0.0257797;-0.00199082;-0.0029244;0.00701889;0.00906374;-0.0255376;-0.118718;0;0.0308859;;;;;;;;;;;;;;;;;;;;;;;;;;;;;-0.0209904;6.56663
656000;657;;;;;;;;;;-2.53288;6.52146;-2.09393;7.3027;-8.6415;-0.00134527;0.0013392;0.00819637;0.00838077;-0.00152967;0.00495522;0.16413;6.09271;0.0061607;0.00660696;5.4788;0.182522;56.1517;101.152;0.0165945;-0.00136083;-0.00309641;0.00573281;0.00819251;-0.0137653;-0.106087;0;0.0294741;;;;;;;;;;;;;;;;;;;;;;;;;;;;;-0.020863;6.5609
657000;658;;;;;;;;;;-2.53317;6.52238;-2.09611;7.30425;-8.64368;-0.0016616;0.00212957;0.00918322;0.00958641;-0.00206479;0.0058256;0.180939;5.52672;0.00717887;0.00776746;4.64279;0.215388;52.9533;97.9533;0.0256135;-0.00168434;-0.00286003;0.0070655;0.00918141;-0.0256126;-0.117628;0;0.0304875;;;;;;;;;;;;;;;;;;;;;;;;;;;;;-0.0207924;6.56106
