Time;Image index (Image index);Distance L(t) (Extensometer 1);Change in distance (Extensometer 1);Strain - RC (Extensometer 1);Distance x L(t) (Extensometer 1);Distance y L(t) (Extensometer 1);Distance z L(t) (Extensometer 1);Change in distance x (Extensometer 1);Change in distance y (Extensometer 1);Change in distance z (Extensometer 1);X-displacement (Strain Gauge 1);Y-displacement (Strain Gauge 1);Z-displacement (Strain Gauge 1);Displacement (Strain Gauge 1);Height (Strain Gauge 1);Exx - RC (Strain Gauge 1);Exy - RC (Strain Gauge 1);Eyy - RC (Strain Gauge 1);Max. principal strain - RC (Strain Gauge 1);Min. principal strain - RC (Strain Gauge 1);Max. shear strain - RC (Strain Gauge 1);Poisson ratio -Exx/Eyy (Strain Gauge 1);Poisson ratio -Eyy/Exx (Strain Gauge 1);Von Mises - RC (Strain Gauge 1);Tresca - RC (Strain Gauge 1);Poisson ratio -strain max/min (Strain Gauge 1);Poisson ratio -strain min/max (Strain Gauge 1);Max. strain angle (Strain Gauge 1);Max. shear angle (Strain Gauge 1);Vorticity-z (Strain Gauge 1);du/dx (Strain Gauge 1);du/dy (Strain Gauge 1);dv/dx (Strain Gauge 1);dv/dy (Strain Gauge 1);dw/dx (Strain Gauge 1);dw/dy (Strain Gauge 1);Ezz plane stress state (Strain Gauge 1);Stereo reconstruction error (Strain Gauge 1);X-displacement (Strain Gauge 2);Y-displacement (Strain Gauge 2);Z-displacement (Strain Gauge 2);Displacement (Strain Gauge 2);Height (Strain Gauge 2);Exx - RC (Strain Gauge 2);Exy - RC (Strain Gauge 2);Eyy - RC (Strain Gauge 2);Max. principal strain - RC (Strain Gauge 2);Min. principal strain - RC (Strain Gauge 2);Max. shear strain - RC (Strain Gauge 2);Poisson ratio -Exx/Eyy (Strain Gauge 2);Poisson ratio -Eyy/Exx (Strain Gauge 2);Von Mises - RC (Strain Gauge 2);Tresca - RC (Strain Gauge 2);Poisson ratio -strain max/min (Strain Gauge 2);Poisson ratio -strain min/max (Strain Gauge 2);Max. strain angle (Strain Gauge 2);Max. shear angle (Strain Gauge 2);Vorticity-z (Strain Gauge 2);du/dx (Strain Gauge 2);du/dy (Strain Gauge 2);dv/dx (Strain Gauge 2);dv/dy (Strain Gauge 2);dw/dx (Strain Gauge 2);dw/dy (Strain Gauge 2);Ezz plane stress state (Strain Gauge 2);Stereo reconstruction error (Strain Gauge 2);Load ADC 1 channel 1;Position ADC 1 channel 2
ms;;mm;mm;S;mm;mm;mm;mm;mm;mm;mm;mm;mm;mm;mm;S;S;S;S;S;S;;;S;S;;;°;°;S;S;S;S;S;S;S;S;pixel;mm;mm;mm;mm;mm;S;S;S;S;S;S;;;S;S;;;°;°;S;S;S;S;S;S;S;S;pixel;kN;mm
0.02515;1;25.7531;0;0;-2.28919;25.6499;-0.245109;0;0;0;0;0;0;0;-5.9109;-1.11022e-16;-1.38778e-17;-3.33067e-16;-1.10158e-16;-3.33931e-16;1.11886e-16;;;1.9648e-16;1.49182e-16;;;0;45;0;-1.11022e-16;-2.77556e-17;-5.24253e-30;-3.33067e-16;0;0;0;0;0;0;0;0;-6.12339;-1.11022e-16;-4.16334e-17;-3.33067e-16;-1.03473e-16;-3.40616e-16;1.18572e-16;;;2.0164e-16;1.58096e-16;;;0;45;0;-1.11022e-16;-5.55112e-17;-2.77556e-17;-3.33067e-16;0;0;0;0;-0.0144813;0.213757
1000.03;2;25.7596;0.00652556;0.00025339;-2.29256;25.6563;-0.236637;-0.00336936;0.00633047;0.00847125;-0.000947202;-0.00321364;-0.00280858;0.00437181;-5.9137;-0.000246762;-0.000200836;0.000608734;0.000653535;-0.000291564;0.00047255;0.405369;2.46689;0.000558834;0.000630066;2.24148;0.446133;112.612;157.612;-0.000681257;-0.000246777;-0.000134661;-0.000266954;0.000608745;0.00262578;-0.00465015;0;0.0125414;-0.00111776;-0.00316006;-0.00724736;0.00798496;-6.13355;0.000429173;0.000351154;-0.000189474;0.000587813;-0.000348115;0.000467964;2.26507;0.441487;0.000546234;0.000623952;1.68856;0.59222;167.097;32.0965;-0.0040348;0.000428929;-7.92439e-05;0.000781819;-0.000189416;0.00287696;-0.00223281;0;0.0332734;-0.0143137;0.22111
2000.03;3;25.7605;0.00745949;0.000289655;-2.29227;25.6572;-0.241626;-0.00308455;0.00724711;0.00348302;0.000359511;-0.00571129;-0.00429183;0.00715318;-5.91519;-0.000165201;0.000155508;0.000795149;0.000819702;-0.000189754;0.000504728;0.207761;4.81323;0.000619484;0.000672971;4.31981;0.231492;78.2412;123.241;-0.000334963;-0.000165206;0.000124751;0.000186235;0.000795153;0.00313507;-0.00513492;0;0.0132821;0.000302201;-0.00561574;-0.0110761;0.0124221;-6.13737;0.000630623;0.000304751;-6.56897e-05;0.000745161;-0.000180228;0.000462695;9.60004;0.104166;0.000566489;0.000616926;4.13455;0.241864;172.457;37.457;-0.00162011;0.000630405;-0.000118616;0.000728413;-6.56503e-05;-0.00499628;0.00184417;0;0.0350137;-0.0140697;0.22875
3000.03;4;25.7578;0.0047401;0.00018406;-2.29096;25.6545;-0.252321;-0.00177588;0.00453071;-0.0072127;-0.000882191;-0.0082017;-0.00685167;0.0107234;-5.91775;-0.000162665;-0.000223916;0.000678942;0.000734809;-0.000218531;0.00047667;0.239586;4.17387;0.000576687;0.00063556;3.36249;0.297399;96.4532;141.453;-0.000477511;-0.000162652;-0.000293672;-0.000154219;0.000678924;0.00322956;-0.00703667;0;0.013883;-0.000551412;-0.00748123;-0.0183275;0.0198032;-6.14172;0.000601333;0.000494729;-0.000277087;0.000823683;-0.000499437;0.00066156;2.1702;0.460788;0.000771512;0.00088208;1.64922;0.606346;172.315;37.3146;-0.00352668;0.000601116;0.000165627;0.000824119;-0.000276978;-0.00153988;0.000759286;0;0.0372808;-0.013829;0.235826
4000.03;5;25.7612;0.00810667;0.000314785;-2.29331;25.6577;-0.248116;-0.00411978;0.00774244;-0.00300747;-0.00169972;-0.0101774;-0.0113284;0.0153232;-5.92222;-0.000295842;7.30227e-05;0.000742139;0.000747251;-0.000300954;0.000524103;0.398635;2.50856;0.000623198;0.000698804;2.48294;0.402749;81.5364;126.536;0.000312345;-0.000295845;3.79802e-05;0.000108029;0.000742141;0.000962267;-0.00557378;0;0.0186256;-0.00135388;-0.0100975;-0.0241931;0.0262507;-6.14758;0.000916199;0.000585057;-0.000506703;0.00112586;-0.000716368;0.000921116;1.80816;0.55305;0.00107234;0.00122815;1.57163;0.636283;48.7579;93.7579;-0.00412977;0.000916337;0.000913712;0.000255934;-0.00050695;-0.00353025;0.00138767;0;0.0417298;-0.0136235;0.243263
5000.03;6;25.7619;0.00880448;0.000341881;-2.29435;25.6583;-0.247215;-0.0051641;0.00835841;-0.0021065;-0.0019661;-0.012808;-0.0116699;0.0174384;-5.92257;-0.000339542;7.03841e-05;0.000509022;0.000514821;-0.00034534;0.00043008;0.667047;1.49915;0.000499817;0.000573441;1.49076;0.670797;90.1568;135.157;0.00124808;-0.000339541;8.49262e-05;5.58544e-05;0.000509021;-0.00018538;-0.00453072;0;0.016211;-0.00193924;-0.0117081;-0.0275663;0.0300123;-6.15095;0.000611909;0.000758743;-0.000586367;0.000979548;-0.000954005;0.000966777;1.04356;0.958257;0.00111637;0.00128904;1.02677;0.973924;28.3459;73.3459;-0.00294141;0.00061191;0.000759857;0.000757627;-0.000586368;-0.00660695;-0.000850998;0;0.0423307;-0.0130957;0.249066
6000.03;7;25.7599;0.00683826;0.000265532;-2.2943;25.6562;-0.258094;-0.00511521;0.00628149;-0.0129855;-0.00222728;-0.013643;-0.0155227;0.0207857;-5.92642;-0.00036893;0.000183865;0.00092595;0.000951552;-0.000394531;0.000673041;0.398434;2.50983;0.000799033;0.000897388;2.41185;0.414619;71.952;116.952;0.000342816;-0.000368954;8.10646e-05;0.000286533;0.000925964;0.00162836;-0.00480176;0;0.019588;-0.00208048;-0.0131138;-0.0324931;0.0351013;-6.15588;0.0011231;0.000743349;-0.000659301;0.00139242;-0.000928619;0.00116052;1.70348;0.587035;0.00134894;0.00154736;1.49945;0.666909;45.8227;90.8227;-0.00515856;0.00112328;0.00103805;0.000448119;-0.000659564;0.000588076;0.00227793;0;0.0434149;-0.0128964;0.252579
7000.03;8;25.758;0.00497362;0.000193128;-2.29365;25.6543;-0.264172;-0.00446635;0.00440547;-0.0190639;-0.00215313;-0.0158286;-0.0158299;0.0224893;-5.92673;-0.000382382;3.02454e-05;0.00065614;0.00065702;-0.000383263;0.000520141;0.582776;1.71593;0.0006075;0.000693521;1.71428;0.583335;60.2455;105.246;0.000987316;-0.000382409;-0.000174197;0.000234476;0.000656125;0.000283732;-0.00655937;0;0.0198691;-0.00218544;-0.0140247;-0.0388765;0.0413866;-6.16226;0.00086733;0.00108359;-0.000425138;0.00148275;-0.00104056;0.00126166;2.04011;0.490169;0.00146428;0.00168221;1.42495;0.701777;33.5665;78.5665;-0.00299569;0.000867363;0.00111443;0.00105271;-0.000425172;-0.00698637;-0.000125236;0;0.0438549;-0.0127679;0.258731
8000.03;9;25.7584;0.00530027;0.000205811;-2.2947;25.6545;-0.267578;-0.00551407;0.00460445;-0.0224694;-0.00242086;-0.0180758;-0.0190297;0.0263577;-5.92993;-0.000703147;-5.06224e-05;0.000481798;0.000483957;-0.000705306;0.000594631;1.45942;0.685202;0.000690574;0.000792842;0.686166;1.45737;28.7517;73.7517;0.000924993;-0.00070315;-0.000195539;9.41221e-05;0.00048178;-3.24951e-05;-0.0069686;0;0.0220218;-0.0023645;-0.0166763;-0.0444451;0.0475296;-6.16783;0.00131032;0.000932675;-0.000657484;0.00168213;-0.00102929;0.00135571;1.99293;0.501774;0.00158049;0.00180761;1.63426;0.611899;22.3583;67.3583;-0.00499427;0.00131032;0.00093978;0.000925556;-0.000657491;-0.00104425;0.00282559;0;0.0439387;-0.0124302;0.266042
9000.03;10;25.7564;0.00338134;0.000131299;-2.29409;25.6526;-0.27322;-0.00490023;0.00267318;-0.0281115;-0.00305896;-0.0203265;-0.0198673;0.0285873;-5.93076;-0.000703619;0.000154439;0.000427529;0.000448235;-0.000724326;0.000586281;1.64578;0.607614;0.000683205;0.000781707;0.618831;1.61595;18.9656;63.9656;0.00129436;-0.000703664;-3.01747e-05;0.000338844;0.00042754;-0.00156903;-0.00498487;0;0.0204568;-0.00302625;-0.0180977;-0.0499048;0.0531711;-6.17329;0.000943322;0.00106087;-0.000350613;0.00153894;-0.000946231;0.00124259;2.6905;0.371678;0.00144835;0.00165678;1.62639;0.614859;2.16393;47.1639;-0.00352385;0.0009428;0.000648548;0.00147373;-0.00035026;-0.0107698;-0.000624861;0;0.0447051;-0.0119844;0.273157
10000;11;25.7559;0.00288141;0.000111886;-2.29288;25.6522;-0.274465;-0.00369634;0.00226557;-0.0293563;-0.00312893;-0.0236036;-0.0178657;0.0297674;-5.92876;-0.000710766;-2.75856e-05;2.78637e-05;2.88925e-05;-0.000711795;0.000370344;25.5087;0.0392023;0.000484448;0.000493792;0.040591;24.636;16.7405;61.7405;0.000637041;-0.000710779;-0.000218484;0.000163172;2.78402e-05;0.00125619;-0.00460916;0;0.0173798;-0.00315296;-0.0206681;-0.0516109;0.0556848;-6.175;0.00101135;0.00119528;-0.000565778;0.00165475;-0.00120918;0.00143197;1.78753;0.55943;0.00166015;0.00190929;1.36849;0.730734;174.937;39.9369;-0.00222843;0.00101059;0.000677659;0.00171372;-0.000565293;-0.00613012;-0.00480686;0;0.0441508;-0.0119728;0.279795
11000;12;25.7554;0.00237973;9.24057e-05;-2.29334;25.6516;-0.276273;-0.00415224;0.0017017;-0.0311644;-0.00285007;-0.0254675;-0.0202963;0.0326903;-5.93119;-0.00078373;0.000104983;0.000179423;0.000190733;-0.00079504;0.000492887;4.36806;0.228934;0.000603732;0.000657182;0.239904;4.16834;5.35542;50.3554;0.0010789;-0.000783752;-2.33482e-05;0.000233191;0.000179428;-0.000747091;-0.00455063;0;0.0187381;-0.00311724;-0.0227725;-0.0562328;0.0607489;-6.17962;0.00100066;0.00110528;-0.000541902;0.00157716;-0.0011184;0.00134778;1.84657;0.541545;0.00156378;0.00179704;1.41019;0.709125;172.375;37.3748;-0.00197836;0.000999743;0.000462922;0.00174863;-0.000541398;-0.00655754;-0.00226673;0;0.0422182;-0.0114391;0.287738
12000;13;25.756;0.00289617;0.000112459;-2.29327;25.6522;-0.275919;-0.00408467;0.00223008;-0.0308107;-0.00321046;-0.0266309;-0.0248526;0.0365672;-5.93575;-0.000847879;0.000168292;0.000286156;0.000310604;-0.000872326;0.000591465;2.96299;0.337497;0.000708167;0.00078862;0.356064;2.80849;11.5864;56.5864;0.00101809;-0.000847945;-6.49593e-05;0.000401279;0.000286168;-0.00143929;-0.00594345;0;0.0201243;-0.00372425;-0.0246428;-0.062865;0.067625;-6.18625;0.0011082;0.00117755;-0.000502626;0.00172943;-0.00112385;0.00142664;2.20483;0.45355;0.00165967;0.00190219;1.53884;0.64984;6.82484;51.8248;-0.00349533;0.00110785;0.000905218;0.00145031;-0.000502342;-0.00107455;-0.00481601;0;0.0430512;-0.0114369;0.294259
13000;14;25.7545;0.00144418;5.60782e-05;-2.29229;25.6507;-0.284085;-0.0031028;0.000770851;-0.038976;-0.00309384;-0.0299017;-0.0241561;0.0385642;-5.93505;-0.000786459;-0.000156263;-0.000181195;-0.000143233;-0.000824422;0.000340594;-4.3404;-0.230393;0.000508637;0.000454126;-0.173737;-5.75581;20.0437;65.0437;0.000371085;-0.000786448;-0.00026597;-4.6623e-05;-0.000181218;-0.00104143;-0.00608628;0;0.0177449;-0.00406494;-0.027352;-0.0649702;0.0706101;-6.19127;0.000960107;0.000983853;-0.000526842;0.00144981;-0.00101654;0.00123318;1.82238;0.548733;0.00143125;0.00164423;1.42621;0.701157;1.76706;46.7671;-0.0017133;0.000959826;0.000731303;0.00123678;-0.000526625;-0.000327286;-0.000122473;0;0.0401482;-0.0113167;0.302024
14000;15;25.7541;0.00103426;4.01606e-05;-2.29207;25.6504;-0.277906;-0.00287911;0.000446941;-0.0327974;-0.00361808;-0.0316217;-0.0283736;0.042639;-5.93927;-0.00089328;-3.84271e-05;-0.000431316;-0.000428141;-0.000896454;0.000234157;-2.07106;-0.482845;0.000517741;0.000312209;-0.477594;-2.09383;12.4373;57.4373;0.000899728;-0.000893289;-0.000221134;0.000144196;-0.000431339;-0.00166311;-0.00240549;0;0.0181759;-0.00464252;-0.0291468;-0.0731435;0.0788737;-6.19944;0.000692937;0.00102585;-0.00024687;0.00135138;-0.000905315;0.00112835;2.80689;0.356267;0.00131136;0.00150446;1.49272;0.669918;4.46307;49.4631;-0.00191775;0.000692535;0.000689349;0.00136266;-0.000246582;-0.00169806;-0.0011598;0;0.0420339;-0.0113304;0.309113
15000;16;25.7562;0.00313583;0.000121766;-2.29375;25.6522;-0.286795;-0.00455971;0.00230896;-0.0416863;-0.00445889;-0.0321085;-0.0329369;0.0462134;-5.94383;-0.000815209;0.000247732;-0.000162006;-7.86811e-05;-0.000898534;0.000409927;-5.03198;-0.198729;0.000574594;0.000546569;-0.0875661;-11.4199;171.687;36.6868;0.000752756;-0.000815272;6.45567e-05;0.000430787;-0.000161977;-0.0022481;-0.00538335;0;0.0196044;-0.00574094;-0.0306394;-0.0788714;0.0848082;-6.20517;0.00087785;0.000927915;-0.000270186;0.00139494;-0.000787279;0.00109111;3.24906;0.307781;0.00127609;0.00145481;1.77185;0.564381;178.825;43.8249;-0.00248622;0.000877204;0.000388391;0.00146806;-0.000269831;-0.00533059;0.00091826;0;0.0465326;-0.0112152;0.316719
16000;17;25.7574;0.00438836;0.000170402;-2.29348;25.6535;-0.291715;-0.00428902;0.00353528;-0.0466062;-0.00486884;-0.0357008;-0.0332445;0.0490249;-5.94414;-0.000605317;-8.31045e-05;-0.000250873;-0.000232356;-0.000623834;0.000195739;-2.41284;-0.41445;0.000364055;0.000260986;-0.372464;-2.68482;13.9753;58.9753;0.000814634;-0.000605315;-0.00010424;-6.1976e-05;-0.000250875;-0.00116062;-0.00120509;0;0.016375;-0.0060852;-0.0350623;-0.0807458;0.0882399;-6.20704;0.000987812;0.000718812;-0.00030815;0.0013076;-0.000627935;0.000967765;3.20562;0.311953;0.00114021;0.00129035;2.08238;0.480221;46.7236;91.7236;-0.00551001;0.000988;0.00106435;0.00037283;-0.000308459;-0.00265468;-0.000299654;0;0.044873;-0.0111699;0.319767
17000;18;25.757;0.00399476;0.000155118;-2.2947;25.6529;-0.301752;-0.00551489;0.00291436;-0.0566435;-0.00439322;-0.0383795;-0.0354058;0.0524009;-5.9463;-0.000672977;3.84935e-05;0.000273775;0.000275338;-0.000674539;0.000474939;2.45814;0.406812;0.000564325;0.000633251;0.408186;2.44986;10.1476;55.1476;0.00154883;-0.000672985;-5.43681e-05;0.000131267;0.000273775;-0.00295862;-0.000816324;0;0.0222858;-0.00606743;-0.03817;-0.0855839;0.0939061;-6.21188;0.000992458;0.00059016;-5.66513e-05;0.00125749;-0.000321683;0.000789586;17.5187;0.0570818;0.000963621;0.00105278;3.9091;0.255813;37.5602;82.5602;-0.00412425;0.00099257;0.000826026;0.000354046;-5.68183e-05;-0.00235902;0.000631365;0;0.0490238;-0.0111845;0.324437
18000;19;25.7598;0.00679066;0.000263684;-2.29439;25.6557;-0.304874;-0.00520631;0.0057123;-0.0597656;-0.00450449;-0.0408607;-0.036836;0.0551976;-5.94773;-0.000510755;-0.000169289;-0.00027106;-0.00018349;-0.000598326;0.000207418;-1.88429;-0.530704;0.000353946;0.000276557;-0.306672;-3.26081;28.6382;73.6382;0.000580145;-0.000510753;-0.000186849;-0.000151733;-0.000271063;-0.00315972;-0.00104828;0;0.016728;-0.00640468;-0.0416424;-0.0879059;0.0974811;-6.2142;0.00118685;0.00031152;-0.000116774;0.00125747;-0.000187391;0.000722431;10.1637;0.0983897;0.000907252;0.000963242;6.71042;0.149022;31.4414;76.4414;-0.00199261;0.0011869;0.000719695;-9.71872e-05;-0.000116985;-0.00633752;-0.00258925;0;0.0462786;-0.0111615;0.331318
19000;20;25.7624;0.00937341;0.000363973;-2.29586;25.6581;-0.305762;-0.0066669;0.00816432;-0.0606532;-0.00487705;-0.0429619;-0.0403508;0.0591413;-5.95125;-0.00037582;3.84034e-05;-3.22676e-05;-2.80271e-05;-0.000380061;0.000176017;-11.647;-0.0858592;0.000244567;0.000234689;-0.0737438;-13.5605;168.627;33.6272;0.000332128;-0.000375819;7.49076e-05;1.91166e-06;-3.22697e-05;-0.00234875;0.000796513;0;0.0152649;-0.00719935;-0.0435116;-0.09492;0.104666;-6.22122;0.000878787;0.000401884;-0.000100554;0.00102259;-0.000244356;0.000633473;8.73949;0.114423;0.000776109;0.000844631;4.18483;0.238958;12.4122;57.4122;-0.000792567;0.000878741;0.000300883;0.000502985;-0.000100518;-0.0115639;-0.00435144;0;0.047257;-0.0111571;0.338164
20000;21;25.763;0.0099587;0.0003867;-2.29866;25.6584;-0.306368;-0.00947434;0.00849341;-0.0612595;-0.00595039;-0.0457563;-0.0414612;0.0620329;-5.95236;-0.000218561;-0.000331178;0.000104457;0.00031141;-0.000425514;0.000368462;2.09236;0.47793;0.00042716;0.000491283;0.731844;1.36641;174.033;39.0335;0.000370039;-0.000218662;-0.000103527;-0.000558757;0.000104506;2.61618e-05;0.000582114;0;0.0142732;-0.00895921;-0.0461096;-0.097707;0.108411;-6.22109;0.000909978;0.00059657;-0.000166449;0.00117524;-0.000431709;0.000803473;5.46701;0.182915;0.000960304;0.0010713;2.72229;0.367337;42.5683;87.5683;-0.00150748;0.000910106;0.000878664;0.000314171;-0.000166657;-0.0116981;-0.00437504;0;0.0501967;-0.0109544;0.346229
21000;22;25.7606;0.00756904;0.000293908;-2.2989;25.6559;-0.313606;-0.00970757;0.00598565;-0.0684976;-0.00661164;-0.0485239;-0.0380091;0.0619918;-5.9489;6.31405e-05;-8.71595e-06;0.000534075;0.000534236;6.29793e-05;0.000235628;-0.118224;-8.45851;0.000337131;0.000314171;-8.48273;-0.117887;107.545;152.545;0.00119667;6.31201e-05;0.000185095;-0.000202436;0.000534057;-0.00268992;0.00150697;0;0.0132443;-0.0100909;-0.0485599;-0.0947167;0.106917;-6.2181;0.000904479;0.000669092;-0.000279606;0.00120586;-0.000580983;0.000893419;3.23484;0.309135;0.00105245;0.00119123;2.07555;0.481801;51.2966;96.2966;-0.00191112;0.000904674;0.00110067;0.000237007;-0.000279988;-0.011458;-0.00343304;0;0.0503901;-0.0108515;0.353117
22000;23;25.762;0.00895635;0.000347778;-2.29929;25.6573;-0.309758;-0.0100976;0.00739042;-0.0646495;-0.00590589;-0.0511312;-0.041518;0.0661288;-5.95241;1.85632e-07;0.000183696;0.000390357;0.000463231;-7.2689e-05;0.00026796;;;0.000335684;0.00035728;6.37279;0.156917;90.762;135.762;0.000281607;2.02451e-07;0.000377715;-1.02467e-05;0.000390302;-0.00336393;0.000861486;0;0.0138484;-0.0100869;-0.0506128;-0.0998465;0.112395;-6.22323;0.0008066;0.000785637;-0.000261942;0.00122242;-0.000677761;0.00095009;3.07931;0.324748;0.00111199;0.00126679;1.80361;0.554442;58.2679;103.268;-0.00252787;0.000806864;0.00127207;0.000298687;-0.000262443;-0.00952266;-0.00530836;0;0.0496741;-0.0106455;0.360826
23000;24;25.7593;0.00621553;0.000241351;-2.2987;25.6545;-0.31658;-0.00951313;0.00460752;-0.0714713;-0.00656823;-0.0506691;-0.0448952;0.0680153;-5.95579;-1.38949e-05;0.000312674;-4.18503e-05;0.000285113;-0.000340858;0.000312986;-0.332015;-3.01191;0.000361882;0.000417314;0.836457;1.19552;96.7908;141.791;0.000372029;-1.38694e-05;0.00040896;0.000216384;-4.1885e-05;-0.0017402;0.000942744;0;0.01397;-0.0112053;-0.0499227;-0.104373;0.116239;-6.22776;0.000914613;0.000798868;-0.000393231;0.00129307;-0.000771687;0.00103238;2.32589;0.429943;0.00120469;0.0013765;1.67564;0.596787;56.676;101.676;-0.00223277;0.000914889;0.00130301;0.000294063;-0.000393762;-0.0119249;-0.00344606;0;0.0495377;-0.0104655;0.368313
24000;25;25.7615;0.00842596;0.000327183;-2.30058;25.6566;-0.312653;-0.011394;0.00670655;-0.0675439;-0.00727264;-0.0499849;-0.0467248;0.0688083;-5.95762;1.66014e-05;0.000192603;0.000545443;0.000608153;-4.61084e-05;0.000327131;-0.0304365;-32.8553;0.000421646;0.000436174;13.1896;0.0758171;91.7329;136.733;-0.00044822;1.66192e-05;0.000424699;-3.93695e-05;0.000545372;-0.000291483;9.33753e-05;0;0.0173283;-0.0133353;-0.0500625;-0.104424;0.116569;-6.22781;0.00110263;0.000875995;-0.00055487;0.00147978;-0.000932019;0.0012059;1.98719;0.503224;0.00140437;0.00160787;1.58771;0.629837;46.2644;91.2644;-0.00321712;0.00110284;0.00115891;0.000592611;-0.000555158;-0.00960735;-0.00318365;0;0.049253;-0.010328;0.375931
25000;26;25.7643;0.0112691;0.000437584;-2.30288;25.6594;-0.301126;-0.0136876;0.00949345;-0.0560176;-0.00730602;-0.049969;-0.0467698;0.068831;-5.95767;5.35624e-05;0.000161039;0.000436568;0.000495279;-5.14833e-06;0.000250214;-0.12269;-8.15065;0.000331915;0.000333618;;;97.0802;142.08;0.000441961;5.35593e-05;0.00050133;-0.000179122;0.000436456;-0.00136129;-0.000271077;0;0.0135779;-0.0149807;-0.0495018;-0.104288;0.116408;-6.22768;0.000947654;0.000714393;-0.000238711;0.00128303;-0.000574088;0.000928559;3.96988;0.251897;0.00109794;0.00123808;2.2349;0.447447;52.9084;97.9084;-0.00354516;0.000947889;0.00123062;0.000197549;-0.000239213;-0.00961089;-0.0035817;0;0.051694;-0.0102268;0.382712
26000;27;25.7655;0.0124922;0.000485075;-2.30461;25.6606;-0.296683;-0.0154173;0.010618;-0.0515746;-0.00776903;-0.0500998;-0.0429326;0.0664346;-5.95383;0.000101189;-3.1758e-05;0.000771909;0.000773409;9.96889e-05;0.00033686;-0.13109;-7.62836;0.000485798;0.000449147;-7.75822;-0.128895;114.961;159.961;-0.000132431;0.000101084;0.000397837;-0.000461065;0.00077183;-8.03479e-05;0.000899453;0;0.0163455;-0.0168201;-0.0504051;-0.098769;0.112156;-6.22216;0.00118539;0.000715876;-0.000221893;0.00148553;-0.00052204;0.00100379;5.34216;0.18719;0.00120275;0.00133838;2.84563;0.351416;52.6359;97.6359;-0.0037712;0.00118564;0.00154327;-0.000112683;-0.000222828;-0.0104432;-0.000847216;0;0.0540582;-0.0102461;0.389213
27000;28;25.7626;0.00952534;0.000369872;-2.30376;25.6576;-0.302542;-0.0145733;0.00764636;-0.0574338;-0.0090281;-0.0516557;-0.0443333;0.0686677;-5.95523;4.12106e-05;0.000119664;0.000261125;0.000313679;-1.13442e-05;0.000162512;-0.15782;-6.33635;0.000213002;0.000216682;27.6512;0.0361649;101.346;146.346;-9.6706e-06;4.11732e-05;0.000537879;-0.000298459;0.000260987;-0.000171851;0.000907807;0;0.014234;-0.0181106;-0.0515895;-0.0999873;0.11396;-6.22338;0.000811129;0.000764929;-0.00011164;0.00124305;-0.00054356;0.000893304;7.26556;0.137636;0.00105752;0.00119107;2.28687;0.43728;59.0175;104.018;-0.0025759;0.000811405;0.00135028;0.00017904;-0.000112259;-0.0103235;-0.00884631;0;0.0532322;-0.00954445;0.389877
28000;29;25.7588;0.00575192;0.000223349;-2.30645;25.6535;-0.309108;-0.0172598;0.00353783;-0.0639997;-0.00755541;-0.0558243;-0.0415554;0.0700021;-5.95245;-0.000260757;0.000150019;0.000494273;0.000522988;-0.000289473;0.00040623;0.527557;1.89553;0.000475489;0.000541641;1.80669;0.553497;116.015;161.015;5.11286e-05;-0.000260777;0.000549807;-0.000249467;0.000494133;-0.00172607;0.000378383;0;0.0415271;-0.0176494;-0.0539001;-0.102244;0.116921;-6.22563;0.00101905;0.000772173;-0.000127005;0.00140759;-0.000515546;0.000961567;8.02368;0.124631;0.00114945;0.00128209;2.73029;0.366262;54.7666;99.7666;-0.0057772;0.00101934;0.00143647;0.000107115;-0.000127739;-0.00874452;0.000668445;0;0.0566521;-0.00933371;0.40229
29000;30;25.7638;0.0107329;0.000416762;-2.30534;25.6587;-0.29688;-0.016151;0.0087833;-0.051771;-0.0085624;-0.0528636;-0.0445132;0.0696369;-5.95541;-0.000200317;-2.13832e-05;0.000531282;0.000531906;-0.000200942;0.000366424;0.377045;2.6522;0.000437256;0.000488565;2.64707;0.377776;124.223;169.223;-0.000543835;-0.000200388;0.000335469;-0.000377974;0.000531226;0.00127385;-0.0014648;0;0.0180791;-0.0183811;-0.0521655;-0.103232;0.117115;-6.22662;0.000765335;0.000642448;-9.54892e-05;0.00110822;-0.000438378;0.0007733;8.01489;0.124768;0.000920423;0.00103107;2.52801;0.395568;53.6102;98.6102;-0.00378397;0.000765515;0.00105671;0.000227827;-9.58411e-05;-0.00818195;-0.00567968;0;0.0507055;-0.00906576;0.404455
30000;31;25.7623;0.00920055;0.000357261;-2.30458;25.6572;-0.303356;-0.0153901;0.00723728;-0.0582475;-0.0086068;-0.0515606;-0.051019;0.0730446;-5.96191;-0.000159308;0.000282857;0.000649677;0.000738766;-0.000248396;0.000493581;0.245211;4.07812;0.000592915;0.000658108;2.97414;0.336232;103.582;148.582;-0.000271416;-0.000159284;0.000746979;-0.00018089;0.000649438;-0.000444521;0.00046838;0;0.0171651;-0.0187381;-0.0511088;-0.109019;0.121854;-6.23241;0.000527573;0.000658645;-0.000124988;0.000936325;-0.00053374;0.000735032;4.22098;0.236912;0.000859285;0.000980043;1.75427;0.570037;66.8408;111.841;-0.00364062;0.000527785;0.00121308;0.000103844;-0.000125507;-0.0117758;-0.00443702;0;0.0523128;-0.00862416;0.411516
31000;32;25.7627;0.00967018;0.000375497;-2.30513;25.6576;-0.304256;-0.015944;0.00764843;-0.0591476;-0.00782786;-0.0518951;-0.0509871;0.0731715;-5.96188;-0.000385943;6.45943e-05;0.000628128;0.000632226;-0.000390041;0.000511133;0.614434;1.62752;0.000595701;0.000681511;1.62092;0.616933;123.728;168.728;-0.000582289;-0.000386012;0.000508352;-0.000378713;0.000628001;0.000734002;-5.23505e-05;0;0.0212611;-0.0176161;-0.0509896;-0.112179;0.124477;-6.23557;0.000644486;0.000737324;-0.000208308;0.00106983;-0.000633651;0.00085174;3.09391;0.323216;0.000994193;0.00113565;1.68836;0.592292;57.3494;102.349;-0.00335653;0.000644666;0.0010458;0.000428585;-0.000208583;-0.0121363;-0.00674918;0;0.0494167;-0.00818422;0.418894
32000;33;25.7606;0.00755281;0.000293278;-2.30512;25.6554;-0.308773;-0.0159344;0.00546928;-0.0636641;-0.00801026;-0.0537815;-0.0529724;0.0759124;-5.96387;-8.89971e-05;0.000198995;0.000378546;0.000451773;-0.000162224;0.000306999;0.235102;4.25347;0.000367396;0.000409332;2.78487;0.359083;105.352;150.352;-0.00101003;-8.90025e-05;0.000622488;-0.0002243;0.000378372;0.000983093;-3.29703e-05;0;0.0180298;-0.0177677;-0.0525096;-0.115944;0.128514;-6.23933;0.00101103;0.000612862;-0.000118166;0.00127972;-0.000386857;0.000833287;8.55598;0.116877;0.00100717;0.00111105;3.30798;0.302299;52.0932;97.0932;-0.00676508;0.00101121;0.00129637;-7.14212e-05;-0.000118819;-0.00735703;0.00139018;0;0.049629;-0.0082767;0.426374
33000;34;25.7614;0.00833189;0.00032353;-2.30505;25.6562;-0.308138;-0.0158634;0.00626555;-0.0630297;-0.00848032;-0.0535387;-0.0484641;0.0727123;-5.95936;-0.000132643;0.00016923;0.000808296;0.000837806;-0.000162154;0.00049998;0.164102;6.09376;0.000619701;0.00066664;5.16674;0.193546;109.093;154.093;-0.000110848;-0.000132698;0.000709911;-0.000370944;0.000808058;5.46497e-06;-0.000758931;0;0.0179729;-0.0187482;-0.052817;-0.109789;0.123267;-6.23318;0.00101871;0.000643698;-0.000172759;0.00130005;-0.000454091;0.000877068;5.89672;0.169586;0.00105128;0.00116942;2.86296;0.349289;55.6123;100.612;-0.00660296;0.0010189;0.00151188;-0.000225519;-0.000173695;-0.00590781;-0.00259186;0;0.050549;-0.00800637;0.434153
34000;35;25.7614;0.00835944;0.0003246;-2.30584;25.6562;-0.307996;-0.0166512;0.00622414;-0.0628871;-0.00861955;-0.0544454;-0.0453284;0.071367;-5.95622;-9.79122e-05;0.00012518;0.000399464;0.000429192;-0.000127641;0.000278416;0.245109;4.07982;0.000336835;0.000371222;3.36251;0.297397;111.324;156.324;-0.000527008;-9.79423e-05;0.000525968;-0.00027541;0.000399333;0.00125754;0.00070641;0;0.0153016;-0.0189574;-0.05314;-0.109961;0.123591;-6.23335;0.00069146;0.000628254;0.000151187;0.00110519;-0.000262545;0.000683869;-4.57355;-0.218648;0.000838131;0.000911825;4.20953;0.237556;63.5315;108.531;-0.00530614;0.000691651;0.00136839;-0.000112287;0.000150448;-0.00620099;-0.000884705;0;0.0492454;-0.00769784;0.441017
35000;36;25.761;0.00799171;0.000310321;-2.30643;25.6557;-0.307317;-0.0172425;0.00580989;-0.0622082;-0.00878353;-0.0560716;-0.050684;0.0760923;-5.96158;-0.000215351;7.85121e-05;0.00047881;0.00048758;-0.00022412;0.00035585;0.449762;2.2234;0.00042018;0.000474466;2.17553;0.459658;121.359;166.359;7.86052e-05;-0.00021544;0.000587312;-0.000429934;0.000478641;-0.000365606;0.00121739;0;0.0158765;-0.019475;-0.054528;-0.115995;0.129643;-6.23938;0.000676879;0.000716522;-7.96738e-05;0.00110885;-0.000511642;0.000810244;8.49562;0.117708;0.000956533;0.00108033;2.16723;0.461418;65.1342;110.134;-0.00718398;0.000677135;0.00145993;-2.74515e-05;-8.04829e-05;-0.00478524;0.00151729;0;0.0512061;-0.00748783;0.447976
36000;37;25.7605;0.00745063;0.000289311;-2.30501;25.6553;-0.312008;-0.0158235;0.00533749;-0.0668995;-0.00932613;-0.0549659;-0.05814;0.0805511;-5.96904;-0.000216863;0.000411912;0.00111931;0.00123609;-0.00033364;0.000784864;0.193747;5.16137;0.000954902;0.00104648;3.70485;0.269916;96.4252;141.425;-0.000205786;-0.000216778;0.000856023;-3.16059e-05;0.00111903;-0.000537584;0.00139436;0;0.0177022;-0.0191336;-0.0544656;-0.122565;0.13548;-6.24595;0.000810625;0.000604192;0.000151652;0.00116933;-0.000207054;0.000688193;-5.34528;-0.187081;0.000856951;0.000917591;5.64747;0.177071;58.3623;103.362;-0.00701331;0.000810803;0.00130027;-9.23475e-05;0.00015099;-0.00595096;0.000613297;0;0.0474363;-0.00733119;0.455493
37000;38;25.7618;0.00875616;0.000340005;-2.30222;25.6568;-0.315426;-0.0130354;0.00685692;-0.0703176;-0.00666252;-0.0510335;-0.0552024;0.0754726;-5.9661;-0.000164354;0.000165173;0.000634388;0.000667197;-0.000197163;0.00043218;0.259075;3.85988;0.000523056;0.00057624;3.38399;0.29551;109.156;154.156;-0.000243215;-0.000164373;0.0005858;-0.000255118;0.00063423;0.0012221;0.00166514;0;0.0203117;-0.014491;-0.0506613;-0.120972;0.13195;-6.24436;0.000689698;0.000857047;-0.000124149;0.00123152;-0.00066597;0.000948745;5.5554;0.180005;0.00111162;0.00126499;1.84921;0.540771;57.7196;102.72;-0.00329976;0.000689936;0.00120426;0.000509553;-0.000124507;-0.0112535;-0.003488;0;0.0501929;-0.00750117;0.463036
38000;39;25.7643;0.0112499;0.000436838;-2.30016;25.6595;-0.31065;-0.0109731;0.00960409;-0.0655414;-0.00559679;-0.0464984;-0.0550788;0.0722986;-5.96597;-6.69991e-06;-0.000106415;-0.000144442;5.11863e-05;-0.000202328;0.000126757;;;0.000154795;0.00016901;0.252987;3.95278;22.8884;67.8884;0.000866852;-6.78974e-06;0.000224156;-0.000437032;-0.000144461;-0.00345972;0.00309107;0;0.0162901;-0.0118845;-0.0469207;-0.11847;0.127976;-6.24186;0.00105366;0.000823061;-0.000608582;0.00139224;-0.000947158;0.0011697;1.73134;0.577587;0.00135878;0.0015596;1.46991;0.680312;53.1894;98.1894;-0.00285683;0.00105392;0.00123555;0.000409888;-0.000609007;-0.00841983;-0.004121;0;0.0523799;-0.0073544;0.468411
39000;40;25.7627;0.00960931;0.000373133;-2.2989;25.6579;-0.318712;-0.0097071;0.00797138;-0.0736032;-0.00498136;-0.0426709;-0.0552683;0.0700015;-5.96616;-0.000122017;7.85472e-05;0.000453273;0.000463805;-0.000132548;0.000298177;0.26919;3.71485;0.000361577;0.000397569;3.49914;0.285785;105.938;150.938;0.00013003;-0.000122019;0.000257185;-9.99882e-05;0.000453243;-0.0030284;0.00275464;0;0.0188585;-0.00984083;-0.0440353;-0.115947;0.124418;-6.23934;0.000819942;0.000746062;-0.000225903;0.00120809;-0.000614055;0.000911074;3.62962;0.275511;0.00107049;0.00121477;1.9674;0.508284;52.9286;97.9286;-0.00118259;0.000820148;0.00111134;0.000380402;-0.000226242;-0.00984298;-0.00874217;0;0.0535668;-0.00742093;0.471688
40000;41;25.7615;0.00849174;0.000329737;-2.29741;25.6569;-0.3194;-0.00822324;0.00697361;-0.074291;-0.00320924;-0.0390786;-0.057664;0.0697322;-5.96856;-0.000282177;0.000161655;-0.000496168;-0.000195316;-0.000583029;0.000193857;-0.568714;-1.75835;0.000342667;0.000258475;-0.335002;-2.98505;111.945;156.945;0.000460683;-0.000282167;0.000248672;7.46198e-05;-0.000496186;-0.00207209;0.00213417;0;0.0173308;-0.00727201;-0.0406403;-0.118363;0.125357;-6.24175;0.000958506;0.000594346;-0.000376206;0.0011848;-0.0006025;0.00089365;2.54782;0.392492;0.00105;0.00119153;1.96647;0.508525;47.3161;92.3161;-0.00215171;0.00095866;0.000979884;0.000208294;-0.000376509;-0.0103214;-0.00296904;0;0.0502047;-0.00743866;0.478321
41000;42;25.764;0.0109026;0.000423353;-2.29767;25.6594;-0.314781;-0.00848412;0.00942805;-0.0696723;-0.00336815;-0.0422346;-0.0505183;0.0659333;-5.96141;-0.000243719;-4.59907e-05;-0.000167403;-0.000145802;-0.000265321;5.97593e-05;-1.45588;-0.68687;0.000153433;7.9679e-05;-0.549532;-1.81973;8.92955;53.9296;0.000948521;-0.000243734;8.47313e-05;-0.000176703;-0.000167406;-0.00253327;0.00241866;0;0.0385825;-0.00704849;-0.0424787;-0.114651;0.12247;-6.24095;0.00104389;0.000531005;-0.000542887;0.0012052;-0.000704188;0.000954691;1.92286;0.520059;0.00111496;0.00127292;1.71147;0.584294;41.0954;86.0954;-0.0018434;0.001044;0.000813017;0.000248547;-0.000543077;-0.0104002;-0.00348379;0;0.0541699;-0.00742569;0.485223
42000;43;25.761;0.0079934;0.000310386;-2.29647;25.6565;-0.320942;-0.0072783;0.00653859;-0.0758334;-0.00423686;-0.0418325;-0.0482461;0.0639968;-5.95914;-0.000308376;8.07596e-05;-0.000204692;-0.000160567;-0.000352501;9.59671e-05;-1.50653;-0.663775;0.000203785;0.000127956;-0.455507;-2.19535;135.453;0.45263;0.000891394;-0.000308376;0.000239729;-7.81934e-05;-0.000204718;-0.00268617;0.00168721;0;0.0345416;-0.00738991;-0.0421417;-0.112092;0.11998;-6.23839;0.000941917;0.000597124;-0.0003312;0.00117815;-0.000567432;0.000872791;2.84395;0.351623;0.00102817;0.00116372;2.07628;0.48163;38.9309;83.9309;-0.00228534;0.000942021;0.000808451;0.000385528;-0.000331348;-0.0102725;-0.00158033;0;0.0582735;-0.00741307;0.492529
43000;44;25.7629;0.00987517;0.000383456;-2.29652;25.6584;-0.316528;-0.0073318;0.00847807;-0.0714197;-0.00360514;-0.0393879;-0.0540074;0.0669418;-5.9649;-0.000351159;0.000107711;-0.000194207;-0.000139416;-0.00040595;0.000133267;-1.80817;-0.553046;0.000238175;0.00017769;-0.343431;-2.9118;136.474;1.4738;0.000941511;-0.000351156;0.00028562;-7.01702e-05;-0.000194242;-0.00249549;0.00237979;0;0.0170188;-0.00669178;-0.04088;-0.115312;0.122526;-6.24161;0.000865107;0.000529196;-0.000421268;0.00105483;-0.000610991;0.00083291;2.05358;0.486955;0.000973074;0.00111055;1.72642;0.579232;42.5743;87.5743;-0.00206128;0.000865201;0.000756553;0.000301547;-0.000421415;-0.0123278;0.000156552;0;0.0524597;-0.0073979;0.501034
44000;45;25.762;0.008978;0.000348619;-2.29701;25.6574;-0.319377;-0.00781956;0.00749828;-0.0742686;-0.00285312;-0.0392484;-0.0553664;0.0679266;-5.96626;-0.000427964;-0.00034502;0.00051456;0.000627359;-0.000540763;0.000584061;0.831709;1.20234;0.000675033;0.000778748;1.16014;0.861967;146.774;11.7739;0.000718785;-0.000428049;-0.000152096;-0.000537763;0.000514608;-0.000603901;0.000721996;0;0.0257004;-0.00583103;-0.0406214;-0.114916;0.122023;-6.24121;0.000984543;0.00054462;-0.000399953;0.0011731;-0.000588511;0.000880806;2.46164;0.406232;0.00103557;0.00117441;1.99334;0.501671;47.1431;92.1431;-0.001714;0.000984686;0.000979445;0.000109193;-0.000400285;-0.00937203;-0.000822815;0;0.0536551;-0.00737104;0.508278
45000;46;25.7617;0.00864238;0.000335587;-2.29613;25.6572;-0.321448;-0.00694392;0.00721381;-0.0763389;-0.00387132;-0.0411613;-0.0541695;0.0681438;-5.96507;-0.000174286;1.46181e-05;7.73977e-06;8.90625e-06;-0.000175453;9.21795e-05;;;0.000120047;0.000122906;;;140.556;5.55613;0.000168815;-0.000174309;0.000240431;-0.000211154;7.71098e-06;-0.0013257;0.000463813;0;0.0165056;-0.00651037;-0.0423134;-0.115786;0.123447;-6.24208;0.00101814;0.000608367;-0.000658433;0.00121563;-0.000855924;0.00103578;1.5463;0.646704;0.00120201;0.00138103;1.42025;0.7041;16.3209;61.3209;-0.000806234;0.00101813;0.000597917;0.000618836;-0.000658426;-0.0100567;-0.00358313;0;0.0490969;-0.00745913;0.51491
46000;47;25.7614;0.00832868;0.000323406;-2.29717;25.6568;-0.318478;-0.00798259;0.00684289;-0.0733695;-0.00325741;-0.0410752;-0.053108;0.0672179;-5.964;-0.000184605;3.39198e-05;-0.000217151;-0.000163256;-0.000238499;3.76214e-05;-0.850121;-1.1763;0.000140788;5.01619e-05;-0.684516;-1.46089;116.316;161.316;0.00154103;-0.000184604;7.56512e-05;-7.81299e-06;-0.000217153;-0.00382302;0.00180907;0;0.0173316;-0.00597091;-0.0420332;-0.115185;0.12276;-6.24148;0.0010264;0.00052657;-0.000626864;0.00117987;-0.000780332;0.000980101;1.63736;0.61074;0.00113953;0.0013068;1.51201;0.661371;48.6126;93.6126;-0.00167208;0.00102654;0.000949641;0.000102799;-0.000627177;-0.00806534;-0.00516789;0;0.0490654;-0.00735586;0.52276
47000;48;25.7629;0.00982696;0.000381584;-2.29684;25.6583;-0.317629;-0.00765624;0.00838702;-0.0725205;-0.00263235;-0.0397121;-0.0539255;0.0670219;-5.96482;-0.000476506;-0.000117333;-0.000381821;-0.000302639;-0.000555688;0.000126524;-1.24798;-0.801293;0.000321252;0.000168699;-0.544621;-1.83614;31.4602;76.4602;0.000768756;-0.000476511;-7.9e-05;-0.000155662;-0.000381817;-0.00182691;0.000875444;0;0.0183394;-0.00536402;-0.041034;-0.116099;0.123254;-6.2424;0.000909647;0.000647671;-0.000555285;0.00115493;-0.000800564;0.000977745;1.63816;0.610441;0.00113516;0.00130366;1.44264;0.693174;53.5382;98.5382;-0.00184345;0.000909824;0.00103808;0.000256695;-0.000555615;-0.00982853;-0.00111229;0;0.0497892;-0.00746663;0.528999
48000;49;25.7601;0.00707438;0.000274701;-2.29557;25.6556;-0.321211;-0.00638459;0.00569243;-0.0761024;-0.00345002;-0.0402886;-0.0548832;0.0681706;-5.96578;-7.81657e-05;-7.58238e-05;0.000330167;0.000343792;-9.17909e-05;0.000217792;0.236746;4.22394;0.000265142;0.000290389;3.74539;0.266995;126.474;171.474;0.000805384;-7.81918e-05;8.8896e-05;-0.000240476;0.000330166;-0.00187029;0.00155938;0;0.0198234;-0.00576713;-0.0417623;-0.116394;0.123794;-6.24269;0.00101646;0.000581435;-0.000661448;0.00119825;-0.000843234;0.00102074;1.53672;0.650737;0.00118458;0.00136099;1.42101;0.703723;45.8665;90.8665;-0.00232843;0.00101658;0.000854743;0.000307667;-0.000661645;-0.00676049;-0.00234863;0;0.0492179;-0.00739516;0.536128
49000;50;25.7613;0.00822935;0.000319548;-2.2963;25.6568;-0.319039;-0.0071089;0.00681439;-0.0739305;-0.00329436;-0.0398585;-0.0558055;0.0686571;-5.9667;-0.000138541;-0.000269994;-0.000186079;0.000108728;-0.000433348;0.000271038;-0.74453;-1.34313;0.000331146;0.000361384;0.250902;3.98562;25.6692;70.6692;0.00011051;-0.000138595;-0.000114967;-0.000425028;-0.000186049;0.000283946;0.00223233;0;0.0168825;-0.00555756;-0.0410543;-0.117266;0.124369;-6.24356;0.00100457;0.000657416;-0.00038359;0.00126649;-0.000645514;0.000956002;2.61886;0.381846;0.00112314;0.00127467;1.96199;0.509687;33.9641;78.9641;-0.00112762;0.00100465;0.000798746;0.000515889;-0.000383693;-0.0100864;-0.00404422;0;0.0505066;-0.0073672;0.540855
50000;51;25.7601;0.00703226;0.000273065;-2.29512;25.6556;-0.323867;-0.00593593;0.0056569;-0.0787581;-0.00365991;-0.0402003;-0.0533946;0.0669361;-5.96429;-0.000315495;9.66043e-05;-1.55881e-05;1.28356e-05;-0.000343919;0.000178377;-20.2396;-0.0494082;0.000233676;0.000237837;0.0373217;26.7941;156.519;21.5191;0.00152324;-0.000315492;0.000138403;5.4818e-05;-1.5593e-05;-0.00281051;0.000486954;0;0.0165382;-0.00572132;-0.0413715;-0.114588;0.121962;-6.24089;0.000958563;0.000710455;-0.000327509;0.00127378;-0.000642722;0.000958249;2.92683;0.341666;0.00112631;0.00127767;1.98185;0.50458;30.498;75.498;-0.00133163;0.000958613;0.000784115;0.0006367;-0.000327564;-0.0111289;0.00134723;0;0.0502707;-0.00745932;0.550452
51000;52;25.7607;0.00760547;0.000295323;-2.29529;25.6562;-0.323618;-0.0061015;0.00622077;-0.0785096;-0.00375413;-0.0401129;-0.0534517;0.0669345;-5.96435;-0.00033623;-9.99042e-05;5.24297e-05;7.6606e-05;-0.000360406;0.000218506;6.41297;0.155934;0.000269461;0.000291342;0.212555;4.70467;3.4914;48.4914;0.000117906;-0.000336237;-4.76234e-05;-0.000152165;5.24336e-05;-0.000621506;0.00120502;0;0.017167;-0.00557357;-0.0413729;-0.115622;0.122927;-6.24192;0.000898909;0.00065589;-0.000136655;0.00121676;-0.000454511;0.000835638;6.57793;0.152023;0.000997804;0.00111418;2.67709;0.373541;17.9655;62.9655;-0.00121887;0.000898832;0.000548197;0.000763695;-0.00013659;-0.0105493;-0.000249569;0;0.0500994;-0.00741819;0.552804
52000;53;25.7615;0.00842116;0.000326996;-2.29532;25.657;-0.318723;-0.00613359;0.00709819;-0.0736143;-0.00366573;-0.0400161;-0.055252;0.0683192;-5.96615;-0.00037823;0.000234384;0.000349636;0.000418581;-0.000447175;0.000432878;1.08178;0.924399;0.000499935;0.000577171;0.936055;1.06831;161.552;26.5516;0.00142854;-0.00037823;0.000235413;0.000233357;0.000349636;-0.00263138;0.00137692;0;0.016105;-0.00556225;-0.0414724;-0.116433;0.123723;-6.24273;0.00110594;0.000671819;-0.000459365;0.00135474;-0.000708162;0.00103145;2.40754;0.415362;0.00121036;0.00137526;1.91303;0.522731;18.1596;63.1596;-0.00102219;0.00110592;0.000647391;0.000696286;-0.000459349;-0.00851626;-0.00398644;0;0.050242;-0.00740668;0.558162
53000;54;25.7615;0.00839639;0.000326035;-2.29548;25.657;-0.320273;-0.0062962;0.00703947;-0.075164;-0.00378235;-0.0397236;-0.0550897;0.0680231;-5.96599;-0.000310162;0.000103744;0.000217638;0.000237297;-0.000329822;0.00028356;1.42513;0.701689;0.000328876;0.00037808;0.71947;1.38991;167.851;32.851;0.000891808;-0.000310162;0.000106038;0.000101452;0.000217637;-0.00296506;5.80805e-05;0;0.0165063;-0.00549206;-0.0411857;-0.116216;0.12342;-6.24251;0.000693624;0.000625893;-0.000105304;0.00103666;-0.000448345;0.000742505;6.58689;0.151817;0.000879512;0.000990006;2.3122;0.432488;37.3335;82.3335;-0.000974531;0.000693677;0.000717023;0.00053469;-0.000105365;-0.0129186;-0.00239322;0;0.0496627;-0.00739041;0.565602
54000;55;25.7613;0.00821293;0.000318911;-2.29487;25.6568;-0.321748;-0.00568214;0.00689174;-0.0766391;-0.00364032;-0.0392554;-0.0548768;0.06757;-5.96577;-0.000243484;9.64529e-07;2.71349e-05;2.71384e-05;-0.000243488;0.000135313;8.9731;0.111444;0.000172086;0.000180417;0.111457;8.97209;8.47294;53.4729;0.000336027;-0.000243485;-3.28414e-05;3.47613e-05;2.71344e-05;-0.000882085;0.0012155;0;0.0174719;-0.00523505;-0.0406008;-0.116806;0.123772;-6.2431;0.000924589;0.000564786;-0.000307983;0.00114424;-0.000527634;0.000835937;3.00208;0.333102;0.000986897;0.00111458;2.16863;0.461122;45.1239;90.1239;-0.00258194;0.000924723;0.000904095;0.000225057;-0.000308232;-0.00765177;0.000827564;0;0.0508551;-0.00742587;0.572893
55000;56;25.7601;0.00702019;0.000272596;-2.29501;25.6556;-0.322246;-0.00581713;0.00567582;-0.0771372;-0.00304967;-0.0390651;-0.0538941;0.066633;-5.96479;-0.000318962;0.000144213;3.41372e-05;8.55506e-05;-0.000370375;0.000227963;9.34351;0.107026;0.000279827;0.00030395;0.230984;4.32931;165.385;30.3846;0.000821122;-0.000318965;0.000119069;0.000169348;3.41405e-05;-0.000825353;0.00152172;0;0.0174984;-0.00484706;-0.0404768;-0.115413;0.122401;-6.24171;0.000894018;0.000483839;-0.000458793;0.00104925;-0.000614027;0.000831639;1.94863;0.51318;0.000971191;0.00110885;1.70881;0.585204;39.93;84.93;-0.00144462;0.000894099;0.000696001;0.000271389;-0.000458918;-0.00958837;-0.000362218;0;0.0489064;-0.00753151;0.580359
56000;57;25.7604;0.00729847;0.000283402;-2.29538;25.6558;-0.323629;-0.00619427;0.00590408;-0.0785203;-0.00260167;-0.0393707;-0.0534448;0.0664317;-5.96434;-0.000230206;6.23783e-05;6.91507e-05;8.16287e-05;-0.000242684;0.000162156;3.32905;0.300386;0.000194786;0.000216208;0.336358;2.97302;150.477;15.4775;0.00120531;-0.000230204;0.000121797;2.97719e-06;6.91453e-05;-0.00245347;0.000267137;0;0.0168148;-0.00439178;-0.0407116;-0.115331;0.122384;-6.24163;0.000772667;0.000561401;-0.000515749;0.000982962;-0.000726043;0.000854503;1.49815;0.667491;0.000990404;0.00113934;1.35386;0.738628;50.0629;95.0629;-0.00161137;0.000772764;0.000775586;0.000346939;-0.000515892;-0.0108941;-0.00271889;0;0.0496662;-0.00736062;0.587476
57000;58;25.7612;0.00815747;0.000316757;-2.29511;25.6568;-0.321489;-0.00592484;0.00681759;-0.0763803;-0.00276617;-0.0396809;-0.0533332;0.0665331;-5.96423;-0.00019571;6.50367e-05;-0.00016181;-0.000111551;-0.000245969;6.72093e-05;-1.20951;-0.826781;0.000142215;8.96123e-05;-0.453515;-2.205;129.107;174.107;0.000894063;-0.000195708;0.000153735;-2.36591e-05;-0.000161819;-0.00224276;0.00160442;0;0.0173794;-0.0045339;-0.04081;-0.115507;0.122588;-6.24181;0.00102364;0.000548608;-0.000577353;0.00119359;-0.000747303;0.000970446;1.77299;0.56402;0.00113041;0.00129393;1.5972;0.626097;41.4846;86.4846;-0.00295828;0.00102375;0.000801115;0.000295697;-0.000577524;-0.00902455;-0.000989725;0;0.0511204;-0.00762802;0.595009
58000;59;25.7618;0.00873697;0.00033926;-2.29525;25.6573;-0.320757;-0.00606131;0.0073964;-0.0756484;-0.00275452;-0.0388272;-0.0550491;0.0674207;-5.96594;-0.000366507;2.47459e-05;-0.000109476;-0.000107115;-0.000368867;0.000130876;-3.34783;-0.298701;0.000219115;0.000174502;-0.290389;-3.44365;161.48;26.4798;0.000273315;-0.000366511;0.000141533;-9.20115e-05;-0.000109486;-0.000804249;0.00138244;0;0.0168818;-0.00439049;-0.0402387;-0.116786;0.123602;-6.24308;0.00104315;0.000604672;-0.000121591;0.0013003;-0.000378734;0.000839516;8.5792;0.116561;0.0010169;0.00111935;3.43328;0.291267;16.7458;61.7458;-0.00137551;0.00104309;0.000501817;0.000707647;-0.000121534;-0.0112876;-0.00716151;0;0.0474342;-0.00754102;0.602925
59000;60;25.7617;0.00863599;0.000335338;-2.29452;25.6573;-0.322332;-0.00532696;0.00734095;-0.0772238;-0.00268875;-0.0392042;-0.0547254;0.0673726;-5.96562;-0.000317855;-0.000254928;-0.00046511;-0.000126134;-0.00065683;0.000265348;-0.683397;-1.46328;0.000402485;0.000353797;-0.192035;-5.20739;51.8033;96.8033;0.000790539;-0.000317859;-0.000237824;-0.000272035;-0.000465105;-0.00266637;0.00283626;0;0.016273;-0.0041889;-0.0403691;-0.117813;0.124608;-6.24411;0.000921147;0.000634403;-0.000247792;0.00119927;-0.000525919;0.000862596;3.71742;0.269004;0.00102102;0.00115013;2.28034;0.438531;18.9115;63.9115;-0.00178359;0.00092111;0.000577938;0.000690934;-0.000247758;-0.0107865;-0.000698718;0;0.048527;-0.00745968;0.610784
60000;61;25.7605;0.00742226;0.000288209;-2.29553;25.656;-0.318227;-0.00633785;0.00608311;-0.0731181;-0.00279663;-0.039599;-0.0534889;0.0666105;-5.96438;-0.000334131;-0.000184;0.000279665;0.000330597;-0.000385063;0.00035783;1.19475;0.836993;0.000413586;0.000477107;0.858554;1.16475;1.54;46.54;0.00135701;-0.000334134;-0.000169599;-0.000198393;0.000279668;-0.00191487;0.00096036;0;0.0166409;-0.00439079;-0.0408847;-0.11485;0.121989;-6.24115;0.000961088;0.000648935;-0.000602345;0.00119534;-0.000836599;0.00101597;1.59558;0.626732;0.00117922;0.00135463;1.42881;0.699883;49.2781;94.2781;-0.00248039;0.000961237;0.000945692;0.000351713;-0.000602582;-0.00795034;0.000563916;0;0.0482003;-0.00750702;0.615864
61000;62;25.764;0.0109855;0.000426572;-2.29626;25.6596;-0.309836;-0.00707465;0.00969765;-0.0647279;-0.00217806;-0.0407172;-0.0502471;0.0647101;-5.96114;-0.000267558;0.000264932;-0.000221739;2.1272e-05;-0.000510569;0.000265921;-1.20663;-0.828753;0.000347687;0.000354561;0.0416632;24.002;135.366;0.365877;0.00011444;-0.000267553;0.000282939;0.000246926;-0.000221744;0.000209193;0.000145442;0;0.0156311;-0.00387032;-0.0414814;-0.113395;0.120807;-6.23969;0.000853155;0.000627112;-0.000227783;0.00114056;-0.000515189;0.000827875;3.74547;0.266989;0.000978412;0.00110383;2.21387;0.451698;26.3777;71.3777;-0.000151467;0.000853167;0.000646295;0.000607909;-0.000227796;-0.0103766;-0.00524306;0;0.0500452;-0.00739169;0.620931
62000;63;25.7615;0.00840634;0.000326421;-2.2952;25.657;-0.319373;-0.00601388;0.00708593;-0.0742642;-0.001989;-0.0404282;-0.0515363;0.0655316;-5.96243;-0.000283507;0.00017544;5.07706e-05;0.000125943;-0.000358679;0.000242311;5.58407;0.179081;0.000290352;0.000323081;0.35113;2.84795;140.838;5.83816;0.00143709;-0.000283496;0.000247975;0.00010293;5.07552e-05;-0.00235312;0.00170124;0;0.0165217;-0.0037383;-0.0411206;-0.113716;0.120981;-6.24001;0.0010339;0.000737194;-0.00045126;0.00133769;-0.000755045;0.00104637;2.29115;0.436463;0.00122375;0.00139515;1.77167;0.56444;35.8223;80.8223;-0.00143004;0.001034;0.000884629;0.00058954;-0.000451379;-0.0100696;0.00150786;0;0.0498201;-0.00742294;0.625447
63000;64;25.7603;0.00724912;0.000281486;-2.29524;25.6559;-0.31952;-0.00605255;0.0059187;-0.0744119;-0.00310542;-0.0393257;-0.0512282;0.0646567;-5.96212;-0.000461069;-0.000124377;-0.000154331;-0.000110237;-0.000505164;0.000197463;-2.98753;-0.334725;0.000306706;0.000263284;-0.218221;-4.58252;18.9018;63.9018;0.0013022;-0.00046107;-0.000117733;-0.00013102;-0.000154331;-0.00354562;-0.000699017;0;0.0159658;-0.00444834;-0.0403687;-0.114452;0.121444;-6.24075;0.000868279;0.000582891;-0.000239668;0.00111845;-0.000489839;0.000804145;3.62285;0.276026;0.000951895;0.00107219;2.2833;0.437962;32.5149;77.5149;-0.000753842;0.000868335;0.000688477;0.000477189;-0.000239735;-0.0104474;-0.00122824;0;0.0518245;-0.00742751;0.631321
64000;65;25.7626;0.00949923;0.000368858;-2.29351;25.6583;-0.313817;-0.00432299;0.00840303;-0.0687081;-0.00270835;-0.0387935;-0.0544288;0.0668937;-5.96532;-0.000297129;0.000190139;0.000121055;0.00019458;-0.000370655;0.000282617;2.4545;0.407415;0.000331574;0.000376823;0.524963;1.9049;173.869;38.8686;0.000985997;-0.00029714;0.000139266;0.000240991;0.000121063;-0.00145431;0.00154232;0;0.01771;-0.00401033;-0.040414;-0.115202;0.122151;-6.2415;0.00086839;0.000617362;-0.000232945;0.00114499;-0.000509544;0.000827267;3.72788;0.268249;0.000978448;0.00110302;2.24709;0.445021;21.9806;66.9806;-0.00114309;0.000868375;0.000593439;0.000641311;-0.00023293;-0.00977878;-0.00216116;0;0.0488059;-0.00743281;0.639039
65000;66;25.7621;0.00902934;0.000350612;-2.29373;25.6578;-0.313864;-0.00454327;0.00791097;-0.0687551;-0.00253187;-0.0373499;-0.0562411;0.067561;-5.96714;-0.000302021;3.46129e-05;6.93583e-05;7.25568e-05;-0.00030522;0.000188888;4.3545;0.229647;0.000231487;0.000251851;0.23772;4.20663;170.532;35.532;0.00112085;-0.000302021;5.1745e-05;1.74872e-05;6.93576e-05;-0.00131371;0.00213785;0;0.0309378;-0.00380138;-0.0392148;-0.116654;0.123127;-6.24295;0.000957998;0.000493368;-0.000292263;0.00112923;-0.000463499;0.000796367;3.27787;0.305076;0.000945962;0.00106182;2.43632;0.410454;36.3437;81.3437;-0.00194762;0.000958084;0.000721291;0.000265161;-0.000292401;-0.0104433;-0.00618198;0;0.051082;-0.00743446;0.6458
66000;67;25.762;0.00897566;0.000348528;-2.29416;25.6577;-0.31752;-0.00496803;0.00777411;-0.0724111;-0.00296317;-0.0388621;-0.0503833;0.0636986;-5.96128;-0.000329797;-2.32519e-05;-0.000166563;-0.000163315;-0.000333045;8.48648e-05;-1.98002;-0.505046;0.000192295;0.000113153;-0.49037;-2.03928;4.4654;49.4654;0.000372314;-0.000329799;7.08772e-06;-5.35866e-05;-0.000166562;-0.00116429;0.00046295;0;0.0183052;-0.00411457;-0.0398516;-0.113837;0.120681;-6.24013;0.000787208;0.000624042;-0.000319725;0.00106786;-0.000600377;0.000834118;2.46214;0.406151;0.000975681;0.00111216;1.77865;0.562225;14.7162;59.7162;-0.00121161;0.000787155;0.000543594;0.000704579;-0.000319678;-0.0119248;-0.00277941;0;0.0485357;-0.0074882;0.653149
67000;68;25.7601;0.00706007;0.000274145;-2.29523;25.6557;-0.319495;-0.00604068;0.00573027;-0.0743861;-0.00286668;-0.039768;-0.0498005;0.063795;-5.9607;-0.000344832;-0.000227;-0.000118824;2.17441e-05;-0.0004854;0.000253572;-2.90205;-0.344583;0.000331086;0.000338096;0.0447963;22.3233;30.0346;75.0346;0.000770843;-0.000344836;-0.000212961;-0.000241036;-0.00011882;-0.00251383;0.00183165;0;0.0172729;-0.00410601;-0.0406083;-0.112136;0.119333;-6.23843;0.00114713;0.000826959;-0.000474425;0.00149446;-0.000821758;0.00115811;2.41794;0.413576;0.00135594;0.00154415;1.81862;0.549868;30.2755;75.2755;-0.000858403;0.0011472;0.000916948;0.000736823;-0.000474504;-0.010382;-0.00174816;0;0.0517285;-0.00748308;0.660453
68000;69;25.7598;0.00675938;0.000262469;-2.29469;25.6554;-0.322373;-0.00549944;0.00544077;-0.0772646;-0.00302138;-0.0388448;-0.0507146;0.0639532;-5.96161;-0.000432883;-0.000135982;0.000414902;0.000436179;-0.00045416;0.000445169;1.04334;0.958462;0.000514072;0.000593559;0.960408;1.04122;147.895;12.8951;0.000631986;-0.000432894;-7.20336e-05;-0.000199876;0.000414909;-0.000403954;0.0017468;0;0.018636;-0.004075;-0.0402372;-0.112995;0.120014;-6.23929;0.00103309;0.000500237;-0.000462741;0.00118496;-0.000614612;0.000899785;2.23254;0.44792;0.00105623;0.00119971;1.92798;0.518678;37.809;82.809;-0.00297454;0.00103318;0.000755496;0.000244597;-0.000462901;-0.00679696;-0.00245305;0;0.0522196;-0.00743026;0.668433
69000;70;25.762;0.00894385;0.000347293;-2.29448;25.6576;-0.318482;-0.00529022;0.00770143;-0.0733729;-0.00310392;-0.0384449;-0.053477;0.0659351;-5.96437;-0.000419572;-6.01602e-05;1.36098e-05;2.18097e-05;-0.000427771;0.000224791;30.8286;0.0324374;0.000292722;0.000299721;0.0509844;19.6139;0.815348;45.8153;0.000778746;-0.000419576;-9.95548e-06;-0.000110343;1.36116e-05;-0.00144026;0.00216993;0;0.0231038;-0.00418624;-0.0396798;-0.116407;0.123055;-6.2427;0.000857814;0.000554223;-0.000250898;0.00108734;-0.000480425;0.000783884;3.41898;0.292485;0.000927483;0.00104518;2.26329;0.441835;16.3317;61.3317;-0.000428555;0.000857775;0.00048791;0.000620609;-0.000250863;-0.0113576;-0.0028199;0;0.0496115;-0.00738675;0.675254
70000;71;25.7609;0.00788378;0.00030613;-2.29475;25.6565;-0.321998;-0.00556323;0.00656874;-0.0768898;-0.00276557;-0.0393434;-0.0537121;0.0666374;-5.96461;-0.00027846;-0.000176789;0.000145691;0.000209714;-0.000342483;0.000276099;1.9113;0.523204;0.000321868;0.000368131;0.612335;1.63309;39.5623;84.5623;0.000760054;-0.000278452;-0.000231149;-0.000122452;0.00014568;-0.00183177;0.00100842;0;0.0161737;-0.00394813;-0.0406005;-0.116235;0.123185;-6.24253;0.00100718;0.000682848;-0.00052525;0.00126731;-0.000785371;0.00102634;1.91753;0.521503;0.00119595;0.00136845;1.61364;0.619717;38.1029;83.1029;-0.00206126;0.00100728;0.000848373;0.000517069;-0.000525376;-0.00928438;-0.00115245;0;0.0494741;-0.00756441;0.682584
71000;72;25.7626;0.00952513;0.000369864;-2.29411;25.6583;-0.316221;-0.00492167;0.008346;-0.071112;-0.0026361;-0.0377276;-0.0532757;0.0653346;-5.96417;-0.000314121;0.000215378;9.56881e-05;0.00018806;-0.000406494;0.000297277;3.28276;0.304622;0.000350903;0.000396369;0.462641;2.16151;2.78027;47.7803;0.00119875;-0.000314161;7.56464e-05;0.000355052;9.57085e-05;-0.00211943;0.00345518;0;0.0298428;-0.00369524;-0.0391796;-0.115255;0.121788;-6.24155;0.000926823;0.00059116;-0.000320358;0.0011625;-0.000556032;0.000859264;2.89309;0.345652;0.00101258;0.00114569;2.0907;0.478308;13.7423;58.7423;-0.00110153;0.000926768;0.000504316;0.000678112;-0.00032031;-0.0106968;-0.0053407;0;0.0537939;-0.00739553;0.685894
72000;73;25.7599;0.00681779;0.000264737;-2.29426;25.6555;-0.32202;-0.00507204;0.00554206;-0.0769117;-0.00190065;-0.0395743;-0.0531318;0.0662776;-5.96403;-0.000282221;9.05142e-05;-3.97044e-05;-9.64715e-06;-0.000312278;0.000151315;-7.10805;-0.140686;0.000205045;0.000201754;;;174.17;39.1704;0.0011685;-0.00028223;1.51847e-05;0.000165825;-3.97004e-05;-0.00243795;0.00112384;0;0.0206021;-0.00337315;-0.0407082;-0.114837;0.121886;-6.24114;0.000827755;0.00067644;-0.000468512;0.00111645;-0.000757207;0.000936829;1.76677;0.566004;0.00108836;0.0012491;1.47443;0.678228;26.2736;71.2736;-0.00231593;0.000827768;0.000696334;0.00065652;-0.000468526;-0.00915601;-0.00138728;0;0.0488196;-0.00757776;0.691081
73000;74;25.762;0.00899424;0.000349249;-2.29396;25.6578;-0.315862;-0.00477646;0.00783035;-0.0707534;-0.0024385;-0.0396935;-0.0533053;0.0665054;-5.9642;-0.000286067;-9.03968e-06;0.000126941;0.000127139;-0.000286265;0.000206702;2.25354;0.443746;0.000244502;0.000275603;0.444131;2.25159;160.379;25.3788;0.00179631;-0.000286071;6.1977e-05;-8.0027e-05;0.000126939;-0.00440714;0.00096016;0;0.0221898;-0.00356397;-0.0411666;-0.114101;0.121353;-6.2404;0.000866322;0.00054451;-0.000544167;0.00105207;-0.000729911;0.000890989;1.59202;0.628134;0.00103441;0.00118799;1.44136;0.693788;35.9186;80.9186;-0.000654676;0.000866376;0.000653783;0.000435083;-0.000544232;-0.00956696;-0.00449277;0;0.0504734;-0.00743958;0.699426
74000;75;25.7613;0.00822242;0.00031928;-2.29438;25.6569;-0.319162;-0.00519388;0.00697724;-0.074053;-0.00288461;-0.0383318;-0.0560769;0.0679873;-5.96697;-0.000453876;4.49865e-05;-0.000197761;-0.000190089;-0.000461548;0.000135729;-2.29507;-0.435717;0.000267852;0.000180973;-0.411851;-2.42806;174.566;39.5657;0.000466703;-0.000453879;-3.62609e-06;9.35867e-05;-0.00019776;-0.00179128;0.00101419;0;0.0192599;-0.00374798;-0.0398433;-0.116838;0.123502;-6.24314;0.000839573;0.000478669;-0.000444222;0.000998398;-0.000603047;0.000800723;1.88999;0.529104;0.000933939;0.00106763;1.65559;0.604014;37.9262;82.9262;-0.00217998;0.000839637;0.000639485;0.000317647;-0.000444312;-0.0101454;-0.00154897;0;0.0504242;-0.00741984;0.706833
75000;76;25.761;0.00799242;0.000310348;-2.2942;25.6567;-0.317788;-0.00501185;0.00677962;-0.0726797;-0.00294911;-0.0393942;-0.0528832;0.0660093;-5.96378;-0.000375489;5.13306e-05;-3.22296e-05;-2.47181e-05;-0.000383001;0.000179141;-11.6504;-0.0858338;0.000247506;0.000238855;-0.064538;-15.4947;167.929;32.9288;0.000787243;-0.000375488;7.81383e-05;2.45322e-05;-3.22314e-05;-0.00266995;0.000242426;0;0.0172996;-0.00365935;-0.0405958;-0.114029;0.121095;-6.24033;0.00102545;0.000556212;-0.000615529;0.00119621;-0.000786288;0.00099125;1.66597;0.600251;0.00115272;0.00132167;1.52134;0.657316;38.2896;83.2896;-0.00113459;0.00102554;0.000743568;0.000368549;-0.000615651;-0.012979;-0.00708869;0;0.0499546;-0.00749898;0.712616
76000;77;25.7592;0.00618611;0.000240209;-2.29437;25.6548;-0.322438;-0.00518529;0.00489244;-0.0773293;-0.00273121;-0.0410143;-0.0495062;0.0643467;-5.9604;-0.000351452;-3.90793e-05;0.000477771;0.000479609;-0.00035329;0.000416449;0.735608;1.35942;0.000482714;0.000555266;1.35755;0.736621;106.144;151.144;1.70954e-05;-0.000351454;-7.01632e-06;-7.11157e-05;0.000477772;-0.000107709;0.00167715;0;0.025844;-0.00362069;-0.0416373;-0.112294;0.119819;-6.23568;0.000997969;0.000699537;-0.000489047;0.00127532;-0.0007664;0.00102086;2.04064;0.490043;0.00119093;0.00136115;1.66404;0.600946;36.626;81.626;-0.0015523;0.000998061;0.000846368;0.000552487;-0.000489161;-0.00936015;-0.00129651;0;0.0509447;-0.00739096;0.720132
77000;78;25.7598;0.0067287;0.000261278;-2.29524;25.6553;-0.325052;-0.00605207;0.00532673;-0.0799431;-0.00144076;-0.0408308;-0.0481199;0.0631249;-5.95902;-0.000328538;2.96375e-05;2.84798e-05;3.09234e-05;-0.000330981;0.000180952;11.5358;0.0866865;0.000231651;0.00024127;0.0934293;10.7033;179.061;44.0612;0.000531026;-0.000328539;9.75452e-06;4.95133e-05;2.84802e-05;-0.0013511;0.0010563;0;0.0254232;-0.00295343;-0.0414257;-0.112736;0.120142;-6.23903;0.000907224;0.000499619;-0.000498348;0.00106672;-0.000657843;0.000862281;1.82046;0.549311;0.00100496;0.00114971;1.62154;0.616697;16.8695;61.8695;-0.00119718;0.000907221;0.00049366;0.000505587;-0.000498345;-0.00884758;-0.00487085;0;0.0507874;-0.00755327;0.727729
78000;79;25.7621;0.00906418;0.000351965;-2.29506;25.6577;-0.319311;-0.00587109;0.00775999;-0.0742028;-0.00204115;-0.0421599;-0.0516608;0.0667118;-5.96256;-0.000421577;-0.000171384;0.000808549;0.00083198;-0.000445008;0.000638494;0.521399;1.91792;0.000748469;0.000851326;1.86958;0.534878;100.113;145.113;0.000317407;-0.00042158;-0.000155611;-0.000187137;0.000808552;-0.000755829;0.00186128;0;0.0175002;-0.00332652;-0.0428891;-0.116074;0.123789;-6.23946;0.000959908;0.000781343;-0.00058974;0.00128547;-0.000915301;0.00110039;1.62768;0.614371;0.00127659;0.00146718;1.40442;0.712036;36.7354;81.7354;-0.00193447;0.000959981;0.000880656;0.000681875;-0.000589822;-0.00990448;-0.0020839;0;0.0490637;-0.0075582;0.734851
79000;80;25.7597;0.00664693;0.000258103;-2.29462;25.6553;-0.323346;-0.0054316;0.00532168;-0.0782371;-0.00215329;-0.0425275;-0.0558579;0.0702377;-5.96675;-0.000192047;-0.000123558;0.000175063;0.000212775;-0.000229759;0.000221267;1.09702;0.911563;0.00025556;0.000295022;0.926079;1.07982;154.015;19.0152;0.000638757;-0.000192069;-4.7111e-06;-0.000242361;0.00017507;-0.00182676;0.00326598;0;0.019521;-0.00394209;-0.0436983;-0.119144;0.126966;-6.24253;0.00101689;0.000836334;-0.000531211;0.00138241;-0.000896725;0.00113957;1.91429;0.522388;0.00132578;0.00151942;1.54161;0.648671;54.1268;99.1268;-0.00301018;0.00101716;0.00127507;0.000396919;-0.000531675;-0.00653771;0.000444006;0;0.048113;-0.00756898;0.741891
80000;81;25.7581;0.00506473;0.000196665;-2.29442;25.6536;-0.326811;-0.00523109;0.00370707;-0.0817019;-0.00237868;-0.0456868;-0.0511658;0.0686359;-5.96206;-0.000120745;0.000102876;0.000380966;0.000401241;-0.000141021;0.000271131;0.316945;3.15512;0.000324869;0.000361508;2.84527;0.351461;99.741;144.741;-6.256e-05;-0.00012074;0.000219179;-1.33687e-05;0.000380947;-0.000548021;0.00396124;0;0.0162011;-0.00404487;-0.0456105;-0.11788;0.12646;-6.24127;0.00106443;0.000748998;-0.000698487;0.00133967;-0.000973734;0.0011567;1.5239;0.65621;0.0013412;0.00154227;1.37581;0.726845;55.7352;100.735;-0.00437358;0.00106468;0.00128391;0.000213146;-0.000699031;-0.0041287;-0.00129822;0;0.0495752;-0.0074871;0.748598
81000;82;25.7597;0.00666778;0.000258912;-2.2961;25.6551;-0.325916;-0.00691616;0.00517727;-0.0808074;-0.00260346;-0.0460432;-0.0541765;0.0711466;-5.96507;-0.000190649;-0.000272985;0.000611945;0.000695994;-0.000274698;0.000485346;0.311546;3.20979;0.000577756;0.000647128;2.53367;0.394684;132.213;177.213;-0.000505858;-0.00019075;-1.99545e-05;-0.000525813;0.000611982;0.000257909;0.00337456;0;0.0185498;-0.00465216;-0.0462617;-0.120073;0.128761;-6.24346;0.00090692;0.000887695;-0.000745949;0.00129333;-0.00113236;0.00121285;1.21579;0.822508;0.0014015;0.00161713;1.14216;0.875537;63.522;108.522;-0.00283781;0.000907221;0.00134427;0.000430361;-0.000746459;-0.00613322;-0.00407261;0;0.0480343;-0.00745804;0.75636
82000;83;25.7618;0.00873387;0.000339139;-2.29633;25.6573;-0.318389;-0.00713747;0.00732648;-0.0732806;-0.00355405;-0.046789;-0.0538981;0.0714622;-5.96479;-7.64736e-05;-0.000119293;0.000509762;0.000533107;-9.98188e-05;0.000316463;0.150018;6.66585;0.000392927;0.00042195;5.34075;0.18724;116.235;161.235;0.000267783;-7.64968e-05;7.49391e-06;-0.000246005;0.000509769;-0.000837038;0.000640863;0;0.0180957;-0.00522179;-0.0461375;-0.121131;0.129726;-6.24452;0.000988717;0.000871536;-0.000622507;0.00136994;-0.00100373;0.00118684;1.58828;0.629611;0.00137587;0.00158245;1.36485;0.732682;54.2963;99.2963;-0.00345125;0.000988953;0.00120645;0.000536078;-0.000622855;-0.0074857;0.000503951;0;0.0499364;-0.00744981;0.762066
83000;84;25.7613;0.00825642;0.0003206;-2.29663;25.6567;-0.321699;-0.00744231;0.00677852;-0.0765903;-0.00327239;-0.046945;-0.055434;0.072715;-5.96633;-0.000136098;9.85412e-05;0.0001898;0.000217279;-0.000163577;0.000190428;0.717062;1.39458;0.000220615;0.000253904;1.3283;0.752844;110.725;155.725;0.000534251;-0.000136094;0.000184313;1.27976e-05;0.000189788;-0.00043003;0.00236879;0;0.0153334;-0.00495041;-0.0468184;-0.122361;0.131106;-6.24575;0.00131726;0.000741145;-0.000458232;0.00158597;-0.000726941;0.00115646;2.87466;0.347867;0.00136572;0.00154194;2.18171;0.458357;44.2198;89.2198;-0.00394295;0.00131751;0.00122794;0.000253481;-0.000458712;-0.00283588;-0.00171389;0;0.0523602;-0.00758671;0.767607
84000;85;25.7588;0.00575873;0.000223614;-2.29602;25.6542;-0.327666;-0.00683595;0.0042494;-0.0825578;-0.00262112;-0.047579;-0.057318;0.0745385;-5.96821;4.8369e-06;0.000205387;0.000990233;0.00103133;-3.62583e-05;0.000533793;;;0.000699951;0.000711724;28.4439;0.0351569;87.9375;132.937;-9.65747e-05;4.85724e-06;0.000372071;3.88672e-05;0.000990185;6.07023e-05;0.000378229;0;0.0158601;-0.00502052;-0.0472484;-0.124359;0.133127;-6.24775;0.00102511;0.000843264;-0.000608883;0.00138224;-0.000966015;0.00117413;1.68359;0.593968;0.00136285;0.0015655;1.43087;0.698875;56.6488;101.649;-0.00293232;0.00102541;0.001343;0.000342707;-0.00060943;-0.00650341;-0.00264428;0;0.0498951;-0.00733814;0.771026
85000;86;25.76;0.00693301;0.000269211;-2.29664;25.6553;-0.325056;-0.00744882;0.00540681;-0.0799472;-0.00365134;-0.0493939;-0.0543994;0.0735689;-5.9653;-0.000180653;2.74791e-05;0.000564902;0.000565914;-0.000181664;0.000373789;0.319795;3.12701;0.000450218;0.000498385;3.11516;0.32101;105.366;150.366;-0.000129277;-0.000180658;0.000161833;-0.000106774;0.00056489;0.00135624;0.00158039;0;0.0206471;-0.00594689;-0.0486681;-0.123082;0.132489;-6.24647;0.000824325;0.000745313;-0.000325046;0.00119079;-0.000691506;0.000941146;2.53603;0.394318;0.00109941;0.00125486;1.72202;0.580714;60.2137;105.214;-0.00318826;0.000824595;0.0013654;0.000124514;-0.000325701;-0.00837269;-0.00190925;0;0.0503396;-0.00732443;0.777936
86000;87;25.7596;0.00659482;0.000256079;-2.29764;25.6549;-0.323516;-0.00844892;0.00499717;-0.0784072;-0.0030011;-0.0516099;-0.0528877;0.0739574;-5.96378;-0.000182666;4.83567e-05;0.000546797;0.000549988;-0.000185858;0.000367923;0.334066;2.99342;0.00044184;0.000490564;2.95919;0.337931;99.3501;144.35;-0.000206041;-0.000182666;0.000138202;-4.14235e-05;0.000546788;0.000820992;0.001711;0;0.0218932;-0.00573233;-0.0501625;-0.123931;0.133821;-6.24732;0.00124009;0.000916111;-0.000529256;0.00162896;-0.000918123;0.00127354;2.34309;0.426787;0.00148953;0.00169806;1.77423;0.563625;54.5173;99.5173;-0.00528855;0.00124049;0.00161481;0.000216177;-0.00053014;0.00100654;-0.000740988;0;0.051904;-0.00746535;0.785489
87000;88;25.7575;0.00442823;0.00017195;-2.29671;25.6528;-0.329856;-0.00752063;0.00282412;-0.0847478;-0.00519291;-0.0533897;-0.0554733;0.0771668;-5.96637;-0.000258411;0.000370485;0.000468592;0.000624121;-0.00041394;0.000519031;0.551462;1.81336;0.000603406;0.000692041;1.50776;0.663237;84.1088;129.109;0.000897155;-0.000258387;0.000440773;0.000300249;0.000468564;-0.00128821;0.00176273;0;0.0223671;-0.00724081;-0.0521751;-0.126276;0.136822;-6.24966;0.00120912;0.00104158;-0.000441724;0.00171269;-0.000945292;0.00132899;2.73728;0.365326;0.00155576;0.00177199;1.81181;0.551934;53.2064;98.2064;-0.0057594;0.00120954;0.00158565;0.000496614;-0.000442439;-0.000815307;0.00338798;0;0.0493998;-0.00744067;0.792278
88000;89;25.7571;0.00401244;0.000155805;-2.29518;25.6525;-0.325613;-0.00599027;0.00259782;-0.0805043;-0.00478159;-0.0553445;-0.0590882;0.0811005;-5.96998;-0.000311407;0.000413292;0.000453856;0.000634444;-0.000491996;0.00056322;0.686136;1.45744;0.000652082;0.00075096;1.28953;0.775475;46.0028;91.0028;0.000600401;-0.000311434;0.000351809;0.000474728;0.000453879;0.000134988;-0.000247482;0;0.0171809;-0.00736438;-0.0539266;-0.131859;0.14265;-6.25525;0.000665378;0.0010801;-0.000423525;0.00133049;-0.00108864;0.00120956;1.57105;0.636519;0.00139901;0.00161275;1.22216;0.818223;179.644;44.6437;-0.00339973;0.00066508;0.000832633;0.00132784;-0.000423289;-0.0106665;0.00181272;0;0.0493216;-0.00737378;0.799692
89000;90;25.7558;0.00277944;0.000107927;-2.2951;25.6513;-0.329366;-0.00590891;0.00131915;-0.0842577;-0.00485005;-0.0583436;-0.059588;0.0835358;-5.97048;-0.000122008;0.000180458;0.00077607;0.000810974;-0.000156913;0.000483943;0.157213;6.3608;0.000599834;0.000645258;5.16832;0.193487;82.9615;127.961;-2.72943e-05;-0.000122001;0.000225389;0.000135567;0.000776061;0.000577083;0.00040293;0;0.0174309;-0.00704755;-0.0560434;-0.13643;0.147661;-6.25982;0.000733753;0.00119843;-0.000634957;0.00142946;-0.00133067;0.00138007;1.15559;0.865355;0.0015939;0.00184009;1.07425;0.930886;172.711;37.7106;-0.00473287;0.000733517;0.00101603;0.00138108;-0.000634755;-0.0111942;0.00612394;0;0.0499425;-0.00732406;0.806886
90000;91;25.755;0.00191182;7.42366e-05;-2.29522;25.6504;-0.329986;-0.00602985;0.000429197;-0.0848778;-0.0053171;-0.062725;-0.0577732;0.0854426;-5.96867;-0.000365006;0.000357464;0.000581159;0.000701025;-0.000484871;0.000592948;0.628065;1.59219;0.000688458;0.000790597;1.4458;0.691661;63.8418;108.842;0.000516549;-0.000365016;0.000327999;0.000386901;0.000581169;0.00170586;0.00105782;0;0.0188559;-0.00790623;-0.0599261;-0.138488;0.151105;-6.26479;0.000740459;0.00117836;-0.000636009;0.00141685;-0.0013124;0.00136462;1.16423;0.858939;0.00157611;0.0018195;1.07959;0.92628;170.94;35.9401;-0.00390596;0.000740144;0.000936167;0.00142088;-0.000635753;-0.00462691;0.009796;0;0.0475493;-0.00723852;0.815293
91000;92;25.7536;0.000594744;2.30941e-05;-2.29495;25.649;-0.333464;-0.0057569;-0.000913807;-0.0883558;-0.00687193;-0.063033;-0.066612;0.0919649;-5.97751;-0.000506328;0.000361028;0.000278885;0.000419647;-0.00064709;0.000533368;1.81554;0.5508;0.000620529;0.000711158;0.648514;1.54199;149.721;14.7208;0.000912121;-0.000506316;0.000397896;0.00032419;0.000278871;-0.000114654;0.000470103;0;0.0179701;-0.00890227;-0.0612559;-0.146061;0.158636;-6.27236;0.000577449;0.00120456;-0.00068146;0.0013071;-0.00141111;0.00135911;0.847372;1.18012;0.00156974;0.00181214;0.926292;1.07957;162.82;27.8196;-0.00289054;0.000576827;0.000767645;0.00164202;-0.000681028;-0.00990502;0.00863746;0;0.0470651;-0.00732589;0.822361
92000;93;25.7526;-0.000444308;-1.72527e-05;-2.29742;25.6476;-0.34423;-0.00823255;-0.00232096;-0.099121;-0.00635701;-0.067504;-0.0632948;0.0927547;-5.97419;-0.000748012;-6.13948e-05;0.000360213;0.000363604;-0.000751403;0.000557503;2.07658;0.48156;0.0006566;0.000743338;0.4839;2.06654;174.029;39.0286;0.00138636;-0.000748018;2.62357e-06;-0.000125342;0.000360215;-0.00123889;-1.96105e-05;0;0.0187462;-0.00886825;-0.0651919;-0.147744;0.161731;-6.27404;0.000897149;0.00103692;-0.00037584;0.00147734;-0.000956035;0.00121669;2.38705;0.418927;0.00141562;0.00162225;1.54528;0.647131;32.02;77.02;-0.00400779;0.000897175;0.00106239;0.00101142;-0.000375867;-0.00446644;0.00904285;0;0.0499742;-0.00727179;0.829874
93000;94;25.7555;0.00240263;9.32948e-05;-2.29512;25.6507;-0.339313;-0.00593118;0.00080916;-0.0942041;-0.00630056;-0.070633;-0.0622191;0.0943395;-5.97311;-0.000715705;0.000308503;-0.000492156;-0.000275803;-0.000932058;0.000328128;-1.45422;-0.687652;0.000552865;0.000437504;-0.295907;-3.37944;151.019;16.019;0.001258;-0.000715754;0.000178857;0.000438121;-0.000492124;-0.0013452;0.000158314;0;0.0228235;-0.00897014;-0.0682297;-0.151987;0.16684;-6.27828;0.000557974;0.000770526;-0.00023253;0.00102871;-0.000703266;0.000865988;2.39958;0.416739;0.00100582;0.00115465;1.46276;0.683638;0.157938;45.1579;-0.00242053;0.000557683;0.000457546;0.00108375;-0.000232337;-0.00889196;0.00626094;0;0.0495221;-0.00695192;0.834977
94000;95;25.7544;0.00130508;5.06766e-05;-2.29647;25.6494;-0.350322;-0.00727774;-0.000561392;-0.105213;-0.00687497;-0.0742291;-0.0617241;0.0967837;-5.97262;-0.000652055;0.00023874;-0.000573339;-0.000370735;-0.00085466;0.000241962;-1.13729;-0.87928;0.000494878;0.000322617;-0.433781;-2.30531;140.39;5.38957;0.00103123;-0.000652059;0.000223585;0.000253894;-0.000573336;-0.00130494;0.00198283;0;0.0183421;-0.00938329;-0.0715638;-0.156461;0.172306;-6.28276;0.00076994;0.000805566;-9.5942e-05;0.00125153;-0.000577536;0.000914535;8.02505;0.12461;0.00107965;0.00121938;2.16702;0.461463;12.9026;57.9026;-0.00357426;0.000769713;0.000561266;0.00105008;-9.5775e-05;-0.0048464;0.00594742;0;0.0497146;-0.00684518;0.840756
95000;96;25.7565;0.0034278;0.000133103;-2.29717;25.6514;-0.350316;-0.00798676;0.00150661;-0.105207;-0.00610657;-0.0766143;-0.063247;0.0995351;-5.97414;-0.000883606;0.000187336;-0.00039825;-0.000334354;-0.000947502;0.000306574;-2.21872;-0.45071;0.000554878;0.000408765;-0.35288;-2.83383;162.462;27.4617;0.000722144;-0.000883612;0.000158357;0.000216302;-0.000398245;-3.53912e-05;0.00154381;0;0.0221446;-0.00937666;-0.0753355;-0.159756;0.176876;-6.28605;0.000622514;0.000498626;-4.0083e-06;0.000898117;-0.000279611;0.000588864;;;0.00071053;0.000785152;3.21202;0.31133;37.3958;82.3958;-0.00284331;0.000622557;0.000592766;0.000404427;-4.05967e-06;-0.00530105;0.00459421;0;0.053119;-0.0062687;0.847319
96000;97;25.7567;0.00359808;0.000139715;-2.29697;25.6514;-0.363791;-0.00778218;0.00150834;-0.118683;-0.00758562;-0.0777544;-0.0675734;0.103293;-5.97847;-0.000892498;3.05943e-06;-0.000133918;-0.000133905;-0.000892511;0.000379303;-6.66454;-0.150048;0.000555775;0.000505737;-0.150032;-6.66524;4.17956;49.1796;0.00134594;-0.000892502;-7.65733e-05;8.26318e-05;-0.00013392;-0.0012169;0.00133709;0;0.0188739;-0.0102516;-0.0773142;-0.168786;0.185934;-6.29508;0.000423963;0.000197527;0.00015627;0.00052872;5.15128e-05;0.000238604;-2.71303;-0.368592;0.000336626;0.000318138;-10.2639;-0.0974292;8.59318;53.5932;-0.00487801;0.000423891;-3.48878e-05;0.000430003;0.000156288;-0.00230052;0.00493591;0;0.0524815;-0.00550615;0.852289
97000;98;25.7626;0.00958578;0.000372219;-2.2975;25.6575;-0.359869;-0.0083122;0.00752845;-0.11476;-0.00708883;-0.0791558;-0.0741666;0.108704;-5.98506;-0.000748672;0.000227612;-0.0003594;-0.000254552;-0.000853519;0.000299484;-2.08312;-0.48005;0.000505976;0.000399312;-0.298238;-3.35302;161.003;26.0033;0.0014239;-0.000748704;0.000115214;0.000339966;-0.00035938;-0.00135493;0.00139305;0;0.0193479;-0.0105065;-0.081056;-0.176444;0.194455;-6.30274;0.000259622;0.000192393;1.01256e-05;0.000364171;-9.44235e-05;0.000229297;-25.6403;-0.0390011;0.000279621;0.00030573;3.85678;0.259283;169.145;34.1452;-0.00117895;0.000259261;-0.000486834;0.00087179;1.00256e-05;-0.00965988;0.00292643;0;0.0536368;-0.00497061;0.859084
98000;99;25.7643;0.0112146;0.000435468;-2.29833;25.659;-0.362172;-0.00914579;0.00905692;-0.117063;-0.00733562;-0.0819237;-0.0755811;0.111704;-5.98648;-0.000864396;8.04261e-05;-4.22189e-05;-3.44255e-05;-0.000872189;0.000418882;-20.4741;-0.0488421;0.000570331;0.000558509;-0.0394702;-25.3356;172.085;37.0853;0.000817134;-0.000864393;0.00011817;4.27135e-05;-4.22227e-05;-0.000743073;0.000658576;0;0.0195128;-0.010844;-0.0851532;-0.180576;0.199941;-6.30396;0.000628417;0.000373583;-0.000170618;0.000775871;-0.000318073;0.000546972;3.68317;0.271505;0.000649763;0.000729296;2.43929;0.409956;40.0322;85.0322;-0.00265374;0.000628466;0.000545964;0.000201065;-0.000170698;-0.00599034;-0.00273857;0;0.051678;-0.0043901;0.865874
99000;100;25.7643;0.0112279;0.000435983;-2.29714;25.6591;-0.365846;-0.00795052;0.00912516;-0.120738;-0.00781941;-0.0845257;-0.0754695;0.113584;-5.98637;-0.000598139;0.000188626;-0.000505037;-0.000357302;-0.000745873;0.000194285;-1.18435;-0.844347;0.000430756;0.000259047;-0.479039;-2.08751;144.46;9.45959;0.00149502;-0.000598149;0.000139848;0.0002374;-0.000505029;-0.00328534;0.00266683;0;0.0209179;-0.0113731;-0.0872672;-0.186144;0.205899;-6.30953;0.000470701;0.000433666;-2.24257e-05;0.000722996;-0.000274721;0.000498858;20.9894;0.0476432;0.000595097;0.000665144;2.63175;0.379976;15.2613;60.2613;-0.00302861;0.000470637;0.000305004;0.000562391;-2.23782e-05;-0.00736468;-0.000816912;0;0.0525021;-0.00408541;0.873819
100000;101;25.7649;0.0118179;0.000458891;-2.29757;25.6596;-0.363651;-0.00838209;0.00971009;-0.118543;-0.00783178;-0.0859772;-0.079169;0.117137;-5.99006;-0.000521759;3.67369e-05;-0.000444458;-0.000429784;-0.000536433;5.33241e-05;-1.17392;-0.851845;0.000327905;7.10989e-05;-0.80119;-1.24814;157.071;22.0712;0.000956871;-0.000521758;5.62301e-05;1.72453e-05;-0.000444459;-0.00197138;0.00584125;0;0.0176533;-0.0115517;-0.0891631;-0.191068;0.211165;-6.31446;0.000545206;0.000518755;-0.000156472;0.000820621;-0.000431887;0.000626254;3.48437;0.286996;0.000734654;0.000835006;1.90008;0.526293;53.5887;98.5887;-0.00422054;0.000545302;0.000760916;0.000276424;-0.000156627;-0.00604096;-0.00284198;0;0.0493952;-0.00398324;0.880818
101000;102;25.7639;0.0108114;0.00041981;-2.29708;25.6586;-0.369292;-0.00789425;0.0086626;-0.124183;-0.00785424;-0.0879007;-0.0829569;0.12112;-5.99385;-0.000415451;0.000240195;-0.000136622;1.68662e-06;-0.00055376;0.000277723;-3.04088;-0.328853;0.000369737;0.000370298;;;146.363;11.3632;0.00165459;-0.000415443;0.000276067;0.000204333;-0.000136631;-0.00269306;0.00440791;0;0.0207434;-0.0114929;-0.0914155;-0.196855;0.217349;-6.32024;0.000990964;0.000458464;-0.000276421;0.00113942;-0.000424876;0.000782148;3.58498;0.278942;0.000934025;0.00104286;2.68177;0.372889;36.8607;81.8607;-0.00661072;0.000991052;0.000735908;0.000180667;-0.000276587;-0.00382861;0.004851;0;0.051183;-0.0037831;0.888321
102000;103;25.7613;0.00825636;0.000320597;-2.29712;25.6559;-0.375581;-0.00792739;0.00600284;-0.130473;-0.00785824;-0.0910659;-0.0837637;0.12398;-5.99466;-0.000338776;5.24274e-05;0.000110792;0.000116825;-0.000344809;0.000230817;3.05776;0.327037;0.000277147;0.000307756;0.338811;2.9515;145.393;10.3928;0.0011872;-0.000338782;0.000221971;-0.00011704;0.000110769;-0.00103506;0.00335747;0;0.0180561;-0.0120401;-0.0935317;-0.202681;0.223546;-6.32607;0.000803701;0.000681985;-0.000351271;0.00111986;-0.000667426;0.00089364;2.28798;0.437067;0.00104285;0.00119152;1.67787;0.595993;53.9692;98.9692;-0.00660924;0.000803883;0.00104675;0.000316802;-0.000351586;0.00221974;0.0013687;0;0.0468238;-0.003816;0.895919
103000;104;25.7601;0.00708766;0.000275216;-2.29695;25.6548;-0.376739;-0.00775909;0.00482743;-0.131631;-0.00779664;-0.0942947;-0.0857178;0.127671;-5.99661;-0.000159185;0.000207636;0.000859169;0.000899877;-0.000199893;0.000549885;0.185278;5.3973;0.000676467;0.000733181;4.50178;0.222134;95.1277;140.128;0.000701222;-0.000159164;0.000430302;-1.48032e-05;0.000859098;-0.0025934;0.00395948;0;0.0225224;-0.0118238;-0.0959072;-0.206435;0.227932;-6.32982;0.000776307;0.000666208;5.48313e-05;0.00117317;-0.000342036;0.000757604;-14.1581;-0.070631;0.000917628;0.00101014;3.42998;0.291547;52.1881;97.1881;-0.00664626;0.000776489;0.00105126;0.000280874;5.45007e-05;-0.000596248;0.000241438;0;0.050619;-0.00352611;0.903581
104000;105;25.7572;0.00411354;0.00015973;-2.29648;25.6518;-0.379942;-0.00729623;0.00183529;-0.134833;-0.00727376;-0.0955699;-0.0905378;0.131847;-6.00143;-0.000189959;0.000279357;0.000741939;0.000819266;-0.000267286;0.000543276;0.256031;3.90578;0.000653747;0.000724368;3.06512;0.326251;87.4479;132.448;0.000468257;-0.000189931;0.00041312;0.000145719;0.000741893;-0.00247001;0.00526294;0;0.0225292;-0.0117293;-0.0967819;-0.214782;0.235872;-6.33817;0.000755627;0.000626174;-0.000206872;0.00106412;-0.000515366;0.000789743;3.65264;0.273775;0.000930082;0.00105299;2.06479;0.484311;27.0722;72.0722;-0.00620274;0.000755632;0.000634262;0.000618078;-0.000206877;0.00256446;-0.000352727;0;0.0468438;-0.00325121;0.910501
105000;106;25.755;0.00193486;7.51313e-05;-2.29753;25.6494;-0.387005;-0.00834153;-0.000551549;-0.141897;-0.00788282;-0.0982762;-0.0916809;0.134632;-6.00258;-0.000188675;3.9822e-05;0.000489002;0.000491334;-0.000191007;0.00034117;0.385837;2.59177;0.00040647;0.000454894;2.57233;0.388752;119.092;164.092;0.00067578;-0.000188714;0.00036046;-0.000280599;0.000488938;-0.00227157;0.00631226;0;0.02022;-0.0118623;-0.0987773;-0.217917;0.239553;-6.34131;0.000954713;0.00064804;-0.000487079;0.00120317;-0.000735537;0.000969354;1.96008;0.510184;0.00113012;0.00129247;1.63577;0.611332;36.9254;81.9254;-0.00544834;0.000954797;0.000793498;0.000502372;-0.000487184;0.00300624;-0.00120932;0;0.0448728;-0.0028672;0.914455
106000;107;25.755;0.00194983;7.57126e-05;-2.29768;25.6494;-0.389323;-0.00848798;-0.000584717;-0.144215;-0.00807268;-0.0999172;-0.091941;0.136021;-6.00284;-0.000100341;0.000374478;0.000468674;0.000654462;-0.000286129;0.000470296;0.214095;4.67083;0.000556757;0.000627061;2.2873;0.437197;88.7086;133.709;0.00113886;-0.000100282;0.000595589;0.000153493;0.000468567;-0.00304386;0.00651857;0;0.0185315;-0.0122167;-0.099869;-0.222754;0.244423;-6.34614;0.000941628;0.000704498;-0.000397617;0.00124397;-0.000699957;0.000971963;2.36818;0.422265;0.00113688;0.00129595;1.77721;0.562681;46.8165;91.8165;-0.0074868;0.000941792;0.000997952;0.000410651;-0.000397867;0.00573804;0.00449641;0;0.0471196;-0.00229291;0.918295
107000;108;25.7531;3.22611e-05;1.25271e-06;-2.29707;25.6474;-0.392778;-0.00788272;-0.00250864;-0.147669;-0.00823957;-0.103021;-0.0926937;0.138829;-6.00359;-0.000243819;0.000259021;0.000558008;0.000634403;-0.000320214;0.000477309;0.436945;2.28862;0.000561011;0.000636412;1.98118;0.504749;103.058;148.058;0.000431081;-0.000243786;0.000520476;-2.22383e-06;0.000557906;-0.000495867;0.0060005;0;0.0177495;-0.0126035;-0.102084;-0.22865;0.25072;-6.35495;0.000791799;0.000565489;-0.000307564;0.00103074;-0.000546506;0.000788624;2.57442;0.388437;0.000924819;0.0010515;1.88606;0.530207;0.683587;45.6836;-0.00679743;0.000791637;0.000328063;0.000803176;-0.000307458;0.00577585;0.00490991;0;0.0427047;-0.0012019;0.925161
108000;109;25.7518;-0.00125453;-4.8714e-05;-2.29755;25.646;-0.39976;-0.00835954;-0.00395134;-0.154652;-0.00845495;-0.107391;-0.0925176;0.141999;-6.00341;-0.000533129;0.000161962;0.000327147;0.000356629;-0.000562611;0.00045962;1.62963;0.613636;0.000535146;0.000612827;0.633882;1.57758;139.971;4.97054;-0.000177028;-0.000533116;0.000336321;-1.22474e-05;0.000327104;0.00159515;0.00586203;0;0.0187361;-0.0127883;-0.105387;-0.231526;0.254704;-6.35782;0.000947769;0.00071111;-0.000503784;0.00123808;-0.000794093;0.00101609;1.8813;0.531547;0.00118257;0.00135478;1.55911;0.641392;178.539;43.5387;-0.0056037;0.000947569;0.000470311;0.000952259;-0.000503642;-0.000479928;0.0103969;0;0.0450235;-0.000184011;0.93354
109000;110;25.7521;-0.000948487;-3.68301e-05;-2.29726;25.6463;-0.402375;-0.00806999;-0.00365897;-0.157266;-0.00782141;-0.110098;-0.095328;0.145843;-6.00622;-0.00044361;0.000322305;0.000384831;0.000495452;-0.000554231;0.000524842;1.15274;0.867498;0.000606352;0.000699789;0.893945;1.11864;119.302;164.302;0.000359215;-0.00044356;0.000580473;6.43507e-05;0.000384714;0.000650368;0.00500975;0;0.0200236;-0.0126391;-0.108592;-0.235908;0.260009;-6.36221;0.000799374;0.000659686;-0.000301556;0.00110809;-0.000610275;0.000859184;2.65083;0.37724;0.00100588;0.00114558;1.81573;0.550743;10.2139;55.2139;-0.00608755;0.000799271;0.000517578;0.000801951;-0.000301472;-0.000890948;0.0125142;0;0.0433594;-4.58307e-05;0.940037
110000;111;25.756;0.00290201;0.000112686;-2.2977;25.6502;-0.399163;-0.00850759;0.000218386;-0.154054;-0.00835326;-0.114587;-0.0937401;0.148281;-6.00464;-0.000440718;0.000385854;6.41293e-05;0.000272792;-0.000649381;0.000461087;6.87233;0.145511;0.000547015;0.000614782;0.420081;2.3805;132.956;177.956;-0.000334023;-0.000440673;0.0005292;0.00024258;6.40637e-05;0.000769599;0.00351372;0;0.0198606;-0.0130731;-0.112947;-0.240856;0.266345;-6.36715;0.000736545;0.000408975;-0.000126652;0.000899537;-0.000289644;0.000594591;5.81549;0.171955;0.000716041;0.000792788;3.10566;0.321993;170.135;35.1347;-0.00642504;0.000736116;-0.000194707;0.00101318;-0.000126588;-0.000434367;0.0117578;0;0.0446598;0.000131099;0.947363
111000;112;25.7585;0.00549347;0.000213313;-2.29809;25.6526;-0.406576;-0.00890446;0.00266857;-0.161467;-0.00880443;-0.116951;-0.0983109;0.153036;-6.00921;-0.000499098;0.000436689;-0.000264421;7.04191e-05;-0.000833938;0.000452178;-1.88751;-0.529798;0.000580856;0.000602905;0.0844417;11.8425;136.706;1.70582;0.000269596;-0.000499067;0.000515229;0.000358167;-0.000264458;0.000549748;0.00483093;0;0.0205043;-0.0134887;-0.117461;-0.248826;0.275488;-6.37512;0.000733955;0.000147411;-0.000138562;0.000758187;-0.000162794;0.000460491;5.29694;0.188788;0.000567559;0.000613987;4.65734;0.214715;159.003;24.0031;-0.00428075;0.000733736;-0.000382472;0.000677757;-0.000138624;-0.000600134;0.00798967;0;0.0459213;0.000380043;0.955149
112000;113;25.7604;0.00732698;0.000284509;-2.29843;25.6543;-0.412948;-0.00923714;0.00437807;-0.167839;-0.00885409;-0.119932;-0.0989553;0.155737;-6.00985;-0.000748556;0.000160506;-0.000256598;-0.000208863;-0.00079629;0.000293714;-2.91724;-0.34279;0.000476742;0.000391618;-0.262295;-3.8125;165.328;30.3277;0.0012789;-0.000748561;0.000127304;0.000193691;-0.000256593;-0.00159332;0.00199956;0;0.0222644;-0.0138185;-0.121427;-0.253215;0.281165;-6.37951;0.000702057;0.000138727;-0.000355954;0.000719945;-0.000373841;0.000546893;1.97233;0.507015;0.000641949;0.000729191;1.9258;0.519264;149.115;14.1151;-0.00419169;0.000701698;-0.000580928;0.000859143;-0.000356113;0.00364537;0.00468904;0;0.0448733;0.00120328;0.96258
113000;114;25.7638;0.0106997;0.000415472;-2.29986;25.6575;-0.414484;-0.0106764;0.00761097;-0.169375;-0.00702911;-0.123127;-0.101862;0.159955;-6.01276;-0.000870449;0.000252218;-0.00095243;-0.000655912;-0.00116697;0.000255528;-0.913924;-1.09418;0.000675477;0.000340704;-0.562065;-1.77915;126.582;171.582;0.000695608;-0.000870425;0.000373796;0.000130631;-0.000952468;-0.00163252;0.00463436;0;0.0217038;-0.0123691;-0.126228;-0.260241;0.289503;-6.38363;0.00120586;0.000138586;-0.000637442;0.00121622;-0.000647803;0.00093201;1.89171;0.528622;0.00109274;0.00124268;1.87745;0.532638;159.759;24.7589;-0.00557309;0.00120576;-0.000188596;0.000466372;-0.00063745;0.000787268;0.00283535;0;0.0468383;0.00232407;0.969098
114000;115;25.7605;0.00747461;0.000290242;-2.30002;25.6541;-0.423561;-0.0108285;0.00421067;-0.178452;-0.0077368;-0.127859;-0.101891;0.163675;-6.01279;-0.000814512;0.000198316;-0.000543319;-0.000438675;-0.000919157;0.000240241;-1.49914;-0.667049;0.000530858;0.000320321;-0.477258;-2.0953;147.481;12.481;0.000622923;-0.000814496;0.000310646;8.60168e-05;-0.000543348;-0.00144935;0.00413794;0;0.0197936;-0.0130293;-0.130841;-0.267588;0.298148;-6.39098;0.00126401;0.000266139;-0.000292276;0.00130826;-0.00033653;0.000822395;4.3247;0.23123;0.00100334;0.00109653;3.8875;0.257235;170.246;35.2464;-0.00540083;0.00126383;-0.000118746;0.000651623;-0.000292248;2.39492e-05;0.00309225;0;0.0465471;0.0035847;0.976065
115000;116;25.7602;0.00713891;0.000277206;-2.29963;25.6537;-0.430682;-0.010439;0.00378993;-0.185573;-0.00631016;-0.131493;-0.10628;0.169191;-6.01718;-0.000738527;0.000433008;-0.000838564;-0.000352658;-0.00122443;0.000435887;-0.880704;-1.13545;0.000727796;0.000581183;-0.288018;-3.47201;126.837;171.837;0.00128283;-0.000738477;0.000568202;0.0002978;-0.000838631;-0.002656;0.00477945;0;0.0209712;-0.0120063;-0.135275;-0.276782;0.308305;-6.40017;0.00143125;0.000577696;-0.000470326;0.001593;-0.000632072;0.00111253;3.04311;0.328612;0.00132398;0.00148338;2.52028;0.396781;31.0479;76.0479;-0.00665377;0.00143138;0.000864148;0.0002907;-0.000470533;0.0014376;0.00557458;0;0.0441955;0.00373878;0.98259
116000;117;25.7598;0.00678495;0.000263462;-2.29966;25.6533;-0.43326;-0.0104682;0.00338847;-0.188151;-0.00704399;-0.134319;-0.105289;0.170813;-6.01618;-0.000843948;0.000212771;-5.33784e-05;2.48204e-07;-0.000897574;0.000448911;-15.8107;-0.0632485;0.000598466;0.000598548;;;155.597;20.5974;0.000339731;-0.000843926;0.000380619;4.5055e-05;-5.34282e-05;-6.62176e-05;0.00549055;0;0.0209782;-0.012806;-0.137831;-0.279723;0.3121;-6.40311;0.00119911;0.000342227;-0.000501408;0.0012654;-0.000567697;0.000916546;2.39148;0.418152;0.00108359;0.00122206;2.229;0.448632;13.4019;58.4019;-0.00678914;0.00119912;0.000371991;0.000312412;-0.000501419;-0.0016672;0.00536764;0;0.0423068;0.00397347;0.985355
117000;118;25.7591;0.00605616;0.000235163;-2.29897;25.6526;-0.436589;-0.00977761;0.00266211;-0.19148;-0.00718228;-0.137321;-0.105503;0.173319;-6.0164;-0.000541498;0.000350082;-0.000783758;-0.000292182;-0.00103307;0.000370446;-0.690899;-1.44739;0.000614913;0.000493928;-0.282828;-3.53572;117.853;162.853;0.00134271;-0.000541451;0.000530075;0.000170046;-0.000783838;-0.00349856;0.00779067;0;0.0217176;-0.0127143;-0.139971;-0.285849;0.318533;-6.40924;0.000763679;0.00039756;-0.000308186;0.000895038;-0.000439545;0.000667292;2.47798;0.403555;0.000785339;0.000889722;2.03628;0.491091;24.2794;69.2794;-0.00584198;0.000763697;0.000445914;0.000349154;-0.000308207;-0.00458766;0.00835799;0;0.0436338;0.00608529;0.994102
118000;119;25.7585;0.00542341;0.000210593;-2.2987;25.6519;-0.441752;-0.00951251;0.00196211;-0.196643;-0.00698981;-0.138852;-0.106463;0.175108;-6.01736;-0.000575847;0.000191475;-0.000378007;-0.00026141;-0.000692445;0.000215517;-1.52338;-0.656436;0.000403762;0.000287357;-0.377517;-2.64889;131.356;176.356;0.000692217;-0.000575839;0.000520457;-0.000137442;-0.000378124;-0.00259155;0.00885566;0;0.0207988;-0.012818;-0.141201;-0.292307;0.324878;-6.4157;0.000984749;0.000373496;-0.000466394;0.00107524;-0.000556882;0.000816059;2.11141;0.473617;0.000958014;0.00108808;1.93082;0.517915;7.97308;52.9731;-0.0055359;0.000984728;0.000321771;0.000425296;-0.000466376;-0.00263803;0.00269803;0;0.0418996;0.00746764;0.99783
119000;120;25.7595;0.00643331;0.000249808;-2.29816;25.653;-0.439149;-0.00897279;0.00306924;-0.19404;-0.0076694;-0.138889;-0.113706;0.179661;-6.0246;-0.000623221;0.000205265;0.000292191;0.000336111;-0.000667141;0.000501626;2.13292;0.46884;0.000589644;0.000668835;0.503808;1.98488;139.578;4.57758;0.000686484;-0.000623201;0.00045717;-4.64103e-05;0.000292108;-0.00179589;0.00852879;0;0.0190479;-0.0133834;-0.14145;-0.301289;0.33311;-6.42468;0.00135747;0.000537469;-0.000674312;0.00149089;-0.000807729;0.00114931;2.01312;0.496742;0.0013465;0.00153241;1.84578;0.541778;43.7558;88.7558;-0.0049689;0.00135761;0.00112027;-4.65196e-05;-0.000674796;-0.00511808;0.00516433;0;0.0411835;0.00781547;1.00452
120000;121;25.7563;0.00324929;0.000126171;-2.30069;25.6493;-0.453214;-0.0114988;-0.000599111;-0.208105;-0.00580964;-0.144113;-0.108087;0.180236;-6.01898;-0.000436431;3.44994e-05;7.47317e-05;7.70496e-05;-0.000438749;0.0002579;5.83998;0.171234;0.000321277;0.000343866;0.175612;5.69437;144.129;9.12917;0.000536258;-0.000436488;0.000406073;-0.000336884;7.46498e-05;-0.00296708;0.00783018;0;0.0199294;-0.0128675;-0.143947;-0.306795;0.33913;-6.43018;0.000992088;0.000610739;-0.000662926;0.00119306;-0.000863898;0.00102848;1.49653;0.668213;0.00119264;0.00137131;1.38102;0.724103;165.791;30.7912;-0.00471617;0.000991812;0.000260348;0.00096171;-0.000662773;-0.00244003;0.00499181;0;0.042256;0.00999217;1.01263
121000;122;25.7565;0.003494;0.000135673;-2.30037;25.6496;-0.455282;-0.0111772;-0.000361163;-0.210174;-0.00576988;-0.146307;-0.109368;0.182758;-6.02026;-0.000406015;6.2401e-05;0.000847767;0.000850865;-0.000409113;0.000629989;0.478923;2.08802;0.000742202;0.000839985;2.07978;0.480821;117.771;162.771;0.000626089;-0.000406071;0.000465107;-0.0003398;0.000847661;-0.00262991;0.0104188;0;0.0192803;-0.0128581;-0.146047;-0.310627;0.343488;-6.43692;0.000908725;0.000564005;-0.000840916;0.00107478;-0.00100697;0.00104087;1.08064;0.925381;0.00120211;0.00138783;1.06734;0.936909;154.544;19.5444;-0.00520835;0.000908503;0.000255668;0.000872882;-0.00084079;0.000399377;0.00839265;0;0.0406329;0.010782;1.01948
122000;123;25.7571;0.00399751;0.000155225;-2.29954;25.6501;-0.458568;-0.0103537;0.000159748;-0.21346;-0.00594044;-0.148221;-0.10832;0.183679;-6.01922;-0.000431296;0.000178472;0.000657698;0.000686202;-0.000459799;0.000573;0.655766;1.52493;0.000665934;0.000764001;1.49239;0.670065;118.749;163.749;0.00136081;-0.000431315;0.000621479;-0.000264052;0.000657521;-0.00591842;0.00951289;0;0.0201289;-0.0131361;-0.148285;-0.313311;0.346879;-6.43961;0.000828125;0.000488462;-0.000642313;0.000975596;-0.000789784;0.00088269;1.28929;0.775623;0.00102112;0.00117692;1.23527;0.80954;159.634;24.6344;-0.00490887;0.000827908;0.000157282;0.000820128;-0.000642206;0.00207181;0.0100396;0;0.0395913;0.0113043;1.02626
123000;124;25.7541;0.00106449;4.13346e-05;-2.30001;25.6469;-0.469562;-0.0108234;-0.0030242;-0.224208;-0.00506348;-0.150524;-0.107581;0.185086;-6.01848;-0.000496873;0.000295345;0.000859239;0.00092077;-0.000558403;0.000739587;0.57827;1.72929;0.000862501;0.000986116;1.64893;0.606453;113.86;158.86;2.44915e-05;-0.000496857;0.000830198;-0.000238783;0.000858939;-0.00141867;0.0110886;0;0.0224197;-0.0129762;-0.148925;-0.320625;0.353761;-6.4462;0.000974247;0.000533778;-0.000672045;0.00113217;-0.000829964;0.000981065;1.44968;0.68981;0.00113731;0.00130809;1.36411;0.733076;160.769;25.7692;-0.00442788;0.000973905;8.41808e-05;0.000984116;-0.000671906;0.0030158;0.00490797;0;0.0375167;0.0142602;1.03407
124000;125;25.7552;0.00215308;8.36047e-05;-2.29908;25.6481;-0.470702;-0.00989306;-0.00187089;-0.225593;-0.00503193;-0.152628;-0.110177;0.188307;-6.02107;-0.00026841;2.477e-05;0.000587998;0.000588713;-0.000269126;0.00042892;0.456481;2.19067;0.000506601;0.000571893;2.1875;0.457142;127.027;172.027;-0.000569661;-0.000268647;0.000739098;-0.000688946;0.000587725;-0.000775182;0.0085845;0;0.0228317;-0.0129257;-0.150942;-0.328659;0.361894;-6.45496;0.00102741;0.000346318;-0.000471753;0.00110354;-0.000547889;0.000825715;2.17785;0.459169;0.000971278;0.00110095;2.01417;0.496482;157.284;22.2835;-0.00278685;0.00102684;-0.00042714;0.00112094;-0.000471785;-0.00371551;0.00943402;0;0.0358806;0.0173379;1.04107
125000;126;25.754;0.000951408;3.69435e-05;-2.29961;25.6467;-0.474445;-0.0104175;-0.00319357;-0.229337;-0.00489583;-0.155625;-0.109591;0.190403;-6.02049;-0.000247828;0.000331406;0.000670137;0.000777278;-0.000354969;0.000566123;0.369817;2.70404;0.000668688;0.000754831;2.18971;0.456682;106.648;151.648;0.000292149;-0.000247798;0.000885906;-0.000222585;0.0006698;-0.00392498;0.00987284;0;0.0208575;-0.0131615;-0.152859;-0.335298;0.368733;-6.4616;0.000740504;0.0003312;-0.000564724;0.000819735;-0.000643956;0.000731845;1.31127;0.762621;0.000847091;0.000975794;1.27297;0.785565;150.533;15.5328;-0.00250873;0.000739356;-0.000887327;0.00155132;-0.000565063;-0.00260611;0.00664303;0;0.0388688;0.0195873;1.04898
126000;127;25.756;0.0029225;0.000113482;-2.29994;25.6487;-0.475925;-0.0107506;-0.00127153;-0.230816;-0.00489722;-0.15755;-0.107234;0.190644;-6.01813;-0.000477762;0.000346146;0.00104342;0.00111848;-0.000552824;0.000835651;0.457883;2.18397;0.000983176;0.0011142;2.02321;0.494265;111.286;156.286;0.000279297;-0.000477754;0.00101505;-0.000321746;0.00104296;-0.00256884;0.00888473;0;0.0192081;-0.0132569;-0.15509;-0.337056;0.371262;-6.46335;0.000851378;4.56026e-05;-0.000650612;0.000852761;-0.000651995;0.000752378;1.30858;0.764187;0.000871345;0.00100317;1.30793;0.764569;140.004;5.0037;-0.00329546;0.00085095;-0.000833835;0.000926362;-0.000650959;-0.00271998;0.00632643;0;0.0394912;0.021872;1.05597
127000;128;25.7565;0.00346875;0.000134693;-2.29873;25.6492;-0.482615;-0.00954254;-0.000739702;-0.237507;-0.0052366;-0.158169;-0.109005;0.192164;-6.0199;-0.000340919;0.000348126;0.000738638;0.000841162;-0.000443443;0.000642302;0.461551;2.16661;0.000753422;0.000856403;1.89689;0.527179;109.35;154.35;-0.000591206;-0.000340889;0.000944135;-0.000247241;0.000738253;-0.00134166;0.00968281;0;0.0222781;-0.0138315;-0.155874;-0.344431;0.378313;-6.47073;0.000601243;0.000160111;-0.000625998;0.000621787;-0.000646543;0.000634165;0.960455;1.04117;0.000732317;0.000845554;0.961711;1.03981;141.967;6.96744;-0.00331627;0.000600596;-0.00082765;0.00114909;-0.000626328;0.00102267;0.00897924;0;0.0394523;0.0249966;1.05699
128000;129;25.7567;0.00364884;0.000141686;-2.30037;25.649;-0.494318;-0.0111778;-0.000928326;-0.249209;-0.00504109;-0.158354;-0.110151;0.192963;-6.02105;-0.000365221;0.000351027;0.000524118;0.000645974;-0.000487077;0.000566525;0.696829;1.43507;0.000656308;0.000755367;1.32623;0.754019;111.81;156.81;-0.000550205;-0.000365181;0.000911252;-0.000208699;0.000523764;-0.00283145;0.0104588;0;0.0205923;-0.0137008;-0.155888;-0.352616;0.385781;-6.47891;0.000632557;0.00012554;-0.000934412;0.000642551;-0.000944406;0.000793478;0.676958;1.4772;0.000921738;0.00105797;0.680376;1.46977;133.698;178.698;-0.00286008;0.000632202;-0.000600826;0.000853044;-0.000934584;-0.0025746;0.0118822;0;0.038734;0.0288589;1.06402
129000;130;25.7573;0.00424774;0.000164941;-2.30008;25.6495;-0.500139;-0.01089;-0.000413953;-0.255031;-0.00461829;-0.158142;-0.114157;0.195095;-6.02505;-0.000429237;0.000471796;0.00100571;0.00114693;-0.00057046;0.000858697;0.4268;2.34302;0.00100999;0.00114493;2.01054;0.497379;105.94;150.94;-0.000579245;-0.000429138;0.00109686;-0.000152372;0.00100522;-0.00191209;0.00728136;0;0.0216353;-0.0134067;-0.156116;-0.365966;0.3981;-6.49226;0.00054961;0.000177748;-0.00042489;0.000581019;-0.000456298;0.000518659;1.29354;0.773075;0.000600336;0.000691545;1.27333;0.785342;148.296;13.2963;-0.00219628;0.000549365;-0.000366359;0.000722385;-0.000424941;-0.00643483;0.011615;0;0.0384261;0.0357637;1.07596
130000;131;25.7622;0.00916;0.000355686;-2.30126;25.6544;-0.498553;-0.0120764;0.00444342;-0.253445;-0.00445762;-0.161011;-0.107818;0.193828;-6.01871;-0.000453483;0.000263928;0.000869158;0.000919879;-0.000504204;0.000712041;0.52175;1.91663;0.000833788;0.000949389;1.82442;0.54812;115.329;160.329;-0.000956979;-0.000453525;0.000920911;-0.000392186;0.000868769;-0.000857286;0.00794038;0;0.0204098;-0.0129928;-0.158623;-0.365302;0.398467;-6.48869;0.000944445;0.00034851;-0.000619137;0.00101861;-0.0006933;0.000855954;1.52542;0.655557;0.000994301;0.00114127;1.46922;0.680635;15.8472;60.8472;-0.00387906;0.000944452;0.000370395;0.00032659;-0.000619145;-0.00211015;0.0118672;0;0.0385932;0.0397209;1.07945
131000;132;25.7584;0.00536828;0.000208452;-2.29915;25.6505;-0.509626;-0.00996314;0.000607657;-0.264517;-0.00410372;-0.163848;-0.107592;0.196059;-6.01849;-0.000453398;0.000344082;0.000610943;0.00071249;-0.000554945;0.000633718;0.742129;1.34748;0.000733636;0.000844957;1.28389;0.778882;114.924;159.924;-0.000477917;-0.000453377;0.00096373;-0.000274906;0.000610538;-0.00109534;0.00850241;0;0.0218315;-0.0124957;-0.161484;-0.370752;0.404587;-6.49414;0.000712427;0.000399014;-0.000657497;0.000820173;-0.000765242;0.000792707;1.08354;0.922897;0.000915523;0.00105694;1.07178;0.933026;53.7943;98.7943;-0.00522558;0.000712469;0.000521501;0.000276358;-0.000657553;0.00154971;0.0164036;0;0.0404487;0.0450567;1.08565
132000;133;25.7587;0.00562663;0.000218484;-2.29909;25.6507;-0.515271;-0.00989869;0.000762447;-0.269917;-0.00390608;-0.166382;-0.10916;0.199033;-6.02006;-0.000659797;0.000216783;0.000489373;0.000528908;-0.000699331;0.000614119;1.34825;0.741704;0.000711396;0.000818826;0.756306;1.32222;128.408;173.408;-0.000752197;-0.000659865;0.000863922;-0.000429613;0.000489024;0.000278625;0.00611596;0;0.024711;-0.0120659;-0.163203;-0.379587;0.413361;-6.5022;0.000628131;0.000328179;-0.000596287;0.000710545;-0.000678701;0.000694623;1.0534;0.949304;0.000802152;0.000926164;1.04692;0.955184;7.50785;52.5078;-0.0050529;0.00062813;0.000324453;0.000331909;-0.000596286;-0.002953;0.013335;0;0.0409802;0.0510082;1.09295
133000;134;25.7566;0.00353824;0.000137391;-2.29977;25.6484;-0.523426;-0.0105851;-0.00156141;-0.278072;-0.00340916;-0.171171;-0.107672;0.202248;-6.01857;-0.000617032;0.000388547;0.000239364;0.000389372;-0.00076704;0.000578206;2.5778;0.387928;0.00067942;0.000770942;0.507629;1.96994;123.625;168.625;-0.000279651;-0.000616967;0.000922392;-0.000144841;0.000239014;-0.000143281;0.00519376;0;0.0225655;-0.0113996;-0.166618;-0.387578;0.422028;-6.51019;0.00080405;0.000587995;-0.000630757;0.00101423;-0.000840934;0.000927581;1.27474;0.784475;0.00107263;0.00123677;1.20607;0.829138;55.9068;100.907;-0.00435116;0.000804173;0.000862329;0.000313267;-0.000630956;-0.00179267;0.0138711;0;0.0397638;0.0585059;1.10019
134000;135;25.7554;0.00237707;9.23025e-05;-2.29919;25.6471;-0.53199;-0.00999853;-0.00285344;-0.286882;-0.00314504;-0.175263;-0.106623;0.205172;-6.01752;-0.000727847;0.000500881;0.000312963;0.000514849;-0.000929732;0.000722291;2.32566;0.429985;0.000845417;0.000963054;0.55376;1.80584;122.766;167.766;-0.000227791;-0.000727725;0.00108846;-8.6091e-05;0.000312497;-0.000254581;0.00399325;0;0.0229754;-0.0106109;-0.170554;-0.392301;0.427903;-6.51569;0.000840852;0.00077751;-0.000585928;0.00118266;-0.000927738;0.0010552;1.43508;0.696826;0.0012214;0.00140693;1.27478;0.784449;52.7662;97.7662;-0.00356025;0.00084099;0.000981959;0.00057277;-0.000586108;-0.0079933;0.0118611;0;0.0451157;0.0717279;1.10781
135000;136;25.7554;0.00237192;9.21027e-05;-2.3002;25.6469;-0.533955;-0.0110115;-0.00299028;-0.288847;-0.00310621;-0.178133;-0.105796;0.207205;-6.01669;-0.000818683;0.000389978;0.000395378;0.000509853;-0.000933158;0.000721505;2.07063;0.482944;0.000844987;0.000962007;0.546374;1.83025;130.548;175.548;0.000127964;-0.000818611;0.00086948;-8.89411e-05;0.000395077;-0.00174495;0.00391257;0;0.0212715;-0.0106587;-0.172945;-0.397303;0.433443;-6.52069;0.00117079;0.000648685;-0.000881872;0.0013586;-0.00106969;0.00121414;1.32762;0.753227;0.00140528;0.00161886;1.2701;0.787341;43.1312;88.1312;-0.00238301;0.0011709;0.000847133;0.000449828;-0.00088202;-0.00742854;0.00731299;0;0.0418311;0.0802688;1.11458
136000;137;25.7545;0.00148743;5.77576e-05;-2.29879;25.646;-0.542879;-0.00959923;-0.00393922;-0.29777;-0.00280491;-0.178429;-0.109321;0.209274;-6.02022;-0.000725179;0.000527711;0.000353778;0.000568963;-0.000940364;0.000754663;2.04981;0.487849;0.00088016;0.00100622;0.605045;1.65277;121.802;166.802;0.00055133;-0.000725041;0.0010999;-4.38632e-05;0.000353313;-0.00134835;0.00379951;0;0.021707;-0.0097829;-0.172729;-0.406376;0.44167;-6.52976;0.001405;0.000738858;-0.000792197;0.00163035;-0.00101754;0.00132395;1.77355;0.563841;0.00154235;0.00176526;1.60224;0.624127;51.5634;96.5634;-0.00464692;0.00140527;0.00154587;-6.99247e-05;-0.00079312;-0.0024843;0.00904021;0;0.0445738;0.0898297;1.12218
137000;138;25.7537;0.000660482;2.56467e-05;-2.29924;25.645;-0.547593;-0.0100545;-0.00491072;-0.302485;-0.00372435;-0.181273;-0.110755;0.212463;-6.02165;-0.000928584;0.000550242;-0.000259342;5.00382e-05;-0.00123796;0.000644001;-3.58054;-0.279287;0.000842484;0.000858668;0.0404197;24.7404;127.662;172.662;0.000603886;-0.000928434;0.00116453;-6.36355e-05;-0.000259868;-0.0031318;0.00541336;0;0.025792;-0.0114627;-0.175118;-0.413475;0.449176;-6.53977;0.00111192;0.000971727;-0.000588535;0.00155287;-0.00102949;0.00129118;1.8893;0.529298;0.00150109;0.00172157;1.50839;0.662958;12.2496;57.2496;-0.00229535;0.00111179;0.000853547;0.00109011;-0.000588427;0.00339776;0.0104116;0;0.0435414;0.0994294;1.1284
138000;139;25.7537;0.000670876;2.60503e-05;-2.29822;25.645;-0.552065;-0.00903567;-0.00490483;-0.306956;-0.00318471;-0.183008;-0.11089;0.214006;-6.02179;-0.00085201;0.000477448;-0.000109688;0.000123896;-0.00108559;0.000604746;-7.7676;-0.12874;0.000768365;0.000806327;0.114128;8.76211;128.242;173.242;0.00159336;-0.000851904;0.00107902;-0.000123682;-0.000110156;-0.00388938;0.00527948;0;0.0253984;-0.0107581;-0.176704;-0.418588;0.454485;-6.54489;0.000847926;0.00084367;-0.00080957;0.0012018;-0.00116345;0.00118262;1.04738;0.954764;0.00136564;0.00157683;1.03297;0.968084;159.127;24.1269;-0.00267178;0.000847506;0.000441974;0.00124603;-0.000809311;0.00185597;0.00985225;0;0.0425275;0.111629;1.13022
139000;140;25.7521;-0.00090933;-3.53096e-05;-2.29783;25.6433;-0.562244;-0.00864207;-0.00667762;-0.317135;-0.00236635;-0.185467;-0.112662;0.217017;-6.02356;-0.000929731;0.000297385;-0.000330193;-0.000207707;-0.00105222;0.000422255;-2.81572;-0.355149;0.000643515;0.000563007;-0.197399;-5.06587;133.923;178.923;0.00103167;-0.000929762;0.000981551;-0.00038637;-0.000330631;-0.00379044;0.00433298;0;0.0225078;-0.00985969;-0.179072;-0.425216;0.46149;-6.55151;0.000652134;0.000792177;-0.000895739;0.000985682;-0.00122929;0.00110748;0.728041;1.37355;0.00128139;0.00147665;0.801833;1.24714;149.91;14.9096;-0.00149818;0.000651703;0.00036382;0.0012212;-0.000895491;-0.00289153;0.0110614;0;0.0390276;0.124029;1.13719
140000;141;25.7523;-0.000763446;-2.96449e-05;-2.29817;25.6433;-0.564509;-0.00897687;-0.00661088;-0.3194;-0.00229485;-0.188818;-0.11074;0.218908;-6.02164;-0.0008337;0.000218403;0.000320455;0.000360401;-0.000873646;0.000617024;2.60162;0.384377;0.00073273;0.000822698;0.412525;2.42409;133.636;178.636;0.00124918;-0.000833839;0.00100745;-0.000569734;0.000319971;-0.00441675;0.00464297;0;0.0231342;-0.00975261;-0.181698;-0.430743;0.467599;-6.55704;0.000734533;0.000873601;-0.000910125;0.00111196;-0.00128755;0.00119975;0.807068;1.23905;0.00138659;0.00159967;0.863622;1.15791;154.698;19.6976;-0.00259787;0.000733707;0.000194101;0.00155422;-0.000909762;-0.00128111;0.0142357;0;0.037273;0.141357;1.14414
141000;142;25.7518;-0.0012125;-4.7082e-05;-2.29878;25.6425;-0.577508;-0.00958907;-0.00740618;-0.332399;-0.00203508;-0.192045;-0.110939;0.221795;-6.02183;-0.000714248;0.000223899;0.000480045;0.000520641;-0.000754843;0.000637742;1.48788;0.672099;0.000740528;0.000850323;0.689734;1.44983;128.653;173.653;0.00137547;-0.000714416;0.00107012;-0.00062131;0.000479498;-0.00534454;0.00541095;0;0.0228375;-0.00931524;-0.185079;-0.437476;0.475107;-6.56377;0.000612969;0.000864748;-0.000746721;0.00103311;-0.00116687;0.00109999;0.820881;1.2182;0.00127094;0.00146665;0.885375;1.12946;158.93;23.9305;-0.00278734;0.000611681;-9.26536e-05;0.00182345;-0.000746351;0.00130241;0.0174994;0;0.0380687;0.169487;1.15274
142000;143;25.7525;-0.000542543;-2.10671e-05;-2.29829;25.6431;-0.583756;-0.00910518;-0.00682911;-0.338402;-0.000939455;-0.195001;-0.109508;0.223648;-6.0204;-0.000742679;-1.68997e-06;0.000292524;0.000292526;-0.000742681;0.000517604;2.53887;0.393876;0.000616226;0.000690139;0.393879;2.53885;141.409;6.40928;0.00135694;-0.000743182;0.00100071;-0.00100305;0.000292023;-0.00745223;0.00502749;0;0.0225499;-0.00847553;-0.18912;-0.438351;0.477482;-6.56392;0.00035577;0.000884902;-0.00076357;0.000843135;-0.00125093;0.00104704;0.46593;2.14624;0.00121663;0.00139605;0.674004;1.48367;157.985;22.9847;-0.0037612;0.000354421;-9.50169e-05;0.00186592;-0.000763182;0.00335014;0.019277;0;0.0360514;0.187889;1.15868
143000;144;25.7547;0.00164758;6.39762e-05;-2.29804;25.6453;-0.585332;-0.00885293;-0.00464531;-0.340223;-0.000892553;-0.197699;-0.110339;0.226408;-6.02124;-0.00060347;-0.000161196;0.000744186;0.000763199;-0.000622482;0.000692841;0.810912;1.23318;0.000801397;0.000923788;1.22606;0.815622;139.884;4.88415;0.00107575;-0.000604254;0.000941382;-0.00126229;0.000743757;-0.00550775;0.00680681;0;0.0213008;-0.00807861;-0.192399;-0.443561;0.483559;-6.56986;0.000344302;0.000692801;-0.000610124;0.000708341;-0.000974164;0.000841252;0.564314;1.77206;0.000975428;0.00112167;0.727128;1.37527;160.148;25.1477;-0.00402424;0.000342215;-0.00077055;0.00215755;-0.000610181;-0.000546882;0.0221679;0;0.042558;0.20597;1.16642
144000;145;25.7599;0.00684865;0.000265935;-2.2969;25.6508;-0.577508;-0.0077132;0.000857359;-0.332399;-0.000745759;-0.201653;-0.109826;0.229622;-6.02072;-0.000446607;-0.000291475;0.000896463;0.000956991;-0.000507135;0.000732063;0.498188;2.00728;0.000858511;0.000976084;1.88705;0.529927;141.784;6.78404;0.000368863;-0.000447821;0.00100396;-0.00158517;0.000896002;-0.00448496;0.00622649;0;0.022372;-0.00755669;-0.198255;-0.44344;0.4858;-6.56683;0.000500248;0.000698239;-0.00071982;0.000817403;-0.00103697;0.000927189;0.694962;1.43893;0.00107312;0.00123625;0.788257;1.26862;156.522;21.5223;-0.0038042;0.000498923;-0.00037382;0.00177161;-0.000719646;-0.00145718;0.0204668;0;0.0439112;0.233617;1.17386
145000;146;25.7617;0.00860648;0.000334193;-2.29605;25.6525;-0.583754;-0.00686522;0.00255722;-0.338645;-0.00011748;-0.207491;-0.10863;0.234208;-6.01953;-0.000465909;-0.000427284;0.00127517;0.00137438;-0.000565117;0.000969748;0.36537;2.73695;0.0011518;0.001293;2.43202;0.41118;140.547;5.54714;0.00134192;-0.000467692;0.00108385;-0.00193579;0.00127467;-0.00833763;0.00654194;0;0.0216202;-0.00635093;-0.20444;-0.447045;0.491615;-6.57043;0.000600233;0.000805408;-0.000484973;0.00102876;-0.000913503;0.000971133;1.23766;0.807976;0.00112203;0.00129484;1.12617;0.887963;164.489;29.4894;-0.00514676;0.00059868;-0.000325986;0.00193803;-0.000484702;-0.00156956;0.0192986;0;0.0455915;0.266364;1.18146
146000;147;25.7599;0.00686171;0.000266443;-2.29611;25.6506;-0.588439;-0.00692077;0.000695338;-0.343085;0.000195357;-0.212094;-0.108455;0.238215;-6.01935;-0.000287411;-0.000198964;0.00213657;0.00215279;-0.000303633;0.00122821;0.13452;7.43385;0.00154637;0.00163762;7.0901;0.141042;124.538;169.538;0.00126574;-0.000288987;0.00139214;-0.00178622;0.00213562;-0.00955858;0.00830001;0;0.0226937;-0.00572302;-0.208943;-0.448858;0.49514;-6.57148;0.000517862;0.000997448;-0.000609142;0.00109998;-0.00119126;0.00114562;0.85015;1.17626;0.00132319;0.00152749;0.923375;1.08298;163.43;28.4298;-0.00661373;0.000516908;0.000291429;0.00170426;-0.000608687;-0.00624632;0.0231624;0;0.0478843;0.29975;1.18907
147000;148;25.7583;0.00521105;0.000202347;-2.29547;25.649;-0.591906;-0.00628021;-0.000987132;-0.346797;0.000560945;-0.217237;-0.110145;0.243566;-6.02104;-0.000461863;-0.000103945;0.00201577;0.00202012;-0.000466216;0.00124317;0.229125;4.36443;0.00152608;0.00165756;4.33302;0.230786;124.369;169.369;0.000354617;-0.000463294;0.00149074;-0.00169468;0.00201467;-0.00691456;0.00851283;0;0.021589;-0.00474102;-0.213792;-0.453987;0.501831;-6.57738;0.000396078;0.000846151;-0.000532158;0.000897038;-0.00103312;0.000965078;0.744287;1.34357;0.0011153;0.00128677;0.868283;1.1517;163.748;28.7482;-0.00357118;0.00039468;-0.000180957;0.00187421;-0.000531816;-0.00563581;0.0191504;0;0.0444584;0.339568;1.19683
148000;149;25.7584;0.00531581;0.000206415;-2.29582;25.649;-0.591182;-0.00663201;-0.000896724;-0.346074;0.00026392;-0.220465;-0.112014;0.247289;-6.02291;-0.00056356;-8.96955e-05;0.00199464;0.00199778;-0.000566701;0.00128224;0.282537;3.53936;0.00155555;0.00170965;3.52528;0.283665;124.663;169.663;-0.000419377;-0.000564915;0.00147287;-0.00164827;0.00199356;-0.00585859;0.00811164;0;0.0209126;-0.00424664;-0.216946;-0.456731;0.505655;-6.58012;0.000681307;0.000885551;-0.000360689;0.00118775;-0.000867135;0.00102744;1.8889;0.529408;0.00119119;0.00136992;1.36974;0.730063;169.201;34.2011;-0.00306733;0.000679863;-0.000144486;0.00191666;-0.000360307;-0.0047612;0.0113873;0;0.0474679;0.373931;1.20284
149000;150;25.7582;0.0051504;0.000199992;-2.29578;25.649;-0.587953;-0.0065945;-0.000985257;-0.342844;-0.000245662;-0.224283;-0.113761;0.251485;-6.02466;-0.000473614;7.72946e-05;0.00210013;0.00210245;-0.000475933;0.00128919;0.225516;4.43427;0.00158429;0.00171892;4.41754;0.226371;119.099;164.099;-0.000833814;-0.000474635;0.00158892;-0.00143045;0.00209888;-0.00475301;0.0064434;0;0.0215952;-0.00390633;-0.221007;-0.460611;0.510903;-6.584;0.000991734;0.000915357;-0.000643318;0.00140149;-0.00105308;0.00122728;1.54159;0.64868;0.0014219;0.00163638;1.33085;0.751397;165.366;30.366;-0.00512935;0.000990703;0.000128713;0.00170329;-0.000642907;-0.00308492;0.0194507;0;0.0452687;0.414574;1.20718
150000;151;25.756;0.00289953;0.00011259;-2.29525;25.6465;-0.597026;-0.0060609;-0.00340755;-0.351917;-0.000657568;-0.228575;-0.112073;0.254573;-6.02297;-0.000468891;-3.84621e-06;0.00158077;0.00158078;-0.000468898;0.00102484;0.296622;3.3713;0.00124006;0.00136645;3.37126;0.296625;124.488;169.488;-3.76065e-05;-0.000469923;0.0014315;-0.00143626;0.00157975;-0.0061797;0.00644531;0;0.0242601;-0.00388978;-0.225301;-0.462175;0.51418;-6.58556;0.000659263;0.000791021;-0.000300672;0.00110454;-0.000745952;0.000925247;2.19263;0.456073;0.00107505;0.00123366;1.48072;0.675349;167.837;32.8369;-0.00454257;0.000656983;-0.000694519;0.00227798;-0.0003006;-0.00133334;0.0173393;0;0.0423046;0.459743;1.21242
151000;152;25.7536;0.000534832;2.07677e-05;-2.29435;25.644;-0.608686;-0.00516448;-0.00597624;-0.363577;-0.0010295;-0.232991;-0.111468;0.258284;-6.02236;-0.000705664;0.000177377;0.00170646;0.00171944;-0.000718638;0.00121904;0.413524;2.41824;0.00144661;0.00162538;2.39263;0.417949;120.737;165.737;-0.000692322;-0.000706353;0.00154528;-0.00118723;0.00170529;-0.00404041;0.00332042;0;0.0219208;-0.00376329;-0.230164;-0.464656;0.518551;-6.59095;0.000366321;0.000691267;-0.000322588;0.0007942;-0.000750467;0.000772334;1.13557;0.880614;0.000891933;0.00102978;1.05828;0.944934;167.064;32.0641;-0.00293103;0.000362147;-0.00158727;0.00297137;-0.000323609;-0.0025995;0.0190473;0;0.0401259;0.507954;1.21838
152000;153;25.7536;0.000580982;2.25597e-05;-2.29397;25.6439;-0.613567;-0.00478183;-0.00601199;-0.368459;-0.00118146;-0.237042;-0.109866;0.261268;-6.02076;-0.000843537;0.000183325;0.00118416;0.00120061;-0.000859978;0.00103029;0.712348;1.40381;0.00119508;0.00137372;1.39609;0.716287;125.689;170.689;-0.000194394;-0.000843999;0.00134657;-0.000977564;0.00118328;-0.0035371;0.00458281;0;0.0264914;-0.0029798;-0.235145;-0.465062;0.521138;-6.59136;0.000371089;0.000717944;-6.91229e-05;0.00090191;-0.000599943;0.000750926;5.36855;0.18627;0.000872918;0.00100124;1.50333;0.665192;173.504;38.5036;-0.00339954;0.000367192;-0.00144651;0.00288335;-6.99114e-05;-0.00350277;0.0218531;0;0.0438151;0.561133;1.2255
153000;154;25.7568;0.00377363;0.000146531;-2.29453;25.6471;-0.612039;-0.00534652;-0.00281969;-0.366931;-0.00154974;-0.240045;-0.110916;0.264436;-6.02181;-0.000718182;0.000244157;0.00124179;0.00127174;-0.000748139;0.00100994;0.578346;1.72907;0.00117917;0.00134659;1.69988;0.588278;122.129;167.129;0.000649024;-0.000718669;0.00150794;-0.00101715;0.00124068;-0.00527396;0.00503211;0;0.0254071;-0.00310017;-0.239556;-0.466861;0.524743;-6.59316;0.000261808;0.000662788;0.000151011;0.000871509;-0.00045869;0.000665099;-1.73371;-0.576799;0.000780221;0.000886799;1.9;0.526317;179.747;44.7474;-0.00193781;0.000255977;-0.0021534;0.00347928;0.000148912;-0.00937461;0.0223826;0;0.0405973;0.6072;1.23208
154000;155;25.7622;0.0091515;0.000355356;-2.29286;25.6528;-0.605276;-0.00367533;0.00289107;-0.360168;-0.00237305;-0.243629;-0.111389;0.267896;-6.02228;-0.000741854;8.81954e-05;0.000670416;0.000675903;-0.000747341;0.000711622;1.10656;0.903703;0.000822055;0.000948829;0.90441;1.10569;132.255;177.255;0.000559975;-0.000742502;0.0013189;-0.00114077;0.000669551;-0.00639079;0.00480647;0;0.0238502;-0.00357365;-0.245285;-0.468695;0.529011;-6.59499;-6.87494e-05;0.000585129;3.90133e-05;0.000572736;-0.000602472;0.000587604;1.7622;0.567471;0.000678579;0.000783472;0.950643;1.05192;2.52293;47.5229;-0.00330735;-7.4527e-05;-0.00227923;0.00344918;3.65871e-05;-0.00489003;0.0213667;0;0.0432619;0.665595;1.23953
155000;156;25.7649;0.0118587;0.000460477;-2.29285;25.6554;-0.611686;-0.00366678;0.00545856;-0.366577;-0.0029531;-0.247036;-0.111467;0.271036;-6.02236;-0.000786625;-7.71607e-05;0.000643865;0.000648015;-0.000790775;0.000719395;1.22172;0.818516;0.000832048;0.000959194;0.819468;1.2203;139.711;4.71132;0.00114649;-0.000787486;0.00116132;-0.00131387;0.000643195;-0.00691603;0.00370556;0;0.0225803;-0.00375795;-0.250777;-0.471946;0.53445;-6.59824;0.000109442;0.000322863;0.000290854;0.000535511;-0.000135215;0.000335363;-0.376278;-2.65761;0.000409587;0.00044715;3.96044;0.252497;10.0287;55.0287;-0.00110724;0.000105019;-0.00234665;0.00299189;0.000288153;-0.0062961;0.0183281;0;0.0479168;0.718374;1.247
156000;157;25.7689;0.0158736;0.000616377;-2.29188;25.6595;-0.612152;-0.00269399;0.00956637;-0.367044;-0.00377197;-0.250158;-0.110213;0.273387;-6.02111;-0.000854232;9.24513e-05;0.00035738;0.000364394;-0.000861246;0.00061282;2.39026;0.418364;0.000726746;0.000817093;0.423101;2.3635;136.974;1.97356;0.00147293;-0.000854742;0.00119932;-0.00101308;0.000356665;-0.00638254;0.00465487;0;0.0240987;-0.00431373;-0.255779;-0.472171;0.537017;-6.59556;0.000334175;0.000627784;0.000292749;0.000941588;-0.000314664;0.000628126;-1.14151;-0.876035;0.000754802;0.000837501;2.99236;0.334184;3.70513;48.7051;-0.00391755;0.000331112;-0.0012983;0.00255395;0.000292103;-0.00166347;0.018948;0;0.0456585;0.771495;1.25473
157000;158;25.7705;0.0174012;0.000675695;-2.29261;25.661;-0.612822;-0.00341716;0.0110199;-0.367714;-0.00393401;-0.253018;-0.109699;0.275804;-6.02059;-0.000693734;0.000120586;0.000760146;0.00077008;-0.000703668;0.000736874;0.912633;1.09573;0.000851156;0.000982498;1.09438;0.91376;129.474;174.474;0.00103672;-0.000694298;0.00131132;-0.00106842;0.000759294;-0.00618961;0.00539524;0;0.0261957;-0.00424491;-0.259676;-0.473474;0.540025;-6.59686;0.000465281;0.000794172;6.11956e-05;0.00108271;-0.000556231;0.00081947;-7.60318;-0.131524;0.000962378;0.00109263;1.94651;0.513741;176.573;41.5725;-0.00371241;0.000461586;-0.00124356;0.00283273;6.07377e-05;-0.00124709;0.0175792;0;0.0494426;0.825451;1.26169
158000;159;25.77;0.0169159;0.000656851;-2.29155;25.6605;-0.616065;-0.0023598;0.0105494;-0.370956;-0.00514097;-0.255556;-0.115923;0.280666;-6.02682;-0.000647199;-0.000171382;0.00090268;0.000921404;-0.000665923;0.000793664;0.716975;1.39475;0.000920392;0.00105822;1.38365;0.722727;138.531;3.53073;0.001008;-0.000648354;0.00118867;-0.00152933;0.000901988;-0.00690944;0.00564442;0;0.0219983;-0.00552191;-0.262902;-0.482531;0.549531;-6.60592;0.000303573;0.000828458;0.000155584;0.00106133;-0.000602177;0.000831755;-1.95118;-0.512511;0.000972547;0.00110901;1.76249;0.567378;0.420049;45.42;-0.00405429;0.000299241;-0.00140079;0.00305803;0.000154946;-0.0017036;0.0194707;0;0.0466995;0.886372;1.26872
159000;160;25.7695;0.016432;0.000638059;-2.29144;25.66;-0.615485;-0.00224696;0.0100873;-0.370376;-0.00596288;-0.259632;-0.114456;0.283803;-6.02535;-0.000472539;-0.000230997;0.0011233;0.00115607;-0.000505303;0.000830685;0.420669;2.37716;0.000983415;0.00110758;2.28787;0.437088;136.846;1.84598;0.00107444;-0.000473973;0.00124895;-0.00170859;0.00112255;-0.00752804;0.00665187;0;0.022194;-0.00627375;-0.26738;-0.4823;0.551494;-6.60569;0.000120703;0.00073104;0.000128421;0.000855613;-0.000606488;0.00073105;-0.939897;-1.06395;0.000848219;0.000974734;1.41077;0.708835;1.78383;46.7838;-0.00318179;0.000116595;-0.0014961;0.00295816;0.00012757;-0.00804492;0.0232717;0;0.0456337;0.950713;1.27588
160000;161;25.7698;0.0167566;0.000650663;-2.29107;25.6604;-0.614395;-0.00188092;0.0104721;-0.369286;-0.00633665;-0.262832;-0.115531;0.287173;-6.02643;-0.000620746;-0.000192411;0.00180802;0.00182317;-0.000635894;0.00122953;0.343329;2.91266;0.00147387;0.00163938;2.8671;0.348785;129.47;174.47;0.000476998;-0.000622385;0.00143956;-0.00182043;0.00180701;-0.00736475;0.00663187;0;0.0223701;-0.0067174;-0.271037;-0.485244;0.555849;-6.60863;4.06672e-05;0.000561741;0.000302353;0.000748289;-0.000405268;0.000576778;-0.134502;-7.43483;0.00067575;0.000769038;1.8464;0.541593;8.6605;53.6605;-0.00263843;3.65316e-05;-0.00180749;0.00293035;0.000300878;-0.01166;0.0193708;0;0.0446323;1.01738;1.28224
161000;162;25.7687;0.0156721;0.000608555;-2.29048;25.6592;-0.621131;-0.0012898;0.00927366;-0.376023;-0.00659362;-0.266355;-0.113635;0.289657;-6.02453;-0.000445318;-0.000435846;0.00169405;0.00177944;-0.000530704;0.00115507;0.262872;3.80414;0.0013972;0.00154009;3.35298;0.298243;136.023;1.02303;0.00143686;-0.000447521;0.00127512;-0.00214315;0.00169333;-0.00956609;0.00836446;0;0.0246841;-0.00650096;-0.274895;-0.482385;0.555252;-6.60577;0.000476006;0.000580285;0.000165319;0.00092138;-0.000280055;0.000600718;-2.87931;-0.347305;0.000725844;0.000800957;3.28999;0.303952;177.856;42.8563;-0.0039821;0.000473562;-0.00112484;0.00228593;0.000164855;-0.00880683;0.0214508;0;0.0483104;1.07072;1.2841
162000;163;25.7662;0.0131831;0.000511904;-2.2917;25.6565;-0.624028;-0.0025101;0.00659475;-0.378919;-0.0073208;-0.271004;-0.116163;0.294942;-6.02706;-0.000432333;-0.00050563;0.00198006;0.00208175;-0.000534024;0.00130789;0.218343;4.57994;0.00159591;0.00174385;3.89823;0.256526;134.697;179.697;0.000568442;-0.000434854;0.00129426;-0.00230118;0.00197935;-0.00959513;0.00756974;0;0.0223891;-0.00766124;-0.278779;-0.488297;0.562326;-6.61168;0.000331549;0.000684668;0.000268288;0.000985316;-0.00038548;0.000685398;-1.2358;-0.809195;0.000816296;0.000913864;2.55608;0.391224;2.59203;47.592;-0.00229192;0.000327625;-0.00151471;0.00288418;0.000267375;-0.00480205;0.0185597;0;0.0411027;1.13997;1.29107
163000;164;25.7648;0.011783;0.000457537;-2.29152;25.655;-0.628326;-0.00232971;0.00509984;-0.383217;-0.00811705;-0.274071;-0.118839;0.298837;-6.02974;-0.000480251;-0.000228541;0.00194234;0.00196371;-0.000501622;0.00123267;0.247253;4.04444;0.00150449;0.00164356;3.91473;0.255445;129.153;174.153;0.000612946;-0.000482239;0.00155425;-0.00200702;0.00194116;-0.0097281;0.01013;0;0.0226856;-0.00867902;-0.281939;-0.492516;0.567571;-6.61881;8.45421e-05;0.000707853;0.000284759;0.000899547;-0.000530246;0.000714897;-0.29689;-3.36825;0.00083462;0.000953195;1.69647;0.589459;6.08043;51.0804;-0.00224604;7.92662e-05;-0.00190952;0.00332469;0.000283187;-0.00130014;0.0183914;0;0.0407174;1.20946;1.2988
164000;165;25.765;0.0119778;0.000465103;-2.29162;25.6552;-0.629121;-0.00243673;0.00526649;-0.384012;-0.00911864;-0.277579;-0.118528;0.301964;-6.02942;-0.000510983;-0.00019321;0.00261517;0.00262707;-0.000522879;0.00157497;0.195392;5.11792;0.00194919;0.00209996;5.02423;0.199035;122.219;167.219;-0.000401472;-0.000512656;0.00145774;-0.00183902;0.00261413;-0.00714025;0.00765757;0;0.0212098;-0.00928192;-0.285852;-0.493067;0.570012;-6.61937;0.000237584;0.00058851;0.000217653;0.000816213;-0.000360975;0.000588594;-1.09157;-0.916109;0.000696384;0.000784792;2.26113;0.442256;2.08616;47.0862;-0.00319995;0.000232782;-0.00197788;0.00315495;0.000215871;-0.00127001;0.0227273;0;0.0387407;1.27234;1.30612
165000;166;25.7661;0.013053;0.000506851;-2.29204;25.6562;-0.631377;-0.00284825;0.00625403;-0.386268;-0.0098448;-0.280982;-0.119438;0.305472;-6.03033;-0.000597208;0.000128765;0.00208771;0.00209387;-0.000603369;0.00134862;0.286058;3.49579;0.00163459;0.00179816;3.47031;0.288159;120.225;165.225;-0.0012698;-0.000598388;0.00180365;-0.00154163;0.0020861;-0.00578276;0.00954139;0;0.0204896;-0.00999072;-0.289921;-0.495408;0.574094;-6.62171;-0.000176128;0.000540977;0.000742115;0.000992534;-0.000426548;0.000709541;0.237333;4.2135;0.000840748;0.000946055;2.3269;0.429756;22.6851;67.6851;-0.00048354;-0.000183217;-0.00272467;0.00380362;0.000738552;-0.00801877;0.0172115;0;0.0391312;1.3395;1.31377
166000;167;25.7701;0.0170724;0.000662925;-2.2924;25.6604;-0.621573;-0.00321321;0.0104974;-0.376464;-0.0103626;-0.284376;-0.119728;0.308726;-6.03062;-0.000562562;0.000162152;0.00168817;0.00169979;-0.000574184;0.00113699;0.333238;3.00086;0.00136544;0.00151598;2.96036;0.337797;120.845;165.845;-0.000897284;-0.000563497;0.00170503;-0.00137726;0.00168673;-0.00478704;0.00986807;0;0.0213399;-0.0104334;-0.293956;-0.497443;0.5779;-6.62374;-0.000259914;0.000533399;0.000840618;0.00105671;-0.000476007;0.00076636;0.309194;3.23422;0.000905839;0.00102181;2.21995;0.450461;25.5229;70.5229;-0.00107945;-0.000267036;-0.00274798;0.00381117;0.000836988;-0.00580201;0.0246784;0;0.0396191;1.40632;1.32074
167000;168;25.7725;0.0194849;0.000756605;-2.29253;25.6627;-0.626811;-0.00333741;0.0127817;-0.381703;-0.0113978;-0.288367;-0.119036;0.312178;-6.02993;-0.000683224;9.45478e-05;0.00158134;0.00158528;-0.000687164;0.00113622;0.432053;2.31453;0.00134572;0.00151497;2.30699;0.433465;124.129;169.129;-0.000169026;-0.000684172;0.00157213;-0.00137969;0.00158011;-0.00456518;0.00635818;0;0.0236117;-0.0115214;-0.299942;-0.497807;0.581301;-6.62411;-1.69416e-05;0.000586771;0.000689613;0.00102125;-0.000348577;0.000684913;0.0245669;40.7052;0.00082204;0.000913217;2.92976;0.341325;18.8056;63.8056;-0.00238229;-2.30688e-05;-0.00237799;0.00354943;0.000686959;-0.0017875;0.0285891;0;0.0448663;1.48163;1.32794
168000;169;25.7749;0.0218242;0.000847442;-2.29135;25.6651;-0.629158;-0.00216422;0.0151784;-0.384049;-0.0121869;-0.291122;-0.120103;0.31516;-6.031;-0.000754852;0.000254014;0.00106501;0.0010998;-0.000789642;0.000944722;0.708773;1.41089;0.00109576;0.00125963;1.39279;0.717986;123.962;168.962;-0.00137778;-0.000755446;0.00162965;-0.00111912;0.00106372;-0.00255617;0.00636653;0;0.0235724;-0.012189;-0.304409;-0.500695;0.586097;-6.62408;-0.000200246;0.000580396;0.00117022;0.00138299;-0.000413013;0.000898;0.171118;5.84391;0.00108616;0.00119733;3.34853;0.298638;29.0896;74.0896;-0.000520034;-0.000207619;-0.00272719;0.00388345;0.00116667;-0.0124501;0.0287736;0;0.0471474;1.55158;1.33512
169000;170;25.7778;0.0247538;0.0009612;-2.29142;25.668;-0.63114;-0.00222687;0.0180687;-0.385786;-0.0128094;-0.29328;-0.121015;0.317525;-6.03191;-0.00087453;0.000340152;0.00140152;0.00145126;-0.000924278;0.00118777;0.623989;1.60259;0.00138272;0.00158369;1.57016;0.636878;120.562;165.562;-0.000754727;-0.000874857;0.00156049;-0.000877417;0.00140036;-0.00349003;0.00485193;0;0.0226194;-0.0131341;-0.308207;-0.502763;0.58986;-6.62538;-0.000327277;0.000526103;0.000873479;0.00107137;-0.000525171;0.000798272;0.374682;2.66893;0.000939574;0.00106436;2.04005;0.490185;27.4425;72.4425;-0.00224469;-0.000331965;-0.0020574;0.00310651;0.000871503;-0.00896598;0.034022;0;0.0492599;1.61667;1.34274
170000;171;25.7789;0.0257974;0.00100172;-2.29144;25.669;-0.631295;-0.00224781;0.0191087;-0.386187;-0.012993;-0.296107;-0.122386;0.320666;-6.03328;-0.000896549;0.000112198;0.00125033;0.00125618;-0.000902397;0.00107929;0.71705;1.3946;0.00125182;0.00143905;1.39205;0.718367;128.248;173.248;-0.000690539;-0.0008973;0.00145748;-0.0012302;0.00124928;-0.00288128;0.00478468;0;0.0233767;-0.0133951;-0.312242;-0.507589;0.596088;-6.63098;-0.000136501;0.000576949;0.00112596;0.0013499;-0.000360445;0.000855173;0.121231;8.24873;0.00104109;0.00114023;3.7451;0.267015;28.8348;73.8348;-0.00282151;-0.000142036;-0.0022264;0.00337676;0.00112365;-0.00920445;0.0303653;0;0.0494975;1.68589;1.34912
171000;172;25.7794;0.0263152;0.00102183;-2.29234;25.6694;-0.636269;-0.00315363;0.019425;-0.39116;-0.013703;-0.298564;-0.12301;0.323202;-6.03391;-0.00101038;0.000105082;0.000908033;0.000913772;-0.00101612;0.000964945;1.11271;0.898706;0.00111474;0.00128659;0.899278;1.112;133.091;178.091;0.000334733;-0.00101096;0.00129378;-0.00108134;0.000907202;-0.00490254;0.0053671;0;0.0220855;-0.0140274;-0.315968;-0.508733;0.599034;-6.63212;0.00022792;0.000704742;0.000991881;0.00141151;-0.000191704;0.000801605;-0.229785;-4.35189;0.00101098;0.00106881;7.36293;0.135815;23.0991;68.0991;-0.00488995;0.000224744;-0.00120937;0.00261739;0.000991399;-0.00227253;0.0298696;0;0.0475688;1.75391;1.35159
172000;173;25.7806;0.0275513;0.00106983;-2.29113;25.6707;-0.63555;-0.00194649;0.020792;-0.390441;-0.0143849;-0.301009;-0.124178;0.325935;-6.03507;-0.000905539;0.000231159;0.000786027;0.000817047;-0.000936559;0.000876803;1.15205;0.868021;0.00101323;0.00116907;0.872392;1.14627;128.736;173.736;-0.000581705;-0.000906006;0.00145708;-0.000992688;0.000784993;-0.00402594;0.00624203;0;0.0219352;-0.0150751;-0.318663;-0.513094;0.604184;-6.63648;-1.97755e-05;0.000586997;0.000981911;0.0012527;-0.00029056;0.000771628;0.0201398;49.6529;0.000946962;0.00102884;4.31131;0.231948;25.7252;70.7252;-0.00114843;-2.43553e-05;-0.00191134;0.00308283;0.000980258;-0.00888497;0.0215689;0;0.0467558;1.82706;1.35917
173000;174;25.7807;0.0276495;0.00107364;-2.2925;25.6706;-0.638574;-0.00330894;0.0206939;-0.393465;-0.0155502;-0.303462;-0.126674;0.329207;-6.03757;-0.000989571;1.70042e-05;0.000249343;0.000249576;-0.000989804;0.00061969;3.96872;0.25197;0.000756903;0.000826253;0.252147;3.96594;142.822;7.82212;0.000651377;-0.00099026;0.00120943;-0.00117394;0.000248612;-0.00487329;0.00612472;0;0.0221194;-0.016123;-0.321981;-0.516923;0.609214;-6.64031;0.000177243;0.000901121;0.000607782;0.00131899;-0.000533965;0.000926477;-0.291623;-3.42909;0.00110134;0.0012353;2.47018;0.404829;12.1403;57.1403;-0.000660126;0.000173264;-0.00116008;0.00296143;0.000607515;-0.0101871;0.0197369;0;0.0488757;1.90139;1.36558
174000;175;25.7809;0.0277986;0.00107943;-2.29208;25.6708;-0.639454;-0.00289134;0.020859;-0.394345;-0.0160407;-0.305008;-0.13057;0.332168;-6.04147;-0.00097751;-1.70212e-05;0.000531885;0.000532077;-0.000977702;0.000754889;1.83782;0.544123;0.000884237;0.00100652;0.544212;1.83752;140.362;5.36246;0.000366959;-0.000978424;0.00131944;-0.00135147;0.000531015;-0.00498711;0.00708128;0;0.021207;-0.01723;-0.324088;-0.523751;0.616153;-6.64714;-5.09441e-05;0.00106201;0.00103356;0.00168374;-0.000701125;0.00119243;0.04929;20.2881;0.00141532;0.00158991;2.40148;0.41641;19.6517;64.6517;-0.000790551;-5.59437e-05;-0.00121412;0.00333566;0.00103338;-0.00447838;0.0154111;0;0.0452773;1.96969;1.37256
175000;176;25.7817;0.0285963;0.0011104;-2.29217;25.6715;-0.641636;-0.00298079;0.0215977;-0.396528;-0.0167503;-0.307813;-0.131117;0.334994;-6.04201;-0.00100974;-2.43419e-05;0.00066178;0.000662134;-0.00101009;0.000836112;1.52579;0.655399;0.000972401;0.00111482;0.65552;1.52551;139.347;4.34729;0.000181134;-0.00101075;0.00138018;-0.00142652;0.000660828;-0.00561056;0.00763;0;0.0205528;-0.0181609;-0.327055;-0.526334;0.619937;-6.65263;-4.11836e-05;0.000948924;0.000832166;0.00144007;-0.000649086;0.00104458;0.0494896;20.2063;0.00123465;0.00139277;2.21861;0.450733;17.0863;62.0863;-0.00107469;-4.63082e-05;-0.00144329;0.00333905;0.000831576;-0.00550166;0.0175223;0;0.0436813;2.04543;1.37982
176000;177;25.7825;0.0294272;0.00114267;-2.29187;25.6725;-0.63876;-0.00267695;0.022531;-0.393652;-0.0170465;-0.309402;-0.13069;0.336303;-6.04159;-0.00102625;0.000187804;0.000590682;0.000612209;-0.00104778;0.000829994;1.7374;0.575572;0.000969329;0.00110666;0.584292;1.71147;132.908;177.908;0.000368402;-0.00102695;0.00157423;-0.00119638;0.000589462;-0.00636614;0.00782183;0;0.0242236;-0.0183582;-0.329013;-0.528061;0.622443;-6.65291;-0.000226499;0.000860119;0.000870904;0.00134244;-0.000698031;0.00102023;0.260073;3.84507;0.00119749;0.00136031;1.92318;0.519973;19.5664;64.5664;-0.000351004;-0.0002329;-0.00196253;0.00367966;0.000869349;-0.00312806;0.0146246;0;0.0465945;2.11102;1.38722
177000;178;25.7831;0.0300284;0.00116601;-2.29081;25.6732;-0.638034;-0.00162635;0.0232467;-0.392926;-0.0175816;-0.312568;-0.131878;0.339705;-6.04277;-0.000771355;-0.000144333;0.00129319;0.00130323;-0.000781397;0.00104231;0.596475;1.67652;0.00121606;0.00138975;1.66782;0.599585;134.21;179.21;0.0011011;-0.000772796;0.0014175;-0.00170295;0.0012922;-0.00844545;0.00974493;0;0.0235336;-0.018932;-0.333349;-0.529376;0.625875;-6.65567;-6.0708e-05;0.00100428;0.000867582;0.00150979;-0.000702914;0.00110635;0.0699738;14.2911;0.00130551;0.00147514;2.1479;0.465571;16.3087;61.3087;0.000455796;-6.81109e-05;-0.00197082;0.00397661;0.000866146;-0.0043902;0.0171443;0;0.0425652;2.19139;1.39422
178000;179;25.7819;0.0288479;0.00112017;-2.29193;25.6717;-0.644773;-0.00273869;0.0217934;-0.399665;-0.0179651;-0.315301;-0.134127;0.343114;-6.04502;-0.0008026;-0.000356956;0.0012745;0.00133414;-0.000862232;0.00109818;0.629735;1.58797;0.00127779;0.00146425;1.54731;0.646285;140.609;5.60887;0.00066466;-0.000804744;0.00139011;-0.00210039;0.0012736;-0.00843846;0.0105966;0;0.0215738;-0.0195953;-0.336489;-0.532445;0.630164;-6.65874;-5.68119e-05;0.00086194;0.00110757;0.00156552;-0.000514759;0.00104014;0.0512942;19.4954;0.00125108;0.00138685;3.04126;0.328811;21.5441;66.5441;0.00239523;-6.52382e-05;-0.00247459;0.00419458;0.00110488;-0.012583;0.0218554;0;0.0371923;2.25611;1.40203
179000;180;25.783;0.0299893;0.00116449;-2.29283;25.6726;-0.652218;-0.00363779;0.0226713;-0.40711;-0.0181022;-0.318356;-0.134609;0.346118;-6.04551;-0.000736802;-0.000106478;0.00167753;0.00168221;-0.000741489;0.00121185;0.43922;2.27677;0.00143403;0.0016158;2.2687;0.440782;129.514;174.514;0.00064797;-0.000738327;0.00153993;-0.00174892;0.00167635;-0.00807328;0.00894501;0;0.0207824;-0.020042;-0.340423;-0.534393;0.633928;-6.66069;2.47727e-05;0.000783944;0.00151824;0.00185418;-0.000311165;0.00108267;-0.0163167;-61.287;0.00135183;0.00144356;5.95883;0.167818;29.2865;74.2865;-0.00199826;1.82868e-05;-0.00212246;0.003686;0.0015163;-0.0064796;0.0297144;0;0.0408334;2.32326;1.40929
180000;181;25.7843;0.0312557;0.00121367;-2.29139;25.6741;-0.647048;-0.00220007;0.0242023;-0.40194;-0.0192599;-0.322328;-0.135125;0.350035;-6.04602;-0.00072717;-0.000176688;0.00168165;0.00169454;-0.000740062;0.0012173;0.432415;2.31259;0.00144118;0.00162307;2.28973;0.436733;131.525;176.525;-8.21195e-05;-0.000729011;0.00157674;-0.0019259;0.00168043;-0.00860464;0.0121513;0;0.0191043;-0.020744;-0.345723;-0.535508;0.637749;-6.66181;0.000259198;0.000369022;0.00135297;0.00146583;0.00014634;0.000659746;-0.191576;-5.21985;0.000932277;0.000879661;-10.0166;-0.0998344;37.0468;82.0468;-0.000398893;0.000255221;-0.00210936;0.0028447;0.00135082;-0.00106045;0.0250679;0;0.0386211;2.40255;1.4167
181000;182;25.787;0.0339674;0.00131897;-2.29306;25.6767;-0.647758;-0.00386706;0.026759;-0.402649;-0.0189377;-0.324393;-0.137756;0.352939;-6.04865;-0.000636385;-0.000149027;0.00206207;0.00207028;-0.00064459;0.00135743;0.308614;3.24029;0.00163789;0.00180991;3.21177;0.311354;126.687;171.687;0.000413273;-0.000638061;0.00154301;-0.00183651;0.00206089;-0.00960458;0.0125397;0;0.0217575;-0.0212244;-0.34915;-0.538851;0.64243;-6.66515;-1.74618e-05;0.000312367;0.00145909;0.00152246;-8.08244e-05;0.00080164;0.0119676;83.5591;0.00104296;0.00106885;18.8366;0.0530881;40.487;85.487;-0.00167524;-2.26642e-05;-0.0026203;0.00324071;0.00145571;-0.00196004;0.0300557;0;0.0469214;2.48218;1.42367
182000;183;25.7885;0.0354714;0.00137736;-2.29319;25.6782;-0.647026;-0.0040025;0.0282758;-0.401917;-0.0195366;-0.326817;-0.13636;0.354662;-6.04726;-0.000688374;-0.000167047;0.00185901;0.00186992;-0.000699282;0.0012846;0.370291;2.70058;0.0015338;0.0017128;2.67405;0.373964;129.597;174.597;-0.000697463;-0.000690249;0.00161311;-0.00194268;0.00185773;-0.00905613;0.0109666;0;0.0231335;-0.0216803;-0.352741;-0.538047;0.643732;-6.66435;-0.000199656;0.000661488;0.00165764;0.00186915;-0.000411163;0.00114015;0.120446;8.30248;0.00140337;0.00152021;4.546;0.219974;34.6536;79.6536;-0.00034576;-0.000205357;-0.00212278;0.00344058;0.00165561;-0.00933964;0.0286012;0;0.0533245;2.5424;1.42559
183000;184;25.7903;0.0372764;0.00144746;-2.29423;25.6797;-0.655603;-0.00504578;0.0297779;-0.410495;-0.0205787;-0.330188;-0.137654;0.358325;-6.04855;-0.000756407;-8.37653e-05;0.00208036;0.00208283;-0.000758878;0.00142085;0.363595;2.75031;0.00169898;0.00189447;2.74461;0.36435;126.446;171.446;-0.000857199;-0.000758131;0.00169585;-0.00185834;0.00207892;-0.00742482;0.011392;0;0.0203951;-0.022471;-0.356958;-0.540163;0.647842;-6.66355;-0.000168656;0.000699449;0.00174422;0.00197269;-0.000397123;0.00118491;0.0966937;10.3419;0.00146555;0.00157988;4.96746;0.20131;35.4393;80.4393;-0.00234352;-0.000173783;-0.00188352;0.00327749;0.0017427;-0.00414511;0.0317154;0;0.0478835;2.62476;1.43206
184000;185;25.7906;0.0375802;0.00145925;-2.294;25.68;-0.656042;-0.00481611;0.0300923;-0.410933;-0.0203874;-0.333511;-0.13907;0.361919;-6.04997;-0.000886875;-0.000177273;0.00212154;0.00213195;-0.000897285;0.00151462;0.418034;2.39215;0.0017967;0.00201949;2.376;0.420876;128.652;173.652;-0.00167366;-0.000888727;0.00158221;-0.00193147;0.0021203;-0.00524643;0.0114887;0;0.0237408;-0.0222666;-0.361454;-0.542425;0.652204;-6.66581;0.000100687;0.000755164;0.00147082;0.00180536;-0.000233848;0.0010196;-0.0684561;-14.6079;0.00128861;0.00135947;7.72022;0.12953;30.323;75.323;-0.00339341;9.61009e-05;-0.00161433;0.00312141;0.00146981;-0.00265085;0.026187;0;0.0505103;2.70093;1.4409
185000;186;25.7916;0.0385108;0.00149539;-2.2938;25.6809;-0.659501;-0.00460728;0.030957;-0.414392;-0.0203954;-0.33598;-0.139072;0.364197;-6.04997;-0.000844527;-9.02657e-06;0.00174798;0.00174801;-0.000844559;0.00129628;0.483145;2.06977;0.00152681;0.00172838;2.06973;0.483155;127.957;172.957;-0.00156261;-0.000846081;0.00174867;-0.00176218;0.00174645;-0.00444068;0.0110175;0;0.0240502;-0.0225687;-0.364507;-0.544876;0.655946;-6.66826;-0.000132994;0.000642362;0.001483;0.00170723;-0.000357222;0.00103223;0.089679;11.1509;0.00127403;0.0013763;4.77919;0.20924;34.0083;79.0083;-0.00371247;-0.000137079;-0.00164843;0.00292946;0.00148185;-0.00370505;0.0275918;0;0.0493428;2.77956;1.44796
186000;187;25.7941;0.0410725;0.00159486;-2.29511;25.6834;-0.657407;-0.00592462;0.0334657;-0.412298;-0.0206471;-0.337181;-0.141588;0.366284;-6.05248;-0.000851362;0.000345244;0.00167271;0.00171908;-0.000897733;0.00130841;0.508971;1.96475;0.00153543;0.00174454;1.91491;0.522216;120.146;165.146;-0.0016114;-0.000852093;0.00195134;-0.00125681;0.00167087;-0.00415029;0.0104321;0;0.0214588;-0.0230982;-0.366711;-0.548288;0.660023;-6.67168;0.000103648;0.000928622;0.00172163;0.00214422;-0.000318948;0.00123159;-0.0602036;-16.6103;0.0015468;0.00164211;6.72281;0.148747;32.7004;77.7004;-0.00327961;9.97257e-05;-0.00109696;0.00295093;0.00172146;-0.00428726;0.0246201;0;0.0460613;2.84061;1.45424
187000;188;25.7941;0.0410918;0.00159561;-2.29498;25.6835;-0.655659;-0.00579481;0.0335414;-0.410551;-0.0217209;-0.340492;-0.145996;0.371108;-6.05689;-0.000871641;0.000400739;0.00131884;0.00138985;-0.000942653;0.00116625;0.660917;1.51305;0.00135489;0.001555;1.4744;0.678242;120.729;165.729;-0.00123744;-0.000872179;0.00191658;-0.00111178;0.00131708;-0.00404869;0.0108929;0;0.0256908;-0.0242811;-0.370227;-0.555252;0.667804;-6.67864;0.000112335;0.00111504;0.00141383;0.00205412;-0.000527959;0.00129104;-0.0794543;-12.5858;0.00157518;0.00172139;3.89068;0.257024;23.7135;68.7135;-0.00329002;0.000106489;-0.00136985;0.0035967;0.00141351;2.80998e-05;0.0175788;0;0.0486607;2.92689;1.46226
188000;189;25.7938;0.0407955;0.0015841;-2.29382;25.6832;-0.658861;-0.0046361;0.0332654;-0.413753;-0.0220605;-0.342167;-0.147688;0.373332;-6.05858;-0.000975533;7.63013e-05;0.00116814;0.00117086;-0.000978245;0.00107455;0.835115;1.19744;0.00124244;0.00143273;1.19689;0.835497;131.08;176.08;-0.00190259;-0.000976512;0.00155658;-0.00140081;0.00116694;-0.00289696;0.00850161;0;0.0274885;-0.0249036;-0.37269;-0.558804;0.672146;-6.68219;-0.000195757;0.00104584;0.00154621;0.00203626;-0.000685801;0.00136103;0.126604;7.89862;0.00163478;0.0018147;2.96916;0.336795;27.4186;72.4186;-0.00198068;-0.000201578;-0.0014812;0.00356848;0.00154566;-0.00322944;0.015825;0;0.0482766;2.99847;1.46888
189000;190;25.7925;0.0394594;0.00153222;-2.29419;25.6818;-0.661553;-0.00500251;0.0318216;-0.416445;-0.022018;-0.345348;-0.145728;0.375482;-6.05662;-0.00102775;0.000392112;0.00108604;0.00115643;-0.00109815;0.00112729;0.946332;1.05671;0.00130182;0.00150305;1.05308;0.949599;124.221;169.221;-0.000718293;-0.00102822;0.00183171;-0.00104445;0.00108444;-0.00425935;0.00863463;0;0.0270525;-0.0248324;-0.375854;-0.558135;0.673348;-6.68152;2.93274e-05;0.00106662;0.00148287;0.00204678;-0.000534588;0.00129069;-0.0197775;-50.5626;0.00157329;0.00172091;3.82871;0.261185;26.2353;71.2353;-0.00243031;2.42033e-05;-0.00124446;0.00337434;0.00148266;-0.00186273;0.0147977;0;0.0502451;3.06721;1.47645
190000;191;25.7931;0.0400927;0.00155682;-2.29343;25.6825;-0.65989;-0.00424119;0.0325684;-0.414781;-0.0228992;-0.347942;-0.148438;0.378975;-6.05933;-0.0010839;0.000543431;0.000756776;0.000905241;-0.00123237;0.0010688;1.43226;0.698197;0.00123896;0.00142507;0.734555;1.36137;123.146;168.146;-0.0015697;-0.00108408;0.00189806;-0.000808703;0.000755124;-0.00226253;0.00938104;0;0.0242671;-0.0258707;-0.379502;-0.562796;0.679287;-6.68909;7.92434e-05;0.000928684;0.00147617;0.00193974;-0.000384319;0.00116203;-0.0536816;-18.6283;0.00143848;0.00154937;5.0472;0.19813;26.1387;71.1387;0.00197476;7.25286e-05;-0.00192723;0.00378061;0.00147475;-0.00792855;0.0174762;0;0.0431228;3.16043;1.4837
191000;192;25.7931;0.0400519;0.00155523;-2.29428;25.6823;-0.664005;-0.00509539;0.0323451;-0.418896;-0.0231349;-0.350234;-0.149731;0.3816;-6.06063;-0.00133156;0.00027834;0.000620995;0.000659897;-0.00137047;0.00101518;2.14424;0.466365;0.00119592;0.00135358;0.481513;2.07679;134.514;179.514;-0.00138556;-0.00133207;0.00160726;-0.00104799;0.000619743;-0.00252202;0.00934904;0;0.0224499;-0.0261833;-0.38289;-0.56529;0.683259;-6.69159;0.000179887;0.000842497;0.00167425;0.00205316;-0.000199023;0.00112609;-0.107443;-9.30724;0.00143971;0.00150145;10.3162;0.096935;31.3837;76.3837;-0.000338916;0.000174992;-0.00155922;0.00324062;0.00167339;-0.00412919;0.017277;0;0.0410309;3.23155;1.49124
192000;193;25.7959;0.0428462;0.00166373;-2.29495;25.6851;-0.662079;-0.00576297;0.0351415;-0.41697;-0.0234582;-0.351703;-0.151983;0.383854;-6.06288;-0.00121981;0.000441926;0.000896949;0.000985507;-0.00130837;0.00114694;1.35996;0.735316;0.00132874;0.00152925;0.753231;1.32761;126.968;171.968;-0.000256448;-0.00122016;0.00183051;-0.00094372;0.000895372;-0.0042061;0.00740333;0;0.0213291;-0.0267315;-0.385298;-0.567629;0.686565;-6.69393;1.19493e-05;0.00105041;0.00157185;0.00210021;-0.000516411;0.00130831;-0.00760207;-131.543;0.00160029;0.00174441;4.06693;0.245886;25.808;70.808;0.000428977;4.42937e-06;-0.0019217;0.00401787;0.00157055;-0.00478846;0.0178456;0;0.0404886;3.29751;1.49668
193000;194;25.796;0.0429828;0.00166904;-2.29518;25.685;-0.66976;-0.00598902;0.0350593;-0.424651;-0.0241152;-0.354209;-0.153926;0.386961;-6.06482;-0.0013737;0.000264643;0.000725521;0.00075837;-0.00140655;0.00108246;1.8934;0.528151;0.00126845;0.00144328;0.53917;1.8547;134.641;179.641;-0.00100435;-0.00137426;0.00161865;-0.00108653;0.000724247;-0.00446506;0.00903178;0;0.0263576;-0.027517;-0.388825;-0.571899;0.692106;-6.6982;0.000263994;0.00120845;0.00185595;0.00250701;-0.000387068;0.00144704;-0.142242;-7.03028;0.00181418;0.00192939;6.47693;0.154394;26.1807;71.1807;-0.000174581;0.000255467;-0.00189146;0.00430341;0.00185489;-0.005595;0.0208932;0;0.0429948;3.37969;1.50223
194000;195;25.7963;0.0432139;0.00167801;-2.29612;25.685;-0.677179;-0.00692926;0.0350129;-0.43207;-0.0246442;-0.356631;-0.154775;0.389549;-6.06567;-0.00126743;0.000535622;0.00069053;0.000827477;-0.00140438;0.00111593;1.83544;0.544828;0.00130283;0.0014879;0.589214;1.69718;126.944;171.944;-0.000318143;-0.00126757;0.00182628;-0.00075251;0.000689007;-0.0064265;0.0100401;0;0.0252806;-0.0281409;-0.392956;-0.573552;0.695822;-6.69985;0.000105261;0.000964946;0.00219219;0.00256997;-0.00027252;0.00142124;-0.0480165;-20.8262;0.001811;0.00189499;9.4304;0.10604;35.5056;80.5056;-0.00122457;9.93159e-05;-0.00165648;0.00358091;0.00219128;-0.00589441;0.0187664;0;0.0450725;3.45299;1.50724
195000;196;25.8018;0.0487724;0.00189385;-2.29687;25.6906;-0.673198;-0.00767803;0.0406331;-0.428089;-0.024982;-0.358326;-0.157686;0.392284;-6.06858;-0.00134143;0.00022944;0.000378375;0.000408459;-0.00137151;0.000889985;3.54523;0.282069;0.00107664;0.00118665;0.297817;3.35777;136.915;1.91451;-0.000695361;-0.0013421;0.00164404;-0.00118273;0.000377051;-0.00518847;0.0110917;0;0.0246059;-0.0286037;-0.39736;-0.575081;0.699594;-6.69847;0.0002115;0.000987365;0.00239868;0.00277846;-0.000168283;0.00147337;-0.0881736;-11.3413;0.00191088;0.0019645;16.5107;0.0605669;38.631;83.631;-0.00033617;0.000206496;-0.00134491;0.00331454;0.00239827;-0.00902967;0.022078;0;0.0471468;3.53966;1.51314
196000;197;25.8006;0.0475828;0.00184766;-2.29649;25.6891;-0.683622;-0.00729961;0.0391969;-0.438513;-0.0250187;-0.360622;-0.159316;0.395039;-6.07021;-0.00130931;0.000280934;0.000766126;0.000803481;-0.00134667;0.00107508;1.70901;0.585135;0.00125453;0.00143343;0.596643;1.67604;132.592;177.592;0.000443971;-0.00131;0.00176564;-0.0012007;0.000764608;-0.00784915;0.0113302;0;0.0292078;-0.0289644;-0.401226;-0.578612;0.704707;-6.70491;0.000161962;0.00055175;0.00229766;0.00243178;2.78417e-05;0.00120197;-0.0704898;-14.1864;0.00161199;0.00160263;-87.3432;-0.0114491;45.1866;90.1866;0.00106697;0.00015791;-0.00180152;0.0029;0.00229619;-0.0112353;0.0207419;0;0.0463087;3.60962;1.52019
197000;198;25.8033;0.0502729;0.00195211;-2.29802;25.6916;-0.686225;-0.00883441;0.0416921;-0.441116;-0.0263906;-0.361643;-0.162429;0.397323;-6.07332;-0.00128536;0.00015221;0.00105387;0.00106373;-0.00129523;0.00117948;1.21967;0.819897;0.00136413;0.00157264;0.821268;1.21763;133.475;178.475;0.000228839;-0.00128626;0.00165537;-0.00134744;0.00105251;-0.00776332;0.0123502;0;0.0217425;-0.0301018;-0.40415;-0.580782;0.708203;-6.70417;0.000167983;0.000810399;0.00280435;0.00303354;-6.12037e-05;0.00154737;-0.0599007;-16.6943;0.00204307;0.00206316;49.5647;0.0201757;45.2074;90.2074;9.73832e-05;0.000163211;-0.00157945;0.00319396;0.00280344;-0.01036;0.0199966;0;0.0503624;3.67632;1.52728
198000;199;25.8073;0.0542581;0.00210686;-2.29827;25.6956;-0.688101;-0.00908032;0.0456224;-0.442992;-0.0263811;-0.36469;-0.163466;0.40052;-6.07436;-0.00118324;0.000490789;0.00112885;0.00122871;-0.0012831;0.00125591;1.04818;0.954033;0.00145031;0.00167455;0.957611;1.04427;123.974;168.974;-0.000121377;-0.00118369;0.00205585;-0.00107066;0.00112686;-0.00758826;0.0120153;0;0.0255348;-0.0304818;-0.408175;-0.585309;0.714229;-6.7087;0.000163039;0.000788415;0.00227781;0.00253938;-9.85379e-05;0.00131896;-0.0715774;-13.9709;0.00172671;0.00175861;25.7706;0.0388039;41.1679;86.1679;-0.00010476;0.000158879;-0.00141859;0.00299076;0.00227711;-0.0132818;0.0239857;0;0.0487548;3.76236;1.53475
199000;200;25.8084;0.0553274;0.00214838;-2.29901;25.6966;-0.687763;-0.00982366;0.046639;-0.442654;-0.0269808;-0.367797;-0.162863;0.403146;-6.07376;-0.00117214;-9.73018e-05;0.00131177;0.00131558;-0.00117594;0.00124576;0.893553;1.11913;0.00143923;0.00166101;1.11874;0.893861;136.055;1.05507;0.000497029;-0.00117379;0.00162801;-0.00181834;0.00131045;-0.0110331;0.0130447;0;0.0218309;-0.0309312;-0.412517;-0.585087;0.716557;-6.70847;0.000341593;0.000900082;0.00236032;0.00270335;-1.43496e-06;0.00135239;-0.144723;-6.90973;0.00180271;0.00180319;;;41.9871;86.9871;-0.00250165;0.000338126;-0.000986982;0.00278334;0.00236024;-0.0082145;0.0208325;0;0.0469342;3.83758;1.54231
200000;201;25.8104;0.0573699;0.00222769;-2.297;25.699;-0.681803;-0.00781644;0.0490286;-0.436694;-0.026719;-0.371333;-0.161168;0.405681;-6.07206;-0.00122387;5.93843e-05;0.00192883;0.00192995;-0.00122499;0.00157747;0.634515;1.57601;0.0018366;0.00210329;1.57548;0.634727;128.375;173.375;-3.64428e-05;-0.00122539;0.00186885;-0.00174439;0.00192709;-0.00948462;0.0111843;0;0.0200527;-0.0311344;-0.41649;-0.585002;0.718791;-6.70839;0.000499457;0.000970202;0.00215764;0.00260475;5.23488e-05;0.0012762;-0.231483;-4.31997;0.00171931;0.0017016;-49.7575;-0.0200975;42.511;87.511;-0.00356744;0.000497229;-0.000385291;0.00232345;0.00215803;-0.00148158;0.0248762;0;0.0462819;3.90714;1.54984
201000;202;25.8095;0.0564298;0.00219119;-2.29685;25.6981;-0.678865;-0.00766653;0.0481757;-0.433756;-0.0274079;-0.374931;-0.161261;0.409059;-6.07216;-0.000991544;1.78712e-05;0.00161149;0.00161161;-0.000991666;0.00130164;0.615296;1.62523;0.00151714;0.00173552;1.62516;0.615326;129.634;174.634;0.00015253;-0.000993089;0.00179742;-0.00175706;0.00160988;-0.0107998;0.0135281;0;0.0182835;-0.0318711;-0.4201;-0.587138;0.722655;-6.71053;0.000314556;0.000968075;0.00171572;0.00221012;-0.000179845;0.00119498;-0.183338;-5.4544;0.00153687;0.00159331;12.289;0.0813734;32.3547;77.3547;-0.00160224;0.000311058;-0.000883462;0.00281702;0.0017158;-0.00470824;0.0196531;0;0.0466426;3.99196;1.55641
202000;203;25.8098;0.0567387;0.00220318;-2.2956;25.6985;-0.679993;-0.00641302;0.0485681;-0.434884;-0.027426;-0.378291;-0.16285;0.412767;-6.07375;-0.00114847;5.39835e-05;0.00216855;0.00216942;-0.00114935;0.00165939;0.529606;1.8882;0.00194603;0.00221252;1.88752;0.529796;126.134;171.134;-0.000193563;-0.00115;0.00185793;-0.00174399;0.00216683;-0.00899074;0.0132793;0;0.0176447;-0.0323438;-0.423526;-0.589897;0.72691;-6.71328;4.48186e-05;0.000907892;0.00178955;0.00217627;-0.000341899;0.00125908;-0.0250446;-39.9288;0.00157721;0.00167878;6.36524;0.157103;32.6903;77.6903;-0.000975597;3.99806e-05;-0.00142874;0.00324045;0.00178894;-0.0105153;0.0190009;0;0.0471846;4.06539;1.5636
203000;204;25.8096;0.0565075;0.00219421;-2.2958;25.6983;-0.679335;-0.00661504;0.0483352;-0.434226;-0.028232;-0.380682;-0.164751;0.415763;-6.07565;-0.00116702;0.000142388;0.0017;0.00170705;-0.00117407;0.00144056;0.686481;1.4567;0.00167288;0.00192075;1.45396;0.687777;127.826;172.826;-0.000533896;-0.00116831;0.00190179;-0.00161198;0.0016982;-0.00816678;0.0124452;0;0.0182538;-0.0331322;-0.426288;-0.59383;0.731747;-6.71722;7.70856e-05;0.000955363;0.00195381;0.00235456;-0.000323673;0.00133912;-0.0394541;-25.3459;0.00168798;0.00178549;7.27452;0.137466;34.3646;79.3646;-0.0021678;7.23707e-05;-0.0013096;0.00321608;0.00195341;-0.00623152;0.0187993;0;0.0459548;4.15836;1.57063
204000;205;25.8082;0.0551397;0.0021411;-2.29528;25.6969;-0.679701;-0.0060932;0.0469985;-0.434593;-0.0284172;-0.382621;-0.166932;0.418417;-6.07783;-0.0011669;9.23766e-05;0.00213221;0.00213479;-0.00116949;0.00165214;0.547274;1.82724;0.00193467;0.00220285;1.82541;0.547823;125.825;170.825;-0.00105111;-0.00116834;0.00188537;-0.00169472;0.00213044;-0.00665395;0.0131865;0;0.0185212;-0.0335592;-0.428495;-0.596188;0.734965;-6.71958;0.000122261;0.00108336;0.00188015;0.00239627;-0.000393862;0.00139507;-0.0650275;-15.3781;0.00174369;0.00186009;6.08404;0.164364;31.4403;76.4403;0.00018545;0.000117216;-0.00119383;0.00335655;0.00188002;-0.0108295;0.0158957;0;0.0457546;4.21247;1.57282
205000;206;25.8088;0.0557286;0.00216396;-2.29612;25.6973;-0.683787;-0.00693408;0.0474063;-0.438678;-0.0283001;-0.38649;-0.164425;0.420965;-6.07532;-0.00107275;0.000294967;0.0020577;0.00208525;-0.0011003;0.00159278;0.521335;1.91815;0.00186826;0.0021237;1.89516;0.52766;121.657;166.657;-0.00095497;-0.00107372;0.00201958;-0.00142426;0.00205571;-0.00654569;0.0121273;0;0.0202816;-0.0337602;-0.432859;-0.595119;0.736663;-6.72142;2.45729e-05;0.00103394;0.00196083;0.00240914;-0.000423738;0.00141644;-0.0125319;-79.7963;0.00176438;0.00188858;5.68544;0.175888;32.4593;77.4593;-0.000851182;1.89e-05;-0.00146046;0.00352351;0.0019603;-0.0120767;0.0225299;0;0.0466483;4.29568;1.58098
206000;207;25.8079;0.0548363;0.00212931;-2.29555;25.6965;-0.685172;-0.00635726;0.0465248;-0.440063;-0.0284886;-0.387492;-0.168301;0.423423;-6.0792;-0.00125726;9.41435e-05;0.0019792;0.00198193;-0.00126;0.00162097;0.635238;1.57421;0.00188714;0.00216129;1.57297;0.635742;127.69;172.69;-0.00140292;-0.00125874;0.00191408;-0.00171992;0.00197737;-0.00484186;0.0135044;0;0.0206301;-0.0340505;-0.434447;-0.600045;0.741592;-6.72634;2.82282e-05;0.00104097;0.00204694;0.00248755;-0.000412388;0.00144997;-0.0137905;-72.5138;0.00181155;0.00193329;6.03207;0.165781;32.3105;77.3105;0.000608391;2.14514e-05;-0.0017496;0.00382591;0.00204595;-0.00979538;0.019945;0;0.045281;4.36529;1.58504
207000;208;25.8117;0.0586943;0.00227912;-2.29907;25.7001;-0.68154;-0.00988555;0.0501807;-0.436431;-0.0287553;-0.390834;-0.167615;0.426231;-6.07851;-0.0011668;0.000540537;0.00250649;0.00258438;-0.00124469;0.00191454;0.465513;2.14817;0.00225537;0.00255272;2.07632;0.481621;115.926;160.926;-0.00263806;-0.00116731;0.00222744;-0.00114019;0.00250416;-0.00292042;0.0129668;0;0.021156;-0.0344682;-0.438391;-0.600603;0.744378;-6.7269;-7.1258e-05;0.00104011;0.00252663;0.00289174;-0.000436371;0.00166406;0.0282028;35.4574;0.00208853;0.00221874;6.62679;0.150903;35.4719;80.4719;0.00062381;-8.08373e-05;-0.00242755;0.00449878;0.00252423;-0.0138128;0.0244507;0;0.0472776;4.44747;1.59222
208000;209;25.8096;0.0565472;0.00219575;-2.29778;25.6978;-0.693008;-0.00859409;0.0478331;-0.447899;-0.0293624;-0.393481;-0.168543;0.429064;-6.07944;-0.0013057;0.000554535;0.00196405;0.00205554;-0.00139719;0.00172636;0.664801;1.50421;0.00200548;0.00230182;1.4712;0.679719;119.779;164.779;-0.00220476;-0.00130609;0.00215257;-0.00103829;0.00196189;-0.00162609;0.0132902;0;0.0217888;-0.0348322;-0.442548;-0.600823;0.747028;-6.72712;0.000525834;0.000734824;0.0025811;0.0028168;0.00029014;0.00126333;-0.203724;-4.90859;0.00178901;0.00168444;-9.7084;-0.103004;43.3219;88.3219;-0.00207746;0.000520965;-0.00174222;0.00320679;0.00257986;-0.00625426;0.0211277;0;0.0466554;4.54109;1.6002
209000;210;25.8105;0.0574833;0.0022321;-2.29705;25.6987;-0.695737;-0.00785928;0.0487653;-0.450629;-0.0298646;-0.395465;-0.16837;0.430851;-6.07927;-0.00129664;0.000629044;0.00147457;0.00161067;-0.00143275;0.00152171;0.879337;1.13722;0.00175812;0.00202895;1.12418;0.889533;121.096;166.096;-0.0019696;-0.00129684;0.00215264;-0.000890334;0.00147245;-0.00327293;0.0116302;0;0.022588;-0.0354401;-0.445962;-0.602138;0.750139;-6.72844;0.000504962;0.000755892;0.00288711;0.00310672;0.000285351;0.00141068;-0.174902;-5.71748;0.00198288;0.00188091;-10.8873;-0.0918498;46.2965;91.2965;0.000624125;0.00050018;-0.00167809;0.00318409;0.00288599;-0.0117061;0.0174784;0;0.0486618;4.60681;1.60783
210000;211;25.8134;0.060367;0.00234407;-2.29781;25.7015;-0.697591;-0.00862119;0.0515432;-0.452483;-0.0300777;-0.397417;-0.170013;0.4333;-6.08091;-0.00138808;0.000693476;0.00175535;0.00190154;-0.00153427;0.00171791;0.790773;1.26459;0.00198744;0.00229054;1.23938;0.806858;119.461;164.461;-0.00185776;-0.00138813;0.00214385;-0.000752348;0.0017533;-0.00372984;0.0111726;0;0.0222368;-0.0358806;-0.449317;-0.605459;0.75482;-6.73176;0.000185656;0.000410554;0.00299568;0.00305444;0.000126901;0.00146377;-0.0619744;-16.1357;0.00199534;0.00195169;-24.0695;-0.0415464;52.3612;97.3612;0.00391409;0.00018105;-0.0022494;0.00306306;0.00299325;-0.0147114;0.0166969;0;0.0495132;4.67903;1.61495
211000;212;25.8143;0.0612436;0.00237811;-2.29969;25.7019;-0.707616;-0.0105062;0.0519809;-0.462507;-0.0303552;-0.400377;-0.170085;0.436064;-6.08098;-0.00143419;0.000739642;0.00127934;0.00146785;-0.0016227;0.00154528;1.12104;0.892028;0.00178508;0.00206037;0.904571;1.1055;122.189;167.189;-0.00176385;-0.00143418;0.00221041;-0.000727141;0.00127717;-0.00171731;0.0108404;0;0.0242795;-0.036484;-0.454271;-0.606357;0.758526;-6.73266;3.59746e-05;0.000438635;0.00309546;0.00315711;-2.56697e-05;0.00159139;-0.0116217;-86.0457;0.00211335;0.00212185;122.989;0.00813078;53.3587;98.3587;0.001928;3.19219e-05;-0.00201084;0.00288064;0.00309354;-0.0148211;0.022181;0;0.0498205;4.77391;1.62222
212000;213;25.8159;0.0628565;0.00244074;-2.30083;25.7034;-0.709218;-0.011638;0.0534554;-0.464109;-0.0306496;-0.402083;-0.170238;0.437712;-6.08113;-0.00157537;0.00080793;0.00119195;0.00141056;-0.00179398;0.00160227;1.32167;0.756616;0.00185455;0.00213636;0.786274;1.27182;123.645;168.645;-0.0011824;-0.00157524;0.00224407;-0.000624244;0.00118976;-0.00324445;0.0131528;0;0.0268441;-0.0367875;-0.457214;-0.607759;0.761426;-6.73406;0.000264194;0.000522095;0.00311928;0.00321176;0.000171716;0.00152002;-0.0846971;-11.8068;0.00208629;0.00202669;-18.7039;-0.0534649;53.8822;98.8822;0.000864117;0.000260679;-0.00166454;0.00270251;0.00311803;-0.0115631;0.0208076;0;0.049948;4.83251;1.62948
213000;214;25.8194;0.0663537;0.00257654;-2.30062;25.707;-0.706659;-0.0114343;0.0570566;-0.46155;-0.0309098;-0.404536;-0.169726;0.439786;-6.08062;-0.00155678;0.000585072;0.00101212;0.0011391;-0.00168376;0.00141143;1.53813;0.650138;0.00163986;0.00188191;0.676522;1.47815;128.213;173.213;-0.00135205;-0.00155695;0.00199353;-0.000819777;0.00101031;-0.00442621;0.011678;0;0.0279757;-0.0370579;-0.461129;-0.607727;0.763771;-6.73112;0.00027502;0.000759788;0.0032539;0.0034365;9.24223e-05;0.00167204;-0.08452;-11.8315;0.00226082;0.00222938;-37.1826;-0.0268943;51.4689;96.4689;-7.18909e-06;0.000271196;-0.00135516;0.00286846;0.00325327;-0.0108569;0.0227078;0;0.0501513;4.90827;1.63652
214000;215;25.8213;0.0682784;0.00265127;-2.30133;25.7088;-0.709735;-0.0121427;0.0588416;-0.464627;-0.0309618;-0.406677;-0.17122;0.442336;-6.08212;-0.00155943;0.000634265;0.000846318;0.0010033;-0.00171641;0.00135985;1.8426;0.542711;0.00158811;0.00181314;0.584533;1.71077;128.269;173.269;-0.00184572;-0.00155951;0.00202631;-0.00075443;0.000844468;-0.00300338;0.0116632;0;0.0230306;-0.03724;-0.46484;-0.611029;0.768648;-6.73442;9.15549e-05;0.000839371;0.00326866;0.00347678;-0.000116568;0.00179667;-0.02801;-35.7016;0.00235767;0.00239557;29.8261;0.0335276;50.7636;95.7636;-0.000760675;8.77342e-05;-0.00121685;0.00288907;0.00326827;-0.0138969;0.0210225;0;0.0492232;4.98626;1.64392
215000;216;25.8237;0.0706055;0.00274164;-2.29915;25.7114;-0.706838;-0.00996121;0.0614539;-0.461729;-0.0310017;-0.409386;-0.17139;0.444897;-6.08229;-0.00156045;0.000302334;0.000908803;0.000945282;-0.00159693;0.00127111;1.71704;0.582397;0.00148373;0.00169481;0.591936;1.68937;134.393;179.393;-0.00133585;-0.00156108;0.00176301;-0.00115473;0.000907296;-0.00433781;0.0117511;0;0.0220919;-0.0374543;-0.468749;-0.612717;0.772366;-6.7361;0.000302808;0.000901692;0.00296779;0.00324421;2.63924e-05;0.00160891;-0.102032;-9.80089;0.00215406;0.00214521;-122.922;-0.00813525;48.8311;93.8311;-0.00291446;0.000299472;-0.000937943;0.00273644;0.00296776;-0.00663821;0.0220068;0;0.049784;5.06596;1.65162
216000;217;25.8252;0.0720975;0.00279957;-2.29922;25.713;-0.702034;-0.0100306;0.0630778;-0.456926;-0.031623;-0.411361;-0.1731;0.447417;-6.084;-0.00157323;0.000437718;0.00108095;0.00115127;-0.00164355;0.00139741;1.45541;0.687091;0.00162192;0.00186322;0.700479;1.42759;130.671;175.671;-0.000815918;-0.00157364;0.00188904;-0.00100975;0.00107926;-0.00564035;0.0110719;0;0.0227027;-0.0382115;-0.471728;-0.615671;0.776556;-6.73906;6.57438e-05;0.00100455;0.00278719;0.00311782;-0.00026489;0.00169136;-0.0235878;-42.3947;0.00217224;0.00225514;11.7703;0.08496;45.1725;90.1725;-0.00249031;6.19994e-05;-0.000911306;0.0029152;0.00278728;-0.00672642;0.0245729;0;0.0480674;5.1479;1.65728
217000;218;25.8266;0.0735638;0.00285651;-2.29954;25.7145;-0.701926;-0.0103547;0.0645245;-0.456817;-0.0321943;-0.41315;-0.175539;0.450048;-6.08643;-0.00168127;0.000503077;0.000886156;0.000981212;-0.00177632;0.00137877;1.89726;0.527076;0.00161397;0.00183836;0.552384;1.81034;131.839;176.839;-0.000692766;-0.00168161;0.001976;-0.000966069;0.000884331;-0.00591342;0.0131485;0;0.0237883;-0.0390772;-0.474447;-0.619321;0.781144;-6.74271;-1.05293e-05;0.00108472;0.00273361;0.00311059;-0.000387513;0.00174905;0.00385178;259.62;0.00221423;0.00233207;8.02707;0.124579;40.9293;85.9293;-0.000746559;-1.58233e-05;-0.00126696;0.00342995;0.00273339;-0.0106494;0.0183562;0;0.0506641;5.21252;1.65994
218000;219;25.8265;0.0734387;0.00285165;-2.29879;25.7144;-0.701107;-0.00960492;0.0644882;-0.455998;-0.0331348;-0.414725;-0.177945;0.452503;-6.08884;-0.00164064;0.000272306;0.000669929;0.000701587;-0.0016723;0.00118694;2.44898;0.408333;0.00140824;0.00158259;0.419533;2.3836;136.598;1.59784;-0.000778728;-0.00164154;0.00191177;-0.00136338;0.00066814;-0.0051156;0.0143557;0;0.0208127;-0.0401268;-0.477338;-0.621489;0.784672;-6.74488;-5.39931e-05;0.00120081;0.00256889;0.0030356;-0.0005207;0.00177815;0.0210181;47.5781;0.00221777;0.00237087;5.82984;0.171531;37.6779;82.6779;-0.00157164;-5.97079e-05;-0.00119224;0.00358759;0.0025689;-0.00564335;0.0185651;0;0.0486387;5.29099;1.66744
219000;220;25.8261;0.0730658;0.00283717;-2.29818;25.714;-0.704832;-0.00899673;0.0640662;-0.459723;-0.0336786;-0.41813;-0.175655;0.454777;-6.08655;-0.0015466;0.000130645;0.00125016;0.00125625;-0.00155269;0.00140447;1.23712;0.808328;0.00162475;0.00187263;0.80908;1.23597;134.968;179.968;-0.000731626;-0.00154766;0.00172454;-0.00145879;0.00124869;-0.00658034;0.0148428;0;0.022988;-0.0406826;-0.480913;-0.621853;0.787167;-6.74524;-0.000108027;0.00109604;0.00245638;0.00286099;-0.000512641;0.00168682;0.0439781;22.7386;0.00209918;0.00224909;5.58089;0.179183;37.0546;82.0546;-0.000478393;-0.000114138;-0.00147812;0.00366361;0.00245589;-0.00902546;0.0146773;0;0.0497599;5.36663;1.67491
220000;221;25.8272;0.0741114;0.00287777;-2.2982;25.7152;-0.699332;-0.00900886;0.0652654;-0.454223;-0.0340601;-0.421553;-0.174681;0.457581;-6.08558;-0.00150088;2.34435e-05;0.00189221;0.00189237;-0.00150105;0.00169671;0.793193;1.26073;0.00196353;0.00226228;1.2607;0.793211;131.262;176.262;-0.000733479;-0.00150226;0.00170835;-0.00165575;0.00189075;-0.00601921;0.0148047;0;0.0218716;-0.0412367;-0.484706;-0.622294;0.789867;-6.74859;-0.000271895;0.00112602;0.00225939;0.00268779;-0.000700296;0.00169404;0.12034;8.30978;0.00206525;0.00225872;3.83807;0.260547;35.0055;80.0055;-0.00265975;-0.000277866;-0.00138853;0.00363422;0.00225906;-0.00400595;0.0224029;0;0.0480518;5.44251;1.68204
221000;222;25.8279;0.0748008;0.00290454;-2.29897;25.7158;-0.700858;-0.00978232;0.0658471;-0.455749;-0.0336106;-0.424391;-0.179589;0.462049;-6.09048;-0.00145762;-6.92399e-05;0.00253341;0.00253461;-0.00145882;0.00199672;0.575359;1.73805;0.00233333;0.00266229;1.73744;0.57556;128.06;173.06;0.000328929;-0.00145955;0.00183435;-0.00196525;0.00253174;-0.00903991;0.0149356;0;0.0311032;-0.0411994;-0.487971;-0.626606;0.795266;-6.7529;-0.000262443;0.00105311;0.00301065;0.0033202;-0.000572001;0.0019461;0.0871715;11.4716;0.00242671;0.0025948;5.80454;0.172279;43.3022;88.3022;-0.00309709;-0.000268014;-0.00140165;0.00349985;0.00301022;-0.00609139;0.0239177;0;0.0534125;5.51605;1.68871
222000;223;25.8285;0.0754429;0.00292947;-2.29813;25.7164;-0.705386;-0.00894538;0.066443;-0.460277;-0.0357307;-0.428559;-0.171786;0.463087;-6.08268;-0.00128094;8.60899e-05;0.0024711;0.00247308;-0.00128291;0.00187799;0.518366;1.92914;0.00220451;0.00250399;1.92771;0.518751;124.737;169.737;-0.000518645;-0.00128248;0.00193846;-0.00175935;0.00246923;-0.00817239;0.014549;0;0.0256022;-0.0434022;-0.492385;-0.621666;0.794226;-6.74796;-0.000170982;0.000972816;0.00326091;0.00351748;-0.000427558;0.00197252;0.052434;19.0716;0.00249973;0.00263003;8.22692;0.121552;45.3792;90.3792;-0.00011574;-0.000177067;-0.00168482;0.00362135;0.00325997;-0.0101455;0.0245317;0;0.0539213;5.59509;1.69632
223000;224;25.8305;0.0774231;0.00300637;-2.29916;25.7184;-0.702557;-0.00996735;0.068418;-0.457449;-0.0350798;-0.428383;-0.1817;0.466645;-6.0926;-0.00143896;0.000112531;0.00261353;0.00261666;-0.00144209;0.00202937;0.550582;1.81626;0.0023758;0.00270583;1.81449;0.551118;124.44;169.44;6.75025e-05;-0.00144041;0.00193622;-0.00170379;0.00261167;-0.0109741;0.0165695;0;0.0185285;-0.042271;-0.494033;-0.63181;0.803143;-6.75811;-3.97998e-05;0.000629383;0.00336754;0.00348008;-0.000152339;0.00181621;0.0118187;84.6119;0.00237246;0.00242161;22.8443;0.0437745;49.8377;94.8377;-0.00180313;-4.58119e-05;-0.00227525;0.00352415;0.00336516;-0.00763284;0.0239303;0;0.0523848;5.65841;1.70331
224000;225;25.8328;0.07976;0.00309711;-2.2991;25.7207;-0.704587;-0.00991465;0.0707143;-0.459478;-0.0364298;-0.432162;-0.179662;0.469436;-6.09056;-0.0014137;3.6499e-05;0.00259734;0.00259767;-0.00141403;0.00200585;0.544286;1.83727;0.00234952;0.00267447;1.83707;0.544344;124.895;169.895;-0.0004255;-0.00141509;0.00174766;-0.00166782;0.00259582;-0.00993313;0.0160978;0;0.0214111;-0.044129;-0.499429;-0.628188;0.803739;-6.75449;7.68068e-05;0.000718542;0.00396667;0.00409515;-5.16795e-05;0.00207342;-0.019363;-51.6448;0.00274749;0.00276456;79.2414;0.0126197;54.4908;99.4908;0.000821019;7.19573e-05;-0.00176881;0.00319626;0.00396537;-0.0114955;0.0246918;0;0.0512916;5.74443;1.71104
225000;226;25.8345;0.081462;0.0031632;-2.29893;25.7223;-0.707059;-0.00974551;0.0723709;-0.46195;-0.0374353;-0.434856;-0.182117;0.472935;-6.09301;-0.00146163;4.6312e-05;0.00223089;0.00223147;-0.00146221;0.00184684;0.655177;1.5263;0.00214791;0.00246245;1.5261;0.655267;128.031;173.031;-0.00128992;-0.00146306;0.00179177;-0.00169271;0.00222929;-0.00750969;0.015688;0;0.0229298;-0.0449185;-0.503075;-0.630579;0.807918;-6.75688;-0.000150921;0.000489178;0.00372082;0.00378167;-0.00021177;0.00199672;0.0405613;24.6541;0.00259458;0.00266229;17.8574;0.0559992;57.0178;102.018;0.00401644;-0.000154608;-0.00178943;0.00275899;0.00371934;-0.0157469;0.0197571;0;0.0518437;5.81376;1.71833
226000;227;25.8362;0.0831952;0.0032305;-2.30141;25.7238;-0.709144;-0.0122209;0.073833;-0.464036;-0.0385071;-0.435922;-0.187033;0.475912;-6.09793;-0.00155595;0.000214208;0.00265099;0.00266186;-0.00156683;0.00211435;0.586933;1.70377;0.00246857;0.00281913;1.69889;0.588621;123.925;168.925;-0.00116116;-0.0015573;0.00209315;-0.00165685;0.00264882;-0.00786607;0.0165353;0;0.0344664;-0.0459137;-0.506566;-0.636113;0.814467;-6.76241;1.25588e-05;0.000472961;0.00411403;0.00416786;-4.1274e-05;0.00210457;-0.00305268;-327.581;0.00279244;0.00280609;100.98;0.00990291;58.2873;103.287;0.00190813;8.24755e-06;-0.00203862;0.00297428;0.00411207;-0.0157126;0.0187728;0;0.0566825;5.88772;1.72353
227000;228;25.8366;0.0835101;0.00324273;-2.30293;25.7238;-0.713778;-0.0137432;0.0738848;-0.468669;-0.0379299;-0.443316;-0.174958;0.478098;-6.08585;-0.00152155;0.000416293;0.00267659;0.00271747;-0.00156243;0.00213995;0.568467;1.75912;0.00250082;0.00285327;1.73925;0.574959;119.925;164.925;-0.00122865;-0.00152227;0.00210857;-0.0012689;0.00267446;-0.00656719;0.0154247;0;0.0254488;-0.0462265;-0.513549;-0.628282;0.812778;-6.75167;0.000143565;0.000735384;0.00436895;0.00449328;1.92377e-05;0.00223702;-0.0328604;-30.4318;0.00298913;0.00298269;-233.566;-0.00428145;58.2186;103.219;0.000689359;0.000139499;-0.00148391;0.00294534;0.00436812;-0.0142334;0.0231296;0;0.056595;5.96697;1.73007
228000;229;25.8368;0.0837148;0.00325067;-2.30181;25.724;-0.719098;-0.0126237;0.0740424;-0.47399;-0.0416783;-0.446493;-0.175941;0.481714;-6.08684;-0.00149024;0.000433436;0.00225996;0.0023094;-0.00153968;0.00192454;0.659412;1.5165;0.00223703;0.00256606;1.49992;0.666704;122.012;167.012;-0.00282529;-0.00149092;0.00211569;-0.00124252;0.00225782;-0.00226386;0.0168686;0;0.0200844;-0.0489956;-0.517518;-0.631468;0.81791;-6.75486;-9.32948e-05;0.000611543;0.00410912;0.0041963;-0.000180479;0.00218839;0.0227043;44.0444;0.00285959;0.00291785;23.2509;0.0430091;56.0497;101.05;0.000264837;-9.80865e-05;-0.00194302;0.00315541;0.00410742;-0.0108247;0.0157095;0;0.0521807;6.04081;1.73314
229000;230;25.8395;0.0864306;0.00335613;-2.30288;25.7266;-0.718325;-0.0136956;0.0766958;-0.473216;-0.0416586;-0.448147;-0.177856;0.483946;-6.08875;-0.00151671;0.000516634;0.00250358;0.00256891;-0.00158204;0.00207547;0.605816;1.65067;0.00241902;0.00276729;1.6238;0.615841;119.508;164.508;-0.00197818;-0.00151723;0.00218368;-0.00114373;0.00250133;-0.00368451;0.0183878;0;0.0250268;-0.0494016;-0.522069;-0.630996;0.820458;-6.75438;0.000214964;0.000771381;0.00392249;0.00407657;6.08757e-05;0.00200785;-0.054803;-18.2472;0.00269765;0.00267713;-66.9655;-0.0149331;56.9049;101.905;-0.001832;0.000211499;-0.00120803;0.00274348;0.00392206;-0.00777282;0.0210971;0;0.0570157;6.11196;1.74041
230000;231;25.8397;0.086645;0.00336445;-2.30145;25.7271;-0.714021;-0.0122629;0.0771592;-0.468913;-0.0422457;-0.453088;-0.177739;0.488533;-6.08863;-0.0016076;0.000861997;0.0022206;0.00240574;-0.00179274;0.00209924;0.723947;1.38132;0.00243259;0.00279899;1.34194;0.745192;117.024;162.024;-0.00207263;-0.00160742;0.00234969;-0.000620011;0.00221822;-0.00175911;0.0178369;0;0.020784;-0.0500749;-0.526413;-0.635699;0.826881;-6.75909;-0.000341602;0.000889067;0.00356753;0.00376023;-0.000534306;0.00214727;0.0957531;10.4435;0.00270259;0.00286303;7.0376;0.142094;48.3012;93.3012;-0.000625287;-0.000347588;-0.00180439;0.00357203;0.0035663;-0.0106659;0.0221001;0;0.0519981;6.18999;1.74745
231000;232;25.8386;0.0855953;0.0033237;-2.30146;25.7259;-0.717497;-0.012267;0.0760079;-0.472388;-0.0438632;-0.455985;-0.172296;0.48942;-6.08319;-0.00155699;0.000662871;0.00207278;0.00219005;-0.00167425;0.00193215;0.751159;1.33128;0.00223767;0.0025762;1.30807;0.764483;120.154;165.154;-0.00265691;-0.00155714;0.00219334;-0.000862054;0.0020706;-0.00100191;0.0143491;0;0.023377;-0.0510853;-0.529287;-0.632265;0.826144;-6.75565;-1.49507e-05;0.000691891;0.00342254;0.00355658;-0.000148986;0.00185278;0.00436829;228.922;0.00242224;0.00247038;23.8718;0.0418904;48.6679;93.6679;-0.000699129;-2.17083e-05;-0.00236753;0.00374083;0.00341999;-0.0117591;0.024976;0;0.0495645;6.24563;1.75518
232000;233;25.8389;0.0858607;0.003334;-2.30034;25.7263;-0.717893;-0.0111486;0.0763634;-0.472785;-0.0451858;-0.457588;-0.17917;0.493489;-6.09007;-0.00169007;0.000546285;0.0020839;0.00216139;-0.00176756;0.00196447;0.811012;1.23303;0.00227217;0.0026193;1.22281;0.817788;122.905;167.905;-0.00153488;-0.00169029;0.0019494;-0.000851544;0.00208216;-0.00435224;0.0140248;0;0.0255479;-0.052593;-0.532482;-0.640589;0.83466;-6.76398;-0.000470107;0.000822066;0.00365053;0.00380848;-0.000628054;0.00221827;0.128778;7.76532;0.00277215;0.00295769;6.06393;0.16491;48.4982;93.4982;0.000426586;-0.000476718;-0.00209503;0.00372717;0.00364868;-0.0149876;0.0190634;0;0.0542731;6.32345;1.76219
233000;234;25.8398;0.0867395;0.00336812;-2.30212;25.7269;-0.722304;-0.0129353;0.0769627;-0.477196;-0.0461061;-0.459389;-0.186219;0.497837;-6.09711;-0.00166531;0.000452096;0.00154564;0.00160808;-0.00172775;0.00166792;1.07742;0.928142;0.00192636;0.00222389;0.930739;1.07441;128.4;173.4;-0.00169684;-0.0016656;0.00178922;-0.000880745;0.00154415;-0.00373093;0.0141914;0;0.0286004;-0.0531487;-0.535757;-0.646268;0.841143;-6.77257;-0.000239625;0.000775931;0.00307129;0.00324411;-0.000412448;0.00182828;0.0780209;12.8171;0.00231252;0.00243771;7.86551;0.127137;47.2064;92.2064;-0.00301236;-0.000244706;-0.00173715;0.00328071;0.00307008;-0.00485781;0.0253667;0;0.0547242;6.37776;1.76985
234000;235;25.8414;0.088339;0.00343023;-2.30264;25.7284;-0.725755;-0.0134511;0.078426;-0.480647;-0.0476755;-0.462343;-0.18255;0.499358;-6.09345;-0.001666;0.000707893;0.00169696;0.0018399;-0.00180893;0.00182441;0.981752;1.01859;0.00210668;0.00243255;1.01712;0.983169;123.224;168.224;-0.000690381;-0.00166592;0.00200602;-0.000585876;0.0016952;-0.00450176;0.0134639;0;0.0233192;-0.0545645;-0.539576;-0.644966;0.842675;-6.77126;-0.000340174;0.000835851;0.00358348;0.00375412;-0.000510814;0.00213247;0.0949285;10.5342;0.00268924;0.00284329;7.3493;0.136067;49.015;94.015;-0.00201148;-0.000346052;-0.00186733;0.00352846;0.00358209;-0.00871484;0.0290182;0;0.0519362;6.45108;1.77726
235000;236;25.8426;0.0895175;0.003476;-2.30239;25.7296;-0.72396;-0.0131998;0.0796827;-0.478851;-0.0492088;-0.466989;-0.180763;0.503166;-6.09166;-0.00182766;0.000114978;0.0021898;0.00219308;-0.00183095;0.00201201;0.834625;1.19814;0.00232641;0.00268269;1.19779;0.834873;129.849;174.849;-0.000705789;-0.00182858;0.00159636;-0.00136046;0.00218853;-0.00627341;0.0109919;0;0.0244875;-0.0561314;-0.543818;-0.64395;0.844725;-6.77025;-0.000411445;0.000610298;0.00393574;0.0040198;-0.000495499;0.00225765;0.104541;9.56567;0.00285938;0.0030102;8.11263;0.123265;55.79;100.79;-0.000773418;-0.00041555;-0.00171857;0.00292908;0.00393446;-0.00854544;0.0239387;0;0.0548644;6.48539;1.7847
236000;237;25.8496;0.0965808;0.00375027;-2.30045;25.7374;-0.707318;-0.0112641;0.0874129;-0.46221;-0.0501698;-0.466609;-0.193151;0.507492;-6.10405;-0.00177711;0.00012444;0.00241965;0.00242333;-0.0017808;0.00210207;0.73445;1.36156;0.00243669;0.00280275;1.36081;0.734854;126.659;171.659;-0.000703484;-0.00177787;0.00149189;-0.00123729;0.00241854;-0.00413444;0.0109417;0;0.0257734;-0.0569975;-0.547089;-0.651861;0.852923;-6.77816;-0.00023915;0.000360286;0.00466976;0.00469607;-0.000265452;0.00248076;0.0512125;19.5265;0.00322284;0.00330768;17.6908;0.0565265;61.1148;106.115;-0.000966596;-0.000243438;-0.00224217;0.00295002;0.00466733;-0.0110951;0.0267479;0;0.0564618;6.5307;1.7915
237000;238;25.848;0.0949547;0.00368712;-2.30037;25.7352;-0.724551;-0.0111821;0.0853076;-0.479442;-0.0516047;-0.470452;-0.192116;0.51078;-6.10301;-0.00164376;-9.0622e-05;0.00263596;0.00263788;-0.00164568;0.00214178;0.62359;1.60362;0.00249513;0.0028557;1.60291;0.623863;126.501;171.501;0.000103085;-0.00164488;0.00132287;-0.00149808;0.00263509;-0.0059243;0.0107207;0;0.0223798;-0.0584815;-0.551413;-0.652087;0.855975;-6.77839;-0.000292642;0.000239235;0.00448707;0.00449901;-0.000304587;0.0024018;0.0652191;15.3329;0.00310585;0.0032024;14.7709;0.0677008;62.7324;107.732;0.0023982;-0.000296097;-0.00217204;0.00263903;0.00448475;-0.014965;0.0208596;0;0.0521457;6.59072;1.79914
238000;239;25.8517;0.0986597;0.00383099;-2.30201;25.7391;-0.716295;-0.0128267;0.0891128;-0.471186;-0.0511684;-0.472354;-0.195577;0.513797;-6.10647;-0.00151772;2.25202e-05;0.00295117;0.00295128;-0.00151784;0.00223456;0.514279;1.94447;0.00262411;0.00297941;1.9444;0.514298;121.855;166.855;-0.000240052;-0.0015188;0.00151757;-0.00146586;0.00295002;-0.00711023;0.0122235;0;0.0209719;-0.0589621;-0.55485;-0.655449;0.860784;-6.78175;-0.000704442;0.000347916;0.00487448;0.00489609;-0.000726055;0.00281108;0.144516;6.91963;0.00353105;0.0037481;6.74342;0.148293;60.7503;105.75;-0.000658029;-0.000708769;-0.00228002;0.00296126;0.00487195;-0.0119005;0.0259787;0;0.0535691;6.61929;1.80327
239000;240;25.8502;0.0971099;0.00377081;-2.30024;25.7376;-0.719827;-0.0110524;0.0876164;-0.474718;-0.0543114;-0.477599;-0.189253;0.516592;-6.10015;-0.0016269;-0.000248033;0.00347872;0.00349074;-0.00163892;0.00256483;0.467671;2.13826;0.00302525;0.00341977;2.12991;0.469504;122.746;167.746;-6.46335e-05;-0.00162857;0.00135975;-0.00184763;0.00347783;-0.00661708;0.010285;0;0.0241721;-0.061385;-0.55859;-0.654119;0.862359;-6.78042;-0.000463203;-4.4691e-05;0.00482405;0.00482443;-0.00046358;0.00264401;0.0960194;10.4146;0.00338142;0.00352534;10.4069;0.0960902;65.1979;110.198;-0.00111373;-0.00046661;-0.00271371;0.00261028;0.00482039;-0.00909813;0.0278417;0;0.0556146;6.66967;1.80893
240000;241;25.8527;0.0996843;0.00387077;-2.30193;25.7402;-0.712957;-0.0127396;0.0902424;-0.467848;-0.0522303;-0.476251;-0.210636;0.523364;-6.12153;-0.00180283;-0.000639675;0.00324341;0.00332323;-0.00188265;0.00260294;0.555844;1.79907;0.00304374;0.00347059;1.76519;0.566513;129.124;174.124;0.000674693;-0.00180487;0.000845596;-0.00211747;0.00324326;-0.00923356;0.0123994;0;0.0323354;-0.0601969;-0.55981;-0.670888;0.875843;-6.79719;-0.000202976;4.3146e-06;0.00445347;0.00445347;-0.00020298;0.00232823;0.045577;21.9409;0.0030389;0.0031043;21.9405;0.0455779;64.541;109.541;-0.000990604;-0.000206395;-0.00261841;0.00261488;0.00445006;-0.00871047;0.0230073;0;0.0538471;6.71344;1.81712
241000;242;25.8549;0.101851;0.0039549;-2.30171;25.7423;-0.714635;-0.0125177;0.0923916;-0.469526;-0.0541173;-0.47993;-0.202747;0.523801;-6.11364;-0.00151354;-0.000234409;0.00379474;0.00380507;-0.00152387;0.00266447;0.398852;2.5072;0.00316924;0.00355263;2.49698;0.400484;120.304;165.304;0.00109408;-0.00151531;0.00143734;-0.00189732;0.00379374;-0.0118202;0.0117538;0;0.0218164;-0.0614675;-0.563679;-0.667868;0.876105;-6.79126;-0.000260565;0.000148513;0.00485915;0.00486345;-0.00026487;0.00256416;0.0536237;18.6485;0.0033341;0.00341888;18.3617;0.0544613;65.7038;110.704;-0.00115762;-0.00026361;-0.00218674;0.00247187;0.00485678;-0.00892163;0.0230194;0;0.0529144;6.74252;1.8206
242000;243;25.8548;0.101765;0.00395156;-2.30237;25.7421;-0.715884;-0.0131825;0.0922111;-0.470776;-0.0537591;-0.480716;-0.210101;0.527371;-6.121;-0.00154938;-0.000511374;0.00394741;0.00399458;-0.00159655;0.00279556;0.392506;2.54773;0.00332554;0.00372742;2.50201;0.399679;122.339;167.339;0.00106046;-0.00155161;0.00115574;-0.00216936;0.00394687;-0.0114104;0.0120982;0;0.0225757;-0.0617587;-0.565461;-0.673358;0.881459;-6.79675;-0.000261439;0.000146351;0.00466655;0.00467089;-0.000265782;0.00246834;0.0560241;17.8495;0.0032062;0.00329112;17.5742;0.0569017;65.3081;110.308;-0.00163852;-0.000264377;-0.00214659;0.00242804;0.00466427;-0.00850329;0.0207995;0;0.0516413;6.78572;1.82827
243000;244;25.8533;0.100292;0.00389439;-2.3018;25.7407;-0.718066;-0.0126149;0.0907224;-0.472957;-0.0556317;-0.484411;-0.206234;0.529416;-6.11713;-0.00150535;-0.000312338;0.00420765;0.00422467;-0.00152238;0.00287353;0.357766;2.79513;0.00343816;0.00383137;2.77505;0.360354;118.003;163.003;0.00160588;-0.00150713;0.0012928;-0.00190835;0.00420687;-0.0105151;0.0144989;0;0.0247783;-0.0636366;-0.569272;-0.670953;0.882212;-6.79434;-0.000373777;0.000193371;0.00493248;0.00493952;-0.000380815;0.00266017;0.0757788;13.1963;0.00342701;0.00354689;12.9709;0.0770956;66.3214;111.321;-0.00273067;-0.000376484;-0.00195894;0.00233432;0.00493059;-0.00754141;0.0232354;0;0.0563705;6.81636;1.83579
244000;245;25.8523;0.099263;0.00385442;-2.30144;25.7397;-0.716672;-0.0122535;0.0897596;-0.471564;-0.0574581;-0.487377;-0.209087;0.533438;-6.11998;-0.00146323;-0.000292565;0.00469677;0.00471063;-0.00147709;0.00309386;0.311539;3.20987;0.00373154;0.00412515;3.18912;0.313566;116.016;161.016;0.000658201;-0.00146519;0.00142704;-0.00200163;0.0046958;-0.0114154;0.0129881;0;0.0228274;-0.0655041;-0.573274;-0.673246;0.886676;-6.79663;-0.000474313;0.000345501;0.00447046;0.00449449;-0.000498337;0.00249641;0.106099;9.42515;0.0031755;0.00332855;9.01898;0.110877;65.2308;110.231;-0.00255633;-0.000476499;-0.00143675;0.00211898;0.0044695;-0.000986668;0.0183869;0;0.0516519;6.86347;1.8434
245000;246;25.8519;0.0988611;0.00383881;-2.30212;25.7393;-0.713139;-0.0129343;0.0893931;-0.468031;-0.0580614;-0.490036;-0.212186;0.537149;-6.12308;-0.00139619;-0.000103544;0.00466681;0.00466858;-0.00139796;0.00303327;0.299175;3.34253;0.00366827;0.00404436;3.33957;0.29944;113.857;158.857;-0.000443492;-0.00139778;0.00158489;-0.00178178;0.00466557;-0.00819757;0.013298;0;0.0224234;-0.0662098;-0.576305;-0.676651;0.891273;-6.80004;-0.00033237;0.000541678;0.00411111;0.00417619;-0.000397449;0.00228682;0.0808468;12.3691;0.00292562;0.00304909;10.5075;0.0951704;59.7858;104.786;-0.00332036;-0.000335475;-0.00147554;0.00254996;0.00411017;0.001014;0.0248302;0;0.048967;6.89203;1.85044
246000;247;25.8482;0.095168;0.0036954;-2.30196;25.7354;-0.72175;-0.0127756;0.085458;-0.476641;-0.0588195;-0.493604;-0.212358;0.540556;-6.12325;-0.00170727;-0.000170076;0.00500071;0.00500501;-0.00171158;0.0033583;0.341406;2.92906;0.00403023;0.00447773;2.92421;0.341973;114.098;159.098;-0.000161602;-0.00170894;0.00150326;-0.00183225;0.0049996;-0.00792974;0.0128722;0;0.0225104;-0.0668597;-0.579987;-0.676549;0.89363;-6.79994;-0.000580087;0.000599237;0.00402344;0.00410016;-0.00065681;0.00237849;0.144177;6.93592;0.00297663;0.00317131;6.24253;0.160191;55.9391;100.939;-0.00415567;-0.000584204;-0.00174304;0.00293078;0.0040221;-0.0009077;0.0251511;0;0.0496088;6.9327;1.85783
247000;248;25.8495;0.0964735;0.0037461;-2.30348;25.7366;-0.71945;-0.0142888;0.0866983;-0.474341;-0.0592615;-0.496099;-0.21446;0.543708;-6.12536;-0.00139959;0.000179555;0.00464325;0.00464858;-0.00140492;0.00302675;0.301424;3.31759;0.00365841;0.00403566;3.30879;0.302225;110.545;155.545;-0.00132415;-0.00140057;0.00178146;-0.00141271;0.00464169;-0.00572675;0.0130132;0;0.022076;-0.0673154;-0.582355;-0.681008;0.898577;-6.8044;-0.000516062;0.000639759;0.00383591;0.003928;-0.00060816;0.00226808;0.134535;7.43303;0.00284315;0.00302411;6.45883;0.154827;53.5581;98.5581;-0.0015977;-0.000520824;-0.00188252;0.0031511;0.00383434;-0.0108049;0.0301121;0;0.0485829;6.96371;1.8652
248000;249;25.8516;0.0985357;0.00382618;-2.3046;25.7387;-0.714998;-0.0154108;0.0887932;-0.469889;-0.0596947;-0.498946;-0.217152;0.547418;-6.12805;-0.00149721;0.000248319;0.00439631;0.00440676;-0.00150766;0.00295721;0.340561;2.93633;0.0035488;0.00394294;2.92292;0.342124;111.762;156.762;-0.000406127;-0.00149813;0.0018863;-0.00138006;0.00439457;-0.00475358;0.014146;0;0.0226311;-0.0683352;-0.585934;-0.682297;0.901952;-6.8086;-0.000862728;0.000478375;0.00394201;0.00398918;-0.000909894;0.00244954;0.218855;4.56924;0.00300896;0.00326605;4.38423;0.22809;56.0445;101.044;-0.00120089;-0.000866593;-0.0018744;0.00281989;0.00394038;-0.00797728;0.0336043;0;0.0470448;6.99969;1.87239
249000;250;25.8524;0.0993599;0.00385818;-2.30413;25.7395;-0.718369;-0.0149402;0.0895692;-0.47326;-0.061412;-0.502017;-0.218356;0.550883;-6.12925;-0.00157161;0.000158199;0.00414151;0.00414589;-0.00157599;0.00286094;0.379479;2.63519;0.00341279;0.00381459;2.63065;0.380134;112.147;157.147;-0.00141761;-0.00157237;0.00156559;-0.00124118;0.0041403;-0.00125342;0.0132156;0;0.0250166;-0.0699648;-0.589121;-0.68453;0.905837;-6.81083;-0.000909305;0.00058111;0.00415004;0.00421593;-0.000975192;0.00259556;0.219107;4.56397;0.00318583;0.00346075;4.32318;0.231311;53.3211;98.3211;-0.001382;-0.00091506;-0.00229271;0.00344045;0.00414759;-0.0100834;0.0368759;0;0.045223;7.03397;1.87754
250000;251;25.8545;0.101432;0.00393866;-2.30386;25.7418;-0.711558;-0.0146728;0.091864;-0.466449;-0.0623686;-0.505251;-0.217833;0.553732;-6.12873;-0.00167655;0.000147237;0.00397761;0.00398144;-0.00168038;0.00283091;0.421495;2.3725;0.00335764;0.00377455;2.36938;0.422052;114.187;159.187;-0.000718478;-0.00167737;0.00159319;-0.00129058;0.00397636;-0.00370773;0.0099866;0;0.0281012;-0.0710145;-0.593379;-0.683826;0.908163;-6.81012;-0.000684424;0.000254096;0.00436769;0.00438043;-0.000697172;0.0025388;0.156702;6.38155;0.00317827;0.00338507;6.28315;0.159156;59.3338;104.334;-0.00157744;-0.000688734;-0.00245143;0.00294601;0.00436473;-0.00435381;0.0316777;0;0.0449926;7.07234;1.88365
251000;252;25.8552;0.102176;0.00396751;-2.30398;25.7426;-0.710494;-0.0147896;0.0926317;-0.46514;-0.0632803;-0.508412;-0.217214;0.556479;-6.12811;-0.00158363;0.000396665;0.00382708;0.00385601;-0.00161255;0.00273428;0.413796;2.41665;0.00324463;0.00364571;2.39124;0.418193;112.299;157.299;-0.000405108;-0.00158414;0.00188916;-0.00108779;0.00382538;-0.00357952;0.00950582;0;0.0256842;-0.0726851;-0.597527;-0.681578;0.909324;-6.80715;-0.00117009;0.000352533;0.0047424;0.00476334;-0.00119104;0.00297719;0.246731;4.053;0.00363815;0.00396959;3.99931;0.250043;57.8248;102.825;6.64255e-05;-0.00117505;-0.00247616;0.00316458;0.00473941;-0.00551;0.0271035;0;0.0432002;7.10839;1.88807
252000;253;25.8591;0.106094;0.00411966;-2.30366;25.7465;-0.711798;-0.0144723;0.096557;-0.46669;-0.0641862;-0.511207;-0.219306;0.559953;-6.1302;-0.00167231;0.000165679;0.00378204;0.00378707;-0.00167734;0.0027322;0.44217;2.26157;0.00323231;0.00364294;2.25779;0.442911;115.104;160.104;-0.000695506;-0.0016731;0.00160774;-0.00126854;0.00378077;-0.00322574;0.00831632;0;0.0227761;-0.0737854;-0.60159;-0.685224;0.914815;-6.81152;-0.00105877;0.000167064;0.00510909;0.00511361;-0.00106329;0.00308845;0.207232;4.8255;0.00381324;0.00411793;4.80923;0.207933;59.6356;104.636;-0.000159312;-0.00106443;-0.00305199;0.00336636;0.00510447;-0.00679162;0.0288839;0;0.0494552;7.13708;1.89532
253000;254;25.8599;0.106879;0.00415016;-2.30342;25.7472;-0.716352;-0.0142313;0.0972412;-0.471244;-0.0648412;-0.514486;-0.220134;0.563346;-6.13103;-0.00161392;0.000201206;0.00373447;0.00374203;-0.00162148;0.00268175;0.432168;2.31391;0.00317627;0.00357567;2.30779;0.433315;115.034;160.034;-0.000521338;-0.00161472;0.00168765;-0.00127732;0.00373307;-0.0037726;0.00729337;0;0.0244294;-0.0748156;-0.606638;-0.6857;0.918581;-6.812;-0.000928433;-0.00014145;0.00517593;0.00517921;-0.000931709;0.00305546;0.179375;5.57492;0.00380163;0.00407395;5.55883;0.179894;65.7693;110.769;-0.000629778;-0.000931535;-0.0027928;0.0024938;0.00517206;-0.00480759;0.026807;0;0.0470503;7.18159;1.90293
254000;255;25.8599;0.106814;0.00414763;-2.30333;25.7471;-0.716859;-0.0141396;0.09717;-0.471751;-0.0660658;-0.517022;-0.220101;0.565792;-6.131;-0.00167946;-0.000139867;0.00380677;0.00381034;-0.00168303;0.00274668;0.441177;2.26666;0.0032499;0.00366224;2.26398;0.4417;119.344;164.344;-0.000211811;-0.0016809;0.00143123;-0.00170238;0.00380576;-0.00483738;0.00741336;0;0.0235904;-0.0765573;-0.609266;-0.688167;0.922302;-6.81447;-0.00101492;-0.000151706;0.0051692;0.00517292;-0.00101864;0.00309578;0.19634;5.0932;0.00383354;0.00412771;5.07825;0.196918;64.4776;109.478;-0.000145053;-0.00101855;-0.00301563;0.0026946;0.00516469;-0.00246432;0.0276562;0;0.046485;7.20125;1.90879
255000;256;25.8608;0.107709;0.00418238;-2.30438;25.7479;-0.716576;-0.0151915;0.0979824;-0.471467;-0.0661574;-0.519965;-0.218588;0.567909;-6.12948;-0.00187313;-0.000238471;0.00445669;0.00446566;-0.00188211;0.00317388;0.420297;2.37927;0.0037647;0.00423184;2.37269;0.421462;118.501;163.501;-0.000287817;-0.00187498;0.00146628;-0.00193248;0.00445564;-0.00530062;0.00829325;0;0.022909;-0.0767996;-0.613383;-0.685995;0.923432;-6.80938;-0.000783346;-5.27764e-06;0.00560705;0.00560706;-0.000783351;0.0031952;0.139707;7.15782;0.00402465;0.00426027;7.15779;0.139708;66.7058;111.706;-0.00161065;-0.000786611;-0.002581;0.00255407;0.00560374;-0.00407197;0.0295447;0;0.0489091;7.24571;1.91594
256000;257;25.8611;0.108056;0.00419585;-2.30435;25.7483;-0.716291;-0.0151596;0.0983416;-0.471182;-0.0671766;-0.522229;-0.223207;0.571889;-6.1341;-0.00173;-0.000325535;0.00462177;0.00463841;-0.00174664;0.00319252;0.374315;2.67155;0.00381035;0.0042567;2.65562;0.37656;116.671;161.671;-0.000304427;-0.00173175;0.00126046;-0.0019015;0.00462103;-0.00566948;0.0076652;0;0.0258159;-0.0784972;-0.616334;-0.692092;0.930064;-6.81548;-0.000871795;-4.64806e-05;0.00577611;0.00577644;-0.00087212;0.00332428;0.150931;6.62554;0.00417216;0.00443237;6.62344;0.150979;68.9302;113.93;-0.00242477;-0.000874296;-0.00234404;0.0022359;0.00577338;-0.00387885;0.0328736;0;0.0437446;7.27009;1.92272
257000;258;25.8632;0.11014;0.00427678;-2.30408;25.7503;-0.718419;-0.0148876;0.1004;-0.47331;-0.0683727;-0.524836;-0.224931;0.575084;-6.13583;-0.00168093;-0.000225142;0.00522089;0.00522823;-0.00168826;0.00345825;0.321962;3.10596;0.00416393;0.00461099;3.0968;0.322913;113.287;158.287;0.000560834;-0.00168265;0.00142606;-0.001865;0.0052199;-0.00714893;0.0084143;0;0.0257122;-0.0799867;-0.620092;-0.695301;0.93507;-6.81869;-0.00106557;0.000246201;0.00567293;0.00568191;-0.00107455;0.00337823;0.187834;5.32386;0.00419228;0.00450431;5.28771;0.189118;64.0841;109.084;-0.00241194;-0.00106939;-0.00229916;0.00277451;0.00567033;-0.00493383;0.0322662;0;0.0453256;7.3109;1.9305
258000;259;25.8621;0.109031;0.00423372;-2.30445;25.7492;-0.717072;-0.0152589;0.0992907;-0.471964;-0.0695093;-0.528034;-0.226201;0.578635;-6.1371;-0.00161495;-0.000343598;0.0053441;0.00536103;-0.00163187;0.00349645;0.302193;3.30915;0.00422438;0.00466193;3.2852;0.304395;114.376;159.376;0.000420837;-0.00161707;0.00141282;-0.00208786;0.00534317;-0.00866964;0.00959762;0;0.0273167;-0.081457;-0.624127;-0.696595;0.938837;-6.81998;-0.00072486;0.000115363;0.00538012;0.0053823;-0.000727039;0.00305467;0.134729;7.42229;0.00385347;0.00407289;7.40304;0.13508;67.0753;112.075;-0.004823;-0.000727591;-0.00212215;0.00233929;0.00537789;-0.00173363;0.0346973;0;0.0441005;7.34274;1.93676
259000;260;25.8613;0.108203;0.00420158;-2.30469;25.7484;-0.714863;-0.0155054;0.0984985;-0.469755;-0.0697346;-0.532078;-0.222362;0.580874;-6.13326;-0.00172674;-0.000483923;0.00551312;0.00554532;-0.00175894;0.00365213;0.313206;3.19279;0.00440194;0.00486951;3.15265;0.317194;115.948;160.948;0.00063501;-0.00172934;0.00137423;-0.0023287;0.0055123;-0.00953543;0.0102731;0;0.0257421;-0.0821725;-0.628154;-0.694077;0.939719;-6.81746;-0.000830972;0.000225022;0.00514482;0.00515328;-0.000839433;0.00299636;0.161516;6.19133;0.00374681;0.00399514;6.139;0.162893;67.3675;112.368;-0.00522495;-0.000833147;-0.00165836;0.0020972;0.00514347;-0.000829384;0.0333739;0;0.0427837;7.37358;1.94389
260000;261;25.8615;0.108436;0.0042106;-2.30588;25.7485;-0.71837;-0.0166881;0.0985285;-0.473262;-0.0708379;-0.533568;-0.22794;0.584525;-6.13884;-0.00150772;-0.000506433;0.00510919;0.00514772;-0.00154626;0.00334699;0.295101;3.38867;0.00404693;0.00446266;3.32914;0.300378;116.859;161.859;0.00109427;-0.00151026;0.00130612;-0.00230705;0.00510847;-0.0104522;0.0105733;0;0.0242636;-0.0838828;-0.630138;-0.700167;0.945698;-6.82356;-0.00105392;0.000343724;0.00471977;0.00474016;-0.00107431;0.00290724;0.223299;4.47829;0.00357247;0.00387632;4.41227;0.22664;61.4166;106.417;-0.00153199;-0.00105714;-0.00188351;0.00255816;0.00471806;-0.00852602;0.0263812;0;0.0438646;7.40966;1.95104
261000;262;25.8612;0.10812;0.00419834;-2.30639;25.7481;-0.717969;-0.0172001;0.0981766;-0.472861;-0.0708077;-0.538023;-0.223128;0.586744;-6.13402;-0.00153476;-0.000390703;0.00539386;0.00541583;-0.00155672;0.00348627;0.284537;3.51448;0.00422613;0.00464836;3.479;0.287439;114.936;159.936;0.000529711;-0.00153714;0.00144786;-0.00221659;0.0053929;-0.0104297;0.00974486;0;0.0222402;-0.0843817;-0.634424;-0.696851;0.946158;-6.82024;-0.00154838;0.000288093;0.00480036;0.0048134;-0.00156142;0.00318741;0.322554;3.10025;0.00383682;0.00424988;3.0827;0.324391;57.7559;102.756;-0.000975917;-0.00155293;-0.00247017;0.00302893;0.00479736;-0.0137944;0.0340597;0;0.0428355;7.43194;1.95181
262000;263;25.8604;0.107318;0.00416718;-2.30657;25.7473;-0.717909;-0.0173781;0.0973563;-0.472801;-0.0723222;-0.538886;-0.232199;0.591223;-6.1431;-0.00149122;-0.000251025;0.00556048;0.00556941;-0.00150014;0.00353478;0.268182;3.72882;0.00430109;0.00471304;3.71258;0.269354;112.455;157.455;0.00118675;-0.00149321;0.00151867;-0.00200831;0.00555937;-0.0110135;0.0115908;0;0.0278553;-0.0864992;-0.635833;-0.707029;0.954806;-6.83042;-0.00144957;0.000635909;0.00498911;0.00505132;-0.00151178;0.00328155;0.290547;3.44178;0.00396864;0.0043754;3.34131;0.299284;54.3797;99.3797;-0.00273767;-0.00145628;-0.00246135;0.00371332;0.0049863;-0.00996992;0.031592;0;0.0438984;7.46851;1.96032
263000;264;25.862;0.108951;0.00423059;-2.306;25.749;-0.717151;-0.0168104;0.0990685;-0.472042;-0.0740334;-0.543547;-0.229888;0.594788;-6.14078;-0.00167046;-0.000315468;0.00558593;0.00559962;-0.00168415;0.00364189;0.299047;3.34395;0.00440317;0.00485585;3.3249;0.300761;114.573;159.573;0.00114123;-0.00167287;0.00159915;-0.00221627;0.00558471;-0.011311;0.0138366;0;0.0246728;-0.0888055;-0.640935;-0.704828;0.9568;-6.83113;-0.0015399;0.000523336;0.00467644;0.00472019;-0.00158365;0.00315192;0.32929;3.03684;0.00378672;0.00420257;2.98057;0.335506;53.4566;98.4566;-9.35294e-05;-0.00154654;-0.00265096;0.00367799;0.00467308;-0.0104598;0.0258639;0;0.0390743;7.50445;1.96606
264000;265;25.8605;0.107481;0.00417354;-2.30758;25.7473;-0.721618;-0.0183965;0.0973258;-0.47651;-0.0746967;-0.545912;-0.228767;0.596602;-6.13966;-0.00160459;-0.00026139;0.00569867;0.00570801;-0.00161393;0.00366097;0.281573;3.55148;0.00444215;0.0048813;3.5367;0.282749;113.381;158.381;0.000368683;-0.00160687;0.00163782;-0.00214681;0.00569737;-0.00969477;0.0139357;0;0.023651;-0.0895665;-0.64372;-0.703279;0.957601;-6.82958;-0.00134642;0.000586246;0.00466443;0.00472107;-0.00140306;0.00306207;0.288656;3.46433;0.00370472;0.00408276;3.36484;0.297191;53.6523;98.6523;-0.000682698;-0.00135297;-0.00251264;0.00366659;0.00466146;-0.00979847;0.0280345;0;0.0376188;7.5259;1.9731
265000;266;25.8642;0.111112;0.00431453;-2.3082;25.751;-0.717759;-0.0190108;0.101026;-0.47265;-0.0752175;-0.549894;-0.230543;0.600992;-6.14144;-0.0015133;-9.86227e-05;0.00544239;0.00544379;-0.0015147;0.00347924;0.278058;3.59637;0.00422558;0.00463899;3.59397;0.278244;112.436;157.436;-0.000161406;-0.00151519;0.0017609;-0.00194528;0.00544085;-0.00809826;0.0127274;0;0.0258236;-0.0903506;-0.649049;-0.704482;0.962145;-6.83078;-0.00120797;0.000548811;0.00502531;0.00507326;-0.00125592;0.00316459;0.240377;4.16013;0.00386936;0.00421945;4.03947;0.247557;55.0682;100.068;-0.00178421;-0.00121522;-0.00276669;0.00384374;0.00502165;-0.00417309;0.0286539;0;0.0353625;7.56903;1.98081
266000;267;25.8627;0.109647;0.00425764;-2.30856;25.7493;-0.724396;-0.0193736;0.0993359;-0.479287;-0.076142;-0.551217;-0.231434;0.60266;-6.14233;-0.00166536;0.000116784;0.00540772;0.00540965;-0.00166729;0.00353847;0.30796;3.24718;0.00427206;0.00471796;3.24458;0.308206;111.212;156.212;-0.000237292;-0.00166682;0.00195533;-0.00170883;0.00540583;-0.00652013;0.013103;0;0.0268367;-0.092094;-0.650671;-0.707719;0.965774;-6.83402;-0.00131148;0.00063198;0.00538165;0.0054408;-0.00137063;0.00340571;0.243694;4.1035;0.00416003;0.00454095;3.96957;0.251916;57.8759;102.876;-0.00218525;-0.00131703;-0.00214375;0.00338922;0.00537956;-0.00478578;0.0309365;0;0.0356106;7.5827;1.98824
267000;268;25.868;0.114952;0.00446364;-2.3088;25.7548;-0.715771;-0.0196144;0.104884;-0.470663;-0.0766268;-0.553273;-0.234902;0.605938;-6.1458;-0.00157194;0.000257722;0.00530216;0.00531181;-0.00158159;0.0034467;0.296472;3.37299;0.00416962;0.0045956;3.35852;0.29775;108.855;153.855;-0.000688543;-0.00157292;0.00194713;-0.00142014;0.00530031;-0.00505945;0.0128366;0;0.024286;-0.0931571;-0.654626;-0.711221;0.971107;-6.83752;-0.00135671;0.000601658;0.00569319;0.00574417;-0.00140768;0.00357593;0.238303;4.19634;0.00437483;0.00476791;4.08058;0.245063;58.6629;103.663;0.00111535;-0.00136259;-0.00229636;0.00347935;0.00569075;-0.0122795;0.0318447;0;0.0411039;7.62415;1.99547
268000;269;25.8699;0.116808;0.00453571;-2.30885;25.7566;-0.717246;-0.0196572;0.106703;-0.472137;-0.0775751;-0.55635;-0.23223;0.607844;-6.14313;-0.00161865;0.000178341;0.00539814;0.00540267;-0.00162318;0.00351293;0.299854;3.33496;0.00424751;0.0046839;3.32844;0.300441;109.772;154.772;-0.0021737;-0.00161984;0.00191786;-0.00154904;0.00539633;-0.00337103;0.0101529;0;0.0269853;-0.0944617;-0.658722;-0.709638;0.972843;-6.83594;-0.00138555;0.000590196;0.00589919;0.0059467;-0.00143305;0.00368988;0.234871;4.25766;0.00451855;0.00491984;4.14967;0.240983;57.4301;102.43;0.000370705;-0.00139311;-0.00277562;0.00393163;0.00589554;-0.0129851;0.0386828;0;0.0397444;7.65164;2.00333
269000;270;25.8714;0.118366;0.0045962;-2.30943;25.7581;-0.720475;-0.020243;0.108125;-0.475366;-0.0781825;-0.559001;-0.235303;0.611524;-6.1462;-0.00166683;0.000149094;0.00488045;0.00488384;-0.00167022;0.00327703;0.341532;2.92798;0.00393269;0.00436938;2.92407;0.34199;111.28;156.28;-0.00180288;-0.0016679;0.00177458;-0.0014658;0.00487889;-0.00268739;0.00838745;0;0.0290105;-0.0953263;-0.662966;-0.713707;0.978769;-6.84001;-0.00115623;0.000252374;0.00623317;0.00624178;-0.00116484;0.00370331;0.185496;5.39096;0.00459891;0.00493775;5.35851;0.186619;62.9754;107.975;-0.000770967;-0.00116163;-0.00281262;0.00329486;0.00622928;-0.00963333;0.0369703;0;0.0438244;7.67768;2.01046
270000;271;25.8718;0.118735;0.00461054;-2.3114;25.758;-0.730752;-0.0222081;0.10803;-0.485643;-0.0795388;-0.560952;-0.238262;0.614624;-6.14916;-0.00164086;0.000312081;0.00495289;0.00496762;-0.0016556;0.00331161;0.331294;3.01847;0.0039801;0.00441548;3.0005;0.333278;110.087;155.087;-0.00157518;-0.00164176;0.00201191;-0.0013766;0.00495092;-0.00348333;0.00790237;0;0.0378493;-0.0973404;-0.666362;-0.716937;0.983622;-6.84033;-0.000785343;0.000383639;0.00644785;0.00646814;-0.000805634;0.00363689;0.121799;8.21023;0.00460419;0.00484918;8.02863;0.124554;63.0471;108.047;-0.00328385;-0.00079145;-0.00276998;0.00351459;0.00644411;-0.00670882;0.0385194;0;0.0464862;7.71342;2.01847
271000;272;25.8739;0.120879;0.00469378;-2.31067;25.7603;-0.726238;-0.0214868;0.110376;-0.481129;-0.080417;-0.564916;-0.235112;0.61715;-6.14601;-0.00162481;0.000305209;0.00483505;0.00484944;-0.0016392;0.00324432;0.336049;2.97576;0.00389605;0.00432576;2.95842;0.338019;109.246;154.246;-0.00158509;-0.00162553;0.00185797;-0.00123757;0.00483338;-0.00315719;0.00692392;0;0.0266439;-0.0985955;-0.671385;-0.716124;0.986566;-6.83951;-0.000405502;0.000503716;0.00640261;0.00643968;-0.000442569;0.00344112;0.0633338;15.7894;0.00444799;0.00458816;14.5507;0.0687253;65.695;110.695;-0.00349589;-0.000409994;-0.00204856;0.00303872;0.00640065;-0.000647462;0.0327138;0;0.0456774;7.73745;2.02312
272000;273;25.8764;0.123383;0.00479101;-2.31147;25.7627;-0.728894;-0.022284;0.112744;-0.483786;-0.0813399;-0.566091;-0.23615;0.618743;-6.14705;-0.0016967;0.000341576;0.00449992;0.00451869;-0.00171547;0.00311708;0.377051;2.65216;0.0037186;0.00415611;2.63408;0.379639;110.434;155.434;-0.001524;-0.00169732;0.00186101;-0.00116848;0.00449825;-0.00292161;0.00696962;0;0.0371686;-0.0999839;-0.674267;-0.718582;0.990451;-6.84197;-0.00085985;0.000668092;0.00639957;0.00646055;-0.000920823;0.00369068;0.13436;7.44266;0.0046445;0.00492091;7.01606;0.14253;61.9757;106.976;-0.000979426;-0.000865757;-0.00218455;0.00350016;0.00639742;-0.00909662;0.0258682;0;0.0484453;7.76805;2.02893
273000;274;25.8769;0.123888;0.00481061;-2.31263;25.763;-0.730388;-0.0234434;0.113105;-0.485279;-0.0822487;-0.568921;-0.238334;0.622285;-6.14923;-0.00169543;0.000153193;0.00482698;0.00483058;-0.00169902;0.0032648;0.351239;2.84706;0.00391172;0.00435307;2.84315;0.351722;112.333;157.333;-0.000878068;-0.00169661;0.00186314;-0.00154565;0.00482527;-0.00331916;0.00879724;0;0.0264494;-0.101644;-0.677959;-0.72404;0.997093;-6.84743;-0.000959341;0.000777985;0.00609173;0.00617655;-0.00104416;0.00361035;0.157483;6.34991;0.00450626;0.0048138;5.91532;0.169052;58.5047;103.505;-0.00197924;-0.000966647;-0.00236517;0.0038991;0.00608925;-0.00668974;0.025742;0;0.0462769;7.79374;2.03318
274000;275;25.8783;0.125294;0.0048652;-2.31257;25.7644;-0.733364;-0.0233835;0.114438;-0.488256;-0.0834984;-0.57086;-0.237935;0.624072;-6.14883;-0.001796;0.000352312;0.00463834;0.00465757;-0.00181523;0.0032364;0.387207;2.5826;0.0038553;0.0043152;2.56583;0.389738;111.88;156.88;-0.00122427;-0.00179684;0.00205611;-0.00134058;0.00463629;-0.00328867;0.0073052;0;0.0324404;-0.10337;-0.681372;-0.724835;1.00017;-6.84822;-0.000764199;0.000836448;0.0060942;0.00619474;-0.000864738;0.00352974;0.125398;7.97462;0.00444619;0.00470632;7.16371;0.139592;58.6411;103.641;-0.00122237;-0.000771485;-0.00225451;0.00390633;0.00609202;-0.00932159;0.0231269;0;0.0480455;7.82002;2.03926
275000;276;25.8801;0.127068;0.00493408;-2.31249;25.7663;-0.7294;-0.0233005;0.116339;-0.484291;-0.0832615;-0.573444;-0.238394;0.626579;-6.14929;-0.00176806;7.56331e-05;0.00457192;0.00457283;-0.00176897;0.0031709;0.386722;2.58584;0.00377884;0.00422786;2.58503;0.386843;114.389;159.389;-0.000889213;-0.00176935;0.00176435;-0.00160243;0.00457038;-0.00464457;0.00773116;0;0.0311661;-0.103694;-0.684978;-0.725827;1.00338;-6.84921;-0.000506753;0.00101508;0.00597387;0.00612914;-0.000662027;0.00339558;0.0848284;11.7885;0.0043237;0.00452744;9.25814;0.108013;61.0544;106.054;-0.00120068;-0.000511854;-0.00133567;0.00335067;0.00597349;-0.00627061;0.0223002;0;0.0559728;7.84858;2.04707
276000;277;25.8822;0.129171;0.00501575;-2.31319;25.7683;-0.730577;-0.0240028;0.118356;-0.485469;-0.0844912;-0.574523;-0.240675;0.628602;-6.15157;-0.00173819;-0.000154998;0.00488631;0.00488993;-0.00174181;0.00331587;0.355726;2.81115;0.00397004;0.00442116;2.80738;0.356204;115.88;160.88;-0.000694581;-0.00174012;0.00167169;-0.00196964;0.00488493;-0.00437367;0.00870291;0;0.025862;-0.105286;-0.688747;-0.727186;1.0071;-6.85057;-0.0010211;0.00115211;0.00642916;0.00660325;-0.00119519;0.00389922;0.158823;6.29632;0.00484991;0.00519896;5.52485;0.181;63.0136;108.014;-0.00150527;-0.00102547;-0.000884359;0.00317349;0.00642943;-0.00613982;0.0178223;0;0.0453954;7.87035;2.05408
277000;278;25.8834;0.130349;0.0050615;-2.31352;25.7694;-0.732765;-0.0243323;0.119447;-0.487657;-0.0847675;-0.575712;-0.243498;0.63081;-6.15439;-0.00175294;-6.59476e-05;0.00509963;0.00510027;-0.00175358;0.00342692;0.343739;2.90918;0.00411131;0.00456923;2.90849;0.343821;114.43;159.43;-0.000535749;-0.00175476;0.00178805;-0.0019073;0.00509804;-0.00498568;0.00639653;0;0.0282452;-0.105931;-0.691236;-0.73272;1.01287;-6.85611;-0.00104842;0.00109498;0.00657653;0.00673066;-0.00120255;0.00396661;0.159418;6.27281;0.00493702;0.00528881;5.597;0.178667;60.4074;105.407;-0.00148403;-0.00105462;-0.00151729;0.00368746;0.00657598;-0.00513535;0.0155477;0;0.0451389;7.89647;2.06137
278000;279;25.8848;0.131699;0.00511393;-2.31377;25.7708;-0.730089;-0.024585;0.120857;-0.48498;-0.0857273;-0.579754;-0.239493;0.633104;-6.15039;-0.00163248;-0.000389046;0.00517725;0.0051994;-0.00165463;0.00342702;0.315318;3.17141;0.00412982;0.00456936;3.14233;0.318235;116.817;161.817;-0.000870002;-0.00163504;0.0015311;-0.00229618;0.00517616;-0.0052041;0.00825974;0;0.0295183;-0.107614;-0.696367;-0.73018;1.01473;-6.85648;-0.000969498;0.00110958;0.00673201;0.00688868;-0.00112617;0.00400743;0.144013;6.94381;0.00501021;0.00534324;6.11691;0.163481;60.2946;105.295;0.000369624;-0.00097622;-0.00163089;0.00382907;0.0067313;-0.00758513;0.0156001;0;0.0494499;7.91943;2.06895
279000;280;25.8863;0.133207;0.00517246;-2.31452;25.772;-0.737157;-0.0253344;0.122102;-0.492049;-0.0857535;-0.580795;-0.241071;0.634659;-6.15197;-0.00168152;-0.000404735;0.00543151;0.00545447;-0.00170448;0.00357947;0.309586;3.23012;0.0043181;0.00477263;3.20008;0.312492;116.748;161.748;-0.000151937;-0.00168436;0.00161933;-0.00241448;0.00543029;-0.00582428;0.00796425;0;0.0275628;-0.108054;-0.699798;-0.731769;1.01827;-6.85807;-0.000960082;0.0012401;0.00740837;0.00758827;-0.00113998;0.00436413;0.129594;7.71639;0.00547852;0.00581884;6.65648;0.15023;62.7188;107.719;-0.00147134;-0.000966404;-0.00130498;0.00376404;0.00740829;-0.00780367;0.0203039;0;0.0434885;7.94353;2.07603
280000;281;25.8888;0.135782;0.00527246;-2.31549;25.7744;-0.742505;-0.0262973;0.124449;-0.497396;-0.0865562;-0.582628;-0.242001;0.636798;-6.1529;-0.00172134;-0.000243326;0.00563228;0.00564033;-0.00172938;0.00368485;0.30562;3.27204;0.00445013;0.00491314;3.26147;0.30661;114.739;159.739;-0.000262382;-0.00172383;0.00177336;-0.00224527;0.00563075;-0.00711662;0.00767591;0;0.0295408;-0.109227;-0.703919;-0.733238;1.02229;-6.85954;-0.000704415;0.000955747;0.00748619;0.00759623;-0.000814461;0.00420535;0.0940954;10.6275;0.00535632;0.00560713;9.3267;0.107219;65.8608;110.861;-0.000124271;-0.00070955;-0.00145102;0.00334294;0.00748559;-0.013671;0.0216127;0;0.0460614;7.97306;2.08279
281000;282;25.8924;0.139371;0.00541184;-2.31634;25.7778;-0.74786;-0.0271555;0.127823;-0.502752;-0.0872789;-0.584281;-0.240674;0.637907;-6.15157;-0.00171311;-0.000220413;0.00546521;0.00547197;-0.00171987;0.00359592;0.313458;3.19022;0.00433649;0.00479456;3.18161;0.314306;114.983;159.983;0.000160882;-0.0017155;0.00176601;-0.00219266;0.00546368;-0.00683391;0.00898568;0;0.0290491;-0.110718;-0.708209;-0.733127;1.02533;-6.85943;-0.000626188;0.000998845;0.00792005;0.00803524;-0.000741375;0.00438831;0.0790636;12.648;0.00562027;0.00585108;10.8383;0.0922655;65.3727;110.373;0.000293917;-0.000632387;-0.00168401;0.00365895;0.00791914;-0.0128156;0.0244228;0;0.0443762;7.98784;2.08968
282000;283;25.8945;0.141487;0.00549398;-2.31731;25.7797;-0.749859;-0.0281202;0.129803;-0.50475;-0.0877594;-0.585243;-0.242178;0.639423;-6.15307;-0.00163656;-0.000156784;0.00562215;0.00562554;-0.00163994;0.00363274;0.291091;3.43535;0.00440008;0.00484365;3.43032;0.291518;113.466;158.466;0.000586556;-0.00163878;0.00181153;-0.00211089;0.00562053;-0.00896449;0.0102034;0;0.0281642;-0.111694;-0.711942;-0.735571;1.02976;-6.86187;-0.000799887;0.000891577;0.00840377;0.00848934;-0.00088546;0.0046874;0.0951819;10.5062;0.00597662;0.00624987;9.58749;0.104303;65.7431;110.743;-0.000759401;-0.000806772;-0.0020588;0.00381501;0.00840206;-0.0144509;0.0251339;0;0.0478249;8.00774;2.09561
283000;284;25.8958;0.14271;0.00554149;-2.31861;25.7807;-0.755473;-0.0294204;0.130751;-0.510364;-0.0887638;-0.587167;-0.241643;0.64112;-6.15254;-0.00171605;-0.000181092;0.00602494;0.00602917;-0.00172029;0.00387473;0.284825;3.51093;0.00469904;0.00516631;3.50475;0.285327;113.012;158.012;0.00100978;-0.00171849;0.00186658;-0.00221301;0.00602322;-0.00926608;0.00918878;0;0.0289532;-0.113436;-0.716042;-0.737071;1.03386;-6.86337;-0.000789526;0.000762077;0.00871587;0.00877658;-0.000850237;0.00481341;0.0905849;11.0394;0.00615407;0.00641788;10.3225;0.0968756;69.25;114.25;6.03312e-05;-0.000794607;-0.00177605;0.00327628;0.00871459;-0.0134371;0.0235143;0;0.0472322;8.02725;2.10027
284000;285;25.8989;0.145851;0.00566344;-2.31819;25.7838;-0.757329;-0.0290003;0.133889;-0.51222;-0.0895238;-0.589453;-0.243019;0.643838;-6.15392;-0.00184082;-0.000418114;0.0056877;0.00571085;-0.00186397;0.00378741;0.323649;3.08977;0.00455744;0.00504988;3.06381;0.326391;116.659;161.659;0.00087983;-0.00184381;0.00165705;-0.00247775;0.00568642;-0.00929333;0.0100497;0;0.0247399;-0.114593;-0.721762;-0.737838;1.0385;-6.86123;-0.000645871;0.000861969;0.00938998;0.00946348;-0.000719366;0.00509142;0.068783;14.5385;0.00656193;0.00678856;13.1553;0.076015;69.6117;114.612;-0.00288309;-0.000651602;-0.00179491;0.00349242;0.00938875;-0.0166161;0.0249709;0;0.0526041;8.05937;2.11027
285000;286;25.9045;0.151409;0.00587926;-2.31858;25.7895;-0.754686;-0.0293933;0.139514;-0.509577;-0.0905195;-0.589843;-0.24375;0.64461;-6.15465;-0.00172831;-0.000110685;0.0059012;0.00590281;-0.00172992;0.00381636;0.292874;3.41444;0.00462107;0.00508848;3.41219;0.293066;113.157;158.157;0.000215407;-0.00173066;0.00196484;-0.00217047;0.00589929;-0.00817541;0.0109375;0;0.025785;-0.116033;-0.724896;-0.741695;1.04358;-6.86508;-0.00086394;0.000793659;0.0096434;0.00970301;-0.00092355;0.00531328;0.0895888;11.1621;0.00679747;0.00708437;10.5062;0.0951818;70.468;115.468;-0.00250321;-0.00086933;-0.00181624;0.00337639;0.00964208;-0.0144389;0.0209472;0;0.0536692;8.06564;2.11316
286000;287;25.9067;0.153608;0.00596465;-2.3182;25.7917;-0.754106;-0.0290083;0.141774;-0.508998;-0.0908133;-0.590429;-0.24527;0.645764;-6.15617;-0.00167174;-0.000289856;0.00592408;0.00593512;-0.00168279;0.00380895;0.282194;3.54366;0.00462097;0.00507861;3.52696;0.28353;114.369;159.369;0.000228059;-0.00167451;0.0018048;-0.00236869;0.0059225;-0.00911294;0.0106454;0;0.0248966;-0.116952;-0.727908;-0.742659;1.04646;-6.86605;-0.00101358;0.000773306;0.00972272;0.00977813;-0.00106899;0.00542356;0.104248;9.59247;0.00690273;0.00723141;9.14707;0.109325;71.9848;116.985;-0.000779507;-0.001018;-0.00154958;0.00307149;0.00972182;-0.0138851;0.0194971;0;0.052201;8.08527;2.11993
287000;288;25.911;0.157994;0.00613496;-2.31847;25.7962;-0.751056;-0.0292866;0.146244;-0.505948;-0.0913146;-0.592384;-0.242622;0.646624;-6.15352;-0.00177854;-0.000274243;0.00570615;0.00571619;-0.00178857;0.00375238;0.311688;3.20834;0.00452635;0.00500317;3.19595;0.312896;115.177;160.177;0.00043674;-0.00178119;0.00178478;-0.00231794;0.0057046;-0.0101689;0.0117875;0;0.0251443;-0.118156;-0.732957;-0.741821;1.04952;-6.86521;-0.00113435;0.000827942;0.00976409;0.00982663;-0.00119689;0.00551176;0.116176;8.60765;0.00698432;0.00734901;8.21014;0.121801;72.7942;117.794;-0.000354173;-0.00113825;-0.00127678;0.00290994;0.00976362;-0.0142638;0.021391;0;0.0571029;8.10795;2.12743
288000;289;25.914;0.160903;0.00624794;-2.31769;25.7992;-0.749324;-0.0285027;0.149287;-0.504215;-0.0917564;-0.594579;-0.243787;0.649134;-6.15468;-0.0015536;-0.00034658;0.00571936;0.00573584;-0.00157007;0.00365296;0.271638;3.68137;0.00444076;0.00487061;3.65323;0.27373;115.56;160.56;0.000246249;-0.00155661;0.00180055;-0.00247818;0.00571781;-0.0102134;0.0104607;0;0.0258955;-0.119502;-0.737808;-0.746148;1.05611;-6.86954;-0.0015376;0.000759253;0.00969568;0.00974676;-0.00158869;0.00566773;0.158586;6.30571;0.00708701;0.00755697;6.1351;0.162997;71.2611;116.261;-0.0011459;-0.0015421;-0.00159908;0.00309135;0.0096947;-0.0123136;0.0189728;0;0.0563186;8.12994;2.13473
289000;290;25.9182;0.165178;0.00641393;-2.31946;25.8034;-0.747025;-0.0302685;0.153489;-0.501916;-0.0920059;-0.595627;-0.243072;0.649862;-6.15397;-0.0017615;-8.70732e-05;0.00621875;0.0062197;-0.00176245;0.00399108;0.283257;3.53036;0.00484208;0.00532144;3.529;0.283367;111.911;156.911;-0.000300416;-0.00176378;0.00197486;-0.00213265;0.00621682;-0.00920583;0.0109767;0;0.0242427;-0.120295;-0.742316;-0.746897;1.05989;-6.8732;-0.00186884;0.000873494;0.00956688;0.00963322;-0.00193518;0.0057842;0.195345;5.11915;0.00715498;0.00771226;4.97795;0.200886;68.9969;113.997;-0.00165162;-0.00187426;-0.00168315;0.00340117;0.00956586;-0.0054234;0.0197371;0;0.0541788;8.13682;2.14238
290000;291;25.919;0.16596;0.00644427;-2.32084;25.8038;-0.758111;-0.0316496;0.153826;-0.513002;-0.0925771;-0.595532;-0.242636;0.649693;-6.15353;-0.00183179;-0.000195963;0.00569987;0.00570496;-0.00183688;0.00377092;0.321374;3.11164;0.00454117;0.0050279;3.10579;0.32198;114.125;159.125;0.000335244;-0.00183408;0.0017696;-0.0021468;0.00569833;-0.0106105;0.00962443;0;0.0233201;-0.121298;-0.746243;-0.747308;1.06304;-6.87361;-0.00177618;0.000961469;0.0103287;0.0104046;-0.00185207;0.00612832;0.171965;5.81512;0.00762904;0.00817109;5.61781;0.178005;69.0231;114.023;-0.00271117;-0.00178267;-0.00183898;0.00372836;0.0103275;-0.0073848;0.023118;0;0.0538124;8.14944;2.14928
291000;292;25.9241;0.171061;0.00664234;-2.32099;25.8087;-0.762344;-0.0318021;0.158811;-0.517235;-0.0932253;-0.597163;-0.241812;0.650974;-6.15271;-0.00170514;-0.000340665;0.00596314;0.00597824;-0.00172025;0.00384925;0.285947;3.49715;0.00466584;0.00513233;3.47522;0.287751;115.051;160.051;-9.79609e-05;-0.00170814;0.0018052;-0.00247017;0.00596158;-0.00941509;0.0108853;0;0.0247225;-0.122534;-0.751534;-0.748521;1.06776;-6.87482;-0.00185255;0.000871397;0.0116676;0.0117235;-0.00190848;0.00681601;0.158777;6.29813;0.00852338;0.00908802;6.14286;0.162791;73.7556;118.756;-0.00515074;-0.00185721;-0.00146016;0.00317179;0.0116669;-0.00190809;0.0263392;0;0.055314;8.17589;2.15626
292000;293;25.9302;0.177104;0.00687701;-2.32251;25.8146;-0.765201;-0.0333262;0.16466;-0.520093;-0.0933632;-0.597691;-0.24243;0.651708;-6.15333;-0.00164542;-0.00018039;0.00592393;0.00592823;-0.00164972;0.00378897;0.277758;3.60025;0.00460171;0.00505196;3.59348;0.278282;113.404;158.404;0.000212932;-0.00164794;0.00190553;-0.00225061;0.00592214;-0.00994312;0.00982896;0;0.0234414;-0.123177;-0.75688;-0.747686;1.07101;-6.87398;-0.00157657;0.00106249;0.012776;0.0128542;-0.00165479;0.00725449;0.123401;8.10367;0.00917096;0.00967266;7.76785;0.128736;75.4204;120.42;-0.00223923;-0.00158106;-0.00108558;0.00318012;0.0127759;-0.00959255;0.0199733;0;0.0567335;8.18259;2.16388
293000;294;25.9331;0.179997;0.00698936;-2.32324;25.8173;-0.771451;-0.034047;0.167316;-0.526342;-0.0938847;-0.598222;-0.243244;0.652573;-6.15414;-0.00172889;-0.000146791;0.00592486;0.00592768;-0.00173171;0.00382969;0.291803;3.42697;0.00463806;0.00510626;3.42302;0.29214;113.405;158.405;-0.000104489;-0.00173134;0.00193742;-0.00221514;0.00592301;-0.00912183;0.010184;0;0.0238376;-0.124473;-0.760985;-0.750506;1.07603;-6.8768;-0.00213289;0.00102564;0.0139626;0.0140277;-0.00219799;0.00811285;0.152757;6.54633;0.010164;0.0108171;6.38208;0.156689;73.9644;118.964;-0.00260537;-0.00213943;-0.00174839;0.00375563;0.0139616;-0.0114193;0.029716;0;0.0585262;8.18599;2.16936
294000;295;25.9386;0.185548;0.00720487;-2.32492;25.8227;-0.770359;-0.0357356;0.172771;-0.525251;-0.0941295;-0.598337;-0.243556;0.65283;-6.15445;-0.00175464;-0.000183151;0.00609625;0.00610052;-0.00175891;0.00392972;0.287824;3.47435;0.00476284;0.00523962;3.46834;0.288322;113.538;158.538;-0.000224864;-0.0017573;0.0019582;-0.0023078;0.00609436;-0.00924996;0.00982292;0;0.0242212;-0.125261;-0.76488;-0.75327;1.08081;-6.87957;-0.00231155;0.000877253;0.0145816;0.014627;-0.00235699;0.008492;0.158526;6.30813;0.0106245;0.0113227;6.20581;0.161139;75.6956;120.696;-0.00241645;-0.00231709;-0.00172527;0.00343644;0.0145805;-0.0135921;0.0330338;0;0.0558709;8.20422;2.17236
295000;296;25.9417;0.188624;0.00732433;-2.32508;25.8257;-0.77428;-0.0358952;0.17573;-0.529172;-0.0948506;-0.599718;-0.242624;0.653854;-6.15352;-0.00185036;-0.000217706;0.00621161;0.00621749;-0.00185623;0.00403686;0.297887;3.35698;0.0048828;0.00538248;3.34952;0.29855;113.925;158.925;-0.000155723;-0.00185317;0.00196044;-0.0023784;0.00620973;-0.00869008;0.0110659;0;0.0246238;-0.126555;-0.770602;-0.752874;1.08474;-6.87917;-0.00245493;0.000615231;0.0155517;0.0155727;-0.00247592;0.00902429;0.157856;6.33488;0.0112979;0.0120324;6.28964;0.158992;78.382;123.382;-0.000819989;-0.00245897;-0.00171807;0.00290716;0.0155504;-0.0181723;0.0292452;0;0.0582632;8.22524;2.18129
296000;297;25.9458;0.192698;0.00748254;-2.32581;25.8297;-0.775226;-0.0366264;0.179728;-0.530117;-0.0946968;-0.599591;-0.244119;0.654271;-6.15501;-0.00177064;-0.000326177;0.00598051;0.00599422;-0.00178434;0.00388928;0.296068;3.3776;0.00470509;0.0051857;3.35935;0.297677;115.111;160.111;-0.000879274;-0.00177362;0.00182428;-0.00246006;0.00597891;-0.00710321;0.0123458;0;0.0250305;-0.127366;-0.775435;-0.756445;1.09075;-6.88274;-0.00205632;0.000633606;0.0153344;0.0153575;-0.00207937;0.00871843;0.134098;7.45723;0.0109972;0.0116246;7.38564;0.135398;79.2834;124.283;-0.00130498;-0.00205975;-0.00146217;0.00269348;0.0153336;-0.00926602;0.027982;0;0.0595317;8.23268;2.18541
297000;298;25.9498;0.196707;0.00763822;-2.32536;25.8337;-0.776935;-0.0361764;0.183745;-0.531826;-0.0952032;-0.599976;-0.242461;0.654081;-6.15336;-0.00188166;1.58677e-05;0.00653658;0.00653661;-0.00188169;0.00420915;0.287865;3.47385;0.00510198;0.0056122;3.47381;0.287869;111.309;156.309;-0.000402929;-0.00188395;0.00219;-0.00214008;0.0065342;-0.00960947;0.0103157;0;0.023885;-0.128749;-0.779841;-0.758083;1.09518;-6.88438;-0.00259317;0.000537456;0.0158687;0.0158843;-0.0026088;0.00924655;0.163415;6.11941;0.0115577;0.0123287;6.08873;0.164238;79.3003;124.3;-0.00261176;-0.00259667;-0.00166304;0.00269796;0.0158674;-0.006961;0.0250561;0;0.0603121;8.23975;2.19311
298000;299;25.9538;0.200757;0.00779547;-2.32604;25.8376;-0.781515;-0.0368527;0.187614;-0.536406;-0.0957649;-0.601348;-0.242058;0.655273;-6.15295;-0.00187507;-3.85899e-05;0.00594904;0.00594923;-0.00187526;0.00391225;0.315189;3.1727;0.00471717;0.00521633;3.17248;0.31521;113.32;158.32;-0.00015174;-0.00187739;0.00209124;-0.00215185;0.00594687;-0.00866837;0.0126444;0;0.0238344;-0.130227;-0.785538;-0.759451;1.10036;-6.88284;-0.00297897;0.000524782;0.0164866;0.0165007;-0.00299311;0.00974692;0.18069;5.53433;0.012122;0.0129959;5.51291;0.181392;81.1169;126.117;-0.00260242;-0.00298146;-0.0012741;0.00228922;0.0164859;-0.00272051;0.0256822;0;0.0578829;8.25832;2.19976
299000;300;25.9613;0.208253;0.00808655;-2.32705;25.8451;-0.778058;-0.0378641;0.195157;-0.53295;-0.0960166;-0.600589;-0.24536;0.655841;-6.15626;-0.00175362;0.000108596;0.00619781;0.00619929;-0.0017551;0.0039772;0.282942;3.53429;0.00482549;0.00530293;3.53215;0.283114;111.379;156.379;-0.000683608;-0.00175574;0.0022946;-0.00206014;0.0061952;-0.00897006;0.0116312;0;0.0250994;-0.130981;-0.78985;-0.7638;1.10653;-6.88719;-0.00286524;0.000736724;0.0173248;0.0173517;-0.00289208;0.0101219;0.165383;6.04656;0.0126426;0.0134958;5.99971;0.166675;81.0875;126.087;-0.00462882;-0.00286807;-0.00104997;0.00248796;0.0173245;0.00227468;0.029907;0;0.0638745;8.26612;2.20724
300000;301;25.9684;0.215301;0.00836021;-2.32625;25.8526;-0.767762;-0.0370587;0.202616;-0.522653;-0.0961204;-0.602051;-0.239791;0.655137;-6.15069;-0.00174432;-1.81431e-05;0.00591388;0.00591392;-0.00174437;0.00382914;0.294954;3.39036;0.00463481;0.00510553;3.3903;0.294959;112.936;157.936;-0.000863256;-0.00174663;0.00212576;-0.00214572;0.00591163;-0.0081207;0.0103187;0;0.0254144;-0.131639;-0.795731;-0.760732;1.10871;-6.88412;-0.00326749;0.000806694;0.0175474;0.0175786;-0.00329871;0.0104386;0.18621;5.37029;0.0129593;0.0139182;5.32893;0.187655;79.6264;124.626;-0.00404252;-0.00327136;-0.00132052;0.00289039;0.0175468;-0.000664109;0.0308905;0;0.0644042;8.28037;2.21445
301000;302;25.9738;0.220746;0.00857165;-2.32773;25.8577;-0.773117;-0.0385442;0.207793;-0.528008;-0.0968187;-0.603156;-0.240549;0.656532;-6.15145;-0.00191513;2.83512e-05;0.00598225;0.00598235;-0.00191523;0.00394879;0.320135;3.12368;0.00475695;0.00526505;3.12357;0.320147;112.453;157.453;-0.00119626;-0.00191718;0.00209898;-0.00202602;0.00598006;-0.007448;0.0126535;0;0.0260643;-0.133246;-0.801807;-0.762424;1.11442;-6.88872;-0.00387632;0.000576237;0.0181962;0.0182112;-0.00389135;0.0110513;0.213029;4.69419;0.0136244;0.014735;4.67992;0.213679;78.2043;123.204;-0.00260335;-0.00388148;-0.00216572;0.00325875;0.018194;-0.00988479;0.0314738;0;0.0643851;8.28408;2.22222
302000;303;25.9758;0.222772;0.0086503;-2.32805;25.8594;-0.784963;-0.0388657;0.209441;-0.539854;-0.0966366;-0.602642;-0.23866;0.655343;-6.14956;-0.00186156;2.49777e-05;0.00581396;0.00581404;-0.00186164;0.00383784;0.320188;3.12317;0.00462325;0.00511712;3.12307;0.320197;112.636;157.636;-0.000734462;-0.00186355;0.00206001;-0.00199453;0.00581185;-0.00894684;0.0121088;0;0.0230408;-0.133264;-0.80694;-0.762897;1.11845;-6.8892;-0.0033262;0.000883613;0.0188692;0.0189043;-0.00336132;0.0111328;0.176277;5.67289;0.0138598;0.0148437;5.62407;0.177807;77.8376;122.838;-0.00248425;-0.00333256;-0.00196422;0.0036694;0.0188677;-0.00385823;0.0357026;0;0.0642112;8.29951;2.22929
303000;304;25.9814;0.228364;0.00886747;-2.32879;25.8649;-0.786614;-0.0396064;0.214943;-0.541506;-0.0969658;-0.602783;-0.238072;0.655307;-6.14897;-0.00176749;-6.47234e-05;0.00605105;0.00605159;-0.00176802;0.00390981;0.292096;3.42353;0.00473507;0.00521307;3.4228;0.292159;111.873;156.873;-0.000793257;-0.00176958;0.00193218;-0.00204611;0.0060492;-0.00793866;0.0107228;0;0.0252266;-0.134139;-0.811938;-0.762651;1.122;-6.88895;-0.00392029;0.00077403;0.0199982;0.0200232;-0.00394532;0.0119843;0.196032;5.1012;0.0148398;0.015979;5.07519;0.197037;78.97;123.97;-0.00360501;-0.00392591;-0.001948;0.00343222;0.0199966;-0.00700154;0.0359243;0;0.0638072;8.30453;2.23719
304000;305;25.9908;0.237722;0.00923082;-2.33018;25.8742;-0.785919;-0.0409881;0.224239;-0.540811;-0.0968311;-0.603589;-0.23525;0.65501;-6.14615;-0.00179115;-9.29461e-05;0.00590208;0.00590321;-0.00179227;0.00384774;0.303478;3.29513;0.0046495;0.00513032;3.29369;0.30361;113.25;158.25;-0.000932468;-0.00179347;0.00198512;-0.00215512;0.00590013;-0.00763545;0.0115874;0;0.0234824;-0.134805;-0.818106;-0.761195;1.12556;-6.88749;-0.00377804;0.00064177;0.021078;0.0210945;-0.0037946;0.0124446;0.179241;5.57908;0.0154837;0.0165928;5.5591;0.179885;80.1501;125.15;-0.00384362;-0.00378309;-0.00201644;0.00323527;0.0210762;-0.00858512;0.0379352;0;0.065659;8.31705;2.24382
305000;306;25.9937;0.240677;0.00934558;-2.3316;25.8768;-0.792408;-0.0424144;0.226881;-0.547299;-0.0969919;-0.605024;-0.231689;0.655088;-6.14259;-0.00199204;-0.000203281;0.00593555;0.00594076;-0.00199724;0.003969;0.335611;2.97964;0.0047678;0.005292;2.97448;0.336193;115.289;160.289;-0.000686343;-0.00199481;0.00197465;-0.00236405;0.00593363;-0.00784917;0.0116111;0;0.0236504;-0.135883;-0.824695;-0.759243;1.12917;-6.88554;-0.00367032;0.000996431;0.0216258;0.021665;-0.00370951;0.0126873;0.16972;5.89207;0.0158254;0.0169163;5.84039;0.171222;80.0268;125.027;-0.00195649;-0.00367586;-0.00153799;0.0034681;0.0216251;-0.00625112;0.0339552;0;0.065334;8.33366;2.25072
306000;307;25.9973;0.244249;0.00948429;-2.33147;25.8803;-0.796117;-0.0422799;0.230368;-0.551008;-0.0978885;-0.604392;-0.236444;0.656337;-6.14734;-0.00188839;-1.29215e-05;0.00610974;0.00610976;-0.00188841;0.00399909;0.309078;3.23542;0.00482738;0.00533211;3.2354;0.309081;112.419;157.419;-0.00170418;-0.00189059;0.00208717;-0.00209631;0.00610758;-0.00582169;0.0105149;0;0.027599;-0.137491;-0.828962;-0.769372;1.1393;-6.89567;-0.00435675;0.000884972;0.0228813;0.02291;-0.00438547;0.0136477;0.190407;5.25192;0.0169256;0.018197;5.22407;0.191422;79.9532;124.953;-0.00169233;-0.00436285;-0.00190019;0.00359596;0.0228799;-0.00923814;0.0403016;0;0.0673694;8.33911;2.25644
307000;308;26.0035;0.250464;0.00972561;-2.3317;25.8865;-0.797715;-0.0425141;0.23654;-0.552607;-0.0985702;-0.604789;-0.237086;0.657036;-6.14798;-0.00197326;0.000106203;0.00633413;0.00633549;-0.00197462;0.00415506;0.311529;3.20998;0.00501322;0.00554008;3.20846;0.311676;111.647;156.647;-0.00105491;-0.00197537;0.00228444;-0.00205405;0.00633155;-0.00882757;0.0101172;0;0.0276825;-0.139192;-0.834792;-0.771757;1.14537;-6.89805;-0.00455217;0.000927081;0.0230701;0.0231012;-0.00458325;0.0138422;0.197319;5.06794;0.0171341;0.0184563;5.04036;0.198399;80.1459;125.146;-0.00223758;-0.00455806;-0.00176653;0.00354796;0.023069;-0.00550292;0.0364826;0;0.0696794;8.34025;2.259
308000;309;26.0109;0.257818;0.0100112;-2.33318;25.8938;-0.796941;-0.0439967;0.243818;-0.551832;-0.0991566;-0.604522;-0.237655;0.657083;-6.14855;-0.00184703;-0.000144766;0.00588697;0.00588968;-0.00184973;0.00386971;0.313748;3.18727;0.00466686;0.00515961;3.18407;0.314064;114.333;159.333;-0.00139665;-0.0018496;0.00200047;-0.00227351;0.00588499;-0.00567847;0.0128963;0;0.0268202;-0.140251;-0.840597;-0.773104;1.15064;-6.8994;-0.00443001;0.000699438;0.0235845;0.0236019;-0.00444746;0.0140247;0.187836;5.3238;0.0174075;0.0186996;5.30683;0.188436;81.5342;126.534;-0.0036409;-0.00443456;-0.00175877;0.00309036;0.0235832;0.000204941;0.0383293;0;0.0718054;8.35725;2.2663
309000;310;26.0167;0.263665;0.0102382;-2.33297;25.8998;-0.79323;-0.0437856;0.249824;-0.548122;-0.0985839;-0.607352;-0.231679;0.657473;-6.14258;-0.00189945;0.000101255;0.00575639;0.00575773;-0.00190079;0.00382926;0.329973;3.03055;0.00460476;0.00510568;3.02912;0.330129;112.957;157.957;-0.00110944;-0.00190144;0.00221505;-0.00199645;0.00575395;-0.00681877;0.0115862;0;0.0247492;-0.140531;-0.848631;-0.768475;1.15346;-6.89186;-0.00480235;0.00046943;0.0238931;0.0239008;-0.00481003;0.0143554;0.200993;4.9753;0.0177557;0.0191406;4.96895;0.20125;82.7115;127.711;-0.00172181;-0.00480567;-0.00173421;0.0026113;0.0238918;-0.00367471;0.0263378;0;0.0701843;8.36156;2.27347
310000;311;26.0229;0.269814;0.010477;-2.33239;25.9061;-0.790283;-0.0432009;0.256143;-0.545175;-0.0986192;-0.606376;-0.231785;0.656614;-6.14268;-0.00182167;-5.88741e-05;0.00569079;0.00569126;-0.00182213;0.00375669;0.320108;3.12395;0.00452552;0.00500892;3.12341;0.320163;113.751;158.751;-0.00173839;-0.00182388;0.00200107;-0.00210343;0.00568881;-0.00573983;0.0115986;0;0.0251827;-0.141377;-0.853328;-0.77087;1.15862;-6.89426;-0.00512695;0.000414895;0.0243884;0.0243943;-0.00513278;0.0147635;0.210221;4.75691;0.0182164;0.0196847;4.75264;0.210409;82.0233;127.023;0.0018804;-0.00513099;-0.00210852;0.0028656;0.0243863;-0.00357677;0.029332;0;0.0698884;8.37181;2.28096
311000;312;26.0303;0.277238;0.0107653;-2.33559;25.913;-0.798085;-0.0464022;0.263074;-0.552976;-0.0996666;-0.60482;-0.237161;0.657257;-6.14806;-0.00192367;0.000116474;0.00615779;0.00615947;-0.00192535;0.00404241;0.312396;3.20107;0.00487648;0.00538988;3.19915;0.312583;112.141;157.141;-0.0013844;-0.00192581;0.00231952;-0.00206888;0.00615513;-0.00629196;0.012829;0;0.0255656;-0.142506;-0.859236;-0.775404;1.16612;-6.90045;-0.00482344;0.00012495;0.0248485;0.024849;-0.00482397;0.0148365;0.194114;5.15161;0.0183862;0.019782;5.15116;0.194131;83.4903;128.49;5.57647e-05;-0.00482619;-0.00215744;0.00234126;0.0248462;-0.00343938;0.0372464;0;0.0732386;8.37555;2.28794
312000;313;26.0368;0.28374;0.0110177;-2.3358;25.9196;-0.796158;-0.0466154;0.269645;-0.551049;-0.0992573;-0.606541;-0.233666;0.657529;-6.14456;-0.00188111;-9.56137e-05;0.00606117;0.00606233;-0.00188226;0.00397229;0.310353;3.22213;0.00479377;0.00529639;3.22077;0.310484;112.916;157.916;-0.00185461;-0.00188341;0.0019694;-0.00214433;0.00605925;-0.00509084;0.0120396;0;0.0253977;-0.143135;-0.86705;-0.774931;1.17166;-6.90123;-0.00493069;0.00074811;0.0254303;0.0254488;-0.00494911;0.0151989;0.19389;5.15757;0.0188336;0.0202652;5.14209;0.194473;80.7194;125.719;-0.00205136;-0.004937;-0.00221536;0.00362383;0.0254282;-0.00657613;0.0360473;0;0.0692791;8.39429;2.29571
313000;314;26.0412;0.288169;0.0111897;-2.33666;25.9235;-0.811589;-0.0474709;0.273539;-0.566481;-0.0998966;-0.6086;-0.226133;0.656893;-6.13703;-0.00190481;8.65528e-05;0.00567036;0.00567134;-0.0019058;0.00378857;0.335925;2.97685;0.00455118;0.00505143;2.97583;0.336041;112.975;157.975;-0.00131142;-0.00190671;0.00213777;-0.00194921;0.00566809;-0.00669205;0.0118531;0;0.0256398;-0.144518;-0.874098;-0.772085;1.17518;-6.89941;-0.00493013;0.00102428;0.0260029;0.0260368;-0.00496401;0.0155004;0.189599;5.27428;0.0192273;0.0206672;5.2451;0.190654;81.688;126.688;-0.0019402;-0.00493546;-0.00143942;0.00341369;0.0260024;0.00171565;0.0371098;0;0.0704577;8.39412;2.30304
314000;315;26.0452;0.292115;0.0113429;-2.33724;25.9273;-0.815421;-0.0480544;0.277329;-0.570312;-0.0995262;-0.607788;-0.22847;0.656895;-6.13937;-0.00198781;0.000111832;0.00598454;0.0059861;-0.00198938;0.00398774;0.332158;3.01062;0.0047935;0.00531699;3.00903;0.332333;112.53;157.53;-0.00126428;-0.00198982;0.00224514;-0.00200457;0.00598204;-0.00649907;0.0114913;0;0.026364;-0.144661;-0.878547;-0.777007;1.18174;-6.9054;-0.0047926;0.00104059;0.0272487;0.0272824;-0.00482636;0.0160544;0.175884;5.68557;0.0199922;0.0214059;5.6528;0.176904;83.6637;128.664;-0.00474032;-0.004796;-0.000777446;0.00280191;0.0272489;0.00486379;0.0299259;0;0.0751879;8.40043;2.31085
315000;316;26.053;0.299919;0.0116459;-2.33746;25.9353;-0.809873;-0.0482743;0.285323;-0.564764;-0.100631;-0.608409;-0.225768;0.656704;-6.13666;-0.00186659;6.03012e-05;0.00573613;0.00573661;-0.00186706;0.00380184;0.325409;3.07306;0.00457555;0.00506912;3.07253;0.325465;112.653;157.653;-0.00144596;-0.0018685;0.00209266;-0.0019567;0.00573396;-0.00657258;0.0108016;0;0.0242783;-0.146509;-0.886011;-0.775352;1.18644;-6.90375;-0.00535845;0.00106073;0.0289147;0.0289475;-0.00539124;0.0171694;0.185319;5.3961;0.0213238;0.0228925;5.36936;0.186242;83.4378;128.438;-0.00687455;-0.00536252;-0.000985509;0.00303881;0.0289148;0.00213365;0.0462913;0;0.0715703;8.41455;2.31772
316000;317;26.0582;0.305162;0.0118495;-2.3384;25.9403;-0.813351;-0.0492162;0.290396;-0.568242;-0.100345;-0.608122;-0.224923;0.656103;-6.13582;-0.00204121;2.10002e-05;0.00647776;0.00647781;-0.00204126;0.00425954;0.31511;3.1735;0.005136;0.00567938;3.17344;0.315115;112.051;157.051;-0.00117606;-0.00204352;0.00220847;-0.00214796;0.00647534;-0.00670065;0.0111954;0;0.027091;-0.147227;-0.891503;-0.774202;1.18989;-6.9005;-0.00543136;0.00165328;0.0295864;0.0296643;-0.00550924;0.0175868;0.183576;5.44733;0.0218454;0.023449;5.38446;0.18572;82.4295;127.43;-0.00454074;-0.00543693;-0.00048309;0.00371699;0.0295876;-0.000509582;0.0424098;0;0.078559;8.41582;2.32446
317000;318;26.0666;0.313516;0.0121739;-2.33874;25.9487;-0.812478;-0.0495556;0.298787;-0.567124;-0.101186;-0.605937;-0.231092;0.656355;-6.14199;-0.00194449;-6.45067e-05;0.00591813;0.00591866;-0.00194502;0.00393184;0.328565;3.04354;0.00472936;0.00524245;3.04298;0.328625;114.151;159.151;-0.00137568;-0.00194696;0.00210862;-0.00222065;0.00591592;-0.00730703;0.013652;0;0.0232422;-0.148802;-0.895085;-0.783662;1.19893;-6.90924;-0.00594892;0.00103988;0.0292057;0.0292365;-0.00597965;0.0176081;0.20369;4.90942;0.0217598;0.0234774;4.88933;0.204527;82.7755;127.775;0.000700381;-0.00595385;-0.00130073;0.00330055;0.0292054;-0.00142689;0.0390839;0;0.0770838;8.41703;2.32567
318000;319;26.0744;0.321394;0.0124798;-2.33901;25.9568;-0.805527;-0.0498177;0.306891;-0.560418;-0.101197;-0.60686;-0.230308;0.656934;-6.1412;-0.00186664;-3.45137e-06;0.00562022;0.00562022;-0.00186664;0.00374343;0.33213;3.01087;0.00449998;0.00499124;3.01087;0.33213;114.485;159.485;-0.00159034;-0.00186897;0.00216403;-0.00215479;0.00561789;-0.00693813;0.0132443;0;0.0254981;-0.149719;-0.902996;-0.78113;1.20332;-6.90743;-0.00604574;0.000565355;0.0296192;0.0296282;-0.0060547;0.0178414;0.204115;4.89919;0.0220492;0.0237886;4.89342;0.204356;82.5617;127.562;0.000167897;-0.006051;-0.00225089;0.00328405;0.0296169;-0.00608125;0.04193;0;0.0801048;8.43855;2.33368
319000;320;26.0771;0.324021;0.0125819;-2.34049;25.9592;-0.811354;-0.0513042;0.309216;-0.566245;-0.100254;-0.609075;-0.226366;0.657468;-6.13726;-0.00180699;0.0001035;0.0059992;0.00600057;-0.00180836;0.00390446;0.301205;3.32;0.00472008;0.00520595;3.31824;0.301365;111.221;156.221;-0.0015751;-0.00180882;0.002139;-0.00191621;0.00599693;-0.00553244;0.0113867;0;0.0372735;-0.149216;-0.911403;-0.779669;1.20864;-6.90472;-0.00595166;6.66471e-05;0.0301317;0.0301318;-0.00595178;0.0180418;0.197522;5.06274;0.0223377;0.0240557;5.06265;0.197525;84.3633;129.363;0.00216289;-0.0059546;-0.00236872;0.00241671;0.030129;-0.00995914;0.0393706;0;0.0782809;8.4404;2.3403
320000;321;26.09;0.336939;0.0130834;-2.34185;25.9721;-0.809627;-0.0526665;0.322123;-0.564518;-0.10093;-0.607628;-0.22779;0.656725;-6.13869;-0.00200881;8.76845e-05;0.00614297;0.00614391;-0.00200976;0.00407683;0.32701;3.05801;0.00490508;0.00543578;3.05705;0.327113;111.89;156.89;-0.00143877;-0.00201077;0.00217055;-0.00197831;0.00614063;-0.00593693;0.0122276;0;0.0247514;-0.150571;-0.916234;-0.78193;1.21391;-6.90532;-0.00610086;0.000414632;0.0311947;0.0311993;-0.00610547;0.0186524;0.195574;5.11317;0.0231052;0.0248699;5.11006;0.195692;84.6325;129.632;-0.000370331;-0.0061039;-0.0017419;0.00249317;0.0311933;-0.00957999;0.0335934;0;0.0766904;8.44499;2.34731
321000;322;26.0929;0.339844;0.0131963;-2.34173;25.9748;-0.81468;-0.0525416;0.324894;-0.569571;-0.101043;-0.606228;-0.231653;0.656799;-6.14255;-0.00198816;0.000244571;0.0055854;0.00559329;-0.00199605;0.00379467;0.355957;2.80933;0.00454281;0.00505956;2.80218;0.356866;112.625;157.625;-0.0013173;-0.00198979;0.00232364;-0.00181884;0.00558274;-0.0077712;0.0122207;0;0.0250372;-0.151678;-0.921769;-0.788564;1.2225;-6.91589;-0.00597972;0.00088167;0.0316874;0.031708;-0.00600035;0.0188542;0.18871;5.29914;0.0233967;0.0251389;5.28436;0.189238;84.3015;129.301;-0.00250045;-0.00598339;-0.00115186;0.00284095;0.0316871;-0.00457482;0.0397255;0;0.0742488;8.45538;2.35501
322000;323;26.103;0.349904;0.0135869;-2.34278;25.9848;-0.816742;-0.0535947;0.334843;-0.571388;-0.101756;-0.60712;-0.227521;0.656289;-6.13842;-0.00206625;-0.000109757;0.00599747;0.00599897;-0.00206774;0.00403335;0.34452;2.90259;0.00483816;0.0053778;2.90122;0.344683;114.194;159.194;-0.00182504;-0.00206867;0.0020004;-0.002203;0.00599549;-0.00542792;0.00986416;0;0.0248366;-0.153393;-0.929397;-0.787439;1.22775;-6.91405;-0.00591604;0.001312;0.0323985;0.0324433;-0.00596092;0.0192021;0.182603;5.47638;0.0238653;0.0256028;5.44268;0.183733;83.118;128.118;-0.00248136;-0.00592168;-0.00106107;0.003597;0.0323988;-0.00406897;0.0404755;0;0.0793367;8.46951;2.36256
323000;324;26.1059;0.352819;0.0137001;-2.34391;25.9873;-0.826709;-0.0547259;0.337352;-0.5816;-0.101502;-0.609995;-0.21977;0.656274;-6.13067;-0.00194226;6.38299e-05;0.005726;0.00572653;-0.00194279;0.00383466;0.3392;2.94812;0.00460401;0.00511288;2.94758;0.339261;113.426;158.426;-0.00193197;-0.0019443;0.00216502;-0.00202134;0.00572367;-0.00627239;0.0109367;0;0.0247336;-0.153772;-0.936982;-0.783646;1.23113;-6.91204;-0.00577082;0.00136549;0.033315;0.0333627;-0.00581847;0.0195906;0.17322;5.77301;0.0244135;0.0261208;5.73392;0.174401;83.328;128.328;-0.00640593;-0.00577648;-0.000977387;0.00361974;0.0333155;0.00490583;0.0378926;0;0.0784332;8.46999;2.37027
324000;325;26.1103;0.357266;0.0138728;-2.34324;25.9917;-0.831487;-0.0540471;0.341728;-0.586378;-0.102233;-0.607899;-0.223216;0.655605;-6.13411;-0.00189972;0.000149438;0.00601738;0.0060202;-0.00190254;0.00396137;0.315705;3.16752;0.00477568;0.00528182;3.1643;0.316025;111.621;156.621;-0.00143811;-0.00190158;0.00225226;-0.00193683;0.00601487;-0.00647012;0.0117009;0;0.0243283;-0.15478;-0.941152;-0.789425;1.23811;-6.91782;-0.00616489;0.00108807;0.0336238;0.0336536;-0.00619462;0.0199241;0.183349;5.45409;0.0247602;0.0265655;5.43271;0.18407;85.2482;130.248;-0.00571269;-0.00616772;-0.000497102;0.00261221;0.0336243;0.0144412;0.0468397;0;0.0863453;8.47461;2.3791
325000;326;26.1178;0.36474;0.014163;-2.34483;25.999;-0.831045;-0.0556429;0.349108;-0.585691;-0.101906;-0.608243;-0.22425;0.656226;-6.13515;-0.00203901;-0.00010375;0.00641561;0.00641689;-0.00204029;0.00422859;0.317821;3.14643;0.00509603;0.00563811;3.14509;0.317956;113.605;158.605;-0.00179742;-0.00204178;0.00216395;-0.0023524;0.00641329;-0.00499927;0.0123799;0;0.0311653;-0.15566;-0.947084;-0.791607;1.24412;-6.91929;-0.00624095;0.00140766;0.0347592;0.0348074;-0.00628922;0.0205483;0.179548;5.56953;0.0255606;0.0273978;5.53446;0.180686;86.2791;131.279;-0.00675849;-0.00624256;0.000501652;0.00227777;0.03476;0.0117405;0.0461756;0;0.0899454;8.48503;2.38607
326000;327;26.1266;0.373513;0.0145036;-2.34597;26.0079;-0.827473;-0.0567838;0.357932;-0.58212;-0.102898;-0.608952;-0.221957;0.656258;-6.13285;-0.00205494;-9.0988e-05;0.0057548;0.00575586;-0.002056;0.00390593;0.357084;2.80046;0.00467576;0.00520791;2.79954;0.357202;115.321;160.321;-0.00177552;-0.00205746;0.0020754;-0.00224055;0.00575266;-0.00603729;0.0123166;0;0.0258566;-0.157212;-0.955223;-0.78928;1.24905;-6.91696;-0.00686647;0.00122595;0.0349207;0.0349566;-0.00690241;0.0209295;0.196631;5.08568;0.0259135;0.027906;5.0644;0.197457;84.6127;129.613;6.55012e-05;-0.00687037;-0.000663952;0.00303954;0.0349212;-0.000689085;0.038086;0;0.082101;8.49894;2.39258
327000;328;26.1338;0.380755;0.0147849;-2.34765;26.0152;-0.819862;-0.0584568;0.365295;-0.574754;-0.102101;-0.610006;-0.220128;0.656497;-6.13102;-0.00192798;4.41483e-05;0.0065237;0.00652393;-0.00192821;0.00422607;0.295535;3.3837;0.00511465;0.00563476;3.38341;0.29556;110.806;155.806;-0.00230446;-0.00193006;0.00214411;-0.00203818;0.00652142;-0.00391784;0.0107015;0;0.0260608;-0.157235;-0.963835;-0.787271;1.25439;-6.91336;-0.00648951;0.000971135;0.0350308;0.0350535;-0.00651221;0.0207828;0.185252;5.39807;0.025815;0.0277105;5.38273;0.185779;84.7463;129.746;0.00267528;-0.00649333;-0.00106012;0.0029209;0.0350307;-0.00898883;0.0415416;0;0.0838773;8.50076;2.39889
328000;329;26.1425;0.389424;0.0151215;-2.34757;26.0237;-0.826373;-0.0583863;0.373807;-0.581019;-0.102292;-0.610367;-0.222025;0.6575;-6.13292;-0.00195124;5.15964e-05;0.00626671;0.00626703;-0.00195157;0.0041093;0.311367;3.21165;0.00495826;0.00547906;3.21128;0.311402;111.746;156.746;-0.0018059;-0.00195334;0.00216612;-0.00204565;0.00626438;-0.00511487;0.00992255;0;0.0246295;-0.15847;-0.969766;-0.789081;1.26024;-6.9117;-0.00672512;0.000952902;0.0356833;0.0357047;-0.00674652;0.0212256;0.188467;5.30597;0.0263415;0.0283008;5.29231;0.188953;85.5912;130.591;0.00267259;-0.00672787;-0.000688102;0.00252671;0.0356835;-0.00626085;0.0394452;0;0.0802572;8.51052;2.4041
329000;330;26.1476;0.394568;0.0153212;-2.34871;26.0288;-0.82819;-0.059525;0.378813;-0.582836;-0.10191;-0.609391;-0.224546;0.657392;-6.13544;-0.00187205;0.000111245;0.00616749;0.00616903;-0.00187359;0.00402131;0.303536;3.2945;0.00485915;0.00536175;3.29262;0.30371;111.669;156.669;-0.00152374;-0.00187411;0.00226877;-0.00202904;0.00616494;-0.00598744;0.0130258;0;0.0260463;-0.158734;-0.975885;-0.793169;1.26754;-6.91679;-0.00592786;0.00149929;0.0369693;0.0370216;-0.0059802;0.0215009;0.160346;6.23653;0.026897;0.0286679;6.1907;0.161533;85.8412;130.841;-0.00258077;-0.0059303;0.000283719;0.00266457;0.0369703;0.00341953;0.0437163;0;0.0850415;8.51408;2.40712
330000;331;26.1539;0.400878;0.0155662;-2.3485;26.0348;-0.839121;-0.0593082;0.384819;-0.594012;-0.101911;-0.609413;-0.224939;0.657547;-6.13584;-0.00197305;0.000227895;0.00635357;0.0063598;-0.00197928;0.00416954;0.310542;3.22018;0.00503112;0.00555939;3.21319;0.311217;110.287;155.287;-0.00204926;-0.00197476;0.00233683;-0.00186359;0.00635088;-0.00489895;0.0122179;0;0.0290583;-0.159033;-0.983012;-0.798851;1.27662;-6.92618;-0.00602349;0.00135711;0.0377441;0.0377861;-0.00606553;0.0219258;0.159588;6.26614;0.027437;0.0292344;6.22964;0.160523;85.0757;130.076;-0.00290642;-0.00602739;-0.000460121;0.0030977;0.0377448;-0.00318577;0.0490066;0;0.0853513;8.52277;2.41435
331000;332;26.1611;0.408008;0.0158431;-2.35;26.0418;-0.839547;-0.0608139;0.391832;-0.594438;-0.10292;-0.610259;-0.219844;0.656765;-6.13074;-0.0020378;-8.26835e-05;0.00642075;0.00642156;-0.00203861;0.00423009;0.317378;3.15082;0.0050983;0.00564011;3.14997;0.317464;112.657;157.657;-0.00232863;-0.00204025;0.0020639;-0.00221122;0.00641864;-0.00420965;0.0113943;0;0.0256198;-0.160926;-0.98983;-0.796821;1.28085;-6.92561;-0.00600659;0.00145741;0.0380068;0.038055;-0.00605479;0.0220549;0.15804;6.32752;0.0276105;0.0294065;6.2851;0.159106;85.7378;130.738;-0.00883561;-0.00600939;8.15022e-05;0.00277497;0.0380078;0.00292189;0.0459464;0;0.08721;8.53552;2.42168
332000;333;26.1686;0.415519;0.0161347;-2.35146;26.0493;-0.835571;-0.0622688;0.399374;-0.590462;-0.102885;-0.610632;-0.2187;0.656724;-6.1296;-0.00199357;3.96368e-05;0.00630637;0.00630656;-0.00199376;0.00415016;0.31612;3.16335;0.00500318;0.00553355;3.16315;0.316141;112.268;157.268;-0.00173093;-0.00199582;0.00221827;-0.00212103;0.00630393;-0.0053635;0.0132941;0;0.0273562;-0.161582;-0.996606;-0.797233;1.28643;-6.92563;-0.00627002;0.0016806;0.0382601;0.0383234;-0.00633336;0.0223284;0.163879;6.10206;0.0279007;0.0297712;6.05104;0.165261;85.0336;130.034;-0.00902009;-0.0062739;4.73732e-05;0.00324378;0.0382614;0.0109482;0.0493077;0;0.0907889;8.53949;2.4294
333000;334;26.172;0.418938;0.0162675;-2.35075;26.0525;-0.844642;-0.0615596;0.402582;-0.599288;-0.102949;-0.610962;-0.216374;0.65627;-6.12727;-0.00185784;-5.17252e-05;0.00631733;0.00631765;-0.00185817;0.00408791;0.294087;3.40035;0.00494884;0.00545055;3.39993;0.294124;112.312;157.312;-0.00248542;-0.00186026;0.00210967;-0.00219556;0.00631512;-0.00463792;0.0113294;0;0.0254406;-0.162643;-1.00331;-0.796786;1.29149;-6.9234;-0.00648299;0.00192273;0.0385949;0.0386768;-0.00656485;0.0226208;0.167975;5.95326;0.0282284;0.0301611;5.8915;0.169736;84.8222;129.822;-0.00181058;-0.00648713;0.000322902;0.00345312;0.0385967;-0.00725353;0.048162;0;0.0880986;8.543;2.43586
334000;335;26.1807;0.427655;0.016606;-2.35165;26.0613;-0.840027;-0.0624568;0.411408;-0.594673;-0.102659;-0.610742;-0.21642;0.656036;-6.12732;-0.00209246;-1.44452e-05;0.00623479;0.00623481;-0.00209249;0.00416365;0.335611;2.97964;0.00500212;0.00555153;2.97961;0.335614;112.751;157.751;-0.00141329;-0.00209469;0.00209397;-0.00210541;0.00623261;-0.00627442;0.0104695;0;0.0239581;-0.162826;-1.00897;-0.799489;1.29758;-6.9261;-0.00650548;0.00207459;0.0394447;0.0395381;-0.00659895;0.0230685;0.164927;6.0633;0.0288114;0.0307581;5.99158;0.166901;83.614;128.614;0.00307591;-0.00651245;-0.000213716;0.00426173;0.0394467;-0.00485752;0.043746;0;0.0906274;8.55071;2.44286
335000;336;26.187;0.433908;0.0168488;-2.35276;26.0676;-0.838964;-0.0635696;0.417623;-0.59361;-0.103045;-0.610902;-0.215966;0.656095;-6.12686;-0.001977;-1.54909e-05;0.00610988;0.00610991;-0.00197703;0.00404347;0.323574;3.09048;0.00486799;0.00539129;3.09045;0.323578;113.133;158.133;-0.00154282;-0.00197933;0.00214329;-0.00215692;0.00610759;-0.0058836;0.0113611;0;0.0258201;-0.164236;-1.01692;-0.799382;1.30388;-6.926;-0.006211;0.00196934;0.039961;0.0400448;-0.00629484;0.0231698;0.155427;6.4339;0.0290233;0.0308931;6.36152;0.157195;85.0464;130.046;-0.00169213;-0.00621502;0.000424176;0.00344589;0.0399627;0.00538247;0.0510075;0;0.0874846;8.56202;2.45003
336000;337;26.1962;0.443162;0.0172081;-2.35316;26.0768;-0.838442;-0.0639734;0.426901;-0.593088;-0.102877;-0.61107;-0.215407;0.656042;-6.1263;-0.00194596;-2.67973e-05;0.00615984;0.00615993;-0.00194604;0.00405299;0.31591;3.16546;0.00488623;0.00540398;3.16536;0.31592;113.241;158.241;-0.00239325;-0.00194841;0.00217891;-0.00221474;0.00615748;-0.00355987;0.0114172;0;0.0290409;-0.164844;-1.02354;-0.79995;1.30947;-6.92656;-0.0063246;0.0016332;0.0408499;0.0409064;-0.00638107;0.0236437;0.154825;6.4589;0.0296279;0.031525;6.41059;0.155992;85.5947;130.595;0.000965152;-0.00632806;0.000108594;0.0030887;0.0408512;-0.00118607;0.0497402;0;0.0857096;8.56649;2.45822
337000;338;26.2047;0.451639;0.0175373;-2.35391;26.0852;-0.84019;-0.0647253;0.435292;-0.594836;-0.103901;-0.611715;-0.215726;0.656909;-6.12662;-0.00190151;0.000121747;0.00635896;0.00636076;-0.0019033;0.00413203;0.299028;3.34417;0.00499725;0.00550937;3.34196;0.299226;111.37;156.37;-0.00210661;-0.00190363;0.00232262;-0.00206106;0.00635629;-0.00529071;0.0121285;0;0.0239882;-0.166786;-1.03039;-0.803345;1.31715;-6.92697;-0.00631063;0.00173741;0.0411399;0.0412035;-0.00637416;0.0237888;0.153394;6.51915;0.0298216;0.0317184;6.46414;0.1547;85.6009;130.601;-0.000218353;-0.00631405;0.000275395;0.00313278;0.0411413;0.00672372;0.0391165;0;0.0871556;8.57417;2.46469
338000;339;26.2106;0.457572;0.0177677;-2.35626;26.0908;-0.844495;-0.0670671;0.440901;-0.599141;-0.104197;-0.613871;-0.21133;0.657537;-6.12223;-0.00196717;-0.000113736;0.00624106;0.00624263;-0.00196874;0.00410569;0.315198;3.17261;0.00495026;0.00547425;3.17087;0.31537;113.235;158.235;-0.00273834;-0.00196967;0.00202999;-0.00223998;0.00623901;-0.00447072;0.00894986;0;0.0238452;-0.167941;-1.03983;-0.798939;1.32203;-6.92555;-0.00593234;0.00180505;0.0424054;0.0424727;-0.00599965;0.0242362;0.139896;7.14817;0.0305123;0.0323149;7.07919;0.141259;85.641;130.641;-0.00152178;-0.0059359;0.000326639;0.0032149;0.0424069;0.00386336;0.0450494;0;0.0958907;8.58389;2.47282
339000;340;26.217;0.463915;0.018014;-2.35604;26.097;-0.851579;-0.066847;0.447064;-0.606225;-0.102961;-0.613829;-0.211219;0.657268;-6.12211;-0.00198718;-4.48607e-05;0.00657454;0.00657478;-0.00198742;0.0042811;0.302255;3.30847;0.00517448;0.00570813;3.3082;0.302279;112.17;157.17;-0.00136043;-0.00198969;0.00216682;-0.00223773;0.00657221;-0.00538558;0.0122125;0;0.0255771;-0.167263;-1.04481;-0.803866;1.32884;-6.93195;-0.00614782;0.0014654;0.0422864;0.0423307;-0.00619211;0.0242614;0.145385;6.87829;0.0304948;0.0323486;6.83623;0.146279;86.8334;131.833;-0.00388865;-0.00614955;0.000521047;0.00236587;0.0422873;0.00228283;0.0476455;0;0.090203;8.58146;2.47583
340000;341;26.2199;0.46681;0.0181264;-2.3555;26.0998;-0.857387;-0.066314;0.449827;-0.612279;-0.103711;-0.613783;-0.210848;0.657223;-6.12174;-0.00206607;8.25236e-05;0.00630621;0.00630702;-0.00206688;0.00418695;0.327624;3.05228;0.00503704;0.0055826;3.05147;0.327711;112.586;157.586;-0.00311713;-0.00206834;0.00231774;-0.0021341;0.00630354;-0.00251471;0.0115779;0;0.0248764;-0.168387;-1.05133;-0.805623;1.33517;-6.93441;-0.00624965;0.00178253;0.0429112;0.0429757;-0.0063142;0.024645;0.145641;6.86618;0.0309705;0.03286;6.80621;0.146925;86.5395;131.539;-0.00748449;-0.00625162;0.000856449;0.00266496;0.0429124;-0.00399888;0.0495196;0;0.0952718;8.59408;2.48076
341000;342;26.2273;0.474241;0.018415;-2.35614;26.1071;-0.858499;-0.0669555;0.457201;-0.613145;-0.104012;-0.613384;-0.211384;0.657071;-6.12228;-0.00208881;0.000115228;0.00626949;0.00627108;-0.0020904;0.00418074;0.333171;3.00146;0.00502462;0.00557432;2.99994;0.33334;111.894;156.894;-0.00176374;-0.00209081;0.00224814;-0.00199996;0.00626698;-0.00550617;0.0106842;0;0.0278833;-0.169487;-1.05805;-0.805977;1.34082;-6.93327;-0.00635565;0.0018069;0.0426716;0.0427381;-0.00642215;0.0245801;0.148943;6.71396;0.0308563;0.0327735;6.65479;0.150268;86.2301;131.23;-0.00411748;-0.00635811;0.000707177;0.00285492;0.0426729;0.0150447;0.0457473;0;0.0877328;8.60576;2.48765
342000;343;26.2353;0.482198;0.0187239;-2.35682;26.1152;-0.854408;-0.067634;0.465268;-0.609054;-0.105159;-0.614452;-0.209797;0.657742;-6.12069;-0.00206696;0.000168968;0.00639678;0.00640015;-0.00207034;0.00423524;0.323126;3.09477;0.00509896;0.00564699;3.09136;0.323482;110.92;155.92;-0.00221532;-0.00206881;0.00228439;-0.00192866;0.0063942;-0.00419919;0.00904612;0;0.0252347;-0.171371;-1.0651;-0.808164;1.34794;-6.93555;-0.00631968;0.00221603;0.0430609;0.0431602;-0.00641892;0.0247896;0.146761;6.81379;0.0311345;0.0330527;6.7239;0.148723;85.0656;130.066;-0.00228661;-0.00632421;0.000627085;0.00372974;0.0430631;0.000210166;0.0517366;0;0.0902957;8.60566;2.49435
343000;344;26.2417;0.488673;0.0189753;-2.35942;26.1217;-0.847888;-0.0702363;0.471749;-0.602534;-0.10412;-0.615812;-0.209946;0.658895;-6.12084;-0.0021637;0.000199131;0.00627109;0.00627579;-0.0021684;0.00422209;0.345027;2.89832;0.00506385;0.00562946;2.89421;0.345518;111.746;156.746;-0.00231811;-0.00216556;0.00235622;-0.00193988;0.00626835;-0.00224682;0.0120795;0;0.0268399;-0.171298;-1.07298;-0.808617;1.35443;-6.93523;-0.00616337;0.00201938;0.0440669;0.0441479;-0.00624443;0.0251962;0.139864;7.1498;0.031719;0.0335949;7.06997;0.141443;85.265;130.265;0.00692202;-0.00616793;0.000332286;0.00362531;0.0440688;0.00191156;0.0393215;0;0.0969018;8.6162;2.50157
344000;345;26.2471;0.494015;0.0191828;-2.36143;26.1265;-0.858492;-0.0722465;0.476588;-0.613139;-0.103659;-0.61419;-0.21401;0.658616;-6.12491;-0.00218135;6.64817e-05;0.00616234;0.00616287;-0.00218188;0.00417237;0.353981;2.82501;0.00499725;0.00556317;2.82457;0.354037;112.922;157.922;-0.00228963;-0.00218345;0.00219838;-0.00204773;0.00615994;-0.0037557;0.0114281;0;0.0284341;-0.17124;-1.07813;-0.813264;1.36128;-6.93988;-0.00593144;0.00257769;0.0454613;0.0455903;-0.00606041;0.0258253;0.130472;7.66446;0.0326019;0.0344338;7.52264;0.132932;85.3295;130.329;-0.00126759;-0.00593543;0.001273;0.00381825;0.0454637;0.00395897;0.0593442;0;0.0928689;8.62284;2.50874
345000;346;26.2594;0.506353;0.0196618;-2.36051;26.1392;-0.852679;-0.0713192;0.489257;-0.607325;-0.105162;-0.617524;-0.207312;0.659828;-6.11821;-0.00213536;9.71514e-05;0.00642994;0.00643104;-0.00213646;0.00428375;0.332096;3.01117;0.00514943;0.00571167;3.01014;0.332211;111.843;156.843;-0.00222382;-0.00213745;0.00225955;-0.00204684;0.00642741;-0.00319504;0.0129809;0;0.0261102;-0.173528;-1.08786;-0.80768;1.36598;-6.93408;-0.0058823;0.00165166;0.0455976;0.0456505;-0.00593524;0.0257929;0.129005;7.75165;0.0325927;0.0343905;7.69144;0.130015;86.8491;131.849;0.0049672;-0.00588422;0.000697779;0.00255858;0.0455986;0.00288908;0.0520581;0;0.0994548;8.63648;2.51635
346000;347;26.2655;0.512472;0.0198995;-2.36218;26.1452;-0.85266;-0.0729914;0.495254;-0.607306;-0.104711;-0.616687;-0.206854;0.658829;-6.11775;-0.00215548;-0.000127432;0.00603344;0.00603542;-0.00215746;0.00409644;0.357255;2.79912;0.00490361;0.00546192;2.79747;0.357466;113.737;158.737;-0.00263631;-0.0021577;0.001873;-0.00211158;0.0060317;-0.00262924;0.0102934;0;0.0261348;-0.173799;-1.09302;-0.809508;1.3712;-6.93278;-0.0062036;0.0018073;0.0466007;0.0466625;-0.00626539;0.026464;0.133122;7.51189;0.0333933;0.0352853;7.44767;0.13427;87.2922;132.292;0.00164898;-0.0062047;0.00125383;0.00233284;0.0466016;0.000647756;0.0517627;0;0.0936752;8.64182;2.52337
347000;348;26.2718;0.518768;0.0201439;-2.36344;26.1511;-0.861382;-0.0742469;0.50118;-0.616028;-0.10497;-0.616857;-0.208674;0.659603;-6.11957;-0.00213118;-9.13744e-05;0.00615822;0.00615923;-0.00213219;0.00414571;0.346071;2.88958;0.00497169;0.00552761;2.88869;0.346177;114.001;159.001;-0.00303807;-0.00213366;0.00206392;-0.00222891;0.00615611;-0.0026666;0.0107458;0;0.024246;-0.175219;-1.09891;-0.815147;1.37941;-6.9406;-0.00649716;0.00167291;0.0467812;0.0468337;-0.00654964;0.0266917;0.138884;7.20025;0.033619;0.0355889;7.15057;0.139849;86.8241;131.824;0.00151787;-0.00649926;0.000656999;0.00263711;0.0467823;0.00159348;0.0469928;0;0.0972193;8.64541;2.53087
348000;349;26.276;0.522963;0.0203068;-2.36342;26.1552;-0.864559;-0.0742358;0.50529;-0.619205;-0.105116;-0.616575;-0.208818;0.659408;-6.11971;-0.00222104;0.000174245;0.00676293;0.00676631;-0.00222442;0.00449536;0.328414;3.04494;0.00540708;0.00599382;3.04183;0.328749;111.213;156.213;-0.00277992;-0.00222316;0.00243501;-0.00206635;0.00676;-0.00387869;0.0113688;0;0.0315724;-0.176035;-1.10592;-0.818121;1.38685;-6.9462;-0.00639492;0.00206602;0.0472697;0.0473491;-0.00647434;0.0269117;0.135286;7.39176;0.0339307;0.0358823;7.31335;0.136736;86.7515;131.751;-0.0039022;-0.00639674;0.00128339;0.00280854;0.047271;0.00841751;0.0486914;0;0.0997492;8.6487;2.53751
349000;350;26.2799;0.526805;0.020456;-2.36296;26.1588;-0.873964;-0.0737677;0.50888;-0.62861;-0.105375;-0.61838;-0.20415;0.659678;-6.11505;-0.0021355;0.000280011;0.00670704;0.00671589;-0.00214436;0.00443013;0.318397;3.14073;0.00533762;0.00590684;3.13189;0.319296;109.592;154.592;-0.00290748;-0.00213715;0.00241357;-0.00183481;0.00670418;-0.0032013;0.0115871;0;0.0298942;-0.176418;-1.11406;-0.814813;1.39146;-6.94143;-0.00574414;0.00255952;0.0475464;0.047669;-0.00586679;0.0267679;0.120811;8.27737;0.0339046;0.0356905;8.12523;0.123073;85.7624;130.762;-0.000327376;-0.00574753;0.0014165;0.00364438;0.0475485;-0.00268714;0.0535829;0;0.092365;8.66149;2.54503
350000;351;26.2865;0.533411;0.0207125;-2.36265;26.1658;-0.863809;-0.0734618;0.515881;-0.618456;-0.10609;-0.618227;-0.205765;0.660151;-6.11666;-0.00217933;5.41779e-06;0.0060492;0.0060492;-0.00217934;0.00411427;0.360268;2.77571;0.00492276;0.00548569;2.77571;0.360269;114.503;159.503;-0.00308268;-0.00218181;0.00225413;-0.00222491;0.00604667;-0.00214714;0.0109001;0;0.0286552;-0.177799;-1.12102;-0.817262;1.39865;-6.94388;-0.00573985;0.00325159;0.0482474;0.0484426;-0.00593499;0.0271888;0.118967;8.40569;0.0344442;0.0362517;8.1622;0.122516;84.3297;129.33;0.000203763;-0.00574663;0.00150899;0.00490442;0.0482514;-0.00208669;0.0674895;0;0.0952237;8.66761;2.54688
351000;352;26.2944;0.541369;0.0210215;-2.36463;26.1736;-0.863554;-0.0754432;0.523705;-0.6182;-0.106433;-0.62088;-0.201629;0.661418;-6.11252;-0.00215095;0.000239833;0.00596618;0.00597326;-0.00215803;0.00406565;0.360524;2.77374;0.00486381;0.00542086;2.76792;0.361282;112.114;157.114;-0.00275914;-0.00215263;0.00234456;-0.00184792;0.00596348;-0.00225567;0.0116712;0;0.0262319;-0.17904;-1.13011;-0.814738;1.40464;-6.94135;-0.00541379;0.00288762;0.048801;0.0489543;-0.00556716;0.0272608;0.110936;9.0142;0.0346414;0.0363477;8.79342;0.113721;85.2277;130.228;-0.00011183;-0.00541844;0.0015103;0.00419375;0.0488039;0.0134271;0.0481852;0;0.094583;8.68181;2.55796
352000;353;26.301;0.547906;0.0212754;-2.36784;26.1795;-0.875838;-0.0786474;0.529575;-0.630484;-0.106769;-0.620369;-0.202546;0.661274;-6.11344;-0.00227858;0.000269666;0.00642995;0.0064383;-0.00228693;0.00436261;0.35437;2.82191;0.00522412;0.00581682;2.81526;0.355207;110.685;155.685;-0.00378173;-0.00228017;0.00235455;-0.00179718;0.00642724;-0.000489725;0.0115161;0;0.0272162;-0.179788;-1.13624;-0.818747;1.41199;-6.94536;-0.00538464;0.00299345;0.0499935;0.0501548;-0.00554599;0.0278504;0.107707;9.28445;0.0354302;0.0371339;9.04344;0.110577;85.7887;130.789;-0.000138308;-0.00538765;0.00207231;0.00386601;0.0499957;0.00364684;0.0687706;0;0.102683;8.679;2.56088
353000;354;26.3123;0.559201;0.021714;-2.36967;26.1909;-0.869452;-0.080482;0.540969;-0.624099;-0.107343;-0.620957;-0.200016;0.661148;-6.11091;-0.00214081;0.000246237;0.0063116;0.00631877;-0.00214798;0.00423337;0.339187;2.94823;0.00508213;0.0056445;2.94173;0.339936;110.586;155.586;-0.0032632;-0.0021424;0.00231106;-0.00180124;0.00630898;-0.00124481;0.0116412;0;0.0261395;-0.181781;-1.14307;-0.819536;1.4182;-6.94523;-0.00558605;0.00271089;0.0495896;0.0497224;-0.00571893;0.0277207;0.112646;8.87739;0.0352098;0.0369609;8.69437;0.115017;84.536;129.536;0.00429865;-0.00559369;0.000561968;0.00474683;0.0495929;0.00969552;0.0470447;0;0.104658;8.68226;2.56786
354000;355;26.3185;0.56546;0.021957;-2.36968;26.197;-0.873833;-0.08049;0.54711;-0.628479;-0.106333;-0.621281;-0.201588;0.661766;-6.11248;-0.00222494;4.04415e-05;0.0064401;0.00644029;-0.00222513;0.00433271;0.345482;2.8945;0.00519654;0.00577694;2.89434;0.345502;112.689;157.689;-0.00317364;-0.00222722;0.00223281;-0.00213305;0.00643762;-0.00100421;0.0115776;0;0.0248183;-0.181346;-1.15048;-0.822439;1.4258;-6.9513;-0.00557458;0.00367537;0.0514146;0.0516506;-0.00581063;0.0287306;0.108424;9.22304;0.036525;0.0383075;8.88898;0.112499;84.873;129.873;0.00342753;-0.00557952;0.00245272;0.00483175;0.0514181;0.00720383;0.0472986;0;0.109405;8.68952;2.57534
355000;356;26.3268;0.57378;0.0222801;-2.37002;26.2053;-0.875892;-0.0808333;0.555369;-0.630538;-0.106206;-0.620458;-0.207375;0.662761;-6.11827;-0.00222277;0.000438459;0.00626405;0.00628664;-0.00224537;0.004266;0.354846;2.81812;0.00510683;0.005688;2.79983;0.357165;110.237;155.237;-0.00363229;-0.00222409;0.00257405;-0.00167912;0.00626085;-0.000384862;0.0119595;0;0.0262643;-0.181863;-1.15585;-0.827826;1.4333;-6.94391;-0.00537669;0.00334576;0.0529479;0.0531392;-0.00556799;0.0293536;0.101547;9.84768;0.0374205;0.0391381;9.5437;0.104781;85.2662;130.266;0.00196526;-0.00538148;0.00206702;0.00455367;0.0529512;-0.00704721;0.0605529;0;0.105833;8.70079;2.58271
356000;357;26.3305;0.57746;0.022423;-2.36982;26.2088;-0.881948;-0.0806298;0.558881;-0.636594;-0.106878;-0.622812;-0.197943;0.662193;-6.10884;-0.0021977;1.19761e-05;0.00611698;0.006117;-0.00219772;0.00415736;0.359279;2.78335;0.0049751;0.00554314;2.78333;0.359281;113.293;158.293;-0.0028423;-0.00219985;0.00211022;-0.00206893;0.00611477;-0.00161946;0.0128231;0;0.0239574;-0.183493;-1.16411;-0.823485;1.43769;-6.94406;-0.00574019;0.00297941;0.0534767;0.0536262;-0.00588972;0.029758;0.10734;9.31619;0.037867;0.0396773;9.10506;0.109829;84.7676;129.768;0.000868837;-0.00574799;0.000903735;0.0049384;0.0534805;-0.00724094;0.0474309;0;0.101242;8.70462;2.5905
357000;358;26.3351;0.582005;0.0225995;-2.3695;26.2135;-0.879056;-0.0803116;0.563574;-0.633703;-0.107368;-0.622798;-0.198947;0.662559;-6.10984;-0.00219004;1.67767e-05;0.00576393;0.00576396;-0.00219008;0.00397702;0.379957;2.63188;0.00474427;0.00530269;2.63185;0.379961;114.591;159.591;-0.00378092;-0.00219219;0.00211792;-0.00206775;0.0057617;0.000358282;0.0110618;0;0.0271318;-0.184418;-1.17151;-0.826697;1.44564;-6.95331;-0.00590548;0.00301017;0.0525542;0.0527088;-0.00606007;0.0293845;0.112369;8.89923;0.0373236;0.0391793;8.69772;0.114973;84.1364;129.136;0.00284838;-0.00591551;0.000495587;0.00538508;0.0525584;-0.000406045;0.0559205;0;0.0997264;8.71137;2.59782
358000;359;26.3433;0.590268;0.0229203;-2.36916;26.2218;-0.881096;-0.0799732;0.571837;-0.635742;-0.108085;-0.62387;-0.197082;0.663127;-6.10798;-0.00216639;0.000256643;0.00615131;0.00615922;-0.0021743;0.00416676;0.352184;2.83943;0.00499135;0.00555568;2.83273;0.353016;111.328;156.328;-0.00360831;-0.00216801;0.00234843;-0.00181785;0.0061486;0.000331146;0.0125489;0;0.0253136;-0.185467;-1.18;-0.824575;1.45146;-6.95119;-0.00554868;0.00365301;0.053584;0.0538088;-0.0057735;0.0297911;0.103551;9.65706;0.0379437;0.0397215;9.31996;0.107297;84.6678;129.668;-0.00110906;-0.00555538;0.00205162;0.00516452;0.0535883;-0.0107347;0.0752481;0;0.0986435;8.71868;2.60533
359000;360;26.3459;0.592861;0.023021;-2.37226;26.2237;-0.892085;-0.0830735;0.57379;-0.646731;-0.107979;-0.622812;-0.196669;0.661992;-6.10756;-0.00213213;0.000314837;0.00657142;0.0065828;-0.0021435;0.00436315;0.324455;3.08209;0.00525095;0.00581753;3.07105;0.325622;110.939;155.939;-0.00350421;-0.00213405;0.00263258;-0.00198287;0.00656803;-0.000974593;0.0129845;0;0.0269797;-0.186216;-1.18573;-0.825347;1.45665;-6.94897;-0.00475012;0.00388041;0.0547042;0.0549564;-0.00500231;0.0299793;0.0868329;11.5164;0.0384137;0.0399725;10.9862;0.0910234;85.4438;130.444;-0.00262701;-0.00475322;0.00310984;0.00460753;0.0547067;-0.0125979;0.0747571;0;0.110307;8.71166;2.61229
360000;361;26.3571;0.60406;0.0234559;-2.3743;26.2348;-0.890919;-0.0851115;0.584896;-0.645565;-0.108694;-0.623804;-0.196161;0.662891;-6.10706;-0.00218657;0.000241928;0.00617112;0.00617812;-0.00219357;0.00418584;0.354323;2.82229;0.00501256;0.00558113;2.81647;0.355054;111.647;156.647;-0.0032761;-0.00218828;0.00236463;-0.00186314;0.00616837;0.00078353;0.0140921;0;0.032727;-0.18782;-1.19392;-0.830254;1.4663;-6.95911;-0.00484189;0.00418645;0.0550505;0.0553418;-0.0051331;0.0302374;0.0879535;11.3696;0.0387191;0.0403166;10.7813;0.0927528;83.1016;128.102;-0.000203416;-0.00485592;0.00147772;0.00674138;0.0550578;0.00832669;0.0494595;0;0.108876;8.72828;2.61875
361000;362;26.366;0.612896;0.0237989;-2.37589;26.2434;-0.895223;-0.0867064;0.593482;-0.64987;-0.109462;-0.624095;-0.198518;0.663993;-6.10941;-0.00226087;0.000203273;0.00587068;0.00587575;-0.00226595;0.00407085;0.385113;2.59664;0.00485218;0.0054278;2.59307;0.385644;113.19;158.19;-0.00343173;-0.00226264;0.00231221;-0.00188861;0.00586804;0.00158339;0.0113698;0;0.0293063;-0.189749;-1.20087;-0.837309;1.47621;-6.96162;-0.00541381;0.0041902;0.0565331;0.0568152;-0.00569596;0.0312556;0.0957636;10.4424;0.0399112;0.0416741;9.97465;0.100254;83.8294;128.829;0.00138543;-0.00542464;0.00199985;0.00625211;0.0565395;-0.000234316;0.0505943;0;0.111276;8.73695;2.62576
362000;363;26.3785;0.6254;0.0242845;-2.37512;26.2564;-0.883739;-0.0859339;0.606504;-0.638386;-0.10891;-0.625858;-0.192385;0.663756;-6.10328;-0.00234751;0.000339921;0.00604091;0.00605466;-0.00236126;0.00420796;0.388602;2.57333;0.00501248;0.00561061;2.56416;0.389991;112.504;157.504;-0.00315765;-0.00234913;0.00252897;-0.00183088;0.00603779;-0.000814059;0.010576;0;0.0242487;-0.189958;-1.20962;-0.831655;1.48018;-6.95756;-0.00510663;0.00490614;0.0572631;0.0576467;-0.0054902;0.0315684;0.0891783;11.2135;0.0403858;0.0420913;10.4999;0.0952387;83.4037;128.404;-0.00115296;-0.00511801;0.00285612;0.00683521;0.0572706;0.00522255;0.058997;0;0.124783;8.73154;2.6274
363000;364;26.3824;0.629304;0.0244361;-2.37577;26.2599;-0.894802;-0.086582;0.609993;-0.649448;-0.109206;-0.626068;-0.191307;0.66369;-6.1022;-0.00228003;0.000352557;0.0065364;0.00655048;-0.0022941;0.00442229;0.34882;2.86681;0.00529986;0.00589639;2.85535;0.350219;110.707;155.707;-0.00409481;-0.00228168;0.00257227;-0.00184772;0.00653317;0.00310242;0.01195;0;0.0289018;-0.191142;-1.2153;-0.833096;1.48578;-6.95158;-0.00529702;0.00445089;0.0580983;0.0584093;-0.00560798;0.0320086;0.0911733;10.9681;0.0409371;0.0426782;10.4154;0.0960119;84.1984;129.198;-0.00334958;-0.00530581;0.00268838;0.00610779;0.0581043;0.00628028;0.0679804;0;0.127494;8.73081;2.63413
364000;365;26.3851;0.632058;0.024543;-2.37462;26.2627;-0.896513;-0.0854295;0.612806;-0.651159;-0.109157;-0.62394;-0.201356;0.664651;-6.11225;-0.00230307;0.000533236;0.00660244;0.00663426;-0.00233489;0.00448457;0.348821;2.8668;0.00537299;0.00597943;2.84136;0.351944;108.932;153.932;-0.00382378;-0.0023042;0.00267628;-0.00159085;0.00659903;0.00101235;0.011917;0;0.0264505;-0.191298;-1.22127;-0.84286;1.49617;-6.96641;-0.00555716;0.00356118;0.0580284;0.0582273;-0.00575598;0.0319916;0.0957661;10.4421;0.0408722;0.0426555;10.116;0.0988537;85.3668;130.367;-0.00379663;-0.00556271;0.00216701;0.00487155;0.0580322;0.00624159;0.056335;0;0.106359;8.74484;2.64044
365000;366;26.3915;0.638423;0.0247902;-2.37466;26.269;-0.899384;-0.0854704;0.619099;-0.65403;-0.110549;-0.624586;-0.199595;0.664957;-6.11049;-0.0022749;0.000464548;0.00626561;0.0062908;-0.0023001;0.00429545;0.363078;2.75423;0.00513524;0.00572727;2.73501;0.365629;111.145;156.145;-0.00372952;-0.0022764;0.00273688;-0.0017885;0.00626199;0.00162468;0.0116424;0;0.0280874;-0.19332;-1.23006;-0.842691;1.50351;-6.96931;-0.0054482;0.00339868;0.0573897;0.057573;-0.00563148;0.0316022;0.0949333;10.5337;0.0403902;0.0421363;10.2234;0.0978146;85.058;130.058;0.00084133;-0.00545533;0.00161789;0.00507363;0.057394;0.0159697;0.0548119;0;0.104635;8.74959;2.64831
366000;367;26.3951;0.642015;0.0249297;-2.37692;26.2722;-0.907471;-0.08773;0.622224;-0.662118;-0.110092;-0.628476;-0.190143;0.665776;-6.10104;-0.00208581;0.000638907;0.00622894;0.00627775;-0.00213462;0.00420618;0.334858;2.98634;0.00504941;0.00560824;2.94093;0.340029;108.311;153.311;-0.00409802;-0.00208667;0.00275189;-0.00145662;0.00622538;0.00286866;0.00970577;0;0.0253133;-0.193287;-1.23908;-0.838596;1.50862;-6.96521;-0.0051184;0.00386076;0.0578635;0.0580993;-0.00535418;0.0317267;0.0884564;11.305;0.0406353;0.0423023;10.8512;0.0921556;83.8776;128.878;0.00396549;-0.00513069;0.00129439;0.00627432;0.0578698;0.000805076;0.0517974;0;0.101466;8.75189;2.65577
367000;368;26.4034;0.65035;0.0252533;-2.37971;26.28;-0.915529;-0.0905208;0.630067;-0.670175;-0.109941;-0.627324;-0.190758;0.664839;-6.10165;-0.00225086;0.000292824;0.00642855;0.00643842;-0.00226073;0.00434957;0.350135;2.85604;0.00521193;0.00579943;2.84794;0.351131;111.114;156.114;-0.00385209;-0.00225257;0.00247897;-0.00187447;0.00642554;0.00109763;0.0103037;0;0.0260434;-0.194273;-1.24501;-0.843617;1.51641;-6.96952;-0.00514817;0.0046862;0.0598124;0.0601487;-0.00548449;0.0328166;0.086072;11.6182;0.0420467;0.0437554;10.9671;0.0911822;82.8268;127.827;0.00168818;-0.00516624;0.00157131;0.00761013;0.0598216;-0.00110259;0.0475531;0;0.107966;8.75709;2.6635
368000;369;26.4101;0.656996;0.0255114;-2.38058;26.2862;-0.926082;-0.0913896;0.636296;-0.680728;-0.113049;-0.627267;-0.190207;0.665149;-6.1011;-0.00227984;0.000635325;0.00619082;0.00623821;-0.00232723;0.00428272;0.368262;2.71546;0.0051142;0.00571029;2.68053;0.373061;109.431;154.431;-0.00347357;-0.00228075;0.00277709;-0.00148841;0.00618719;0.000156935;0.0113997;0;0.0280856;-0.197682;-1.25117;-0.84601;1.52323;-6.96883;-0.00462563;0.00463512;0.0613389;0.061663;-0.00494973;0.0333064;0.075411;13.2607;0.042854;0.0444085;12.4578;0.0802707;83.6202;128.62;0.000300793;-0.00463935;0.00212879;0.00698566;0.0613469;0.00385918;0.0566858;0;0.11735;8.76319;2.67022
369000;370;26.4252;0.672176;0.0261008;-2.37716;26.3023;-0.91269;-0.087974;0.652324;-0.667336;-0.110039;-0.62915;-0.187256;0.665585;-6.09815;-0.00240869;0.000297758;0.00649133;0.00650128;-0.00241864;0.00445996;0.371062;2.69497;0.00532669;0.00594661;2.68799;0.372025;111.56;156.56;-0.00396462;-0.00241042;0.00249961;-0.00188463;0.00648827;0.00239644;0.0113641;0;0.0259153;-0.196546;-1.26122;-0.847324;1.53207;-6.97323;-0.00493268;0.00479706;0.061563;0.0619073;-0.00527696;0.0335921;0.0801241;12.4806;0.0431382;0.0447895;11.7316;0.0852398;84.0319;129.032;0.00026445;-0.00494322;0.00283937;0.0066321;0.06157;-0.00765184;0.0598222;0;0.120375;8.77383;2.67733
370000;371;26.4324;0.67936;0.0263798;-2.38195;26.3091;-0.911758;-0.0927617;0.659141;-0.666404;-0.110754;-0.628707;-0.189417;0.665896;-6.10031;-0.00235501;0.000322835;0.00680358;0.00681495;-0.00236638;0.00459066;0.346143;2.88898;0.00550434;0.00612088;2.87991;0.347233;110.087;155.087;-0.00416027;-0.00235665;0.0025033;-0.00183779;0.00680052;0.00154798;0.0106646;0;0.0265968;-0.198116;-1.26821;-0.850927;1.54003;-6.97669;-0.00541904;0.00467692;0.0609608;0.0612887;-0.00574694;0.0335178;0.0888938;11.2494;0.0429032;0.0446904;10.6646;0.0937684;83.7118;128.712;0.00203586;-0.00543182;0.00232913;0.00687779;0.0609685;0.00456836;0.0542224;0;0.12451;8.77477;2.6846
371000;372;26.4385;0.685438;0.0266158;-2.38082;26.3154;-0.909003;-0.0916291;0.665445;-0.663649;-0.112801;-0.629033;-0.186602;0.665753;-6.0975;-0.00240458;0.000529238;0.00624611;0.00627836;-0.00243683;0.0043576;0.384972;2.59759;0.0051921;0.00581013;2.57644;0.388132;110.614;155.614;-0.00387341;-0.00240575;0.00269377;-0.00161669;0.00624264;0.000678192;0.0109725;0;0.0264977;-0.199778;-1.27534;-0.847668;1.54433;-6.97343;-0.00516591;0.00505917;0.0623599;0.0627368;-0.00554285;0.0341398;0.0828403;12.0714;0.0437893;0.0455198;11.3185;0.0883508;84.0144;129.014;-0.00203968;-0.00517611;0.00322801;0.00677391;0.062367;0.00976353;0.054174;0;0.11836;8.76648;2.69225
372000;373;26.4399;0.686799;0.0266686;-2.37946;26.3166;-0.916611;-0.0902671;0.666671;-0.671257;-0.111497;-0.632088;-0.182116;0.667183;-6.09301;-0.00229011;0.000209767;0.0065587;0.00656367;-0.00229508;0.00442938;0.349171;2.86392;0.00530883;0.00590583;2.85989;0.349664;111.396;156.396;-0.00328698;-0.00229201;0.00239887;-0.00196009;0.00655587;-5.38461e-05;0.0112078;0;0.0243013;-0.199245;-1.28359;-0.843234;1.54866;-6.96469;-0.00512569;0.00373117;0.0639695;0.0641704;-0.00532659;0.0347485;0.080127;12.4802;0.0446618;0.0463314;12.0472;0.0830069;85.0311;130.031;-0.0025982;-0.0051348;0.00166624;0.00566199;0.0639748;0.00607501;0.0551436;0;0.105783;8.78121;2.69536
373000;374;26.4425;0.689455;0.0267718;-2.38366;26.3183;-0.934019;-0.0944707;0.668348;-0.688666;-0.11236;-0.629217;-0.185592;0.66557;-6.09649;-0.00226749;0.000501403;0.00642824;0.00645705;-0.00229631;0.00437668;0.352739;2.83495;0.00524061;0.00583558;2.81193;0.355628;109.602;154.602;-0.00333021;-0.00226871;0.00265549;-0.00163408;0.00642486;-0.000199452;0.0128793;0;0.0245963;-0.200736;-1.28832;-0.850207;1.55657;-6.97405;-0.00469244;0.00427911;0.0634085;0.0636764;-0.00496026;0.0343183;0.0740033;13.5129;0.0441972;0.0457577;12.8373;0.077898;84.9715;129.972;0.00406936;-0.00469989;0.00270071;0.00575642;0.0634137;-0.0134954;0.0547719;0;0.114943;8.78168;2.70094
374000;375;26.4522;0.699163;0.0271488;-2.38499;26.3279;-0.933914;-0.0958054;0.677985;-0.68856;-0.113261;-0.63098;-0.182979;0.666667;-6.09387;-0.00239487;0.000268882;0.00629827;0.00630658;-0.00240318;0.00435488;0.380242;2.6299;0.00519419;0.00580651;2.62427;0.381059;112.379;157.379;-0.00407689;-0.00239668;0.00247577;-0.00191895;0.00629526;0.00190036;0.0103739;0;0.0406546;-0.202811;-1.29878;-0.852848;1.56694;-6.97875;-0.00477664;0.00513599;0.0643233;0.064703;-0.0051563;0.0349296;0.0742599;13.4662;0.0449528;0.0465728;12.5483;0.0796919;83.3801;128.38;0.00147128;-0.00479254;0.0024834;0.00761633;0.0643328;0.000579453;0.056003;0;0.115265;8.78571;2.70763
375000;376;26.4653;0.712287;0.0276583;-2.38432;26.3414;-0.927273;-0.0951293;0.691466;-0.681919;-0.113235;-0.63293;-0.179635;0.667601;-6.09053;-0.00239646;0.000525745;0.00676551;0.00679558;-0.00242653;0.00461105;0.354218;2.82312;0.00551997;0.00614807;2.80053;0.357075;109.187;154.187;-0.00308935;-0.00239769;0.00272137;-0.00164991;0.00676197;0.000856989;0.0100885;0;0.0365408;-0.202845;-1.30549;-0.854647;1.57349;-6.97585;-0.00459552;0.00499586;0.0655066;0.0658609;-0.00494977;0.0354053;0.0701536;14.2544;0.0456467;0.0472071;13.3059;0.0751549;83.4583;128.458;-0.00168495;-0.00461226;0.00217264;0.0076333;0.0655161;0.00561303;0.0550593;0;0.11852;8.78571;2.71473
376000;377;26.4793;0.726207;0.0281989;-2.38613;26.3552;-0.927928;-0.0969466;0.705264;-0.682574;-0.11299;-0.630812;-0.180314;0.665735;-6.09121;-0.00239081;0.00018166;0.00676224;0.00676584;-0.00239442;0.00458013;0.353554;2.82842;0.00548574;0.00610684;2.82567;0.353898;112.168;157.168;-0.00424511;-0.00239307;0.00251226;-0.00212775;0.00675912;0.00200019;0.010833;0;0.0309354;-0.203544;-1.31074;-0.858223;1.57988;-6.98041;-0.00454057;0.00412676;0.0670936;0.0673305;-0.00477753;0.036054;0.0676753;14.7765;0.0465613;0.048072;14.0932;0.0709563;85.8276;130.828;-0.00389018;-0.00454503;0.00309401;0.00509018;0.0670971;-0.000134471;0.065325;0;0.110063;8.79608;2.72262
377000;378;26.4846;0.731566;0.028407;-2.38548;26.3607;-0.927055;-0.0962891;0.710739;-0.681702;-0.113785;-0.631671;-0.183418;0.667531;-6.09431;-0.00239695;0.000532007;0.00681268;0.00684331;-0.00242758;0.00463544;0.351836;2.84223;0.00555124;0.00618059;2.81899;0.354738;109.669;154.669;-0.00360254;-0.00239833;0.0028309;-0.00174586;0.00680884;0.00192603;0.00952218;0;0.0248469;-0.205034;-1.32041;-0.86286;1.59061;-6.98876;-0.0046456;0.00564592;0.0667771;0.0672207;-0.00508916;0.0361549;0.0695688;14.3743;0.0466029;0.0482065;13.2086;0.0757082;83.7301;128.73;-0.00141565;-0.00465836;0.00358647;0.00756747;0.066786;-0.00868325;0.0589129;0;0.132346;8.80336;2.72935
378000;379;26.4905;0.73746;0.0286358;-2.38629;26.3666;-0.926187;-0.097099;0.716618;-0.680834;-0.11382;-0.632564;-0.181179;0.667771;-6.09207;-0.00239185;0.000529757;0.00678556;0.00681604;-0.00242233;0.00461918;0.352491;2.83695;0.00553119;0.00615891;2.81383;0.355387;109.563;154.563;-0.00360542;-0.00239319;0.00279981;-0.00171961;0.0067818;0.00108903;0.0113636;0;0.0261239;-0.205828;-1.3296;-0.861986;1.59788;-6.99084;-0.00514642;0.0047336;0.0659019;0.0662159;-0.00546041;0.0358381;0.0780921;12.8054;0.046072;0.0477842;12.1265;0.0824637;83.5431;128.543;0.000792318;-0.00516381;0.00171576;0.00755024;0.065911;-0.014747;0.0610049;0;0.114464;8.80681;2.73678
379000;380;26.4939;0.740814;0.0287661;-2.38677;26.3694;-0.940666;-0.0975818;0.719432;-0.695312;-0.11476;-0.632353;-0.183755;0.668436;-6.09465;-0.00252739;0.000254412;0.00684148;0.00684838;-0.00253429;0.00469134;0.369421;2.70694;0.00560471;0.00625511;2.70229;0.370057;111.891;156.891;-0.00434101;-0.00252945;0.00257729;-0.00204686;0.00683821;0.00141894;0.00876437;0;0.0326508;-0.207058;-1.33358;-0.862929;1.60186;-6.97524;-0.0050768;0.00406671;0.068527;0.0687511;-0.00530081;0.0370259;0.0740846;13.4981;0.0476993;0.0493679;12.9699;0.0771015;85.6879;130.688;-0.00137864;-0.00508285;0.00269416;0.00534471;0.0685314;-6.28314e-05;0.0438606;0;0.103536;8.83068;2.74381
380000;381;26.4952;0.742101;0.028816;-2.38662;26.3701;-0.957792;-0.0974311;0.720121;-0.712438;-0.113566;-0.634782;-0.178586;0.669133;-6.08948;-0.00242986;0.000604304;0.00673744;0.0067771;-0.00246952;0.00462331;0.36065;2.77277;0.00552826;0.00616442;2.74429;0.364392;108.89;153.89;-0.00374101;-0.00243091;0.00279705;-0.00156847;0.00673373;0.00104001;0.00981683;0;0.0229883;-0.207062;-1.34329;-0.864861;1.61099;-6.98835;-0.0049449;0.00421139;0.0686953;0.0689354;-0.00518496;0.0370602;0.0719831;13.8922;0.0477791;0.0494136;13.2953;0.0752148;85.1;130.1;-0.000486846;-0.00495424;0.00226204;0.00602641;0.0687012;0.00338815;0.0567492;0;0.111576;8.77884;2.75118
381000;382;26.4986;0.745512;0.0289485;-2.38668;26.3733;-0.963294;-0.0974902;0.723343;-0.71794;-0.113698;-0.63526;-0.176329;0.669009;-6.08722;-0.00243209;0.000298953;0.00689758;0.00690715;-0.00244166;0.00467441;0.352601;2.83606;0.00559902;0.00623254;2.82887;0.353498;110.772;155.772;-0.00430054;-0.00243395;0.00256624;-0.00194733;0.00689435;0.00299793;0.0087252;0;0.0262718;-0.207896;-1.34919;-0.863856;1.61549;-6.98382;-0.00498737;0.00427971;0.0705214;0.0707632;-0.00522916;0.0379962;0.0707213;14.14;0.0490116;0.0506616;13.5324;0.0738966;85.2806;130.281;-0.00352018;-0.00499609;0.00245869;0.00597226;0.0705271;0.00228722;0.0655178;0;0.11752;8.80717;2.75695
382000;383;26.5237;0.770638;0.0299241;-2.39077;26.3993;-0.930962;-0.101577;0.749378;-0.685609;-0.114709;-0.635353;-0.182;0.670787;-6.0929;-0.0025198;0.000479222;0.00678316;0.00680778;-0.00254442;0.0046761;0.371479;2.69194;0.00558338;0.0062348;2.67557;0.373752;110.518;155.518;-0.00369254;-0.00252131;0.00277689;-0.00179721;0.00677944;0.000199752;0.00918359;0;0.0273398;-0.209667;-1.35919;-0.873269;1.6291;-6.99863;-0.00457896;0.00476024;0.0707448;0.0710445;-0.0048786;0.0379615;0.0647251;15.45;0.0490701;0.0506154;14.5625;0.0686697;83.8222;128.822;-0.00266278;-0.00459759;0.00156595;0.00772977;0.0707543;0.00170114;0.0748069;0;0.116756;8.84395;2.76579
383000;384;26.5313;0.778204;0.0302179;-2.39229;26.4063;-0.945799;-0.103105;0.756315;-0.700445;-0.114939;-0.635775;-0.178611;0.670315;-6.08951;-0.0024028;0.000431098;0.00672912;0.00674943;-0.00242311;0.00458627;0.357075;2.80053;0.00548861;0.00611502;2.78544;0.359009;110.164;155.164;-0.00307303;-0.0024043;0.00266696;-0.00178448;0.00672568;0.000172432;0.00962146;0;0.0233248;-0.210245;-1.36565;-0.873769;1.63483;-6.99772;-0.00421608;0.00498363;0.0705268;0.0708576;-0.00454691;0.0377023;0.0597799;16.728;0.0488247;0.0502697;15.5837;0.0641697;84.7779;129.778;-0.00145174;-0.00422566;0.00321751;0.00662642;0.0705336;-0.000533595;0.0745774;0;0.11019;8.81412;2.77244
384000;385;26.5346;0.781587;0.0303493;-2.39115;26.4099;-0.942635;-0.101957;0.75993;-0.697282;-0.114299;-0.635783;-0.177177;0.669833;-6.08807;-0.00255568;0.000530525;0.00700024;0.0070296;-0.00258504;0.00480732;0.365085;2.73909;0.00574532;0.00640976;2.71933;0.367737;109.558;154.558;-0.00436013;-0.00255703;0.00280659;-0.00172395;0.00699646;0.00169297;0.00899185;0;0.0220268;-0.210822;-1.37234;-0.876038;1.64171;-7.0014;-0.0049228;0.00462337;0.0718217;0.0720993;-0.00520032;0.0386498;0.0685419;14.5896;0.04989;0.0515331;13.8644;0.0721273;85.9933;130.993;-0.00368366;-0.00492611;0.00390794;0.00528757;0.0718246;0.00294388;0.0724404;0;0.116572;8.82066;2.7736
385000;386;26.5424;0.789309;0.0306491;-2.3912;26.4176;-0.94329;-0.102015;0.76766;-0.697937;-0.114605;-0.638066;-0.173163;0.671005;-6.08406;-0.00240128;0.000324231;0.00705005;0.00706116;-0.00241239;0.00473678;0.340604;2.93596;0.00568483;0.0063157;2.92704;0.341642;109.953;154.953;-0.00359017;-0.00240304;0.00257379;-0.00190421;0.00704682;0.00162534;0.0084424;0;0.0266957;-0.211586;-1.38035;-0.872988;1.64689;-6.99253;-0.00472171;0.00608686;0.0727271;0.0732025;-0.00519717;0.0391999;0.0649237;15.4027;0.0506231;0.0522665;14.0851;0.0709971;83.1496;128.15;0.000740532;-0.00474298;0.00304407;0.00890992;0.07274;-0.0197262;0.0649267;0;0.127627;8.84385;2.78112
386000;387;26.5457;0.792644;0.0307786;-2.39271;26.4205;-0.95249;-0.103523;0.770544;-0.707137;-0.115026;-0.639427;-0.170125;0.671595;-6.08102;-0.00233153;0.000469914;0.00702324;0.00704678;-0.00235507;0.00470093;0.331973;3.01229;0.00564896;0.0062679;2.99217;0.334206;109.051;154.051;-0.00368585;-0.002333;0.00274084;-0.00177992;0.00701962;0.00102627;0.00789137;0;0.0278071;-0.212376;-1.38901;-0.871703;1.65358;-6.99475;-0.0049866;0.00522989;0.0722546;0.0726071;-0.0053391;0.0389731;0.0690143;14.4898;0.050279;0.0519642;13.5991;0.0735341;83.9457;128.946;0.00368506;-0.00500346;0.00245672;0.00780325;0.0722646;-0.024365;0.0620436;0;0.118518;8.8403;2.79166
387000;388;26.5452;0.792099;0.0307575;-2.39344;26.4194;-0.965701;-0.104254;0.769451;-0.720347;-0.115326;-0.639854;-0.16917;0.671812;-6.08007;-0.00239794;0.00051488;0.00718666;0.00721424;-0.00242552;0.00481988;0.333665;2.99701;0.0057899;0.00642651;2.97431;0.336213;108.785;153.785;-0.00385496;-0.00239938;0.00282217;-0.00177045;0.00718284;4.05894e-05;0.00781471;0;0.0278401;-0.213522;-1.39559;-0.874257;1.66059;-6.99736;-0.00479671;0.00459526;0.0731296;0.0733996;-0.00506675;0.0392332;0.0655919;15.2458;0.0507064;0.0523109;14.4865;0.0690296;85.3886;130.389;-0.000342579;-0.00480465;0.00299664;0.00607778;0.0731352;-0.00241126;0.0710635;0;0.111634;8.86555;2.79662
388000;389;26.5509;0.7978;0.0309789;-2.39297;26.4253;-0.961056;-0.103784;0.775391;-0.715702;-0.115142;-0.638995;-0.169836;0.671131;-6.08073;-0.00243334;0.000454252;0.0071944;0.00721579;-0.00245473;0.00483526;0.338227;2.95659;0.00580445;0.00644701;2.93955;0.340189;108.724;153.724;-0.00453551;-0.00243478;0.00267977;-0.00174999;0.00719094;0.00207788;0.00626142;0;0.0277766;-0.213799;-1.40179;-0.875415;1.66646;-6.99852;-0.00389545;0.00483569;0.0750161;0.0753114;-0.00419067;0.039751;0.0519281;19.2574;0.0516612;0.0530014;17.9712;0.0556446;86.489;131.489;0.00188243;-0.00389555;0.00481251;0.00485716;0.0750162;0.0124024;0.0732355;0;0.129108;8.8098;2.80257
389000;390;26.5627;0.809639;0.0314385;-2.3926;26.4374;-0.957927;-0.103416;0.787433;-0.712573;-0.115673;-0.640318;-0.167622;0.671926;-6.07852;-0.00233013;0.000614647;0.00693939;0.00697996;-0.00237071;0.00467534;0.335784;2.97811;0.00561299;0.00623378;2.94425;0.339645;108.468;153.468;-0.00316306;-0.0023313;0.00289682;-0.00164652;0.00693541;0.000305769;0.010318;0;0.0275537;-0.214893;-1.40748;-0.875606;1.67148;-6.9927;-0.00413914;0.00445395;0.0761738;0.0764201;-0.00438539;0.0404027;0.0543381;18.4033;0.0524696;0.0538703;17.4261;0.0573853;85.8547;130.855;-0.00407955;-0.00414539;0.00312647;0.00568235;0.0761785;-0.000351934;0.060635;0;0.122262;8.8477;2.81004
390000;391;26.5814;0.828363;0.0321656;-2.39546;26.456;-0.956674;-0.106274;0.806033;-0.71132;-0.116289;-0.640854;-0.168808;0.672839;-6.0797;-0.00246414;0.000424261;0.00700207;0.00702105;-0.00248312;0.00475209;0.351916;2.84158;0.00569191;0.00633611;2.82751;0.353668;110.508;155.508;-0.00402426;-0.00246593;0.0028046;-0.0019337;0.00699826;0.00170578;0.00779231;0;0.0313163;-0.216428;-1.4174;-0.881344;1.68304;-7.00219;-0.00448358;0.00566897;0.0777922;0.078181;-0.00487235;0.0415267;0.0576353;17.3505;0.0538184;0.0553689;16.0459;0.0623214;84.2194;129.219;-0.00721834;-0.00449989;0.00310368;0.00803841;0.0778027;0.0174787;0.0637233;0;0.13354;8.87364;2.81718
391000;392;26.5877;0.834594;0.0324076;-2.39627;26.462;-0.959803;-0.107082;0.812107;-0.71445;-0.116138;-0.641072;-0.167247;0.672631;-6.07814;-0.00261986;0.000582078;0.00681661;0.00685238;-0.00265563;0.00475401;0.384334;2.6019;0.0056649;0.00633867;2.58032;0.387548;110.129;155.129;-0.00337246;-0.00262112;0.00287369;-0.00168805;0.00681268;-0.000396369;0.00783056;0;0.0290008;-0.21725;-1.42524;-0.882225;1.69021;-7.00541;-0.00383655;0.00657877;0.077801;0.0783277;-0.0043633;0.0413455;0.0493123;20.2789;0.053732;0.0551273;17.9515;0.0557057;83.7834;128.783;-0.000916281;-0.00385272;0.00429594;0.00868866;0.0778125;-0.0127737;0.0633779;0;0.128233;8.83733;2.82484
392000;393;26.5901;0.837065;0.0325035;-2.39498;26.4645;-0.962514;-0.105797;0.814607;-0.71716;-0.116702;-0.642713;-0.165418;0.673842;-6.07631;-0.00253333;0.00049956;0.00730267;0.00732798;-0.00255864;0.00494331;0.346905;2.88264;0.00592529;0.00659107;2.86402;0.34916;108.836;153.836;-0.00310556;-0.00253475;0.0027792;-0.00175782;0.00729896;0.000490967;0.00850647;0;0.0321431;-0.218303;-1.43165;-0.883078;1.69621;-7.00151;-0.00401831;0.00554498;0.078324;0.0786957;-0.00439003;0.0415429;0.0513037;19.4918;0.0539867;0.0553905;17.926;0.0557849;85.4504;130.45;-0.00618615;-0.00402387;0.00454581;0.00646785;0.0783287;0.00416492;0.0684469;0;0.12211;8.87088;2.83247
393000;394;26.5928;0.83978;0.032609;-2.39851;26.4663;-0.981634;-0.109324;0.816314;-0.736281;-0.116609;-0.643401;-0.164468;0.67425;-6.07536;-0.00247796;0.000387487;0.00735364;0.00736888;-0.0024932;0.00493104;0.33697;2.96762;0.00592129;0.00657473;2.95559;0.338342;109.959;154.959;-0.00294345;-0.00247988;0.00279729;-0.0019988;0.00734983;-0.00101895;0.0078617;0;0.0281453;-0.218586;-1.4382;-0.883958;1.70222;-6.99868;-0.00399016;0.00653202;0.0794136;0.0799221;-0.00449863;0.0422104;0.0502453;19.9024;0.0548425;0.0562805;17.7659;0.0562877;84.0296;129.03;-0.0037046;-0.00400523;0.00437116;0.00852589;0.0794245;-0.00599514;0.0821383;0;0.128557;8.87026;2.83939
394000;395;26.6;0.846937;0.0328868;-2.39957;26.4733;-0.983878;-0.110383;0.823325;-0.738524;-0.116762;-0.645162;-0.164612;0.675992;-6.07551;-0.00249228;0.000602584;0.00710615;0.00714383;-0.00252996;0.0048369;0.350722;2.85126;0.00579305;0.0064492;2.82369;0.354147;108.219;153.219;-0.00236667;-0.00249337;0.00281688;-0.00159061;0.00710239;-0.00128437;0.00656518;0;0.0417324;-0.219878;-1.44947;-0.889067;1.71457;-7.01131;-0.00449329;0.00594187;0.0794988;0.079917;-0.00491155;0.0424143;0.0565202;17.6928;0.0549884;0.0565524;16.2712;0.0614581;84.4537;129.454;-0.00107976;-0.00450709;0.00379209;0.00792437;0.0795085;-0.0122407;0.0807223;0;0.120871;8.89689;2.84592
395000;396;26.602;0.848983;0.0329663;-2.39822;26.4755;-0.981302;-0.109027;0.825599;-0.735948;-0.117218;-0.645228;-0.161094;0.675286;-6.07199;-0.00253196;0.000339631;0.00737113;0.00738277;-0.0025436;0.00496318;0.343497;2.91123;0.00595367;0.00661758;2.90249;0.344532;110.698;155.698;-0.00296067;-0.00253413;0.0028074;-0.00210388;0.00736728;-0.000607532;0.00850519;0;0.0401148;-0.2208;-1.4553;-0.886844;1.71847;-7.00575;-0.00391791;0.00539675;0.0801863;0.0805311;-0.0042628;0.042397;0.0488602;20.4666;0.0551633;0.0565293;18.8916;0.0529335;85.5007;130.501;-0.00375215;-0.0039246;0.00418466;0.00651446;0.0801916;0.000128295;0.0627481;0;0.130043;8.85942;2.84984
396000;397;26.6127;0.859619;0.0333793;-2.39947;26.486;-0.984415;-0.110281;0.836057;-0.739062;-0.117301;-0.644173;-0.163007;0.674752;-6.0739;-0.00257831;0.000395077;0.00714237;0.0071584;-0.00259434;0.00487637;0.360988;2.77018;0.00583265;0.00650182;2.75924;0.362419;109.78;154.78;-0.00324807;-0.00257989;0.002633;-0.00182125;0.007139;0.000552874;0.00713341;0;0.0328791;-0.220978;-1.45903;-0.889841;1.7232;-7.00547;-0.00364293;0.00440261;0.0795273;0.0797597;-0.00387533;0.0418175;0.0458073;21.8306;0.0545108;0.0557567;20.5814;0.0485876;86.6361;131.636;-0.00284135;-0.00364503;0.00391336;0.00485416;0.0795292;-0.00363235;0.053288;0;0.121755;8.85175;2.85331
397000;398;26.6307;0.877611;0.0340779;-2.40011;26.5044;-0.974151;-0.110924;0.854456;-0.728797;-0.117281;-0.645602;-0.16353;0.676239;-6.07443;-0.00252312;0.000501032;0.00749989;0.00752487;-0.00254811;0.00503649;0.336421;2.97246;0.00604761;0.00671532;2.95312;0.338625;108.602;153.602;-0.00314436;-0.00252464;0.00283426;-0.00180898;0.00749602;-0.000615958;0.00745545;0;0.0307228;-0.222552;-1.46906;-0.89548;1.73481;-7.01497;-0.00392504;0.0060071;0.0808453;0.0812688;-0.0043486;0.0428087;0.04855;20.5973;0.0556854;0.0570783;18.6885;0.0535089;84.5457;129.546;-0.00407103;-0.00393832;0.00394343;0.0079089;0.0808548;0.00608843;0.0727796;0;0.130784;8.89802;2.86015
398000;399;26.6351;0.882048;0.0342502;-2.40317;26.5081;-0.987662;-0.113987;0.858137;-0.742309;-0.117732;-0.646406;-0.16093;0.676461;-6.07183;-0.00250679;0.000374927;0.00744681;0.00746091;-0.00252089;0.0049909;0.336626;2.97066;0.00599363;0.00665453;2.95963;0.33788;109.979;154.979;-0.00324886;-0.00250878;0.00280324;-0.00202939;0.00744298;0.000252246;0.00711603;0;0.0287119;-0.223755;-1.47976;-0.894469;1.74351;-7.01769;-0.00382808;0.00605489;0.0809773;0.0814074;-0.0042582;0.0428328;0.0472735;21.1535;0.0557453;0.0571104;19.1178;0.0523073;84.5794;129.579;-0.000665342;-0.00384082;0.00407773;0.00787692;0.0809866;-0.00574507;0.0534789;0;0.128211;8.88422;2.86818
399000;400;26.6458;0.89279;0.0346674;-2.40205;26.5191;-0.983696;-0.112862;0.86918;-0.738342;-0.117701;-0.646502;-0.160409;0.676424;-6.0713;-0.00224013;0.000500805;0.00759269;0.00761813;-0.00226557;0.00494185;0.295038;3.3894;0.00597878;0.00658913;3.36257;0.297392;107.797;152.797;-0.00270481;-0.00224173;0.00288152;-0.00185668;0.00758869;-0.00173881;0.00723003;0;0.0231523;-0.224078;-1.48524;-0.897821;1.74993;-7.01856;-0.00372199;0.0075343;0.0835016;0.0841477;-0.00436801;0.0442578;0.0445738;22.4347;0.0576097;0.0590104;19.2645;0.0519089;83.1584;128.158;-0.00111404;-0.00374603;0.00460145;0.010231;0.0835181;-0.0307916;0.0646136;0;0.126264;8.8777;2.87419
400000;401;26.6434;0.890375;0.0345736;-2.4007;26.5164;-0.994857;-0.111512;0.866459;-0.749504;-0.118169;-0.647147;-0.158315;0.676629;-6.06921;-0.00240522;0.000419563;0.00736331;0.00738129;-0.0024232;0.00490225;0.326649;3.06139;0.00589696;0.00653633;3.04609;0.32829;109.775;154.775;-0.00347189;-0.00240715;0.00287319;-0.00201028;0.0073593;-0.00123216;0.00451769;0;0.0245872;-0.225088;-1.49138;-0.894968;1.75381;-7.00893;-0.00407651;0.00564614;0.0861135;0.0864656;-0.0044286;0.0454471;0.0473389;21.1243;0.0591752;0.0605961;19.5243;0.0512181;85.5613;130.561;-0.0132251;-0.00408433;0.00429209;0.00688774;0.0861197;0.00456129;0.0768591;0;0.1258;8.88139;2.88186
401000;402;26.6468;0.893766;0.0347052;-2.40396;26.5191;-1.00483;-0.114774;0.869195;-0.759473;-0.11774;-0.646403;-0.161264;0.676539;-6.07216;-0.00255529;0.00023126;0.00753104;0.00753634;-0.00256059;0.00504847;0.339301;2.94724;0.00606082;0.00673129;2.94321;0.339765;111.415;156.415;-0.00344715;-0.0025579;0.00278128;-0.00229324;0.00752723;2.69515e-05;0.00714297;0;0.0301181;-0.225008;-1.49618;-0.900523;1.76072;-7.01305;-0.00304164;0.00636643;0.0838938;0.0843576;-0.00350539;0.0439315;0.0362558;27.5818;0.0574425;0.0585753;24.0651;0.041554;84.5316;129.532;-0.000108416;-0.00305503;0.00437335;0.00819963;0.0839037;-0.00225976;0.0659014;0;0.125677;8.88329;2.88919
402000;403;26.6602;0.907149;0.0352249;-2.40204;26.5332;-0.993008;-0.112853;0.883261;-0.747654;-0.118597;-0.647026;-0.160103;0.677009;-6.071;-0.00259582;0.000192115;0.00738546;0.00738915;-0.00259952;0.00499434;0.351477;2.84513;0.00598388;0.00665911;2.84251;0.351802;111.5;156.5;-0.00335445;-0.00259827;0.00262491;-0.00221658;0.00738206;-0.00174872;0.00426943;0;0.027678;-0.227141;-1.5034;-0.902623;1.7682;-7.01596;-0.00366621;0.00607494;0.0861157;0.0865249;-0.00407539;0.0453001;0.042573;23.489;0.0590886;0.0604002;21.2311;0.0471008;85.0597;130.06;-0.00800974;-0.00367693;0.00437538;0.00763399;0.0861239;0.00741912;0.0600959;0;0.130105;8.8894;2.89723
403000;404;26.6635;0.910414;0.0353517;-2.40503;26.5358;-1.0052;-0.115842;0.885813;-0.759845;-0.118782;-0.648166;-0.16071;0.678275;-6.07161;-0.00260032;0.000509347;0.00760156;0.00762693;-0.00262568;0.00512631;0.342077;2.92332;0.00614962;0.00683507;2.90474;0.344265;109.306;154.306;-0.00264039;-0.00260205;0.00297233;-0.0019287;0.0075973;-0.0024158;0.00571402;0;0.0288373;-0.227501;-1.51324;-0.908942;1.77984;-7.03088;-0.00383148;0.00612306;0.0870219;0.0874327;-0.00424229;0.0458375;0.0440289;22.7123;0.0597528;0.0611166;20.6098;0.0485206;85.3046;130.305;-0.00886741;-0.00383987;0.00476994;0.00736308;0.0870287;-0.00210944;0.0692862;0;0.125049;8.89662;2.90315
404000;405;26.6796;0.92652;0.0359771;-2.40473;26.5522;-0.998762;-0.115543;0.902266;-0.753408;-0.119604;-0.64978;-0.15812;0.679353;-6.06902;-0.00252652;0.000388728;0.00763327;0.00764812;-0.00254137;0.00509475;0.330987;3.02126;0.00612423;0.00679299;3.00945;0.332286;109.592;154.592;-0.00261061;-0.00252852;0.00283822;-0.00203607;0.00762935;-0.00115945;0.00688048;0;0.0275868;-0.228879;-1.52032;-0.911136;1.78715;-7.02562;-0.00347575;0.00601181;0.0859368;0.0863392;-0.00387815;0.0451087;0.0404454;24.7247;0.0588948;0.0601449;22.263;0.0449177;85.7818;130.782;-0.00294505;-0.00347927;0.0054041;0.00656949;0.08594;-0.00651761;0.0680361;0;0.131244;8.89852;2.91068
405000;406;26.6825;0.929457;0.0360911;-2.40744;26.5543;-1.01492;-0.11825;0.904359;-0.769565;-0.119598;-0.649054;-0.159235;0.678919;-6.07013;-0.00245432;0.000448806;0.00764121;0.00766113;-0.00247424;0.00506768;0.321196;3.11337;0.00610173;0.00675691;3.09636;0.32296;109.097;154.097;-0.00303818;-0.00245621;0.00291212;-0.00198983;0.0076371;-0.00102208;0.00677157;0;0.032431;-0.230067;-1.52889;-0.914582;1.79636;-7.03667;-0.00327393;0.00714873;0.0877719;0.0883298;-0.00383181;0.0460808;0.0373004;26.8094;0.0602045;0.0614411;23.0517;0.0433807;84.8762;129.876;-0.000851073;-0.00328138;0.00608741;0.00812122;0.0877784;-0.00189833;0.0584365;0;0.126761;8.90204;2.9142
406000;407;26.6914;0.938392;0.0364381;-2.40786;26.5633;-1.0138;-0.118669;0.913342;-0.768446;-0.119933;-0.649327;-0.157851;0.678916;-6.06875;-0.00263715;0.000329482;0.0077092;0.00771969;-0.00264763;0.00518366;0.342078;2.92331;0.00621977;0.00691155;2.91569;0.342972;110.346;155.346;-0.00333431;-0.0026394;0.00282957;-0.00214493;0.00770528;-0.001186;0.00697674;0;0.0360743;-0.231063;-1.53645;-0.912175;1.8017;-7.03;-0.0037838;0.00695334;0.0877915;0.0883164;-0.00430876;0.0463126;0.0430998;23.202;0.0603651;0.0617501;20.497;0.0487877;83.8811;128.881;-0.00417565;-0.00380567;0.00407615;0.00958828;0.087806;-0.0102743;0.0386312;0;0.137582;8.90467;2.92186
407000;408;26.6997;0.946653;0.0367588;-2.40544;26.5724;-0.998202;-0.116256;0.922451;-0.752848;-0.119947;-0.650395;-0.155226;0.679335;-6.06612;-0.00262024;0.00063038;0.0079273;0.00796484;-0.00265778;0.00531131;0.330533;3.02541;0.00638301;0.00708175;2.99681;0.333689;107.86;152.86;-0.00274906;-0.00262166;0.0030871;-0.00180063;0.00792277;-0.00153144;0.00706522;0;0.0412719;-0.231605;-1.5447;-0.913833;1.80965;-7.03053;-0.00388671;0.0075116;0.0910562;0.0916468;-0.00447733;0.0480621;0.0426847;23.4276;0.0626437;0.0640828;20.4691;0.0488542;83.9767;128.977;0.00280334;-0.00390688;0.0049734;0.00982889;0.0910707;-0.0314472;0.0811255;0;0.131217;8.90609;2.92666
408000;409;26.7033;0.950241;0.0368982;-2.40349;26.5762;-0.997946;-0.114305;0.926243;-0.752592;-0.120051;-0.651449;-0.15373;0.680022;-6.06463;-0.00252265;0.000419788;0.00798027;0.00799702;-0.00253941;0.00526822;0.316111;3.16344;0.00634941;0.00702429;3.14917;0.317544;108.899;153.899;-0.00326456;-0.00252471;0.00293151;-0.00206577;0.0079761;-0.000737322;0.00579213;0;0.0353905;-0.232438;-1.55009;-0.914148;1.81452;-7.02488;-0.00361267;0.00600865;0.0920632;0.0924391;-0.00398855;0.0482138;0.0392412;25.4834;0.0629977;0.0642851;23.1761;0.0431479;85.4113;130.411;-0.00656231;-0.00362324;0.00430666;0.00756152;0.0920712;-0.00274615;0.0752615;0;0.132736;8.90666;2.93293
409000;410;26.7129;0.959837;0.0372708;-2.40719;26.585;-1.01071;-0.118001;0.935068;-0.765355;-0.120191;-0.652498;-0.152792;0.680842;-6.06369;-0.00255971;0.000381317;0.00781518;0.00782917;-0.0025737;0.00520144;0.32753;3.05315;0.00625637;0.00693525;3.04199;0.328733;109.344;154.344;-0.00230091;-0.00256176;0.00284443;-0.00205644;0.00781123;-0.00154935;0.0073556;0;0.0342364;-0.233268;-1.56036;-0.915772;1.82422;-7.0308;-0.00314485;0.00702248;0.0929441;0.0934546;-0.00365536;0.048555;0.0338359;29.5544;0.0635566;0.06474;25.5664;0.0391138;85.4803;130.48;-0.00941715;-0.00314899;0.00640272;0.00758774;0.0929479;7.18808e-05;0.0780448;0;0.134198;8.90933;2.9404
410000;411;26.7166;0.963506;0.0374133;-2.40907;26.5882;-1.01856;-0.119882;0.938285;-0.773207;-0.11991;-0.653674;-0.146472;0.680531;-6.05737;-0.00253405;0.000552812;0.00822174;0.00825007;-0.00256238;0.00540623;0.308213;3.24451;0.00652412;0.00720831;3.21969;0.310589;107.255;152.255;-0.00244961;-0.00253563;0.00299363;-0.00186197;0.00821744;-0.000783331;0.00703334;0;0.0344346;-0.233452;-1.56818;-0.917442;1.83177;-7.03896;-0.00333819;0.00772268;0.0927549;0.0933716;-0.00395488;0.0486632;0.0359894;27.786;0.063607;0.0648843;23.6092;0.0423563;84.4561;129.456;-0.00669117;-0.00335115;0.00605367;0.00924491;0.0927654;-0.00997079;0.0680386;0;0.139245;8.90884;2.94783
411000;412;26.7299;0.976854;0.0379316;-2.4083;26.6017;-1.01939;-0.119115;0.951735;-0.774041;-0.119617;-0.651984;-0.152541;0.680192;-6.06344;-0.00239705;0.00035922;0.00779757;0.00781021;-0.00240969;0.00510995;0.30741;3.25299;0.00616896;0.00681326;3.24117;0.308531;109.164;154.164;-0.00347142;-0.00239919;0.00284329;-0.00209972;0.00779362;-0.00019417;0.00533758;0;0.0308678;-0.234476;-1.57431;-0.926295;1.84159;-7.05005;-0.00304878;0.00697102;0.0923609;0.0928676;-0.00355542;0.0482115;0.0330094;30.2944;0.0631302;0.064282;26.12;0.0382848;85.3524;130.352;-0.00278294;-0.0030544;0.00613524;0.0077338;0.0923659;-0.00618546;0.0643018;0;0.138895;8.90794;2.95543
412000;413;;;;;;;;;;-0.120621;-0.653953;-0.14981;0.68165;-6.06071;-0.00247788;0.000312425;0.00793023;0.0079396;-0.00248725;0.00521342;0.31246;3.20041;0.00628831;0.00695123;3.19212;0.313271;109.996;154.996;-0.0025637;-0.0024804;0.00291649;-0.00226476;0.00792606;-0.00238017;0.00746054;0;0.0270391;-0.235558;-1.57788;-0.92105;1.84215;-7.02701;-0.00320932;0.00794043;0.093662;0.0943086;-0.00385587;0.0490822;0.0342649;29.1844;0.0641963;0.065443;24.4585;0.0408857;85.0347;130.035;0.00304167;-0.00321332;0.00740482;0.00842859;0.0936658;-0.0184852;0.0728461;0;0.133897;8.91201;2.96224
413000;414;;;;;;;;;;-0.12051;-0.654867;-0.148154;0.682145;-6.05905;-0.00251617;0.000286791;0.00795704;0.00796489;-0.00252402;0.00524445;0.316219;3.16236;0.00632152;0.00699261;3.15564;0.316893;109.2;154.2;-0.00316776;-0.00251838;0.00271839;-0.00211954;0.00795342;-0.000531247;0.0071198;0;0.032624;-0.235803;-1.58705;-0.924917;1.85197;-7.03305;-0.00325514;0.00830016;0.097908;0.0985845;-0.00393163;0.051258;0.033247;30.0779;0.0670719;0.0683441;25.0747;0.0398808;84.7148;129.715;0.00592833;-0.00326426;0.00716503;0.00933069;0.097916;-0.0112371;0.0766485;0;0.139593;8.91977;2.96966
414000;415;26.7472;0.994158;0.0386035;-2.40996;26.619;-1.01598;-0.120769;0.969103;-0.770628;-0.1184;-0.65254;-0.156986;0.681521;-6.06788;-0.00236138;0.000522241;0.00854099;0.00856595;-0.00238634;0.00547614;0.276476;3.61695;0.00665036;0.00730152;3.58958;0.278584;106.921;151.921;-0.00267975;-0.00236326;0.00307668;-0.00200459;0.00853643;-0.00260391;0.00705431;0;0.0312684;-0.236596;-1.5933;-0.925902;1.85793;-7.02939;-0.00372093;0.00717417;0.0985865;0.0990871;-0.00422156;0.0516543;0.0377428;26.4951;0.0675093;0.0688724;23.4717;0.0426045;84.6516;129.652;0.000565045;-0.00373957;0.00470456;0.00941375;0.0985998;-0.0242001;0.0960206;0;0.142182;8.91668;2.97623
415000;416;26.7571;1.00402;0.0389866;-2.41239;26.6283;-1.02622;-0.123197;0.978404;-0.780868;-0.120189;-0.655133;-0.148338;0.682385;-6.05923;-0.00247235;0.00040063;0.00823561;0.00825058;-0.00248731;0.00536895;0.300202;3.33109;0.00649035;0.00715859;3.31706;0.301472;108.17;153.17;-0.00183416;-0.00247441;0.00289522;-0.00206746;0.00823153;-0.00373345;0.00893587;0;0.0346656;-0.237918;-1.60095;-0.925526;1.86447;-7.0339;-0.00344141;0.00895695;0.0982214;0.0990045;-0.00422452;0.0516145;0.0350372;28.5411;0.0674553;0.0688194;23.4357;0.04267;84.0396;129.04;-0.00211087;-0.00345696;0.00720553;0.0105462;0.0982343;-0.00472026;0.0892671;0;0.1293;8.92022;2.9837
416000;417;26.7658;1.01276;0.0393257;-2.41217;26.637;-1.03036;-0.122981;0.987039;-0.785003;-0.120857;-0.655478;-0.145534;0.68223;-6.05643;-0.00243977;0.000497264;0.00850346;0.00852601;-0.00246232;0.00549416;0.286915;3.48535;0.00665831;0.00732555;3.46259;0.288801;107.041;152.041;-0.00226304;-0.00244161;0.00300014;-0.00197846;0.00849912;-0.0021416;0.00732363;0;0.0257534;-0.239257;-1.6116;-0.929576;1.8758;-7.04342;-0.00299996;0.00725964;0.0995942;0.100105;-0.00351111;0.0518082;0.0301218;33.1985;0.0679375;0.0690776;28.511;0.0350741;85.3527;130.353;-0.00390248;-0.00300809;0.00611058;0.00830149;0.0996012;0.0150307;0.0839818;0;0.135582;8.92012;2.99018
417000;418;26.7677;1.01462;0.039398;-2.41509;26.6381;-1.04326;-0.125907;0.988142;-0.797911;-0.121066;-0.656074;-0.144487;0.682618;-6.05538;-0.00264722;0.000280767;0.00861139;0.00861839;-0.00265422;0.0056363;0.307409;3.25299;0.00680512;0.00751507;3.24705;0.307972;108.889;153.889;-0.00226771;-0.00264978;0.00286468;-0.0022743;0.00860736;-0.0027561;0.00693682;0;0.0338963;-0.239302;-1.6167;-0.931305;1.88104;-7.03906;-0.00256121;0.00777968;0.101398;0.101977;-0.00314017;0.0525587;0.0252589;39.59;0.0690553;0.0700782;32.4751;0.0307928;85.3809;130.381;-0.0053303;-0.00256628;0.00708996;0.00840429;0.101403;0.00259401;0.103457;0;0.146847;8.91953;2.99456
418000;419;26.7814;1.02832;0.0399298;-2.41341;26.6524;-1.03327;-0.124219;1.00245;-0.787914;-0.121144;-0.656292;-0.143651;0.682665;-6.05455;-0.00254807;0.000412932;0.00893344;0.00894827;-0.0025629;0.00575559;0.285228;3.50596;0.00697849;0.00767412;3.49146;0.286413;107.216;152.216;-0.002102;-0.00255025;0.00298209;-0.00212699;0.00892912;-0.00316691;0.00561028;0;0.0342584;-0.241063;-1.6249;-0.940034;1.89264;-7.0578;-0.00286397;0.00789639;0.100643;0.101242;-0.0034629;0.0523526;0.0284566;35.1413;0.0686783;0.0698035;29.2363;0.0342041;85.2219;130.222;-0.00213699;-0.00287019;0.00706889;0.00864607;0.100649;-0.00734614;0.0858052;0;0.152429;8.92145;2.99942
419000;420;26.789;1.03597;0.040227;-2.41455;26.6594;-1.04707;-0.125364;1.0095;-0.801713;-0.121542;-0.657145;-0.14168;0.683143;-6.05258;-0.00267035;0.000355405;0.008501;0.0085123;-0.00268165;0.00559697;0.314122;3.18347;0.00674874;0.00746263;3.17428;0.315032;108.594;153.594;-0.00222715;-0.00267263;0.00289862;-0.00215964;0.0084969;-0.00238148;0.00677166;0;0.027182;-0.241632;-1.63095;-0.93667;1.89624;-7.04601;-0.00336731;0.00886822;0.103484;0.104215;-0.00409834;0.0541567;0.0325395;30.7319;0.0708823;0.0722089;25.4286;0.0393258;84.4135;129.413;0.0028582;-0.00338203;0.00718205;0.0103911;0.103496;-0.0191925;0.0650829;0;0.139623;8.92113;3.0064
420000;421;26.7937;1.04067;0.0404095;-2.41769;26.6635;-1.05772;-0.1285;1.01351;-0.812366;-0.121854;-0.657155;-0.142182;0.683313;-6.05308;-0.00256524;0.000188132;0.00838292;0.00838615;-0.00256847;0.00547731;0.306008;3.26789;0.00661527;0.00730308;3.26504;0.306275;109.315;154.315;-0.00189326;-0.00256788;0.00270475;-0.00230117;0.00837931;-0.00241806;0.00885616;0;0.0296692;-0.242352;-1.63813;-0.937044;1.9027;-7.04384;-0.00316284;0.00848194;0.103039;0.103712;-0.003836;0.0537739;0.0306957;32.5779;0.0704547;0.0716985;27.0365;0.0369871;85.3442;130.344;0.00612884;-0.00316461;0.00825489;0.00868712;0.10304;-0.0214933;0.0706717;0;0.13616;8.92075;3.01388
421000;422;26.7991;1.04609;0.04062;-2.41226;26.6694;-1.0567;-0.12307;1.01949;-0.811347;-0.121874;-0.656028;-0.144196;0.682656;-6.05509;-0.00270063;0.000179729;0.00869213;0.00869496;-0.00270347;0.00569921;0.310699;3.21855;0.00687726;0.00759895;3.21622;0.310924;109.217;154.217;-0.00202707;-0.00270339;0.00273978;-0.00235141;0.00868842;-0.00236005;0.00758024;0;0.0263684;-0.243337;-1.64433;-0.940934;1.91007;-7.04618;-0.00406132;0.00869482;0.104172;0.104866;-0.00475536;0.0548106;0.0389867;25.6497;0.0715484;0.0730808;22.0521;0.0453471;84.623;129.623;0.00551757;-0.00407468;0.00712554;0.0101103;0.104183;-0.0191665;0.0587704;0;0.151568;8.92723;3.02065
422000;423;26.8029;1.04989;0.0407675;-2.41467;26.6731;-1.05569;-0.12548;1.02313;-0.810341;-0.121471;-0.657073;-0.14324;0.683387;-6.05414;-0.0025058;0.000266497;0.00865525;0.00866161;-0.00251216;0.00558688;0.289512;3.45409;0.00676901;0.00744918;3.44788;0.290033;108.898;153.898;-0.00281986;-0.00250855;0.00292114;-0.00235877;0.00865106;-0.00162586;0.00787301;0;0.0256064;-0.244127;-1.65401;-0.944404;1.92022;-7.05806;-0.0033726;0.00999956;0.104279;0.1052;-0.00429356;0.054747;0.032342;30.9196;0.0716077;0.072996;24.5019;0.0408132;82.9992;127.999;0.00882374;-0.00340795;0.00661363;0.0130553;0.104305;-0.0262407;0.0451662;0;0.137986;8.92947;3.02819
423000;424;26.8214;1.06839;0.041486;-2.41641;26.6923;-1.03508;-0.127222;1.04238;-0.789731;-0.12215;-0.65758;-0.143346;0.684018;-6.05424;-0.00258724;0.000385262;0.0089539;0.00896675;-0.00260008;0.00578342;0.288951;3.4608;0.00700721;0.00771122;3.44864;0.289969;107.263;152.263;-0.00328569;-0.00258943;0.00292847;-0.00212886;0.00894973;-0.00058203;0.00726827;0;0.0245986;-0.245876;-1.66225;-0.946734;1.92869;-7.05836;-0.00313973;0.00793605;0.105437;0.106014;-0.00371672;0.0548652;0.0297783;33.5815;0.0719467;0.0731536;28.5234;0.0350589;84.7364;129.736;0.00485463;-0.00315734;0.00575359;0.00990411;0.10545;-0.0191151;0.0585466;0;0.146984;8.92736;3.03518
424000;425;26.8266;1.07353;0.0416855;-2.41658;26.6972;-1.04259;-0.127396;1.04723;-0.797239;-0.122632;-0.659009;-0.140486;0.684885;-6.05138;-0.00255913;0.000368225;0.00893126;0.00894305;-0.00257092;0.00575698;0.286536;3.48996;0.00697868;0.00767598;3.47854;0.287477;107.449;152.449;-0.00246103;-0.00256142;0.0029337;-0.00216804;0.00892706;-0.00198469;0.00751131;0;0.0262074;-0.246158;-1.66542;-0.948481;1.93231;-7.05237;-0.00304571;0.00952359;0.106661;0.107481;-0.00386632;0.0556737;0.0285552;35.0199;0.072977;0.0742316;27.7994;0.035972;83.8458;128.846;-0.010423;-0.00306937;0.00706135;0.0117417;0.106679;0.0174928;0.10838;0;0.150266;8.92726;3.04321
425000;426;26.8321;1.07906;0.0419004;-2.41892;26.702;-1.05538;-0.129735;1.05208;-0.810023;-0.122461;-0.659049;-0.141487;0.685099;-6.05238;-0.00263322;0.000216364;0.00877883;0.00878293;-0.00263732;0.00571013;0.299951;3.33387;0.00690439;0.0076135;3.33025;0.300278;109.101;154.101;-0.00226871;-0.00263607;0.00285502;-0.00239245;0.00877481;-0.00332081;0.00624296;0;0.027399;-0.246828;-1.67328;-0.953801;1.94179;-7.05976;-0.00289108;0.00933861;0.111111;0.111871;-0.00365099;0.0577612;0.0260196;38.4325;0.0758272;0.0770149;30.6414;0.0326356;84.8227;129.823;-0.010396;-0.00290083;0.00823625;0.0103279;0.11112;0.0156844;0.111906;0;0.154762;8.93113;3.05028
426000;427;26.8401;1.08703;0.0422097;-2.41977;26.7096;-1.06526;-0.130587;1.05961;-0.819904;-0.123024;-0.658667;-0.142086;0.684956;-6.05298;-0.00267176;0.000272658;0.00915339;0.00915968;-0.00267805;0.00591886;0.291888;3.42597;0.00716788;0.00789182;3.42028;0.292374;108.337;153.337;-0.00272083;-0.00267456;0.00295378;-0.00237705;0.00914911;-0.00139981;0.00805508;0;0.0266781;-0.247715;-1.68029;-0.955887;1.94896;-7.06231;-0.0027197;0.0103458;0.111776;0.112703;-0.00364703;0.058175;0.0243318;41.0985;0.07638;0.0775666;30.9027;0.0323596;84.6111;129.611;-0.00199022;-0.00272508;0.00978088;0.0108524;0.111781;0.00108451;0.0834304;0;0.145512;8.93297;3.05817
427000;428;;;;;;;;;;-0.123235;-0.659803;-0.138;0.685253;-6.0489;-0.00246378;0.00051399;0.00913434;0.00915707;-0.00248651;0.00582179;0.269727;3.70745;0.00708061;0.00776239;3.6827;0.27154;106.512;151.512;-0.00267931;-0.00246585;0.00315468;-0.00209635;0.00912954;-0.00209379;0.00698989;0;0.0323846;-0.248611;-1.68729;-0.957341;1.95583;-7.06237;-0.00319703;0.0093962;0.112967;0.113722;-0.00395215;0.058837;0.0283006;35.3349;0.0771657;0.0784494;28.7747;0.0347528;84.9153;129.915;0.00232747;-0.00320629;0.00835135;0.010332;0.112975;-0.0172472;0.060325;0;0.160454;8.93107;3.06468
428000;429;26.8566;1.10358;0.0428522;-2.41603;26.7263;-1.07065;-0.126846;1.07636;-0.825293;-0.123329;-0.661576;-0.135431;0.686465;-6.04633;-0.00255563;0.000227525;0.00931529;0.00931965;-0.00255999;0.00593982;0.274348;3.64501;0.00721935;0.00791976;3.64051;0.274687;107.542;152.542;-0.00273939;-0.00255835;0.00282685;-0.00234123;0.00931136;-0.00224402;0.00513991;0;0.0293566;-0.249483;-1.69679;-0.957266;1.9641;-7.06594;-0.00317323;0.0089412;0.112258;0.112946;-0.0038617;0.0584039;0.0282674;35.3765;0.0766171;0.0778719;29.2477;0.0341907;85.8263;130.826;-0.000183526;-0.00316942;0.00942692;0.0085059;0.112254;-0.00721787;0.0748997;0;0.143629;8.93103;3.06724
429000;430;26.8532;1.10012;0.0427179;-2.41504;26.7222;-1.08726;-0.125851;1.07231;-0.841903;-0.122823;-0.661296;-0.134453;0.685912;-6.04535;-0.00269135;0.000181006;0.00899468;0.00899748;-0.00269415;0.00584582;0.299216;3.34207;0.00706961;0.00779442;3.33963;0.299434;108.798;153.798;-0.0024591;-0.00269422;0.00279307;-0.0024008;0.00899083;-0.0019197;0.0062432;0;0.0270758;-0.249464;-1.70285;-0.955856;1.96865;-7.05923;-0.0028766;0.00878802;0.113;0.113663;-0.00353929;0.0586009;0.0254567;39.2825;0.0769819;0.0781345;32.1145;0.0311386;84.9172;129.917;0.00785184;-0.00289071;0.00713949;0.0102649;0.113012;-0.0268378;0.0571068;0;0.157232;8.93346;3.07428
430000;431;26.8675;1.1144;0.0432727;-2.41879;26.7365;-1.08047;-0.129606;1.0866;-0.835113;-0.12312;-0.661914;-0.134932;0.686655;-6.04583;-0.00260137;0.000348255;0.00919978;0.00921005;-0.00261164;0.00591084;0.282764;3.53651;0.0071709;0.00788112;3.52654;0.283564;107.615;152.615;-0.00219598;-0.00260392;0.00300966;-0.00228203;0.00919535;-0.00235843;0.00703907;0;0.0260821;-0.250907;-1.71219;-0.959941;1.9789;-7.07039;-0.00338462;0.00867984;0.115269;0.1159;-0.00401621;0.0599583;0.0293629;34.0566;0.0786398;0.0799444;28.8581;0.0346523;84.9745;129.974;-0.00592639;-0.00340068;0.00679826;0.0103612;0.115282;-0.0071329;0.067388;0;0.136101;8.93389;3.08025
431000;432;26.879;1.12593;0.0437201;-2.42191;26.7486;-1.06143;-0.132722;1.09866;-0.816072;-0.123617;-0.662134;-0.134036;0.686781;-6.04493;-0.00266544;0.000243011;0.0087132;0.00871839;-0.00267062;0.00569451;0.305908;3.26896;0.00687753;0.00759268;3.26455;0.306321;109.054;154.054;-0.00342298;-0.00266815;0.00285604;-0.00234054;0.00870919;-0.0011223;0.00548142;0;0.02941;-0.252648;-1.71765;-0.96472;1.98616;-7.06662;-0.00396873;0.00837066;0.116627;0.117205;-0.00454698;0.0608759;0.0340294;29.3863;0.0796954;0.0811678;25.7764;0.0387951;85.4531;130.453;-0.00806478;-0.00397921;0.00706371;0.00953645;0.116636;0.00565363;0.0889565;0;0.171492;8.93792;3.08708
432000;433;26.8732;1.12019;0.0434974;-2.41765;26.7417;-1.0988;-0.128459;1.09177;-0.853449;-0.1232;-0.661997;-0.135023;0.686767;-6.04592;-0.0026581;0.000137176;0.00921081;0.00921239;-0.00265969;0.00593604;0.288585;3.46518;0.00719395;0.00791472;3.46371;0.288708;108.053;153.053;-0.00251245;-0.0026609;0.00267046;-0.00236631;0.00920728;-0.00252083;0.00565428;0;0.0274621;-0.253264;-1.72809;-0.97264;1.99912;-7.08259;-0.00411538;0.00958695;0.118564;0.119309;-0.00486004;0.0620844;0.0347102;28.81;0.0812076;0.0827792;24.5489;0.040735;84.7292;129.729;-0.00310544;-0.00413263;0.0077334;0.0112372;0.118578;-0.0104466;0.0827232;0;0.170401;8.93491;3.09408
433000;434;26.8825;1.12943;0.0438562;-2.42561;26.7505;-1.09333;-0.136426;1.10056;-0.847981;-0.123515;-0.662274;-0.133817;0.686855;-6.04471;-0.00261593;0.000294652;0.00904564;0.00905308;-0.00262337;0.00583823;0.289192;3.4579;0.00707389;0.0077843;3.45093;0.289777;107.491;152.491;-0.00294423;-0.00261832;0.00282025;-0.00220176;0.00904174;-0.00284739;0.00603211;0;0.0285031;-0.253641;-1.73222;-0.971368;2.00212;-7.07794;-0.00312823;0.00967827;0.120855;0.121606;-0.00387918;0.0627426;0.0258842;38.6336;0.0823942;0.0836568;31.3484;0.0318996;85.529;130.529;-0.00415401;-0.00312892;0.00959931;0.00974849;0.120856;-0.00345402;0.071499;0;0.165693;8.93484;3.10201
434000;435;26.8854;1.13231;0.043968;-2.41885;26.7534;-1.10921;-0.129657;1.10341;-0.863859;-0.12341;-0.663998;-0.130234;0.687812;-6.04113;-0.00256164;0.000395189;0.00910917;0.00912254;-0.00257501;0.00584877;0.281215;3.55599;0.00709748;0.00779836;3.54273;0.282269;106.944;151.944;-0.00217257;-0.00256385;0.00295667;-0.00213667;0.00910492;-0.00252694;0.00697383;0;0.026171;-0.25396;-1.74035;-0.969848;2.00846;-7.07658;-0.00365069;0.0107564;0.121833;0.122749;-0.00456605;0.0636573;0.0299647;33.3726;0.0833961;0.0848764;26.8829;0.0371984;84.4054;129.405;-0.00670452;-0.00366804;0.00906558;0.0122581;0.121848;0.00290597;0.108541;0;0.156607;8.93492;3.10846
435000;436;;;;;;;;;;-0.123488;-0.663412;-0.132654;0.687722;-6.04355;-0.00261586;0.000445607;0.00932501;0.00934161;-0.00263247;0.00598704;0.280521;3.56479;0.00726597;0.00798272;3.54861;0.2818;106.593;151.593;-0.00190459;-0.00261802;0.00304203;-0.0021201;0.00932052;-0.00383132;0.00753427;0;0.026323;-0.253896;-1.74218;-0.974468;2.01227;-7.07872;-0.00316819;0.00991809;0.119999;0.120792;-0.00396173;0.0623771;0.0264018;37.8762;0.0818808;0.0831694;30.4898;0.0327979;85.5593;130.559;-0.00610994;-0.00316552;0.0102236;0.00964616;0.119996;0.00847948;0.0884461;0;0.148066;8.93155;3.1158
436000;437;;;;;;;;;;-0.123789;-0.662511;-0.133911;0.687151;-6.04481;-0.00265819;0.000319408;0.00906689;0.00907559;-0.00266688;0.00587124;0.293175;3.41093;0.00710812;0.00782831;3.40307;0.293852;107.363;152.363;-0.00285115;-0.00266049;0.00283393;-0.0021659;0.00906297;-0.00200387;0.00536096;0;0.0286459;-0.255319;-1.74747;-0.981111;2.02026;-7.07887;-0.00304194;0.0104791;0.123678;0.124539;-0.00390266;0.0642207;0.0245957;40.6576;0.0843568;0.0856276;31.9113;0.0313369;85.1182;130.118;0.000293437;-0.00304613;0.0100383;0.0108701;0.123682;0.0109374;0.0777433;0;0.190325;8.93012;3.12314
437000;438;;;;;;;;;;-0.123621;-0.662706;-0.130976;0.686743;-6.04187;-0.00261419;0.000692935;0.0088983;0.00893986;-0.00265575;0.00579781;0.293786;3.40384;0.00701478;0.00773041;3.36623;0.297069;105.341;150.341;-0.00197129;-0.00261543;0.00313178;-0.00171809;0.00889368;-0.00377498;0.00782337;0;0.0323743;-0.255774;-1.75508;-0.981475;2.02707;-7.08101;-0.0035246;0.0084182;0.125062;0.12561;-0.00407337;0.0648418;0.0281829;35.4825;0.0851305;0.0864558;30.8369;0.0324286;86.3509;131.351;0.00365538;-0.00352317;0.00861065;0.00824775;0.12506;0.00294627;0.0726361;0;0.183194;8.92971;3.1315
438000;439;;;;;;;;;;-0.123843;-0.663309;-0.129341;0.687055;-6.04024;-0.0026846;0.000448595;0.00894971;0.00896698;-0.00270187;0.00583443;0.299964;3.33373;0.00705327;0.00777923;3.31881;0.301313;106.882;151.882;-0.00283333;-0.00268652;0.00293577;-0.0020099;0.00894554;-0.00141648;0.00770503;0;0.0286127;-0.256311;-1.76152;-0.979409;2.03172;-7.07466;-0.00297182;0.0098756;0.127917;0.128657;-0.00371275;0.0661851;0.0232325;43.0432;0.0870356;0.0882468;34.6529;0.0288576;85.814;130.814;0.00266032;-0.00296959;0.0101329;0.00964813;0.127914;-0.00576878;0.0795142;0;0.17307;8.93084;3.13791
439000;440;;;;;;;;;;-0.124102;-0.663005;-0.130716;0.687069;-6.04161;-0.00257657;0.000567797;0.00898561;0.00901343;-0.00260439;0.00580891;0.286744;3.48743;0.00703955;0.00774521;3.46086;0.288946;106.103;151.103;-0.00169322;-0.00257825;0.00307955;-0.00191518;0.00898107;-0.00357878;0.0068217;0;0.0271579;-0.258274;-1.7723;-0.984116;2.04359;-7.08675;-0.00413925;0.00926074;0.125105;0.125766;-0.00479944;0.0652825;0.0330862;30.2241;0.0854884;0.0870433;26.2042;0.0381618;85.8664;130.866;-0.00230716;-0.00414036;0.00912771;0.00937848;0.125106;0.00169271;0.0829896;0;0.150655;8.93104;3.14183
440000;441;26.9241;1.17105;0.0454722;-2.42195;26.7915;-1.1222;-0.132761;1.14152;-0.876843;-0.12391;-0.662929;-0.131521;0.687115;-6.04242;-0.00272467;0.000528427;0.0087546;0.00877887;-0.00274894;0.00576391;0.311227;3.21309;0.00695247;0.00768521;3.19355;0.313131;107.515;152.515;-0.00162044;-0.00272658;0.00310967;-0.00202344;0.00874995;-0.00366382;0.0080871;0;0.0335484;-0.257837;-1.77367;-0.988041;2.04661;-7.08212;-0.00422435;0.0101782;0.127935;0.128714;-0.00500362;0.066859;0.0330195;30.2851;0.0875251;0.0891453;25.7242;0.0388739;84.7643;129.764;0.00613703;-0.00424491;0.00808906;0.0120225;0.127952;0.00305892;0.0826909;0;0.152552;8.92789;3.14609
441000;442;26.9409;1.18785;0.0461245;-2.42638;26.808;-1.12131;-0.137197;1.15804;-0.875958;-0.123852;-0.663629;-0.129356;0.687369;-6.04025;-0.00274708;0.000450485;0.0086884;0.00870612;-0.00276479;0.00573546;0.316178;3.16278;0.00691251;0.00764727;3.14892;0.317569;106.765;151.765;-0.00224907;-0.00274873;0.0027967;-0.00186914;0.00868462;-0.00201156;0.00702435;0;0.0322621;-0.259097;-1.7829;-0.990118;2.05577;-7.09053;-0.00468806;0.00967441;0.129888;0.13058;-0.00537998;0.0679802;0.036093;27.7062;0.0889012;0.0906402;24.2715;0.0412005;85.2582;130.258;-0.00567347;-0.00470284;0.00806686;0.0110905;0.129901;0.00332021;0.0938236;0;0.151808;8.92969;3.15304
442000;443;;;;;;;;;;-0.124322;-0.664084;-0.128066;0.687651;-6.03896;-0.00261853;0.000585843;0.00854239;0.00857306;-0.0026492;0.00561113;0.306534;3.26228;0.00677339;0.00748151;3.23609;0.309015;106.185;151.185;-0.00168582;-0.00261991;0.00295258;-0.0017547;0.00853824;-0.00404523;0.008312;0;0.0304727;-0.259619;-1.78824;-0.99126;2.06102;-7.08781;-0.00418143;0.0102814;0.130444;0.131224;-0.0049621;0.0680933;0.0320554;31.196;0.0891831;0.0907911;26.4453;0.0378138;84.8317;129.832;0.00319746;-0.0042018;0.00822265;0.012095;0.130461;-0.00242109;0.082467;0;0.138246;8.9332;3.16101
443000;444;;;;;;;;;;-0.123879;-0.664775;-0.125598;0.687784;-6.03649;-0.002612;0.000398928;0.00845615;0.00847051;-0.00262636;0.00554844;0.308888;3.23742;0.0066964;0.00739792;3.22519;0.310059;107.748;152.748;-0.00227607;-0.00261396;0.00284091;-0.00201625;0.00845223;-0.00345468;0.00561911;0;0.0303506;-0.260712;-1.79775;-0.994641;2.07103;-7.09625;-0.00372816;0.0112792;0.134127;0.135043;-0.00464492;0.0698441;0.0277958;35.9767;0.0916165;0.0931255;29.0734;0.0343957;84.5434;129.543;-0.00410157;-0.00375064;0.00918818;0.013116;0.134145;0.0112473;0.109624;0;0.17713;8.93081;3.16813
444000;445;;;;;;;;;;-0.124054;-0.664207;-0.124401;0.687049;-6.0353;-0.00277327;0.000429555;0.00857068;0.00858692;-0.00278951;0.00568822;0.323577;3.09046;0.00684657;0.00758429;3.07829;0.324856;107.705;152.705;-0.00174789;-0.00277514;0.00286261;-0.00197614;0.00856671;-0.00247824;0.00818326;0;0.0331837;-0.261854;-1.8064;-0.999977;2.08125;-7.10442;-0.00329666;0.0106691;0.135479;0.136294;-0.00411211;0.0702031;0.0243334;41.0958;0.0922639;0.0936041;33.1446;0.0301708;85.1042;130.104;0.0101795;-0.00331031;0.00929336;0.0118766;0.135491;-0.0137078;0.0782898;0;0.182204;8.92386;3.17565
445000;446;;;;;;;;;;-0.124418;-0.664647;-0.123746;0.687422;-6.03464;-0.00277694;0.000193497;0.00850753;0.00851085;-0.00278026;0.00564555;0.32641;3.06363;0.00679303;0.00752741;3.06117;0.326672;109.949;154.949;-0.00239981;-0.00277974;0.00278584;-0.00236984;0.0085037;-0.0031697;0.00651453;0;0.0345154;-0.263;-1.81015;-0.997785;2.0836;-7.09506;-0.00321309;0.0119365;0.137236;0.138243;-0.00422033;0.0712318;0.0234129;42.7115;0.0936006;0.0949757;32.7565;0.0305283;84.787;129.787;-0.011181;-0.00322439;0.0108998;0.0128451;0.137246;-0.0150238;0.0824747;0;0.176059;8.91743;3.183
446000;447;;;;;;;;;;-0.12457;-0.664821;-0.121134;0.687152;-6.03203;-0.00264808;0.000460016;0.00848504;0.00850401;-0.00266705;0.00558553;0.312088;3.20422;0.0067367;0.00744738;3.18854;0.313623;108.27;153.27;-0.00211808;-0.00265018;0.0030454;-0.00209683;0.00848054;-0.00237179;0.00884135;0;0.0363138;-0.263211;-1.81596;-1.00337;2.09135;-7.10228;-0.00273946;0.0126274;0.138486;0.139606;-0.00385963;0.071733;0.0197814;50.5524;0.0943837;0.095644;36.171;0.0276465;84.938;129.938;0.00608648;-0.00273923;0.0126475;0.0126098;0.138486;0.0239504;0.0842639;0;0.193559;8.91642;3.19077
447000;448;;;;;;;;;;-0.124465;-0.665137;-0.120721;0.687366;-6.03162;-0.00267591;0.000449387;0.00860617;0.00862405;-0.00269379;0.00565892;0.31093;3.21616;0.00682681;0.00754522;3.20146;0.312358;107.886;152.886;-0.0018441;-0.00267795;0.0029908;-0.0020636;0.00860184;-0.0035524;0.00698185;0;0.0294955;-0.264254;-1.82403;-1.00776;2.1006;-7.10877;-0.00363134;0.0128899;0.138268;0.139429;-0.00479273;0.0721109;0.0262631;38.0762;0.0945907;0.0961478;29.0918;0.0343739;84.7598;129.76;0.00213994;-0.00363414;0.0126445;0.0131047;0.13827;-0.00958132;0.0886631;0;0.189674;8.91294;3.19756
448000;449;;;;;;;;;;-0.124406;-0.663917;-0.122898;0.686562;-6.03379;-0.00268595;0.00038049;0.00835359;0.00836669;-0.00269905;0.00553287;0.321532;3.11011;0.00666228;0.00737716;3.09987;0.322595;108.39;153.39;-0.00187481;-0.00268799;0.00284301;-0.00205507;0.00834965;-0.00306758;0.00684758;0;0.033129;-0.264302;-1.82826;-1.00917;2.10495;-7.1098;-0.00395513;0.0128815;0.141672;0.142802;-0.00508578;0.073944;0.0279176;35.8197;0.0969413;0.098592;28.0787;0.0356142;84.2433;129.243;0.0145375;-0.00397964;0.010849;0.0146546;0.141693;-0.00663603;0.0718264;0;0.166225;8.91293;3.20444
449000;450;;;;;;;;;;-0.124707;-0.664482;-0.119663;0.686591;-6.03056;-0.00274755;0.000400664;0.00834881;0.00836326;-0.002762;0.00556263;0.329094;3.03864;0.00668903;0.00741684;3.02798;0.330253;108.313;153.313;-0.00190246;-0.00274949;0.00283712;-0.00200898;0.0083449;-0.00301215;0.0070577;0;0.0329265;-0.265163;-1.83591;-1.00904;2.11165;-7.10685;-0.00430774;0.011371;0.143207;0.144078;-0.00517912;0.0746286;0.0300806;33.244;0.0978241;0.0995047;27.819;0.0359467;85.1696;130.17;0.00820672;-0.00432069;0.0101284;0.0124533;0.143218;-0.0195678;0.0650395;0;0.159208;8.91205;3.21132
450000;451;;;;;;;;;;-0.123951;-0.666015;-0.114345;0.687033;-6.02524;-0.00256286;0.000501261;0.00820893;0.0082322;-0.00258614;0.00540917;0.312204;3.20303;0.00652336;0.00721223;3.1832;0.314149;107.231;152.231;-0.00163411;-0.00256444;0.00287317;-0.00184531;0.00820496;-0.00244664;0.00922716;0;0.0355552;-0.264355;-1.83917;-1.00533;2.11261;-7.09906;-0.00318698;0.0123614;0.143866;0.144898;-0.00421885;0.0745582;0.0221524;45.1418;0.0980349;0.099411;34.3453;0.0291161;85.1837;130.184;0.00322207;-0.00318833;0.0122364;0.0124704;0.143867;-0.00388016;0.0884796;0;0.180825;8.91114;3.21653
451000;452;;;;;;;;;;-0.124213;-0.665764;-0.116821;0.687253;-6.02772;-0.00261705;0.000478117;0.0082741;0.00829505;-0.002638;0.00546653;0.316294;3.16161;0.00658784;0.0072887;3.14445;0.318021;107.667;152.667;-0.00201426;-0.00261879;0.00290371;-0.00192128;0.00827003;-0.00300374;0.00560865;0;0.0301393;-0.266657;-1.85183;-1.01572;2.12886;-7.11974;-0.00460955;0.0119911;0.146602;0.147547;-0.00555454;0.0765506;0.0314427;31.8039;0.100267;0.102067;26.5633;0.037646;85.2114;130.211;0.0137297;-0.00461819;0.0111883;0.012688;0.14661;0.00526472;0.0899523;0;0.177826;8.90956;3.22062
452000;453;27.0188;1.26575;0.0491496;-2.42996;26.8839;-1.17021;-0.140774;1.23392;-0.924858;-0.12413;-0.666525;-0.115625;0.687774;-6.02652;-0.00275229;0.000421124;0.00782144;0.00783819;-0.00276903;0.00530361;0.35189;2.8418;0.00635291;0.00707148;2.83066;0.353275;109.756;154.756;-0.00233951;-0.00275426;0.00289656;-0.00202834;0.00781737;-0.000826081;0.0064599;0;0.0314303;-0.266514;-1.85417;-1.01336;2.12976;-7.10548;-0.00415404;0.0125929;0.15062;0.151638;-0.00517194;0.078405;0.0275795;36.2588;0.102859;0.10454;29.3194;0.0341072;85.2695;130.269;-0.00891168;-0.00415759;0.0122715;0.0128711;0.150624;-0.0182065;0.0859087;0;0.173675;8.90769;3.22606
453000;454;;;;;;;;;;-0.12453;-0.667223;-0.112837;0.68806;-6.02373;-0.00261249;0.000351742;0.00807626;0.00808782;-0.00262406;0.00535594;0.323478;3.0914;0.0064471;0.00714125;3.08218;0.324446;108.798;153.798;-0.00209593;-0.00261454;0.00277889;-0.00204967;0.00807249;-0.00303396;0.00622765;0;0.0297351;-0.268638;-1.864;-1.02076;2.14211;-7.11821;-0.00294958;0.01403;0.149625;0.150905;-0.00422897;0.0775669;0.0197131;50.7278;0.102042;0.103423;35.6836;0.0280241;84.9808;129.981;0.0132807;-0.00294283;0.0145926;0.013542;0.149618;0.00302508;0.0941846;0;0.2043;8.90746;3.23429
454000;455;;;;;;;;;;-0.124826;-0.666438;-0.113523;0.687465;-6.02442;-0.00261536;0.00064577;0.00825303;0.00829127;-0.0026536;0.00547243;0.316897;3.1556;0.00659253;0.00729658;3.12454;0.320047;107.062;152.062;-0.00204748;-0.00261676;0.00311041;-0.0017923;0.00824844;-0.00185696;0.00833621;0;0.0295851;-0.269215;-1.86953;-1.02347;2.14828;-7.1223;-0.00454781;0.0125525;0.152507;0.153504;-0.00554473;0.0795244;0.0298203;33.5342;0.104234;0.106033;27.6847;0.0361211;84.9217;129.922;0.0048912;-0.00456619;0.0109528;0.0139342;0.152524;-0.016027;0.113931;0;0.170888;8.90224;3.24133
455000;456;;;;;;;;;;-0.124887;-0.666509;-0.112581;0.68739;-6.02348;-0.00271075;0.000315239;0.00767166;0.00768122;-0.00272032;0.00520077;0.353346;2.83009;0.00622885;0.00693436;2.82365;0.354151;110.494;155.494;-0.00202632;-0.00271295;0.00277122;-0.00211544;0.0076679;-0.00156831;0.00714703;0;0.0302205;-0.269414;-1.87216;-1.02281;2.15029;-7.11741;-0.00459899;0.0139598;0.153241;0.154466;-0.00582412;0.0801452;0.0300115;33.3206;0.104973;0.10686;26.5218;0.0377048;84.3336;129.334;0.0188583;-0.00462399;0.0120121;0.0156408;0.153263;0.00919637;0.0893365;0;0.164079;8.90206;3.24892
456000;457;;;;;;;;;;-0.124749;-0.666677;-0.112594;0.68753;-6.02349;-0.00273164;0.000362418;0.00769839;0.00771096;-0.00274421;0.00522759;0.354832;2.81823;0.00625922;0.00697012;2.8099;0.355885;109.81;154.81;-0.00225287;-0.00273357;0.00274781;-0.00199829;0.0076947;-0.00214811;0.00670846;0;0.0337312;-0.271903;-1.88628;-1.03598;2.16916;-7.13808;-0.00379308;0.0150786;0.151854;0.153301;-0.0052404;0.0792708;0.0249785;40.0345;0.103992;0.105694;29.2537;0.0341837;84.2052;129.205;0.00567827;-0.00380557;0.0141496;0.0158821;0.151866;0.00787704;0.0592064;0;0.172452;8.89053;3.25615
457000;458;;;;;;;;;;-0.124377;-0.666124;-0.112857;0.686969;-6.02375;-0.00270477;0.000697771;0.00761995;0.0076669;-0.00275172;0.00520931;0.354959;2.81722;0.00623433;0.00694574;2.78622;0.358909;108.507;153.507;-0.00229473;-0.00270603;0.00315223;-0.00173154;0.00761526;-0.0028098;0.00562562;0;0.0371655;-0.272181;-1.89247;-1.0372;2.17516;-7.14099;-0.00377259;0.0146612;0.154167;0.155516;-0.00512203;0.0803192;0.0244708;40.865;0.105426;0.107092;30.3623;0.0329356;84.3341;129.334;0.0101771;-0.00378883;0.0134277;0.0157259;0.154182;0.0143682;0.0588947;0;0.18292;8.886;3.26353
458000;459;;;;;;;;;;-0.125032;-0.667783;-0.109549;0.688163;-6.02044;-0.00267229;0.000450905;0.0076977;0.00771727;-0.00269186;0.00520456;0.347154;2.88057;0.00623881;0.00693942;2.86689;0.34881;109.461;154.461;-0.0021991;-0.00267412;0.00288977;-0.00196287;0.00769366;-0.0028001;0.00735046;0;0.0378173;-0.272866;-1.89536;-1.0365;2.17743;-7.13554;-0.00381855;0.014628;0.156885;0.158206;-0.0051392;0.0816726;0.0243397;41.0851;0.107225;0.108897;30.7842;0.0324842;84.4221;129.422;0.00754327;-0.00383555;0.0133328;0.0157433;0.156901;0.0080576;0.0751471;0;0.156907;8.89132;3.2706
459000;460;;;;;;;;;;-0.124452;-0.667397;-0.109015;0.687598;-6.01991;-0.00266736;0.000668996;0.00744507;0.00748913;-0.00271143;0.00510028;0.358272;2.79118;0.00610083;0.00680037;2.76207;0.362048;107.933;152.933;-0.00205404;-0.0026684;0.00294745;-0.00158659;0.00744098;-0.00281804;0.0061313;0;0.0395221;-0.272201;-1.90153;-1.0366;2.18276;-7.1382;-0.00415819;0.0147599;0.161473;0.162778;-0.00546321;0.0841206;0.0257516;38.8325;0.110385;0.112161;29.7953;0.0335623;84.3461;129.346;0.00513495;-0.00418391;0.0128426;0.0164038;0.161496;0.00893945;0.0878724;0;0.16008;8.89119;3.27835
460000;461;;;;;;;;;;-0.12491;-0.668256;-0.105808;0.688015;-6.0167;-0.00268455;0.000403026;0.00729748;0.00731373;-0.00270079;0.00500726;0.367873;2.71833;0.00598286;0.00667635;2.70799;0.369277;110.454;155.454;-0.00273699;-0.00268636;0.00277209;-0.00194257;0.00729375;-0.00188938;0.00671299;0;0.0427234;-0.272951;-1.90677;-1.03386;2.18612;-7.13115;-0.00481036;0.0145971;0.164917;0.166163;-0.00605661;0.0861098;0.0291685;34.2836;0.112848;0.114813;27.435;0.0364499;84.9457;129.946;0.0170351;-0.0048176;0.0140295;0.015082;0.164924;-0.00909852;0.0743336;0;0.165519;8.88688;3.28531
461000;462;;;;;;;;;;-0.125634;-0.668556;-0.107465;0.688695;-6.01836;-0.00279641;0.000538947;0.00743283;0.00746115;-0.00282473;0.00514294;0.376224;2.65799;0.00613636;0.00685725;2.64137;0.378591;109.832;154.832;-0.00208806;-0.00279794;0.0029333;-0.00183109;0.0074287;-0.00137559;0.00841304;0;0.0313366;-0.275084;-1.91334;-1.04215;2.19605;-7.14157;-0.00432421;0.0149302;0.162077;0.163406;-0.00565319;0.0845296;0.02668;37.4813;0.11087;0.112706;28.9051;0.034596;84.8029;129.803;0.00816266;-0.00432879;0.0145769;0.0152329;0.162081;-0.00274636;0.0902475;0;0.163802;8.88712;3.29227
462000;463;;;;;;;;;;-0.125174;-0.667505;-0.109785;0.687957;-6.02068;-0.00284294;0.000563994;0.00739307;0.00742405;-0.00287392;0.00514898;0.384541;2.6005;0.00613594;0.00686531;2.58325;0.387109;109.719;154.719;-0.00257661;-0.00284434;0.00291757;-0.00176567;0.007389;-0.00236486;0.00634875;0;0.0326247;-0.274153;-1.91289;-1.04536;2.19706;-7.13543;-0.00445893;0.0138049;0.166676;0.167783;-0.00556536;0.0866739;0.0267521;37.3803;0.113756;0.115565;30.1476;0.0331701;85.7883;130.788;0.00916279;-0.00444499;0.0150292;0.0127601;0.166661;-0.0301543;0.0828681;0;0.161454;8.88188;3.29867
463000;464;;;;;;;;;;-0.124951;-0.667898;-0.104033;0.687403;-6.01493;-0.00272393;0.00063276;0.00720788;0.00724803;-0.00276408;0.00500605;0.377909;2.64614;0.0059706;0.00667474;2.62223;0.381356;109.046;154.046;-0.00267045;-0.00272506;0.00292159;-0.0016335;0.00720384;-0.000550772;0.00738914;0;0.0333063;-0.275244;-1.92197;-1.04437;2.20464;-7.13751;-0.00454267;0.0158938;0.167225;0.168683;-0.00600096;0.0873419;0.0271651;36.8119;0.114508;0.116456;28.1093;0.0355754;84.4835;129.483;0.0173759;-0.00455535;0.014985;0.0166689;0.167237;0.00546966;0.0800806;0;0.182799;8.87356;3.30283
464000;465;27.0958;1.34276;0.0521396;-2.43804;26.958;-1.22578;-0.148857;1.30811;-0.98043;-0.124322;-0.667797;-0.104138;0.687207;-6.01503;-0.00276873;0.000516655;0.0071017;0.00712867;-0.0027957;0.00496219;0.389868;2.56497;0.00590907;0.00661625;2.54987;0.392177;110.821;155.821;-0.00214808;-0.00277032;0.00291083;-0.00185406;0.00709763;-0.00287536;0.00584961;0;0.0340501;-0.274773;-1.92439;-1.04839;2.2086;-7.13374;-0.00353742;0.0145971;0.173242;0.174439;-0.00473464;0.089587;0.020419;48.9741;0.117903;0.119449;36.8433;0.027142;85.6722;130.672;-0.00107573;-0.00352239;0.0158515;0.0135317;0.173226;-0.00403896;0.115909;0;0.191655;8.87002;3.30896
465000;466;;;;;;;;;;-0.125198;-0.667711;-0.102353;0.687014;-6.01325;-0.00273589;0.000572328;0.00718008;0.00721301;-0.00276882;0.00499091;0.381039;2.6244;0.00595036;0.00665455;2.60509;0.383864;109.807;154.807;-0.00222316;-0.00273725;0.00290884;-0.00174118;0.00717605;-0.00249912;0.00648562;0;0.0422623;-0.277853;-1.93614;-1.05833;2.22394;-7.15471;-0.00327127;0.0164162;0.173436;0.174948;-0.0047834;0.0898658;0.0188616;53.0179;0.118259;0.119821;36.574;0.0273418;85.3319;130.332;-0.014735;-0.00324383;0.0184891;0.0146553;0.173405;0.00817213;0.134726;0;0.190263;8.86608;3.31521
466000;467;;;;;;;;;;-0.125932;-0.668144;-0.0997598;0.687188;-6.01066;-0.00275985;0.00067168;0.00696079;0.00700699;-0.00280605;0.00490652;0.396486;2.52216;0.00583604;0.00654202;2.4971;0.400464;108.857;153.857;-0.00243152;-0.00276071;0.00283258;-0.00146837;0.00695703;-0.00223726;0.00558275;0;0.0393349;-0.280149;-1.94711;-1.05896;2.23408;-7.16049;-0.00404933;0.0156415;0.176711;0.178054;-0.00539284;0.0917236;0.022915;43.6395;0.120541;0.122298;33.0168;0.0302876;85.6992;130.699;-0.00769405;-0.00402232;0.0177996;0.0138149;0.17668;0.00504073;0.101595;0;0.199914;8.86304;3.3222
467000;468;;;;;;;;;;-0.125677;-0.668547;-0.102682;0.687963;-6.01358;-0.00270475;0.000547145;0.00748782;0.00751711;-0.00273404;0.00512557;0.36122;2.76839;0.00612949;0.0068341;2.74945;0.363709;108.93;153.93;-0.0024742;-0.00270615;0.00287556;-0.00175772;0.00748387;-0.00178529;0.00526638;0;0.0279178;-0.281505;-1.95771;-1.06758;2.24758;-7.17846;-0.00434202;0.0185292;0.179454;0.181304;-0.00619141;0.0937475;0.0241957;41.3296;0.122985;0.124997;29.2831;0.0341494;84.3651;129.365;0.00623249;-0.00433837;0.0187631;0.0183317;0.17945;0.0217279;0.0694912;0;0.171839;8.86208;3.32921
468000;469;;;;;;;;;;-0.125319;-0.667531;-0.103416;0.687021;-6.01431;-0.00284211;0.000455013;0.00711392;0.00713467;-0.00286286;0.00499876;0.399514;2.50304;0.00594512;0.00666502;2.49215;0.40126;111.024;156.024;-0.00232619;-0.00284373;0.00278671;-0.00185363;0.00711016;-0.0022438;0.00702363;0;0.0311056;-0.281357;-1.96185;-1.06884;2.25176;-7.17787;-0.00357232;0.017706;0.179126;0.180826;-0.00527247;0.0930493;0.0199431;50.1427;0.122346;0.124066;34.2963;0.0291577;84.8926;129.893;0.00367641;-0.00355251;0.0190696;0.0165538;0.179105;-0.00419765;0.0582908;0;0.191685;8.85566;3.3368
469000;470;;;;;;;;;;-0.12523;-0.668186;-0.0989082;0.686978;-6.0098;-0.00276593;0.000720502;0.00732997;0.00738113;-0.00281709;0.00509911;0.377345;2.6501;0.00608131;0.00679881;2.62013;0.381661;108.268;153.268;-0.00209863;-0.00276684;0.00299455;-0.00153076;0.00732577;-0.00267994;0.00609151;0;0.0328348;-0.281578;-1.9668;-1.06944;2.25638;-7.1742;-0.00308925;0.0174116;0.180439;0.182076;-0.00472652;0.0934012;0.0171208;58.4085;0.12299;0.124535;38.5222;0.0259591;84.9823;129.982;0.000784519;-0.00307076;0.0187059;0.0163186;0.180419;0.00691552;0.0430212;0;0.20726;8.85245;3.34333
470000;471;;;;;;;;;;-0.125095;-0.667492;-0.100728;0.686543;-6.01162;-0.00270874;0.000691226;0.00743776;0.00748464;-0.00275561;0.00512012;0.364187;2.74584;0.00611875;0.00682683;2.71615;0.368169;109.042;154.042;-0.00206749;-0.00271001;0.00314749;-0.0017403;0.00743308;-0.00170853;0.00819731;0;0.0339364;-0.283071;-1.97386;-1.07588;2.26578;-7.18608;-0.0030917;0.0195109;0.185304;0.187303;-0.00509109;0.0961971;0.0166845;59.9358;0.1266;0.128263;36.7904;0.027181;84.3398;129.34;0.00598273;-0.00308005;0.0202299;0.0189061;0.185292;0.0122704;0.0790469;0;0.154713;8.84338;3.35043
471000;472;27.1408;1.38779;0.0538885;-2.44201;27.0011;-1.26576;-0.152821;1.35118;-1.02041;-0.125866;-0.667722;-0.0987751;0.686623;-6.00967;-0.0028132;0.000538945;0.00703645;0.00706585;-0.0028426;0.00495423;0.399804;2.50123;0.00589131;0.00660563;2.4857;0.402301;110.491;155.491;-0.00263033;-0.00281457;0.00284035;-0.00173995;0.00703259;-0.0021309;0.00592894;0;0.0395803;-0.282203;-1.97034;-1.07492;2.26215;-7.17149;-0.00350548;0.0183532;0.187927;0.18967;-0.00524919;0.0974597;0.0186535;53.6093;0.128232;0.129946;36.1333;0.0276753;84.9339;129.934;0.00698134;-0.00348482;0.0197345;0.0171946;0.187904;-0.00397274;0.0611484;0;0.187302;8.84783;3.35762
472000;473;27.1617;1.4086;0.0546963;-2.44788;27.022;-1.25573;-0.158696;1.37202;-1.01038;-0.125869;-0.667118;-0.100406;0.686274;-6.0113;-0.00273781;0.000614531;0.00697901;0.00701772;-0.00277652;0.00489712;0.392292;2.54912;0.00582876;0.0065295;2.52752;0.395644;109.739;154.739;-0.00234286;-0.00273896;0.00288225;-0.0016313;0.00697507;-0.00192424;0.00558823;0;0.0366734;-0.285697;-1.98687;-1.08506;2.2818;-7.19283;-0.00392465;0.0176032;0.190063;0.191647;-0.0055091;0.0985781;0.0206492;48.428;0.12964;0.131437;34.7874;0.0287461;85.437;130.437;-0.00118594;-0.00389323;0.0198469;0.0157252;0.190027;0.00694873;0.0728469;0;0.198632;8.84022;3.36577
473000;474;27.1522;1.39913;0.0543288;-2.44422;27.0118;-1.27559;-0.15503;1.36191;-1.03024;-0.12565;-0.667001;-0.0993084;0.685959;-6.0102;-0.00270513;0.000576095;0.00696998;0.00700416;-0.00273931;0.00487173;0.388112;2.57658;0.00580225;0.00649565;2.5569;0.391098;110.186;155.186;-0.0025329;-0.00270645;0.00289485;-0.00172038;0.00696598;-0.00231782;0.00494646;0;0.0374964;-0.285691;-1.98771;-1.0849;2.28246;-7.18558;-0.00460957;0.0180313;0.192976;0.194608;-0.00624159;0.100425;0.0238867;41.8642;0.131869;0.1339;31.1793;0.0320726;85.3203;130.32;-0.00107516;-0.0045817;0.0199613;0.0164209;0.192945;0.00934317;0.082942;0;0.193274;8.83295;3.37009
474000;475;;;;;;;;;;-0.125822;-0.666956;-0.0980289;0.685764;-6.00892;-0.00282418;0.000731491;0.00735847;0.00741075;-0.00287646;0.0051436;0.3838;2.60553;0.00612862;0.00685814;2.57635;0.388147;108.356;153.356;-0.00218872;-0.00282507;0.00300904;-0.00152304;0.00735424;-0.00136535;0.00585282;0;0.0420412;-0.284795;-1.99017;-1.08603;2.28503;-7.18025;-0.00498122;0.0183198;0.196674;0.198325;-0.006632;0.102479;0.0253273;39.4832;0.134482;0.136638;29.9042;0.0334401;84.7315;129.731;0.00442838;-0.00498863;0.0178411;0.0187178;0.196681;-0.00343853;0.0902437;0;0.161915;8.82172;3.3763
475000;476;;;;;;;;;;-0.126195;-0.666544;-0.096376;0.685197;-6.00727;-0.00272612;0.00080846;0.00676815;0.0068365;-0.00279447;0.00481548;0.402787;2.4827;0.00572135;0.00642064;2.44644;0.408758;109.048;154.048;-0.00227453;-0.00272679;0.00305209;-0.00141402;0.00676384;-0.00202137;0.00606884;0;0.0379538;-0.286716;-1.99612;-1.08934;2.29202;-7.18767;-0.00495043;0.0198859;0.19762;0.199554;-0.00688413;0.103219;0.0250502;39.9198;0.135389;0.137626;28.9876;0.0344975;84.2818;129.282;0.0228889;-0.00496156;0.0192246;0.0204354;0.197631;-0.00227989;0.0837572;0;0.178206;8.80981;3.3798
476000;477;;;;;;;;;;-0.126042;-0.666269;-0.0956365;0.684797;-6.00653;-0.00282826;0.000698505;0.00674503;0.00679573;-0.00287896;0.00483734;0.41931;2.38487;0.00573624;0.00644979;2.36048;0.423643;110.316;155.316;-0.00274556;-0.00282922;0.00296432;-0.00154577;0.00674091;-0.00108111;0.00587468;0;0.0328412;-0.286628;-1.99606;-1.08735;2.29102;-7.17875;-0.00329517;0.022138;0.202224;0.204582;-0.00565278;0.105117;0.0162947;61.3698;0.13831;0.140156;36.1913;0.0276309;83.6632;128.663;0.0168791;-0.0033154;0.0210613;0.0230307;0.202243;0.012245;0.0658611;0;0.157123;8.80739;3.38705
477000;478;;;;;;;;;;-0.126395;-0.666676;-0.0923667;0.68481;-6.00326;-0.00271112;0.000728931;0.0069256;0.00698042;-0.00276594;0.00487318;0.391463;2.55452;0.00579978;0.00649758;2.52371;0.396243;109.033;154.033;-0.00235437;-0.00271198;0.0029808;-0.00150139;0.00692145;-0.00163048;0.00688157;0;0.0347546;-0.287946;-2.00453;-1.09035;2.29998;-7.18547;-0.00432434;0.0191252;0.202975;0.204725;-0.00607403;0.1054;0.0213047;46.9379;0.138553;0.140533;33.705;0.0296692;85.1587;130.159;0.0119416;-0.00429964;0.020735;0.0177927;0.202949;-0.000369081;0.0952177;0;0.174119;8.80696;3.39438
478000;479;27.1989;1.4458;0.0561409;-2.45007;27.0583;-1.27482;-0.160887;1.40833;-1.02946;-0.126034;-0.666448;-0.090927;0.684328;-6.00182;-0.00281191;0.000853636;0.00681015;0.00688529;-0.00288705;0.00488617;0.412899;2.4219;0.00579734;0.00651489;2.38489;0.419307;108.3;153.3;-0.00206199;-0.00281234;0.00298909;-0.00126141;0.00680607;-0.00203931;0.00600017;0;0.0320795;-0.290109;-2.01546;-1.09669;2.31278;-7.19943;-0.00353675;0.0203154;0.204831;0.206793;-0.00549898;0.106146;0.0172667;57.915;0.139731;0.141528;37.6057;0.0265917;84.7154;129.715;0.00238442;-0.00352049;0.0212993;0.0195017;0.204814;0.0197332;0.0708427;0;0.155127;8.80333;3.40134
479000;480;27.2084;1.4553;0.0565098;-2.45145;27.0677;-1.27549;-0.16226;1.41772;-1.03014;-0.125426;-0.667006;-0.0894905;0.68457;-6.00039;-0.00273938;0.00083921;0.00680024;0.0068735;-0.00281264;0.00484307;0.402835;2.4824;0.00575379;0.00645743;2.44379;0.4092;108.562;153.562;-0.00235015;-0.00273993;0.00304186;-0.00134257;0.00679599;-0.00237567;0.00702398;0;0.0301693;-0.290635;-2.02516;-1.10097;2.32334;-7.20402;-0.0038745;0.0212573;0.209564;0.211661;-0.00597101;0.108816;0.0184884;54.088;0.143139;0.145088;35.448;0.0282103;84.8551;129.855;0.00214973;-0.00383881;0.0233751;0.0195131;0.209525;0.0199139;0.0698612;0;0.195298;8.79361;3.40905
480000;481;;;;;;;;;;-0.12573;-0.667049;-0.0887966;0.684578;-5.99969;-0.00278157;0.000883728;0.00671408;0.00679563;-0.00286312;0.00482937;0.414289;2.41377;0.00572848;0.00643917;2.37351;0.421318;108.077;153.077;-0.00194141;-0.0027819;0.00298641;-0.00119912;0.00671004;-0.00282253;0.00737768;0;0.0451594;-0.288543;-2.01654;-1.10064;2.3154;-7.18608;-0.00438075;0.0215783;0.215807;0.217902;-0.00647549;0.112189;0.0202993;49.2627;0.147474;0.149585;33.6503;0.0297174;84.6843;129.684;-0.0121315;-0.00436287;0.0226057;0.020737;0.215789;-0.00617685;0.0636599;0;0.164086;8.78134;3.4168
481000;482;;;;;;;;;;-0.125311;-0.666865;-0.0879988;0.684219;-5.99889;-0.00282398;0.000981435;0.00708161;0.00717792;-0.00292028;0.0050491;0.398776;2.50767;0.00600045;0.00673213;2.45795;0.406842;106.857;151.857;-0.00268859;-0.00282414;0.00312179;-0.00113787;0.00707725;-0.00193181;0.00538639;0;0.0392191;-0.289089;-2.0242;-1.10126;2.32244;-7.18853;-0.00424951;0.0223363;0.216782;0.219017;-0.0064841;0.112751;0.0196026;51.0135;0.14822;0.150334;33.7776;0.0296055;84.341;129.341;-0.00361623;-0.00424505;0.02258;0.0221368;0.216778;0.0143966;0.0592494;0;0.166929;8.76642;3.42436
482000;483;;;;;;;;;;-0.125332;-0.666316;-0.0877971;0.683662;-5.99869;-0.00269999;0.000826836;0.00664486;0.00671745;-0.00277258;0.00474502;0.406328;2.46107;0.00563466;0.00632669;2.42281;0.412743;108.486;153.486;-0.00216945;-0.00270048;0.00295906;-0.0012856;0.00664085;-0.00266782;0.0070284;0;0.0420452;-0.291209;-2.03225;-1.11131;2.3345;-7.20603;-0.0047664;0.0211209;0.220073;0.22204;-0.00673324;0.114387;0.0216583;46.1718;0.150321;0.152516;32.9767;0.0303244;85.0867;130.087;0.00485213;-0.00473527;0.0229866;0.0195989;0.22004;0.0155802;0.0910818;0;0.17407;8.74107;3.43054
483000;484;;;;;;;;;;-0.124928;-0.666086;-0.089692;0.68361;-6.00059;-0.00280392;0.000675268;0.00648353;0.00653237;-0.00285276;0.00469256;0.432468;2.31231;0.00555559;0.00625675;2.28984;0.436711;110.554;155.554;-0.00248114;-0.00280477;0.00283697;-0.00146649;0.00647976;-0.00159788;0.0060749;0;0.0351803;-0.28982;-2.03037;-1.11105;2.33255;-7.19837;-0.00351704;0.0215558;0.220072;0.222131;-0.00557623;0.113853;0.0159814;62.5729;0.14998;0.151805;39.8353;0.0251034;85.052;130.052;0.006506;-0.00347743;0.0239024;0.0196391;0.220028;0.000550055;0.0580641;0;0.173556;8.73752;3.43115
484000;485;;;;;;;;;;-0.125741;-0.664532;-0.0894811;0.682218;-6.00038;-0.00278451;0.000786475;0.00711572;0.00717781;-0.0028466;0.0050122;0.391318;2.55546;0.00596495;0.00668294;2.52154;0.396583;108.058;153.058;-0.00285469;-0.00278516;0.00298091;-0.00138639;0.00711161;-0.00161839;0.00631838;0;0.0413603;-0.289586;-2.0273;-1.10809;2.32845;-7.18981;-0.0039599;0.0174093;0.227269;0.228573;-0.00526331;0.116918;0.0174238;57.3927;0.154166;0.155891;43.4276;0.0230269;87.1362;132.136;0.00269065;-0.00387884;0.0241977;0.0118995;0.227154;0.0324728;0.0759636;0;0.171482;8.74492;3.43808
485000;486;27.2476;1.49449;0.0580317;-2.45877;27.1034;-1.33696;-0.169584;1.45349;-1.0916;-0.125731;-0.66652;-0.0838245;0.683435;-5.99472;-0.00277938;0.000843638;0.00661202;0.00668721;-0.00285456;0.00477088;0.420352;2.37896;0.00565514;0.00636118;2.34264;0.426869;108.891;153.891;-0.00219919;-0.00277984;0.00298599;-0.00127873;0.00660795;-0.00156444;0.00780122;0;0.0312366;-0.292084;-2.04679;-1.11437;2.34872;-7.20539;-0.0046665;0.0196057;0.229051;0.230684;-0.00629974;0.118492;0.0203732;49.0841;0.155932;0.157989;36.618;0.0273089;86.3073;131.307;0.0108724;-0.00459309;0.0247553;0.0154351;0.228958;0.0106636;0.0591201;0;0.179719;8.74104;3.4449
486000;487;;;;;;;;;;-0.125314;-0.665818;-0.0863977;0.682995;-5.99729;-0.00269932;0.000940079;0.00665275;0.00674632;-0.00279288;0.0047696;0.405745;2.4646;0.00566292;0.00635946;2.41554;0.413986;107.805;152.805;-0.00230106;-0.00269957;0.00307461;-0.00117463;0.0066485;-0.00263233;0.00786734;0;0.0414758;-0.292921;-2.05228;-1.12496;2.35864;-7.21585;-0.00444573;0.0226969;0.233335;0.235482;-0.00659283;0.121037;0.019053;52.4852;0.159231;0.161383;35.7179;0.0279971;84.931;129.931;0.0174508;-0.00441625;0.0243476;0.0213644;0.233304;0.00557358;0.0652607;0;0.17427;8.73061;3.45327
487000;488;;;;;;;;;;-0.124777;-0.665304;-0.0820095;0.681853;-5.99291;-0.0026878;0.000845721;0.00683344;0.00690798;-0.00276234;0.00483516;0.39333;2.54239;0.00575163;0.00644688;2.50077;0.399876;107.618;152.618;-0.00218295;-0.00268822;0.00295768;-0.00124627;0.00682946;-0.00281455;0.00616375;0;0.0386537;-0.292634;-2.05579;-1.12062;2.35959;-7.2096;-0.00317038;0.0232261;0.240328;0.242523;-0.00536601;0.123945;0.0131919;75.8041;0.1635;0.165259;45.1962;0.0221257;84.9957;129.996;0.00794006;-0.00313365;0.0252591;0.0215922;0.240288;0.0152012;0.0705736;0;0.179733;8.71141;3.46334
488000;489;;;;;;;;;;-0.124904;-0.664886;-0.0790399;0.681118;-5.98994;-0.00275407;0.000849125;0.00686663;0.006941;-0.00282844;0.00488472;0.40108;2.49327;0.00580459;0.00651296;2.454;0.407497;108.071;153.071;-0.00265184;-0.00275454;0.00300694;-0.00128807;0.0068625;-0.00172471;0.00766437;0;0.0375626;-0.296674;-2.07242;-1.13272;2.38034;-7.23096;-0.00493114;0.0216387;0.24147;0.243356;-0.00681699;0.125087;0.0204213;48.9685;0.164557;0.166782;35.6985;0.0280124;85.7339;130.734;0.0232513;-0.0048716;0.0253029;0.0187016;0.241401;0.0349621;0.0532768;0;0.156709;8.68619;3.47006
489000;490;;;;;;;;;;-0.124607;-0.663388;-0.080242;0.679742;-5.99114;-0.00275117;0.000712013;0.00716308;0.00721395;-0.00280204;0.005008;0.384076;2.60365;0.00596681;0.00667733;2.57453;0.38842;108.28;153.28;-0.00267804;-0.002752;0.00291564;-0.00146993;0.00715911;-0.00118633;0.00840686;0;0.0381259;-0.298675;-2.08422;-1.13917;2.39393;-7.24193;-0.00433584;0.0205504;0.242177;0.243879;-0.00603727;0.124958;0.0179036;55.8548;0.164635;0.166611;40.3955;0.0247552;86.1254;131.125;0.0188761;-0.00426892;0.0249777;0.0170015;0.242096;0.0393178;0.0503445;0;0.168908;8.61483;3.47441
490000;491;;;;;;;;;;-0.125094;-0.663126;-0.081148;0.679683;-5.99204;-0.00269715;0.000711341;0.00719882;0.00724969;-0.00274802;0.00499885;0.374665;2.66905;0.00596404;0.00666514;2.63815;0.379053;108.35;153.35;-0.00279253;-0.00269806;0.00297144;-0.00152656;0.00719469;-0.00230116;0.00679499;0;0.0420787;-0.296872;-2.07629;-1.13556;2.38508;-7.23131;-0.00277818;0.024491;0.249643;0.251997;-0.00513244;0.128565;0.0111286;89.8585;0.169735;0.17142;49.0989;0.0203671;84.8428;129.843;0.0214577;-0.00274399;0.0262876;0.0230572;0.249606;0.0221067;0.0879543;0;0.165313;8.63487;3.47953
491000;492;;;;;;;;;;-0.125394;-0.663345;-0.079943;0.679809;-5.99084;-0.00275748;0.000755683;0.00681367;0.00687296;-0.00281678;0.00484487;0.404699;2.47097;0.00575544;0.00645983;2.44001;0.409835;109.472;154.472;-0.00242796;-0.0027583;0.00301975;-0.00148687;0.00680942;-0.00248018;0.00853049;0;0.0428266;-0.295877;-2.07042;-1.13243;2.37836;-7.21968;-0.00328238;0.0224682;0.254065;0.256012;-0.00522929;0.130621;0.0129195;77.4026;0.172444;0.174161;48.9573;0.020426;85.9934;130.993;0.00363752;-0.00319787;0.027662;0.0183399;0.253961;0.000982594;0.0743419;0;0.161648;8.66583;3.48235
492000;493;;;;;;;;;;-0.124886;-0.66556;-0.0718786;0.680979;-5.98277;-0.00268734;0.000719829;0.00666957;0.00672462;-0.00274239;0.00473351;0.402926;2.48185;0.00562466;0.00631134;2.4521;0.407814;109.582;154.582;-0.00304308;-0.00268818;0.00294173;-0.00148143;0.00666553;-0.00118245;0.00724217;0;0.0316438;-0.298638;-2.08486;-1.13435;2.39219;-7.22592;-0.00403764;0.0213261;0.25879;0.260509;-0.00575682;0.133133;0.015602;64.0942;0.175623;0.17751;45.2522;0.0220984;86.707;131.707;-0.00918339;-0.00392984;0.0286967;0.0154938;0.258643;-0.00187427;0.0700237;0;0.150059;8.6712;3.49639
493000;494;;;;;;;;;;-0.125154;-0.664125;-0.0712508;0.67956;-5.98215;-0.00283222;0.000631551;0.00700419;0.00704457;-0.0028726;0.00495859;0.404361;2.47304;0.00589214;0.00661145;2.45233;0.407775;109.619;154.619;-0.00297688;-0.00283325;0.00285198;-0.00156719;0.00700035;-0.00192945;0.00904578;0;0.0290521;-0.301517;-2.10088;-1.14538;2.41175;-7.24534;-0.00386469;0.0244018;0.271575;0.27372;-0.00600979;0.139865;0.0142306;70.2709;0.184516;0.186487;45.5457;0.0219559;85.7182;130.718;0.0171713;-0.00378606;0.0288113;0.0209472;0.271483;0.0211851;0.0305557;0;0.152306;8.6216;3.50356
494000;495;;;;;;;;;;-0.12424;-0.662414;-0.0711779;0.677712;-5.98207;-0.00276538;0.00073165;0.00714709;0.00720081;-0.0028191;0.00500995;0.386924;2.58449;0.00596652;0.00667993;2.5543;0.391497;108.066;153.066;-0.00247006;-0.00276612;0.00290451;-0.00141983;0.00714317;-0.00264996;0.00887524;0;0.0284501;-0.302132;-2.10947;-1.14869;2.42087;-7.25303;-0.00325298;0.0252057;0.277199;0.279447;-0.00550032;0.142473;0.0117352;85.2141;0.188158;0.189965;50.8055;0.0196829;85.4332;130.433;0.0145486;-0.00319249;0.0284316;0.0226879;0.277132;0.0369;0.0516284;0;0.144421;8.53883;3.51144
495000;496;;;;;;;;;;-0.125105;-0.661938;-0.0732478;0.677627;-5.98414;-0.00277796;0.000745032;0.00721951;0.00727472;-0.00283318;0.00505395;0.384786;2.59885;0.00602067;0.0067386;2.56769;0.389455;108.024;153.024;-0.00231777;-0.00277872;0.00294737;-0.00143545;0.00721547;-0.00328915;0.00901114;0;0.0314216;-0.304204;-2.1153;-1.1542;2.42883;-7.2604;-0.00529784;0.0206734;0.281854;0.283335;-0.00677857;0.145057;0.0187964;53.2018;0.19119;0.193409;41.7986;0.0239242;87.6125;132.612;0.0163832;-0.00516098;0.0312638;0.0124542;0.28164;0.036743;0.0456363;0;0.148039;8.5253;3.51494
496000;497;;;;;;;;;;-0.125369;-0.663406;-0.0721083;0.678988;-5.983;-0.00271188;0.000776791;0.00691739;0.00697965;-0.00277414;0.00487689;0.392038;2.55077;0.00580321;0.00650252;2.51597;0.397461;108.335;153.335;-0.00287006;-0.00271254;0.00295912;-0.00138467;0.00691334;-0.00199241;0.00942628;0;0.0329261;-0.303506;-2.11731;-1.15303;2.42994;-7.25382;-0.00476586;0.0229204;0.28293;0.284744;-0.00658046;0.145662;0.0168447;59.3659;0.192061;0.194216;43.2712;0.0231101;86.6144;131.614;0.0299937;-0.0046541;0.0300313;0.0174035;0.282783;0.0349756;0.0475092;0;0.150033;8.5422;3.51818
497000;498;;;;;;;;;;-0.124708;-0.663067;-0.0712207;0.678441;-5.98212;-0.00260736;0.000645146;0.00672831;0.00677268;-0.00265173;0.0047122;0.387521;2.58051;0.0056119;0.00628294;2.55406;0.391533;109.243;154.243;-0.00247133;-0.0026083;0.00282253;-0.00151205;0.00672456;-0.0022049;0.00819044;0;0.028735;-0.305125;-2.12905;-1.16006;2.4437;-7.26587;-0.0053734;0.0224141;0.286478;0.288189;-0.00708476;0.147637;0.0187568;53.314;0.194531;0.196849;40.6773;0.0245837;86.8918;131.892;0.00556467;-0.00525393;0.03036;0.01627;0.286315;0.0271378;0.0642166;0;0.153107;8.55588;3.52593
498000;499;;;;;;;;;;-0.125383;-0.662248;-0.0686676;0.677502;-5.97956;-0.00278768;0.00060977;0.00708836;0.00712587;-0.00282519;0.00497553;0.393276;2.54275;0.0059214;0.00663404;2.52226;0.396469;109.89;154.89;-0.00258861;-0.00278891;0.00292024;-0.00167805;0.00708431;-0.00308343;0.00895241;0;0.0308296;-0.306187;-2.1323;-1.15811;2.44575;-7.26156;-0.00434081;0.0257429;0.293947;0.296152;-0.00654618;0.151349;0.0147674;67.7169;0.199652;0.201799;45.2404;0.0221041;85.8732;130.873;0.00461549;-0.00424817;0.030778;0.0218681;0.293837;0.020002;0.0376215;0;0.149841;8.54465;3.53358
499000;500;;;;;;;;;;-0.124484;-0.660001;-0.0656225;0.674836;-5.97652;-0.00276876;0.000435643;0.00718846;0.00720749;-0.00278779;0.00499764;0.385168;2.59627;0.00595586;0.00666352;2.58538;0.38679;110.655;155.655;-0.00240789;-0.00277043;0.00276845;-0.00187411;0.00718475;-0.00366598;0.0103041;0;0.0263203;-0.305957;-2.13236;-1.15988;2.4466;-7.25545;-0.00408332;0.0246355;0.303172;0.305135;-0.00604604;0.155591;0.0134686;74.2465;0.205468;0.207454;50.4686;0.0198143;86.5437;131.544;0.0297511;-0.00395833;0.0321147;0.018919;0.30301;0.000874103;0.0488586;0;0.135841;8.49674;3.54874
500000;501;;;;;;;;;;-0.123755;-0.659039;-0.0622423;0.673441;-5.97314;-0.00262931;0.000656517;0.00753168;0.00757392;-0.00267156;0.00512274;0.349101;2.8645;0.0061368;0.00683032;2.83502;0.352731;108.107;153.107;-0.00212755;-0.0026305;0.00300909;-0.00167233;0.0075274;-0.00584126;0.0107693;0;0.0406588;-0.307693;-2.15174;-1.16456;2.46593;-7.26966;-0.00407286;0.0257965;0.312909;0.314995;-0.00615849;0.160577;0.0130161;76.828;0.212079;0.214102;51.1481;0.0195511;86.439;131.439;0.0015384;-0.00394151;0.0333111;0.0200954;0.31274;0.00536343;0.0239952;0;0.156277;8.39921;3.54903
501000;502;;;;;;;;;;-0.123758;-0.656612;-0.06588;0.671413;-5.97678;-0.0026042;0.000520222;0.00777307;0.00779908;-0.00263021;0.00521465;0.335029;2.98482;0.00626301;0.00695286;2.96519;0.337247;108.41;153.41;-0.00143553;-0.00260578;0.00291326;-0.00184818;0.00776899;-0.00660317;0.0119898;0;0.042919;-0.307958;-2.14865;-1.16635;2.46413;-7.26838;-0.00410575;0.0245272;0.314268;0.316146;-0.00598422;0.161065;0.0130645;76.5433;0.212787;0.214754;52.83;0.0189286;86.7412;131.741;0.00706619;-0.00397519;0.0325059;0.0184805;0.314095;-0.00464734;0.0185757;0;0.15024;8.35801;3.55003
502000;503;;;;;;;;;;-0.124695;-0.659725;-0.0635014;0.674403;-5.9744;-0.00275643;0.000288487;0.00748667;0.00749479;-0.00276455;0.00512967;0.368178;2.71608;0.0061295;0.00683956;2.71104;0.368863;111.218;156.218;-0.00248906;-0.00275866;0.00272987;-0.00212808;0.00748301;-0.00401648;0.00970106;0;0.03207;-0.308196;-2.14895;-1.16384;2.46323;-7.26295;-0.00386077;0.0268319;0.320132;0.322339;-0.00606785;0.164203;0.0120599;82.9193;0.216944;0.218938;53.1224;0.0188244;86.1477;131.148;0.0138149;-0.00374579;0.0330284;0.0221557;0.319991;0.007285;0.0444854;0;0.147279;8.44579;3.55616
503000;504;;;;;;;;;;-0.12431;-0.657599;-0.0560569;0.671589;-5.96695;-0.00259127;0.000300031;0.00763614;0.00764493;-0.00260006;0.0051225;0.339343;2.94687;0.00614935;0.00682999;2.94029;0.340103;110.021;155.021;-0.0019555;-0.00259339;0.00270632;-0.00208184;0.00763255;-0.00690002;0.0093469;0;0.0309235;-0.353758;-2.40603;-1.30517;2.75999;-7.59763;-0.00287271;0.0121841;0.168994;0.169854;-0.00373218;0.086793;0.0169989;58.8274;0.1145;0.115724;45.5107;0.0219729;95.489;140.489;-0.0449487;-0.00293578;0.0458709;-0.0165595;0.168158;0.0174521;-0.0973879;0;0.153685;8.38495;3.57555
504000;505;;;;;;;;;;-0.12313;-0.65639;-0.0498016;0.669693;-5.9607;-0.00267121;0.000359783;0.00754073;0.00755339;-0.00268387;0.00511863;0.354238;2.82296;0.00612932;0.00682484;2.81436;0.35532;110.665;155.665;-0.00182469;-0.00267336;0.00284716;-0.00210239;0.00753677;-0.00816655;0.0102825;0;0.0268214;-0.352797;-2.41863;-1.30032;2.76858;-7.58789;-0.00196839;0.00978878;0.170447;0.171001;-0.00252236;0.0867617;0.0115484;86.5923;0.114851;0.115682;67.7942;0.0147505;97.4593;142.459;-0.0630154;-0.00219414;0.0486702;-0.0233751;0.169476;0.0224269;-0.0536418;0;0.168323;8.27208;3.57687
505000;506;;;;;;;;;;-0.123808;-0.656951;-0.0507169;0.670437;-5.96161;-0.00259852;0.000305393;0.00744967;0.00745895;-0.0026078;0.00503337;0.34881;2.86689;0.0060328;0.00671116;2.86025;0.34962;110.734;155.734;-0.00149703;-0.00260071;0.00274742;-0.00211228;0.00744597;-0.00847633;0.0102568;0;0.0259966;-0.354314;-2.42168;-1.30688;2.77453;-7.592;-0.00331338;0.0110152;0.186582;0.187219;-0.0039502;0.0955845;0.0177583;56.3117;0.12615;0.127446;47.3948;0.0210994;95.9876;140.988;-0.0150545;-0.00345067;0.0477784;-0.0198743;0.185671;0.0269841;-0.0580383;0;0.179933;8.26993;3.57826
506000;507;;;;;;;;;;-0.122919;-0.656818;-0.0529301;0.670314;-5.96383;-0.00262524;0.000377173;0.00782755;0.00784114;-0.00263883;0.00523999;0.335384;2.98165;0.00629421;0.00698665;2.97145;0.336536;109.852;154.852;-0.00182717;-0.00262741;0.00289692;-0.00211645;0.00782346;-0.00693155;0.011227;0;0.0266403;-0.35436;-2.43219;-1.32094;2.79034;-7.60873;-0.00294758;0.0178382;0.203681;0.20521;-0.00447623;0.104843;0.0144715;69.1012;0.138323;0.139791;45.8444;0.0218129;91.7482;136.748;-0.0422295;-0.00280533;0.046455;-0.00587542;0.202917;-0.00351883;-0.110999;0;0.168912;8.29136;3.58433
507000;508;;;;;;;;;;-0.123604;-0.654114;-0.0522353;0.667736;-5.96313;-0.00265839;0.000365288;0.00754351;0.00755658;-0.00267146;0.00511402;0.352408;2.83762;0.00612556;0.00681869;2.82863;0.353527;110.039;155.039;-0.00125902;-0.00266034;0.00275915;-0.00200434;0.0075398;-0.00900889;0.0102432;0;0.024591;-0.312803;-2.18973;-1.18035;2.50719;-7.28428;-0.00428293;0.027159;0.367763;0.369735;-0.00625506;0.187995;0.0116459;85.8671;0.248601;0.25066;59.1098;0.0169177;87.0057;132.006;-0.00186993;-0.00411008;0.0372206;0.0198329;0.367526;0.0175261;0.00157733;0;0.146988;8.25238;3.59939
507001;509;;;;;;;;;;;;;;;;;;;;;;;;;;;;;;;;;;;;;;;;;;;;;;;;;;;;;;;;;;;;;;;;;;8.23544;3.59962
507002;510;;;;;;;;;;;;;;;;;;;;;;;;;;;;;;;;;;;;;;;;;;;;;;;;;;;;;;;;;;;;;;;;;;8.23544;3.59962
507003;511;;;;;;;;;;;;;;;;;;;;;;;;;;;;;;;;;;;;;;;;;;;;;;;;;;;;;;;;;;;;;;;;;;8.23544;3.59962
507004;512;;;;;;;;;;;;;;;;;;;;;;;;;;;;;;;;;;;;;;;;;;;;;;;;;;;;;;;;;;;;;;;;;;8.23544;3.59962
507005;513;;;;;;;;;;;;;;;;;;;;;;;;;;;;;;;;;;;;;;;;;;;;;;;;;;;;;;;;;;;;;;;;;;8.23544;3.59962
