Time;Image index (Image index);Distance L(t) (Extensometer 1);Change in distance (Extensometer 1);Strain - RC (Extensometer 1);Distance x L(t) (Extensometer 1);Distance y L(t) (Extensometer 1);Distance z L(t) (Extensometer 1);Change in distance x (Extensometer 1);Change in distance y (Extensometer 1);Change in distance z (Extensometer 1);X-displacement (Strain Gauge 1);Y-displacement (Strain Gauge 1);Z-displacement (Strain Gauge 1);Displacement (Strain Gauge 1);Height (Strain Gauge 1);Exx - RC (Strain Gauge 1);Exy - RC (Strain Gauge 1);Eyy - RC (Strain Gauge 1);Max. principal strain - RC (Strain Gauge 1);Min. principal strain - RC (Strain Gauge 1);Max. shear strain - RC (Strain Gauge 1);Poisson ratio -Exx/Eyy (Strain Gauge 1);Poisson ratio -Eyy/Exx (Strain Gauge 1);Von Mises - RC (Strain Gauge 1);Tresca - RC (Strain Gauge 1);Poisson ratio -strain max/min (Strain Gauge 1);Poisson ratio -strain min/max (Strain Gauge 1);Max. strain angle (Strain Gauge 1);Max. shear angle (Strain Gauge 1);Vorticity-z (Strain Gauge 1);du/dx (Strain Gauge 1);du/dy (Strain Gauge 1);dv/dx (Strain Gauge 1);dv/dy (Strain Gauge 1);dw/dx (Strain Gauge 1);dw/dy (Strain Gauge 1);Ezz plane stress state (Strain Gauge 1);Stereo reconstruction error (Strain Gauge 1);X-displacement (Strain Gauge 2);Y-displacement (Strain Gauge 2);Z-displacement (Strain Gauge 2);Displacement (Strain Gauge 2);Height (Strain Gauge 2);Exx - RC (Strain Gauge 2);Exy - RC (Strain Gauge 2);Eyy - RC (Strain Gauge 2);Max. principal strain - RC (Strain Gauge 2);Min. principal strain - RC (Strain Gauge 2);Max. shear strain - RC (Strain Gauge 2);Poisson ratio -Exx/Eyy (Strain Gauge 2);Poisson ratio -Eyy/Exx (Strain Gauge 2);Von Mises - RC (Strain Gauge 2);Tresca - RC (Strain Gauge 2);Poisson ratio -strain max/min (Strain Gauge 2);Poisson ratio -strain min/max (Strain Gauge 2);Max. strain angle (Strain Gauge 2);Max. shear angle (Strain Gauge 2);Vorticity-z (Strain Gauge 2);du/dx (Strain Gauge 2);du/dy (Strain Gauge 2);dv/dx (Strain Gauge 2);dv/dy (Strain Gauge 2);dw/dx (Strain Gauge 2);dw/dy (Strain Gauge 2);Ezz plane stress state (Strain Gauge 2);Stereo reconstruction error (Strain Gauge 2);Load ADC 1 channel 1;Position ADC 1 channel 2
ms;;mm;mm;S;mm;mm;mm;mm;mm;mm;mm;mm;mm;mm;mm;S;S;S;S;S;S;;;S;S;;;°;°;S;S;S;S;S;S;S;S;pixel;mm;mm;mm;mm;mm;S;S;S;S;S;S;;;S;S;;;°;°;S;S;S;S;S;S;S;S;pixel;kN;mm
0.02515;1;25.7564;0;0;-2.5014;25.6256;-0.683034;0;0;0;0;0;0;0;-5.656;-3.33067e-16;-2.77556e-17;-1.11022e-16;-1.07605e-16;-3.36484e-16;1.14439e-16;;;1.9843e-16;1.52586e-16;;;0;45;0;-3.33067e-16;-5.55112e-17;-4.54898e-28;-1.11022e-16;0;0;0;0;0;0;0;0;-6.32427;-2.22045e-16;6.93889e-17;0;1.99005e-17;-2.41945e-16;1.30923e-16;;;1.68323e-16;1.74564e-16;;;0;45;0;-2.22045e-16;8.32667e-17;5.55112e-17;0;0;0;0;0;-0.0143157;0.206362
1000.03;2;25.7602;0.0037358;0.000145044;-2.49898;25.6295;-0.684727;0.00242288;0.00394607;-0.00169267;-0.000366289;-0.00362981;-0.00462723;0.00589244;-5.66063;0.00012891;6.90256e-05;0.000182437;0.000229706;8.16405e-05;7.40325e-05;-0.706599;-1.41523;0.000134456;9.871e-05;-2.81362;-0.355414;26.5799;71.5799;0.000369963;0.000128861;-0.00018052;0.000318558;0.000182423;0.00180994;0.000567085;0;0.0100313;-0.000436476;-0.00320483;-0.00866956;0.00925325;-6.33294;0.000162974;0.000139747;0.000147536;0.000295216;1.52952e-05;0.00013996;-1.10464;-0.905274;0.000191915;0.000186614;-19.3012;-0.0518103;83.0382;128.038;-0.000172299;0.000162754;0.000958444;-0.000678962;0.000147087;0.000639878;-0.00254606;0;0.0226397;-0.0136544;0.215335
2000.03;3;25.7588;0.00240965;9.35553e-05;-2.49899;25.628;-0.692521;0.00240873;0.00240234;-0.00948676;-0.00125716;-0.00639206;-0.00792929;0.0102622;-5.66393;0.000309992;0.000180096;-0.000447119;0.000350649;-0.000487776;0.000419212;0.693309;1.44236;0.000486218;0.00055895;0.718872;1.39107;139.692;4.69199;0.000336007;0.000309921;-5.78893e-05;0.000418262;-0.000447105;-0.000811018;0.000276648;0;0.00908104;-0.00145939;-0.00574802;-0.0158818;0.016953;-6.34015;0.000136779;0.000288108;0.000136131;0.000424563;-0.000151653;0.000288108;-1.00476;-0.995264;0.000344892;0.000384144;2.79957;0.357198;84.3613;129.361;0.000847519;0.00013674;0.000977724;-0.00040151;0.000135695;-0.00110125;-0.00315709;0;0.0207649;-0.0133313;0.222749
3000.03;4;25.7581;0.00164118;6.37194e-05;-2.49906;25.627;-0.697904;0.00233461;0.0014767;-0.0148696;-0.00136519;-0.00819255;-0.0130145;0.0154389;-5.66901;0.000201733;-4.01994e-05;-0.00065494;0.000203616;-0.000656822;0.000430219;0.308018;3.24656;0.000519236;0.000573625;0.310001;3.22579;112.298;157.298;0.000112056;0.000201708;-0.000309638;0.00022947;-0.000654987;0.00136403;0.00119767;0;0.00993621;-0.00136208;-0.00704266;-0.0244014;0.0254339;-6.34867;8.08366e-05;0.000415259;0.000105469;0.000508594;-0.000322289;0.000415442;-0.766447;-1.30472;0.000483714;0.000553922;1.57807;0.633685;88.1292;133.129;0.000724793;8.07615e-05;0.00139852;-0.000567983;0.000104578;0.000164075;-0.00351631;0;0.0227673;-0.0132971;0.228836
4000.03;5;25.7583;0.00186009;7.22183e-05;-2.49893;25.6272;-0.702037;0.00247415;0.00159744;-0.0190028;-0.000890628;-0.0110306;-0.014564;0.0182914;-5.67056;0.000240871;0.000106712;3.02302e-05;0.000285483;-1.43823e-05;0.000149933;-7.9679;-0.125504;0.000195293;0.00019991;19.8496;0.0503788;172.952;37.9522;0.000313472;0.00024082;-0.000123198;0.000336671;3.02283e-05;2.0845e-05;0.00100675;0;0.0106175;-0.00143476;-0.0100383;-0.0281244;0.0298966;-6.35239;0.00019608;0.000321685;0.000133504;0.000487995;-0.000158411;0.000323203;-1.46872;-0.680864;0.000389037;0.000430937;3.08056;0.324616;81.7363;126.736;0.0011;0.000195991;0.00117366;-0.000530341;0.000132867;-0.000512379;-0.00394984;0;0.025115;-0.0131002;0.236166
5000.03;6;25.7582;0.00183222;7.11363e-05;-2.49984;25.627;-0.703134;0.00155778;0.00144996;-0.0201003;-0.000692862;-0.0134149;-0.0162113;0.0210534;-5.67221;0.000388496;0.000168434;-0.00013959;0.000437644;-0.000188739;0.000313191;2.78311;0.35931;0.000371037;0.000417588;2.31878;0.431261;168.75;33.75;0.000314962;0.00038845;-9.52439e-06;0.000346486;-0.000139576;-1.74456e-05;0.00120061;0;0.0105761;-0.00149161;-0.0120425;-0.0324083;0.0346055;-6.35667;0.000111352;0.00032308;7.26492e-05;0.00041566;-0.000231658;0.000323659;-1.53274;-0.652427;0.000378729;0.000431545;1.79428;0.557327;85.445;130.445;0.000999213;0.000111221;0.00125213;-0.000606003;7.19175e-05;-0.000222289;-0.00353448;0;0.0252439;-0.0124755;0.243847
6000.03;7;25.7584;0.00193553;7.51474e-05;-2.49981;25.627;-0.706306;0.00158961;0.00146968;-0.0232724;-0.000849508;-0.0159424;-0.0164339;0.0229119;-5.67243;0.000414314;0.000269509;-0.000684039;0.000476881;-0.000746605;0.000611743;0.605688;1.65101;0.000712079;0.000815658;0.638732;1.5656;131.453;176.453;0.000285305;0.000414238;6.38598e-05;0.000475384;-0.000684004;-0.000766492;0.00269009;0;0.0104549;-0.00166024;-0.0143893;-0.0354745;0.0383177;-6.35974;0.000163148;0.000304142;7.12718e-05;0.000424802;-0.000190382;0.000307592;-2.28909;-0.436855;0.00036367;0.000410123;2.23131;0.448167;81.6028;126.603;0.001429;0.000163063;0.00111936;-0.000511149;7.06917e-05;-0.000892427;-0.00321893;0;0.0258116;-0.0120456;0.251147
7000.03;8;25.7578;0.00139825;5.42874e-05;-2.49991;25.6264;-0.70769;0.00148939;0.000881703;-0.0246559;-0.0012351;-0.0172131;-0.021474;0.027549;-5.67747;0.000351677;0.000110924;-0.000889487;0.000361512;-0.000899322;0.000630417;0.395371;2.52927;0.000749693;0.000840557;0.401983;2.48767;112.214;157.214;-0.000498326;0.00035164;-7.22909e-05;0.000294367;-0.000889483;0.0020682;0.00195822;0;0.0159138;-0.00224475;-0.0154685;-0.0434708;0.0461956;-6.36774;9.70367e-05;0.00036506;0.000100778;0.000463972;-0.000266157;0.000365065;-0.962872;-1.03856;0.000426667;0.000486753;1.74323;0.573649;86.4104;131.41;0.00130133;9.70268e-05;0.00112136;-0.000391233;0.000100216;-0.00109472;-0.000604104;0;0.0293284;-0.0121966;0.258684
8000.03;9;25.7583;0.00190347;7.39027e-05;-2.50075;25.6267;-0.713283;0.000647311;0.0011523;-0.0302487;-0.00187646;-0.0182857;-0.0264274;0.0321915;-5.68243;0.000528032;9.84154e-05;-0.000615193;0.000536443;-0.000623603;0.000580023;0.85832;1.16507;0.000670382;0.000773364;0.860231;1.16248;130.795;175.795;-0.000329906;0.00052801;-3.4183e-05;0.000231165;-0.000615188;0.00132541;0.00257871;0;0.0153553;-0.00282434;-0.0167052;-0.0498016;0.0526045;-6.37407;0.000344149;0.000326283;0.00016892;0.000594376;-8.13077e-05;0.000337842;-2.03735;-0.490833;0.000425948;0.000450456;7.31021;0.136795;74.3147;119.315;0.00119084;0.000344051;0.00120275;-0.000550342;0.00016825;-0.000460831;-0.00144614;0;0.0295777;-0.0117804;0.266035
9000.03;10;25.757;0.000619105;2.40369e-05;-2.50069;25.6254;-0.715369;0.000705768;-0.000191116;-0.032335;-0.00211775;-0.0202162;-0.0274316;0.0341419;-5.68343;0.000741395;0.000224198;-0.000423261;0.000783062;-0.000464928;0.000623995;1.75163;0.570898;0.00072829;0.000831994;1.68426;0.593731;162.584;27.5837;-0.000356354;0.000741314;-1.05909e-05;0.00045926;-0.000423236;0.00136631;0.00240891;0;0.0139986;-0.00320509;-0.0183312;-0.0543517;0.0574492;-6.37862;0.000232163;0.000342915;0.000142546;0.000533184;-0.000158475;0.00034583;-1.62868;-0.613992;0.000418408;0.000461106;3.36446;0.297224;79.4159;124.416;0.00103508;0.000232131;0.00111142;-0.000425655;0.000141987;0.000656956;-5.45388e-05;0;0.0288938;-0.0115119;0.272759
10000;11;25.7579;0.001532;5.94803e-05;-2.50058;25.6262;-0.717367;0.000818808;0.000681657;-0.0343327;-0.00226377;-0.021799;-0.0297229;0.0369292;-5.68572;0.000474706;-7.87114e-06;-0.000736038;0.000474757;-0.000736089;0.000605423;0.644947;1.55051;0.000704488;0.00080723;0.644972;1.55046;114.482;159.482;-0.000737666;0.000474695;-0.000161871;0.000146315;-0.000736051;0.00167642;0.00397271;0;0.0127127;-0.00347442;-0.019635;-0.059555;0.0628044;-6.38382;0.000309256;0.000260695;0.000226144;0.000531686;3.7141e-06;0.000263986;-1.36751;-0.731254;0.000353226;0.000351981;;;72.807;117.807;0.00119167;0.000309243;0.000826742;-0.0003054;0.000225837;0.00109797;0.000408772;0;0.0282708;-0.011562;0.279797
11000;12;25.7575;0.001098;4.263e-05;-2.5007;25.6257;-0.719943;0.000703735;0.000161938;-0.0369092;-0.00258607;-0.0236887;-0.0343354;0.0417943;-5.69033;0.000524488;7.24655e-06;-0.000748125;0.000524529;-0.000748166;0.000636348;0.701071;1.42639;0.000738563;0.000848464;0.701087;1.42636;104.565;149.565;-0.000603133;0.000524486;-5.33636e-05;6.79339e-05;-0.000748126;0.00209526;0.00309353;0;0.0167087;-0.00381231;-0.0218466;-0.0656928;0.069335;-6.38996;0.0001294;0.000349836;0.000110979;0.000470147;-0.000229768;0.000349957;-1.16599;-0.857641;0.000411963;0.00046661;2.04618;0.488716;84.0306;129.031;0.000935958;0.000129415;0.00100396;-0.000304302;0.000110536;0.00192519;0.00127683;0;0.0300129;-0.0115174;0.286834
12000;13;25.7568;0.000391184;1.51878e-05;-2.50122;25.6248;-0.724576;0.000174403;-0.000730747;-0.0415418;-0.0032013;-0.0256303;-0.0325764;0.0415738;-5.68857;0.000517446;4.27187e-05;-0.000476002;0.000519279;-0.000477836;0.000498557;1.08707;0.919907;0.00057585;0.000664743;1.08673;0.92019;158.406;23.4056;-0.000681514;0.000517444;1.96312e-05;6.5829e-05;-0.000476001;0.00240959;0.00301372;0;0.0122231;-0.00474922;-0.0231492;-0.0679104;0.0719045;-6.39218;0.000291542;0.000296294;0.000248813;0.000567241;-2.68863e-05;0.000297064;-1.17173;-0.853438;0.000387434;0.000396085;21.0978;0.0473984;77.1366;122.137;0.000992456;0.000291511;0.000979356;-0.000386796;0.000248377;0.00088245;0.00244034;0;0.027697;-0.0113647;0.29005
13000;14;25.7556;-0.000796917;-3.09405e-05;-2.50152;25.6236;-0.725446;-0.000122955;-0.0019786;-0.0424116;-0.00216653;-0.0289592;-0.0278901;0.040264;-5.68389;0.00055458;-0.000152209;-0.000732836;0.000572331;-0.000750587;0.000661459;0.756759;1.32143;0.000766094;0.000881945;0.762511;1.31146;84.5667;129.567;-0.00127527;0.000554581;-0.000155999;-0.000148413;-0.000732837;0.00214127;0.00269352;0;0.0144053;-0.00419451;-0.0254877;-0.0660052;0.0708795;-6.39027;0.000253149;0.000338049;0.00013571;0.000537541;-0.000148682;0.000343111;-1.86536;-0.53609;0.000416855;0.000457482;3.61538;0.276596;75.9114;120.911;0.000515189;0.000253175;0.000925754;-0.000249724;0.000135339;0.00171194;0.00242609;0;0.027713;-0.0112545;0.295264
14000;15;25.7574;0.00096254;3.73709e-05;-2.50232;25.6253;-0.723377;-0.000918014;-0.000229239;-0.0403433;-0.00316508;-0.0291416;-0.031267;0.0428588;-5.68727;0.000409546;-5.7745e-05;-0.000603255;0.000412828;-0.000606536;0.000509682;0.678895;1.47298;0.000592062;0.000679576;0.680632;1.46922;88.6954;133.695;-0.00132006;0.000409547;-6.43373e-05;-5.11461e-05;-0.000603255;0.0026442;0.00257839;0;0.0131515;-0.00564129;-0.0258351;-0.070707;0.0754901;-6.39497;0.000222434;0.000267309;0.000220336;0.000488696;-4.59261e-05;0.000267311;-1.00952;-0.990569;0.000342135;0.000356415;10.6409;0.0939768;77.4223;122.422;-1.92931e-05;0.000222448;0.000743924;-0.000209307;0.000220095;0.00243146;0.00137182;0;0.0270011;-0.0112628;0.301852
15000;16;25.7598;0.00333547;0.000129501;-2.50333;25.6277;-0.721699;-0.00192768;0.00210463;-0.0386651;-0.00423878;-0.0283055;-0.0411312;0.0501093;-5.69713;0.000486071;-0.000118843;-0.000220672;0.00050552;-0.000240121;0.000372821;2.20268;0.453992;0.000439492;0.000497094;2.10527;0.474999;13.0714;58.0714;-0.00121845;0.000486047;1.25962e-05;-0.000250375;-0.000220665;0.00287311;0.00321915;0;0.0181336;-0.00719962;-0.026179;-0.0812298;0.0856473;-6.4055;0.00032227;0.000221042;0.000368916;0.000567863;0.000123324;0.000222269;-0.873561;-1.14474;0.000344897;0.000296359;-4.60465;-0.217172;81.9463;126.946;-0.000712317;0.000322097;0.00107204;-0.00062992;0.000368366;0.00312219;0.00211109;0;0.0272689;-0.0111059;0.309605
16000;17;25.759;0.00261481;0.000101521;-2.5039;25.6268;-0.723246;-0.00249732;0.001281;-0.0402119;-0.00390807;-0.0301876;-0.0377261;0.048475;-5.69372;0.000517582;-0.000146563;-0.000918488;0.000532387;-0.000933293;0.00073284;0.563515;1.77458;0.000856698;0.00097712;0.570439;1.75303;68.6265;113.627;-0.000782123;0.000517556;-2.52304e-05;-0.000268069;-0.000918477;0.0024165;0.00584585;0;0.0154854;-0.00747794;-0.027397;-0.0797501;0.0846558;-6.40402;0.000324631;0.000193966;0.000210118;0.000469615;6.51339e-05;0.000202241;-1.545;-0.647251;0.000293782;0.000269654;-7.20999;-0.138696;73.5451;118.545;-0.000603267;0.000324396;0.00110029;-0.000712461;0.000209531;0.00236541;0.00264322;0;0.0289926;-0.0112313;0.31697
17000;18;25.7609;0.00450397;0.000174868;-2.50461;25.6287;-0.723413;-0.00321572;0.00310499;-0.0403787;-0.00444855;-0.0293986;-0.0429109;0.0522055;-5.69891;0.000310812;-0.000260222;-0.000819522;0.000367843;-0.000876552;0.000622197;0.379261;2.63671;0.000738191;0.000829596;0.419647;2.38295;55.6583;100.658;-0.00190343;0.000310719;-1.51641e-05;-0.000505557;-0.000819488;0.00383119;0.00424614;0;0.0151056;-0.00885255;-0.0274565;-0.0859736;0.0906845;-6.41024;0.000231233;0.000144896;0.000288615;0.000407634;0.000112214;0.00014771;-0.801182;-1.24816;0.000243141;0.000196946;-3.63264;-0.275282;87.9935;132.993;-0.00116731;0.000230913;0.00110266;-0.000812816;0.000288017;0.00325076;0.00282745;0;0.0277517;-0.0110668;0.32382
18000;19;25.7629;0.00647507;0.000251397;-2.50467;25.6308;-0.719228;-0.00327547;0.00519821;-0.0361935;-0.00468054;-0.03117;-0.0464466;0.0561316;-5.70244;0.000427027;-3.48807e-05;-0.000610743;0.000428198;-0.000611914;0.000520056;0.699192;1.43022;0.000603623;0.000693408;0.699767;1.42905;55.3348;100.335;-0.00153815;0.000426999;0.000166373;-0.000236344;-0.000610756;0.00338465;0.00365513;0;0.0152983;-0.00960966;-0.0296985;-0.0902244;0.0954714;-6.41449;0.000403384;0.000237395;0.00034422;0.000613033;0.000134572;0.000239231;-1.17188;-0.853332;0.000372035;0.000318974;-4.55544;-0.219518;74.135;119.135;-0.00130665;0.000403245;0.00105384;-0.000579101;0.000343694;0.0045056;0.00152518;0;0.0321722;-0.0109389;0.331218
19000;20;25.7632;0.00680543;0.000264223;-2.50439;25.6311;-0.721016;-0.00299196;0.00550772;-0.037982;-0.00505594;-0.0328924;-0.0472126;0.0577625;-5.70321;0.000365885;-9.85222e-05;-0.000469944;0.000377341;-0.000481401;0.000429371;0.778571;1.28441;0.000497007;0.000572494;0.78384;1.27577;44.0776;89.0776;-0.000975753;0.000365826;0.000158758;-0.000356018;-0.000469952;0.00246667;0.00457645;0;0.0159716;-0.0102822;-0.031456;-0.092667;0.0983991;-6.41693;0.000462944;4.76298e-05;0.000205926;0.000471486;0.000197383;0.000137052;-2.24811;-0.444818;0.000273411;0.000182735;-2.38869;-0.41864;44.5632;89.5632;-0.0014245;0.000462612;0.000910545;-0.000815507;0.000205513;0.00322613;0.00330359;0;0.0340601;-0.0108045;0.338487
20000;21;25.7618;0.0053848;0.000209066;-2.50496;25.6294;-0.726155;-0.00355985;0.00387919;-0.0431207;-0.00512213;-0.0346234;-0.0472981;0.0588398;-5.7033;0.000349872;-9.35247e-05;-0.000437594;0.000360827;-0.000448549;0.000404688;0.799535;1.25073;0.000468207;0.000539584;0.804431;1.24311;42.3397;87.3397;-0.00114459;0.000349794;0.000216458;-0.000403751;-0.000437613;0.0022337;0.00467346;0;0.014646;-0.0107492;-0.0333089;-0.0950166;0.101258;-6.41928;0.000358371;0.000123627;0.000300485;0.000456398;0.000202458;0.00012697;-1.19264;-0.838476;0.00026406;0.000169293;-2.25428;-0.4436;75.4747;120.475;-0.00193429;0.00035784;0.00128479;-0.0010376;0.000299668;0.00411709;0.00233405;0;0.0338853;-0.0104243;0.346089
21000;22;25.7623;0.00585691;0.000227396;-2.50439;25.6299;-0.728224;-0.0029944;0.0043503;-0.0451897;-0.00547145;-0.0353318;-0.0509504;0.0622432;-5.70695;0.000431211;-0.000107911;-0.000441537;0.000444356;-0.000454682;0.000449519;0.976612;1.02395;0.000519071;0.000599358;0.977288;1.02324;38.5681;83.5681;-0.000795235;0.000431139;0.000177918;-0.00039399;-0.000441547;0.00161383;0.00428743;0;0.0133201;-0.0111732;-0.0348726;-0.0985157;0.105101;-6.42278;0.000441972;5.22141e-05;0.000270511;0.000456621;0.000255862;0.00010038;-1.63384;-0.612054;0.000264269;0.000133839;-1.78464;-0.560338;53.1102;98.1102;-0.00218215;0.000441168;0.00137398;-0.00126978;0.000269569;0.00386124;0.00172485;0;0.0326775;-0.0103991;0.353429
22000;23;25.7634;0.00694459;0.000269626;-2.50424;25.6311;-0.726835;-0.0028401;0.00549809;-0.0438013;-0.00548046;-0.0351933;-0.0515082;0.0626235;-5.70751;0.000303015;-0.000145162;-0.000497306;0.000328531;-0.000522822;0.000425676;0.609313;1.64119;0.000495777;0.000567569;0.62838;1.59139;43.3777;88.3777;-0.000885328;0.000302916;0.000178427;-0.00046901;-0.000497311;0.00124602;0.00383357;0;0.0116763;-0.0109617;-0.0346886;-0.0994696;0.105913;-6.42374;0.000466628;7.79363e-05;0.00021348;0.000488698;0.00019141;0.000148644;-2.18582;-0.457495;0.000284348;0.000198192;-2.55315;-0.391673;52.893;97.893;-0.00164007;0.000465999;0.00127957;-0.001124;0.000212664;0.00427241;0.000779286;0;0.0329481;-0.0104558;0.359343
23000;24;25.7641;0.00768078;0.000298208;-2.5048;25.6318;-0.726158;-0.00339773;0.00620277;-0.0431243;-0.00640343;-0.0355863;-0.0507459;0.06231;-5.70674;0.000391067;3.16103e-06;-0.000384211;0.00039108;-0.000384224;0.000387652;1.01784;0.982469;0.000447628;0.00051687;1.01784;0.98247;44.8741;89.8741;-0.000920827;0.00039103;0.000279229;-0.000273121;-0.00038425;0.0022768;0.00399998;0;0.0136426;-0.0119282;-0.0350177;-0.0982846;0.105016;-6.42255;0.000349167;5.79219e-06;0.000140564;0.000349328;0.000140403;0.000104462;-2.48405;-0.402569;0.000202974;0.000139283;-2.48804;-0.401923;40.6198;85.6198;-0.00208585;0.000348499;0.00116722;-0.00115587;0.000139883;0.00397778;-0.000954447;0;0.0332672;-0.0102354;0.365222
24000;25;25.7631;0.00667432;0.000259132;-2.50517;25.6308;-0.724383;-0.00377223;0.00520475;-0.0413489;-0.00618884;-0.0370346;-0.0479594;0.0609096;-5.70396;9.66842e-05;-0.000158565;-9.05795e-05;0.000187198;-0.000181094;0.000184146;1.0674;0.936859;0.000212643;0.000245528;1.03371;0.967389;15.0579;60.0579;-0.00127891;9.65393e-05;0.000244059;-0.000561264;-9.05967e-05;0.00194866;0.00433173;0;0.0122351;-0.0117704;-0.0359796;-0.095822;0.103029;-6.42009;0.000298011;6.29947e-05;0.000154967;0.000321798;0.000131181;9.53088e-05;-1.92306;-0.520004;0.000186844;0.000127078;-2.45309;-0.407649;60.9805;105.98;-0.00245261;0.000297156;0.00143526;-0.00130946;0.000153939;0.00457681;0.00121974;0;0.0306223;-0.0103973;0.369234
25000;26;25.7623;0.00587842;0.000228231;-2.5041;25.63;-0.728595;-0.00270222;0.00438991;-0.0455613;-0.00631209;-0.0379673;-0.0449178;0.0591521;-5.70092;0.000217436;-0.000172969;-0.000337162;0.000266959;-0.000386685;0.000326822;0.6449;1.55063;0.000379486;0.000435763;0.690379;1.44848;34.5471;79.5471;-0.00152744;0.000217336;0.000133268;-0.000479376;-0.000337155;0.00292694;0.00491918;0;0.0127134;-0.0117774;-0.0368256;-0.0935108;0.101188;-6.41778;0.000453654;5.268e-05;2.99248e-05;0.000460105;2.34735e-05;0.000218316;-15.1598;-0.0659638;0.000299219;0.000291088;-19.601;-0.0510178;46.8139;91.8139;-0.00173568;0.000452838;0.00138338;-0.00127858;2.89693e-05;0.00279666;-0.000300969;0;0.0309756;-0.0104101;0.376063
26000;27;25.7644;0.00803058;0.00031179;-2.50422;25.6322;-0.725597;-0.00282426;0.00662631;-0.0425629;-0.00579613;-0.0362842;-0.0555768;0.0666252;-5.71158;3.80448e-05;-0.00027809;-9.59733e-05;0.000257086;-0.000315014;0.00028605;0.396411;2.52264;0.000330866;0.0003814;0.816108;1.22533;8.56304;53.563;-0.00114537;3.781e-05;0.00018334;-0.000739582;-9.59514e-05;0.00217709;0.00449644;0;0.0121095;-0.0120108;-0.0366213;-0.103916;0.110832;-6.42818;0.000453577;-4.58118e-05;0.000141416;0.000460162;0.000134832;0.000162665;-3.20739;-0.31178;0.000273158;0.000216886;-3.41285;-0.29301;29.9294;74.9294;-0.00240556;0.000452782;0.00117007;-0.00126208;0.000140733;0.00332449;0.000745386;0;0.0300736;-0.00981953;0.382558
27000;28;25.7633;0.0069098;0.000268275;-2.50371;25.631;-0.728583;-0.00230879;0.0054654;-0.0455487;-0.00660567;-0.0390256;-0.0529733;0.0661272;-5.70897;0.000245009;1.19916e-05;-0.000346114;0.000245252;-0.000346358;0.000295805;0.707885;1.41266;0.000343225;0.000394407;0.70809;1.41225;50.2636;95.2636;-0.00056128;0.000244952;0.000362091;-0.000338315;-0.00034618;0.000662343;0.00432134;0;0.0165257;-0.0128314;-0.0387146;-0.104639;0.112306;-6.4289;0.000331825;2.90186e-05;-8.23484e-05;0.000333848;-8.43717e-05;0.00020911;4.02952;0.248168;0.000255378;0.000278813;3.95687;0.252725;45.6961;90.6961;-0.00232697;0.000331267;0.00111465;-0.00105707;-8.29693e-05;0.00276012;0.000867023;0;0.0382814;-0.00945562;0.389383
28000;29;25.7648;0.0084188;0.000326862;-2.50401;25.6325;-0.72832;-0.0026062;0.0069606;-0.0452863;-0.0061469;-0.0376569;-0.0616101;0.0724682;-5.71761;2.59939e-05;-0.000146875;0.000218712;0.000298016;-5.33098e-05;0.000175663;-0.11885;-8.41399;0.000218625;0.000234217;5.59027;0.178882;155.954;20.9542;-0.00109308;2.58189e-05;0.000315923;-0.000609584;0.000218673;0.00179056;0.00486262;0;0.0136572;-0.0126773;-0.0381421;-0.112056;0.119047;-6.43632;0.000350592;4.46812e-05;-1.46261e-05;0.000355979;-2.0013e-05;0.000187996;23.9703;0.0417184;0.000244264;0.000250661;17.7874;0.0562197;48.3546;93.3546;-0.00234946;0.000349717;0.00141252;-0.00132366;-1.56228e-05;0.00344605;-0.000393685;0;0.0339904;-0.00920065;0.396367
29000;30;25.762;0.00558328;0.000216772;-2.504;25.6296;-0.731043;-0.00260312;0.00403321;-0.0480095;-0.0065649;-0.0436797;-0.0491636;0.0660914;-5.70516;9.02628e-05;-0.000374539;0.000128804;0.000484568;-0.000265501;0.000375035;-0.700777;-1.42699;0.000439166;0.000500046;1.82511;0.547914;171.016;36.0165;-0.000955893;9.00264e-05;3.39895e-05;-0.000783052;0.000128873;0.00188494;0.00390458;0;0.0116706;-0.0131342;-0.0424904;-0.104447;0.113522;-6.42871;0.000171647;8.95475e-05;5.16668e-06;0.000210667;-3.38539e-05;0.000122261;;;0.000152983;0.000163014;6.22283;0.160699;66.7675;111.767;-0.00209374;0.000170739;0.00152898;-0.00135013;4.0018e-06;0.00370993;-0.0011911;0;0.029189;-0.00875503;0.404287
30000;31;25.7645;0.00806893;0.000313279;-2.50476;25.6321;-0.729175;-0.003361;0.00651088;-0.046141;-0.00518798;-0.0417819;-0.0632193;0.0759561;-5.71922;6.72463e-08;-0.000151826;0.000303957;0.000366811;-6.27862e-05;0.000214798;;;0.000267933;0.000286398;5.84222;0.171168;148.165;13.1652;-0.000894645;-1.02788e-07;0.000299079;-0.000602594;0.000303924;0.000407674;0.00339877;0;0.0127655;-0.0121688;-0.0417382;-0.11569;0.123589;-6.43996;0.000233173;0.000255145;-0.000105888;0.000369975;-0.000242691;0.000306333;2.20206;0.454121;0.000356258;0.000408444;1.52447;0.655966;71.6465;116.647;-0.00163547;0.000232772;0.00144119;-0.000931299;-0.000106895;0.00170717;-0.00168556;0;0.033522;-0.00812883;0.411137
31000;32;25.764;0.00758147;0.000294353;-2.50328;25.6316;-0.733557;-0.00188328;0.00604023;-0.0505226;-0.00685586;-0.0433417;-0.0605125;0.0747481;-5.71651;5.12497e-05;5.14323e-05;0.000343451;0.00035224;4.24611e-05;0.000154889;-0.14922;-6.70152;0.00022203;0.000206519;-8.29559;-0.120546;106.694;151.694;-0.000953861;5.12293e-05;0.000311385;-0.000208445;0.000343404;0.00149525;0.00420949;0;0.0199197;-0.0133764;-0.0433878;-0.117733;0.126185;-6.442;0.000270133;0.000193325;0.000138818;0.000408646;3.05694e-07;0.00020417;-1.94595;-0.513889;0.000272329;0.000272227;;;75.8565;120.856;-0.00111765;0.000269622;0.00141613;-0.00102964;0.000137834;0.00103193;-0.00120561;0;0.030799;-0.00817453;0.418802
32000;33;25.7642;0.00777577;0.000301896;-2.50312;25.6318;-0.735211;-0.00172189;0.0062039;-0.0521771;-0.00696561;-0.0445486;-0.0701445;0.0833867;-5.72614;2.13517e-07;-0.000220056;0.000250793;0.000378727;-0.00012772;0.000253224;;;0.000304133;0.000337631;2.96529;0.337235;154.191;19.191;-0.000823709;9.65413e-08;9.13573e-05;-0.000531391;0.000250813;0.00124984;0.00316893;0;0.0156005;-0.0131558;-0.0438807;-0.128983;0.136876;-6.45325;0.000246278;0.000125054;-7.46105e-05;0.000289257;-0.000117589;0.000203423;3.30086;0.302952;0.000241762;0.000271231;2.4599;0.406521;62.1305;107.13;-0.00100317;0.000245534;0.00147636;-0.00122669;-7.56926e-05;-0.000623367;0.00117752;0;0.0292329;-0.00782323;0.425629
33000;34;25.7618;0.00541943;0.000210411;-2.50224;25.6294;-0.739311;-0.000835886;0.00380397;-0.0562766;-0.00495807;-0.0460691;-0.0700694;0.084004;-5.72607;5.07636e-05;-0.000204042;0.000267945;0.000390493;-7.17841e-05;0.000231138;-0.189456;-5.27828;0.000287262;0.000308184;5.43982;0.18383;152.622;17.6224;-0.000472905;5.0649e-05;0.000112524;-0.000520539;0.000267959;0.000879405;0.00486268;0;0.0197284;-0.010996;-0.0451424;-0.131253;0.139234;-6.45552;0.000261564;0.000209762;0.000127221;0.000414647;-2.58621e-05;0.000220255;-2.05598;-0.486385;0.000285443;0.000293673;16.033;0.0623714;76.4672;121.467;-0.000897355;0.000261105;0.00140014;-0.000980775;0.000126263;-0.000786585;-0.000172125;0;0.0294289;-0.00784717;0.432309
34000;35;25.7612;0.004817;0.000187021;-2.50214;25.6286;-0.743563;-0.00074214;0.00308457;-0.0605288;-0.00582745;-0.0486464;-0.0632164;0.0799797;-5.71921;8.14172e-05;6.78651e-05;0.000466744;0.000478347;6.9814e-05;0.000204267;-0.174437;-5.73274;0.000298362;0.000272355;-6.85174;-0.145948;97.5882;142.588;-8.84493e-05;8.14121e-05;0.000256907;-0.000121104;0.000466713;0.000197376;0.00312435;0;0.0131977;-0.0111596;-0.0468665;-0.127316;0.136127;-6.45158;0.000234703;0.000214095;-6.0269e-05;0.000347195;-0.000172762;0.000259979;3.89425;0.256789;0.000305776;0.000346638;2.00968;0.497592;70.4622;115.462;-0.0006452;0.000234322;0.00132677;-0.000898906;-6.11263e-05;-5.54007e-05;-0.000772545;0;0.0285575;-0.00761614;0.437026
35000;36;25.761;0.00458799;0.00017813;-2.50167;25.6285;-0.743768;-0.000275654;0.00289395;-0.0607341;-0.00355479;-0.0482988;-0.0694743;0.0846882;-5.72547;5.54555e-05;0.000100526;0.000265175;0.000305577;1.50535e-05;0.000145262;-0.209128;-4.78176;0.00019889;0.000193682;-20.2993;-0.0492627;90.1347;135.135;-0.000503081;5.5459e-05;0.00025572;-5.46367e-05;0.000265147;0.000361808;0.0042496;0;0.0193374;-0.00915475;-0.0464032;-0.13299;0.14115;-6.45726;0.000202317;0.000195577;0.00012559;0.000363258;-3.53508e-05;0.000199304;-1.61093;-0.620761;0.000254774;0.000265739;10.2758;0.0973161;80.7504;125.75;-0.00019223;0.00020176;0.00146408;-0.00107303;0.000124538;-0.000711708;-0.000430035;0;0.030064;-0.00772343;0.442473
36000;37;25.7613;0.00489134;0.000189908;-2.50112;25.6287;-0.746221;0.000282845;0.00318208;-0.0631872;-0.00503887;-0.0490915;-0.0699262;0.0855864;-5.72592;0.000160773;-0.000155129;-0.000148373;0.000225193;-0.000212792;0.000218993;1.08358;0.922869;0.000252905;0.00029199;1.05828;0.944933;20.8912;65.8912;-0.000263302;0.000160749;-4.10871e-05;-0.000269206;-0.000148361;0.000886703;0.00371326;0;0.0145962;-0.00978746;-0.0473401;-0.135268;0.143646;-6.45953;0.000293448;0.000218754;0.000154926;0.000453644;-5.26931e-06;0.000229456;-1.89411;-0.527952;0.000304201;0.000305942;;;75.4314;120.431;-0.000239142;0.000293085;0.00131708;-0.000879721;0.000154083;-0.00110087;-0.000393254;0;0.0290325;-0.00759622;0.448279
37000;38;25.7602;0.00375256;0.000145694;-2.50206;25.6274;-0.749292;-0.000656709;0.0018561;-0.0662577;-0.00444146;-0.0532712;-0.068001;0.0864967;-5.724;0.000164441;0.000106644;-0.000295991;0.000187942;-0.000319492;0.000253717;0.555561;1.79998;0.000296231;0.00033829;0.588253;1.69995;77.6386;122.639;0.000454123;0.000164446;0.000183843;2.94096e-05;-0.000296002;-0.0011172;0.00505859;0;0.0131413;-0.00969877;-0.0504701;-0.134681;0.144154;-6.45895;0.000200149;0.000226592;0.000119247;0.000389872;-7.0476e-05;0.000230174;-1.67844;-0.595791;0.000286313;0.000306899;5.53198;0.180767;81.0611;126.061;6.55564e-05;0.000199722;0.00140435;-0.000951264;0.000118287;-0.00151509;0.000349512;0;0.0299857;-0.00744634;0.455493
38000;39;25.7587;0.00230224;8.93851e-05;-2.50173;25.6259;-0.750895;-0.000334796;0.000382763;-0.067861;-0.00556622;-0.0543966;-0.0663683;0.0859926;-5.72237;0.000144168;-0.00018454;-0.000184784;0.000226891;-0.000267507;0.000247199;0.780198;1.28173;0.000285762;0.000329599;0.848169;1.17901;25.1182;70.1182;-0.000455103;0.000144134;-4.91702e-05;-0.000319954;-0.000184768;0.00137536;0.00452404;0;0.0194834;-0.0108777;-0.0509563;-0.135797;0.14545;-6.46006;0.000207747;0.00021152;0.000103896;0.000373622;-6.19791e-05;0.000217801;-1.99957;-0.500107;0.000272104;0.000290401;6.0282;0.165887;79.281;124.281;-0.000168824;0.000207314;0.00137752;-0.000954603;0.00010297;-0.000552979;0.00111118;0;0.0300093;-0.00738401;0.463459
39000;40;25.759;0.00258236;0.000100261;-2.50241;25.6261;-0.754506;-0.00101089;0.000492263;-0.0714718;-0.00530139;-0.055925;-0.0657434;0.0864749;-5.72174;0.000131771;-9.11727e-05;8.9916e-05;0.000204387;1.72997e-05;9.35436e-05;-1.46549;-0.682367;0.000130873;0.000124725;-11.8145;-0.084642;169.8;34.8004;-0.000114732;0.000131741;7.74362e-05;-0.000259789;8.99171e-05;0.000395219;0.00558874;0;0.0138169;-0.010977;-0.052295;-0.137623;0.147632;-6.46189;0.000293669;0.000153438;0.000142825;0.00038922;4.72745e-05;0.000170973;-2.05614;-0.486348;0.000245245;0.000227964;-8.23319;-0.12146;71.6566;116.657;-0.000130142;0.000293154;0.00133371;-0.00102702;0.000141948;-0.00120622;0.00190458;0;0.0303073;-0.00737286;0.470333
40000;41;25.7604;0.00396956;0.000154119;-2.50142;25.6276;-0.75093;-2.19776e-05;0.00208825;-0.0678955;-0.00401573;-0.0535879;-0.0711405;0.0891558;-5.72714;0.000121054;2.88422e-06;-0.000213522;0.000121079;-0.000213547;0.000167313;0.566939;1.76386;0.00019564;0.000223084;0.566989;1.7637;57.9389;102.939;-0.000177179;0.000121049;0.0001025;-9.67648e-05;-0.000213527;0.000554481;0.00525922;0;0.0123757;-0.00861953;-0.0507485;-0.140827;0.149939;-6.46509;0.000391888;0.000239064;3.12994e-05;0.000511023;-8.78352e-05;0.000299429;-12.5206;-0.0798683;0.00037342;0.000399239;5.81797;0.171881;66.5217;111.522;0.00011666;0.000391443;0.00145142;-0.000973731;3.02747e-05;-0.00112212;0.00153324;0;0.0303551;-0.00741234;0.478115
41000;42;25.7614;0.00500256;0.000194226;-2.49941;25.629;-0.748141;0.00198851;0.00340429;-0.0651073;-0.00216266;-0.0495554;-0.0710158;0.0866237;-5.72701;0.000126874;-0.00010699;0.000100645;0.00022155;5.96925e-06;0.00010779;-1.26061;-0.793265;0.000145751;0.00014372;;;144.728;9.72825;3.11735e-05;0.000126871;-8.18334e-05;-0.000132146;0.000100647;0.000658009;0.00513393;0;0.0120701;-0.00442304;-0.0475139;-0.139118;0.147075;-6.46338;0.000427147;0.000242649;6.05954e-05;0.000547958;-6.02151e-05;0.000304086;-7.04918;-0.141861;0.000386942;0.000405449;9.10001;0.10989;65.5196;110.52;3.78853e-05;0.000426755;0.00140352;-0.000918644;5.96399e-05;0.000209839;-0.000629141;0;0.0290476;-0.00750922;0.485202
42000;43;25.7615;0.00506272;0.000196562;-2.49723;25.6293;-0.746818;0.00417209;0.00371622;-0.063784;-6.20078e-05;-0.0463601;-0.0688983;0.0830435;-5.7249;4.63623e-05;-4.22112e-05;0.000160196;0.00017414;3.2418e-05;7.08611e-05;-0.289411;-3.4553;0.000106938;9.44814e-05;-5.37172;-0.18616;82.7674;127.767;7.87437e-05;4.63596e-05;-0.000169904;8.54668e-05;0.000160182;0.00132457;0.00352211;0;0.0127381;0.000152137;-0.0454022;-0.133782;0.141277;-6.45805;0.000362588;0.000282642;5.33e-05;0.000530126;-0.000114238;0.000322182;-6.80278;-0.146999;0.000397013;0.000429576;4.64055;0.215492;69.1764;114.176;0.000749926;0.000362434;0.00118787;-0.000622871;5.26345e-05;-6.91247e-05;-0.00127862;0;0.0287675;-0.00737323;0.492709
43000;44;25.761;0.00453616;0.000176118;-2.4956;25.6289;-0.747639;0.00579632;0.0033212;-0.0646054;0.000773467;-0.0448495;-0.0679306;0.0814042;-5.72393;5.39637e-05;-0.000393194;0.00073342;0.000913323;-0.000125939;0.000519631;-0.0735781;-13.591;0.000654911;0.000692842;7.2521;0.137891;105.697;150.697;0.000405412;5.40053e-05;-0.000519524;-0.000266949;0.000733363;0.000787927;0.00330549;0;0.0129907;0.00258193;-0.0447323;-0.131449;0.138876;-6.45571;0.000338589;0.000341691;-4.36262e-06;0.000549417;-0.000215191;0.000382304;;;0.000455288;0.000509739;2.55316;0.391671;70.5154;115.515;0.000815833;0.000338557;0.00110822;-0.000425107;-4.91832e-06;4.12626e-05;-0.000842057;0;0.0275895;-0.00743062;0.500145
44000;45;25.761;0.00458961;0.000178193;-2.49476;25.629;-0.747852;0.00664099;0.00345094;-0.0648182;0.00158046;-0.044028;-0.0687768;0.0816774;-5.72478;-2.7558e-05;-0.000158872;0.000641317;0.000677135;-6.33756e-05;0.000370255;0.042971;23.2715;0.000473963;0.000493674;10.6845;0.0935937;88.5853;133.585;0.000709685;-2.75454e-05;-0.000323802;5.94716e-06;0.000641277;-0.000246513;0.00360373;0;0.0140094;0.00442613;-0.0439418;-0.131066;0.138307;-6.45533;0.000367443;0.000297174;-4.28189e-05;0.000523409;-0.000198785;0.000361097;8.58133;0.116532;0.000430771;0.000481463;2.63304;0.379789;65.8026;110.803;0.000981169;0.00036742;0.000959924;-0.000365847;-4.32355e-05;0.000390362;-0.00161372;0;0.0267932;-0.00744689;0.507005
45000;46;25.7605;0.00413016;0.000160355;-2.49433;25.6286;-0.747061;0.00707116;0.00305408;-0.0640269;0.00224657;-0.0431888;-0.0707055;0.082883;-5.7267;-0.000175799;-8.24154e-05;0.000691623;0.000699384;-0.00018356;0.000441472;0.254183;3.93417;0.000537984;0.000588629;3.81011;0.262459;76.4988;121.499;0.00079721;-0.000175802;-0.000282349;0.000117345;0.000691586;-0.000495931;0.00333083;0;0.0164571;0.00513466;-0.0437317;-0.131246;0.138435;-6.45551;0.00044614;0.000343397;-3.45044e-05;0.000624955;-0.00021332;0.000419137;12.9299;0.07734;0.000503053;0.00055885;2.92966;0.341336;62.631;107.631;0.000807282;0.000446172;0.000917016;-0.000230497;-3.4866e-05;0.000298105;-0.00151822;0;0.0303158;-0.00745658;0.512255
46000;47;25.7605;0.0040506;0.000157266;-2.4939;25.6286;-0.746371;0.00749879;0.00303582;-0.0633373;0.00144083;-0.0433202;-0.0637492;0.0770887;-5.71975;-2.50653e-05;-0.000118608;0.000462178;0.000489517;-5.24038e-05;0.00027096;0.054233;18.439;0.000345141;0.00036128;9.34125;0.107052;88.017;133.017;0.000904204;-2.50583e-05;-0.000244475;7.19716e-06;0.000462156;-4.93189e-05;0.00300721;0;0.0390107;0.00489251;-0.0430957;-0.12629;0.13353;-6.45056;0.000454138;0.000317819;-0.000166077;0.000588075;-0.000300014;0.000444045;2.7345;0.365698;0.000521652;0.000592059;1.96015;0.510164;62.6777;107.678;0.000655812;0.000454076;0.00110817;-0.000473018;-0.000166641;0.00137287;-0.00136372;0;0.0446536;-0.00736592;0.518118
47000;48;25.7604;0.0040087;0.000155639;-2.49426;25.6285;-0.746272;0.00713619;0.00296131;-0.063238;0.00153217;-0.0445812;-0.0638659;0.0779018;-5.71986;-0.000117052;-0.000268314;0.000233877;0.000379006;-0.000262181;0.000320594;0.500487;1.99805;0.000372232;0.000427458;1.44559;0.69176;86.8544;131.854;0.000527631;-0.000117028;-0.000383533;-0.000153135;0.00023384;-0.000704874;0.00361518;0;0.0186112;0.00493927;-0.0442369;-0.126529;0.13413;-6.4508;0.000379467;0.000340475;-0.000111185;0.000553793;-0.000285511;0.000419652;3.41294;0.293002;0.000492755;0.000559536;1.93966;0.515555;65.5523;110.552;0.000913036;0.000379497;0.0009166;-0.000235933;-0.000111547;0.000876204;-0.000667832;0;0.0303954;-0.00735184;0.522758
48000;49;25.7611;0.00471854;0.000183199;-2.49401;25.6293;-0.744883;0.00738957;0.00373986;-0.0618493;0.00220385;-0.0436356;-0.0656966;0.0788985;-5.7217;-5.07115e-05;-3.91877e-05;0.000751668;0.000753578;-5.26209e-05;0.000403099;0.0674653;14.8224;0.000520812;0.000537466;14.3209;0.0698281;78.3949;123.395;0.00101539;-5.07225e-05;-0.000231933;0.000153403;0.000751642;-0.000399924;0.00392956;0;0.0142206;0.00522583;-0.0438736;-0.127847;0.135266;-6.45211;0.000326148;0.000402487;-9.78705e-05;0.00056905;-0.000340772;0.000454911;3.33245;0.30008;0.000530769;0.000606548;1.66988;0.598844;71.3828;116.383;0.000860808;0.000326189;0.0010891;-0.000284416;-9.83826e-05;0.000298553;-0.00255686;0;0.0278527;-0.00736683;0.529075
49000;50;25.761;0.00461036;0.000178999;-2.49435;25.6291;-0.746479;0.00704869;0.00355151;-0.0634455;0.00229681;-0.044873;-0.0620608;0.0766186;-5.71806;-8.09938e-05;3.00301e-05;0.000675831;0.000677021;-8.21835e-05;0.000379602;0.119843;8.34424;0.000481087;0.000506136;8.23792;0.12139;72.9467;117.947;0.000729288;-8.10131e-05;-0.000138838;0.00019877;0.000675822;0.000303231;0.0044724;0;0.0135603;0.00518758;-0.0445944;-0.125203;0.133009;-6.44947;0.000466307;0.000405841;1.71085e-05;0.000705552;-0.000222137;0.000463844;-27.2559;-0.0366892;0.000559316;0.000618459;3.17621;0.314841;65.9069;110.907;0.00117997;0.000466348;0.00109964;-0.000288274;1.65862e-05;6.32879e-05;0.000378953;0;0.0270258;-0.00739096;0.537158
50000;51;25.7598;0.00343243;0.000133265;-2.49469;25.6278;-0.74965;0.00671323;0.0022423;-0.0666163;0.0024969;-0.0440147;-0.0635709;0.0773615;-5.71957;-6.22257e-05;-0.000146526;0.000484661;0.000521445;-9.901e-05;0.000310228;0.12839;7.78875;0.000384902;0.000413637;5.26659;0.189876;83.9441;128.944;0.00096568;-6.22155e-05;-0.00032573;3.25802e-05;0.000484618;-0.000290758;0.00369892;0;0.0155818;0.00577077;-0.0438082;-0.126108;0.133625;-6.45037;0.000506741;0.000337288;-6.43377e-05;0.000663125;-0.000220721;0.000441923;7.87627;0.126964;0.00053117;0.000589231;3.00435;0.332851;60.9805;105.98;0.000750229;0.000506736;0.00102742;-0.000353235;-6.48086e-05;0.000205362;-0.00119007;0;0.0277219;-0.0073756;0.544095
51000;52;25.7596;0.00316576;0.000122912;-2.49411;25.6276;-0.748223;0.00728448;0.00207157;-0.0651891;0.00215575;-0.0453262;-0.0629036;0.0775627;-5.7189;-0.000120654;-9.75053e-05;0.000644148;0.000656383;-0.00013289;0.000394636;0.187308;5.33879;0.000487955;0.000526182;4.93931;0.202457;74.464;119.464;0.000957018;-0.000120664;-0.000362922;0.000167709;0.000644087;-0.000656577;0.00365775;0;0.0121624;0.00568203;-0.0449111;-0.124754;0.132713;-6.44902;0.000412504;0.000388806;-6.81159e-05;0.00062927;-0.000284882;0.000457076;6.05591;0.165128;0.000540126;0.000609435;2.20888;0.452719;67.7723;112.772;0.00123065;0.000412509;0.00115188;-0.000374631;-6.87037e-05;-8.72302e-05;-1.8285e-05;0;0.0268273;-0.00743007;0.551906
52000;53;25.7609;0.0044542;0.000172936;-2.49347;25.629;-0.74836;0.00793293;0.00342574;-0.0653262;0.00161994;-0.0448798;-0.0664363;0.0801911;-5.72243;-0.000180722;-0.000134853;0.000615035;0.000637267;-0.000202954;0.00042011;0.293841;3.4032;0.000506243;0.000560147;3.13996;0.318476;85.9879;130.988;0.000200694;-0.000180714;-0.000244365;-2.54267e-05;0.000615014;0.000422906;0.00451264;0;0.0138742;0.00513841;-0.0450909;-0.127789;0.135609;-6.45206;0.000442773;0.000309738;-0.000101812;0.00058289;-0.000241928;0.000412409;4.34895;0.229941;0.000489584;0.000549879;2.40935;0.415049;63.0053;108.005;0.00105137;0.00044272;0.00106925;-0.000450187;-0.000102335;0.000808826;-0.00190075;0;0.0272716;-0.00733064;0.558321
53000;54;25.761;0.00459162;0.000178271;-2.49508;25.629;-0.746031;0.00631609;0.00347443;-0.0629965;0.00319613;-0.0440506;-0.0640987;0.0778417;-5.7201;-9.00193e-05;-0.000119029;0.000720379;0.0007375;-0.00010714;0.00042232;0.124961;8.00249;0.000530995;0.000563093;6.8835;0.145275;80.2898;125.29;0.000845074;-9.00181e-05;-0.000346449;0.000108206;0.000720326;-0.000657211;0.0039555;0;0.0137614;0.0061361;-0.044007;-0.126365;0.13395;-6.45063;0.000519358;0.000396039;-5.71111e-05;0.000720946;-0.000258699;0.000489822;9.09381;0.109965;0.00058621;0.000653096;2.78681;0.358833;63.6632;108.663;0.000915628;0.000519364;0.00117096;-0.000379334;-5.77183e-05;0.0007029;-0.00161713;0;0.0266471;-0.00743208;0.56549
54000;55;25.7616;0.00522223;0.000202755;-2.49441;25.6298;-0.744333;0.00698888;0.00422313;-0.0612991;0.00202263;-0.0414624;-0.0709478;0.0821998;-5.72695;-7.42107e-05;-9.79743e-05;0.00079718;0.000808059;-8.50905e-05;0.000446575;0.0930916;10.7421;0.000569194;0.000595433;9.49647;0.105302;86.0653;131.065;0.00046812;-7.42066e-05;-0.000233546;3.7479e-05;0.000797157;5.75758e-06;0.00380024;0;0.012782;0.00563705;-0.0422177;-0.131723;0.138438;-6.45599;0.000361297;0.000279137;-0.000100641;0.000492632;-0.000231977;0.000362304;3.58994;0.278556;0.00042728;0.000483072;2.12363;0.470892;63.5212;108.521;0.000722278;0.000361299;0.000828823;-0.000270802;-0.000100946;0.000114308;-0.00175994;0;0.0266532;-0.00733357;0.57258
55000;56;25.7604;0.00396501;0.000153943;-2.49322;25.6285;-0.747941;0.00818029;0.00297034;-0.0649066;0.00223631;-0.0431825;-0.0674618;0.0801301;-5.72346;6.59018e-05;-0.000101267;0.00025126;0.000295856;2.13061e-05;0.000137275;-0.262286;-3.81264;0.000190533;0.000183033;-13.886;-0.0720151;88.0321;133.032;0.00051243;6.59022e-05;-0.0003005;9.79291e-05;0.00025122;0.000184663;0.00310331;0;0.015683;0.00593516;-0.0436128;-0.129624;0.136893;-6.45389;0.000396408;0.000369521;-4.24289e-05;0.000606746;-0.000252767;0.000429756;9.34288;0.107033;0.000510075;0.000573009;2.40042;0.416594;66.3748;111.375;0.00086272;0.000396451;0.000965737;-0.000226955;-4.2827e-05;0.000217721;-0.00121319;0;0.0261767;-0.00749971;0.573816
56000;57;25.7594;0.00296594;0.000115154;-2.49416;25.6274;-0.75034;0.00723677;0.0018042;-0.0673058;0.00200594;-0.0444239;-0.0636599;0.0776537;-5.71966;-0.000108222;-0.000132735;0.000278879;0.00032002;-0.000149364;0.000234692;0.388062;2.57691;0.000276905;0.000312923;2.14255;0.466733;85.2538;130.254;0.00109866;-0.000108215;-0.000214973;-5.05291e-05;0.000278864;-0.00145029;0.00391628;0;0.0150835;0.00577328;-0.0438067;-0.126566;0.134057;-6.45083;0.000392906;0.000285795;7.40649e-05;0.000560737;-9.37667e-05;0.000327252;-5.30489;-0.188505;0.000408682;0.000436336;5.98013;0.16722;65.0305;110.031;0.000730489;0.000392892;0.000901461;-0.000330066;7.36994e-05;0.000872228;-0.000858444;0;0.0273971;-0.00731675;0.584906
57000;58;25.7606;0.00418042;0.000162306;-2.49444;25.6287;-0.746451;0.00695976;0.00311152;-0.0634171;0.00218851;-0.0427639;-0.0690866;0.0812803;-5.72509;-6.41773e-05;5.47273e-05;0.000511805;0.000516958;-6.93312e-05;0.000293145;0.125394;7.97485;0.000369921;0.00039086;7.45636;0.134114;59.1922;104.192;0.00122258;-6.42302e-05;-0.00022043;0.000329727;0.000511782;-0.000692162;0.00371453;0;0.012736;0.00546723;-0.0432568;-0.128663;0.13585;-6.45293;0.000421154;0.000319556;-5.29503e-06;0.000592092;-0.000176233;0.000384163;;;0.000464747;0.000512217;3.35971;0.297645;64.1264;109.126;0.0011582;0.000421154;0.00095883;-0.00031999;-5.70365e-06;7.0398e-06;-0.00172361;0;0.0277627;-0.00737707;0.588146
58000;59;25.76;0.00361402;0.000140315;-2.49442;25.6281;-0.746723;0.00697589;0.00253586;-0.0636889;0.0030777;-0.043406;-0.0656567;0.0787678;-5.72166;-8.94651e-05;-6.09904e-05;0.000685811;0.000690579;-9.42338e-05;0.000392407;0.130452;7.66568;0.000494798;0.000523209;7.32836;0.136456;77.966;122.966;0.000800138;-8.9472e-05;-0.000254841;0.00013271;0.00068578;-0.00208126;0.00384062;0;0.0137841;0.00653242;-0.043767;-0.126965;0.134456;-6.45123;0.000378583;0.00035587;-3.37924e-05;0.000583682;-0.000238892;0.000411287;11.2032;0.0892602;0.000488622;0.000548383;2.44329;0.409284;67.9339;112.934;0.00117374;0.00037859;0.00104595;-0.000334492;-3.42761e-05;0.000221402;-0.00140841;0;0.0272029;-0.0073098;0.596209
59000;60;25.7615;0.00505136;0.000196121;-2.49441;25.6296;-0.743163;0.00698844;0.00408531;-0.0601285;0.00254659;-0.0425962;-0.068166;0.0804209;-5.72416;-2.9458e-05;-8.49563e-06;0.000620372;0.000620483;-2.95691e-05;0.000325026;0.0474844;21.0596;0.000423856;0.000433368;20.9842;0.0476549;76.2445;121.245;0.000927924;-2.947e-05;-0.000172438;0.00015534;0.000620358;-0.000910965;0.00335587;0;0.0131013;0.00617265;-0.0434598;-0.127733;0.135065;-6.452;0.000382869;0.000268905;-3.61188e-05;0.000514252;-0.000167502;0.000340877;10.6003;0.0943372;0.000410231;0.000454503;3.07012;0.32572;63.9083;108.908;0.000750176;0.000382819;0.000951833;-0.000414311;-3.65356e-05;0.000515981;-0.000461531;0;0.0275969;-0.00726192;0.602894
60000;61;25.76;0.00361528;0.000140364;-2.49358;25.6281;-0.74944;0.00782017;0.00253998;-0.066406;0.00289062;-0.0426361;-0.066377;0.0789436;-5.72238;-9.53584e-05;2.16104e-05;0.00103214;0.00103255;-9.57724e-05;0.000564164;0.0923889;10.8238;0.000722413;0.000752218;10.7813;0.0927529;76.0272;121.027;0.000772357;-9.53888e-05;-0.000204564;0.00024753;0.00103212;-0.000995847;0.0039221;0;0.0123627;0.00627762;-0.0431601;-0.128022;0.135247;-6.45229;0.000400281;0.000354673;-0.000111568;0.000581724;-0.00029301;0.000437367;3.58779;0.278723;0.000514116;0.000583156;1.98534;0.503693;64.8855;109.885;0.00141169;0.000400323;0.000916822;-0.000207765;-0.000111925;-0.000236083;-0.00206685;0;0.0268242;-0.00729664;0.610732
61000;62;25.7612;0.00480922;0.000186719;-2.49337;25.6295;-0.743016;0.00802925;0.00394745;-0.059982;0.00216028;-0.0438403;-0.0640186;0.077621;-5.72002;1.95973e-05;-3.4312e-05;0.000860862;0.000862259;1.82001e-05;0.000422029;-0.0227647;-43.9276;0.00056887;0.000562706;-47.3765;-0.0211075;79.3257;124.326;0.00111091;1.95816e-05;-0.000249337;0.000180532;0.000860831;-0.00139779;0.0036479;0;0.0130053;0.00589915;-0.0442457;-0.12466;0.132411;-6.44893;0.000239515;0.000327702;-0.000109402;0.000436304;-0.000306191;0.000371248;2.1893;0.456766;0.000430868;0.000494997;1.42494;0.701784;73.0555;118.056;0.00127256;0.000239521;0.000963527;-0.000308344;-0.000109813;-0.000536643;-0.00113298;0;0.0272293;-0.00725314;0.617353
62000;63;25.7606;0.00421778;0.000163756;-2.49284;25.6289;-0.746271;0.00856096;0.00331011;-0.0632372;0.00182875;-0.0430393;-0.0673647;0.0799608;-5.72336;-3.61571e-05;-0.000132566;0.000517012;0.00054714;-6.62854e-05;0.000306713;0.0699349;14.299;0.000388743;0.00040895;8.2543;0.121149;86.3957;131.396;0.000847684;-3.61486e-05;-0.000287699;2.24809e-05;0.000516979;-0.000162271;0.00390789;0;0.0142438;0.00560545;-0.0434754;-0.128932;0.13618;-6.4532;0.000369089;0.000323211;-8.07265e-05;0.000537944;-0.000249581;0.000393763;4.5721;0.218718;0.000464727;0.000525017;2.15539;0.463954;65.605;110.605;0.000796734;0.000369108;0.00090395;-0.000257789;-8.10829e-05;0.000439812;-0.00027506;0;0.0277791;-0.00738767;0.624592
63000;64;25.7617;0.00525537;0.000204041;-2.49373;25.6299;-0.744777;0.00766871;0.0043097;-0.0617431;0.00192814;-0.0436381;-0.0654451;0.0786833;-5.72144;-0.000110531;-0.000101466;0.000595861;0.000610146;-0.000124817;0.000367482;0.185498;5.39089;0.000454124;0.000489975;4.88834;0.204568;78.971;123.971;0.000926728;-0.00011053;-0.000291775;8.87075e-05;0.000595823;-0.0009922;0.00420796;0;0.0126711;0.00572428;-0.0438828;-0.126849;0.134347;-6.45112;0.000449436;0.000393783;6.22966e-06;0.000679689;-0.000224022;0.000451855;;;0.000543416;0.000602474;3.03402;0.329596;65.8703;110.87;0.00101687;0.000449477;0.00106024;-0.000272969;5.74514e-06;0.000847194;-0.000620337;0;0.0271968;-0.00734453;0.631182
64000;65;25.7598;0.00340859;0.000132339;-2.49315;25.6279;-0.750086;0.00824864;0.00235502;-0.0670516;0.00202319;-0.0440209;-0.0632709;0.0771048;-5.71927;4.23678e-05;2.46878e-05;0.000580793;0.000581922;4.12382e-05;0.000270342;-0.0729482;-13.7084;0.000374959;0.000360456;-14.1113;-0.0708654;67.2513;112.251;0.000943424;4.23264e-05;-0.00023934;0.000288573;0.000580764;0.000366616;0.00493364;0;0.0136423;0.00617115;-0.0439497;-0.125717;0.133321;-6.44998;0.000358793;0.00032086;-0.000104206;0.000522949;-0.000268362;0.000395655;3.44311;0.290435;0.000464678;0.000527541;1.94867;0.513171;66.5232;111.523;0.00108079;0.000358791;0.000968094;-0.000326673;-0.000104623;-0.00063719;-0.00103868;0;0.027287;-0.00726246;0.63912
65000;66;25.7613;0.00485583;0.000188529;-2.49339;25.6296;-0.74278;0.00800454;0.00399872;-0.0597464;0.000539374;-0.0430581;-0.0673653;0.0799524;-5.72336;-0.000225839;-0.000125952;0.00101252;0.0010252;-0.00023852;0.00063186;0.223046;4.48337;0.000775302;0.000842481;4.29818;0.232656;85.1364;130.136;0.0008169;-0.000225832;-0.000278878;2.67852e-05;0.00101249;-0.000698952;0.00388227;0;0.0125447;0.00453685;-0.0438865;-0.128436;0.135803;-6.4527;0.000378147;0.000331172;-3.1652e-05;0.000562681;-0.000216186;0.000389434;11.947;0.083703;0.000464275;0.000519245;2.60276;0.384207;66.5609;111.561;0.0011956;0.000378154;0.000972545;-0.000310464;-3.20701e-05;-0.000789496;-0.000843548;0;0.0277484;-0.00725314;0.645518
66000;67;25.7616;0.00521069;0.000202307;-2.49316;25.6299;-0.74447;0.0082356;0.00432885;-0.0614364;0.000431894;-0.0421047;-0.0733282;0.0845578;-5.72933;0.000103498;-8.33551e-05;0.000336298;0.000363066;7.67298e-05;0.000143168;-0.307756;-3.24933;0.000220954;0.000190891;-4.73174;-0.211339;85.84;130.84;0.000815043;0.000103493;-0.000295259;0.000128499;0.000336258;-0.000561716;0.00413206;0;0.0180626;0.00455131;-0.0433436;-0.132521;0.139503;-6.45679;0.000437251;0.000296926;-4.36651e-05;0.000578873;-0.000185287;0.00038208;10.0137;0.0998627;0.000460282;0.00050944;3.1242;0.320082;62.0997;107.1;0.000759628;0.000437232;0.000949446;-0.000355909;-4.40718e-05;0.000648413;-0.000907675;0;0.0279539;-0.00723304;0.653216
67000;68;25.7624;0.00598182;0.000232246;-2.49315;25.6307;-0.7436;0.00824782;0.00513039;-0.0605662;0.000220722;-0.0418734;-0.0728782;0.0840515;-5.72888;-0.000134908;-9.33218e-05;0.000456929;0.000471295;-0.000149275;0.000310285;0.29525;3.38696;0.00037402;0.000413713;3.15724;0.316733;70.7963;115.796;0.000733105;-0.000134914;-0.000331379;0.000144595;0.000456878;-0.00021671;0.00388549;0;0.0158435;0.00424358;-0.0429049;-0.132742;0.139568;-6.45701;0.000386612;0.000278863;5.05495e-06;0.00053371;-0.000142044;0.000337877;;;0.000411411;0.000450503;3.75737;0.266144;66.2738;111.274;0.000642254;0.00038649;0.0011236;-0.000566195;4.4626e-06;0.000756969;-0.00150446;0;0.0285178;-0.00730414;0.65384
68000;69;25.7619;0.0054772;0.000212654;-2.49349;25.6301;-0.745963;0.00790494;0.00452116;-0.0629288;0.00157882;-0.0428053;-0.0692301;0.0814101;-5.72523;8.28022e-05;3.62197e-05;0.000798922;0.000800749;8.09749e-05;0.000359887;-0.103642;-9.64857;0.000508993;0.00047985;-9.88886;-0.101124;75.8175;120.818;0.00107091;8.27787e-05;-0.000147346;0.000219654;0.000798912;-0.000884062;0.0046137;0;0.0216212;0.00532622;-0.0434087;-0.131506;0.138587;-6.45577;0.000343503;0.000327088;1.55954e-06;0.000541609;-0.000196546;0.000369077;;;0.000441423;0.000492103;2.75563;0.362893;68.1306;113.131;0.00112468;0.00034352;0.000923796;-0.000269823;1.18634e-06;-0.0003673;-0.000579663;0;0.0303872;-0.00734106;0.668235
69000;70;25.7615;0.00509635;0.000197867;-2.49433;25.6297;-0.744467;0.00706812;0.00410043;-0.0614329;0.00171271;-0.0427089;-0.0701489;0.0821453;-5.72615;-7.89273e-05;-0.000165342;0.000610196;0.000647814;-0.000116545;0.000382179;0.129347;7.73111;0.000475509;0.000509572;5.5585;0.179904;78.555;123.555;0.000839096;-7.89228e-05;-0.00046608;0.000135189;0.000610101;-0.00132116;0.00292633;0;0.0162405;0.00526809;-0.0431386;-0.130907;0.137932;-6.45517;0.000476813;0.000327986;-1.35336e-05;0.000641133;-0.000177854;0.000409493;35.2319;0.0283834;0.000497421;0.000545991;3.60483;0.277406;61.9313;106.931;0.000805678;0.000476811;0.000987878;-0.000332229;-1.39677e-05;0.00087154;-0.00140734;0;0.0272005;-0.0072855;0.669601
70000;71;25.7613;0.00493182;0.000191479;-2.49412;25.6295;-0.744147;0.00727968;0.00396491;-0.0611134;0.00156155;-0.0430168;-0.068148;0.0806042;-5.72415;-0.000147962;-7.92412e-05;0.000549326;0.000558218;-0.000156853;0.000357535;0.269351;3.71263;0.000433983;0.000476714;3.55885;0.280989;76.4967;121.497;0.000360976;-0.000147962;-0.000246615;8.80157e-05;0.000549299;0.000392587;0.00484381;0;0.021416;0.00490063;-0.0436032;-0.129405;0.136641;-6.45367;0.000449428;0.000330513;-1.07462e-05;0.000622055;-0.000183373;0.000402714;41.8221;0.0239108;0.000487464;0.000536952;3.39229;0.294786;64.0023;109.002;0.00074727;0.00044941;0.00104203;-0.000381329;-1.12345e-05;0.000345383;-0.000688837;0;0.030333;-0.0073045;0.675681
71000;72;25.761;0.00455912;0.000177009;-2.49428;25.6292;-0.743541;0.00712162;0.00359252;-0.0605068;0.00215455;-0.0436327;-0.0669481;0.0799406;-5.72295;-8.22381e-05;2.82398e-05;0.00062754;0.000628662;-8.33599e-05;0.000356011;0.131048;7.63078;0.000449479;0.000474681;7.54154;0.132599;67.7522;112.752;0.000461903;-8.22706e-05;-0.000200269;0.000256587;0.000627521;0.000362355;0.00452967;0;0.0147254;0.00549016;-0.0437275;-0.129268;0.136574;-6.45353;0.000373508;0.000360701;-3.15733e-05;0.000584643;-0.000242709;0.000413676;11.8299;0.0845319;0.000491082;0.000551568;2.40882;0.41514;67.5896;112.59;0.000697905;0.00037354;0.000977613;-0.00025646;-3.19861e-05;0.000722335;-0.00050852;0;0.0280681;-0.00731182;0.683447
72000;73;25.7605;0.00405609;0.000157479;-2.49431;25.6285;-0.747681;0.00709334;0.00296369;-0.0646473;0.00184313;-0.0435323;-0.0683451;0.0810525;-5.72434;-0.000150304;-0.000186448;0.000459046;0.000511568;-0.000202826;0.000357197;0.327428;3.05411;0.000425101;0.000476263;2.5222;0.39648;82.9209;127.921;0.000863055;-0.000150287;-0.000344299;-2.86938e-05;0.000459004;9.93893e-05;0.00395582;0;0.0148857;0.00496573;-0.0439382;-0.12943;0.136775;-6.4537;0.000451833;0.000336061;-9.69884e-05;0.000611287;-0.000256442;0.000433865;4.65863;0.214655;0.000514758;0.000578486;2.38372;0.419512;63.3169;108.317;0.000966892;0.000451821;0.00104162;-0.000369888;-9.74745e-05;0.000546795;-0.0017126;0;0.028322;-0.00731638;0.690385
73000;74;25.7614;0.00501084;0.000194547;-2.49405;25.6297;-0.742822;0.00735272;0.00408989;-0.0597881;0.00157103;-0.0430634;-0.0697502;0.0819879;-5.72575;2.48447e-06;-0.000129204;0.000386383;0.000425817;-3.69495e-05;0.000231383;;;0.000296961;0.000308511;11.5243;0.0867732;83.4209;128.421;0.000718804;2.48961e-06;-0.000338568;8.00801e-05;0.000386334;0.000404998;0.0035825;0;0.0163363;0.00468968;-0.0430999;-0.131322;0.138294;-6.45559;0.000379468;0.000351161;-2.80098e-05;0.000581714;-0.000230255;0.000405985;13.5477;0.0738134;0.000483207;0.000541313;2.52639;0.395822;67.6846;112.685;0.000672212;0.000379476;0.00103109;-0.000329044;-2.84798e-05;0.000713104;-0.00116119;0;0.0289684;-0.00726923;0.69821
74000;75;25.7609;0.00452555;0.000175706;-2.49384;25.6291;-0.745813;0.00755657;0.00353507;-0.0627794;0.00141218;-0.0432553;-0.0679973;0.0806017;-5.724;-2.04733e-05;-0.000140495;0.000393992;0.000437127;-6.36086e-05;0.000250368;0.0519638;19.2442;0.000314771;0.000333824;6.87214;0.145515;84.7923;129.792;0.000194273;-2.04644e-05;-0.000324438;4.3373e-05;0.000393949;0.000817265;0.00366613;0;0.0137105;0.00458013;-0.0435614;-0.129478;0.136686;-6.45374;0.000413587;0.000319888;-7.32586e-05;0.000572138;-0.00023181;0.000401974;5.64558;0.17713;0.000477822;0.000535965;2.46814;0.405164;63.6218;108.622;0.000746655;0.000413595;0.000934673;-0.000295196;-7.36443e-05;-0.000240452;-0.00084597;0;0.0273692;-0.00720178;0.70539
75000;76;25.7603;0.00389582;0.000151256;-2.49464;25.6284;-0.746869;0.00675676;0.00279354;-0.0638346;0.00164123;-0.0438698;-0.0674747;0.080499;-5.72347;-0.000149836;-2.82255e-05;0.000594034;0.000595103;-0.000150905;0.000373004;0.252235;3.96456;0.000455448;0.000497339;3.94355;0.253579;70.6459;115.646;0.000455509;-0.000149852;-0.000235828;0.000179222;0.000594006;0.000501663;0.00320143;0;0.0147589;0.0044883;-0.0441364;-0.129211;0.136615;-6.45348;0.000379852;0.000309085;3.3891e-05;0.000561069;-0.000147326;0.000354197;-11.208;-0.0892217;0.000431619;0.000472263;3.80835;0.262581;67.2531;112.253;0.000810095;0.000379819;0.00101926;-0.000401332;3.34194e-05;0.000384972;-0.000444459;0;0.0288273;-0.00725917;0.712935
76000;77;25.7609;0.00445796;0.000173082;-2.49478;25.6289;-0.74679;0.00661799;0.00334736;-0.0637559;0.00157149;-0.0433389;-0.0675541;0.0802763;-5.72355;6.0517e-06;-7.4147e-05;0.000824157;0.000830822;-6.14117e-07;0.000415718;;;0.000554086;0.000554291;;;86.2042;131.204;0.000420154;6.05267e-06;-0.000208062;5.96581e-05;0.000824138;0.000251276;0.00444768;0;0.0158858;0.00450403;-0.0434427;-0.129853;0.137002;-6.45412;0.000458625;0.000311841;-1.50283e-05;0.000613374;-0.000169777;0.000391576;30.5175;0.0327681;0.000475717;0.000522101;3.61282;0.276792;61.7868;106.787;0.00100412;0.000458621;0.000948918;-0.000325538;-1.54299e-05;-0.000687131;-0.000995805;0;0.0287188;-0.00722847;0.720608
77000;78;25.7613;0.00492095;0.000191057;-2.49475;25.6294;-0.745985;0.00664975;0.00383926;-0.0629509;0.00122273;-0.0430564;-0.0691715;0.0814865;-5.72517;7.80284e-06;-7.47331e-05;0.000692788;0.000700846;-2.55878e-07;0.000350551;;;0.000467316;0.000467401;;;81.8065;126.806;0.000687975;7.79879e-06;-0.000266627;0.00011703;0.000692755;-8.12512e-05;0.00346124;0;0.0186939;0.00407375;-0.0434353;-0.131168;0.138233;-6.45543;0.000483709;0.000338963;-9.09337e-05;0.000640741;-0.000247965;0.000444353;5.31936;0.187992;0.000529535;0.00059247;2.584;0.386997;63.7175;108.718;0.000693208;0.000483607;0.00124308;-0.000565678;-9.16489e-05;0.00124914;-0.00211182;0;0.0297381;-0.00718917;0.728373
78000;79;25.7606;0.00414598;0.000160969;-2.49445;25.6286;-0.747919;0.00694977;0.00303315;-0.0648845;0.00121279;-0.0436679;-0.068113;0.0809181;-5.72411;-9.52052e-05;2.042e-05;0.000462058;0.000462805;-9.59524e-05;0.000279379;0.206046;4.85329;0.000344998;0.000372505;4.82328;0.207328;64.4946;109.495;0.000665962;-9.52283e-05;-0.000175152;0.000215883;0.000462043;-0.000966857;0.00365664;0;0.0132765;0.00401553;-0.043891;-0.13063;0.137865;-6.4549;0.000374823;0.000248974;-2.39485e-05;0.000494408;-0.000143534;0.000318971;15.6512;0.0638929;0.00038644;0.000425295;3.44454;0.290315;63.4066;108.407;0.000661952;0.000374761;0.000928309;-0.000430633;-2.43484e-05;-6.47708e-05;-0.00172503;0;0.0272236;-0.00718533;0.731916
79000;80;25.7608;0.00434158;0.000168563;-2.49429;25.6288;-0.747955;0.0071125;0.00324454;-0.0649206;0.00131495;-0.0452886;-0.0660836;0.0801238;-5.72208;-0.000107597;-0.000333698;0.000542847;0.00068359;-0.00024834;0.000465965;0.198208;5.0452;0.000557268;0.000621287;2.75264;0.363288;101.338;146.338;0.00080591;-0.00010757;-0.000426402;-0.000241054;0.000542812;5.75802e-05;0.00422914;0;0.0134259;0.00415318;-0.0445895;-0.129463;0.13699;-6.45373;0.000412901;0.000308379;-5.55541e-05;0.000565921;-0.000208574;0.000387247;7.43241;0.134546;0.000462748;0.000516329;2.71329;0.368556;63.9723;108.972;0.000919507;0.000412881;0.000983685;-0.000367244;-5.59904e-05;-0.000171579;-0.00104835;0;0.0283263;-0.00730487;0.737217
80000;81;25.7613;0.00491758;0.000190926;-2.49476;25.6294;-0.746704;0.00664286;0.00381427;-0.0636699;0.000940009;-0.044353;-0.0672586;0.0805716;-5.72326;9.63168e-06;2.09593e-05;0.000660893;0.000661567;8.95785e-06;0.000326305;;;0.000438089;0.000435073;;;71.2245;116.225;0.00081859;9.60164e-06;-0.000204223;0.000245995;0.000660872;0.000310311;0.00331153;0;0.0162093;0.00382824;-0.0440893;-0.131007;0.13828;-6.45527;0.000375191;0.000331955;-0.000118627;0.000541995;-0.000285431;0.000413713;3.16277;0.316179;0.000485309;0.000551617;1.89886;0.526631;65.9902;110.99;0.000810553;0.000375199;0.000970375;-0.00030678;-0.000119043;0.000730467;-0.00123553;0;0.0290915;-0.00728586;0.744022
81000;82;25.76;0.00358663;0.000139252;-2.49378;25.6281;-0.747114;0.0076176;0.00255937;-0.0640805;0.000827618;-0.0440858;-0.0709875;0.0835672;-5.72699;-0.000149036;-7.09766e-05;0.000406736;0.000415657;-0.000157957;0.000286807;0.366419;2.72911;0.000342135;0.000382409;2.63146;0.380018;73.574;118.574;0.000399611;-0.000149036;-0.000210092;6.80612e-05;0.000406717;0.000168011;0.00404371;0;0.0123531;0.00384027;-0.0438446;-0.132229;0.139362;-6.4565;0.000416875;0.000355397;-0.000118927;0.000594034;-0.000296086;0.00044506;3.5053;0.285282;0.000523419;0.000593413;2.00629;0.498432;64.4721;109.472;0.00105485;0.000416909;0.000951477;-0.000241002;-0.000119316;0.000304095;-0.00202729;0;0.0276242;-0.00711021;0.74946
82000;83;25.7616;0.00515225;0.000200038;-2.49399;25.6297;-0.747907;0.0074118;0.00408991;-0.0648728;0.000767312;-0.0409993;-0.0742236;0.0847979;-5.73022;-6.53603e-05;-0.000203078;0.000444152;0.00051519;-0.000136398;0.000325794;0.147157;6.79545;0.000396818;0.000434392;3.77712;0.264752;89.2539;134.254;0.00088183;-6.53406e-05;-0.000362376;-4.38612e-05;0.000444107;-0.000535787;0.00420488;0;0.0238575;0.00429376;-0.0415992;-0.136749;0.143001;-6.46102;0.000283179;0.000290947;-0.000128955;0.000433642;-0.000279419;0.00035653;2.19594;0.455385;0.000414883;0.000475374;1.55194;0.644353;69.3026;114.303;0.00089108;0.000283126;0.00101652;-0.000434928;-0.00012943;0.00100724;-0.00108511;0;0.0283719;-0.00728294;0.756983
83000;84;25.7605;0.00405515;0.000157442;-2.49474;25.6285;-0.7469;0.00666337;0.00294369;-0.0638655;0.00256509;-0.045122;-0.0654375;0.0795276;-5.72144;-2.46993e-05;-0.00022064;0.000711098;0.000772189;-8.57894e-05;0.000428989;0.034734;28.7903;0.000545642;0.000571985;9.00098;0.111099;95.8376;140.838;0.000502105;-2.468e-05;-0.000340762;-0.000100606;0.000711065;0.00134088;0.0034535;0;0.0181739;0.00605105;-0.0449237;-0.128686;0.136436;-6.45295;0.000331304;0.000372043;1.80149e-05;0.000578334;-0.000229015;0.000403675;-18.3905;-0.0543758;0.000480447;0.000538233;2.52531;0.395991;71.2165;116.217;0.00137754;0.00033133;0.00103705;-0.000293176;1.75464e-05;-0.000260823;-0.00150833;0;0.0282991;-0.00720324;0.763516
84000;85;25.7617;0.0052534;0.000203965;-2.49348;25.6299;-0.745933;0.00792187;0.00429875;-0.0628985;0.00241472;-0.0435017;-0.0680831;0.0808303;-5.72408;1.12498e-05;-4.1672e-05;0.000505753;0.00050924;7.76265e-06;0.000250739;-0.0222436;-44.9568;0.000336936;0.000334318;;;72.8666;117.867;0.000983484;1.12293e-05;-0.000290011;0.000206545;0.000505712;-0.000477356;0.00410156;0;0.021039;0.00645095;-0.0443602;-0.129566;0.137101;-6.45383;0.000391262;0.000332799;-0.000102258;0.000558803;-0.000269799;0.000414301;3.82621;0.261355;0.000487997;0.000552402;2.07118;0.482816;65.3556;110.356;0.000806222;0.00039127;0.000973135;-0.000307854;-0.000102677;0.000699726;-0.00151194;0;0.0301868;-0.00712465;0.771385
85000;86;25.7613;0.00483971;0.000187903;-2.49273;25.6295;-0.745926;0.00867308;0.00395618;-0.0628924;0.00210225;-0.0436488;-0.0697497;0.0823083;-5.72575;-8.0324e-05;-0.000303205;0.00075666;0.000854955;-0.000178619;0.000516787;0.106156;9.4201;0.000637901;0.000689049;4.78648;0.208922;91.0896;136.09;0.000552854;-8.0281e-05;-0.000529304;-7.72945e-05;0.000756566;0.00109062;0.00343961;0;0.026893;0.0067299;-0.0444825;-0.13072;0.138245;-6.45499;0.00038883;0.000402659;-4.76479e-05;0.000628589;-0.000287408;0.000457999;8.16047;0.122542;0.000540941;0.000610665;2.1871;0.457227;67.5727;112.573;0.00146957;0.000388895;0.00098293;-0.000177864;-4.80499e-05;0.000183242;-0.00191056;0;0.0309478;-0.00720544;0.778552
86000;87;25.7629;0.00652676;0.000253403;-2.49335;25.6313;-0.742077;0.00805276;0.0057033;-0.0590432;0.00189357;-0.0419372;-0.0727917;0.0840295;-5.72879;-0.000149793;-0.000130215;0.000832053;0.000849029;-0.000166769;0.000507899;0.180029;5.55467;0.000629022;0.000677199;5.09104;0.196424;76.1186;121.119;0.00108976;-0.000149802;-0.000444408;0.000183669;0.000831963;-5.03802e-05;0.00511761;0;0.0312382;0.00680804;-0.0430875;-0.133934;0.140859;-6.4582;0.000403441;0.000306846;3.19199e-05;0.000576375;-0.000141013;0.000358694;-12.6392;-0.0791192;0.000438872;0.000478259;4.08737;0.244656;63.7344;108.734;0.000934323;0.000403457;0.000864407;-0.000250922;3.15934e-05;0.00133116;-0.00123197;0;0.0322401;-0.00722902;0.786299
87000;88;25.7592;0.00278402;0.00010809;-2.49165;25.6274;-0.751907;0.0097504;0.00181991;-0.0688731;0.00194946;-0.0465448;-0.0616361;0.0772607;-5.71763;-0.000116601;8.44235e-05;0.000472785;0.000484639;-0.000128456;0.000306547;0.246627;4.05471;0.000373352;0.00040873;3.77281;0.265055;51.5983;96.5983;0.000959966;-0.000116679;-0.000234704;0.000403363;0.000472761;-0.000832749;0.0032101;0;0.0118381;0.00779257;-0.0462216;-0.125773;0.134224;-6.45004;0.000356514;0.000387354;-3.20704e-05;0.000595572;-0.000271128;0.00043335;11.1166;0.0899557;0.000511943;0.0005778;2.19664;0.45524;70.457;115.457;0.00160024;0.000356528;0.00112344;-0.000349015;-3.26265e-05;-0.000183406;-0.00134013;0;0.0281497;-0.00731986;0.792762
88000;89;25.7605;0.00406723;0.000157911;-2.49138;25.6287;-0.750315;0.0100209;0.00318269;-0.0672807;0.00151077;-0.0465972;-0.0630889;0.0784461;-5.71909;-0.00012545;-8.40541e-05;0.000690987;0.000699551;-0.000134014;0.000416782;0.181552;5.50807;0.000516862;0.000555709;5.21999;0.191571;72.9827;117.983;0.00115201;-0.000125467;-0.000373752;0.000205407;0.000690921;-0.00128241;0.00329885;0;0.0158101;0.00761845;-0.0463533;-0.125957;0.134432;-6.45022;0.000435226;0.000315675;-7.45601e-07;0.000600865;-0.000166385;0.000383625;;;0.000466046;0.0005115;3.61129;0.276909;64.1157;109.116;0.00100646;0.0004352;0.00102079;-0.000389746;-1.21678e-06;0.000656888;-0.00243845;0;0.0317847;-0.00727489;0.798036
89000;90;25.7593;0.00284854;0.000110595;-2.49184;25.6274;-0.751309;0.00956169;0.00188397;-0.0682745;0.00194861;-0.0473215;-0.0691043;0.0837766;-5.7251;-3.78408e-05;-6.89071e-05;0.000726334;0.000732497;-4.40046e-05;0.000388251;0.0520984;19.1944;0.000503641;0.000517668;16.6459;0.0600747;72.8038;117.804;0.001218;-3.78751e-05;-0.000408866;0.000270792;0.000726252;-0.000728864;0.00322227;0;0.0147762;0.00786758;-0.0472584;-0.133538;0.141872;-6.4578;0.000336531;0.000382893;5.63693e-05;0.000604163;-0.000211263;0.000407713;-5.97011;-0.167501;0.000488663;0.000543617;2.85977;0.349678;69.0706;114.071;0.00189864;0.000336598;0.000875283;-0.000109635;5.60595e-05;0.000110924;-0.00176829;0;0.02727;-0.0072027;0.806797
90000;91;25.76;0.00362841;0.000140874;-2.49242;25.6282;-0.75197;0.00897938;0.00259183;-0.0689358;0.00103012;-0.0472601;-0.0719256;0.086069;-5.72792;-1.16265e-05;-0.000113941;0.000438042;0.000465266;-3.88499e-05;0.000252058;0.0265419;37.6763;0.000323905;0.000336077;11.976;0.0835005;75.75;120.75;0.00106267;-1.1639e-05;-0.000422919;0.000194897;0.000437959;-0.000306528;0.00398811;0;0.0163543;0.0063758;-0.0467622;-0.137857;0.145712;-6.46212;0.000323269;0.000329994;-9.62526e-05;0.000504527;-0.00027751;0.000391019;3.35855;0.297747;0.000457807;0.000521358;1.81805;0.550041;68.8064;113.806;0.00149845;0.000323273;0.00097849;-0.000318775;-9.66769e-05;0.000339031;-0.00299078;0;0.0289814;-0.00723998;0.809775
91000;92;25.7587;0.00233143;9.05183e-05;-2.49255;25.6268;-0.752875;0.0088451;0.00124854;-0.069841;0.000730006;-0.0494885;-0.0719018;0.0872898;-5.7279;7.77259e-05;1.99911e-06;0.000448807;0.000448817;7.77152e-05;0.000185551;-0.173184;-5.77422;0.000276965;0.000247401;-5.77516;-0.173155;63.981;108.981;0.000531053;7.76708e-05;-0.000328249;0.000332124;0.000448753;-7.81351e-05;0.00392906;0;0.0140558;0.00560185;-0.0488298;-0.13928;0.147698;-6.46355;0.000361823;0.000339275;1.90741e-05;0.000570549;-0.000189652;0.000380101;-18.9693;-0.0527168;0.000456898;0.000506801;3.0084;0.332403;68.4812;113.481;0.00167286;0.000361831;0.000993915;-0.000315589;1.86378e-05;7.59838e-05;-0.00164638;0;0.0303635;-0.0070148;0.815471
92000;93;25.7587;0.00225535;8.75647e-05;-2.49415;25.6265;-0.755982;0.00725391;0.000925783;-0.0729482;0.000507713;-0.0530393;-0.0709376;0.0885752;-5.72694;6.56338e-05;-5.62908e-05;0.000251214;0.000266953;4.98944e-05;0.000108529;-0.261267;-3.82751;0.000163889;0.000144706;-5.35037;-0.186903;73.3627;118.363;0.000441774;6.55972e-05;-0.000388894;0.000276251;0.00025114;0.000723507;0.00472001;0;0.0147833;0.00470592;-0.050919;-0.142134;0.151052;-6.4664;0.000300051;0.000303417;-2.24304e-05;0.000482409;-0.000204789;0.000343599;13.377;0.0747554;0.000407403;0.000458132;2.35564;0.424513;69.5736;114.574;0.00163989;0.00030005;0.000911953;-0.000305315;-2.28002e-05;0.0012796;-0.00209939;0;0.0308394;-0.00692433;0.822686
93000;94;25.7582;0.00175445;6.81171e-05;-2.49411;25.6259;-0.759113;0.00729297;0.000333535;-0.0760794;-0.000180083;-0.0557772;-0.0706636;0.0900249;-5.72666;4.94547e-05;3.81584e-05;0.000184361;0.000194406;3.94095e-05;7.74981e-05;-0.26825;-3.72786;0.000118669;0.000103331;-4.93296;-0.202718;40.7337;85.7337;0.000222341;4.93965e-05;-0.000267141;0.000343417;0.000184326;0.00144874;0.00465875;0;0.0151254;0.00340079;-0.0532553;-0.144322;0.153872;-6.46859;0.000287889;0.000314836;0.000123229;0.000530982;-0.000119863;0.000325423;-2.3362;-0.428045;0.000399975;0.000433897;4.42989;0.225739;74.9102;119.91;0.00180519;0.000287848;0.00105589;-0.00042634;0.000122722;0.000390149;-0.000188007;0;0.0312501;-0.00672181;0.83028
94000;95;25.7583;0.00191383;7.43049e-05;-2.49451;25.626;-0.760069;0.00688838;0.000426021;-0.0770353;-0.000334647;-0.0543694;-0.0801791;0.0968753;-5.73618;0.000131746;-4.49134e-05;-0.000305527;0.000136312;-0.000310093;0.000223202;0.431209;2.31906;0.000264161;0.000297603;0.439584;2.27488;121.108;166.108;0.000369891;0.000131715;-0.000344243;0.000254548;-0.000305586;0.00149666;0.00629821;0;0.0121742;0.00299989;-0.0523063;-0.1544;0.163047;-6.47867;0.000411232;0.00034546;8.16237e-05;0.000629185;-0.000136329;0.000382757;-5.03814;-0.198486;0.000471515;0.000510343;4.61518;0.216676;66.6112;111.611;0.00157657;0.00041125;0.000978935;-0.000288224;8.12043e-05;8.75555e-05;0.000131924;0;0.0306234;-0.00635004;0.837588
95000;96;25.7591;0.00269292;0.000104553;-2.49536;25.6267;-0.759614;0.00603524;0.00113956;-0.0765804;-0.00163792;-0.0562411;-0.0807783;0.0984423;-5.73678;0.000192408;1.74014e-05;-0.000143468;0.000193307;-0.000144367;0.000168837;1.34112;0.745643;0.000195638;0.000225116;1.339;0.746826;140.732;5.7322;0.000403343;0.000192372;-0.00023478;0.000269668;-0.000143495;0.00110672;0.00553832;0;0.0131384;0.00151502;-0.0539955;-0.157528;0.166532;-6.48179;0.000349073;0.00024604;0.000220461;0.000539072;3.04615e-05;0.000254305;-1.58338;-0.631561;0.00034967;0.000339074;-17.6968;-0.0565073;70.2604;115.26;0.00127709;0.000349035;0.000861982;-0.00036998;0.00022012;0.00093184;0.0017133;0;0.0308927;-0.00618042;0.845011
96000;97;25.7589;0.00244857;9.50666e-05;-2.49582;25.6262;-0.765925;0.00557975;0.000661775;-0.0828906;-0.00182999;-0.0572145;-0.0852207;0.102662;-5.74122;0.000315337;-0.000197736;-6.36122e-06;0.000409384;-0.000100408;0.000254896;;;0.000311828;0.000339861;4.0772;0.245266;135.371;0.371077;-0.000275206;0.000315354;-0.000320119;-7.53135e-05;-6.39291e-06;0.00252716;0.00523151;0;0.0139972;0.000836357;-0.0549644;-0.163808;0.172785;-6.48807;0.000238627;0.000215061;0.000134134;0.000407697;-3.49363e-05;0.000221317;-1.77902;-0.562106;0.00028416;0.000295089;11.6697;0.0856918;72.3836;117.384;0.00158203;0.000238617;0.000686679;-0.000256606;0.000133921;-0.000274967;0.00427773;0;0.0315875;-0.00559132;0.851854
97000;98;25.7596;0.00322787;0.000125323;-2.49589;25.6269;-0.767962;0.0055105;0.00137739;-0.084928;-0.00225895;-0.058527;-0.0885009;0.106127;-5.7445;0.00018238;-0.00019722;-0.000228826;0.000261677;-0.000308123;0.0002849;0.797025;1.25467;0.000329338;0.000379867;0.849262;1.17749;108.379;153.379;-0.000373542;0.000182397;-0.00033688;-5.75018e-05;-0.000228863;0.00247452;0.0062934;0;0.0130301;0.00024691;-0.056048;-0.170894;0.179851;-6.49516;0.000193601;0.0002015;0.000321184;0.000468749;4.60357e-05;0.000211357;-0.602774;-1.659;0.00029834;0.000281809;-10.1823;-0.0982097;87.2788;132.279;0.00161662;0.000193539;0.000808235;-0.000405157;0.000320877;-0.000555225;0.00449273;0;0.0307157;-0.00497097;0.859218
98000;99;25.76;0.00362386;0.000140697;-2.49641;25.6273;-0.768625;0.00499147;0.001705;-0.085591;-0.00242799;-0.0575154;-0.0965184;0.112382;-5.75252;0.000362423;3.11568e-05;-0.0004159;0.000363668;-0.000417146;0.000390407;0.871418;1.14755;0.000451155;0.000520543;0.871802;1.14705;133.398;178.398;9.64388e-05;0.000362398;-0.00016428;0.000226746;-0.000415913;0.00188934;0.00679425;0;0.0137314;-0.000486909;-0.0564413;-0.177007;0.185788;-6.50127;0.000259046;0.00024232;0.000312986;0.000529831;4.22e-05;0.000243816;-0.827661;-1.20822;0.000340028;0.000325088;-12.5553;-0.0796479;80.1617;125.162;0.00122321;0.000259016;0.000828562;-0.000343891;0.000312672;-2.64671e-05;0.00401008;0;0.0301312;-0.00462607;0.865979
99000;100;25.7593;0.00289431;0.000112372;-2.49664;25.6264;-0.771116;0.00476058;0.000874348;-0.0880816;-0.0030137;-0.0612477;-0.0867747;0.106255;-5.74277;0.000282354;-6.74412e-05;-0.000493166;0.000288175;-0.000498987;0.000393581;0.572534;1.74662;0.000459869;0.000524775;0.57752;1.73154;113.888;158.888;-0.00032319;0.000282351;-0.000233704;9.89509e-05;-0.000493191;0.00296272;0.00669936;0;0.0158682;-0.00106548;-0.0583323;-0.172689;0.182278;-6.49695;0.000181908;0.000125046;8.01588e-05;0.000266032;-3.96575e-06;0.000134999;-2.26934;-0.440657;0.000178691;0.000179999;;;72.5445;117.544;0.00147175;0.000181812;0.000703868;-0.000453835;7.9919e-05;-0.000135734;0.00477184;0;0.0321482;-0.00452883;0.87343
100000;101;25.7605;0.00406487;0.00015782;-2.49738;25.6275;-0.772547;0.00402355;0.00193605;-0.0895134;-0.00331688;-0.062412;-0.0912601;0.11061;-5.74726;0.000263448;3.83521e-05;-0.000355902;0.000265813;-0.000358268;0.000312041;0.740225;1.35094;0.000361629;0.000416054;0.74194;1.34782;127.287;172.287;-0.000638414;0.000263437;-7.32719e-05;0.000150045;-0.000355904;0.00300616;0.00645107;0;0.0205854;-0.00146858;-0.0600542;-0.179548;0.189331;-6.50381;0.000318391;0.000139269;8.65627e-05;0.000383672;2.12809e-05;0.000181196;-3.67815;-0.271876;0.000248991;0.000241594;-18.029;-0.0554662;60.171;105.171;0.00070157;0.000318312;0.000699473;-0.000421065;8.63278e-05;0.000438891;0.004921;0;0.0386852;-0.00397465;0.878236
101000;102;25.7603;0.00391125;0.000151856;-2.49618;25.6273;-0.77812;0.00521591;0.00172921;-0.0950858;-0.00424301;-0.0657161;-0.0859767;0.108299;-5.74198;0.00028536;-4.78436e-05;-0.000285719;0.00028934;-0.000289699;0.00028952;0.998743;1.00126;0.000334309;0.000386026;0.998761;1.00124;130.197;175.197;-0.000494299;0.000285359;-0.000152807;5.718e-05;-0.000285729;0.00269563;0.00696342;0;0.0190635;-0.00235708;-0.0630537;-0.178558;0.189379;-6.50282;0.000264371;9.29137e-05;0.000182365;0.000324927;0.00012181;0.000101559;-1.44968;-0.689808;0.000189545;0.000135412;-2.6675;-0.374883;66.1742;111.174;0.000709661;0.00026429;0.00059879;-0.000413004;0.000182191;0.000529254;0.00547521;0;0.0343044;-0.00404648;0.882807
102000;103;25.7628;0.00639453;0.00024827;-2.4969;25.6298;-0.775418;0.00450382;0.0042379;-0.0923842;-0.0044266;-0.0666801;-0.0920681;0.113764;-5.74807;0.000272894;-9.81902e-05;-0.000408773;0.000286756;-0.000422635;0.000354696;0.667594;1.49792;0.000412064;0.000472927;0.678497;1.47385;67.9861;112.986;-0.000835556;0.00027289;-6.21472e-05;-0.000134258;-0.00040877;0.00314789;0.00675368;0;0.014235;-0.00267776;-0.0644575;-0.187105;0.197915;-6.51137;0.000403898;-2.65824e-06;0.000164294;0.000403927;0.000164265;0.000119831;-2.45838;-0.406772;0.000234558;0.000159775;-2.459;-0.40667;31.1688;76.1688;0.000743956;0.000403732;0.000570295;-0.000575749;0.000164132;0.00162832;0.00523345;0;0.030711;-0.00381892;0.890859
103000;104;25.7639;0.00752706;0.00029224;-2.49757;25.6308;-0.776749;0.00382857;0.00527021;-0.0937149;-0.00356296;-0.0682413;-0.096576;0.118307;-5.75257;0.000366881;-0.000162042;-0.000510815;0.000395842;-0.000539776;0.000467809;0.718227;1.39232;0.000542305;0.000623745;0.733345;1.36361;71.5919;116.592;-0.000178379;0.000366877;-0.000140668;-0.000183436;-0.000510811;0.00176692;0.00781413;0;0.0215669;-0.00204942;-0.0672497;-0.194313;0.205632;-6.51858;0.000415915;-4.73668e-05;-1.47868e-05;0.000421063;-1.99345e-05;0.000220499;28.1275;0.0355524;0.000287584;0.000293998;21.1224;0.0473432;31.244;76.244;3.52143e-05;0.000415603;0.000696601;-0.000791655;-1.50283e-05;0.00205023;0.00307912;0;0.0301529;-0.00355901;0.896313
104000;105;25.7643;0.00784252;0.000304488;-2.49888;25.6308;-0.783451;0.00252396;0.00525617;-0.100417;-0.00240331;-0.0725416;-0.0892066;0.115004;-5.74521;0.0004142;-2.70729e-05;-0.000497859;0.000415003;-0.000498662;0.000456833;0.831962;1.20198;0.000528241;0.00060911;0.832232;1.20159;104.065;149.065;-0.000779957;0.0004142;-5.27213e-05;-1.40117e-06;-0.00049786;0.00334136;0.0079633;0;0.0139372;-0.00171819;-0.0712941;-0.192578;0.205359;-6.51684;0.000609129;8.73049e-06;-0.000136368;0.000609231;-0.00013647;0.00037285;4.4668;0.223874;0.000458465;0.000497134;4.4642;0.224004;37.8619;82.8619;-0.000342187;0.000608777;0.000855495;-0.000838666;-0.000136734;0.00301838;0.00268124;0;0.0312755;-0.00320479;0.90376
105000;106;25.7624;0.00596779;0.000231701;-2.49793;25.6288;-0.790738;0.00346921;0.00324003;-0.107704;-0.00429159;-0.0749156;-0.0844215;0.11295;-5.74042;0.000333202;-0.000227957;-0.000131776;0.000426314;-0.000224887;0.0003256;2.52856;0.395482;0.000381919;0.000434134;1.89568;0.527516;156.659;21.6591;-0.000746397;0.000333203;-0.000231906;-0.000224007;-0.000131776;0.00292494;0.00737267;0;0.0137964;-0.00273649;-0.0725219;-0.193785;0.206928;-6.51805;0.000482256;-1.73473e-05;-0.000113598;0.000482761;-0.000114102;0.000298431;4.2453;0.235555;0.000365854;0.000397909;4.23095;0.236354;37.7702;82.7702;-0.000462657;0.000481798;0.000921962;-0.000957216;-0.000114023;0.00126672;0.00410604;0;0.0440084;-0.00288602;0.910684
106000;107;25.7673;0.0109208;0.000424004;-2.49936;25.6337;-0.78942;0.00204411;0.0081206;-0.106386;-0.00341925;-0.0744488;-0.0905574;0.117282;-5.74656;0.000271401;-0.00011763;-9.31134e-05;0.000306064;-0.000127776;0.00021692;2.91474;0.343084;0.000257432;0.000289227;2.39531;0.417483;8.47208;53.4721;-0.000525498;0.000271383;-1.22106e-05;-0.000223087;-9.31065e-05;0.00188043;0.00804867;0;0.0175689;-0.00346898;-0.0746317;-0.200675;0.214131;-6.52494;0.000309085;-2.48591e-05;-0.000321135;0.000310064;-0.000322114;0.000316089;0.962478;1.03899;0.00036501;0.000421452;0.962592;1.03886;42.9854;87.9854;0.000163916;0.000308831;0.000663556;-0.000713708;-0.000321355;-0.000322937;0.00284454;0;0.0300426;-0.00127465;0.918297
107000;108;25.7682;0.0117999;0.000458134;-2.49844;25.6346;-0.791098;0.00296401;0.00904219;-0.108064;-0.00376394;-0.0756885;-0.093776;0.120569;-5.74977;0.000239285;2.93809e-05;-0.000391374;0.000240651;-0.00039274;0.000316695;0.611397;1.6356;0.000369185;0.00042226;0.612748;1.63199;68.9843;113.984;-0.000677829;0.000239284;0.000111911;-5.32016e-05;-0.00039138;0.0019558;0.00857003;0;0.014887;-0.0044383;-0.0783028;-0.206447;0.220842;-6.53071;0.000441753;0.000121564;-0.00017158;0.000464968;-0.000194796;0.000329882;2.57461;0.388408;0.000391416;0.000439843;2.38695;0.418944;51.0355;96.0355;-0.000139963;0.000441527;0.000926067;-0.000683433;-0.000172002;0.001023;0.00210067;0;0.0293987;-0.000745871;0.925232
108000;109;25.7691;0.0126925;0.000492788;-2.49944;25.6353;-0.792811;0.0019589;0.00978851;-0.109777;-0.00489845;-0.0770951;-0.0962299;0.123401;-5.75223;0.000363351;-6.8129e-05;-0.000324512;0.000370034;-0.000331195;0.000350614;1.11968;0.89311;0.000405062;0.000467486;1.11727;0.895041;33.0396;78.0396;-0.00091586;0.000363341;1.79157e-05;-0.000154233;-0.00032451;0.00327247;0.0087226;0;0.0161982;-0.00525002;-0.0792159;-0.212417;0.226768;-6.53668;0.000402932;-5.23459e-06;-0.000312815;0.00040297;-0.000312853;0.000357911;1.28808;0.776347;0.000414371;0.000477215;1.28805;0.776368;42.7659;87.7659;0.000114341;0.000402673;0.00070879;-0.00071977;-0.000313066;-0.00116954;0.00143816;0;0.0296619;-5.97219e-05;0.933159
109000;110;25.7678;0.0113845;0.000442006;-2.49866;25.634;-0.796012;0.00273854;0.00845054;-0.112978;-0.00665088;-0.0807494;-0.0936528;0.123837;-5.74965;0.000277138;-0.000241691;-2.74087e-05;0.000410525;-0.000160796;0.00028566;10.1113;0.0988992;0.000340194;0.000380881;2.55308;0.391684;179.885;44.885;-0.000501254;0.000277071;-4.52323e-05;-0.00043821;-2.73805e-05;0.00203878;0.00931798;0;0.0134963;-0.00707012;-0.0824684;-0.215934;0.231254;-6.5402;0.000346531;8.27532e-05;-0.000137096;0.000360299;-0.000150864;0.000255581;2.52766;0.395623;0.000303265;0.000340775;2.38824;0.418718;50.5612;95.5612;0.000602743;0.000346299;0.000852323;-0.000687189;-0.000137456;-0.00150666;0.00076514;0;0.03019;0.000124336;0.940281
110000;111;25.7659;0.00945635;0.000367145;-2.49907;25.6318;-0.802828;0.00233124;0.00626004;-0.119794;-0.00631521;-0.0845245;-0.092593;0.12553;-5.74859;9.26032e-05;-0.000293222;-0.000178157;0.000280189;-0.000365743;0.000322966;0.519783;1.92388;0.000374017;0.000430621;0.766081;1.30534;17.5727;62.5727;-0.000421201;9.25073e-05;-5.94795e-05;-0.000527027;-0.000178116;0.00127372;0.00803365;0;0.0150098;-0.00768808;-0.0853562;-0.217952;0.234196;-6.54222;0.000460847;0.000174124;-8.33446e-05;0.000511791;-0.000134289;0.00032304;5.52941;0.180851;0.000393668;0.000430721;3.81111;0.262391;54.3151;99.3151;0.00102634;0.000460691;0.000933016;-0.000585181;-8.37648e-05;-0.00121693;0.000211518;0;0.0288082;0.000548382;0.947273
111000;112;25.7674;0.0109801;0.000426305;-2.50048;25.6332;-0.803116;0.000919939;0.00764507;-0.120082;-0.00499065;-0.0856906;-0.097399;0.129824;-5.7534;-8.9288e-06;-5.48528e-05;0.000575201;0.000580308;-1.40351e-05;0.000297171;;;0.000391634;0.000396229;41.3468;0.0241857;118.822;163.822;-0.000558594;-8.99159e-06;0.00024907;-0.000358598;0.000575172;0.00122805;0.00823303;0;0.0178973;-0.00722287;-0.0863921;-0.225939;0.242;-6.5502;0.000290822;0.000155158;-6.89264e-05;0.000348495;-0.0001266;0.000237547;4.21931;0.237006;0.000284094;0.00031673;2.75273;0.363276;61.6895;106.689;0.00136047;0.000290587;0.00101195;-0.000701944;-6.94264e-05;-0.00246209;0.000676334;0;0.0291848;0.00180937;0.953635
112000;113;25.7653;0.00885185;0.000343676;-2.50098;25.6309;-0.807749;0.000423842;0.00531171;-0.124715;-0.00504545;-0.0887299;-0.0983602;0.132564;-5.75436;5.29588e-05;-0.000125083;0.000564537;0.000593482;2.40132e-05;0.000284735;-0.0938092;-10.6599;0.000387898;0.000379646;-24.7149;-0.0404615;124.896;169.896;-0.000122201;5.28782e-05;0.000170518;-0.000420533;0.00056453;-0.000187357;0.00811652;0;0.0126534;-0.00802093;-0.0885446;-0.231606;0.248084;-6.55587;0.000336123;9.90974e-05;-1.89363e-05;0.000361909;-4.47218e-05;0.000203315;17.7502;0.0563374;0.000257478;0.000271087;8.09245;0.123572;54.2246;99.2246;0.00141625;0.000335854;0.000938584;-0.000740687;-1.93719e-05;-0.00171937;0.00151791;0;0.0292213;0.00341252;0.961029
113000;114;25.7652;0.0087843;0.000341053;-2.5023;25.6304;-0.815488;-0.000902043;0.00486935;-0.132454;-0.00591837;-0.0924006;-0.0937862;0.131791;-5.74978;-6.10507e-05;0.000175838;0.000443437;0.000498676;-0.00011629;0.000307483;0.137676;7.26341;0.000377237;0.000409977;4.28821;0.233198;96.3656;141.366;-0.000201158;-6.10359e-05;0.000385421;-3.36402e-05;0.000443378;-0.000571932;0.00934563;0;0.0329316;-0.0101714;-0.0917683;-0.233215;0.250827;-6.55748;0.000267197;0.000198381;-0.000115997;0.000351397;-0.000200198;0.000275797;2.30348;0.434126;0.000322427;0.00036773;1.75525;0.569719;65.267;110.267;0.00142985;0.000267039;0.000992125;-0.000595668;-0.00011647;-0.00218323;0.00125113;0;0.031504;0.00386672;0.964325
114000;115;25.7633;0.00684902;0.000265915;-2.50102;25.6283;-0.824224;0.000379149;0.00276945;-0.14119;-0.00688617;-0.0916987;-0.101774;0.137164;-5.75777;-0.000168482;-0.000103756;0.00070701;0.000719138;-0.00018061;0.000449874;0.238302;4.19636;0.000549611;0.000599832;3.98172;0.251148;124.702;169.702;-0.000605066;-0.000168604;0.00029689;-0.000504051;0.000706971;0.000223106;0.00940882;0;0.0444067;-0.0106432;-0.0900936;-0.246341;0.262515;-6.57061;0.000127483;9.33977e-05;-5.42756e-06;0.000175655;-5.35996e-05;0.000114627;;;0.000138472;0.000152836;3.27717;0.305142;69.4172;114.417;0.00185143;0.000127354;0.000703162;-0.000516448;-5.67041e-06;-0.0023886;0.00109121;0;0.0375886;0.00427615;0.969483
115000;116;25.7641;0.00763858;0.00029657;-2.50271;25.6289;-0.826082;-0.00131391;0.00333808;-0.143048;-0.00581515;-0.093803;-0.101375;0.138238;-5.75737;-7.78115e-05;2.70892e-05;0.000611441;0.000612504;-7.88746e-05;0.000345689;0.127259;7.85797;0.000437007;0.000460919;7.76554;0.128774;115.312;160.312;-0.000843006;-7.78744e-05;0.000410155;-0.000355712;0.000611357;-0.000321904;0.00859213;0;0.043093;-0.0109385;-0.0917668;-0.251664;0.268096;-6.57593;0.000244932;0.000120413;1.73382e-05;0.000296813;-3.45426e-05;0.000165678;-14.1268;-0.0707875;0.000210337;0.000220904;8.59267;0.116378;62.4835;107.483;0.00212427;0.000244806;0.000757364;-0.000516683;1.70586e-05;-0.00271979;0.00257898;0;0.0440362;0.00618783;0.976397
116000;117;25.7629;0.00653041;0.000253545;-2.50406;25.6275;-0.829587;-0.0026575;0.00197961;-0.146553;-0.00583296;-0.0923972;-0.115644;0.148138;-5.77164;-0.000108662;9.86562e-05;0.00103901;0.00104742;-0.000117081;0.000582253;0.104583;9.56177;0.000740402;0.000776337;8.94612;0.11178;105.545;150.545;-0.000156102;-0.000108704;0.000501308;-0.000303534;0.00103888;-0.000912641;0.00928593;0;0.021966;-0.011668;-0.0894685;-0.268592;0.283342;-6.59286;5.66109e-05;0.000155248;3.75913e-06;0.000187666;-0.000127296;0.000157481;;;0.000182954;0.000209975;1.47425;0.678312;83.7452;128.745;0.0020086;5.65195e-05;0.00076544;-0.000454976;3.47824e-06;-0.00317255;0.00280858;0;0.0305066;0.00774089;0.983236
117000;118;25.7635;0.00706228;0.000274195;-2.50403;25.6279;-0.83434;-0.00263554;0.00236215;-0.151306;-0.0057965;-0.096066;-0.109465;0.145756;-5.76546;-2.31151e-05;0.000235024;0.00103285;0.00108279;-7.30617e-05;0.000577928;0.0223799;44.6829;0.000747408;0.00077057;14.8203;0.0674752;94.8921;139.892;-0.000421398;-2.30927e-05;0.000573131;-0.000102726;0.00103271;0.000392888;0.0073433;0;0.0136373;-0.0120464;-0.093411;-0.264615;0.280877;-6.58888;0.000104757;5.45361e-05;-6.25515e-05;0.000120964;-7.87582e-05;9.98611e-05;1.67474;0.597109;0.000116165;0.000133148;1.53589;0.651088;60.3169;105.317;0.00201488;0.000104663;0.000547064;-0.000438074;-6.26996e-05;-0.00291324;0.00459578;0;0.0293316;0.0078937;0.990967
118000;119;25.7597;0.00332887;0.000129244;-2.50499;25.6235;-0.851789;-0.00359242;-0.00205866;-0.168755;-0.00846595;-0.0971179;-0.112623;0.148955;-5.76862;-1.53328e-05;-4.81216e-05;0.000725364;0.000728477;-1.84461e-05;0.000373462;0.0211381;47.308;0.000491916;0.000497949;39.4922;0.0253214;119.446;164.446;-0.00112905;-1.54539e-05;0.000398457;-0.00049437;0.000725286;0.000658464;0.00797912;0;0.0203379;-0.0152041;-0.0920504;-0.279214;0.294389;-6.60348;-7.60221e-05;0.000125734;-6.63532e-05;5.46392e-05;-0.000197015;0.000125827;-1.14572;-0.872815;0.000152847;0.000167769;0.277336;3.60574;96.5079;141.508;0.00160925;-7.60446e-05;0.000498032;-0.00024656;-6.64694e-05;-0.00349554;0.00613681;0;0.0299114;0.00956155;0.997326
119000;120;25.7612;0.00481341;0.000186882;-2.50615;25.625;-0.84842;-0.00474746;-0.000567393;-0.165386;-0.00535507;-0.0997932;-0.119121;0.15549;-5.77512;-7.7087e-06;0.000197273;0.000435906;0.000510941;-8.2743e-05;0.000296842;;;0.000371294;0.000395789;6.17503;0.161943;99.8547;144.855;-3.42957e-05;-7.70823e-06;0.0005896;-0.00019488;0.000435752;-0.00110069;0.00762929;0;0.0246322;-0.0134179;-0.0954946;-0.285884;0.30171;-6.61015;0.000107323;0.000172601;-4.86729e-05;0.000218732;-0.000160082;0.000189407;2.20498;0.453518;0.00021958;0.000252542;1.36638;0.731863;76.0052;121.005;0.00173037;0.000107297;0.000631224;-0.000286093;-4.88572e-05;-0.00187895;0.00654666;0;0.0277139;0.010803;1.00486
120000;121;25.7605;0.00407781;0.000158322;-2.50597;25.6239;-0.85866;-0.00456923;-0.00163055;-0.175626;-0.00618697;-0.103209;-0.102926;0.145891;-5.75892;-9.94548e-06;0.000142657;0.000327839;0.000380026;-6.21317e-05;0.000221079;;;0.000276399;0.000294772;6.11645;0.163494;103.472;148.472;-0.000633595;-9.96276e-06;0.000519805;-0.000234363;0.000327714;-0.000223738;0.00915006;0;0.0220889;-0.0141959;-0.0976674;-0.27982;0.296714;-6.60409;3.29554e-05;0.000140355;-0.00019263;0.000100223;-0.000259898;0.00018006;0.171081;5.84518;0.00021462;0.00024008;0.385625;2.59319;75.3574;120.357;0.00102956;3.29088e-05;0.000616623;-0.000336021;-0.00019281;-0.00153155;0.00647288;0;0.0358003;0.011049;1.01225
121000;122;25.763;0.00660848;0.000256576;-2.50771;25.6262;-0.860628;-0.00630591;0.000677693;-0.177594;-0.0075113;-0.104925;-0.109466;0.151817;-5.76546;0.000143723;4.43041e-05;-0.000119489;0.00015098;-0.000126747;0.000138863;1.20281;0.831388;0.000160549;0.000185151;1.1912;0.839493;53.4975;98.4975;-0.00121769;0.000143648;0.000478594;-0.0003901;-0.000119603;0.00196105;0.00926829;0;0.0133961;-0.016147;-0.100507;-0.289481;0.306857;-6.61375;0.000118531;0.000141841;-0.000242924;0.000167546;-0.000291938;0.000229742;0.487936;2.04945;0.000268504;0.000306323;0.573907;1.74244;67.2611;112.261;0.00133056;0.000118457;0.000695158;-0.000411677;-0.000243156;-0.00222075;0.00685941;0;0.042592;0.0132687;1.01925
122000;123;25.7581;0.00168073;6.52547e-05;-2.50673;25.6208;-0.877259;-0.00533307;-0.00474522;-0.194225;-0.010161;-0.112209;-0.0951317;0.147459;-5.75113;-2.65995e-05;-7.22173e-06;-0.000582265;-2.65057e-05;-0.000582358;0.000277926;-0.0456828;-21.8901;0.000379712;0.000370569;-0.0455143;-21.9711;60.7359;105.736;-0.00160173;-2.6713e-05;0.000461822;-0.000476527;-0.000582371;0.00177156;0.009932;0;0.0228337;-0.0183464;-0.103416;-0.289195;0.307678;-6.61346;0.000238255;-2.33882e-05;-0.000396386;0.000239116;-0.000397247;0.000318181;0.601069;1.6637;0.000371166;0.000424242;0.601933;1.66131;46.6853;91.6853;0.000664203;0.000238066;0.000568731;-0.000615883;-0.000396548;-0.00161602;0.00751853;0;0.0408233;0.0148683;1.0264
123000;124;25.7626;0.00618555;0.000240156;-2.50849;25.625;-0.881407;-0.00709484;-0.000530985;-0.198373;-0.00992573;-0.109586;-0.111835;0.156891;-5.76783;0.000130246;3.39677e-05;-6.32092e-05;0.000136037;-6.9e-05;0.000102519;2.06056;0.485305;0.000120469;0.000136691;1.97155;0.507215;52.4924;97.4924;-0.000990146;0.000130164;0.000474342;-0.000406492;-6.33211e-05;0.00137038;0.00991575;0;0.0175489;-0.0192382;-0.104251;-0.305688;0.323549;-6.62995;0.000428976;0.000236826;-0.000467846;0.000487673;-0.000526543;0.000507108;0.916917;1.09061;0.000585701;0.000676144;0.926179;1.0797;59.4449;104.445;0.000721992;0.000428687;0.00126836;-0.000795633;-0.000468622;-0.000711363;0.00545425;0;0.0459917;0.0170662;1.0275
124000;125;25.7624;0.00600387;0.000233102;-2.50885;25.6245;-0.889466;-0.00744751;-0.00102664;-0.206432;-0.0105619;-0.113875;-0.112653;0.16053;-5.76865;0.000251837;0.000142747;-0.00059714;0.000275196;-0.000620499;0.000447847;0.421739;2.37114;0.000529784;0.00059713;0.443507;2.25475;65.2567;110.257;-0.000986976;0.000251806;0.000571173;-0.000286043;-0.000597293;0.0015217;0.0103406;0;0.0143649;-0.01955;-0.109454;-0.310817;0.330106;-6.63508;0.000431848;0.000128209;-0.000575013;0.000447917;-0.000591082;0.0005195;0.751023;1.33152;0.000601762;0.000692666;0.757791;1.31962;54.5186;99.5186;0.000798004;0.00043159;0.000984873;-0.000729318;-0.00057549;-0.00046479;0.00244252;0;0.0295739;0.0185846;1.03855
125000;126;25.7649;0.00845107;0.000328115;-2.51035;25.6267;-0.894109;-0.00895162;0.00112485;-0.211075;-0.0102093;-0.115933;-0.113812;0.162781;-5.76981;0.000280848;0.000131935;-0.000245477;0.000312069;-0.000276698;0.000294383;1.14409;0.874056;0.000340129;0.000392511;1.12783;0.886656;57.1396;102.14;-0.0012459;0.000280811;0.000565531;-0.000301889;-0.000245628;0.00182062;0.00937342;0;0.0145651;-0.0202226;-0.11342;-0.321112;0.341154;-6.64538;0.00035624;0.000307523;-0.000539319;0.000451671;-0.00063475;0.00054321;0.660537;1.51392;0.000630207;0.00072428;0.711573;1.40534;64.8077;109.808;0.000796252;0.000356038;0.00131989;-0.000705751;-0.000540144;0.000613565;0.00181805;0;0.0281484;0.0216359;1.04139
126000;127;25.7639;0.00752243;0.000292061;-2.51166;25.6253;-0.904731;-0.0102635;-0.000310164;-0.221697;-0.0103868;-0.119947;-0.116058;0.167227;-5.77206;0.000410985;0.000212492;-0.000398553;0.000463371;-0.000450939;0.000457155;1.03119;0.969751;0.000527893;0.00060954;1.02757;0.973171;58.5258;103.526;-0.00151012;0.000410945;0.000777166;-0.00035264;-0.000398833;0.00259279;0.0108388;0;0.0150145;-0.0214532;-0.116029;-0.333703;0.35395;-6.65797;0.0005778;0.000427366;-0.000308509;0.000750298;-0.000481007;0.000615653;1.87288;0.533937;0.000716539;0.00082087;1.55985;0.641087;63.4888;108.489;0.00105293;0.000577662;0.00153123;-0.000677475;-0.00030959;0.000284047;0.00228163;0;0.0279367;0.0240866;1.04928
127000;128;25.7632;0.00678107;0.000263277;-2.51294;25.6242;-0.910447;-0.0115382;-0.00138295;-0.227413;-0.0113452;-0.125156;-0.117074;0.171753;-5.77307;0.000317925;2.75632e-05;-7.1821e-05;0.000319865;-7.37607e-05;0.000196813;4.42663;0.225906;0.000241613;0.000262417;4.33652;0.2306;43.4167;88.4167;-0.00156863;0.000317749;0.000648977;-0.000594093;-7.20312e-05;0.00258755;0.0112715;0;0.016268;-0.0232135;-0.121827;-0.339682;0.361614;-6.66395;0.000269124;0.000461475;-0.000212979;0.000548711;-0.000492567;0.000520639;1.26361;0.791381;0.000601473;0.000694185;1.11398;0.89768;75.2852;120.285;0.00170409;0.000269142;0.00134282;-0.00042029;-0.000213775;-0.00129025;0.00392921;0;0.0296169;0.0264791;1.05639
128000;129;25.7611;0.00470871;0.000182817;-2.5139;25.6217;-0.918572;-0.0125042;-0.00385133;-0.235538;-0.00940995;-0.129686;-0.111769;0.171462;-5.76777;0.000291199;0.000231884;-0.000517535;0.000352967;-0.000579304;0.000466136;0.562664;1.77726;0.000543509;0.000621515;0.609295;1.64124;64.6379;109.638;-0.00140511;0.000291125;0.00091052;-0.000447302;-0.000517923;0.00104591;0.0113324;0;0.01577;-0.0218918;-0.123914;-0.344512;0.366773;-6.66878;0.000357453;0.000497233;2.74202e-05;0.000716337;-0.000331464;0.0005239;-13.0361;-0.0767099;0.000618402;0.000698534;2.16113;0.46272;75.6621;120.662;0.000794411;0.000357418;0.00155755;-0.000563433;2.63309e-05;0.00128651;0.00445785;0;0.029315;0.0299775;1.06384
129000;130;25.7608;0.0044322;0.000172081;-2.51433;25.6211;-0.927342;-0.0129318;-0.00448724;-0.244308;-0.00815792;-0.135739;-0.106015;0.172427;-5.76201;0.000244221;-3.01927e-06;7.23644e-05;0.000244274;7.23114e-05;8.59814e-05;-3.37488;-0.296307;0.000144891;0.000114642;-3.37809;-0.296025;37.8355;82.8355;-0.00116729;0.000243955;0.000723231;-0.000729394;7.21029e-05;0.000266232;0.0121615;0;0.0187868;-0.0215029;-0.129169;-0.34746;0.371316;-6.67173;0.000204566;0.000377806;-7.41599e-05;0.000467893;-0.000337487;0.00040269;2.75845;0.362523;0.000467013;0.00053692;1.3864;0.721291;77.8942;122.894;0.00104926;0.000204475;0.00132518;-0.000569828;-7.49667e-05;0.00170947;0.00721724;0;0.0326993;0.0346214;1.07159
130000;131;25.7592;0.00283456;0.000110053;-2.51313;25.6195;-0.930824;-0.011731;-0.00610205;-0.24779;-0.0120881;-0.139044;-0.115143;0.180934;-5.77114;7.08053e-05;9.98695e-05;0.000259232;0.000302314;2.77231e-05;0.000137296;-0.273135;-3.6612;0.000192967;0.000183061;-10.9048;-0.0917029;106.349;151.349;-0.0013345;7.05051e-05;0.000981204;-0.000781299;0.000258756;-0.000452912;0.0122485;0;0.0152129;-0.0256284;-0.131435;-0.360185;0.384272;-6.68445;0.000307417;0.000308016;-0.000148908;0.000462571;-0.000304062;0.000383317;2.06447;0.484385;0.000445759;0.000511089;1.5213;0.657331;68.7274;113.727;0.00117783;0.000307365;0.00106265;-0.000446965;-0.000149425;6.93921e-05;0.00853688;0;0.030488;0.0383888;1.07927
131000;132;25.7583;0.00192762;7.48404e-05;-2.51344;25.6184;-0.934888;-0.012041;-0.00719231;-0.251853;-0.0120981;-0.143511;-0.118192;0.186309;-5.77419;-0.000123449;7.87107e-07;0.0010505;0.0010505;-0.000123449;0.000586975;0.117514;8.50962;0.000744901;0.000782633;8.50959;0.117514;122.782;167.782;-0.0011692;-0.000123973;0.00102678;-0.001024;0.00104997;-0.000639619;0.0113983;0;0.0244872;-0.0257032;-0.134596;-0.368732;0.39337;-6.693;0.000419536;0.000216494;-0.000181333;0.000489413;-0.000251211;0.000370312;2.31362;0.432224;0.000434909;0.000493749;1.94822;0.513289;58.9386;103.939;0.000475439;0.000419351;0.00107738;-0.000644908;-0.00018189;0.00121174;0.0111076;0;0.0297789;0.0441779;1.08571
132000;133;25.7589;0.00247402;9.60544e-05;-2.5126;25.6188;-0.941136;-0.0112001;-0.00678921;-0.258102;-0.0133107;-0.14835;-0.115772;0.188647;-5.77177;-6.16602e-05;6.4384e-07;0.000812854;0.000812855;-6.16607e-05;0.000437258;0.0758565;13.1828;0.000563582;0.00058301;13.1827;0.075857;125.077;170.077;-0.00199485;-6.22076e-05;0.00104846;-0.00104626;0.000812305;9.56754e-05;0.0108952;0;0.0168307;-0.0273461;-0.139109;-0.373802;0.399783;-6.69807;0.000492547;0.000245672;-0.000189005;0.00057187;-0.000268328;0.000420099;2.60601;0.383729;0.000495529;0.000560132;2.13124;0.469211;58.2855;103.285;-0.000124995;0.000492338;0.00118344;-0.000692738;-0.000189675;0.00216035;0.0106084;0;0.0328394;0.0504754;1.09302
133000;134;25.7609;0.00453168;0.000175944;-2.51312;25.6206;-0.945567;-0.0117159;-0.00493405;-0.262533;-0.0138796;-0.151835;-0.120922;0.194599;-5.77692;-5.8367e-06;2.30652e-05;0.000856586;0.000857202;-6.45314e-06;0.000431828;;;0.000573631;0.00057577;;;120.684;165.684;-0.00155563;-6.21211e-06;0.000913698;-0.000866801;0.000856169;-0.000831651;0.0108129;0;0.0161377;-0.0281479;-0.142568;-0.383785;0.410377;-6.70805;0.000590722;0.000196031;-0.000497938;0.000624945;-0.000532161;0.000578553;1.18633;0.842932;0.000668771;0.000771404;1.17435;0.851533;53.8294;98.8294;-0.00039328;0.000590176;0.00145406;-0.00106337;-0.000498977;0.00232358;0.00893472;0;0.0313696;0.0559518;1.09671
134000;135;25.7623;0.00586178;0.000227585;-2.51398;25.6218;-0.948073;-0.0125767;-0.00377372;-0.265039;-0.0158555;-0.15659;-0.123983;0.200359;-5.77998;7.91196e-05;-2.1378e-05;0.000692141;0.000692885;7.8375e-05;0.000307255;-0.114312;-8.74803;0.000438141;0.000409674;-8.84064;-0.113114;125.878;170.878;-0.00178589;7.86534e-05;0.000923748;-0.000965925;0.000691715;0.000319198;0.0105958;0;0.0195838;-0.0307861;-0.147834;-0.389638;0.417876;-6.7139;0.000566032;0.000204762;-0.000728533;0.000597647;-0.000760148;0.000678898;0.776948;1.28709;0.000785793;0.000905197;0.786225;1.2719;55.7182;100.718;-0.000484127;0.00056557;0.00139087;-0.000982884;-0.00072948;0.00410719;0.00754963;0;0.0386368;0.0627621;1.10208
135000;136;25.7631;0.00669438;0.000259911;-2.51436;25.6224;-0.953153;-0.0129585;-0.00316248;-0.270119;-0.0151239;-0.159621;-0.123639;0.202471;-5.77964;9.37828e-05;3.83586e-05;1.35689e-05;0.000109173;-1.82149e-06;5.54973e-05;-6.91161;-0.144684;7.33968e-05;7.39964e-05;;;65.2119;110.212;-0.0021024;9.33782e-05;0.000977001;-0.000900359;1.30923e-05;0.00049125;0.0106127;0;0.0148365;-0.030869;-0.151016;-0.395766;0.424723;-6.72003;0.000547375;0.000164594;-0.000759033;0.000567793;-0.000779451;0.000673622;0.721148;1.38668;0.000781025;0.000898163;0.728452;1.37277;54.3595;99.3595;-0.000582086;0.00054673;0.00147509;-0.00114762;-0.000760108;0.00349545;0.00506479;0;0.0356229;0.072757;1.10856
136000;137;25.7593;0.00292983;0.000113752;-2.5133;25.6181;-0.96855;-0.0118968;-0.00742102;-0.285516;-0.018036;-0.169004;-0.106965;0.200821;-5.76296;0.000132516;0.00019355;-2.49393e-05;0.000262738;-0.00015516;0.000208949;5.31355;0.188198;0.000243924;0.000278599;1.69333;0.590553;77.19;122.19;-0.00180129;0.000132293;0.00108309;-0.000696129;-2.55072e-05;-0.000143832;0.0114961;0;0.0134139;-0.0330216;-0.157045;-0.391503;0.423117;-6.71577;0.000427614;0.000269484;-0.000621664;0.000492778;-0.000686828;0.000589803;0.687854;1.4538;0.000684111;0.000786404;0.717469;1.39379;60.9225;105.923;-0.000296918;0.000427233;0.00145111;-0.000913389;-0.000622681;0.000869926;0.00447386;0;0.0276143;0.0837485;1.11787
137000;138;25.7635;0.00711779;0.00027635;-2.51484;25.6224;-0.962941;-0.0134451;-0.00315049;-0.279907;-0.0177552;-0.166615;-0.119028;0.205532;-5.77503;7.55639e-05;0.000157236;0.000141062;0.000268924;-5.22975e-05;0.000160611;-0.535677;-1.8668;0.000199019;0.000214148;5.14219;0.19447;92.6072;137.607;-0.00199585;7.52643e-05;0.00110447;-0.000789934;0.000140465;0.000109968;0.0103334;0;0.0135847;-0.0339541;-0.157412;-0.404082;0.434987;-6.72835;0.000511431;0.000331707;-0.000467616;0.00061323;-0.000569416;0.000591323;1.0937;0.914329;0.000682957;0.000788431;1.07695;0.928551;61.5921;106.592;-0.0004014;0.000510917;0.0017289;-0.00106686;-0.000469056;0.00155534;0.00568222;0;0.029145;0.0963639;1.12844
138000;139;25.7629;0.00647425;0.000251364;-2.51435;25.6216;-0.967933;-0.0129483;-0.00393693;-0.284899;-0.0187822;-0.167986;-0.119172;0.206819;-5.77517;0.000200376;0.000196326;-0.000315155;0.000266627;-0.000381406;0.000324017;0.635802;1.57282;0.000376093;0.000432022;0.699064;1.43048;65.3454;110.345;-0.00202029;0.000200104;0.0011553;-0.000763142;-0.000315803;-0.000149305;0.0109322;0;0.0153105;-0.03489;-0.158481;-0.406681;0.437862;-6.73095;0.000468679;0.000249404;-0.000407256;0.000534714;-0.000473291;0.000504002;1.15082;0.868944;0.000582332;0.000672003;1.12978;0.885129;59.1021;104.102;-0.000111351;0.000468221;0.00148772;-0.000989997;-0.000408332;0.00151594;0.006363;0;0.0290783;0.103332;1.12964
139000;140;25.7645;0.00810451;0.00031466;-2.51581;25.6233;-0.96312;-0.0144075;-0.00225952;-0.280086;-0.0174906;-0.16746;-0.128221;0.211635;-5.78422;0.000131578;4.92386e-05;-0.000323483;0.000136845;-0.00032875;0.000232797;0.406755;2.45848;0.000276318;0.000310397;0.416259;2.40235;53.7522;98.7522;-0.00189361;0.000131099;0.00107878;-0.000980773;-0.000324064;-0.000265711;0.0116167;0;0.0202848;-0.0343895;-0.158466;-0.417203;0.447607;-6.74147;0.000480877;0.00028955;-0.000292834;0.000577236;-0.000389193;0.000483215;1.64215;0.608959;0.000561478;0.000644286;1.48316;0.674236;61.2274;106.227;0.000124342;0.000480463;0.00153276;-0.000954627;-0.000293967;0.000994836;0.00773057;0;0.0304646;0.113905;1.1377
140000;141;25.7621;0.00571328;0.00022182;-2.51424;25.6206;-0.976036;-0.0128372;-0.00499859;-0.293002;-0.0203123;-0.171165;-0.117853;0.208804;-5.77385;0.00036446;0.000130031;-0.000471874;0.00038421;-0.000491624;0.000437917;0.772367;1.29472;0.000506929;0.00058389;0.781512;1.27957;55.1418;100.142;-0.00158284;0.00036408;0.00114111;-0.00088189;-0.000472517;-0.00168132;0.0114901;0;0.0260362;-0.0362506;-0.161189;-0.413089;0.444903;-6.73735;0.000472694;0.000359966;-0.000284794;0.000616465;-0.000428565;0.000522515;1.65978;0.602491;0.000606591;0.000696687;1.43844;0.695198;64.3685;109.368;0.000135914;0.000472466;0.00148437;-0.000765288;-0.000285831;0.00104738;0.00918135;0;0.035284;0.127632;1.14432
141000;142;25.7626;0.00622692;0.000241762;-2.51466;25.6209;-0.979431;-0.0132646;-0.00465359;-0.296397;-0.0212544;-0.172813;-0.119572;0.211219;-5.77557;0.000354725;0.000156751;-0.000628056;0.000379121;-0.000652451;0.000515786;0.564799;1.77054;0.000602507;0.000687715;0.581072;1.72096;57.4123;102.412;-0.00201762;0.000354304;0.00124357;-0.000931134;-0.000628817;-0.000581918;0.0113502;0;0.0163186;-0.0371529;-0.163298;-0.4176;0.449929;-6.74187;0.000481332;0.000393941;-0.000112931;0.000677634;-0.000309232;0.000493433;4.26219;0.234621;0.000582851;0.000657911;2.19134;0.456341;66.3201;111.32;0.000508726;0.000481218;0.00140679;-0.000619515;-0.000113843;-0.000433149;0.00927379;0;0.0321653;0.142301;1.15166
142000;143;25.7619;0.00548509;0.00021296;-2.51414;25.62;-0.985076;-0.0127431;-0.00556479;-0.302042;-0.0229836;-0.174289;-0.116479;0.210884;-5.77248;0.00046711;0.000333791;-0.000590829;0.000563621;-0.00068734;0.00062548;0.790601;1.26486;0.000723419;0.000833974;0.820003;1.21951;62.7234;107.723;-0.00204807;0.000466874;0.00143088;-0.00076446;-0.000591798;-0.000654901;0.0115273;0;0.0156613;-0.0383875;-0.164489;-0.419198;0.451948;-6.74346;0.000486417;0.000371906;-0.000102056;0.000666405;-0.000282044;0.000474225;4.7662;0.209811;0.000562376;0.0006323;2.36277;0.423232;65.1245;110.125;0.000693701;0.000486316;0.00132707;-0.000583817;-0.000102867;1.42794e-05;0.0112337;0;0.0301736;0.160581;1.1589
143000;144;25.7621;0.00565215;0.000219446;-2.5148;25.62;-0.988562;-0.0134046;-0.00559599;-0.305528;-0.0234714;-0.176274;-0.118061;0.213452;-5.77406;0.000389849;0.000310169;-0.000588307;0.00047991;-0.000678368;0.000579139;0.662663;1.50906;0.000671997;0.000772186;0.707448;1.41353;63.7653;108.765;-0.00250455;0.000389589;0.00140428;-0.000785013;-0.000589246;0.000453883;0.0104751;0;0.0179634;-0.0388727;-0.166429;-0.423674;0.456847;-6.74794;0.000560054;0.000422216;4.29166e-05;0.000796586;-0.000193615;0.0004951;-13.0498;-0.0766294;0.000605995;0.000660134;4.11428;0.243056;64.2231;109.223;0.00103032;0.000560062;0.00124837;-0.000404361;4.22266e-05;0.00090227;0.0114736;0;0.0306563;0.178197;1.16531
144000;145;25.7625;0.0060615;0.000235339;-2.51409;25.6204;-0.989645;-0.012693;-0.00515633;-0.306611;-0.0242765;-0.178246;-0.11963;0.216038;-5.77563;0.000565858;0.000363752;-0.000784478;0.000657611;-0.000876231;0.000766921;0.721318;1.38635;0.000888557;0.00102256;0.7505;1.33245;61.8566;106.857;-0.00243741;0.000565615;0.00151238;-0.000786431;-0.000785556;0.000261584;0.0119158;0;0.0161654;-0.0394286;-0.168413;-0.427816;0.461458;-6.75208;0.000405452;0.000430916;0.000173977;0.000735902;-0.000156473;0.000446188;-2.33049;-0.429094;0.000550226;0.000594917;4.70306;0.212628;68.6297;113.63;0.00255367;0.000405538;0.000982973;-0.00012127;0.000173587;-0.00197168;0.0144157;0;0.0297737;0.196883;1.16864
145000;146;25.7622;0.00576686;0.0002239;-2.51333;25.62;-0.994955;-0.0119265;-0.00558306;-0.311921;-0.0264911;-0.179818;-0.117087;0.216207;-5.77309;0.000586939;0.000341913;-0.000692131;0.0006726;-0.000777793;0.000725197;0.848017;1.17922;0.000838119;0.000966929;0.864755;1.1564;60.3237;105.324;-0.00217453;0.000586645;0.00152165;-0.000839337;-0.000693231;-0.000988105;0.0120188;0;0.0179089;-0.0410596;-0.16953;-0.430352;0.464359;-6.75462;0.000344379;0.000475077;0.000174267;0.000741953;-0.000223308;0.000482631;-1.97616;-0.506032;0.000583494;0.000643508;3.32255;0.300973;72.371;117.371;0.00230153;0.000344488;0.0010289;-7.8844e-05;0.00017385;-0.000529129;0.013485;0;0.030161;0.218774;1.1769
146000;147;25.7635;0.0070811;0.000274926;-2.51311;25.6214;-0.993612;-0.0117107;-0.00418825;-0.310578;-0.0279417;-0.182986;-0.118149;0.219599;-5.77415;0.000487701;0.000248825;-0.000588718;0.000542436;-0.000643453;0.000592945;0.828412;1.20713;0.000685501;0.000790593;0.843008;1.18623;58.4729;103.473;-0.00288586;0.000487145;0.00157982;-0.00108361;-0.000589936;2.00368e-05;0.0112858;0;0.0158064;-0.0417588;-0.173549;-0.433551;0.46886;-6.75782;0.000408445;0.00048048;0.000113565;0.000763598;-0.000241587;0.000502593;-3.59657;-0.278043;0.000605868;0.000670123;3.16075;0.316381;59.7263;104.726;0.00214344;0.000408539;0.000755706;0.000205172;0.000113395;-0.000414099;0.0132096;0;0.030563;0.238756;1.18161
147000;148;25.7653;0.00883942;0.000343193;-2.51181;25.6232;-0.99587;-0.0104075;-0.00238004;-0.312836;-0.0295124;-0.186134;-0.118627;0.222687;-5.77463;0.000385803;0.000108109;-0.000224146;0.000404398;-0.00024274;0.000323569;1.72122;0.580985;0.000377491;0.000431426;1.66597;0.600252;53.2507;98.2507;-0.0031322;0.00038476;0.00166418;-0.00144892;-0.000225525;0.00040488;0.0134514;0;0.0155527;-0.042693;-0.176883;-0.438734;0.474971;-6.763;0.000340566;0.000370435;7.46613e-05;0.000601185;-0.000185957;0.000393571;-4.56149;-0.219227;0.000475066;0.000524761;3.23292;0.309318;47.9227;92.9227;0.00252784;0.000340598;0.000469867;0.000270976;7.46195e-05;-0.00119126;0.0144937;0;0.0309733;0.269211;1.19072
148000;149;25.7659;0.00948044;0.000368081;-2.51157;25.6237;-0.998943;-0.0101739;-0.0018322;-0.315909;-0.0315331;-0.191652;-0.114033;0.22523;-5.77003;0.000361887;0.000149132;-0.000105981;0.00040538;-0.000149473;0.000277426;3.41465;0.292855;0.000331507;0.000369902;2.71206;0.368724;59.0454;104.045;-0.00244665;0.00036074;0.00181986;-0.00152238;-0.000107626;-0.00193764;0.0120406;0;0.0162792;-0.0440381;-0.1827;-0.438046;0.476658;-6.76231;0.000436437;0.000306131;-0.000245666;0.000553679;-0.000362907;0.000458293;1.77655;0.562889;0.000532998;0.000611057;1.52568;0.655447;16.0159;61.0159;0.00240233;0.000436432;0.000289523;0.000322751;-0.000245661;-0.00148798;0.0156561;0;0.0374273;0.292508;1.19696
149000;150;25.7673;0.0108841;0.000422578;-2.51087;25.6251;-1.00097;-0.00947257;-0.000431149;-0.317936;-0.0325103;-0.194584;-0.119968;0.230894;-5.77597;0.000432684;0.000497861;0.00018087;0.000820311;-0.000206758;0.000513535;-2.39224;-0.418018;0.000627257;0.000684713;3.9675;0.252048;77.8109;122.811;-0.00251338;0.000432066;0.00221376;-0.00121847;0.000178544;-0.00286617;0.0121231;0;0.0184845;-0.0445729;-0.186968;-0.447216;0.486771;-6.77148;0.000410578;0.000378381;-0.00047386;0.000550364;-0.000613645;0.000582005;0.866456;1.15413;0.000672372;0.000776006;0.896876;1.11498;141.534;6.53429;0.00227182;0.000410553;0.000317588;0.000439227;-0.000473838;-0.00154401;0.0153166;0;0.0476786;0.323433;1.20412
150000;151;25.7662;0.00973699;0.000378041;-2.5097;25.624;-1.0034;-0.00829758;-0.00156444;-0.320364;-0.0335957;-0.201043;-0.11738;0.235213;-5.77338;0.000146577;0.000237727;0.000710517;0.000797357;5.97365e-05;0.00036881;-0.206296;-4.8474;0.00051282;0.000491747;-13.3479;-0.0749181;108.722;153.722;-0.00267479;0.000145132;0.00219329;-0.00171673;0.000708142;-0.00392559;0.0128038;0;0.019738;-0.0451165;-0.192462;-0.450227;0.491713;-6.77449;0.000426073;0.000310497;-0.0006147;0.000511666;-0.000700292;0.000605979;0.693141;1.44271;0.000702544;0.000807972;0.730646;1.36865;141.966;6.96613;0.00192063;0.000425929;2.46966e-07;0.000621071;-0.000614652;-0.000687468;0.0148859;0;0.034619;0.350693;1.21134
151000;152;25.7667;0.010268;0.000398658;-2.50805;25.6245;-1.00804;-0.00665389;-0.00105173;-0.325005;-0.0351058;-0.206325;-0.11346;0.238066;-5.76946;7.61775e-05;0.000234929;0.00101461;0.00107013;2.06502e-05;0.000524742;-0.0750808;-13.319;0.00070664;0.000699656;-51.8219;-0.0192969;114.073;159.073;-0.00317898;7.46353e-05;0.00224366;-0.00177192;0.00101212;-0.00379538;0.0126274;0;0.015364;-0.045749;-0.198954;-0.450581;0.49467;-6.77485;0.00036322;0.000386709;-0.000276638;0.000545186;-0.000458604;0.000501895;1.31298;0.761625;0.000580257;0.000669193;1.1888;0.841187;163.121;28.1214;0.00222375;0.000362967;-3.7011e-05;0.0008107;-0.000276564;-0.00186821;0.0113317;0;0.0324463;0.383311;1.21796
152000;153;25.7669;0.0104682;0.000406431;-2.5081;25.6246;-1.01119;-0.00669934;-0.000978868;-0.328153;-0.035655;-0.210036;-0.119397;0.244217;-5.7754;0.000106726;-0.000146705;0.00106332;0.00108531;8.47326e-05;0.000500289;-0.100371;-9.96306;0.000697016;0.000667052;-12.8087;-0.0780722;135.649;0.649143;-0.00385384;0.000104254;0.00193699;-0.00222841;0.00106145;-0.00317616;0.0104945;0;0.0192028;-0.0458684;-0.203736;-0.459246;0.504499;-6.78351;0.000276409;0.000398947;5.62035e-05;0.000580167;-0.000247555;0.000413861;-4.918;-0.203335;0.000490578;0.000551815;2.34359;0.426696;0.979845;45.9798;0.00275586;0.000276055;-0.000132598;0.000930608;5.62743e-05;-0.003032;0.0115354;0;0.0303684;0.421836;1.22565
153000;154;25.7666;0.0101876;0.000395537;-2.50768;25.6241;-1.0179;-0.00627584;-0.00148527;-0.334864;-0.0374806;-0.215998;-0.118637;0.249268;-5.77464;0.000105074;0.000136067;0.00101551;0.00103542;8.51732e-05;0.000475121;-0.103469;-9.66477;0.00066371;0.000633495;-12.1566;-0.08226;118.802;163.802;-0.00375516;0.000103359;0.00213121;-0.00185726;0.00101325;-0.00313767;0.0100933;0;0.0178341;-0.0469545;-0.208855;-0.462772;0.509885;-6.78704;0.00026216;0.000445023;0.000168846;0.000662965;-0.000231959;0.000447462;-1.55266;-0.644058;0.000536287;0.000596616;2.85811;0.349882;6.92242;51.9224;0.00319764;0.000261714;-0.000153176;0.00104328;0.000168933;-0.00334899;0.0118639;0;0.0299302;0.464412;1.23227
154000;155;25.7661;0.00972551;0.000377596;-2.50744;25.6234;-1.02411;-0.00604407;-0.00217479;-0.341076;-0.0396915;-0.218845;-0.127305;0.256271;-5.7833;0.000230672;-6.5428e-05;0.000649199;0.000659189;0.000220682;0.000219254;-0.355317;-2.81439;0.000387447;0.000292338;-2.98706;-0.334778;136.97;1.96978;-0.00344914;0.000228838;0.00178637;-0.00191645;0.000647607;-0.00259165;0.00954706;0;0.0295824;-0.0486503;-0.212194;-0.473348;0.52101;-6.79761;4.50167e-05;0.000491945;0.000340971;0.000706713;-0.000320725;0.000513719;-0.132025;-7.57432;0.000606985;0.000684959;2.20348;0.453827;14.1728;59.1728;0.00395821;4.41096e-05;-0.000450375;0.00143399;0.000340991;-0.00621108;0.0140039;0;0.0369307;0.497242;1.23882
155000;156;25.7666;0.0101753;0.000395059;-2.50691;25.6238;-1.02636;-0.00550898;-0.00176011;-0.343324;-0.0394025;-0.223988;-0.116696;0.255619;-5.77269;0.0001327;3.98682e-05;0.000851945;0.000854148;0.000130497;0.000361826;-0.155761;-6.4201;0.000531302;0.000482434;-6.54537;-0.15278;124.112;169.112;-0.00322128;0.000131174;0.00182842;-0.0017474;0.000850275;-0.00254732;0.00988503;0;0.0160258;-0.047367;-0.216978;-0.466062;0.516272;-6.79033;0.000250832;0.000459576;0.000431124;0.000809311;-0.000127355;0.000468333;-0.581809;-1.71878;0.000586619;0.000624444;6.35474;0.157363;15.1215;60.1215;0.00399253;0.000249896;-0.000524412;0.00144339;0.000431092;-0.00496567;0.0157869;0;0.0313795;0.540525;1.24361
156000;157;25.7667;0.0102698;0.000398727;-2.50672;25.6238;-1.02921;-0.00531972;-0.00176112;-0.34618;-0.0403756;-0.228296;-0.120589;0.261325;-5.77659;0.000160435;1.55226e-05;1.27971e-05;0.000162049;1.11828e-05;7.54334e-05;-12.5368;-0.0797653;0.000104505;0.000100578;-14.491;-0.0690082;49.4919;94.4919;-0.00324804;0.000158939;0.00176068;-0.00172989;1.12473e-05;-0.00193964;0.0114593;0;0.0194143;-0.0476379;-0.221373;-0.47383;0.525157;-6.7981;0.000139458;0.000373537;0.000490655;0.000727809;-9.76956e-05;0.000412752;-0.284228;-3.5183;0.000520834;0.000550336;7.44977;0.134232;19.4949;64.4949;0.00422209;0.000138153;-0.000912003;0.00165862;0.000490309;-0.0074296;0.0168658;0;0.0304954;0.592235;1.2508
157000;158;25.7687;0.0122964;0.00047741;-2.50642;25.6257;-1.03401;-0.00502553;0.000112543;-0.350974;-0.0420311;-0.232244;-0.118701;0.264185;-5.7747;0.000334308;0.000144508;4.90811e-05;0.000394724;-1.13356e-05;0.00020303;-6.81133;-0.146814;0.000267008;0.000270707;34.8218;0.0287177;64.4165;109.417;-0.00324602;0.000333134;0.00182772;-0.00153919;4.74213e-05;-0.00177743;0.00976557;0;0.0184409;-0.0486345;-0.22568;-0.475164;0.528278;-6.79943;8.4933e-05;0.000450117;0.000463228;0.000762325;-0.000214164;0.000488244;-0.18335;-5.45404;0.000592647;0.000650992;3.55954;0.280935;15.9599;60.9599;0.0045025;8.26899e-05;-0.00126589;0.00216548;0.000462529;-0.0072064;0.0172623;0;0.0307124;0.639108;1.25546
158000;159;25.7719;0.0154933;0.00060153;-2.50567;25.6291;-1.03066;-0.00426776;0.0035363;-0.347624;-0.0431319;-0.235381;-0.120104;0.267749;-5.7761;0.00035228;0.000196277;4.48122e-05;0.000447862;-5.07704e-05;0.000249316;-7.86124;-0.127206;0.000316857;0.000332422;8.82132;0.113362;67.72;112.72;-0.00270028;0.000351077;0.0019552;-0.00156319;4.29201e-05;-0.00188678;0.0115085;0;0.0153915;-0.0492267;-0.230661;-0.478097;0.533108;-6.80236;0.000169052;0.000447766;0.000503108;0.000813984;-0.000141824;0.000477904;-0.336015;-2.97606;0.000595586;0.000637206;5.73938;0.174235;15.9336;60.9336;0.00486732;0.000166905;-0.00122523;0.0021202;0.000502458;-0.00588315;0.0196029;0;0.0322764;0.694914;1.26176
159000;160;25.7736;0.0171956;0.000667624;-2.50534;25.6306;-1.03646;-0.00394055;0.005046;-0.35343;-0.0445612;-0.240869;-0.119383;0.272499;-5.77538;0.00031679;0.000252983;-2.02773e-05;0.000452237;-0.000155724;0.00030398;15.6229;0.0640086;0.000364657;0.000405307;2.90409;0.344342;70.7327;115.733;-0.00264652;0.000315685;0.00201346;-0.00150809;-2.22723e-05;-0.00266355;0.0122388;0;0.0171565;-0.0500474;-0.23726;-0.48078;0.538467;-6.80505;0.000196569;0.000362477;0.000285612;0.000606292;-0.00012411;0.000365201;-0.688239;-1.45298;0.000451289;0.000486934;4.88512;0.204703;7.53432;52.5343;0.00481879;0.000194484;-0.00134951;0.00207431;0.000284768;-0.00641032;0.0191228;0;0.0391604;0.739562;1.26908
160000;161;25.7753;0.0189117;0.000734252;-2.50434;25.6324;-1.03625;-0.00294469;0.00687746;-0.35322;-0.0448629;-0.245975;-0.11818;0.276555;-5.77418;0.000257237;8.02062e-05;0.000302992;0.00036352;0.000196709;8.34051e-05;-0.84899;-1.17787;0.000210115;0.000111207;-1.848;-0.541125;93.8836;138.884;-0.00276389;0.000255456;0.00204962;-0.00188912;0.000300895;-0.00267992;0.0114254;0;0.0177493;-0.0501028;-0.244251;-0.483102;0.543651;-6.80737;2.26521e-05;0.00040257;0.000242516;0.000549894;-0.000284727;0.00041731;-0.0934047;-10.7061;0.000489908;0.000556414;1.93131;0.517784;9.78019;54.7802;0.00374139;2.03291e-05;-0.00138802;0.00219277;0.000241633;-0.00564649;0.0177443;0;0.0470039;0.805202;1.27607
161000;162;25.7774;0.0210325;0.000816591;-2.50412;25.6345;-1.03766;-0.00272497;0.00897451;-0.354629;-0.0464641;-0.248581;-0.118989;0.279482;-5.77499;0.000281384;0.000130972;0.000372753;0.00046578;0.000188358;0.000138711;-0.754881;-1.32471;0.000270552;0.000184947;-2.47284;-0.404394;94.8578;139.858;-0.00275682;0.000279714;0.00209482;-0.0018327;0.000370569;-0.00289148;0.0123949;0;0.0212639;-0.051447;-0.248447;-0.487991;0.550007;-6.81226;3.48695e-05;0.000429169;5.44607e-05;0.000473946;-0.000384616;0.000429281;-0.64027;-1.56184;0.000496584;0.000572374;1.23226;0.811518;1.39476;46.3948;0.00448702;3.25032e-05;-0.00135914;0.00221744;5.36292e-05;-0.00675587;0.0154257;0;0.0268137;0.856251;1.28371
162000;163;25.7771;0.0206857;0.000803126;-2.50434;25.634;-1.04115;-0.00294086;0.00846326;-0.358117;-0.0481829;-0.251438;-0.123812;0.28438;-5.77981;9.68923e-05;-3.70044e-05;0.000851089;0.0008529;9.5081e-05;0.00037891;-0.113845;-8.78387;0.000539706;0.000505213;-8.97025;-0.11148;131.711;176.711;-0.0027098;9.43754e-05;0.0021717;-0.00224404;0.000848734;-0.00382279;0.0114509;0;0.0201726;-0.0528494;-0.252841;-0.49466;0.558041;-6.81893;4.15042e-05;0.000403838;0.000438748;0.000690165;-0.000209913;0.000450039;-0.0945969;-10.5712;0.000543759;0.000600052;3.28786;0.30415;16.8983;61.8983;0.0048222;3.91345e-05;-0.00140723;0.00221419;0.000437839;-0.00783687;0.012389;0;0.026918;0.915089;1.29049
163000;164;25.7778;0.0213815;0.000830143;-2.50441;25.6346;-1.04302;-0.00300989;0.00908029;-0.359985;-0.0489452;-0.25693;-0.121507;0.288397;-5.77751;8.95972e-05;-4.90986e-05;0.0015355;0.00153716;8.79319e-05;0.000724615;-0.0583506;-17.1378;0.000996758;0.000966154;-17.4813;-0.057204;127.247;172.247;-0.00322688;8.68013e-05;0.00227044;-0.00236529;0.00153292;-0.00413563;0.0122425;0;0.019393;-0.0534504;-0.258397;-0.495525;0.561401;-6.81979;2.00359e-05;0.000294806;0.000666572;0.000780811;-9.42037e-05;0.000437507;-0.0300581;-33.2689;0.000554615;0.000583343;8.28854;0.120648;28.9017;73.9017;0.00477588;1.76162e-05;-0.00163115;0.00221952;0.000665286;-0.00647375;0.0146848;0;0.0278125;0.969657;1.29873
164000;165;25.7751;0.0187157;0.000726643;-2.50293;25.6318;-1.04992;-0.00153021;0.00626251;-0.366884;-0.0499834;-0.262269;-0.123386;0.294122;-5.77938;-0.000110901;-3.36451e-05;0.00202383;0.00202436;-0.000111431;0.0010679;0.0547975;18.249;0.00138821;0.00142386;18.1669;0.055045;124.833;169.833;-0.00337646;-0.000113759;0.00232892;-0.00239117;0.00202112;-0.00416611;0.0114767;0;0.0189062;-0.0543003;-0.263287;-0.499775;0.567489;-6.82404;-4.38588e-05;0.000280029;0.000789362;0.000874728;-0.000129225;0.000501977;0.0555624;17.9978;0.000630656;0.000669302;6.76903;0.147732;33.2368;78.2368;0.00570943;-4.65251e-05;-0.00176776;0.00232612;0.00078784;-0.0112646;0.0158237;0;0.0286383;1.03408;1.30612
165000;166;25.7751;0.0187311;0.000727242;-2.50332;25.6317;-1.05291;-0.00192016;0.00611704;-0.36988;-0.0512031;-0.266078;-0.123874;0.297933;-5.77987;-0.00023669;-0.000200709;0.00191831;0.00193684;-0.000255224;0.00109603;0.123385;8.10473;0.00138417;0.00146138;7.58879;0.131773;130.689;175.689;-0.00359563;-0.00024012;0.00223052;-0.0026267;0.00191584;-0.0047422;0.0106124;0;0.0151104;-0.0556817;-0.267148;-0.501305;0.570767;-6.82557;-0.000129104;0.000320829;0.000953502;0.00104144;-0.000217039;0.000629238;0.1354;7.38553;0.000776811;0.000838984;4.79839;0.208403;35.3351;80.3351;0.00494718;-0.000131908;-0.00174997;0.00238939;0.000952024;-0.00839;0.0185656;0;0.030903;1.0897;1.31331
166000;167;25.7756;0.019148;0.000743426;-2.50318;25.6321;-1.0543;-0.00177756;0.00649311;-0.371268;-0.0524456;-0.270485;-0.126125;0.303018;-5.78212;-0.000254301;-0.000117341;0.00171447;0.00172144;-0.00026127;0.000991353;0.148326;6.74188;0.00124389;0.0013218;6.58873;0.151774;129.49;174.49;-0.00338787;-0.000257166;0.00216607;-0.00239626;0.00171213;-0.00470643;0.0115288;0;0.0158683;-0.0566344;-0.271814;-0.50477;0.576093;-6.82904;-0.000270863;0.000377503;0.00115084;0.00124486;-0.000364883;0.00080487;0.235361;4.24878;0.000974574;0.00107316;3.41166;0.293112;36.6485;81.6485;0.00598233;-0.000274166;-0.00184579;0.00259764;0.00114921;-0.0109975;0.0203068;0;0.0290213;1.1585;1.31905
167000;168;25.7753;0.018896;0.000733642;-2.50319;25.6317;-1.05732;-0.00178601;0.00611457;-0.374285;-0.0529661;-0.274893;-0.126985;0.307404;-5.78298;-6.3832e-05;-4.18539e-05;0.00117806;0.00117947;-6.52409e-05;0.000622355;0.0541839;18.4557;0.000808937;0.000829807;18.0787;0.0553138;129.705;174.705;-0.00331442;-6.62812e-05;0.00213256;-0.00221357;0.00117579;-0.00485138;0.0113136;0;0.0160983;-0.0572247;-0.27597;-0.507793;0.580765;-6.83206;-0.000390944;0.000381482;0.00102846;0.00112449;-0.000486975;0.00080573;0.380127;2.6307;0.000954337;0.00107431;2.30913;0.433064;34.6997;79.6997;0.00544973;-0.000394715;-0.00201271;0.00277228;0.0010265;-0.00947435;0.021644;0;0.0282868;1.22153;1.32491
168000;169;25.7773;0.0208603;0.000809908;-2.50281;25.6336;-1.0584;-0.00141166;0.00808196;-0.375364;-0.0542977;-0.279813;-0.125444;0.311415;-5.78144;-0.000108635;1.47174e-05;0.00164612;0.00164624;-0.000108759;0.0008775;0.065995;15.1527;0.00113548;0.00117;15.1366;0.066065;124.443;169.443;-0.00377532;-0.000110811;0.00211887;-0.00208575;0.00164388;-0.0027921;0.00940244;0;0.0165483;-0.0582336;-0.28177;-0.507267;0.583185;-6.83153;-0.000207303;0.000240051;0.00101956;0.00106486;-0.000252599;0.000658728;0.203326;4.91821;0.000807385;0.000878304;4.21559;0.237215;39.1234;84.1234;0.00578186;-0.000210795;-0.00217606;0.0026532;0.00101722;-0.00953441;0.0235897;0;0.0331581;1.29658;1.32986
169000;170;25.7781;0.0216778;0.000841645;-2.50251;25.6344;-1.06004;-0.00110608;0.00886588;-0.377008;-0.0550794;-0.283488;-0.125979;0.315072;-5.78198;-0.000132856;3.6934e-05;0.00106701;0.00106814;-0.000133992;0.000601068;0.124513;8.03129;0.000760703;0.000801424;7.97169;0.125444;126.789;171.789;-0.00334597;-0.000134879;0.00208792;-0.00201159;0.00106483;-0.00287469;0.0103916;0;0.0166774;-0.0590135;-0.285769;-0.509744;0.587355;-6.83401;-0.000162589;0.000324284;0.000912949;0.00100316;-0.000252797;0.000627977;0.178092;5.61507;0.000767051;0.000837303;3.96823;0.252002;34.0856;79.0856;0.00522501;-0.000166024;-0.00199494;0.00264101;0.000911013;-0.00918889;0.0232337;0;0.0339111;1.35409;1.3352
170000;171;25.781;0.0246205;0.000955898;-2.50381;25.6372;-1.06138;-0.00240822;0.0116425;-0.378348;-0.0568591;-0.286242;-0.125552;0.317696;-5.78155;-0.000156542;3.51712e-05;0.00108294;0.00108393;-0.00015754;0.000620737;0.144554;6.91785;0.000780454;0.000827649;6.88039;0.145341;126.955;171.955;-0.00334416;-0.000158553;0.00207855;-0.00200568;0.00108078;-0.00297662;0.0104471;0;0.0269038;-0.0606025;-0.290309;-0.511481;0.59124;-6.83575;-6.57638e-05;0.000301745;0.000969214;0.00105076;-0.000147311;0.000599037;0.0678527;14.7378;0.000754421;0.000798716;7.13293;0.140195;35.0736;80.0736;0.00516878;-6.95861e-05;-0.00218026;0.00278119;0.000966885;-0.0078727;0.0228613;0;0.0323815;1.4259;1.3426
171000;172;25.7829;0.0264728;0.00102781;-2.50365;25.639;-1.06326;-0.00224608;0.0134434;-0.380223;-0.0569902;-0.288226;-0.134202;0.323005;-5.7902;-7.47813e-06;3.07446e-05;0.000604148;0.00060569;-9.01969e-06;0.000307355;;;0.000406833;0.000409806;;;127.848;172.848;-0.0032554;-9.40557e-06;0.00202633;-0.00196362;0.000602097;-0.00240221;0.0113837;0;0.0166466;-0.0606352;-0.293473;-0.522554;0.602383;-6.84682;-7.93911e-05;0.000324929;0.0011628;0.00124266;-0.000159251;0.000700954;0.0682759;14.6464;0.000886304;0.000934605;7.80313;0.128154;37.641;82.641;0.00580104;-8.29905e-05;-0.00205567;0.00270257;0.00116074;-0.00868279;0.0188717;0;0.0583065;1.48802;1.34973
172000;173;25.7841;0.0277047;0.00107564;-2.50339;25.6402;-1.06396;-0.00199171;0.0146778;-0.380926;-0.0562887;-0.2947;-0.123084;0.324293;-5.77908;6.28484e-05;6.87452e-05;0.000558433;0.000567792;5.34892e-05;0.000257152;-0.112544;-8.8854;0.000362018;0.000342869;-10.6151;-0.0942055;122.642;167.642;-0.00268064;6.11238e-05;0.001997;-0.00185855;0.000556443;-0.003481;0.0113636;0;0.0152381;-0.0604464;-0.301354;-0.512289;0.597418;-6.83655;1.25772e-05;0.000388896;0.00100551;0.00113969;-0.000121606;0.000630648;-0.0125084;-79.9465;0.000803402;0.000840864;9.37197;0.106701;32.1947;77.1947;0.00564921;8.99597e-06;-0.00192892;0.00270441;0.00100372;-0.00749828;0.0164413;0;0.0298496;1.5622;1.35734
173000;174;25.7856;0.0292263;0.00113472;-2.50443;25.6415;-1.06835;-0.00302951;0.015924;-0.385319;-0.0580284;-0.293713;-0.136279;0.328947;-5.79228;8.20219e-05;0.000124206;0.000562125;0.000592355;5.17924e-05;0.000270281;-0.145914;-6.85336;0.000378821;0.000360375;-11.4371;-0.0874347;116.639;161.639;-0.00312539;8.03353e-05;0.00209025;-0.0018409;0.00055995;-0.00219134;0.011165;0;0.0165623;-0.0620618;-0.303339;-0.52679;0.611044;-6.85106;-0.00012614;0.000281581;0.00109912;0.00116073;-0.000187753;0.000674244;0.114765;8.71347;0.000843402;0.000898991;6.18223;0.161754;38.1758;83.1758;0.0062012;-0.000129998;-0.00223166;0.00279175;0.00109667;-0.0104347;0.0146037;0;0.0401015;1.63416;1.36483
174000;175;25.7873;0.0308706;0.00119856;-2.50421;25.643;-1.07257;-0.00281542;0.0174226;-0.389533;-0.0616425;-0.294653;-0.139067;0.331602;-5.79507;1.30887e-05;3.87142e-05;0.00110104;0.00110242;1.17129e-05;0.000545353;-0.0118876;-84.1213;0.000731072;0.000727137;-94.1203;-0.0106247;125.436;170.436;-0.00269764;1.10087e-05;0.00211971;-0.00204002;0.0010988;-0.00311111;0.0112239;0;0.0151363;-0.065423;-0.306348;-0.531955;0.617337;-6.85622;-9.59134e-05;0.00046134;0.0012713;0.00141241;-0.00023702;0.000824715;0.075445;13.2547;0.00102975;0.00109962;5.95902;0.167813;34.4958;79.4958;0.00594611;-0.000100367;-0.00210057;0.00301975;0.0012692;-0.0101261;0.0138247;0;0.0295436;1.70945;1.37274
175000;176;25.7842;0.0278179;0.00108004;-2.50658;25.6394;-1.07878;-0.00517651;0.0138611;-0.395749;-0.0605305;-0.300408;-0.136669;0.33554;-5.79267;-0.000141274;0.000527232;0.000764927;0.00100701;-0.000383352;0.000695179;0.184689;5.4145;0.000829205;0.000926905;2.62684;0.380685;105.919;150.919;-0.00208994;-0.000142247;0.00254726;-0.00149097;0.000761825;-0.00515775;0.0128384;0;0.0174088;-0.0659699;-0.309016;-0.537104;0.623157;-6.86137;-0.000387232;0.000329431;0.00127028;0.00133336;-0.000450306;0.000891831;0.30484;3.28041;0.00107104;0.00118911;2.961;0.337724;38.6117;83.6117;0.00601461;-0.000392215;-0.00251917;0.00317331;0.00126717;-0.0109282;0.0162688;0;0.0357226;1.78121;1.37951
176000;177;25.7888;0.0324068;0.0012582;-2.5053;25.6445;-1.07149;-0.00390431;0.018906;-0.388457;-0.0591389;-0.302523;-0.134629;0.336367;-5.79063;-6.07308e-05;2.65024e-05;0.000938951;0.000939653;-6.14329e-05;0.000500543;0.0646794;15.4609;0.000647884;0.00066739;15.2956;0.0653783;127.587;172.587;-0.00240578;-6.29099e-05;0.00214287;-0.00208776;0.000936657;-0.00371777;0.0128335;0;0.0161281;-0.0638025;-0.315441;-0.531164;0.621054;-6.85543;-0.000341343;0.000207399;0.00134335;0.00136851;-0.0003665;0.000867503;0.254099;3.93548;0.00105592;0.00115667;3.73398;0.26781;43.6337;88.6337;0.00567767;-0.000345179;-0.00236665;0.00277712;0.00134057;-0.00993946;0.017429;0;0.0295518;1.85212;1.38704
177000;178;25.7882;0.0317662;0.00123333;-2.50523;25.6438;-1.07313;-0.00383082;0.0182004;-0.390097;-0.0600881;-0.303659;-0.140449;0.339919;-5.79645;0.000142822;0.000168085;0.00112656;0.00115448;0.000114896;0.000519795;-0.126778;-7.88782;0.00073436;0.000693059;-10.0481;-0.0995211;117.074;162.074;-0.00239931;0.000140999;0.00225555;-0.00191733;0.00112403;-0.00459456;0.0123296;0;0.0169978;-0.0648939;-0.317194;-0.537649;0.627607;-6.86192;-0.000540898;0.000224896;0.00162205;0.00164518;-0.000564034;0.00110461;0.333466;2.9988;0.00132543;0.00147281;2.91681;0.34284;44.3221;89.3221;0.00581237;-0.00054598;-0.00275177;0.00319514;0.00161829;-0.0108079;0.0198262;0;0.0291048;1.91903;1.39325
178000;179;25.7881;0.0316913;0.00123042;-2.50469;25.6436;-1.07541;-0.00328616;0.0180827;-0.392378;-0.061177;-0.307497;-0.136532;0.341962;-5.79253;-0.000158642;8.46953e-05;0.00135083;0.00135557;-0.00016338;0.000759475;0.11744;8.51495;0.000962805;0.00101263;8.29705;0.120525;124.164;169.164;-0.00238234;-0.00016086;0.00228002;-0.00210732;0.00134824;-0.00546462;0.0139687;0;0.0173165;-0.0658195;-0.32012;-0.535729;0.627547;-6.86;-0.000508789;0.000228736;0.00156052;0.0015855;-0.000533772;0.00105963;0.326039;3.06712;0.00127279;0.00141285;2.97037;0.336659;44.0826;89.0826;0.00559317;-0.000513417;-0.00259834;0.00304997;0.00155717;-0.010608;0.0208118;0;0.033326;1.99099;1.39779
179000;180;25.7884;0.0319679;0.00124116;-2.5048;25.6438;-1.07781;-0.00340103;0.0182488;-0.39478;-0.0619558;-0.31166;-0.134011;0.344861;-5.79001;-0.000221376;5.30721e-05;0.00182935;0.00183072;-0.000222749;0.00102673;0.121014;8.26352;0.0013011;0.00136898;8.21876;0.121673;123.584;168.584;-0.00279933;-0.000223748;0.00228884;-0.00217812;0.00182673;-0.00451169;0.0136001;0;0.0222625;-0.0665531;-0.324692;-0.53531;0.629612;-6.85958;-0.00048807;0.000399047;0.00181994;0.00188698;-0.000555117;0.00122105;0.26818;3.72884;0.00147819;0.00162807;3.39926;0.294182;41.6598;86.6598;0.00616828;-0.000493941;-0.00265786;0.00344891;0.00181649;-0.012583;0.0214795;0;0.0300548;2.05943;1.40242
180000;181;25.7873;0.0308642;0.00119831;-2.50479;25.6426;-1.08077;-0.00338761;0.0170158;-0.397736;-0.0629247;-0.315033;-0.136816;0.349176;-5.79281;-0.000369298;-4.59208e-05;0.00205198;0.00205285;-0.000370168;0.00121151;0.179971;5.55644;0.00150718;0.00161534;5.54572;0.180319;126.372;171.372;-0.00267786;-0.000372271;0.00235248;-0.00243853;0.00204922;-0.00605792;0.0132971;0;0.020866;-0.0676593;-0.327753;-0.541434;0.636515;-6.8657;-0.000672834;0.000454658;0.00182302;0.00190327;-0.000753077;0.00132817;0.369076;2.70947;0.00158084;0.0017709;2.52732;0.395676;40.194;85.194;0.00588187;-0.000679255;-0.00270978;0.00361121;0.00181946;-0.0109127;0.0237909;0;0.0307934;2.14406;1.41088
181000;182;25.7861;0.0296501;0.00115117;-2.50452;25.6412;-1.08565;-0.00311994;0.0156148;-0.402617;-0.0646024;-0.318192;-0.133615;0.351101;-5.78961;-0.000421595;-1.85052e-05;0.00219119;0.00219132;-0.000421726;0.00130653;0.192404;5.19739;0.00161986;0.00174203;5.19608;0.192453;125.265;170.265;-0.00277263;-0.000424524;0.00238892;-0.00241965;0.00218835;-0.00513177;0.0130864;0;0.0439889;-0.0697475;-0.330838;-0.537933;0.635367;-6.8622;-0.000493868;0.000482364;0.00180176;0.001899;-0.000591105;0.00124505;0.274103;3.64827;0.00150231;0.00166007;3.21263;0.311272;39.6737;84.6737;0.00618126;-0.000500029;-0.00258452;0.00354222;0.00179855;-0.0127633;0.0236593;0;0.0360383;2.20251;1.41705
182000;183;25.7864;0.0299813;0.00116403;-2.50543;25.6411;-1.09284;-0.00403027;0.0155536;-0.409805;-0.0660439;-0.319794;-0.136654;0.353983;-5.79265;-0.000440371;-5.78924e-05;0.00231327;0.00231448;-0.000441588;0.00137804;0.190368;5.25299;0.0017093;0.00183738;5.24128;0.190793;125.898;170.898;-0.00368123;-0.000443635;0.00244608;-0.00255498;0.00231028;-0.00521989;0.0127184;0;0.0215566;-0.0717667;-0.333052;-0.545637;0.643268;-6.8699;-0.000476156;0.000462017;0.00172316;0.00181628;-0.000569271;0.00119277;0.276326;3.61891;0.00143866;0.00159037;3.19054;0.313427;39.254;84.254;0.00608545;-0.000482555;-0.00268921;0.00360632;0.00171966;-0.0123933;0.0240687;0;0.0318222;2.28808;1.42431
183000;184;25.7906;0.0342302;0.001329;-2.50441;25.6458;-1.08477;-0.00301532;0.0202681;-0.40174;-0.0647523;-0.327095;-0.130468;0.358059;-5.78647;-0.000412763;-0.000116938;0.00225262;0.00225774;-0.000417884;0.00133781;0.183237;5.45741;0.00166206;0.00178375;5.40279;0.185089;127.004;172.004;-0.00344268;-0.00041593;0.00229163;-0.0025191;0.00225001;-0.00506207;0.0128028;0;0.0350175;-0.0697999;-0.342673;-0.534899;0.639072;-6.85916;-0.000257143;0.000394127;0.00177423;0.00184802;-0.000330931;0.00108948;0.144932;6.89979;0.00135586;0.00145264;5.58431;0.179073;42.1085;87.1085;0.00531051;-0.000262048;-0.00237376;0.0031564;0.0017715;-0.00945859;0.0230272;0;0.0512938;2.35705;1.43176
184000;185;25.7903;0.033922;0.00131703;-2.50356;25.6455;-1.08813;-0.00215637;0.0198997;-0.405099;-0.0654428;-0.327795;-0.13257;0.359593;-5.78857;-0.000348906;-9.03197e-05;0.00228248;0.00228557;-0.000352002;0.00131879;0.152863;6.54182;0.00165359;0.00175838;6.49307;0.15401;125.858;170.858;-0.00361738;-0.000351939;0.00228976;-0.00246415;0.00227987;-0.00448844;0.0119132;0;0.0211398;-0.0702138;-0.344382;-0.537815;0.642475;-6.86208;-0.000446786;0.000384154;0.00187218;0.00193416;-0.000508768;0.00122146;0.238646;4.19032;0.0014883;0.00162862;3.80165;0.263044;43.0347;88.0347;0.00628657;-0.000451751;-0.00241196;0.00317379;0.00186935;-0.0100261;0.021746;0;0.0460679;2.42846;1.44103
185000;186;25.7937;0.0373048;0.00144837;-2.50498;25.6486;-1.09058;-0.00357942;0.0230589;-0.407542;-0.0655892;-0.329549;-0.136824;0.362802;-5.79282;-0.000451672;9.31748e-05;0.00193073;0.00193437;-0.00045531;0.00119484;0.233939;4.27463;0.00146512;0.00159312;4.24846;0.23538;123.56;168.56;-0.00335417;-0.000453949;0.00232706;-0.00213539;0.00192803;-0.00475014;0.0129054;0;0.0402017;-0.0707461;-0.346689;-0.54593;0.650567;-6.8702;-0.000283651;0.000386844;0.00200716;0.00207073;-0.000347213;0.00120897;0.141319;7.07618;0.00150959;0.00161196;5.96386;0.167677;44.3639;89.3639;0.00651012;-0.000288539;-0.00238255;0.0031499;0.00200441;-0.0112506;0.0184869;0;0.066353;2.50765;1.44818
186000;187;25.7933;0.0369022;0.00143274;-2.50496;25.6479;-1.09801;-0.00355747;0.0223391;-0.414975;-0.0695992;-0.334567;-0.136769;0.368082;-5.79277;-0.000350082;4.33653e-05;0.00177794;0.00177883;-0.000350965;0.0010649;0.196903;5.07865;0.00131854;0.00141986;5.06839;0.197301;124.613;169.613;-0.00332655;-0.000352295;0.00219517;-0.00210386;0.00177554;-0.00464172;0.0117309;0;0.0158244;-0.0754174;-0.352817;-0.548168;0.656244;-6.87243;-0.000415207;0.000508383;0.00191025;0.00201653;-0.00052149;0.00126901;0.217357;4.60072;0.00154775;0.00169202;3.86687;0.258607;40.8918;85.8918;0.0055647;-0.000420311;-0.00222416;0.00323458;0.00190791;-0.0091858;0.0164068;0;0.0350453;2.58094;1.4546
187000;188;25.7941;0.0376658;0.00146239;-2.50537;25.6485;-1.101;-0.00396813;0.0229387;-0.417965;-0.068839;-0.335059;-0.139463;0.369396;-5.79546;-0.000271282;7.11794e-05;0.00187054;0.00187291;-0.000273645;0.00107328;0.145028;6.8952;0.0013491;0.00143103;6.8443;0.146107;123.06;168.06;-0.00337585;-0.000273533;0.00226959;-0.00212254;0.00186797;-0.00405243;0.0114435;0;0.0171214;-0.0745998;-0.354658;-0.554577;0.662497;-6.87884;-0.000319811;0.00053701;0.0019283;0.00204998;-0.0004415;0.00124574;0.165851;6.02949;0.00153513;0.00166099;4.64323;0.215368;40.4738;85.4738;0.00588723;-0.000325004;-0.00219881;0.00326668;0.00192603;-0.0101181;0.0158665;0;0.0312274;2.6462;1.46024
188000;189;25.7952;0.0388231;0.00150732;-2.50603;25.6497;-1.09961;-0.00462734;0.0240976;-0.41658;-0.0695541;-0.338349;-0.142356;0.373608;-5.79835;-0.000374793;0.000147795;0.00161956;0.00163045;-0.000385686;0.00100807;0.231417;4.32121;0.00123576;0.00134409;4.22741;0.236551;122.6;167.6;-0.00366525;-0.000376739;0.00227781;-0.00197798;0.00161698;-0.00325123;0.0115845;0;0.0159057;-0.0756721;-0.359193;-0.556504;0.666666;-6.88077;-0.000414295;0.000495573;0.00190646;0.00200786;-0.000515689;0.00126177;0.217311;4.60171;0.00153953;0.00168236;3.89354;0.256835;40.6781;85.6781;0.00627397;-0.000419952;-0.00241484;0.00339924;0.00190368;-0.0104435;0.0151074;0;0.0284552;2.72583;1.46773
189000;190;25.7952;0.0388199;0.00150719;-2.50654;25.6493;-1.10615;-0.00513603;0.0237635;-0.423119;-0.0704955;-0.339516;-0.147568;0.376852;-5.80357;-0.000404709;0.000184515;0.00102634;0.00104975;-0.000428117;0.000738934;0.394321;2.536;0.000878048;0.000985246;2.45202;0.407827;123.357;168.357;-0.00281037;-0.000406366;0.00220125;-0.00182934;0.00102394;-0.00408116;0.01274;0;0.0184038;-0.07708;-0.361287;-0.565414;0.675398;-6.88968;-0.00049752;0.00051125;0.00197572;0.00207723;-0.000599035;0.00133813;0.251817;3.97113;0.00162181;0.00178418;3.46763;0.288381;41.3612;86.3612;0.00581187;-0.000502663;-0.00223131;0.00324704;0.00197336;-0.00837693;0.0173063;0;0.0351415;2.81019;1.47177
190000;191;25.7949;0.0385015;0.00149483;-2.50753;25.6487;-1.11023;-0.00612951;0.02317;-0.427195;-0.0708682;-0.341957;-0.147491;0.379092;-5.80349;-0.000280624;0.000105974;0.00108697;0.00109513;-0.000288787;0.000691959;0.258171;3.8734;0.000843003;0.000922612;3.79218;0.263701;125.058;170.058;-0.00313511;-0.000282548;0.00217883;-0.00196405;0.0010846;-0.00358031;0.0116042;0;0.0163116;-0.0774106;-0.36374;-0.567332;0.678355;-6.8916;-0.000349686;0.000413055;0.00199969;0.0020702;-0.000420191;0.00124519;0.17487;5.71854;0.00153943;0.00166026;4.9268;0.202971;43.8551;88.8551;0.00523008;-0.000354433;-0.00228865;0.00310843;0.00199716;-0.00756038;0.0187501;0;0.0334517;2.87253;1.47763
191000;192;25.7965;0.0400611;0.00155538;-2.50677;25.6505;-1.1084;-0.00536713;0.0248922;-0.425365;-0.0719241;-0.345154;-0.146043;0.381619;-5.80204;-0.000288499;0.000162746;0.00114909;0.00116728;-0.000306693;0.000736987;0.251068;3.98298;0.000898047;0.000982649;3.80602;0.262741;122.55;167.55;-0.00281525;-0.00029019;0.00217445;-0.00184607;0.00114674;-0.00288312;0.0124247;0;0.0152737;-0.0786803;-0.367756;-0.567912;0.681146;-6.89218;-0.000472467;0.000424415;0.00214971;0.00221669;-0.00053945;0.00137807;0.219782;4.54996;0.00168661;0.00183743;4.10917;0.243358;44.9257;89.9257;0.00549379;-0.000477023;-0.00220571;0.00304765;0.00214737;-0.00865511;0.021246;0;0.030246;2.95655;1.48396
192000;193;25.7974;0.040938;0.00158943;-2.5076;25.6511;-1.11109;-0.00620399;0.0255757;-0.428059;-0.0730091;-0.346831;-0.150438;0.385037;-5.80644;-0.000224751;0.000184737;0.000901335;0.000930867;-0.000254283;0.000592575;0.249353;4.01038;0.000720456;0.0007901;3.66076;0.273168;121.197;166.197;-0.00281442;-0.000226467;0.00223371;-0.00186193;0.00089886;-0.00390024;0.0134651;0;0.0190546;-0.0801271;-0.370556;-0.573284;0.687304;-6.89755;-0.000495058;0.000421236;0.00217254;0.00223748;-0.000559994;0.00139874;0.227871;4.38845;0.00170917;0.00186498;3.99553;0.250279;44.865;89.865;0.00582452;-0.000499876;-0.00229652;0.00313175;0.00217;-0.0085438;0.0223013;0;0.0319741;3.02497;1.49165
193000;194;25.7968;0.0403615;0.00156705;-2.50677;25.6506;-1.1131;-0.00537295;0.0249901;-0.430068;-0.0746181;-0.350277;-0.149734;0.388178;-5.80573;-0.000207432;0.000105784;0.00097954;0.000988894;-0.000216786;0.00060284;0.211765;4.72222;0.000742155;0.000803787;4.56161;0.219221;124.731;169.731;-0.00253616;-0.000209433;0.00221692;-0.00200285;0.000977091;-0.00446509;0.0133833;0;0.0156332;-0.0816053;-0.374449;-0.573874;0.690074;-6.89814;-0.000363275;0.000490059;0.00229507;0.00238254;-0.000450738;0.00141664;0.158285;6.31773;0.00175797;0.00188885;5.28586;0.189184;44.9883;89.9883;0.00543615;-0.000368029;-0.00214848;0.0031216;0.00229289;-0.00755963;0.0234904;0;0.0295081;3.11128;1.49771
194000;195;25.7988;0.0423973;0.00164609;-2.50731;25.6526;-1.11264;-0.00591315;0.0270048;-0.429606;-0.0740871;-0.351314;-0.153849;0.390615;-5.80985;-0.000315611;0.000325831;0.000866763;0.000950608;-0.000399456;0.000675032;0.364126;2.7463;0.000800818;0.000900043;2.37976;0.420211;116.745;161.745;-0.00241132;-0.000317075;0.00239583;-0.00174172;0.000863949;-0.00413702;0.0131027;0;0.0151654;-0.081342;-0.376715;-0.578952;0.695496;-6.90322;-0.000413005;0.000440928;0.00230689;0.00237658;-0.000482699;0.00142964;0.179031;5.58562;0.0017674;0.00190619;4.92353;0.203106;45.6208;90.6208;0.00541241;-0.000417931;-0.00229446;0.00316889;0.00230436;-0.00820442;0.0236434;0;0.0288791;3.18204;1.50526
195000;196;25.8019;0.0455141;0.0017671;-2.508;25.6558;-1.10917;-0.00660314;0.030222;-0.426139;-0.0743094;-0.354134;-0.154242;0.393349;-5.81024;-0.000230363;0.000160733;0.00134906;0.00136525;-0.000246555;0.000805904;0.170758;5.85624;0.00100251;0.00107454;5.53733;0.180592;121.922;166.922;-0.00232883;-0.000232325;0.00231206;-0.0019872;0.00134641;-0.00476649;0.0138602;0;0.0163391;-0.0818589;-0.380612;-0.58153;0.699817;-6.9058;-0.000335644;0.00040947;0.002406;0.00246585;-0.000395492;0.00143067;0.139503;7.16831;0.00179035;0.00190756;6.23488;0.160388;47.2287;92.2287;0.00522344;-0.000340374;-0.00229076;0.00310231;0.00240346;-0.00810002;0.0244438;0;0.0286854;3.25898;1.51242
196000;197;25.8022;0.0457362;0.00177572;-2.50731;25.6559;-1.11341;-0.00590984;0.0303294;-0.430379;-0.0751696;-0.356853;-0.153932;0.395841;-5.80993;-0.000284156;0.000134044;0.00157389;0.00158351;-0.000293777;0.000938643;0.180544;5.53882;0.001166;0.00125152;5.39018;0.185522;123.043;168.043;-0.00251404;-0.000286499;0.00244072;-0.00216835;0.00157092;-0.00459026;0.0135019;0;0.0147094;-0.0828242;-0.384469;-0.58281;0.703096;-6.90708;-0.000340256;0.000420964;0.00250739;0.00256832;-0.000401182;0.00148475;0.135701;7.36915;0.00186042;0.00197967;6.40188;0.156204;47.7611;92.7611;0.00528831;-0.000345011;-0.00227765;0.00311191;0.0025049;-0.00862442;0.0244232;0;0.0317052;3.33966;1.52023
197000;198;25.8043;0.0478794;0.00185893;-2.50839;25.6579;-1.11387;-0.00699175;0.0323594;-0.430834;-0.0754201;-0.35938;-0.154454;0.39837;-5.81045;-0.000361599;0.000232029;0.00142801;0.0014576;-0.000391193;0.000924398;0.253219;3.94915;0.00112504;0.00123253;3.72604;0.268381;120.84;165.84;-0.00202396;-0.000363476;0.00241856;-0.0019506;0.00142512;-0.00644781;0.014063;0;0.0160623;-0.0833622;-0.388015;-0.583608;0.705764;-6.90787;-7.06544e-05;0.000468919;0.0025032;0.00258597;-0.000153423;0.00136969;0.0282257;35.4288;0.00177733;0.00182626;16.8551;0.0593291;47.9748;92.9748;0.00492993;-7.49618e-05;-0.00204084;0.00297223;0.00250123;-0.00778709;0.0237135;0;0.0359241;3.41069;1.52715
198000;199;25.806;0.0495811;0.001925;-2.50783;25.6598;-1.11161;-0.00643471;0.034223;-0.428579;-0.0761693;-0.362067;-0.156227;0.401624;-5.81223;-0.000361018;8.4513e-05;0.00169195;0.00169542;-0.000364491;0.00102996;0.213374;4.6866;0.00126934;0.00137327;4.65147;0.214986;124.492;169.492;-0.00263361;-0.000363431;0.00237169;-0.00219797;0.00168914;-0.00578243;0.0143131;0;0.0162263;-0.084147;-0.391668;-0.587403;0.711004;-6.91167;-0.000128908;0.000509489;0.00273075;0.00281881;-0.000216969;0.00151789;0.0472062;21.1837;0.00195555;0.00202385;12.9917;0.076972;48.5415;93.5415;0.00523511;-0.000133593;-0.00209138;0.00310294;0.0027287;-0.00647401;0.0220236;0;0.0385195;3.48249;1.53434
199000;200;25.8082;0.051823;0.00201204;-2.50738;25.6624;-1.10381;-0.00597994;0.036859;-0.420776;-0.0774007;-0.36535;-0.155211;0.404427;-5.81121;-0.000438071;0.000136889;0.00220548;0.00221255;-0.000445141;0.00132884;0.198629;5.03452;0.00164363;0.00177179;4.97044;0.201189;121.73;166.73;-0.00259397;-0.000440521;0.00249717;-0.00221717;0.00220238;-0.00541895;0.0144236;0;0.023408;-0.085601;-0.396698;-0.586513;0.713228;-6.91078;-6.4651e-05;0.000417507;0.00255627;0.00262117;-0.000129552;0.00137536;0.0252911;39.5395;0.00179219;0.00183382;20.2326;0.0494251;49.6348;94.6348;0.004592;-6.86956e-05;-0.00204597;0.00287454;0.00255427;-0.00578925;0.0191014;0;0.0442015;3.55954;1.54042
200000;201;25.809;0.0525855;0.00204165;-2.50626;25.663;-1.11131;-0.00485894;0.0374117;-0.428273;-0.0778676;-0.367874;-0.155736;0.406999;-5.81173;-0.000499621;-4.21533e-05;0.00227903;0.00227967;-0.00050026;0.00138996;0.219225;4.56151;0.00171108;0.00185329;4.55696;0.219444;126.085;171.085;-0.00363903;-0.00050288;0.00247557;-0.00255289;0.00227597;-0.00505482;0.0145359;0;0.0158212;-0.0860235;-0.400125;-0.590033;0.71808;-6.9143;-9.86113e-05;0.00041699;0.00274388;0.00280379;-0.000158521;0.00148115;0.0359387;27.8252;0.00192421;0.00197487;17.6872;0.056538;50.167;95.167;0.00474576;-0.000103192;-0.0022286;0.00305508;0.00274149;-0.00534374;0.0176294;0;0.0339338;3.63155;1.5448
201000;202;25.8092;0.0527987;0.00204993;-2.507;25.663;-1.11497;-0.00560457;0.0373943;-0.43194;-0.0788084;-0.369798;-0.160961;0.410937;-5.81696;-0.00049748;-1.18928e-05;0.00260754;0.00260759;-0.000497526;0.00155256;0.190785;5.24149;0.00192578;0.00207007;5.24111;0.190799;123.879;168.879;-0.00322197;-0.000500715;0.00252691;-0.00254283;0.00260436;-0.00683098;0.0156377;0;0.0155454;-0.0872444;-0.403578;-0.595508;0.72465;-6.91977;-1.34164e-05;0.00039632;0.00252591;0.00258633;-7.38336e-05;0.00133008;0.00531152;188.27;0.00174935;0.00177344;35.0292;0.0285476;50.5141;95.5141;0.00433813;-1.70596e-05;-0.00194152;0.00272824;0.00252411;-0.00387241;0.0148596;0;0.0299542;3.71986;1.55077
202000;203;25.8099;0.0534839;0.00207653;-2.50633;25.6637;-1.11498;-0.00493139;0.0381489;-0.431945;-0.0795926;-0.37229;-0.160849;0.413288;-5.81685;-0.000562307;2.95579e-06;0.00276415;0.00276415;-0.00056231;0.00166323;0.203429;4.91573;0.002056;0.00221764;4.91571;0.203429;122.907;167.907;-0.00317873;-0.000565348;0.00247949;-0.00246537;0.00276108;-0.0067835;0.0150591;0;0.0141614;-0.0880024;-0.407287;-0.597355;0.728327;-6.92162;-8.30713e-05;0.000374624;0.00257888;0.0026306;-0.000134788;0.00138269;0.0322122;31.0442;0.00180034;0.00184359;19.5165;0.0512387;51.4634;96.4634;0.00490859;-8.65489e-05;-0.00192046;0.00266361;0.00257711;-0.00569961;0.0169557;0;0.0296929;3.80026;1.5568
203000;204;25.8097;0.0532866;0.00206887;-2.50708;25.6633;-1.11808;-0.00567784;0.0377428;-0.435042;-0.0799635;-0.375111;-0.160832;0.415896;-5.81683;-0.000628667;0.000258316;0.00237904;0.00240106;-0.000650691;0.00152588;0.264253;3.78426;0.00185602;0.0020345;3.69002;0.271002;120.046;165.046;-0.00320896;-0.000630907;0.00265549;-0.00213167;0.00237555;-0.00736718;0.0147005;0;0.0145738;-0.0886162;-0.410923;-0.59725;0.730355;-6.92152;-0.000259802;0.000449051;0.00254366;0.00261383;-0.000329973;0.0014719;0.102137;9.79076;0.00186231;0.00196254;7.92134;0.126241;49.0329;94.0329;0.00510099;-0.00026366;-0.00192189;0.00281336;0.00254192;-0.00549416;0.0177078;0;0.0308834;3.87596;1.56414
204000;205;25.8093;0.0529143;0.00205441;-2.50602;25.6628;-1.12229;-0.00462544;0.0372874;-0.439252;-0.0807657;-0.378079;-0.159375;0.418171;-5.81537;-0.000633337;-4.51348e-05;0.00261636;0.00261699;-0.000633964;0.00162547;0.242068;4.13107;0.00198993;0.0021673;4.12797;0.24225;124.899;169.899;-0.00356186;-0.000636542;0.00244897;-0.00253116;0.00261337;-0.00669557;0.0145965;0;0.0159897;-0.0893853;-0.413492;-0.598808;0.733169;-6.92307;-0.000176039;0.000305485;0.00259356;0.00262685;-0.000209334;0.00141809;0.0678756;14.7328;0.00182502;0.00189079;12.5486;0.07969;52.213;97.213;0.00514441;-0.00017963;-0.00209246;0.0026968;0.00259142;-0.0057793;0.0180166;0;0.0314051;3.94237;1.5709
205000;206;25.8094;0.0530181;0.00205844;-2.50749;25.6627;-1.1239;-0.00609113;0.0371779;-0.440869;-0.0812981;-0.381023;-0.161665;0.42181;-5.81766;-0.000656691;0.000100725;0.00199841;0.00200222;-0.000660507;0.00133137;0.328607;3.04315;0.00160106;0.00177515;3.03135;0.329887;124.989;169.989;-0.00327072;-0.000659327;0.00250513;-0.00229731;0.00199528;-0.00632951;0.0147447;0;0.0163671;-0.0901706;-0.417209;-0.601263;0.737368;-6.92553;-0.000252207;0.000441534;0.00282101;0.00288319;-0.000314385;0.00159879;0.0894032;11.1853;0.00203503;0.00213172;9.17088;0.109041;50.8112;95.8112;0.00483315;-0.00025631;-0.00202235;0.00289787;0.00281907;-0.00547573;0.0199982;0;0.0312746;4.02374;1.57836
206000;207;25.8108;0.0543537;0.0021103;-2.50729;25.6641;-1.12326;-0.00588903;0.0385689;-0.44023;-0.0820952;-0.3837;-0.163873;0.425229;-5.81987;-0.000713304;0.00035764;0.00205487;0.00210033;-0.000758763;0.00142955;0.347129;2.88078;0.0017102;0.00190606;2.76809;0.361259;119.703;164.703;-0.00313959;-0.000715188;0.00269483;-0.0019731;0.00205131;-0.006078;0.0145701;0;0.0166863;-0.0912877;-0.420315;-0.604006;0.741499;-6.92827;-0.000291516;0.000328;0.00276799;0.00280276;-0.000326285;0.00156452;0.105317;9.49514;0.00198622;0.00208603;8.5899;0.116416;52.5263;97.5263;0.00477781;-0.000295237;-0.00209847;0.00274706;0.00276584;-0.00540016;0.0227419;0;0.0330352;4.11527;1.58513
207000;208;25.811;0.0545776;0.00211899;-2.50686;25.6643;-1.12508;-0.00546144;0.0387562;-0.442046;-0.0832201;-0.386055;-0.165179;0.428074;-5.82118;-0.000622291;0.000396334;0.00168872;0.0017548;-0.000688372;0.00122159;0.3685;2.71371;0.00145467;0.00162878;2.5492;0.39228;118.671;163.671;-0.00320336;-0.000623825;0.00259281;-0.00179508;0.00168544;-0.00647821;0.0138318;0;0.0161002;-0.0925466;-0.423178;-0.605456;0.744461;-6.92972;-0.000209114;0.00035099;0.00279786;0.00283829;-0.00024954;0.00154391;0.0747407;13.3796;0.00198062;0.00205855;11.3741;0.0879192;52.262;97.262;0.00472666;-0.000213045;-0.00213091;0.00282545;0.00279566;-0.00579807;0.0232891;0;0.0329964;4.17843;1.59261
208000;209;25.8121;0.0556797;0.00216178;-2.50698;25.6653;-1.12782;-0.00558334;0.0397326;-0.444784;-0.0837763;-0.388381;-0.168136;0.431425;-5.82413;-0.000603128;0.000297464;0.00174042;0.00177759;-0.000640295;0.00120894;0.346541;2.88566;0.00144653;0.00161192;2.7762;0.360204;120.547;165.547;-0.0029191;-0.000604859;0.00248371;-0.00188367;0.00173739;-0.00563268;0.0134855;0;0.0168426;-0.0930477;-0.426658;-0.609022;0.749402;-6.93329;-0.000272554;0.000358639;0.00308672;0.00312459;-0.000310415;0.0017175;0.0882987;11.3252;0.00219386;0.00229;10.0658;0.0993461;53.5258;98.5258;0.00455705;-0.00027667;-0.00218252;0.00289128;0.00308441;-0.00515188;0.0242546;0;0.0326204;4.2628;1.60036
209000;210;25.8138;0.057412;0.00222904;-2.50755;25.6671;-1.12608;-0.00615033;0.0414956;-0.443048;-0.0844835;-0.39141;-0.168932;0.434601;-5.82493;-0.000571056;0.000265993;0.00123506;0.00127342;-0.000609415;0.000941416;0.462372;2.16276;0.00110936;0.00125522;2.08957;0.478567;122.548;167.548;-0.00337544;-0.000572969;0.00250947;-0.00197344;0.00123195;-0.00380252;0.0143903;0;0.0160488;-0.0938954;-0.430627;-0.609726;0.752344;-6.93399;-0.000146225;0.000391385;0.00321563;0.0032606;-0.000191188;0.00172589;0.0454732;21.991;0.00224018;0.00230119;17.0544;0.058636;55.0323;100.032;0.00412609;-0.000149911;-0.00196821;0.00274307;0.00321378;-0.00481578;0.0265954;0;0.0307641;4.34491;1.60817
210000;211;25.8155;0.0590827;0.0022939;-2.50704;25.6686;-1.12935;-0.00564334;0.0430819;-0.446314;-0.0851629;-0.392823;-0.168032;0.435657;-5.82403;-0.000572407;0.000297033;0.00139522;0.00143908;-0.00061627;0.00102767;0.410264;2.43745;0.00121794;0.00137023;2.33514;0.428239;121.35;166.35;-0.00322043;-0.000574236;0.00253354;-0.00193508;0.00139205;-0.00493521;0.0137492;0;0.0155886;-0.0945961;-0.433124;-0.610714;0.754663;-6.93498;-0.000144178;0.000351899;0.00324937;0.00328547;-0.000180285;0.00173288;0.0443711;22.5372;0.00225282;0.00231051;18.2238;0.0548732;55.5551;100.555;0.00388649;-0.000147933;-0.00206712;0.00276273;0.0032473;-0.00587027;0.0264804;0;0.0311656;4.41265;1.61375
211000;212;25.8177;0.0613085;0.00238032;-2.50739;25.6708;-1.12947;-0.00598716;0.0452815;-0.446436;-0.0857655;-0.396404;-0.168845;0.439318;-5.82484;-0.000532632;9.12142e-05;0.00105591;0.00106113;-0.000537853;0.000799493;0.504429;1.98244;0.000939509;0.00106599;1.97291;0.506867;128.425;173.425;-0.0032914;-0.000535031;0.0023776;-0.00219155;0.00105309;-0.00377272;0.0134136;0;0.0155678;-0.0953588;-0.438317;-0.613214;0.759767;-6.93748;3.59574e-05;0.000421379;0.00334705;0.00339983;-1.6827e-05;0.00170833;-0.010743;-93.0838;0.00227218;0.00227777;202.046;0.00494936;56.304;101.304;0.00386815;3.24585e-05;-0.00184342;0.0026787;0.00334544;-0.00367397;0.0255242;0;0.0405489;4.49909;1.62002
212000;213;25.8212;0.0647899;0.00251549;-2.50849;25.6743;-1.12692;-0.00709575;0.0487865;-0.44389;-0.0865013;-0.399103;-0.169685;0.44222;-5.82568;-0.000567848;0.000335798;0.000713159;0.000795846;-0.000650535;0.000723191;0.796243;1.2559;0.000836472;0.000964254;1.22337;0.817413;120.182;165.182;-0.00275382;-0.000569494;0.00251954;-0.00184515;0.000710043;-0.00553623;0.0151157;0;0.0160449;-0.0962392;-0.442463;-0.615617;0.764212;-6.93988;1.79345e-05;0.000270101;0.00341733;0.00343866;-3.39275e-06;0.00172102;-0.00524811;-190.545;0.00229357;0.0022947;;;59.6509;104.651;0.00373083;1.49806e-05;-0.00191279;0.0024456;0.00341554;-0.00277568;0.0230877;0;0.0395019;4.57513;1.62447
213000;214;25.8221;0.0656572;0.00254916;-2.50868;25.6752;-1.12695;-0.00727651;0.0496399;-0.443914;-0.0864254;-0.401317;-0.171339;0.444839;-5.82734;-0.000606534;0.000307406;0.000921526;0.000981049;-0.000666057;0.000823553;0.658184;1.51933;0.000956736;0.00109807;1.47292;0.678923;121.971;166.971;-0.00275084;-0.000608293;0.00251818;-0.0019;0.000918406;-0.00494581;0.0144877;0;0.0147076;-0.0964205;-0.446237;-0.618103;0.768424;-6.94237;-5.75731e-05;0.000268212;0.00339717;0.00341787;-7.82719e-05;0.00174807;0.0169473;59.0063;0.00230512;0.00233076;43.6667;0.0229008;58.8266;103.827;0.00380993;-6.07374e-05;-0.00200126;0.00252987;0.00339521;-0.00243161;0.0218995;0;0.0411792;4.65022;1.62981
214000;215;25.8245;0.0680555;0.00264227;-2.50875;25.6775;-1.12876;-0.0073523;0.0519648;-0.445731;-0.0871083;-0.402521;-0.172441;0.446483;-5.82844;-0.000654345;0.000425019;0.00100477;0.00110731;-0.000756886;0.000932097;0.65124;1.53553;0.00108261;0.0012428;1.46298;0.683536;119.049;164.049;-0.00248157;-0.000655699;0.00255252;-0.00169896;0.0010016;-0.00535202;0.015497;0;0.0149152;-0.0972229;-0.448986;-0.620661;0.77218;-6.94493;5.98429e-06;0.000476245;0.00342619;0.00349127;-5.90921e-05;0.00177518;;;0.00234746;0.0023669;59.0817;0.0169257;56.8873;101.887;0.00403029;2.78792e-06;-0.00162754;0.00257285;0.00342498;-0.00136873;0.0195914;0;0.0436534;4.72647;1.63752
215000;216;25.8261;0.0697335;0.00270742;-2.50863;25.6793;-1.1273;-0.0072331;0.0537285;-0.444262;-0.0882817;-0.405588;-0.173698;0.449963;-5.8297;-0.000562291;0.000494014;0.000951551;0.0010985;-0.000709239;0.000903869;0.590921;1.69227;0.00105173;0.00120516;1.54884;0.645644;115.85;160.85;-0.00240233;-0.000563585;0.00267355;-0.00168223;0.000948102;-0.00586588;0.0162911;0;0.0139336;-0.0983699;-0.453903;-0.622451;0.776627;-6.94672;-0.000104842;0.000286641;0.00346673;0.00348959;-0.0001277;0.00180865;0.0302423;33.0663;0.00237011;0.00241153;27.3264;0.0365946;58.4116;103.412;0.00368333;-0.000108204;-0.00204369;0.00260867;0.00346469;-0.00227935;0.0182936;0;0.0363273;4.80697;1.64484
216000;217;25.8267;0.0702788;0.0027286;-2.50886;25.6797;-1.12894;-0.00746203;0.0541824;-0.445906;-0.0887672;-0.407893;-0.174131;0.452303;-5.83013;-0.000443274;0.000513164;0.000960964;0.0011285;-0.000610815;0.00086966;0.46128;2.16788;0.00101892;0.00115955;1.84754;0.54126;113.469;158.469;-0.00218998;-0.000444495;0.00267388;-0.00164452;0.000957524;-0.00657859;0.0138892;0;0.0151013;-0.0990145;-0.457369;-0.624232;0.780164;-6.9485;-0.000129812;0.000319102;0.00341633;0.00344481;-0.000158298;0.00180156;0.0379975;26.3175;0.00235108;0.00240207;21.7616;0.0459525;57.1891;102.189;0.00403792;-0.000133425;-0.00207696;0.0027067;0.00341423;-0.0038911;0.0183881;0;0.0309215;4.87915;1.65234
217000;218;25.8272;0.0707454;0.00274671;-2.5079;25.6803;-1.12881;-0.00650279;0.0547511;-0.445773;-0.0900165;-0.411591;-0.170968;0.454687;-5.82697;-0.000626361;0.000397164;0.00111276;0.00119917;-0.000712768;0.000955967;0.56289;1.77655;0.0011157;0.00127462;1.68241;0.594387;119.566;164.566;-0.00215306;-0.000627938;0.00261749;-0.00181931;0.00110942;-0.00731447;0.01577;0;0.0182793;-0.100273;-0.462119;-0.623223;0.782314;-6.94749;-0.000119703;0.000311188;0.00327316;0.00330146;-0.000148009;0.00172474;0.0365712;27.3439;0.00225193;0.00229965;22.3058;0.0448313;58.2208;103.221;0.00398263;-0.00012258;-0.00180355;0.00241877;0.00327158;-0.00387087;0.0187872;0;0.0324688;4.95649;1.66033
218000;219;25.829;0.0725547;0.00281695;-2.50874;25.6821;-1.12743;-0.00734147;0.0565492;-0.444399;-0.0906631;-0.414241;-0.17169;0.457485;-5.82769;-0.000687813;0.000580411;0.000917623;0.00110548;-0.000875667;0.000990572;0.749559;1.33412;0.00114638;0.00132076;1.26244;0.792117;115.492;160.492;-0.00171513;-0.000688845;0.00271323;-0.001549;0.000914114;-0.00889439;0.0169576;0;0.0198255;-0.100947;-0.465723;-0.624893;0.785862;-6.94916;-0.000354307;0.00027518;0.00337227;0.00339248;-0.000374517;0.0018835;0.105065;9.51795;0.00239627;0.00251133;9.05829;0.110396;57.1544;102.154;0.00448255;-0.000357724;-0.00208667;0.00262826;0.00337014;-0.00435584;0.0201571;0;0.0361361;5.03692;1.66766
219000;220;25.828;0.0715751;0.00277892;-2.5078;25.681;-1.13248;-0.00639903;0.0554339;-0.44945;-0.0908668;-0.414985;-0.173653;0.458939;-5.82965;-0.000723073;0.000631708;0.00141742;0.00158995;-0.000895599;0.00124277;0.510133;1.96027;0.00145358;0.00165703;1.77529;0.563288;115.319;160.319;-0.00201943;-0.000724191;0.00289108;-0.00162283;0.00141345;-0.00776804;0.0183362;0;0.0185749;-0.101168;-0.46708;-0.627823;0.789025;-6.95209;-0.000298319;0.000361797;0.00337559;0.00341088;-0.000333609;0.00187224;0.0883753;11.3154;0.00239289;0.00249633;10.2242;0.0978072;57.404;102.404;0.00439472;-0.000301344;-0.00177012;0.00248591;0.0033741;-0.00229262;0.0215343;0;0.0351588;5.10701;1.67505
220000;221;25.8297;0.0732497;0.00284394;-2.50867;25.6828;-1.1277;-0.00726919;0.0572435;-0.444666;-0.0914209;-0.416903;-0.177521;0.462255;-5.83352;-0.000609812;0.000669851;0.00163113;0.00181609;-0.000794775;0.00130543;0.37386;2.6748;0.00154535;0.00174057;2.28503;0.43763;113.468;158.468;-0.00260394;-0.000611042;0.00305014;-0.00170512;0.0016267;-0.00762395;0.0174599;0;0.0161125;-0.101905;-0.470118;-0.631069;0.793501;-6.95533;-0.000312646;0.000506014;0.00348701;0.00355325;-0.000378879;0.00196606;0.0896601;11.1532;0.00250469;0.00262142;9.37831;0.106629;54.58;99.58;0.00478591;-0.000316597;-0.00185279;0.00285588;0.00348543;-0.00355786;0.0212348;0;0.0293173;5.17329;1.68194
221000;222;25.8295;0.073037;0.00283568;-2.50849;25.6826;-1.12747;-0.00708998;0.0570573;-0.444435;-0.0930565;-0.419671;-0.177415;0.465037;-5.83341;-0.00095264;0.000608409;0.00178525;0.00191436;-0.00108175;0.00149806;0.533617;1.874;0.00175193;0.00199741;1.76969;0.565071;117.896;162.896;-0.00245472;-0.000953914;0.00293046;-0.0017073;0.00178115;-0.0084797;0.0177489;0;0.0185454;-0.103347;-0.473593;-0.631874;0.796389;-6.95614;-0.000406763;0.000243339;0.00361945;0.00363411;-0.000421416;0.00202776;0.112382;8.8982;0.00257473;0.00270368;8.62355;0.115961;58.6606;103.661;0.00536681;-0.000410138;-0.00213181;0.00260896;0.00361722;-0.00744285;0.0247575;0;0.0299677;5.25917;1.68904
222000;223;25.8296;0.073191;0.00284166;-2.50784;25.6826;-1.13366;-0.00643686;0.0570036;-0.450623;-0.093869;-0.423708;-0.177467;0.468865;-5.83347;-0.000842389;0.000712433;0.00194685;0.00211828;-0.00101382;0.00156605;0.432694;2.3111;0.00184542;0.00208807;2.0894;0.478607;115.024;160.024;-0.00311844;-0.0008436;0.00314257;-0.00171095;0.00194217;-0.00858069;0.0166709;0;0.0178925;-0.104239;-0.477837;-0.6328;0.799769;-6.95707;-0.000330656;0.000311236;0.00364902;0.00367321;-0.000354849;0.00201403;0.090615;11.0357;0.00257525;0.00268537;10.3515;0.0966046;58.3519;103.352;0.00471235;-0.000334073;-0.00201907;0.0026323;0.00364703;-0.0036656;0.0257912;0;0.0292487;5.33567;1.69503
223000;224;25.8303;0.0738666;0.00286789;-2.5074;25.6833;-1.13435;-0.00599762;0.0576952;-0.45132;-0.0946033;-0.426863;-0.176974;0.47168;-5.83297;-0.000841865;0.000534693;0.00159316;0.0017054;-0.000954101;0.00132975;0.528424;1.89242;0.00155575;0.001773;1.78744;0.559459;118.626;163.626;-0.0024994;-0.000843421;0.0029178;-0.00184262;0.00158905;-0.0091458;0.018316;0;0.0197176;-0.105144;-0.481895;-0.631977;0.801668;-6.95624;-0.000317563;0.000263136;0.00379021;0.003807;-0.00033435;0.00207067;0.083785;11.9353;0.00265647;0.0027609;11.3863;0.0878252;60.0719;105.072;0.00418089;-0.000320738;-0.0020162;0.00253315;0.00378822;-0.00424308;0.0253736;0;0.0289028;5.40241;1.69795
224000;225;25.832;0.0756295;0.00293634;-2.50746;25.685;-1.13474;-0.00606368;0.0594447;-0.451706;-0.0960614;-0.429046;-0.176728;0.473857;-5.83273;-0.000973715;0.000441276;0.00194366;0.00200894;-0.001039;0.00152397;0.50097;1.99613;0.00178919;0.00203196;1.93353;0.517188;120.959;165.959;-0.00275692;-0.000975638;0.00289908;-0.00200937;0.00193956;-0.00865236;0.0181178;0;0.0196458;-0.106533;-0.485062;-0.632777;0.804389;-6.95704;-0.000286583;0.000344972;0.00383527;0.00386394;-0.000315255;0.0020896;0.0747231;13.3827;0.00268722;0.00278613;12.2565;0.0815892;59.7931;104.793;0.00378934;-0.000289729;-0.00185057;0.00253149;0.00383362;-0.00174311;0.0257238;0;0.0320595;5.49982;1.70564
225000;226;25.8324;0.0760278;0.0029518;-2.50722;25.6853;-1.13805;-0.00581659;0.059723;-0.455015;-0.0970493;-0.431426;-0.180406;0.477591;-5.8364;-0.000870414;0.000432759;0.00218641;0.0022465;-0.000930499;0.0015885;0.398102;2.51192;0.00188596;0.002118;2.41429;0.4142;119.43;164.43;-0.0033073;-0.000872274;0.00284892;-0.00197603;0.00218246;-0.0077596;0.0187594;0;0.0139335;-0.107405;-0.487984;-0.636785;0.809419;-6.96105;-0.00026241;0.00033695;0.0040299;0.00405619;-0.0002887;0.00217244;0.0651157;15.3573;0.00280532;0.00289659;14.0499;0.0711751;60.6329;105.633;0.00456688;-0.000265655;-0.00190502;0.00256933;0.00402815;-0.00471439;0.0255885;0;0.0354806;5.55203;1.71117
226000;227;25.8356;0.0791976;0.00307487;-2.50765;25.6887;-1.13289;-0.00625288;0.0630965;-0.449853;-0.0983003;-0.433928;-0.181026;0.480341;-5.83702;-0.00079285;0.000548644;0.0015267;0.00164992;-0.000916075;0.001283;0.519323;1.92558;0.00150154;0.00171067;1.80108;0.555223;117.925;162.925;-0.00297572;-0.000794374;0.00293166;-0.00182886;0.00152256;-0.00743955;0.0198523;0;0.0131878;-0.108648;-0.492511;-0.63748;0.812866;-6.96175;-0.000196312;0.00031331;0.00414324;0.00416575;-0.000218815;0.00219228;0.0473811;21.1054;0.0028529;0.00292304;19.0377;0.0525273;61.7603;106.76;0.00397381;-0.000199458;-0.00191069;0.00252769;0.00414147;-0.00316009;0.0242313;0;0.0389511;5.63483;1.71876
227000;228;25.8376;0.0811723;0.00315154;-2.50833;25.6905;-1.13361;-0.00693243;0.0649842;-0.450576;-0.099575;-0.437511;-0.180173;0.483522;-5.83617;-0.000800207;0.000186186;0.00169476;0.00170858;-0.000814025;0.0012613;0.472165;2.1179;0.00148664;0.00168174;2.09893;0.476434;125.485;170.485;-0.00325804;-0.000802681;0.00260963;-0.00223123;0.00169138;-0.00735476;0.0167347;0;0.018997;-0.110265;-0.49712;-0.637796;0.816131;-6.96206;-0.000200645;0.000246735;0.00416919;0.00418308;-0.000214533;0.00219881;0.0481257;20.7789;0.00286291;0.00293174;19.4986;0.0512858;63.7355;108.735;0.0037857;-0.000203282;-0.00182505;0.0023095;0.00416756;-0.00235797;0.0251532;0;0.0457633;5.71875;1.72609
228000;229;25.8372;0.0807423;0.00313484;-2.50795;25.69;-1.13682;-0.00655005;0.0644473;-0.453785;-0.100933;-0.44106;-0.17615;0.485541;-5.83215;-0.000783847;0.000554143;0.00146906;0.00159799;-0.000912771;0.00125538;0.53357;1.87417;0.00146747;0.00167384;1.7507;0.571201;117.638;162.638;-0.00319907;-0.000785219;0.00285936;-0.0017459;0.00146513;-0.00673893;0.0172538;0;0.0220958;-0.111429;-0.500729;-0.636349;0.817365;-6.96061;-0.000266441;1.70192e-05;0.00411271;0.00411278;-0.000266507;0.00218964;0.0647847;15.4357;0.00283487;0.00291952;15.4322;0.0647997;64.3971;109.397;0.00367379;-0.00026926;-0.00235076;0.00237447;0.00410996;-0.00184108;0.0248935;0;0.0542149;5.7774;1.73266
229000;230;25.8389;0.0825158;0.0032037;-2.50792;25.6917;-1.13854;-0.00651905;0.0661578;-0.455507;-0.102938;-0.442253;-0.180989;0.488816;-5.83699;-0.000726618;0.000141482;0.00148895;0.00149795;-0.000735616;0.00111678;0.488006;2.04915;0.00131435;0.00148904;2.03632;0.491082;126.408;171.408;-0.00344578;-0.000728718;0.00234132;-0.00205349;0.00148622;-0.00563405;0.0173693;0;0.016094;-0.113283;-0.5038;-0.641376;0.823414;-6.96564;-0.000291277;0.000118113;0.00423043;0.00423352;-0.00029436;0.00226394;0.0688528;14.5237;0.0029254;0.00301858;14.3821;0.0695309;64.6497;109.65;0.00372134;-0.000293882;-0.00205894;0.00228536;0.00422833;-0.00246375;0.0231031;0;0.0407524;5.86566;1.74038
230000;231;25.8405;0.0840897;0.00326481;-2.50927;25.6933;-1.13638;-0.00786818;0.0677048;-0.453343;-0.10418;-0.444138;-0.18572;0.492548;-5.84172;-0.000523342;0.000246473;0.00156772;0.00159638;-0.000552001;0.00107419;0.333824;2.99559;0.00128829;0.00143225;2.89198;0.345783;121.792;166.792;-0.00405511;-0.000525309;0.00249564;-0.001998;0.00156464;-0.00447212;0.0150655;0;0.0170777;-0.114623;-0.507476;-0.645616;0.82915;-6.96988;-0.000268796;6.08254e-05;0.00423964;0.00424046;-0.000269616;0.00225504;0.0634005;15.7727;0.002921;0.00300672;15.7278;0.0635818;65.272;110.272;0.00324986;-0.000271351;-0.0021493;0.00226103;0.00423734;-0.00101491;0.0202801;0;0.0365594;5.93282;1.74767
231000;232;25.8405;0.0840435;0.00326301;-2.50858;25.6929;-1.14422;-0.0071814;0.0673773;-0.461186;-0.105447;-0.447113;-0.184003;0.49486;-5.84;-0.000592018;0.000163954;0.00126165;0.00127604;-0.000606407;0.000941224;0.469241;2.1311;0.00110952;0.00125496;2.10426;0.475226;125.659;170.659;-0.00433632;-0.000594111;0.00238395;-0.00205193;0.00125883;-0.00247176;0.0150279;0;0.0163817;-0.11579;-0.511415;-0.645991;0.83202;-6.97026;-0.000466759;8.11466e-05;0.00430573;0.00430711;-0.000468139;0.00238762;0.108404;9.22473;0.00303949;0.0031835;9.20049;0.10869;64.7353;109.735;0.00388282;-0.000469308;-0.00210675;0.00225865;0.00430352;-0.00274774;0.0216339;0;0.0322564;5.9998;1.7551
232000;233;25.8421;0.0856997;0.00332731;-2.50873;25.6945;-1.14597;-0.00732633;0.0689509;-0.462933;-0.107613;-0.449749;-0.18449;0.497887;-5.84049;-0.000448739;1.76836e-05;0.00145707;0.00145724;-0.000448903;0.00095307;0.307973;3.24704;0.00115069;0.00127076;3.24621;0.308051;127.765;172.765;-0.00416018;-0.000450958;0.00214531;-0.00210589;0.00145478;-0.00229444;0.0150327;0;0.0159384;-0.117876;-0.515386;-0.648476;0.836683;-6.97274;-0.000754524;0.000124035;0.00420026;0.00420337;-0.000757627;0.0024805;0.179637;5.56678;0.00308595;0.00330733;5.54807;0.180243;62.2539;107.254;0.00435133;-0.000757353;-0.00214434;0.00238122;0.00419798;-0.0048939;0.0221382;0;0.0276031;6.08438;1.76182
233000;234;25.8427;0.0863062;0.00335086;-2.50922;25.6951;-1.14612;-0.00782449;0.0695056;-0.463083;-0.108797;-0.451865;-0.185528;0.500439;-5.84153;-0.000352139;0.000264682;0.00165129;0.00168566;-0.000386518;0.00103609;0.213252;4.6893;0.00127234;0.00138145;4.36115;0.229297;119.158;164.158;-0.00400853;-0.000353877;0.00241614;-0.00188247;0.00164841;-0.00211901;0.0156;0;0.016715;-0.119454;-0.518757;-0.649625;0.839876;-6.97389;-0.000722292;2.46211e-05;0.00419671;0.00419683;-0.000722415;0.00245962;0.172109;5.81026;0.00306718;0.0032795;5.80944;0.172134;62.6582;107.658;0.00483058;-0.000725241;-0.00239022;0.00242763;0.00419386;-0.00567851;0.0223962;0;0.0278463;6.15468;1.76827
234000;235;25.8448;0.0883737;0.00343113;-2.50994;25.6972;-1.14375;-0.00854429;0.0716201;-0.460717;-0.1103;-0.454562;-0.184844;0.502952;-5.84084;-0.000366586;0.000229288;0.00132659;0.00135709;-0.000397086;0.00087709;0.276336;3.61878;0.00106213;0.00116945;3.41763;0.2926;120.912;165.912;-0.00389865;-0.00036828;0.00231704;-0.00185494;0.00132394;-0.00202692;0.0148056;0;0.0154389;-0.120989;-0.522198;-0.650923;0.843226;-6.97519;-0.00092316;-4.02197e-05;0.00420327;0.00420359;-0.000923476;0.00256353;0.219629;4.55314;0.00315559;0.00341804;4.55192;0.219687;63.0954;108.095;0.00503958;-0.000925758;-0.00237082;0.00227849;0.00420048;-0.00664949;0.0242168;0;0.0294733;6.2264;1.77238
235000;236;25.8455;0.0890661;0.00345801;-2.51109;25.6978;-1.14409;-0.00968756;0.0721895;-0.461059;-0.112341;-0.45633;-0.188159;0.506222;-5.84416;-0.000321286;0.000167701;0.00132125;0.0013382;-0.000338233;0.000838217;0.243168;4.11239;0.00102368;0.00111762;3.95644;0.252752;122.217;167.217;-0.00373922;-0.000322968;0.00217999;-0.00184128;0.00131889;-0.00292294;0.0145721;0;0.0167372;-0.123247;-0.524793;-0.653811;0.847388;-6.97808;-0.000895848;-1.82713e-05;0.0042822;0.00428226;-0.000895912;0.00258909;0.209203;4.78005;0.00319562;0.00345211;4.77978;0.209215;60.8382;105.838;0.00559629;-0.000899697;-0.00282451;0.0027735;0.00427822;-0.00733444;0.0249728;0;0.0285583;6.2802;1.77761
236000;237;25.8467;0.0902677;0.00350467;-2.51136;25.6989;-1.14492;-0.00996514;0.073334;-0.461889;-0.114119;-0.45875;-0.189357;0.509245;-5.84536;-0.000310099;0.000173887;0.0016195;0.00163504;-0.000325644;0.000980342;0.191479;5.22251;0.00121323;0.00130712;5.02095;0.199166;121.368;166.368;-0.00338151;-0.000312021;0.00231989;-0.00196798;0.00161682;-0.00310095;0.0149959;0;0.0190623;-0.125193;-0.528626;-0.654887;0.850879;-6.97915;-0.00101805;-0.000115331;0.00444496;0.00444739;-0.00102049;0.00273394;0.229035;4.36614;0.0033572;0.00364525;4.35811;0.229457;61.2624;106.262;0.00546172;-0.0010221;-0.00309108;0.00284424;0.00444021;-0.00853715;0.0255816;0;0.0286973;6.36266;1.78547
237000;238;25.8481;0.0916842;0.00355966;-2.51294;25.7003;-1.14301;-0.0115419;0.0746897;-0.459976;-0.115786;-0.461159;-0.189213;0.511737;-5.84521;-0.000247707;0.000389986;0.0018172;0.0018884;-0.000318906;0.00110365;0.136312;7.33608;0.0013776;0.00147154;5.92149;0.168877;114.319;159.319;-0.00311782;-0.000249069;0.00247975;-0.00169547;0.00181421;-0.00318294;0.0151668;0;0.0208844;-0.127566;-0.531774;-0.654688;0.853038;-6.97895;-0.000996578;-8.30782e-05;0.00466324;0.00466446;-0.000997798;0.00283113;0.213709;4.67925;0.00349011;0.00377484;4.67476;0.213915;60.8179;105.818;0.00527206;-0.0010014;-0.00328807;0.00310386;0.00465787;-0.00706122;0.0291953;0;0.0278145;6.41713;1.79185
238000;239;25.849;0.0925418;0.00359296;-2.51308;25.701;-1.14507;-0.0116814;0.0754468;-0.462039;-0.117369;-0.46387;-0.188465;0.514267;-5.84446;-0.000343884;0.000235454;0.00233977;0.00236027;-0.000364385;0.00136233;0.146974;6.80394;0.00170798;0.00181644;6.47739;0.154383;117.571;162.571;-0.00309522;-0.000345696;0.00239474;-0.00191805;0.00233693;-0.00377315;0.0157587;0;0.0223421;-0.129368;-0.535195;-0.655811;0.856304;-6.98008;-0.000946271;-1.64648e-05;0.00450843;0.00450848;-0.000946321;0.0027274;0.209889;4.76442;0.00336574;0.00363654;4.76422;0.209898;60.4485;105.449;0.00590779;-0.000950793;-0.00305537;0.00300594;0.00450379;-0.00905635;0.0312306;0;0.0257642;6.47595;1.79908
239000;240;25.8525;0.096036;0.00372862;-2.51353;25.7048;-1.13697;-0.0121305;0.0792769;-0.453934;-0.118503;-0.465655;-0.191531;0.517263;-5.84753;-0.000481605;0.000224149;0.00273387;0.00274942;-0.000497155;0.00162329;0.176162;5.67658;0.00201917;0.00216438;5.5303;0.180822;117.947;162.947;-0.00303434;-0.000483727;0.00252752;-0.00207183;0.00273071;-0.00449055;0.0156203;0;0.0199367;-0.130768;-0.538084;-0.659258;0.860962;-6.98352;-0.00107331;5.26348e-05;0.00484825;0.00484872;-0.00107378;0.00296125;0.221381;4.5171;0.00364353;0.00394833;4.51556;0.221456;61.4066;106.407;0.00546372;-0.00107744;-0.00278309;0.00287165;0.0048444;-0.00849101;0.0293383;0;0.0264984;6.52789;1.80624
240000;241;25.8542;0.0977917;0.00379679;-2.51364;25.7066;-1.13641;-0.0122433;0.0810562;-0.453379;-0.120084;-0.468258;-0.194421;0.521042;-5.85042;-0.000284053;0.000225484;0.0031114;0.00312631;-0.000298962;0.00171264;0.0912943;10.9536;0.00219067;0.00228352;10.4572;0.0956276;115.769;160.769;-0.00348884;-0.000286321;0.00259998;-0.00214098;0.00310806;-0.00346875;0.0160863;0;0.0204027;-0.13277;-0.541672;-0.662791;0.866215;-6.98706;-0.00098938;3.33099e-05;0.00499759;0.00499777;-0.000989565;0.00299367;0.197972;5.05123;0.00370601;0.00399156;5.05047;0.198001;61.6997;106.7;0.00514184;-0.000993896;-0.00295517;0.00300399;0.00499324;-0.00601982;0.0291377;0;0.0281063;6.58212;1.81396
241000;242;25.8536;0.0971885;0.00377337;-2.51476;25.7058;-1.13817;-0.0133582;0.0802627;-0.455136;-0.121389;-0.470371;-0.196268;0.523932;-5.85227;-0.000555633;0.000122416;0.00353108;0.00353475;-0.000559297;0.00204702;0.157355;6.35506;0.00256335;0.00272936;6.31998;0.158228;117.328;162.328;-0.00379868;-0.000558202;0.00252415;-0.00226954;0.00352792;-0.00306897;0.0168931;0;0.0198134;-0.134559;-0.544017;-0.666654;0.870912;-6.99092;-0.0011196;9.24215e-05;0.00482685;0.00482828;-0.00112104;0.00297466;0.231953;4.31122;0.00365037;0.00396621;4.30698;0.232181;60.0086;105.009;0.00580989;-0.00112436;-0.00291916;0.00308618;0.00482261;-0.00774273;0.0291831;0;0.0330981;6.61228;1.82107
242000;243;25.8534;0.0969792;0.00376524;-2.51517;25.7053;-1.14533;-0.0137739;0.0796935;-0.462297;-0.122737;-0.472583;-0.201186;0.528086;-5.85718;-0.000469161;0.000145889;0.00374399;0.00374904;-0.000474206;0.00211162;0.12531;7.98019;0.00267149;0.0028155;7.90592;0.126487;115.928;160.928;-0.00377285;-0.000471724;0.00257023;-0.00226827;0.00374071;-0.00338465;0.0160493;0;0.019493;-0.136381;-0.546899;-0.673477;0.878219;-6.99774;-0.00122258;0.000148643;0.00510781;0.0051113;-0.00122606;0.00316868;0.239354;4.17791;0.00388132;0.00422491;4.16887;0.239873;59.9205;104.92;0.00594137;-0.00122768;-0.00292008;0.00319804;0.00510358;-0.00905872;0.0257743;0;0.0344525;6.66217;1.82843
243000;244;25.8539;0.0975247;0.00378642;-2.51677;25.7057;-1.14391;-0.0153693;0.0801494;-0.460873;-0.124446;-0.474636;-0.204445;0.531568;-5.86044;-0.000472505;0.000138456;0.0041531;0.00415724;-0.000476646;0.00231694;0.113772;8.78953;0.00294327;0.00308926;8.72186;0.114654;114.953;159.953;-0.00400251;-0.000475226;0.00262462;-0.00233626;0.00414968;-0.00390184;0.0150027;0;0.0187217;-0.138917;-0.54864;-0.680312;0.884945;-7.00458;-0.00131849;0.000246183;0.00526854;0.00527773;-0.00132768;0.0033027;0.250257;3.99589;0.00403453;0.0044036;3.97516;0.251562;60.023;105.023;0.0056024;-0.0013234;-0.00266828;0.00314154;0.00526503;-0.00681462;0.0250346;0;0.0342436;6.69858;1.83578
244000;245;25.8533;0.0969022;0.00376226;-2.51588;25.705;-1.14842;-0.0144784;0.0794094;-0.465384;-0.125701;-0.479276;-0.201514;0.534896;-5.85751;-0.000543699;1.54488e-05;0.00408252;0.00408257;-0.000543751;0.00231316;0.133177;7.50878;0.00291989;0.00308421;7.50816;0.133188;117.239;162.239;-0.00363944;-0.00054683;0.00254413;-0.00250158;0.0040793;-0.00516529;0.0163591;0;0.0173345;-0.140599;-0.553842;-0.677455;0.886259;-7.00172;-0.00131887;0.000209011;0.00518211;0.00518882;-0.00132558;0.0032572;0.254505;3.9292;0.00397544;0.00434294;3.91437;0.255469;59.2371;104.237;0.00586303;-0.00132425;-0.00288741;0.0032854;0.00517798;-0.00751264;0.022402;0;0.0354253;6.74577;1.84309
245000;246;25.8536;0.0972308;0.00377501;-2.51684;25.7049;-1.15509;-0.0154393;0.0793471;-0.472051;-0.127477;-0.482515;-0.202802;0.538701;-5.8588;-0.000729522;5.69461e-05;0.0038546;0.00385531;-0.000730229;0.00229277;0.18926;5.28374;0.00284503;0.00305703;5.27959;0.189409;118.033;163.033;-0.00334535;-0.000732396;0.00252275;-0.0023976;0.00385143;-0.00563086;0.0153862;0;0.0174869;-0.143139;-0.557493;-0.679499;0.890508;-7.00376;-0.00121258;0.000336176;0.00523771;0.00525518;-0.00123005;0.00324262;0.23151;4.31947;0.00397739;0.00432349;4.27232;0.234065;59.1505;104.15;0.00523455;-0.00121796;-0.00264144;0.00329468;0.0052343;-0.00595686;0.0210105;0;0.0300175;6.7766;1.84703
246000;247;25.8541;0.0976719;0.00379214;-2.51793;25.7052;-1.1566;-0.0165313;0.0796158;-0.473564;-0.128993;-0.484125;-0.207644;0.54234;-5.86364;-0.000753618;9.5583e-06;0.00384363;0.00384365;-0.000753638;0.00229864;0.196069;5.10024;0.00284709;0.00306486;5.10013;0.196073;119.319;164.319;-0.00393461;-0.000756879;0.00258374;-0.00255283;0.00384031;-0.00464517;0.0154989;0;0.0175331;-0.145477;-0.559667;-0.687681;0.898496;-7.01195;-0.00111619;0.000333051;0.00493158;0.00494987;-0.00113448;0.00304217;0.226335;4.41823;0.00373594;0.00405623;4.36313;0.229193;58.5484;103.548;0.00492648;-0.00112136;-0.0025828;0.00323135;0.00492832;-0.00601698;0.0216376;0;0.0277054;6.82349;1.85565
247000;248;25.8531;0.0966529;0.00375258;-2.51808;25.7039;-1.16176;-0.016684;0.0783429;-0.47873;-0.129653;-0.486926;-0.20943;0.545681;-5.86543;-0.000686584;1.70451e-05;0.00382415;0.00382421;-0.000686648;0.00225543;0.179539;5.56982;0.0028065;0.00300724;5.56939;0.179553;118.518;163.518;-0.00391459;-0.000689576;0.00249081;-0.00244561;0.00382106;-0.00468523;0.0153177;0;0.0215485;-0.146407;-0.562792;-0.690463;0.902723;-7.01473;-0.0011027;0.000309516;0.00476462;0.0047809;-0.00111898;0.00294994;0.231435;4.32087;0.0036184;0.00393325;4.27254;0.234053;58.6545;103.654;0.00504224;-0.00110745;-0.00249371;0.00309637;0.00476157;-0.00665173;0.023561;0;0.033702;6.84954;1.85785
248000;249;25.8533;0.096901;0.00376221;-2.51841;25.7041;-1.16251;-0.0170133;0.0785266;-0.479473;-0.131103;-0.489381;-0.212823;0.549522;-5.86882;-0.000597367;-3.40348e-05;0.00377284;0.0037731;-0.000597632;0.00218537;0.158334;6.31578;0.00273645;0.00291382;6.31342;0.158393;119.082;164.082;-0.00428899;-0.000600513;0.00245055;-0.0025078;0.00376985;-0.00412223;0.0139679;0;0.0194275;-0.148624;-0.565048;-0.695754;0.908538;-7.02002;-0.00107446;0.000308049;0.00465856;0.00467507;-0.00109097;0.00288302;0.230643;4.33571;0.00353691;0.00384402;4.28525;0.233359;59.7534;104.753;0.00448141;-0.00107837;-0.00220736;0.0028091;0.00465619;-0.00533185;0.0254459;0;0.0336172;6.8927;1.86536
249000;250;25.8536;0.0971846;0.00377322;-2.51959;25.7042;-1.16333;-0.0181923;0.0786589;-0.4803;-0.13278;-0.491894;-0.215735;0.553291;-5.87173;-0.000604684;1.02747e-05;0.00330729;0.00330732;-0.000604711;0.00195601;0.182834;5.46946;0.00243164;0.00260802;5.46926;0.18284;120.089;165.089;-0.00394168;-0.000607517;0.00240962;-0.00237972;0.0033044;-0.003959;0.014102;0;0.0192857;-0.150943;-0.568161;-0.699111;0.913426;-7.02338;-0.000948794;0.000358181;0.00467906;0.00470177;-0.000971499;0.00283663;0.202774;4.93159;0.00350353;0.00378218;4.83971;0.206624;59.6611;104.661;0.00484821;-0.000952863;-0.00217145;0.00287364;0.00467678;-0.00660836;0.0259643;0;0.0309301;6.93197;1.87313
250000;251;25.854;0.097578;0.00378849;-2.51958;25.7046;-1.16388;-0.0181823;0.0790308;-0.480847;-0.1338;-0.494704;-0.214273;0.55547;-5.87027;-0.000607939;6.58015e-05;0.00363449;0.00363551;-0.00060896;0.00212224;0.167269;5.97838;0.00265009;0.00282965;5.97004;0.167503;118.22;163.22;-0.00415552;-0.00061077;0.00252172;-0.00237973;0.00363133;-0.0036925;0.013791;0;0.0188768;-0.152504;-0.570501;-0.69883;0.914927;-7.0231;-0.00083815;0.000308251;0.00477464;0.00479152;-0.000855028;0.00282327;0.175542;5.69664;0.0035142;0.00376436;5.60393;0.178446;61.1953;106.195;0.00485874;-0.000841943;-0.0021677;0.00277037;0.00477235;-0.00717801;0.027338;0;0.0344758;6.95882;1.88047
251000;252;25.8539;0.0975177;0.00378615;-2.51969;25.7044;-1.16695;-0.0182951;0.07882;-0.483915;-0.135546;-0.496879;-0.216592;0.558725;-5.87259;-0.000682656;0.000189305;0.00322129;0.00323045;-0.000691814;0.00196113;0.21192;4.71876;0.00241746;0.00261484;4.66953;0.214154;118.14;163.14;-0.00389886;-0.000685023;0.00257149;-0.00218361;0.00321801;-0.00391987;0.0134922;0;0.0189873;-0.154544;-0.573556;-0.701034;0.918857;-7.0253;-0.000913305;0.000408006;0.00478523;0.00481429;-0.000942369;0.00287833;0.190859;5.23947;0.00356541;0.00383777;5.10871;0.195744;61.2788;106.279;0.00444022;-0.00091676;-0.00185595;0.00265912;0.0047836;-0.00598988;0.0270338;0;0.0329473;6.99966;1.88786
252000;253;25.8571;0.100657;0.00390803;-2.52012;25.7077;-1.16212;-0.0187188;0.0821545;-0.479086;-0.136955;-0.499677;-0.221352;0.56341;-5.87735;-0.000733177;0.000134359;0.00311879;0.00312347;-0.000737858;0.00193066;0.235084;4.2538;0.00236692;0.00257422;4.23316;0.23623;119.554;164.554;-0.00377928;-0.000735635;0.00249826;-0.00222047;0.00311569;-0.00304796;0.0137142;0;0.019143;-0.156406;-0.577481;-0.705934;0.925359;-7.0302;-0.00081728;0.00038875;0.00502378;0.00504954;-0.000843039;0.00294629;0.162682;6.14695;0.0036797;0.00392838;5.98968;0.166954;62.6463;107.646;0.00411922;-0.000820732;-0.00189078;0.00265503;0.00502207;-0.00572667;0.028226;0;0.0289452;7.03827;1.89527
253000;254;25.8592;0.102808;0.00399156;-2.52018;25.7098;-1.16459;-0.0187852;0.0842003;-0.481557;-0.137943;-0.50331;-0.219339;0.566091;-5.87534;-0.000564382;0.000154946;0.00331253;0.00331871;-0.000570565;0.00194464;0.170378;5.8693;0.00242514;0.00259285;5.81653;0.171924;117.812;162.812;-0.00356168;-0.000566897;0.00256663;-0.00224742;0.00330926;-0.00340905;0.0133692;0;0.0173653;-0.157773;-0.581604;-0.705528;0.927861;-7.02979;-0.00067052;0.000346402;0.00518985;0.00521025;-0.000690924;0.00295059;0.129198;7.74003;0.00372523;0.00393412;7.54099;0.132609;65.1159;110.116;0.00367455;-0.000673478;-0.00177572;0.00245615;0.00518834;-0.00548125;0.029692;0;0.0318135;7.06878;1.90314
254000;255;25.8592;0.102813;0.00399175;-2.52014;25.7096;-1.16751;-0.0187399;0.0840774;-0.484474;-0.139557;-0.507194;-0.217325;0.569168;-5.87332;-0.000723514;0.000285805;0.00346797;0.00348737;-0.000742912;0.00211514;0.208627;4.79323;0.00260806;0.00282019;4.69419;0.213029;116.337;161.337;-0.00361506;-0.000725758;0.00271894;-0.00213717;0.00346433;-0.00294989;0.0134834;0;0.0168492;-0.159758;-0.586007;-0.703798;0.929654;-7.02806;-0.000569695;0.000403201;0.00535559;0.0053829;-0.000597005;0.00298995;0.106374;9.4008;0.00380325;0.0039866;9.01649;0.110908;68.2308;113.231;0.00270838;-0.00057188;-0.00133222;0.0021284;0.00535478;-0.00546628;0.0288855;0;0.035824;7.10565;1.90885
255000;256;25.8609;0.104449;0.00405525;-2.52045;25.7115;-1.16237;-0.0190534;0.0859243;-0.479338;-0.140111;-0.510738;-0.216203;0.572038;-5.8722;-0.000691789;0.000220664;0.00309294;0.00310577;-0.000704611;0.00190519;0.223667;4.47093;0.002341;0.00254025;4.40777;0.226872;118.061;163.061;-0.00327626;-0.000694006;0.00256666;-0.00211649;0.00308968;-0.0037227;0.0139546;0;0.0178787;-0.160792;-0.590151;-0.70303;0.931871;-7.0273;-0.000466968;0.000495081;0.00558235;0.0056226;-0.000507218;0.00306491;0.0836509;11.9545;0.0039284;0.00408654;11.0852;0.0902106;67.5658;112.566;0.00440221;-0.000469549;-0.00134561;0.0023247;0.00558157;-0.00449178;0.0269873;0;0.04211;7.14262;1.91573
256000;257;25.8621;0.105647;0.00410177;-2.52063;25.7128;-1.16047;-0.0192316;0.0871982;-0.477431;-0.14157;-0.510948;-0.223627;0.57543;-5.87963;-0.000694896;0.000263009;0.00351747;0.00353383;-0.000711254;0.00212254;0.197555;5.06187;0.00262529;0.00283006;4.96845;0.20127;116.42;161.42;-0.00333547;-0.00069724;0.00271703;-0.00218071;0.00351383;-0.00450276;0.0142681;0;0.0175322;-0.162503;-0.591753;-0.711213;0.939363;-7.03548;-0.000546463;0.00036496;0.00541918;0.00544142;-0.000568708;0.00300506;0.100839;9.91682;0.00383128;0.00400675;9.56805;0.104515;68.0265;113.026;0.00423497;-0.000548816;-0.00148027;0.00219924;0.00541815;-0.00331992;0.0270976;0;0.0430331;7.16899;1.91909
257000;258;25.8635;0.107132;0.00415944;-2.52033;25.7143;-1.15926;-0.0189269;0.0887764;-0.476225;-0.143509;-0.514461;-0.224149;0.579231;-5.88015;-0.00088288;0.000281286;0.00346805;0.00348616;-0.00090099;0.00219357;0.254575;3.92811;0.00267549;0.00292477;3.86926;0.258448;116.924;161.924;-0.00324119;-0.000884994;0.00264724;-0.00207441;0.0034646;-0.00490184;0.0143667;0;0.0186512;-0.164586;-0.596249;-0.712015;0.943168;-7.03628;-0.000409414;0.000369921;0.00541704;0.00544043;-0.000432806;0.00293662;0.075579;13.2312;0.00377949;0.00391549;12.5701;0.0795537;67.5082;112.508;0.00414723;-0.000412012;-0.00158049;0.00230902;0.00541586;-0.00311195;0.0249099;0;0.0467509;7.20864;1.92436
258000;259;25.8648;0.108351;0.00420675;-2.52001;25.7155;-1.1603;-0.0186109;0.089986;-0.477266;-0.144475;-0.51715;-0.226998;0.582963;-5.883;-0.000911328;0.000318108;0.00348382;0.00350672;-0.000934232;0.00222048;0.261589;3.82279;0.00270357;0.00296063;3.75358;0.266412;117.422;162.422;-0.00344123;-0.000913742;0.00286646;-0.00221908;0.00347977;-0.00548522;0.0156796;0;0.0196728;-0.165807;-0.599785;-0.716945;0.949338;-7.04121;-0.000522775;0.000265398;0.00545398;0.00546574;-0.000534536;0.00300014;0.095852;10.4328;0.00383445;0.00400018;10.2252;0.0977976;69.4416;114.442;0.00379238;-0.000524862;-0.00153967;0.00205974;0.00545283;-0.00322458;0.0235534;0;0.0405005;7.23795;1.93118
259000;260;25.8655;0.10909;0.00423544;-2.52023;25.7165;-1.15538;-0.0188302;0.0909292;-0.47235;-0.145971;-0.519061;-0.230116;0.586247;-5.88611;-0.000877818;0.000354003;0.00387037;0.00389662;-0.000904066;0.00240034;0.226804;4.40909;0.00294572;0.00320046;4.31011;0.232013;115.383;160.383;-0.00351396;-0.000880098;0.00288386;-0.00216389;0.0038663;-0.00538844;0.0157182;0;0.0182865;-0.167535;-0.602475;-0.719692;0.953415;-7.04396;-0.000552168;0.00015608;0.00560672;0.00561068;-0.000556121;0.0030834;0.0984832;10.154;0.00393893;0.0041112;10.089;0.0991183;69.9127;114.913;0.00327202;-0.00055432;-0.00177952;0.00207983;0.00560516;-0.00302174;0.0225227;0;0.0370008;7.2703;1.93689
260000;261;25.8667;0.110332;0.00428368;-2.52027;25.7176;-1.15799;-0.018866;0.0920584;-0.474951;-0.14756;-0.52126;-0.233062;0.589749;-5.88906;-0.00100355;0.000426199;0.00396152;0.00399784;-0.00103987;0.00251885;0.253325;3.94749;0.0030711;0.00335847;3.84455;0.260109;114.952;159.952;-0.00309359;-0.00100567;0.00296707;-0.00210211;0.00395722;-0.00659482;0.0167365;0;0.0199672;-0.169282;-0.605865;-0.722897;0.958284;-7.04716;-0.000520417;0.000199114;0.00573764;0.00574396;-0.000526745;0.00313535;0.0907023;11.0251;0.00401642;0.00418047;10.9046;0.0917042;70.2243;115.224;0.00310777;-0.000522579;-0.00170206;0.00208846;0.00573621;-0.00347528;0.0209529;0;0.0352413;7.31145;1.94442
261000;262;25.8668;0.110337;0.00428386;-2.52004;25.7175;-1.16104;-0.0186434;0.091947;-0.478005;-0.148305;-0.524094;-0.232802;0.592339;-5.8888;-0.00108122;0.000307449;0.00381391;0.00383314;-0.00110045;0.0024668;0.283493;3.52742;0.00299051;0.00328906;3.48325;0.287088;118.011;163.011;-0.00290829;-0.00108405;0.00302773;-0.00239957;0.00380939;-0.00807794;0.0169971;0;0.0178722;-0.170352;-0.609253;-0.723755;0.961265;-7.04802;-0.000651452;0.000321551;0.00560911;0.00562558;-0.000667924;0.00314675;0.116142;8.61017;0.0039917;0.00419567;8.42249;0.11873;67.8779;112.878;0.00332573;-0.000654013;-0.00165423;0.00228503;0.0056078;-0.00396192;0.020955;0;0.0310992;7.33656;1.95186
262000;263;25.8668;0.110405;0.00428652;-2.52083;25.7173;-1.16448;-0.0194283;0.0917837;-0.481444;-0.150701;-0.527404;-0.236078;0.597159;-5.89208;-0.00101022;0.000494401;0.00370847;0.00375972;-0.00106146;0.00241059;0.272407;3.67097;0.00292521;0.00321412;3.54203;0.282324;115.496;160.496;-0.00316262;-0.00101238;0.00313909;-0.00213785;0.00370369;-0.00821511;0.0174194;0;0.0191832;-0.172692;-0.613847;-0.72622;0.966451;-7.05049;-0.000701002;0.000238358;0.00542555;0.00543481;-0.000710261;0.00307253;0.129204;7.73971;0.00388168;0.00409671;7.65184;0.130687;68.1781;113.178;0.00359489;-0.000703318;-0.00169987;0.00216477;0.00542414;-0.00598401;0.0214699;0;0.0310159;7.37223;1.95974
263000;264;25.865;0.108575;0.00421546;-2.51982;25.7153;-1.17022;-0.018423;0.0897805;-0.487186;-0.151437;-0.530055;-0.235887;0.599612;-5.89188;-0.00107112;0.000328693;0.0040216;0.00404272;-0.00109225;0.00256749;0.266343;3.75455;0.00312355;0.00342332;3.70128;0.270177;117.061;162.061;-0.00314057;-0.00107393;0.00306095;-0.00238971;0.00401698;-0.00817029;0.0178873;0;0.0162968;-0.173726;-0.616995;-0.726617;0.968935;-7.05088;-0.000753655;0.000395852;0.00553719;0.005562;-0.000778466;0.00317023;0.136108;7.34712;0.00399287;0.00422698;7.14483;0.139961;65.5426;110.543;0.00444031;-0.00075678;-0.00175214;0.0025304;0.00553574;-0.00624338;0.0219938;0;0.0310075;7.40287;1.96608
264000;265;25.8656;0.109164;0.00423833;-2.52052;25.7159;-1.17005;-0.0191179;0.0903128;-0.487013;-0.152598;-0.53234;-0.236835;0.602298;-5.89283;-0.0011051;0.000445671;0.00344995;0.00349315;-0.00114829;0.00232072;0.320322;3.12186;0.0027914;0.00309429;3.04204;0.328727;117.015;162.015;-0.00348705;-0.00110717;0.00298723;-0.00208435;0.00344561;-0.00752141;0.0186431;0;0.0175842;-0.175175;-0.619928;-0.727924;0.972044;-7.05219;-0.000817732;0.000416266;0.00544581;0.00547335;-0.000845276;0.00315931;0.150158;6.65964;0.00396084;0.00421242;6.47522;0.154435;65.4045;110.405;0.00431893;-0.000820704;-0.00165275;0.00247239;0.00544453;-0.0080096;0.0226851;0;0.03193;7.43464;1.97356
265000;266;25.8679;0.111472;0.00432795;-2.52065;25.7183;-1.16804;-0.0192498;0.0927127;-0.485006;-0.153682;-0.535075;-0.239348;0.605979;-5.89535;-0.00113495;0.000604299;0.00319487;0.00327763;-0.00121771;0.00224767;0.355241;2.81499;0.00268468;0.00299689;2.69164;0.371521;116.421;161.421;-0.00365116;-0.00113679;0.00322768;-0.00200777;0.00318986;-0.00705661;0.018479;0;0.0179231;-0.176465;-0.623365;-0.72985;0.975913;-7.05412;-0.000865294;0.000587767;0.00561235;0.00566525;-0.000918194;0.00329172;0.154177;6.48607;0.00411717;0.00438897;6.16999;0.162075;64.8409;109.841;0.00431456;-0.000868456;-0.00141902;0.00258163;0.00561152;-0.005934;0.0241476;0;0.0310732;7.4701;1.98072
266000;267;25.8682;0.111739;0.00433829;-2.52059;25.7186;-1.16662;-0.0191911;0.0930511;-0.483584;-0.15495;-0.538953;-0.237991;0.609196;-5.89399;-0.00120135;0.000482219;0.00351271;0.00356153;-0.00125017;0.00240585;0.342001;2.92397;0.00288289;0.0032078;2.84883;0.351021;117.472;162.472;-0.00337764;-0.00120361;0.0031585;-0.0021815;0.00350785;-0.00707055;0.0173101;0;0.0191483;-0.17804;-0.627544;-0.72802;0.977509;-7.05229;-0.000780127;0.00049974;0.00592161;0.00595867;-0.000817187;0.00338793;0.131743;7.59056;0.00427098;0.00451724;7.29168;0.137143;66.896;111.896;0.00399383;-0.000783101;-0.0015023;0.00248844;0.00592061;-0.00459953;0.0254533;0;0.0289612;7.49781;1.98858
267000;268;25.8698;0.113434;0.00440412;-2.52105;25.7202;-1.16749;-0.019646;0.0946724;-0.484456;-0.155907;-0.539945;-0.242365;0.612037;-5.89836;-0.00128674;0.000367897;0.00311495;0.00314548;-0.00131727;0.00223138;0.413085;2.42081;0.00264766;0.00297517;2.38787;0.418783;120.82;165.82;-0.00405177;-0.00128935;0.0030613;-0.00231369;0.00311034;-0.00635625;0.0174299;0;0.0192341;-0.179222;-0.63012;-0.73113;0.981694;-7.0554;-0.000825428;0.000588656;0.00599866;0.00604906;-0.000875834;0.00346245;0.137602;7.26733;0.00435412;0.0046166;6.90664;0.144788;67.9608;112.961;0.00425734;-0.000828023;-0.0011868;0.00235206;0.00599813;-0.00542738;0.0264848;0;0.0279808;7.52587;1.99095
268000;269;25.8712;0.114759;0.00445556;-2.52065;25.7215;-1.16952;-0.0192465;0.0959518;-0.486486;-0.157663;-0.542606;-0.244606;0.61572;-5.9006;-0.00110729;0.00069867;0.0027388;0.00286179;-0.00123028;0.00204603;0.404297;2.47343;0.00242434;0.00272804;2.32614;0.429898;116.169;161.169;-0.00401925;-0.00110879;0.00327275;-0.00186554;0.00273371;-0.00617471;0.0172662;0;0.0202644;-0.181113;-0.634337;-0.732506;0.985774;-7.05677;-0.000707506;0.000570193;0.00626021;0.00630657;-0.000753858;0.00353021;0.113016;8.84829;0.00447687;0.00470695;8.36572;0.119535;69.2454;114.245;0.00402571;-0.000710034;-0.00119105;0.00231924;0.00625967;-0.0046795;0.0287385;0;0.0293504;7.56765;2.00176
269000;270;25.8727;0.116235;0.00451287;-2.52105;25.723;-1.16969;-0.0196509;0.0973893;-0.486652;-0.159437;-0.543749;-0.248761;0.618842;-5.90476;-0.00114537;0.000519157;0.00216496;0.00224447;-0.00122488;0.00173468;0.52905;1.89018;0.00203166;0.0023129;1.8324;0.545733;120.653;165.653;-0.00309205;-0.00114734;0.00309745;-0.00205062;0.00216031;-0.00736123;0.0178431;0;0.0199851;-0.18296;-0.636753;-0.736432;0.990586;-7.0607;-0.000971021;0.00048236;0.00644018;0.00647144;-0.00100228;0.00373686;0.150775;6.63238;0.00468427;0.00498249;6.4567;0.154878;68.4;113.4;0.00435576;-0.000973916;-0.00150279;0.00245289;0.00643918;-0.0073974;0.0267337;0;0.0302928;7.58687;2.00333
270000;271;25.8748;0.118381;0.00459617;-2.52183;25.725;-1.16934;-0.020432;0.0994864;-0.486311;-0.160764;-0.546746;-0.250231;0.622408;-5.90623;-0.00109122;0.000613393;0.00256106;0.00266133;-0.00119149;0.00192641;0.426082;2.34697;0.00227774;0.00256854;2.23362;0.447704;117.772;162.772;-0.00366317;-0.00109299;0.0032137;-0.00197745;0.0025561;-0.00767745;0.0161811;0;0.0181726;-0.184685;-0.641313;-0.737669;0.994759;-7.06194;-0.000902301;0.000440561;0.0064521;0.0064784;-0.000928599;0.0037035;0.139846;7.15072;0.00465941;0.004938;6.97654;0.143338;68.2229;113.223;0.00473443;-0.000905358;-0.00164444;0.00251032;0.00645086;-0.00541616;0.025854;0;0.0372324;7.62779;2.01137
271000;272;25.8758;0.119365;0.00463438;-2.52201;25.726;-1.1691;-0.0206142;0.100469;-0.486063;-0.162737;-0.548629;-0.25302;0.625697;-5.90902;-0.00105321;0.000486024;0.00211212;0.00218507;-0.00112616;0.00165561;0.49865;2.00541;0.00194405;0.00220748;1.94029;0.515387;120.861;165.861;-0.00407963;-0.00105552;0.00318247;-0.00220191;0.00210719;-0.00506083;0.0166431;0;0.0178818;-0.186706;-0.644628;-0.739931;0.998951;-7.0642;-0.00109635;0.000429152;0.00648483;0.00650904;-0.00112056;0.0038148;0.169063;5.91494;0.00475708;0.0050864;5.80873;0.172155;67.7521;112.752;0.00505053;-0.00109947;-0.00169401;0.00253632;0.00648349;-0.00638302;0.0251951;0;0.0424859;7.65112;2.01857
272000;273;25.8772;0.120821;0.00469093;-2.52272;25.7276;-1.16571;-0.0213241;0.102019;-0.482671;-0.16449;-0.549647;-0.257464;0.628853;-5.91346;-0.00100162;0.000605507;0.00214781;0.00226021;-0.00111402;0.00168711;0.466344;2.14434;0.00198522;0.00224949;2.02888;0.492884;117.909;162.909;-0.00367577;-0.00100316;0.00307679;-0.00185801;0.00214327;-0.00556988;0.0171567;0;0.0182443;-0.188724;-0.647276;-0.74406;1.0041;-7.06833;-0.0011069;0.000347606;0.00651346;0.00652929;-0.00112273;0.00382601;0.169941;5.8844;0.00477134;0.00510134;5.81556;0.171952;67.0371;112.037;0.00537334;-0.00111042;-0.00199616;0.00267362;0.00651154;-0.00816447;0.0241886;0;0.0499428;7.68045;2.02535
273000;274;25.8785;0.122126;0.00474159;-2.52312;25.7288;-1.16647;-0.0217222;0.103258;-0.483435;-0.165581;-0.553787;-0.252773;0.630865;-5.90877;-0.00112167;0.000491908;0.00186877;0.0019476;-0.00120051;0.00157405;0.600219;1.66606;0.00183454;0.00209874;1.62232;0.616402;121.72;166.72;-0.00332094;-0.0011237;0.00306461;-0.00207311;0.0018642;-0.00524552;0.0182109;0;0.0204023;-0.190017;-0.651691;-0.741272;1.00513;-7.06554;-0.00107714;0.000356673;0.00677127;0.00678745;-0.00109331;0.00394038;0.159074;6.28637;0.00492998;0.00525384;6.20816;0.161078;68.2556;113.256;0.00462321;-0.00108047;-0.00190868;0.00260436;0.00676952;-0.00494028;0.0230308;0;0.0355312;7.71284;2.03251
274000;275;25.8794;0.122953;0.00477367;-2.52342;25.7294;-1.17086;-0.0220175;0.10386;-0.487827;-0.167414;-0.556247;-0.254325;0.634129;-5.91032;-0.000950103;0.000536261;0.00264242;0.00272076;-0.00102844;0.0018746;0.359558;2.78119;0.0022369;0.00249947;2.64551;0.377999;117.513;162.513;-0.00315145;-0.000952005;0.00310383;-0.00202211;0.00263776;-0.00543291;0.0164392;0;0.0194146;-0.191895;-0.655837;-0.743872;1.01009;-7.06814;-0.00130614;0.000378789;0.00696269;0.00698001;-0.00132346;0.00415173;0.187591;5.33074;0.00515147;0.00553564;5.27407;0.189607;68.3411;113.341;0.00386143;-0.00130944;-0.00185489;0.00259412;0.00696105;-0.00361513;0.0217787;0;0.0345652;7.73893;2.03947
275000;276;25.8808;0.124393;0.0048296;-2.52498;25.7308;-1.16906;-0.0235768;0.105238;-0.486022;-0.168667;-0.557699;-0.257358;0.636954;-5.91336;-0.000987361;0.000458902;0.00282991;0.0028843;-0.00104175;0.00196303;0.348902;2.86613;0.00234844;0.00261737;2.7687;0.361181;118.461;163.461;-0.00334672;-0.000989551;0.00306905;-0.00214132;0.00282532;-0.00555012;0.0170021;0;0.0194357;-0.193763;-0.6593;-0.745535;1.01392;-7.0698;-0.00137774;0.000394231;0.00724966;0.00726764;-0.00139572;0.00433168;0.190043;5.26198;0.00537112;0.00577557;5.20708;0.192046;67.499;112.499;0.00389417;-0.0013817;-0.00207044;0.00283779;0.00724761;-0.00394768;0.0214214;0;0.0298482;7.76394;2.04712
276000;277;25.8811;0.124655;0.00483978;-2.52528;25.7308;-1.1746;-0.0238806;0.10522;-0.491562;-0.170944;-0.56069;-0.257456;0.640218;-5.91345;-0.0008534;0.000500122;0.00252092;0.00259349;-0.000925965;0.00175973;0.338527;2.95397;0.00210661;0.0023463;2.80085;0.357035;117.629;162.629;-0.00361297;-0.000855355;0.00304777;-0.00203895;0.00251641;-0.00386487;0.0168841;0;0.0314499;-0.196306;-0.663581;-0.748781;1.01958;-7.07305;-0.00166848;0.000445764;0.00717008;0.0071925;-0.0016909;0.0044417;0.2327;4.29738;0.00544684;0.00592227;4.25365;0.235092;64.9906;109.991;0.0041622;-0.00167327;-0.00225754;0.00312535;0.00716764;-0.00674289;0.0209316;0;0.0334439;7.79407;2.05391
277000;278;25.882;0.125579;0.00487564;-2.52587;25.7316;-1.17511;-0.0244727;0.106067;-0.49208;-0.172108;-0.5617;-0.262045;0.64327;-5.91804;-0.000809938;0.000367814;0.00318171;0.00321532;-0.000843547;0.00202943;0.254561;3.92833;0.00247315;0.00270591;3.81166;0.262353;117.383;162.383;-0.00341126;-0.000812302;0.00295055;-0.00220465;0.00317744;-0.00480446;0.0175351;0;0.028515;-0.198011;-0.666263;-0.754453;1.02582;-7.07872;-0.00189241;0.000509058;0.00708064;0.00710943;-0.0019212;0.00451531;0.267265;3.7416;0.00549317;0.00602042;3.70052;0.270232;63.9748;108.975;0.00415286;-0.00189726;-0.00216021;0.00315454;0.00707845;-0.0071817;0.0232762;0;0.0381288;7.82143;2.06093
278000;279;25.8811;0.124696;0.00484137;-2.52595;25.7306;-1.17873;-0.0245465;0.105007;-0.495696;-0.173856;-0.564563;-0.263116;0.646674;-5.91911;-0.000781241;0.000329004;0.00359244;0.00361705;-0.000805851;0.00221145;0.217468;4.59837;0.00272007;0.0029486;4.48848;0.222793;116.007;161.007;-0.00336537;-0.000783534;0.00283486;-0.00216594;0.00358849;-0.00433754;0.0176379;0;0.019406;-0.200261;-0.67036;-0.754476;1.02894;-7.07874;-0.00207436;0.000557676;0.00724587;0.00727912;-0.00210761;0.00469336;0.286281;3.49307;0.00568699;0.00625782;3.45374;0.289541;63.7404;108.74;0.00431558;-0.00207935;-0.00211441;0.00320503;0.0072438;-0.00913165;0.0265605;0;0.0317388;7.84856;2.06802
279000;280;25.8832;0.126737;0.0049206;-2.52668;25.7325;-1.17887;-0.0252777;0.106981;-0.49584;-0.175595;-0.566904;-0.260946;0.648311;-5.91694;-0.000825113;0.00031534;0.00358854;0.00361096;-0.000847529;0.00222924;0.22993;4.34916;0.00273396;0.00297233;4.26057;0.23471;116.436;161.436;-0.00351113;-0.000827444;0.00282301;-0.0021813;0.00358462;-0.00520349;0.0172689;0;0.02144;-0.202359;-0.673425;-0.755749;1.03228;-7.08001;-0.00221673;0.000492796;0.00751754;0.00754242;-0.00224162;0.00489202;0.294875;3.39127;0.00591872;0.00652269;3.36472;0.297201;64.5962;109.596;0.00440934;-0.00222156;-0.00218353;0.00314326;0.00751529;-0.00906598;0.0289872;0;0.0336513;7.87777;2.07129
280000;281;25.8825;0.12612;0.00489664;-2.52635;25.7318;-1.18268;-0.0249533;0.106217;-0.499648;-0.177267;-0.56932;-0.261013;0.650904;-5.91701;-0.000755046;0.000268252;0.00382397;0.00383963;-0.000770708;0.00230517;0.197451;5.06455;0.00285159;0.00307356;4.98196;0.200724;116.489;161.489;-0.00408453;-0.000757791;0.00290599;-0.00235746;0.0038198;-0.00358836;0.018978;0;0.021981;-0.204717;-0.677003;-0.756831;1.03587;-7.0811;-0.00232592;0.000484089;0.00777692;0.00780006;-0.00234906;0.00507456;0.29908;3.34359;0.00613485;0.00676608;3.3205;0.301159;64.5219;109.522;0.00383367;-0.00233111;-0.00231317;0.00325331;0.00777438;-0.00894782;0.0320238;0;0.0338956;7.9002;2.07668
281000;282;25.8854;0.129013;0.00500896;-2.5278;25.7346;-1.18045;-0.0264041;0.109087;-0.497414;-0.178344;-0.571465;-0.26031;0.652794;-5.91631;-0.000791653;0.000202436;0.00421063;0.00421881;-0.000799832;0.00250932;0.188013;5.31879;0.00311358;0.00334576;5.27462;0.189587;116.58;161.58;-0.00417019;-0.000794796;0.00293302;-0.00251455;0.00420637;-0.00397342;0.0168267;0;0.0201569;-0.206137;-0.680046;-0.75674;1.03808;-7.08101;-0.00230561;0.000440814;0.0079775;0.00799636;-0.00232447;0.00516042;0.289014;3.46004;0.00625148;0.00688055;3.44008;0.290691;64.2421;109.242;0.00385802;-0.00231144;-0.00258849;0.00343921;0.00797427;-0.00871001;0.0351307;0;0.0302514;7.92851;2.08259
282000;283;25.8877;0.131308;0.00509807;-2.52858;25.7367;-1.18479;-0.0271801;0.11112;-0.501752;-0.179171;-0.57375;-0.259061;0.654526;-5.91506;-0.000805286;0.000408287;0.00405341;0.00408748;-0.000839357;0.00246342;0.198669;5.0335;0.0030436;0.00328456;4.86977;0.205348;114.587;159.587;-0.00385636;-0.000807777;0.00309767;-0.00226808;0.00404871;-0.00493851;0.0181674;0;0.0211756;-0.207378;-0.684577;-0.756019;1.04078;-7.08028;-0.00236245;0.000449539;0.00838669;0.00840546;-0.00238122;0.00539334;0.28169;3.55;0.00654343;0.00719112;3.5299;0.283294;66.8106;111.811;0.00431613;-0.00236723;-0.00225016;0.00312046;0.00838428;-0.00973025;0.0361857;0;0.0236499;7.94783;2.0902
283000;284;25.8896;0.133151;0.00516962;-2.5307;25.7383;-1.18481;-0.0292969;0.112765;-0.501774;-0.180274;-0.575531;-0.260453;0.65694;-5.91645;-0.0009543;7.99704e-05;0.00418451;0.00418575;-0.000955544;0.00257065;0.228055;4.3849;0.00315758;0.00342753;4.38049;0.228285;118.757;163.757;-0.00499121;-0.000957794;0.0028174;-0.00264345;0.00418056;-0.0028476;0.0179933;0;0.0206189;-0.208948;-0.68771;-0.759213;1.04547;-7.08348;-0.0023017;0.000474837;0.00891764;0.0089377;-0.00232176;0.00562973;0.258106;3.87438;0.00686454;0.0075063;3.84954;0.259771;68.8325;113.833;0.0038488;-0.00230612;-0.00208828;0.00300945;0.00891559;-0.00748032;0.0359237;0;0.0254418;7.97374;2.09737
284000;285;25.8914;0.134948;0.0052394;-2.53126;25.7397;-1.19321;-0.0298589;0.114129;-0.51018;-0.182299;-0.576595;-0.262414;0.659208;-5.91841;-0.000708537;0.000281041;0.00396087;0.00397773;-0.000725391;0.00235156;0.178884;5.59021;0.00292377;0.00313541;5.48356;0.182363;115.781;160.781;-0.00412987;-0.000711305;0.00294329;-0.00236883;0.0039566;-0.00430842;0.0186782;0;0.0280188;-0.211467;-0.690559;-0.765563;1.05246;-7.08983;-0.00217999;0.000558398;0.00931189;0.00933896;-0.00220706;0.00577301;0.234108;4.27153;0.00707731;0.00769734;4.23141;0.236328;70.2164;115.216;0.00466174;-0.00218423;-0.00187275;0.00296186;0.00931031;-0.00738637;0.0330219;0;0.0372951;7.99549;2.10546
285000;286;25.8929;0.136529;0.00530077;-2.53178;25.7414;-1.19014;-0.0303793;0.11581;-0.507106;-0.182697;-0.579287;-0.259219;0.660414;-5.91522;-0.00095495;-7.19996e-05;0.0041226;0.00412362;-0.000955971;0.00253979;0.231638;4.31708;0.00311699;0.00338639;4.31354;0.231828;120.57;165.57;-0.00398731;-0.000958777;0.00263571;-0.00276602;0.00411914;-0.0048788;0.0185887;0;0.0214233;-0.212362;-0.696033;-0.762422;1.05397;-7.08669;-0.00233665;0.000522447;0.00957514;0.00959801;-0.00235952;0.00597876;0.244033;4.09781;0.00731318;0.00797169;4.06778;0.245834;70.7399;115.74;0.00415759;-0.00234077;-0.00189858;0.00291491;0.00957349;-0.00639423;0.0319707;0;0.0312456;8.02132;2.11269
286000;287;25.8962;0.139744;0.00542562;-2.53261;25.7448;-1.18448;-0.0312063;0.119225;-0.501443;-0.184362;-0.582288;-0.256991;0.662641;-5.91299;-0.000905344;-5.0633e-05;0.00403839;0.00403891;-0.000905862;0.00247239;0.224184;4.46062;0.00303989;0.00329651;4.45864;0.224284;120.416;165.416;-0.00396804;-0.000909074;0.00264258;-0.00273059;0.00403491;-0.00477138;0.0190215;0;0.0221497;-0.214227;-0.700631;-0.761191;1.0565;-7.08546;-0.0025642;0.000590675;0.00959897;0.00962759;-0.00259282;0.0061102;0.267133;3.74346;0.00743492;0.00814694;3.71318;0.269311;70.8508;115.851;0.00440219;-0.00256809;-0.00169524;0.00284905;0.00959772;-0.00528704;0.0291432;0;0.0460575;8.03875;2.11994
287000;288;25.8978;0.141338;0.00548748;-2.53405;25.7459;-1.19269;-0.0326509;0.120306;-0.509655;-0.185416;-0.583101;-0.262118;0.665651;-5.91812;-0.000806053;-2.57805e-05;0.00395166;0.0039518;-0.000806193;0.00237899;0.203978;4.90248;0.00294034;0.00317199;4.9018;0.204007;119.809;164.809;-0.00416401;-0.000809558;0.00260749;-0.00264657;0.00394827;-0.00501384;0.0180167;0;0.0192358;-0.215932;-0.704799;-0.767815;1.06438;-7.09208;-0.00264556;0.000510126;0.010183;0.0102032;-0.00266581;0.00643451;0.259803;3.84907;0.00784324;0.00857935;3.82743;0.261272;71.5121;116.512;0.00365604;-0.00264964;-0.00191043;0.00289994;0.0101813;-0.00214217;0.0267138;0;0.0380851;8.05745;2.12733
288000;289;25.8996;0.143221;0.00556061;-2.53432;25.7474;-1.20075;-0.0329218;0.121799;-0.51772;-0.186918;-0.585984;-0.25765;0.666857;-5.91365;-0.00082227;5.16696e-05;0.00429462;0.00429514;-0.000822792;0.00255897;0.191465;5.22288;0.00317345;0.00341196;5.2202;0.191563;118.194;163.194;-0.00432788;-0.000825869;0.00279936;-0.00268203;0.00429072;-0.00504096;0.0176145;0;0.0190595;-0.21782;-0.709532;-0.767514;1.06769;-7.09178;-0.00250209;0.000380177;0.0107966;0.0108075;-0.00251295;0.00666022;0.231747;4.31505;0.00817246;0.00888029;4.30072;0.232519;73.949;118.949;0.0035386;-0.00250556;-0.0019287;0.00265868;0.0107949;-0.00303046;0.0279982;0;0.0346441;8.08192;2.1349
289000;290;25.9024;0.14597;0.00566734;-2.53401;25.75;-1.20514;-0.0326072;0.124391;-0.522102;-0.187498;-0.585665;-0.257461;0.666668;-5.91346;-0.000816546;8.32454e-05;0.00445002;0.00445134;-0.000817862;0.0026346;0.183493;5.44981;0.0032744;0.0035128;5.44265;0.183734;117.416;162.416;-0.00422574;-0.000820137;0.00286107;-0.00268002;0.00444595;-0.00456523;0.0174434;0;0.0208439;-0.218457;-0.712384;-0.768982;1.07077;-7.09325;-0.00258145;0.000405695;0.0111495;0.0111614;-0.00259343;0.00687743;0.231532;4.31906;0.00843932;0.00916991;4.30374;0.232356;74.3365;119.336;0.00281551;-0.00258495;-0.00189362;0.00267379;0.0111478;-0.000479114;0.0287805;0;0.0343987;8.09695;2.14045
290000;291;25.9051;0.148697;0.00577321;-2.53487;25.7525;-1.20745;-0.0334703;0.12694;-0.524417;-0.188287;-0.586433;-0.259729;0.668442;-5.91573;-0.000840238;5.39526e-05;0.00459887;0.0045994;-0.000840773;0.00272009;0.182705;5.47329;0.00338155;0.00362678;5.47045;0.1828;116.913;161.913;-0.00456826;-0.000843696;0.00275168;-0.00262917;0.0045951;-0.00441704;0.016394;0;0.0180012;-0.220153;-0.716378;-0.772831;1.07654;-7.0971;-0.00285165;0.000554288;0.0117073;0.0117284;-0.00287273;0.00730056;0.243579;4.10545;0.00893185;0.00973408;4.08267;0.244938;74.5067;119.507;0.00360872;-0.00285535;-0.00169337;0.0027696;0.0117061;-0.00305287;0.0313622;0;0.0358443;8.10844;2.14306
291000;292;25.9076;0.151216;0.00587099;-2.53628;25.7547;-1.21253;-0.0348774;0.129097;-0.529493;-0.189315;-0.588537;-0.257396;0.669678;-5.91339;-0.000831;-0.000102267;0.00421458;0.00421665;-0.000833072;0.00252486;0.197173;5.0717;0.00312602;0.00336648;5.06157;0.197567;120.226;165.226;-0.00434551;-0.000834994;0.00263634;-0.00282712;0.00421112;-0.00376279;0.0170075;0;0.0185513;-0.221461;-0.722163;-0.772415;1.08037;-7.09668;-0.00290673;0.000711102;0.01192;0.011954;-0.00294075;0.0074474;0.243852;4.10084;0.00910924;0.00992986;4.06496;0.246005;73.5003;118.5;0.00453159;-0.00291115;-0.00166638;0.00305374;0.0119189;-0.00512042;0.0320875;0;0.0359837;8.13396;2.1501
292000;293;25.9115;0.155068;0.00602056;-2.53705;25.7586;-1.20971;-0.0356524;0.133028;-0.52668;-0.190026;-0.589757;-0.25708;0.67083;-5.91308;-0.000636514;2.79394e-05;0.00385796;0.00385813;-0.000636688;0.00224741;0.164987;6.06107;0.00280848;0.00299655;6.05969;0.165025;118.802;163.802;-0.00451445;-0.000639859;0.0026532;-0.00258556;0.00385445;-0.00321869;0.017578;0;0.0182264;-0.222492;-0.726972;-0.77341;1.08451;-7.09768;-0.0030243;0.000828458;0.0125154;0.0125594;-0.00306834;0.00781388;0.241647;4.13827;0.00956127;0.0104185;4.09323;0.244306;74.2708;119.271;0.00413341;-0.00302869;-0.00145145;0.00307337;0.0125147;-0.0065452;0.0334284;0;0.0360879;8.14964;2.15655
293000;294;25.9165;0.16012;0.0062167;-2.53696;25.7634;-1.21484;-0.0355603;0.137878;-0.531805;-0.191109;-0.590199;-0.256561;0.671328;-5.91256;-0.000793148;-6.68992e-05;0.00449578;0.00449663;-0.000793994;0.00264531;0.176421;5.66827;0.00329446;0.00352708;5.6633;0.176576;118.168;163.168;-0.00433668;-0.000796801;0.00258287;-0.00270271;0.00449246;-0.00412337;0.016191;0;0.0182748;-0.223813;-0.731239;-0.774945;1.08873;-7.09921;-0.0030764;0.000723514;0.01344;0.0134716;-0.00310804;0.00828984;0.228899;4.36874;0.0101766;0.0110531;4.33446;0.230709;77.2295;122.229;0.00428567;-0.00307969;-0.0012442;0.00265916;0.0134395;-0.00635052;0.0371517;0;0.0331799;8.16027;2.16419
294000;295;25.923;0.166574;0.00646728;-2.53718;25.7699;-1.215;-0.0357844;0.144341;-0.531965;-0.1926;-0.590599;-0.2588;0.672963;-5.9148;-0.000714462;8.86688e-05;0.00452408;0.00452558;-0.000715963;0.00262077;0.157924;6.33214;0.00328184;0.00349436;6.32097;0.158204;115.971;160.971;-0.00431416;-0.000717647;0.00271541;-0.00252437;0.00452041;-0.00443048;0.015325;0;0.0180891;-0.225465;-0.735292;-0.78122;1.09626;-7.10549;-0.00300888;0.000673036;0.0143798;0.0144058;-0.00303489;0.00872035;0.209243;4.77912;0.0107591;0.0116271;4.74673;0.210671;79.0981;124.098;0.00449973;-0.00301166;-0.00113229;0.00244742;0.0143794;-0.00681898;0.036203;0;0.0336315;8.17791;2.17062
295000;296;25.9295;0.173084;0.00672003;-2.53666;25.7765;-1.21605;-0.0352635;0.150891;-0.533014;-0.192829;-0.591673;-0.258009;0.673668;-5.91401;-0.000746975;-1.80343e-05;0.00438497;0.00438503;-0.000747039;0.00256603;0.170349;5.8703;0.00320155;0.00342138;5.86988;0.170361;118.239;163.239;-0.00440877;-0.000750693;0.00270384;-0.002726;0.00438133;-0.00401022;0.0164356;0;0.02073;-0.226134;-0.741182;-0.780726;1.10001;-7.10499;-0.00341615;0.000745579;0.015199;0.0152289;-0.00344597;0.00933741;0.224761;4.44917;0.011475;0.0124499;4.41933;0.226279;78.8105;123.81;0.00415507;-0.00341935;-0.0011752;0.00263113;0.0151986;-0.00663209;0.0350014;0;0.0362869;8.19213;2.17814
296000;297;25.9354;0.178954;0.00694794;-2.53727;25.7823;-1.21529;-0.0358736;0.156772;-0.532254;-0.193683;-0.593716;-0.255145;0.674618;-5.91114;-0.000993797;-0.000169981;0.00416562;0.00417121;-0.000999391;0.0025853;0.238571;4.19162;0.00316695;0.00344707;4.17375;0.239593;121.732;166.732;-0.00449033;-0.000997954;0.00256102;-0.00288695;0.00416237;-0.00410115;0.0153236;0;0.0220476;-0.226982;-0.746719;-0.78011;1.10349;-7.10438;-0.00368002;0.000876502;0.0157247;0.0157642;-0.00371953;0.00974187;0.234028;4.27299;0.011944;0.0129892;4.23823;0.235948;77.9716;122.972;0.00399999;-0.00368394;-0.00121793;0.00293092;0.0157243;-0.00582645;0.0335652;0;0.0388075;8.19903;2.1856
297000;298;25.9396;0.183208;0.00711309;-2.53758;25.7864;-1.21911;-0.0361806;0.16084;-0.536077;-0.192748;-0.595335;-0.249336;0.673605;-5.90533;-0.000807761;9.07484e-05;0.00421857;0.0042202;-0.000809399;0.0025148;0.191478;5.22254;0.00311848;0.00335307;5.214;0.191791;117.665;162.665;-0.00451837;-0.000811086;0.00277406;-0.00257914;0.00421474;-0.00398247;0.0150893;0;0.0190629;-0.226521;-0.752178;-0.779592;1.10673;-7.10386;-0.00380844;0.000903426;0.0166537;0.0166935;-0.00384825;0.0102709;0.228684;4.37285;0.0126091;0.0136945;4.33795;0.230523;79.0366;124.037;0.00374019;-0.00381209;-0.00107858;0.00284554;0.0166536;-0.0064272;0.0327869;0;0.0353451;8.21387;2.19324
298000;299;25.9459;0.189518;0.00735809;-2.53564;25.7931;-1.21478;-0.0342411;0.167583;-0.531746;-0.193867;-0.593535;-0.25175;0.673236;-5.90775;-0.000814219;-7.12709e-05;0.00467445;0.00467538;-0.000815144;0.00274526;0.174185;5.74103;0.00342116;0.00366035;5.73564;0.174348;117.877;162.877;-0.00425244;-0.000818019;0.002629;-0.00275679;0.00467101;-0.00392899;0.0149481;0;0.0202254;-0.226969;-0.757889;-0.778381;1.10986;-7.10265;-0.00420937;0.000747672;0.0174406;0.0174664;-0.00423516;0.0108508;0.241354;4.14328;0.013283;0.0144677;4.12414;0.242475;78.4606;123.461;0.00342622;-0.00421371;-0.00158773;0.00303338;0.0174397;-0.00361875;0.0330601;0;0.0370118;8.218;2.19991
299000;300;25.9502;0.193769;0.00752313;-2.53665;25.7972;-1.21749;-0.0352545;0.171632;-0.534453;-0.194232;-0.595393;-0.247068;0.673247;-5.90307;-0.000789532;-3.2783e-05;0.00473113;0.00473132;-0.000789726;0.00276053;0.16688;5.99233;0.00344774;0.0036807;5.9911;0.166914;117.352;162.352;-0.00481831;-0.000793317;0.00270001;-0.00275056;0.0047275;-0.00353863;0.0158275;0;0.0195886;-0.228197;-0.764831;-0.778019;1.11461;-7.10229;-0.0045078;0.000961013;0.0181559;0.0181966;-0.00454848;0.0113725;0.248283;4.02766;0.0138976;0.0151634;4.00058;0.249964;79.8139;124.814;0.00412551;-0.00451141;-0.000969555;0.0028486;0.0181559;-0.00138157;0.0326591;0;0.0439727;8.23286;2.20738
300000;301;25.9529;0.196513;0.00762967;-2.53847;25.7994;-1.2257;-0.0370738;0.173824;-0.542669;-0.194914;-0.59821;-0.244163;0.674879;-5.90016;-0.000848204;-3.70619e-05;0.00448797;0.00448823;-0.000848461;0.00266835;0.188995;5.29115;0.00331141;0.00355779;5.28985;0.189041;118.537;163.537;-0.00457628;-0.000852034;0.00270743;-0.00276697;0.00448432;-0.0037325;0.0147872;0;0.0259892;-0.228933;-0.772334;-0.777708;1.11971;-7.10197;-0.00463057;0.000937392;0.0190451;0.0190822;-0.00466763;0.0118749;0.243137;4.11291;0.0145294;0.0158332;4.0882;0.244606;79.1774;124.177;0.00365505;-0.00463511;-0.00132535;0.00314756;0.0190447;-0.00180244;0.0338255;0;0.0500098;8.25156;2.21423
301000;302;25.9579;0.201507;0.00782358;-2.53832;25.8043;-1.22871;-0.036919;0.178721;-0.545672;-0.195307;-0.597515;-0.251309;0.676997;-5.90731;-0.000842979;-8.48188e-05;0.00432755;0.00432894;-0.00084437;0.00258665;0.194794;5.13363;0.00320471;0.00344887;5.12682;0.195053;119.497;164.497;-0.00480583;-0.000846851;0.00262723;-0.0027829;0.00432411;-0.00285867;0.0147446;0;0.0215572;-0.229714;-0.777941;-0.783571;1.1278;-7.10784;-0.00462294;0.000975159;0.0198778;0.0199165;-0.00466169;0.0122891;0.232568;4.29982;0.0150738;0.0163855;4.27239;0.234061;81.4047;126.405;0.0030557;-0.00462607;-0.000769602;0.002678;0.019878;-0.000913303;0.0396102;0;0.0424726;8.25116;2.22051
302000;303;25.9627;0.206302;0.00800974;-2.5374;25.8091;-1.23136;-0.0359976;0.183508;-0.548328;-0.196723;-0.59513;-0.25272;0.675831;-5.90872;-0.000875154;-3.18415e-05;0.00471614;0.00471632;-0.000875335;0.00279583;0.185566;5.38892;0.00347296;0.00372777;5.38801;0.185597;118.05;163.05;-0.00522958;-0.000879144;0.00277592;-0.00282398;0.0047123;-0.00280985;0.0146587;0;0.0238572;-0.231421;-0.780863;-0.789988;1.13463;-7.11425;-0.00487838;0.00108995;0.0204666;0.0205134;-0.00492517;0.0127193;0.238358;4.19536;0.015579;0.016959;4.16501;0.240096;82.3121;127.312;0.00277255;-0.00488098;-0.000378617;0.00252204;0.0204671;-0.00230835;0.0400739;0;0.041515;8.25969;2.22263
303000;304;25.9688;0.212353;0.00824465;-2.53802;25.8149;-1.23576;-0.0366188;0.189323;-0.552724;-0.196629;-0.597005;-0.249873;0.676398;-5.90587;-0.000787335;0.000105958;0.00470652;0.00470856;-0.000789378;0.00274897;0.167286;5.97778;0.00343256;0.00366529;5.9649;0.167647;116.073;161.073;-0.00464771;-0.00079079;0.00285667;-0.00262972;0.00470246;-0.00417618;0.0137822;0;0.0201867;-0.231382;-0.787944;-0.788526;1.13849;-7.11279;-0.00506518;0.00109144;0.0212146;0.0212598;-0.00511043;0.0131851;0.238759;4.18832;0.0161485;0.0175802;4.16008;0.24038;82.2775;127.278;0.00341488;-0.005068;-0.000466398;0.00260918;0.0212151;-0.00542793;0.0422774;0;0.041191;8.27178;2.22975
304000;305;25.9742;0.217791;0.0084558;-2.53786;25.8203;-1.23712;-0.0364636;0.194744;-0.554084;-0.196147;-0.596289;-0.25106;0.676066;-5.90706;-0.000905676;-9.76926e-05;0.00471511;0.00471681;-0.000907373;0.00281209;0.192079;5.20618;0.00348658;0.00374945;5.19831;0.19237;118.024;163.024;-0.00492809;-0.000909393;0.00254667;-0.00272726;0.00471189;-0.00317257;0.0140971;0;0.0234687;-0.230984;-0.79246;-0.791587;1.14366;-7.11585;-0.00558401;0.00118699;0.0216079;0.0216597;-0.00563572;0.0136477;0.258424;3.86961;0.0166396;0.0181969;3.84328;0.260194;82.6648;127.665;0.00239799;-0.00558656;-0.000209455;0.00254627;0.0216086;-0.00424728;0.0423594;0;0.0466894;8.28372;2.23735
305000;306;25.9816;0.225217;0.00874411;-2.53847;25.8276;-1.24049;-0.0370695;0.201993;-0.557458;-0.196649;-0.596491;-0.250368;0.676134;-5.90637;-0.000851713;0.000128917;0.00473339;0.00473636;-0.000854687;0.00279553;0.179937;5.55749;0.00347766;0.00372737;5.54163;0.180452;115.85;160.85;-0.00486193;-0.000855034;0.00285213;-0.00257916;0.00472935;-0.0034606;0.0144592;0;0.0228504;-0.231891;-0.798446;-0.792739;1.14879;-7.11701;-0.00581184;0.00112934;0.0225201;0.0225651;-0.00585679;0.0142109;0.258073;3.87487;0.0173287;0.0189479;3.8528;0.259551;81.9778;126.978;0.00273604;-0.00581519;-0.000606765;0.00281734;0.0225206;-0.00653956;0.0417892;0;0.0468962;8.29186;2.24475
306000;307;25.9888;0.23237;0.00902185;-2.53926;25.8348;-1.23816;-0.0378575;0.209224;-0.555125;-0.196784;-0.596279;-0.25038;0.67599;-5.90638;-0.000886188;7.05955e-05;0.00453906;0.00453998;-0.000887106;0.00271354;0.195236;5.122;0.0033616;0.00361805;5.11774;0.195399;117.087;162.087;-0.00455541;-0.000889585;0.002762;-0.00260628;0.00453526;-0.00386554;0.0139905;0;0.0202259;-0.232277;-0.803942;-0.795332;1.15448;-7.1196;-0.00615484;0.0012716;0.023558;0.0236123;-0.00620916;0.0149108;0.261263;3.82756;0.0181685;0.019881;3.80282;0.262963;81.1591;126.159;0.00215277;-0.0061593;-0.000750682;0.00323517;0.0235585;-0.00625353;0.0416467;0;0.0478309;8.29865;2.25269
307000;308;25.9972;0.240823;0.00935003;-2.539;25.8435;-1.2343;-0.0376009;0.217937;-0.551267;-0.197298;-0.596968;-0.248734;0.676141;-5.90473;-0.000826745;5.30998e-05;0.00470474;0.00470525;-0.000827255;0.00276625;0.175726;5.69068;0.00344585;0.00368834;5.68779;0.175815;116.735;161.735;-0.00481637;-0.000830325;0.00279653;-0.00267523;0.00470085;-0.00338795;0.0142233;0;0.0200081;-0.232882;-0.811108;-0.794866;1.15929;-7.11913;-0.00635565;0.00143853;0.0245249;0.0245917;-0.00642252;0.0155071;0.259152;3.85875;0.0189026;0.0206762;3.82898;0.261166;80.0852;125.085;0.00237077;-0.00636178;-0.000970441;0.00377488;0.0245254;-0.00443796;0.0406176;0;0.0501926;8.31448;2.25928
308000;309;26.0046;0.248234;0.00963776;-2.53951;25.851;-1.23196;-0.0381099;0.225453;-0.54893;-0.197133;-0.597279;-0.247587;0.675946;-5.90359;-0.000851532;-9.64422e-06;0.00477375;0.00477377;-0.000851549;0.00281266;0.178378;5.60607;0.00350105;0.00375021;5.60598;0.178381;116.932;161.932;-0.00479128;-0.000855123;0.00267446;-0.00267873;0.00477019;-0.00357562;0.0143442;0;0.0199727;-0.232961;-0.818071;-0.794693;1.16407;-7.11896;-0.00662826;0.00141386;0.0252889;0.0253514;-0.00669077;0.0160211;0.262102;3.81531;0.0195173;0.0213614;3.78901;0.263921;80.9965;125.996;0.0023472;-0.00663358;-0.000785391;0.00354465;0.0252896;-0.00257281;0.0446568;0;0.0503731;8.32111;2.26642
309000;310;26.0087;0.252246;0.00979353;-2.54047;25.8547;-1.23685;-0.0390679;0.229162;-0.553815;-0.197159;-0.596893;-0.246819;0.675332;-5.90282;-0.000968839;3.79425e-05;0.00472985;0.00473011;-0.000969092;0.0028496;0.204835;4.88198;0.00352117;0.00379947;4.88097;0.204877;117.108;162.108;-0.00420692;-0.000972348;0.00273928;-0.00264808;0.00472612;-0.00478014;0.0151037;0;0.019641;-0.233229;-0.824221;-0.795776;1.16919;-7.12004;-0.00669576;0.00147039;0.0255868;0.0256536;-0.00676259;0.0162081;0.261688;3.82134;0.0197464;0.0216108;3.79346;0.263612;81.783;126.783;0.00214934;-0.00670026;-0.000453163;0.00333339;0.0255877;0.000295097;0.0445114;0;0.0524208;8.32483;2.27346
310000;311;26.0112;0.254822;0.00989355;-2.54;25.8568;-1.24801;-0.0386005;0.231263;-0.564979;-0.19755;-0.597002;-0.246398;0.675389;-5.9024;-0.000946832;-0.00012826;0.00461886;0.00462181;-0.000949786;0.0027858;0.204993;4.87823;0.00344177;0.0037144;4.86616;0.205501;119.677;164.677;-0.00495175;-0.000951115;0.00268724;-0.00292816;0.00461527;-0.00278574;0.0145926;0;0.020276;-0.233897;-0.830737;-0.797974;1.17541;-7.12224;-0.0067061;0.00164954;0.0266355;0.0267169;-0.00678751;0.0167522;0.251773;3.97183;0.0204527;0.0223363;3.93619;0.254053;82.6892;127.689;0.0022994;-0.00670993;3.44133e-05;0.00321221;0.0266368;0.00319089;0.0440351;0;0.0495513;8.33539;2.28069
311000;312;26.0173;0.260875;0.0101286;-2.54165;25.8626;-1.25193;-0.0402468;0.237001;-0.568894;-0.197775;-0.597298;-0.24579;0.675495;-5.90179;-0.000900563;-5.58351e-05;0.0046361;0.00463666;-0.000901126;0.00276889;0.19425;5.148;0.00343116;0.00369186;5.14541;0.194348;118.124;163.124;-0.00455653;-0.000904306;0.00263845;-0.00273527;0.00463263;-0.00410678;0.0141221;0;0.018671;-0.234476;-0.837213;-0.799841;1.18138;-7.12411;-0.00695438;0.00155391;0.0270463;0.0271172;-0.00702525;0.0170712;0.257129;3.88911;0.0208188;0.0227616;3.85996;0.25907;82.7205;127.72;0.00237732;-0.0069583;-0.000142655;0.0031943;0.0270475;0.000330919;0.0460505;0;0.0537447;8.34347;2.28755
312000;313;26.0256;0.269164;0.0104503;-2.54121;25.871;-1.24977;-0.039813;0.245486;-0.566733;-0.197774;-0.596791;-0.247165;0.675548;-5.90316;-0.000936441;-4.30243e-05;0.00497417;0.00497448;-0.000936754;0.00295562;0.188261;5.31178;0.00366866;0.00394082;5.31034;0.188312;117.412;162.412;-0.00446865;-0.000940429;0.00275375;-0.00282335;0.0049704;-0.00416972;0.0150023;0;0.0193731;-0.235123;-0.843951;-0.801129;1.18716;-7.12539;-0.00710283;0.0017152;0.027469;0.0275538;-0.00718772;0.0173708;0.258577;3.86732;0.0211757;0.023161;3.83346;0.260861;83.0389;128.039;0.00265934;-0.00710645;0.000196973;0.00318234;0.0274704;-0.00556926;0.0475896;0;0.0532355;8.35769;2.2944
313000;314;26.0325;0.27605;0.0107177;-2.54187;25.8776;-1.25637;-0.0404709;0.252029;-0.573332;-0.198086;-0.597204;-0.243755;0.674764;-5.89975;-0.000883398;-1.3135e-05;0.0047467;0.00474673;-0.000883429;0.00281508;0.186108;5.37323;0.00349636;0.00375344;5.37307;0.186113;117.541;162.541;-0.00467126;-0.000887198;0.00274501;-0.00275583;0.00474295;-0.00358184;0.0142158;0;0.0195586;-0.235302;-0.850068;-0.802158;1.19224;-7.12642;-0.0077505;0.00178865;0.0280517;0.0281408;-0.00783964;0.0179902;0.276294;3.61934;0.0218478;0.023987;3.58956;0.278586;81.5505;126.551;0.00239264;-0.0077561;-0.000276688;0.00378206;0.0280532;-0.00816015;0.0467896;0;0.0527279;8.35782;2.29776
314000;315;26.0402;0.28377;0.0110175;-2.54276;25.885;-1.26115;-0.0413573;0.259476;-0.578113;-0.198491;-0.597373;-0.244458;0.675287;-5.90046;-0.000889599;-4.88281e-05;0.00493378;0.00493419;-0.000890009;0.0029121;0.180308;5.54608;0.00362276;0.0038828;5.54398;0.180376;117.483;162.483;-0.00462428;-0.000893621;0.00275392;-0.00283534;0.00493001;-0.00397417;0.0139546;0;0.019622;-0.236026;-0.857031;-0.804783;1.19912;-7.12905;-0.00797016;0.00181455;0.0288679;0.0289571;-0.00805932;0.0185082;0.276091;3.622;0.022478;0.0246776;3.59299;0.27832;81.0101;126.01;0.00166523;-0.00797691;-0.000540533;0.0040853;0.0288694;-0.00671367;0.04707;0;0.053931;8.36625;2.30371
315000;316;26.0465;0.290066;0.0112619;-2.54218;25.8917;-1.25646;-0.0407774;0.266094;-0.57343;-0.198731;-0.597971;-0.242771;0.675279;-5.89877;-0.000891074;8.37076e-07;0.00490906;0.00490906;-0.000891074;0.00290007;0.181516;5.50915;0.00360661;0.00386676;5.50915;0.181516;117.021;162.021;-0.00439269;-0.000894922;0.00279091;-0.00277313;0.00490519;-0.00427403;0.0143484;0;0.0197093;-0.236471;-0.863739;-0.805404;1.20442;-7.12967;-0.00824639;0.00187464;0.0296931;0.0297855;-0.00833879;0.0190622;0.27772;3.60074;0.0231429;0.0254162;3.57193;0.279961;81.2168;126.217;0.000725785;-0.00825317;-0.000457355;0.00412069;0.0296947;-0.00510228;0.0485826;0;0.0571516;8.36962;2.31103
316000;317;26.0549;0.298527;0.0115904;-2.54211;25.9003;-1.25396;-0.0407104;0.274734;-0.570922;-0.19901;-0.598258;-0.242423;0.67549;-5.89842;-0.000883063;9.72715e-05;0.00484369;0.00484534;-0.000884715;0.00286503;0.182312;5.4851;0.00356195;0.00382004;5.47673;0.182591;115.911;160.911;-0.00496508;-0.000886462;0.00281799;-0.00260795;0.00483974;-0.00329783;0.0134723;0;0.0197503;-0.237199;-0.870988;-0.805387;1.20977;-7.12965;-0.0084124;0.00187038;0.0302252;0.0303155;-0.00850273;0.0194091;0.278324;3.59293;0.0235616;0.0258788;3.56538;0.280475;81.6012;126.601;0.00120098;-0.00841881;-0.000368701;0.00402548;0.0302268;-0.00442996;0.0521728;0;0.0587378;8.38442;2.31845
317000;318;26.0609;0.304473;0.0118212;-2.54297;25.906;-1.2575;-0.0415757;0.280458;-0.574464;-0.199629;-0.598694;-0.24107;0.675574;-5.89707;-0.000947085;6.32114e-06;0.0047792;0.00477921;-0.000947091;0.00286315;0.198168;5.04623;0.00354427;0.00381753;5.0462;0.198169;116.973;161.973;-0.00467028;-0.000950573;0.002668;-0.00264019;0.00477566;-0.00332697;0.0138962;0;0.0209827;-0.237957;-0.878338;-0.806865;1.2162;-7.13113;-0.00839657;0.00192911;0.0308357;0.0309304;-0.0084912;0.0197108;0.2723;3.67242;0.0239576;0.026281;3.64264;0.274526;82.4384;127.438;0.00208877;-0.00840194;-7.99768e-06;0.00379248;0.0308375;-0.00351756;0.0536757;0;0.058633;8.38927;2.32554
318000;319;26.0662;0.309791;0.0120277;-2.54456;25.9109;-1.26466;-0.0431652;0.285304;-0.581624;-0.19969;-0.598899;-0.241077;0.675777;-5.89708;-0.000910987;-1.85612e-05;0.00514578;0.00514583;-0.000911044;0.00302844;0.177036;5.64857;0.0037711;0.00403792;5.64828;0.177045;116.506;161.506;-0.00468356;-0.000914901;0.00277629;-0.00279657;0.00514194;-0.00353596;0.0137634;0;0.021059;-0.238566;-0.885286;-0.808549;1.22246;-7.13282;-0.00817915;0.00192059;0.0316302;0.0317227;-0.00827159;0.0199971;0.258586;3.86718;0.024378;0.0266629;3.83514;0.260747;83.7023;128.702;0.0021211;-0.008183;0.000417204;0.00336597;0.031632;-0.00183686;0.0534937;0;0.0607095;8.39759;2.3328
319000;320;26.0699;0.313501;0.0121718;-2.54413;25.9143;-1.2714;-0.0427311;0.28875;-0.588363;-0.199804;-0.599242;-0.240238;0.675816;-5.89624;-0.000932001;-0.000152019;0.00509324;0.00509708;-0.000935834;0.00301645;0.182988;5.46485;0.00374913;0.00402194;5.44656;0.183602;117.793;162.793;-0.00478922;-0.000936156;0.00259778;-0.00288533;0.0050899;-0.00328302;0.0138917;0;0.0211478;-0.238696;-0.892545;-0.808881;1.22797;-7.13315;-0.00857717;0.0019299;0.0323044;0.0323953;-0.00866807;0.0205317;0.265511;3.76632;0.0249924;0.0273756;3.73731;0.267572;83.6796;128.68;0.00524625;-0.00858121;0.000372325;0.00342578;0.0323061;-0.00577099;0.0466541;0;0.0594043;8.40405;2.34082
320000;321;26.0768;0.3204;0.0124396;-2.54513;25.9211;-1.27292;-0.0437335;0.295516;-0.589889;-0.199882;-0.599459;-0.239897;0.67591;-5.8959;-0.00101757;-8.07753e-05;0.0048552;0.00485631;-0.00101868;0.00293749;0.209583;4.77138;0.00362513;0.00391666;4.76727;0.209764;118.4;163.4;-0.00432944;-0.00102162;0.00270149;-0.00284678;0.00485157;-0.00412955;0.0146132;0;0.0210835;-0.239211;-0.899566;-0.810697;1.23437;-7.13496;-0.00877814;0.00213155;0.032622;0.0327315;-0.00888759;0.0208095;0.269086;3.71628;0.0253091;0.027746;3.68283;0.271531;83.1806;128.181;0.00544839;-0.00878291;0.000453809;0.00374202;0.0326241;-0.00547588;0.043607;0;0.059926;8.40899;2.34793
321000;322;26.086;0.329563;0.0127954;-2.54425;25.9305;-1.27095;-0.0428465;0.304918;-0.58792;-0.20032;-0.599928;-0.238144;0.675836;-5.89414;-0.00100524;-8.6703e-05;0.00500874;0.00500999;-0.00100649;0.00300824;0.200697;4.98262;0.00372115;0.00401099;4.97768;0.200897;117.956;162.956;-0.00487229;-0.00100936;0.0027144;-0.00287104;0.00500508;-0.00317901;0.0147775;0;0.0207851;-0.240013;-0.906461;-0.811312;1.23996;-7.13558;-0.00919035;0.0021978;0.033269;0.0333824;-0.00930381;0.0213431;0.276244;3.61999;0.0259189;0.0284575;3.58804;0.278704;81.5767;126.577;0.00519686;-0.00919815;-0.000206419;0.00450322;0.0332713;-0.00836075;0.0434928;0;0.0603799;8.41524;2.3555
322000;323;26.0906;0.33418;0.0129746;-2.54475;25.9346;-1.28026;-0.043354;0.309055;-0.597228;-0.200691;-0.599985;-0.237169;0.675653;-5.89317;-0.000870075;4.65841e-05;0.00507502;0.00507538;-0.00087044;0.00297291;0.171443;5.83285;0.00370795;0.00396388;5.83082;0.171502;115.606;160.606;-0.00465893;-0.000873608;0.00276667;-0.00265741;0.00507121;-0.00355667;0.0149599;0;0.0196377;-0.240878;-0.912344;-0.815058;1.24688;-7.13932;-0.00946422;0.00226309;0.0340372;0.0341546;-0.00958163;0.0218681;0.278055;3.59641;0.0265464;0.0291575;3.56459;0.280537;80.5266;125.527;0.00196577;-0.00947463;-0.000672557;0.00507522;0.0340395;-0.00363514;0.0491152;0;0.0645904;8.42791;2.36199
323000;324;26.0984;0.342034;0.0132796;-2.54586;25.9422;-1.28357;-0.044456;0.316685;-0.600538;-0.200972;-0.59992;-0.235988;0.675267;-5.89199;-0.000967249;-0.000121956;0.0051806;0.00518302;-0.000969668;0.00307634;0.186706;5.35601;0.00381982;0.00410179;5.34515;0.187086;117.739;162.739;-0.00466002;-0.000971571;0.00271462;-0.00294118;0.00517694;-0.00381085;0.0144915;0;0.0204465;-0.241272;-0.920766;-0.814929;1.25305;-7.14111;-0.00978516;0.00185891;0.0342258;0.0343042;-0.00986354;0.0220838;0.2859;3.49772;0.02677;0.0294451;3.47788;0.287532;82.0223;127.022;0.00356664;-0.00979249;-0.000627405;0.00423942;0.0342273;-0.00588703;0.051895;0;0.0627459;8.43677;2.36842
324000;325;26.1086;0.352203;0.0136744;-2.5454;25.953;-1.27404;-0.0439963;0.32743;-0.591002;-0.200861;-0.599899;-0.235962;0.675205;-5.89196;-0.000961162;-3.44987e-05;0.00520745;0.00520764;-0.000961355;0.0030845;0.184575;5.41787;0.00383261;0.00411266;5.41698;0.184605;116.795;161.795;-0.00470191;-0.000965225;0.0027978;-0.00284942;0.00520355;-0.00423391;0.0140072;0;0.0194978;-0.241895;-0.928514;-0.817176;1.26033;-7.14335;-0.00970763;0.0018728;0.0347491;0.0348279;-0.00978638;0.0223071;0.279363;3.57957;0.0270768;0.0297428;3.55881;0.280993;83.2351;128.235;0.00281566;-0.00971304;-0.000113228;0.00377349;0.0347508;-0.00408956;0.0535636;0;0.0645702;8.44472;2.37676
325000;326;26.1155;0.359102;0.0139422;-2.54677;25.9596;-1.27797;-0.0453688;0.334041;-0.594939;-0.201067;-0.599888;-0.23668;0.675508;-5.89268;-0.000887674;-7.62053e-05;0.00526449;0.00526543;-0.000888617;0.00307702;0.168615;5.93065;0.00384091;0.0041027;5.92542;0.168764;116.578;161.578;-0.00478072;-0.000891745;0.00271791;-0.00285322;0.00526081;-0.00292356;0.0134762;0;0.0215614;-0.242413;-0.935725;-0.819569;1.2673;-7.14575;-0.00966961;0.00201545;0.0354478;0.0355376;-0.00975947;0.0226485;0.272785;3.66589;0.0275277;0.0301981;3.64135;0.274624;83.4022;128.402;0.00218727;-0.00967497;0.0001181;0.00383012;0.0354497;-0.00233116;0.0595373;0;0.0639908;8.44485;2.38099
326000;327;26.1201;0.36372;0.0141215;-2.54828;25.9635;-1.28974;-0.0468825;0.337957;-0.60671;-0.201497;-0.599088;-0.237319;0.67515;-5.89332;-0.000954945;-0.000122807;0.00553615;0.00553847;-0.000957268;0.00324787;0.172493;5.79735;0.0040493;0.00433049;5.78571;0.17284;116.565;161.565;-0.00453905;-0.000959293;0.00272272;-0.00294996;0.00553247;-0.00387064;0.0135954;0;0.019305;-0.243165;-0.941853;-0.82272;1.274;-7.1489;-0.00960905;0.00174794;0.0359638;0.0360307;-0.009676;0.0228534;0.267187;3.7427;0.0278126;0.0304712;3.72372;0.268548;85.0193;130.019;0.00293342;-0.00961212;0.000415393;0.00302187;0.0359652;-0.00181403;0.0572182;0;0.0687228;8.44613;2.3861
327000;328;26.1262;0.369805;0.0143578;-2.54864;25.9693;-1.29551;-0.0472401;0.343757;-0.61248;-0.201508;-0.599674;-0.235326;0.674976;-5.89132;-0.00100763;-4.08398e-05;0.00553909;0.00553935;-0.00100788;0.00327361;0.181912;5.49716;0.00407066;0.00436482;5.49602;0.18195;115.734;160.734;-0.00468803;-0.0010116;0.00275268;-0.00281617;0.00553532;-0.00380566;0.0137131;0;0.0209534;-0.24366;-0.948585;-0.823039;1.27929;-7.14922;-0.00973692;0.00173405;0.0364655;0.0365305;-0.00980191;0.0231662;0.267017;3.74507;0.0281947;0.0308883;3.72687;0.268322;85.1936;130.194;0.0058788;-0.00973985;0.000444094;0.0029665;0.0364668;-0.00269773;0.0429958;0;0.0670708;8.44815;2.39295
328000;329;26.1329;0.376529;0.0146188;-2.54791;25.9761;-1.2965;-0.046508;0.350543;-0.613471;-0.20201;-0.601183;-0.233866;0.67596;-5.88986;-0.000988155;-2.43242e-05;0.00526341;0.00526351;-0.000988249;0.00312588;0.18774;5.32651;0.0038806;0.00416784;5.32609;0.187755;116.095;161.095;-0.00467423;-0.000991905;0.00270564;-0.00273731;0.00525977;-0.00342398;0.0138026;0;0.0203301;-0.244668;-0.95593;-0.823272;1.28508;-7.14754;-0.0101298;0.00237824;0.0371789;0.0372982;-0.010249;0.0237736;0.27246;3.67027;0.0288942;0.0316981;3.6392;0.274786;82.6837;127.684;0.00370297;-0.010137;0.000183434;0.00447292;0.0371816;-0.00230358;0.0554072;0;0.0687907;8.46522;2.40075
329000;330;26.1396;0.383141;0.0148756;-2.54986;25.9822;-1.30368;-0.0484608;0.356645;-0.620643;-0.202068;-0.600764;-0.234126;0.675695;-5.89012;-0.00103595;2.64644e-05;0.00518942;0.00518953;-0.00103607;0.0031128;0.199628;5.00932;0.00385177;0.0041504;5.00888;0.199645;116.081;161.081;-0.0046505;-0.00103959;0.00276647;-0.00269658;0.00518561;-0.0039182;0.0146908;0;0.0212378;-0.244908;-0.963611;-0.825035;1.29198;-7.1493;-0.0103676;0.0023579;0.037881;0.0379959;-0.0104826;0.0242392;0.273689;3.65378;0.0294533;0.032319;3.62468;0.275886;82.4018;127.402;0.00342139;-0.0103758;-6.10719e-05;0.00466441;0.0378836;-0.0036447;0.0509443;0;0.0708051;8.47626;2.4071
330000;331;26.144;0.387591;0.0150483;-2.55071;25.9863;-1.31046;-0.0493153;0.360697;-0.627426;-0.202506;-0.601961;-0.230804;0.675749;-5.8868;-0.00100791;-7.74105e-06;0.00531993;0.00531994;-0.00100792;0.00316393;0.189459;5.27819;0.00392597;0.00421857;5.27815;0.18946;116.055;161.055;-0.00460071;-0.00101174;0.00276834;-0.00276634;0.00531612;-0.00394095;0.0132411;0;0.0209446;-0.245593;-0.971962;-0.824662;1.29811;-7.15084;-0.0106307;0.00221205;0.038251;0.0383509;-0.0107306;0.0245407;0.277918;3.59818;0.0297953;0.032721;3.57399;0.279799;83.0576;128.058;0.0027553;-0.0106376;1.41778e-05;0.00430643;0.0382534;-0.0055677;0.055026;0;0.0715082;8.48176;2.41435
331000;332;26.1535;0.397114;0.015418;-2.55177;25.9957;-1.31069;-0.050366;0.370162;-0.627658;-0.20256;-0.601713;-0.231501;0.675783;-5.8875;-0.00114114;-0.00013369;0.0052285;0.0052313;-0.00114395;0.00318763;0.218254;4.58181;0.00392482;0.00425017;4.57303;0.218673;118.29;163.29;-0.00479596;-0.00114554;0.00271798;-0.00296729;0.00522483;-0.00348843;0.0137103;0;0.020223;-0.246423;-0.979141;-0.827817;1.30565;-7.15399;-0.0107271;0.00232797;0.0391758;0.0392842;-0.0108355;0.0250599;0.273821;3.65203;0.0304508;0.0334131;3.6255;0.275824;83.8024;128.802;0.0015657;-0.0107328;0.000495824;0.00407213;0.0391783;-0.00235542;0.0614037;0;0.0734937;8.48851;2.42155
332000;333;26.1647;0.408258;0.0158507;-2.55042;26.0075;-1.30212;-0.0490218;0.381936;-0.619088;-0.202874;-0.6021;-0.231101;0.676084;-5.8871;-0.00111213;-0.000143438;0.00533045;0.00533364;-0.00111532;0.00322448;0.208637;4.79301;0.00397997;0.00429931;4.78216;0.209111;117.775;162.775;-0.00491494;-0.00111646;0.00267566;-0.00294447;0.0053269;-0.00324592;0.0133924;0;0.0223616;-0.247078;-0.986018;-0.829212;1.31182;-7.15348;-0.0108183;0.00305471;0.0399541;0.0401372;-0.0110014;0.0255693;0.270768;3.69321;0.0310812;0.0340924;3.64837;0.274095;81.8595;126.859;0.000343663;-0.0108285;0.000540793;0.00544588;0.0399584;-0.00319072;0.05992;0;0.07374;8.49263;2.42919
333000;334;26.1722;0.415738;0.0161411;-2.55157;26.0149;-1.30228;-0.0501711;0.389341;-0.619244;-0.202746;-0.601734;-0.232706;0.676271;-5.8887;-0.00110568;-4.22593e-05;0.00537867;0.00537895;-0.00110595;0.00324245;0.205567;4.86458;0.00400583;0.00432327;4.86362;0.205608;116.525;161.525;-0.00453964;-0.00110963;0.0027422;-0.00280876;0.00537493;-0.0040494;0.014245;0;0.0200612;-0.247565;-0.993767;-0.834146;1.32086;-7.16032;-0.0107531;0.00234094;0.0400432;0.0401508;-0.0108607;0.0255058;0.268537;3.72389;0.0310277;0.0340077;3.69689;0.270498;84.5578;129.558;0.00242047;-0.0107575;0.000842443;0.00376624;0.0400455;-0.00230645;0.0608117;0;0.069063;8.49631;2.43472
334000;335;26.1784;0.421995;0.0163841;-2.55272;26.0208;-1.30751;-0.0513253;0.39526;-0.624477;-0.203448;-0.601679;-0.233598;0.67674;-5.8896;-0.00103647;0.000124223;0.00565614;0.00565845;-0.00103878;0.00334861;0.183248;5.4571;0.00416199;0.00446482;5.44721;0.18358;114.081;159.081;-0.00473937;-0.00104;0.00292575;-0.00265866;0.00565189;-0.0032229;0.0137828;0;0.0221107;-0.248672;-1.00117;-0.837037;1.32846;-7.16322;-0.0107308;0.00213088;0.0402572;0.0403461;-0.0108197;0.0255829;0.266556;3.75155;0.0311371;0.0341106;3.72895;0.268172;84.7938;129.794;0.00383613;-0.010735;0.000615601;0.00357188;0.0402592;-0.00315265;0.0600095;0;0.0753253;8.50547;2.44003
335000;336;26.1847;0.428279;0.0166281;-2.5529;26.0268;-1.31331;-0.0514962;0.401274;-0.630278;-0.202839;-0.603397;-0.227983;0.676171;-5.88398;-0.00111554;-0.000193606;0.0054422;0.00544791;-0.00112125;0.00328458;0.204979;4.87856;0.00405766;0.00437944;4.8588;0.205812;118.118;163.118;-0.00520295;-0.00112018;0.00268326;-0.00305171;0.00543864;-0.00298192;0.0131745;0;0.019806;-0.248334;-1.00996;-0.832948;1.33248;-7.15913;-0.0111533;0.00228564;0.0409943;0.0410943;-0.0112533;0.0261738;0.27207;3.67553;0.0318177;0.0348984;3.65175;0.273841;84.8328;129.833;0.00529793;-0.0111574;0.000837906;0.00366084;0.0409965;0.00178609;0.0424207;0;0.0776113;8.51412;2.44467
336000;337;26.1899;0.433479;0.0168299;-2.55376;26.0312;-1.32821;-0.052359;0.405665;-0.645172;-0.203144;-0.603438;-0.230396;0.677117;-5.88639;-0.000955931;-7.94531e-05;0.00536583;0.00536683;-0.000956929;0.00316188;0.178151;5.6132;0.00393583;0.00421584;5.60839;0.178304;115.967;160.967;-0.00440685;-0.000959727;0.00261349;-0.00275546;0.00536244;-0.00361352;0.0126897;0;0.0203313;-0.24905;-1.01822;-0.837961;1.34201;-7.16414;-0.0112962;0.00263317;0.0421489;0.0422784;-0.0114256;0.026852;0.268007;3.73125;0.0326671;0.0358027;3.70031;0.270248;84.5961;129.596;0.00637781;-0.0113009;0.00117558;0.004016;0.0421516;0.00350564;0.0399537;0;0.0779721;8.52118;2.45288
337000;338;26.1938;0.437383;0.0169815;-2.55628;26.0342;-1.34246;-0.0548769;0.408615;-0.659424;-0.203039;-0.60396;-0.227351;0.676521;-5.88335;-0.00100949;-2.23299e-05;0.00553012;0.00553019;-0.00100956;0.00326988;0.182543;5.47815;0.00406532;0.00435984;5.47782;0.182555;115.575;160.575;-0.00476083;-0.00101339;0.0027651;-0.00279163;0.00552631;-0.003085;0.0144562;0;0.0207154;-0.249145;-1.02506;-0.835966;1.34598;-7.16023;-0.0118224;0.00308642;0.0431977;0.0433702;-0.011995;0.0276826;0.273682;3.65388;0.0336326;0.0369102;3.61569;0.276572;82.414;127.414;0.00265113;-0.0118328;0.00056107;0.00547856;0.0432021;-0.00289371;0.0515281;0;0.0781872;8.52359;2.45833
338000;339;26.1977;0.441275;0.0171326;-2.55785;26.0374;-1.35249;-0.0564467;0.411857;-0.669458;-0.203967;-0.603734;-0.231715;0.678077;-5.88771;-0.00100915;0.000119269;0.00546269;0.00546488;-0.00101134;0.00323811;0.184734;5.41318;0.00402297;0.00431749;5.40359;0.185062;114.081;159.081;-0.00449559;-0.00101242;0.00281779;-0.00256189;0.00545875;-0.00315867;0.0139075;0;0.0207472;-0.250737;-1.03274;-0.844176;1.35722;-7.17035;-0.0116592;0.00265398;0.0432816;0.0434095;-0.0117871;0.0275983;0.269379;3.71224;0.0335658;0.0367977;3.68281;0.271532;83.913;128.913;0.00132143;-0.0116658;0.000728898;0.00447767;0.0432848;2.00422e-05;0.0603069;0;0.0777056;8.52516;2.46489
339000;340;26.21;0.453612;0.0176116;-2.55639;26.0509;-1.33347;-0.0549876;0.42536;-0.651676;-0.204069;-0.604984;-0.225452;0.67711;-5.88145;-0.0010205;-0.000109733;0.00565532;0.00565712;-0.00102231;0.00333971;0.18045;5.5417;0.00415433;0.00445295;5.53369;0.180711;115.622;160.622;-0.00453833;-0.00102445;0.00260986;-0.00281127;0.00565194;-0.00305728;0.0135852;0;0.0216496;-0.251117;-1.04092;-0.838285;1.35989;-7.16425;-0.0117341;0.00306696;0.0441602;0.044328;-0.0119018;0.0281149;0.265716;3.76342;0.0342164;0.0374865;3.72446;0.268495;84.0957;129.096;0.00218562;-0.0117401;0.00142308;0.00462284;0.0441637;-0.0033485;0.0564891;0;0.0734013;8.52978;2.47272
340000;341;26.2214;0.464943;0.0180516;-2.55496;26.0629;-1.32496;-0.0535624;0.437368;-0.641926;-0.203898;-0.60368;-0.229922;0.677398;-5.88592;-0.00113183;-0.000109588;0.00552497;0.00552677;-0.00113363;0.0033302;0.204857;4.88144;0.00411478;0.00444027;4.87527;0.205117;117.087;162.087;-0.00465812;-0.00113619;0.00275229;-0.00295252;0.00552121;-0.00333061;0.0136037;0;0.0212411;-0.251226;-1.04607;-0.846409;1.36886;-7.17259;-0.0118808;0.00271196;0.0441;0.0442311;-0.0120119;0.0281215;0.269406;3.71187;0.0342019;0.0374953;3.68228;0.271571;84.8746;129.875;0.00123186;-0.0118853;0.00132405;0.00402544;0.0441027;0.00209477;0.0677569;0;0.074142;8.53589;2.4803
341000;342;26.2277;0.471305;0.0182985;-2.55653;26.0689;-1.32992;-0.05513;0.443362;-0.646884;-0.203594;-0.605199;-0.226256;0.677427;-5.88225;-0.00107542;-0.000102442;0.00554084;0.00554243;-0.001077;0.00330971;0.194089;5.15228;0.00410136;0.00441295;5.14617;0.194319;116.56;161.56;-0.00505329;-0.00107961;0.00270946;-0.00289585;0.0055372;-0.0025233;0.012898;0;0.0206903;-0.251461;-1.0534;-0.844233;1.37318;-7.1685;-0.0118249;0.00318661;0.0447064;0.0448854;-0.0120039;0.0284447;0.264501;3.78071;0.0346256;0.0379262;3.73923;0.267435;83.98;128.98;-0.000336784;-0.0118313;0.0015;0.00478194;0.0447102;-0.00173152;0.0645832;0;0.0768733;8.54733;2.48787
342000;343;26.2345;0.478108;0.0185627;-2.55724;26.0755;-1.33453;-0.0558369;0.449902;-0.651494;-0.203988;-0.604911;-0.226319;0.67731;-5.88232;-0.00105255;-1.92234e-05;0.00575507;0.00575512;-0.00105261;0.00340387;0.182892;5.46771;0.00423148;0.00453849;5.46748;0.1829;114.615;159.615;-0.0047683;-0.00105625;0.00269633;-0.0027164;0.00575145;-0.00339901;0.0128541;0;0.0216514;-0.252129;-1.06224;-0.844898;1.3805;-7.17108;-0.0119533;0.00262853;0.0446161;0.044738;-0.0120752;0.0284066;0.267915;3.73252;0.0345609;0.0378755;3.70494;0.26991;85.0832;130.083;0.00391953;-0.0119576;0.0012785;0.00390544;0.0446186;-0.00134605;0.055939;0;0.079845;8.5563;2.49493
343000;344;26.2427;0.486332;0.018882;-2.55715;26.0836;-1.33763;-0.0557484;0.458026;-0.654591;-0.204036;-0.605793;-0.225638;0.677885;-5.88164;-0.00110491;-1.64471e-07;0.00546949;0.00546949;-0.00110491;0.0032872;0.202014;4.95015;0.004065;0.00438294;4.95015;0.202014;115.202;160.202;-0.00480252;-0.0011084;0.00265655;-0.00263951;0.00546598;-0.00280246;0.0128912;0;0.0219425;-0.252993;-1.07039;-0.84893;1.3894;-7.17511;-0.0123544;0.00270247;0.0455786;0.0457044;-0.0124802;0.0290923;0.271058;3.68925;0.0353714;0.0387898;3.66215;0.273064;84.5119;129.512;0.00375448;-0.0123602;0.000985144;0.00432464;0.0455817;0.00391642;0.0536233;0;0.0840682;8.56896;2.50233
344000;345;26.2457;0.489264;0.0189958;-2.5592;26.0855;-1.35449;-0.0577965;0.459905;-0.671461;-0.203821;-0.606022;-0.223504;0.677318;-5.8795;-0.00114439;-0.00020732;0.00557477;0.00558116;-0.00115078;0.00336597;0.20528;4.87141;0.00415779;0.00448796;4.84991;0.20619;117.269;162.269;-0.0047647;-0.00114871;0.00254882;-0.00294504;0.00557156;-0.00366034;0.0133422;0;0.0205871;-0.252739;-1.07821;-0.848443;1.39508;-7.17462;-0.0127822;0.00264262;0.0466714;0.0467886;-0.0128994;0.029844;0.273876;3.65128;0.0362652;0.039792;3.62719;0.275696;84.8752;129.875;0.0051266;-0.0127874;0.00103798;0.00415611;0.0466742;-0.00019297;0.0453284;0;0.0858707;8.56566;2.50894
345000;346;26.2474;0.490998;0.0190631;-2.5609;26.0862;-1.37123;-0.0595001;0.460608;-0.688198;-0.203719;-0.606741;-0.222644;0.677648;-5.87864;-0.00112924;3.71742e-05;0.00565672;0.00565692;-0.00112945;0.00339318;0.199629;5.0093;0.00419871;0.00452425;5.00858;0.199657;114.624;159.624;-0.0047145;-0.00113276;0.00274263;-0.00265003;0.00565298;-0.00303016;0.0120197;0;0.0221205;-0.253231;-1.08453;-0.850526;1.40133;-7.17479;-0.0128999;0.00359628;0.0478075;0.0480198;-0.0131122;0.030566;0.26983;3.70604;0.0371632;0.0407547;3.66222;0.273058;83.6849;128.685;0.00214133;-0.012908;0.00171482;0.00536872;0.0478123;-0.00158506;0.0554001;0;0.0893017;8.56919;2.51451
346000;347;26.2566;0.500255;0.0194226;-2.56019;26.0964;-1.355;-0.0587905;0.470806;-0.673205;-0.203964;-0.606997;-0.221575;0.677601;-5.87757;-0.00108254;-5.32823e-05;0.00539799;0.00539843;-0.00108297;0.0032407;0.200544;4.98644;0.004009;0.00432094;4.98482;0.200609;116.177;161.177;-0.00501116;-0.00108634;0.00266995;-0.00275896;0.00539445;-0.00245533;0.0136603;0;0.0246139;-0.253679;-1.09283;-0.851714;1.40856;-7.17727;-0.01288;0.00309321;0.0476965;0.0478541;-0.0130376;0.0304458;0.270041;3.70313;0.0370219;0.0405944;3.67047;0.272445;85.1805;130.18;0.00121046;-0.0128843;0.00187922;0.00423701;0.0476994;0.000658949;0.0663668;0;0.0867256;8.57647;2.51766
347000;348;26.2689;0.512478;0.0198971;-2.55864;26.1093;-1.34673;-0.0572382;0.483717;-0.663692;-0.204403;-0.607846;-0.221733;0.678545;-5.87773;-0.00106639;-0.000122438;0.00557613;0.00557839;-0.00106865;0.00332352;0.191242;5.22898;0.00412158;0.00443135;5.22005;0.191569;116.205;161.205;-0.00483422;-0.00107042;0.0026131;-0.00283991;0.00557274;-0.00232667;0.0138093;0;0.0211382;-0.254708;-1.10107;-0.855535;1.41745;-7.18171;-0.0127496;0.0035294;0.0483943;0.0485973;-0.0129527;0.030775;0.263453;3.79575;0.0374696;0.0410333;3.75192;0.26653;85.4931;130.493;0.00489213;-0.0127526;0.00273697;0.00427562;0.0483966;0.00309625;0.0561133;0;0.0828254;8.58707;2.52379
348000;349;26.2784;0.521997;0.0202667;-2.56122;26.1184;-1.35054;-0.0598191;0.492846;-0.667507;-0.204545;-0.60869;-0.221098;0.679136;-5.8771;-0.00108828;-4.06143e-05;0.00549079;0.00549105;-0.00108853;0.00328979;0.1982;5.0454;0.00407233;0.00438638;5.04447;0.198237;115.727;160.727;-0.00480483;-0.00109202;0.00267259;-0.00273606;0.00548724;-0.00220385;0.0136982;0;0.0243072;-0.255176;-1.10935;-0.856586;1.42461;-7.18276;-0.0129089;0.00303258;0.0478933;0.0480442;-0.0130598;0.030552;0.269536;3.71009;0.0371558;0.040736;3.67878;0.27183;85.0402;130.04;0.00177133;-0.0129137;0.001679;0.00430762;0.0478963;0.00377386;0.0678026;0;0.0848746;8.59529;2.53107
349000;350;26.2893;0.532883;0.0206893;-2.55961;26.1297;-1.3472;-0.0582111;0.504128;-0.664165;-0.205119;-0.608737;-0.222167;0.6797;-5.87817;-0.00113768;8.07623e-06;0.00588797;0.00588798;-0.00113769;0.00351283;0.193221;5.17541;0.00435437;0.00468378;5.17538;0.193223;114.176;159.176;-0.00442901;-0.00114126;0.002711;-0.00267597;0.00588431;-0.00342643;0.0137672;0;0.0238125;-0.256516;-1.11742;-0.860276;1.43335;-7.18645;-0.0129726;0.00328419;0.0487391;0.0489134;-0.0131469;0.0310301;0.266164;3.75708;0.0377619;0.0413735;3.72053;0.268779;85.1996;130.2;0.00503302;-0.0129768;0.00212873;0.00437166;0.0487421;-0.00373467;0.0564036;0;0.0908108;8.60353;2.53853
350000;351;26.2963;0.539882;0.0209611;-2.56065;26.1363;-1.35403;-0.0592491;0.510715;-0.671;-0.205165;-0.608671;-0.223007;0.67993;-5.87901;-0.000993623;1.64913e-05;0.00602158;0.00602162;-0.000993662;0.00350764;0.16501;6.06022;0.00438334;0.00467685;6.06002;0.165016;113.444;158.444;-0.00441832;-0.00099726;0.00274764;-0.00269561;0.00601783;-0.003504;0.0124783;0;0.0209907;-0.257243;-1.1242;-0.863186;1.44052;-7.18745;-0.0136264;0.00352577;0.0499318;0.0501268;-0.0138214;0.0319741;0.2729;3.66435;0.0388533;0.0426321;3.62676;0.275728;83.009;128.009;0.00270042;-0.0136379;0.000964967;0.00593153;0.0499373;0.00306268;0.0618533;0;0.0950512;8.60219;2.54638
351000;352;26.2968;0.540391;0.0209808;-2.56345;26.1356;-1.37141;-0.062053;0.510046;-0.688374;-0.2056;-0.609176;-0.222286;0.680278;-5.87828;-0.00109213;-0.00012013;0.00576906;0.00577116;-0.00109424;0.0034327;0.189309;5.28238;0.0042593;0.00457693;5.27415;0.189604;115.911;160.911;-0.00490479;-0.00109631;0.00266917;-0.0028904;0.00576553;-0.00215944;0.0134285;0;0.021928;-0.257951;-1.13236;-0.867596;1.44965;-7.19377;-0.0137262;0.00307785;0.0505115;0.0506586;-0.0138734;0.032266;0.271745;3.67992;0.0392234;0.0430213;3.6515;0.27386;85.0702;130.07;0.00433459;-0.0137316;0.00159587;0.0044692;0.0505148;0.0034128;0.0548485;0;0.0928386;8.60542;2.55311
352000;353;26.2994;0.542953;0.0210803;-2.56523;26.137;-1.38961;-0.0638309;0.511488;-0.706575;-0.205624;-0.609083;-0.22287;0.680392;-5.87887;-0.00113883;-0.00021262;0.00577933;0.00578586;-0.00114536;0.00346561;0.197052;5.07481;0.00429029;0.00462081;5.05158;0.197958;116.139;161.139;-0.00437858;-0.0011429;0.00245339;-0.0028603;0.00577636;-0.00301744;0.0132798;0;0.0221294;-0.258423;-1.13862;-0.868488;1.45516;-7.19275;-0.0138827;0.00424246;0.051897;0.0521695;-0.0141552;0.0331624;0.267506;3.73824;0.0403347;0.0442165;3.68553;0.271331;83.834;128.834;0.00384622;-0.0138911;0.00249942;0.00587648;0.0519026;-0.00189927;0.058946;0;0.0963001;8.61499;2.56068
353000;354;26.3045;0.548104;0.0212803;-2.56527;26.1421;-1.39269;-0.0638734;0.516503;-0.709656;-0.205647;-0.610369;-0.219577;0.680481;-5.87558;-0.00114453;-0.0001563;0.00559257;0.0055962;-0.00114816;0.00337218;0.204653;4.88633;0.00416659;0.00449624;4.87406;0.205168;116.405;161.405;-0.0045022;-0.00114851;0.00252791;-0.00282252;0.00558941;-0.00340704;0.0133807;0;0.0272839;-0.258779;-1.14796;-0.868299;1.46243;-7.19448;-0.0136664;0.00369655;0.0516014;0.0518101;-0.0138751;0.0328426;0.264845;3.7758;0.0399759;0.0437901;3.73405;0.267806;85.7779;130.778;0.00393833;-0.013669;0.00300642;0.00434384;0.0516036;0.00224286;0.0552822;0;0.0968327;8.62399;2.56756
354000;355;26.3147;0.558241;0.0216739;-2.56532;26.1525;-1.38803;-0.063922;0.526946;-0.704991;-0.205504;-0.610924;-0.218622;0.680629;-5.87462;-0.00113366;1.64162e-05;0.00588185;0.00588189;-0.0011337;0.00350779;0.192738;5.18838;0.0043487;0.00467706;5.18824;0.192744;113.968;158.968;-0.00422864;-0.00113715;0.00269172;-0.00264023;0.00587825;-0.00357567;0.0133088;0;0.0281359;-0.259308;-1.15579;-0.872135;1.47095;-7.19831;-0.0136612;0.00377235;0.0520989;0.0523146;-0.0138769;0.0330958;0.262217;3.81363;0.0403064;0.0441277;3.7699;0.265259;85.5057;130.506;0.0033792;-0.0136647;0.00290946;0.0045813;0.0521017;0.00552228;0.0679032;0;0.0900212;8.63157;2.57561
355000;356;26.3292;0.572801;0.0222392;-2.56642;26.1675;-1.38014;-0.0650221;0.541905;-0.697111;-0.205135;-0.612716;-0.215733;0.681207;-5.87173;-0.00114148;-8.94424e-05;0.00591585;0.00591698;-0.00114262;0.0035298;0.192954;5.18259;0.00437554;0.0047064;5.17844;0.193108;114.77;159.77;-0.00479143;-0.00114527;0.00258978;-0.00274986;0.00591252;-0.00280931;0.0126905;0;0.0239897;-0.259139;-1.16466;-0.868905;1.47601;-7.19317;-0.0138343;0.00409329;0.0524442;0.052696;-0.0140861;0.0333911;0.26379;3.79089;0.0406479;0.0445214;3.741;0.267308;84.1415;129.141;0.00106992;-0.0138419;0.00243147;0.00565044;0.0524493;0.00278763;0.0665625;0;0.0864358;8.6421;2.58265
356000;357;26.3321;0.575722;0.0223526;-2.56602;26.1702;-1.38425;-0.0646174;0.544667;-0.701214;-0.205193;-0.613332;-0.215215;0.681614;-5.87121;-0.00115248;-9.0536e-05;0.00589508;0.00589625;-0.00115365;0.00352495;0.195499;5.11512;0.00436648;0.00469993;5.11097;0.195658;115.154;160.154;-0.00465853;-0.00115641;0.00264182;-0.00280374;0.00589162;-0.00296307;0.0129631;0;0.0230293;-0.259536;-1.17331;-0.870142;1.48363;-7.19441;-0.0139015;0.00415057;0.0530224;0.0532788;-0.014158;0.0337184;0.262182;3.81414;0.0410604;0.0449579;3.76317;0.265734;83.8263;128.826;-1.81941e-06;-0.0139106;0.00224812;0.0059321;0.0530282;0.00248491;0.0645899;0;0.0936408;8.63687;2.58971
357000;358;26.3476;0.59123;0.0229547;-2.56524;26.1863;-1.37693;-0.0638372;0.560734;-0.693893;-0.205304;-0.613304;-0.215731;0.681785;-5.87173;-0.00117614;-9.69967e-05;0.00576972;0.00577107;-0.00117749;0.00347428;0.203847;4.90564;0.00429404;0.00463238;4.90115;0.204034;115.277;160.277;-0.00459433;-0.00117988;0.00256007;-0.00273571;0.00576647;-0.00195406;0.0129878;0;0.0222971;-0.260178;-1.18108;-0.874464;1.49242;-7.19873;-0.0145417;0.00424933;0.053917;0.0541797;-0.0148044;0.0344921;0.269705;3.70775;0.0419349;0.0459894;3.65969;0.273247;83.5438;128.544;0.000768199;-0.0145522;0.00212842;0.00623246;0.0539234;0.00435267;0.0661375;0;0.0977683;8.63864;2.59303
358000;359;26.3493;0.592863;0.0230181;-2.56719;26.1869;-1.39343;-0.0657923;0.561312;-0.710397;-0.205879;-0.61379;-0.216018;0.682487;-5.87202;-0.00117949;-0.000173949;0.00557706;0.00558154;-0.00118397;0.00338275;0.21149;4.72835;0.00417206;0.00451034;4.71426;0.212122;116.606;161.606;-0.00462179;-0.00118346;0.00249012;-0.00282011;0.00557399;-0.00257722;0.0126416;0;0.0222087;-0.261012;-1.19003;-0.877508;1.50144;-7.20369;-0.0147325;0.00332919;0.0545286;0.0546882;-0.0148921;0.0347902;0.270179;3.70125;0.0423058;0.0463869;3.67229;0.272309;86.1722;131.172;0.00438666;-0.0147352;0.00253613;0.00407016;0.0545308;-0.000105296;0.0610449;0;0.0961324;8.64548;2.59821
359000;360;26.3531;0.596658;0.0231654;-2.5692;26.1896;-1.4101;-0.0678023;0.564041;-0.727068;-0.205844;-0.614494;-0.213622;0.682356;-5.86962;-0.00102173;1.11412e-05;0.0059501;0.00595012;-0.00102174;0.00348593;0.171716;5.82358;0.00434753;0.00464791;5.8235;0.171718;113.614;158.614;-0.00440375;-0.0010253;0.00271185;-0.00267085;0.00594645;-0.00276234;0.0124113;0;0.0210061;-0.261231;-1.19769;-0.877009;1.50726;-7.20319;-0.0146572;0.00369987;0.0554237;0.0556185;-0.0148519;0.0352352;0.264456;3.78134;0.0428955;0.0469803;3.74486;0.267032;86.893;131.893;0.00304805;-0.0146574;0.0036298;0.00376529;0.055424;0.00352179;0.0571853;0;0.0965648;8.65223;2.60567
360000;361;26.357;0.600563;0.023317;-2.56998;26.1933;-1.41382;-0.0685803;0.567693;-0.730789;-0.205675;-0.615032;-0.214333;0.683012;-5.87033;-0.00107163;5.19899e-05;0.00576727;0.00576766;-0.00107202;0.00341984;0.185812;5.38179;0.00424778;0.00455979;5.38018;0.185867;114.065;159.065;-0.00471418;-0.00107514;0.00277286;-0.00265038;0.00576345;-0.00251871;0.0138234;0;0.0213605;-0.261839;-1.20518;-0.881096;1.5157;-7.20727;-0.0147183;0.00393748;0.0558018;0.056021;-0.0149374;0.0354792;0.26376;3.79133;0.0431961;0.0473056;3.75037;0.26664;87.0205;132.021;0.0046276;-0.0147177;0.00409376;0.00379164;0.0558012;0.00184377;0.0578348;0;0.0962793;8.65763;2.61283
361000;362;26.3682;0.611814;0.0237538;-2.56721;26.206;-1.39218;-0.065815;0.580445;-0.709143;-0.206044;-0.615482;-0.21619;0.684113;-5.87219;-0.00117737;-0.000105789;0.00606296;0.00606451;-0.00117892;0.00362171;0.194191;5.14957;0.00448789;0.00482895;5.14413;0.194396;114.979;159.979;-0.00482092;-0.00118142;0.00265535;-0.00284706;0.00605946;-0.00235513;0.0122648;0;0.0206072;-0.262718;-1.21223;-0.885242;1.52387;-7.20951;-0.0147495;0.00449139;0.0561631;0.0564464;-0.0150329;0.0357397;0.26262;3.80779;0.0435162;0.0476529;3.75487;0.266321;85.0014;130.001;0.00058404;-0.0147545;0.00343024;0.00548129;0.0561671;0.00881982;0.0595777;0;0.0971985;8.67155;2.6198
362000;363;26.3841;0.627668;0.0243694;-2.56821;26.2218;-1.39411;-0.0668067;0.596197;-0.711077;-0.206361;-0.617276;-0.212182;0.68457;-5.86818;-0.00118627;-6.12059e-05;0.00584502;0.00584556;-0.00118681;0.00351618;0.202954;4.92722;0.00434698;0.00468824;4.92545;0.203027;114.74;159.74;-0.00432097;-0.0011899;0.00258939;-0.00269328;0.00584169;-0.00225518;0.013206;0;0.0200602;-0.263365;-1.22196;-0.884401;1.53124;-7.20867;-0.0149868;0.00443388;0.0564608;0.0567349;-0.0152609;0.0359979;0.265437;3.76737;0.0438055;0.0479972;3.71767;0.268986;84.0272;129.027;0.00171633;-0.0149962;0.00256693;0.00617455;0.056467;-0.00141536;0.0695796;0;0.090886;8.67536;2.62664
363000;364;26.3884;0.631995;0.0245374;-2.56918;26.2258;-1.39755;-0.0677838;0.600273;-0.71452;-0.207074;-0.61709;-0.214784;0.685428;-5.87078;-0.0012877;-2.389e-05;0.00598604;0.00598611;-0.00128778;0.00363695;0.215117;4.64863;0.0044821;0.00484926;4.64841;0.215127;114.439;159.439;-0.00457152;-0.00129129;0.00265143;-0.00267987;0.00598254;-0.00186834;0.0114208;0;0.0205471;-0.264486;-1.23011;-0.888852;1.54052;-7.21312;-0.0149702;0.00468035;0.0573295;0.0576312;-0.015272;0.0364516;0.261126;3.82956;0.0443959;0.0486021;3.77366;0.264995;83.411;128.411;0.000259999;-0.0149826;0.002405;0.00680008;0.0573371;0.00434461;0.0695748;0;0.0970673;8.67507;2.63428
364000;365;26.4021;0.645647;0.0250674;-2.56716;26.2399;-1.39416;-0.0657646;0.614387;-0.711124;-0.207518;-0.616423;-0.216376;0.685463;-5.87237;-0.00117847;0.000127567;0.00612281;0.00612504;-0.0011807;0.00365287;0.192473;5.19553;0.00452853;0.00487049;5.18762;0.192767;112.541;157.541;-0.00442211;-0.00118168;0.00280653;-0.00253196;0.0061189;-0.00291685;0.0123721;0;0.0225547;-0.265524;-1.23723;-0.893347;1.54897;-7.21761;-0.0152521;0.0042885;0.0582218;0.0584712;-0.0155015;0.0369864;0.261965;3.81731;0.045046;0.0493152;3.77197;0.265114;84.0885;129.088;0.000293948;-0.0152622;0.00223331;0.00620098;0.0582281;0.0043266;0.0711145;0;0.102019;8.67547;2.64094
365000;366;26.4034;0.647029;0.0251211;-2.56978;26.2401;-1.41164;-0.0683796;0.614587;-0.72861;-0.207074;-0.618013;-0.212677;0.685603;-5.86868;-0.00121054;-5.29356e-05;0.00596178;0.00596218;-0.00121094;0.00358656;0.203051;4.92488;0.00443389;0.00478207;4.92361;0.203103;114.462;159.462;-0.00418466;-0.00121419;0.00261244;-0.0026993;0.00595839;-0.00319814;0.0124783;0;0.0202841;-0.265638;-1.24504;-0.893008;1.55504;-7.21727;-0.01573;0.00408507;0.0591755;0.0593976;-0.0159521;0.0376749;0.265819;3.76195;0.0458503;0.0502331;3.7235;0.268565;85.3987;130.399;-0.000538632;-0.0157352;0.00288815;0.00519733;0.0591794;-0.00187457;0.0694796;0;0.0956534;8.67862;2.6488
366000;367;26.4053;0.648923;0.0251946;-2.57301;26.2407;-1.43059;-0.0716114;0.61515;-0.747552;-0.207398;-0.618097;-0.210707;0.685168;-5.86671;-0.00127138;-0.000120383;0.00603179;0.00603378;-0.00127336;0.00365357;0.210779;4.74431;0.00450733;0.00487142;4.73847;0.211038;115.152;160.152;-0.00473514;-0.0012753;0.00258229;-0.00280343;0.00602849;-0.00191807;0.0125046;0;0.0209072;-0.26638;-1.2537;-0.894425;1.56292;-7.2206;-0.0152439;0.00373756;0.0591447;0.059332;-0.0154312;0.0373816;0.25774;3.87988;0.0455777;0.0498422;3.84493;0.260083;87.9859;132.986;0.00279906;-0.0152417;0.00443166;0.0030922;0.059142;0.00205236;0.0591512;0;0.0990183;8.6853;2.65442
367000;368;26.4118;0.655418;0.0254468;-2.5701;26.2484;-1.4143;-0.0687029;0.622853;-0.731265;-0.206451;-0.619228;-0.211862;0.686258;-5.86786;-0.00120834;-8.02056e-05;0.00606909;0.00606998;-0.00120923;0.0036396;0.199098;5.02265;0.00450416;0.0048528;5.01971;0.199215;114.299;159.299;-0.00447641;-0.00121204;0.00257669;-0.00271789;0.0060658;-0.00264555;0.0121718;0;0.020917;-0.265524;-1.26039;-0.897957;1.57017;-7.22222;-0.0158204;0.00453315;0.0601138;0.0603834;-0.01609;0.0382367;0.263174;3.79977;0.0465552;0.0509823;3.75284;0.266465;85.9898;130.99;0.000925251;-0.0158226;0.00403658;0.00499416;0.0601158;0.00892917;0.0595573;0;0.106022;8.6977;2.6607
368000;369;26.4189;0.662525;0.0257227;-2.5743;26.2541;-1.4343;-0.0729012;0.628509;-0.751262;-0.207991;-0.620164;-0.210976;0.687295;-5.86697;-0.00122345;-1.83729e-05;0.00601003;0.00601008;-0.0012235;0.00361679;0.203568;4.91236;0.00447071;0.00482239;4.91221;0.203574;114.246;159.246;-0.00426026;-0.00122709;0.00267864;-0.00269599;0.00600647;-0.00250628;0.01186;0;0.0211104;-0.267752;-1.271;-0.899835;1.58014;-7.22881;-0.015535;0.00434991;0.059671;0.0599218;-0.0157858;0.0378538;0.260344;3.84107;0.0461193;0.0504717;3.79594;0.26344;86.168;131.168;0.000840543;-0.0155369;0.00391501;0.00475395;0.0596727;0.0110084;0.0635234;0;0.0937445;8.70358;2.66744
369000;370;26.4302;0.673808;0.0261608;-2.57362;26.266;-1.42481;-0.0722188;0.640445;-0.741773;-0.207876;-0.61996;-0.211494;0.687236;-5.86749;-0.00117669;6.07749e-05;0.00570598;0.00570652;-0.00117723;0.00344187;0.20622;4.84918;0.00425143;0.00458916;4.84743;0.206295;113.776;158.776;-0.00397502;-0.00117983;0.00264459;-0.00250536;0.0057025;-0.00281694;0.0123151;0;0.0239393;-0.267817;-1.27868;-0.90276;1.58799;-7.231;-0.0159544;0.00489164;0.0606609;0.060972;-0.0162655;0.0386187;0.26301;3.80214;0.0470172;0.0514916;3.74855;0.26677;84.4543;129.454;0.00383654;-0.0159628;0.0033108;0.00635827;0.060667;0.00820601;0.0541778;0;0.0960664;8.70556;2.67115
370000;371;26.4429;0.686469;0.0266523;-2.57114;26.2801;-1.40449;-0.0697415;0.654521;-0.721456;-0.20789;-0.62086;-0.209381;0.687405;-5.86538;-0.00133264;-7.01984e-05;0.00592227;0.00592295;-0.00133332;0.00362814;0.225022;4.444;0.00446001;0.00483752;4.44225;0.225111;115.006;160.006;-0.00451179;-0.0013363;0.00258021;-0.00270149;0.00591897;-0.00166666;0.0125678;0;0.0214711;-0.268564;-1.28758;-0.903307;1.59561;-7.23048;-0.0159808;0.00465777;0.0613235;0.0616032;-0.0162604;0.0389318;0.260598;3.83732;0.0474273;0.0519091;3.78853;0.263955;84.5097;129.51;0.000461124;-0.0159897;0.00292898;0.00626064;0.0613297;0.0101153;0.0664232;0;0.0983535;8.70807;2.67764
371000;372;26.4513;0.694922;0.0269806;-2.57106;26.2881;-1.41354;-0.0696632;0.66255;-0.730501;-0.207527;-0.621894;-0.207682;0.687715;-5.86368;-0.00129755;-7.11412e-05;0.0061;0.00610068;-0.00129823;0.00369946;0.212713;4.70118;0.00456186;0.00493261;4.69923;0.212801;114.701;159.701;-0.00450195;-0.00130138;0.00264457;-0.00276688;0.00609652;-0.00162752;0.0127173;0;0.025449;-0.268362;-1.29505;-0.904406;1.60222;-7.22867;-0.0163434;0.00444237;0.0623937;0.0626435;-0.0165932;0.0396184;0.26194;3.81767;0.048254;0.0528245;3.77525;0.264883;85.4768;130.477;-0.0022942;-0.0163486;0.00332801;0.00547414;0.0623978;0.00388061;0.0727437;0;0.100318;8.70819;2.68511
372000;373;26.4568;0.70039;0.0271928;-2.57442;26.2921;-1.4351;-0.0730181;0.666555;-0.752068;-0.207921;-0.622206;-0.208063;0.688231;-5.86406;-0.00122284;-5.33473e-06;0.00614153;0.00614153;-0.00122285;0.00368219;0.199111;5.02233;0.00455699;0.00490958;5.02232;0.199111;113.728;158.728;-0.00426309;-0.00122643;0.00268702;-0.00267798;0.00613794;-0.00262674;0.0121087;0;0.0232794;-0.269409;-1.30255;-0.909321;1.61124;-7.23359;-0.016227;0.0046832;0.0633864;0.063661;-0.0165015;0.0400812;0.256;3.90624;0.0488786;0.0534416;3.85789;0.259209;86.7466;131.747;-0.00107988;-0.0162266;0.00477206;0.00460099;0.063386;0.002103;0.0649734;0;0.100699;8.7195;2.69259
373000;374;26.4584;0.701993;0.0272551;-2.57708;26.2922;-1.45801;-0.0756845;0.666648;-0.774971;-0.208113;-0.622534;-0.207477;0.688409;-5.86348;-0.0012635;-0.000124864;0.00624118;0.00624326;-0.00126557;0.00375441;0.202445;4.93961;0.0046419;0.00500589;4.93315;0.20271;114.433;159.433;-0.00411225;-0.00126739;0.00256087;-0.00279056;0.00623793;-0.00294004;0.0134109;0;0.0221351;-0.269991;-1.31045;-0.911967;1.61922;-7.23623;-0.0163503;0.00479116;0.0638227;0.064108;-0.0166356;0.0403718;0.256184;3.90345;0.0492298;0.0538291;3.85366;0.259494;86.6231;131.623;0.000462164;-0.0163502;0.0048184;0.00476597;0.0638225;0.0105554;0.068079;0;0.110453;8.72287;2.69979
374000;375;26.4607;0.704326;0.0273457;-2.58161;26.2929;-1.4792;-0.0802098;0.667368;-0.796168;-0.20846;-0.623063;-0.20996;0.689743;-5.86596;-0.00135221;-1.15011e-06;0.00618975;0.00618975;-0.00135221;0.00377098;0.218459;4.57752;0.00464334;0.00502797;4.57752;0.218459;113.579;158.579;-0.00407122;-0.00135561;0.0026252;-0.00260782;0.00618633;-0.00214808;0.012773;0;0.0226486;-0.270883;-1.32031;-0.916581;1.62994;-7.24372;-0.0163092;0.00468848;0.063608;0.0638821;-0.0165833;0.0402327;0.256402;3.90013;0.0490592;0.0536436;3.85219;0.259593;87.4567;132.457;0.00355985;-0.0163063;0.0053935;0.00403644;0.0636046;0.00410209;0.0560123;0;0.105643;8.73133;2.70731
375000;376;26.4714;0.715031;0.0277613;-2.5827;26.3037;-1.47678;-0.0813032;0.678169;-0.793749;-0.208316;-0.622425;-0.207096;0.688257;-5.86309;-0.00127552;-7.7641e-05;0.00622729;0.00622809;-0.00127632;0.00375221;0.204828;4.88216;0.00463644;0.00500294;4.87971;0.20493;113.807;158.807;-0.00406198;-0.00127911;0.00254458;-0.00268031;0.00622408;-0.00225513;0.0126106;0;0.0360383;-0.271236;-1.32733;-0.91338;1.6339;-7.23765;-0.0165943;0.00548691;0.0648554;0.0652233;-0.0169623;0.0410928;0.255866;3.9083;0.0501027;0.0547904;3.8452;0.260064;84.9273;129.927;0.0037645;-0.0166005;0.00437757;0.00651139;0.0648605;0.00489199;0.0596318;0;0.115954;8.7303;2.71519
376000;377;26.4876;0.731148;0.028387;-2.57691;26.3226;-1.4391;-0.0755126;0.697044;-0.756064;-0.208594;-0.624535;-0.205142;0.689666;-5.86114;-0.00132624;-0.000121185;0.00632133;0.00632325;-0.00132816;0.0038257;0.209804;4.76636;0.00472091;0.00510094;4.76091;0.210044;114.3;159.3;-0.00413772;-0.0013301;0.00255765;-0.00277966;0.00631808;-0.00230601;0.0128979;0;0.0222541;-0.271816;-1.33858;-0.915617;1.6444;-7.24386;-0.0169131;0.00535195;0.0645886;0.0649386;-0.017263;0.0411008;0.261858;3.81886;0.0500492;0.0548011;3.76172;0.265836;83.8671;128.867;0.00189804;-0.0169257;0.00322801;0.00731326;0.0645972;0.0104414;0.0639375;0;0.108086;8.72955;2.72297
377000;378;26.4981;0.741656;0.028795;-2.57273;26.3345;-1.42166;-0.0713264;0.708974;-0.738624;-0.208716;-0.625026;-0.202373;0.68933;-5.85837;-0.00132713;2.28503e-06;0.00629171;0.00629172;-0.00132713;0.00380942;0.210932;4.74086;0.00469973;0.00507923;4.74085;0.210932;112.99;157.99;-0.00434274;-0.00133043;0.00259368;-0.00256949;0.00628837;-0.00150713;0.0133343;0;0.0213068;-0.272469;-1.34596;-0.916442;1.65097;-7.24361;-0.0168651;0.0050964;0.0649539;0.0652701;-0.0171814;0.0412257;0.259648;3.85137;0.0502298;0.0549676;3.79889;0.263235;84.5431;129.543;0.00193913;-0.0168746;0.00338984;0.00667183;0.0649607;0.0111788;0.0653423;0;0.107549;8.73688;2.72823
378000;379;26.5066;0.750208;0.029127;-2.57382;26.3427;-1.42847;-0.0724256;0.717103;-0.74544;-0.208954;-0.627309;-0.199295;0.690578;-5.85529;-0.00137835;-0.000308694;0.00630708;0.00631946;-0.00139072;0.00385509;0.218539;4.57583;0.00474498;0.00514012;4.544;0.22007;115.676;160.676;-0.00396874;-0.00138259;0.00233208;-0.0029293;0.00630443;-0.00194675;0.0127116;0;0.0204674;-0.273118;-1.35348;-0.916432;1.65722;-7.2407;-0.0166734;0.00532362;0.067037;0.0673742;-0.0170106;0.0421924;0.24872;4.02058;0.0515309;0.0562565;3.9607;0.25248;85.9011;130.901;-0.00219803;-0.0166758;0.00487841;0.0057339;0.0670391;0.00420868;0.0781496;0;0.105321;8.74622;2.7355
379000;380;26.5115;0.755049;0.029315;-2.57437;26.3468;-1.44048;-0.0729707;0.721267;-0.757443;-0.208788;-0.626304;-0.200885;0.690075;-5.85688;-0.00131686;6.33275e-06;0.0063758;0.00637581;-0.00131687;0.00384634;0.206541;4.84166;0.00475073;0.00512845;4.84164;0.206541;112.531;157.531;-0.00396209;-0.00132009;0.00256919;-0.00253694;0.00637252;-0.00230034;0.0131334;0;0.0238797;-0.273499;-1.36048;-0.920202;1.66508;-7.24447;-0.0172551;0.00456818;0.0679195;0.0681638;-0.0174994;0.0428316;0.254052;3.93621;0.0522615;0.0571087;3.89521;0.256725;86.522;131.522;-0.00241149;-0.0172568;0.00417464;0.00493034;0.0679211;0.00757015;0.0751574;0;0.107872;8.74716;2.74065
380000;381;26.5124;0.755998;0.0293518;-2.57998;26.3453;-1.47618;-0.0785808;0.719698;-0.793143;-0.208371;-0.626539;-0.203621;0.690964;-5.85962;-0.00141584;1.61425e-05;0.00657196;0.006572;-0.00141587;0.00399393;0.215436;4.64174;0.00492165;0.00532525;4.64166;0.21544;112.888;157.888;-0.00432991;-0.00141937;0.00270784;-0.0026542;0.00656832;-0.00238133;0.0131275;0;0.0198559;-0.273161;-1.36725;-0.927348;1.67451;-7.25161;-0.017394;0.00497705;0.067947;0.0682363;-0.0176833;0.0429598;0.255993;3.90635;0.0523897;0.0572797;3.85881;0.259147;86.8084;131.808;-0.00106385;-0.0173934;0.00510407;0.00486018;0.0679464;0.0129677;0.0721457;0;0.119014;8.75177;2.74427
381000;382;26.516;0.759622;0.0294925;-2.58343;26.3472;-1.49971;-0.0820327;0.721677;-0.816673;-0.209428;-0.627156;-0.200296;0.690871;-5.85629;-0.0013278;1.87029e-05;0.00662243;0.00662248;-0.00132784;0.00397516;0.2005;4.98753;0.00491772;0.00530021;4.9874;0.200505;112.044;157.044;-0.00385381;-0.0013311;0.00262776;-0.00256975;0.006619;-0.00294991;0.0112271;0;0.0224391;-0.274843;-1.37858;-0.925904;1.68324;-7.25304;-0.0173146;0.00502625;0.0679165;0.0682119;-0.01761;0.042911;0.25494;3.9225;0.0523416;0.0572146;3.87348;0.258166;87.2481;132.248;0.00109112;-0.017312;0.00560298;0.00449555;0.0679137;0.0112664;0.0653739;0;0.108798;8.75932;2.7519
382000;383;26.5302;0.77382;0.0300438;-2.58308;26.3627;-1.4792;-0.0816762;0.737161;-0.796162;-0.209933;-0.627826;-0.20289;0.692389;-5.85889;-0.00137485;-0.000157161;0.00655996;0.00656308;-0.00137796;0.00397052;0.209582;4.7714;0.00489972;0.00529403;4.76289;0.209957;113.87;158.87;-0.00437496;-0.00137874;0.00249928;-0.00279266;0.00655687;-0.00158474;0.0124742;0;0.0219219;-0.275783;-1.38725;-0.931986;1.69384;-7.26023;-0.0179124;0.00533694;0.0686372;0.068965;-0.0182402;0.0436026;0.260972;3.83183;0.0531113;0.0581368;3.78093;0.264485;85.2383;130.238;0.000246534;-0.0179189;0.00415694;0.00642137;0.0686424;0.00938543;0.0646207;0;0.109452;8.76299;2.75865
383000;384;26.5432;0.786823;0.0305486;-2.57868;26.3775;-1.4569;-0.0772857;0.751916;-0.77387;-0.210384;-0.629821;-0.197642;0.692819;-5.85364;-0.00131742;2.45099e-05;0.00674031;0.00674038;-0.00131749;0.00402894;0.195454;5.1163;0.00499106;0.00537192;5.11607;0.195463;111.651;156.651;-0.00413804;-0.0013207;0.00263189;-0.00256201;0.00673687;-0.0017889;0.0123194;0;0.0199149;-0.277118;-1.39686;-0.930193;1.70096;-7.25844;-0.0168284;0.00609837;0.0695245;0.0699531;-0.0172569;0.043605;0.24205;4.13138;0.0533267;0.05814;4.05362;0.246693;85.7796;130.78;-0.000695952;-0.0168295;0.00590099;0.00627981;0.0695256;0.0110743;0.0812316;0;0.111205;8.76303;2.76631
384000;385;26.5546;0.798139;0.030988;-2.57618;26.3898;-1.4442;-0.0747825;0.764246;-0.761167;-0.209806;-0.629737;-0.199934;0.693225;-5.85593;-0.001547;-9.94482e-05;0.00705042;0.00705157;-0.00154815;0.00429986;0.21942;4.55747;0.00529311;0.00573315;4.55482;0.219547;112.428;157.428;-0.00426374;-0.00155068;0.00253641;-0.0027128;0.00704723;-0.00208329;0.0131585;0;0.0199545;-0.276765;-1.40427;-0.934074;1.70911;-7.26232;-0.018165;0.00526219;0.0702585;0.0705706;-0.018477;0.0445238;0.258545;3.8678;0.054265;0.0593651;3.81937;0.261824;85.5352;130.535;-0.00195106;-0.0181706;0.00421946;0.00621877;0.0702631;0.00857077;0.0722588;0;0.10109;8.76637;2.77331
385000;386;26.5606;0.804153;0.0312215;-2.57548;26.3956;-1.44941;-0.0740783;0.77008;-0.766375;-0.209496;-0.630257;-0.198967;0.693325;-5.85497;-0.00133531;-0.000115465;0.00668241;0.00668407;-0.00133697;0.00401052;0.199825;5.00438;0.00496211;0.00534736;4.9994;0.200024;113.06;158.06;-0.00389154;-0.00133906;0.00252996;-0.00273982;0.00667924;-0.00229736;0.0132251;0;0.0191247;-0.276877;-1.41168;-0.937002;1.71682;-7.26417;-0.0184095;0.00459759;0.0710345;0.0712702;-0.0186452;0.0449577;0.259162;3.85859;0.0547963;0.0599435;3.82245;0.261612;87.3014;132.301;-0.00481337;-0.0184085;0.00482997;0.00438461;0.0710334;0.0122579;0.0827248;0;0.10493;8.76913;2.78122
386000;387;26.565;0.808613;0.0313946;-2.57738;26.3993;-1.46148;-0.0759784;0.773717;-0.77845;-0.209587;-0.63137;-0.196548;0.693676;-5.85255;-0.00149939;1.76386e-05;0.0068397;0.00683973;-0.00149943;0.00416958;0.219219;4.56165;0.00513316;0.00555944;4.56156;0.219223;111.798;156.798;-0.00394302;-0.00150264;0.00260234;-0.00254565;0.00683633;-0.00243011;0.0133346;0;0.0197815;-0.276991;-1.41819;-0.93668;1.72202;-7.26095;-0.0183768;0.00509384;0.0720676;0.0723536;-0.0186628;0.0455082;0.254994;3.92167;0.0555124;0.0606775;3.87689;0.257938;87.42;132.42;-0.00228531;-0.0183739;0.00573028;0.0045111;0.0720644;0.0127557;0.0755277;0;0.118593;8.77422;2.78818
387000;388;26.5641;0.80769;0.0313588;-2.58309;26.3956;-1.50009;-0.0816904;0.770065;-0.817053;-0.20937;-0.631087;-0.19746;0.693612;-5.85346;-0.00141656;-0.000116881;0.00683646;0.00683812;-0.00141821;0.00412816;0.207206;4.82611;0.00509767;0.00550422;4.82165;0.207398;112.426;157.426;-0.0039581;-0.0014201;0.00245111;-0.00266382;0.00683349;-0.00195835;0.0131628;0;0.0196117;-0.276956;-1.42504;-0.940181;1.72956;-7.26445;-0.0186891;0.00561999;0.0723625;0.072708;-0.0190347;0.0458714;0.25827;3.87191;0.0559077;0.0611618;3.81977;0.261796;86.8769;131.877;0.000266969;-0.0186871;0.00601744;0.00525628;0.0723603;0.0117047;0.0768675;0;0.121228;8.77753;2.79545
388000;389;26.5713;0.814837;0.0316363;-2.5862;26.4017;-1.51379;-0.0848001;0.776171;-0.830755;-0.209999;-0.6305;-0.200552;0.694155;-5.85655;-0.00147226;-0.000102071;0.00682752;0.00682877;-0.00147352;0.00415115;0.215636;4.63744;0.00511493;0.00553486;4.63434;0.21578;112.586;157.586;-0.00392417;-0.00147581;0.0024831;-0.00266593;0.00682446;-0.00220002;0.0135704;0;0.020745;-0.278504;-1.43347;-0.946402;1.74014;-7.27067;-0.0187948;0.00627613;0.073175;0.0736013;-0.0192211;0.0464112;0.256847;3.89337;0.0565736;0.0618816;3.82919;0.261152;85.5744;130.574;0.00293973;-0.0187981;0.00572632;0.00677882;0.0731781;0.00800456;0.0693634;0;0.12501;8.78157;2.80258
389000;390;26.5864;0.830061;0.0322274;-2.58182;26.4195;-1.47823;-0.0804238;0.793901;-0.796435;-0.210286;-0.631754;-0.200083;0.695245;-5.85608;-0.00137902;-6.63267e-05;0.00708774;0.00708826;-0.00137954;0.0042339;0.194564;5.13969;0.00524617;0.0056452;5.13813;0.194623;111.589;156.589;-0.00363174;-0.00138257;0.00255063;-0.00266128;0.00708451;-0.00289673;0.0138798;0;0.0192378;-0.279195;-1.44322;-0.947671;1.74897;-7.2713;-0.0188148;0.0062344;0.074173;0.0745891;-0.019231;0.04691;0.253662;3.94226;0.0572239;0.0625467;3.87859;0.257825;85.7402;130.74;0.00127769;-0.0188176;0.00577656;0.00665261;0.0741755;0.00891083;0.0637878;0;0.119919;8.78718;2.80875
390000;391;26.6024;0.845983;0.0328455;-2.57725;26.4377;-1.44666;-0.0758494;0.81215;-0.763624;-0.210493;-0.633008;-0.197558;0.695727;-5.85356;-0.00134843;0.000101317;0.00683643;0.00683768;-0.00134968;0.00409368;0.197242;5.06992;0.00506861;0.00545824;5.06614;0.197389;110.83;155.83;-0.00351506;-0.00135146;0.00268783;-0.00246417;0.00683285;-0.00295564;0.0136637;0;0.0267264;-0.279694;-1.45363;-0.948734;1.75822;-7.27698;-0.0187018;0.00602582;0.0743162;0.074705;-0.0190906;0.0468978;0.251652;3.97374;0.0572381;0.0625304;3.91318;0.255546;85.8324;130.832;-0.00316796;-0.0187047;0.00552889;0.00647972;0.0743189;0.0155694;0.073019;0;0.110543;8.7959;2.81559
391000;392;26.6084;0.852009;0.0330795;-2.57866;26.4426;-1.46556;-0.0772657;0.817035;-0.782525;-0.21055;-0.633325;-0.197055;0.69589;-5.85305;-0.00150834;-9.24152e-06;0.00698283;0.00698284;-0.00150835;0.00424559;0.216008;4.62947;0.00523101;0.00566079;4.62944;0.216009;111.749;156.749;-0.0037009;-0.00151171;0.00259801;-0.0025945;0.00697947;-0.00273369;0.0138665;0;0.0257783;-0.280452;-1.46187;-0.953039;1.76748;-7.28128;-0.019099;0.00562079;0.0746463;0.0749821;-0.0194348;0.0472085;0.25586;3.90839;0.0575704;0.0629446;3.85814;0.259192;86.2818;131.282;-0.00420105;-0.0191007;0.00530913;0.00590527;0.0746479;0.0155954;0.0748176;0;0.108291;8.79353;2.81969
392000;393;26.6134;0.857031;0.0332745;-2.57808;26.4473;-1.47372;-0.0766807;0.821691;-0.790686;-0.211147;-0.63427;-0.19651;0.696776;-5.85251;-0.00144793;4.19297e-05;0.00703003;0.00703024;-0.00144813;0.00423919;0.205963;4.85524;0.00523671;0.00565225;4.85469;0.205986;110.504;155.504;-0.00368;-0.00145089;0.00253782;-0.00243295;0.00702683;-0.00285221;0.0135908;0;0.0208164;-0.28133;-1.46939;-0.955894;1.77538;-7.28414;-0.0192589;0.00520442;0.0755899;0.0758746;-0.0195436;0.0477091;0.254781;3.92493;0.0582019;0.0636122;3.88232;0.257578;87.2791;132.279;-0.00465621;-0.0192569;0.00563842;0.00480869;0.0755877;0.0134363;0.0886239;0;0.108781;8.79515;2.82548
393000;394;26.6182;0.861817;0.0334603;-2.58198;26.4503;-1.49897;-0.0805856;0.824708;-0.815934;-0.2107;-0.634854;-0.194609;0.696639;-5.85061;-0.00155435;0.000121976;0.00717139;0.0071731;-0.00155606;0.00436458;0.216744;4.61375;0.00537634;0.00581944;4.60979;0.21693;110.269;155.269;-0.00365779;-0.00155727;0.00268438;-0.00241823;0.00716782;-0.0019408;0.0143019;0;0.0194375;-0.280958;-1.47546;-0.956053;1.78044;-7.28032;-0.0194187;0.00582186;0.0766511;0.0770026;-0.0197702;0.0483864;0.253338;3.94729;0.059039;0.0645152;3.89489;0.256747;86.8847;131.885;-7.33658e-05;-0.0194167;0.00618754;0.0054888;0.0766491;0.00944256;0.0824079;0;0.126839;8.79925;2.83298
394000;395;26.6237;0.867283;0.0336725;-2.58383;26.4555;-1.50002;-0.0824322;0.829969;-0.816983;-0.210802;-0.637537;-0.193001;0.69867;-5.849;-0.00150097;0.000112775;0.00720742;0.00720888;-0.00150243;0.00435566;0.208253;4.80184;0.00537716;0.00580754;4.79815;0.208414;109.609;154.609;-0.00382202;-0.00150371;0.00258735;-0.00234041;0.00720411;-0.00247602;0.0129359;0;0.0198311;-0.281723;-1.48938;-0.956685;1.79244;-7.28286;-0.0198829;0.00560869;0.0769929;0.0773165;-0.0202065;0.0487615;0.258243;3.87233;0.059436;0.0650154;3.82632;0.261348;87.2366;132.237;0.00232203;-0.01988;0.00618751;0.00508194;0.0769897;0.00977939;0.0752462;0;0.118377;8.83171;2.84485
395000;396;26.6293;0.87292;0.0338914;-2.58849;26.4592;-1.52734;-0.0870862;0.833624;-0.844307;-0.211301;-0.637604;-0.193;0.698882;-5.849;-0.00163006;4.11883e-05;0.00750549;0.00750567;-0.00163024;0.00456796;0.217182;4.60443;0.00562648;0.00609061;4.60402;0.217201;110.064;155.064;-0.00378663;-0.00163313;0.00258474;-0.0024793;0.00750217;-0.00329083;0.0126985;0;0.0214122;-0.28265;-1.49704;-0.959981;1.80072;-7.28425;-0.0198597;0.00649882;0.0781879;0.0786167;-0.0202886;0.0494526;0.254;3.93702;0.0603222;0.0659369;3.87493;0.258069;85.8371;130.837;-0.00196153;-0.0198623;0.0060738;0.00688519;0.0781903;0.00507021;0.0793832;0;0.124373;8.80703;2.84689
396000;397;26.6435;0.887129;0.034443;-2.58291;26.4761;-1.49128;-0.0815087;0.850524;-0.808246;-0.211366;-0.636929;-0.193409;0.698399;-5.84941;-0.00152839;7.00911e-05;0.00764409;0.00764463;-0.00152892;0.00458678;0.199944;5.00141;0.00567513;0.0061157;5.00001;0.2;109.414;154.414;-0.00369824;-0.00153143;0.00263122;-0.00246773;0.00764066;-0.00206156;0.0140206;0;0.0204799;-0.283061;-1.50445;-0.962556;1.80831;-7.2908;-0.0197582;0.00619488;0.0784516;0.0788409;-0.0201474;0.0494941;0.251852;3.97059;0.0604069;0.0659922;3.9132;0.255545;86.3614;131.361;-0.00271319;-0.0197585;0.00614679;0.00623859;0.0784519;0.0101111;0.0791469;0;0.119322;8.78461;2.85387
397000;398;26.6579;0.901535;0.0350023;-2.5787;26.4924;-1.46664;-0.0773056;0.866806;-0.783606;-0.211812;-0.639441;-0.191492;0.700299;-5.84749;-0.00160042;-7.47014e-05;0.00745;0.00745061;-0.00160104;0.00452583;0.214821;4.65503;0.00557788;0.00603443;4.65362;0.214886;110.735;155.735;-0.0037915;-0.00160373;0.00244686;-0.00257361;0.00744703;-0.00237863;0.0142763;0;0.0214261;-0.284074;-1.51436;-0.965123;1.81809;-7.29337;-0.0201689;0.00588964;0.0785015;0.0788518;-0.0205192;0.0496855;0.256923;3.89221;0.0605773;0.0662473;3.84284;0.260224;86.6316;131.632;-0.00444357;-0.0201687;0.00592859;0.00585426;0.0785013;0.0138153;0.0757508;0;0.115234;8.83257;2.86028
398000;399;26.6655;0.909129;0.0352972;-2.58011;26.4992;-1.47945;-0.078707;0.8736;-0.796415;-0.211547;-0.639328;-0.191884;0.700223;-5.84788;-0.00160965;-6.17421e-05;0.0074972;0.00749762;-0.00161007;0.00455384;0.2147;4.65766;0.00561262;0.00607179;4.65671;0.214744;110.322;155.322;-0.00375433;-0.00161282;0.00241767;-0.00251874;0.0074943;-0.00195946;0.0134279;0;0.021353;-0.284322;-1.52186;-0.969438;1.82666;-7.29768;-0.0200809;0.00582489;0.0794233;0.0797631;-0.0204207;0.0500919;0.252833;3.95517;0.06113;0.0667892;3.906;0.256017;87.1752;132.175;-0.00320032;-0.0200779;0.0063996;0.00530316;0.07942;0.0127343;0.0807157;0;0.114936;8.80875;2.86813
399000;400;26.668;0.911582;0.0353924;-2.58262;26.5002;-1.49983;-0.0812253;0.874677;-0.8168;-0.21153;-0.64015;-0.191279;0.700803;-5.84728;-0.00156913;-2.21534e-06;0.00777237;0.00777237;-0.00156913;0.00467075;0.201886;4.95329;0.00577611;0.00622767;4.95329;0.201886;109.51;154.51;-0.00373775;-0.00157229;0.00253084;-0.00251179;0.00776919;-0.0025748;0.0131028;0;0.0200121;-0.284257;-1.52888;-0.972055;1.83389;-7.3003;-0.020405;0.00554378;0.0797297;0.0800357;-0.020711;0.0503734;0.255927;3.90736;0.0614357;0.0671645;3.86441;0.258772;87.3297;132.33;-0.00414797;-0.0204023;0.00609036;0.00504789;0.0797268;0.0182375;0.0852113;0;0.115175;8.81323;2.87423
400000;401;26.6731;0.916651;0.0355892;-2.58258;26.5052;-1.50263;-0.0811848;0.879623;-0.819598;-0.211586;-0.64023;-0.192254;0.70116;-5.84825;-0.00162868;-0.000108078;0.00768885;0.0076901;-0.00162994;0.00466002;0.211824;4.72089;0.00574761;0.00621336;4.71803;0.211953;110.519;155.519;-0.00349905;-0.00163212;0.00243029;-0.00262298;0.00768592;-0.00313228;0.0135873;0;0.0211442;-0.284758;-1.53636;-0.975348;1.84195;-7.30359;-0.0206611;0.00588005;0.0809395;0.0812786;-0.0210003;0.0511395;0.255266;3.91748;0.0623756;0.068186;3.87036;0.258374;87.2765;132.277;-0.00123377;-0.0206577;0.00653719;0.00528467;0.0809357;0.0163139;0.0826201;0;0.12447;8.81837;2.87794
401000;402;26.6809;0.924441;0.0358917;-2.58196;26.5136;-1.49265;-0.0805645;0.888087;-0.809619;-0.211766;-0.641763;-0.189847;0.701959;-5.84585;-0.00161484;2.67323e-05;0.00776341;0.00776348;-0.00161491;0.0046892;0.208006;4.80755;0.00578953;0.00625226;4.80737;0.208014;109.589;154.589;-0.00361348;-0.00161798;0.00258376;-0.0025065;0.0077601;-0.00258601;0.0143659;0;0.0203073;-0.285308;-1.54597;-0.975057;1.84991;-7.3033;-0.0209129;0.00610322;0.0820515;0.082412;-0.0212734;0.0518427;0.254875;3.92349;0.0632367;0.0691236;3.87394;0.258135;86.9343;131.934;-0.00282004;-0.0209109;0.00646667;0.00577435;0.0820494;0.0114817;0.0847342;0;0.118195;8.82885;2.88416
402000;403;26.6911;0.934657;0.0362883;-2.5827;26.5239;-1.49242;-0.0812983;0.898309;-0.809391;-0.211637;-0.643026;-0.187991;0.702576;-5.84399;-0.00154445;-5.25137e-05;0.0078459;0.00784619;-0.00154475;0.00469547;0.196848;5.08005;0.00581452;0.00626063;5.07928;0.196878;109.704;154.704;-0.00364283;-0.00154779;0.0025003;-0.00258154;0.0078428;-0.00305914;0.0148045;0;0.0216034;-0.285822;-1.55353;-0.975549;1.85657;-7.29982;-0.0205294;0.0066206;0.0835006;0.0839202;-0.020949;0.0524346;0.245859;4.06737;0.0640816;0.0699128;4.00592;0.24963;86.5449;131.545;-0.00353263;-0.0205281;0.00682517;0.00643567;0.0834993;0.00424262;0.0856278;0;0.125924;8.83362;2.89112
403000;404;26.7045;0.948073;0.0368092;-2.58154;26.538;-1.48392;-0.0801432;0.912398;-0.800882;-0.211762;-0.643664;-0.187166;0.702978;-5.84316;-0.00165816;-8.64757e-05;0.0082656;0.00826635;-0.00165891;0.00496263;0.20061;4.98481;0.00613905;0.00661684;4.983;0.200682;109.127;154.127;-0.00387782;-0.00166153;0.00244949;-0.00259748;0.00826263;-0.00193905;0.0137709;0;0.0204237;-0.286474;-1.5638;-0.978332;1.86673;-7.30657;-0.0210541;0.00609782;0.0833386;0.0836936;-0.0214091;0.0525513;0.252634;3.9583;0.0641345;0.0700685;3.90925;0.255803;86.6818;131.682;-0.00320639;-0.021054;0.00611365;0.00608352;0.0833385;0.0105272;0.0774942;0;0.120156;8.83612;2.89678
404000;405;26.7125;0.956054;0.0371191;-2.58138;26.5458;-1.48832;-0.0799774;0.920199;-0.805289;-0.212261;-0.644954;-0.184563;0.703622;-5.84056;-0.0015893;-5.06192e-05;0.00809458;0.00809485;-0.00158957;0.00484221;0.196341;5.09317;0.00599706;0.00645628;5.09249;0.196368;108.891;153.891;-0.00359987;-0.00159247;0.00243902;-0.00251634;0.00809164;-0.00278273;0.0135679;0;0.0224049;-0.287328;-1.57219;-0.980909;1.87524;-7.30915;-0.020988;0.00597089;0.0839273;0.084266;-0.0213268;0.0527964;0.250074;3.99882;0.064473;0.0703952;3.95119;0.253088;87.6451;132.645;-0.00324029;-0.0209827;0.00703327;0.00501133;0.083921;0.0168195;0.0787801;0;0.123363;8.83655;2.90373
405000;406;26.7172;0.96075;0.0373014;-2.58267;26.5496;-1.50131;-0.0812706;0.924068;-0.818272;-0.211412;-0.644535;-0.188019;0.703897;-5.84402;-0.00164795;-0.000145183;0.00842658;0.00842867;-0.00165004;0.00503936;0.195566;5.11336;0.00624225;0.00671914;5.10815;0.195766;108.898;153.898;-0.00354907;-0.00165138;0.00235356;-0.00261896;0.00842384;-0.00229643;0.0139273;0;0.0207687;-0.286883;-1.5788;-0.989179;1.88505;-7.31742;-0.0207885;0.00638563;0.0842628;0.0846495;-0.0211753;0.0529124;0.246711;4.05333;0.0646578;0.0705498;3.99756;0.250152;88.1274;133.127;-0.00139043;-0.0207788;0.00830136;0.00465549;0.0842498;0.010165;0.0819502;0;0.119567;8.84037;2.91102
406000;407;26.7228;0.966402;0.0375208;-2.58424;26.5542;-1.51746;-0.0828379;0.928686;-0.834424;-0.212095;-0.64537;-0.184322;0.70389;-5.84032;-0.00165092;-2.63344e-05;0.00809527;0.00809534;-0.00165099;0.00487317;0.203936;4.9035;0.00602313;0.00649755;4.90333;0.203943;109.095;154.095;-0.00348607;-0.00165413;0.00250304;-0.00253126;0.00809217;-0.00234661;0.0148775;0;0.0207846;-0.287959;-1.58688;-0.987093;1.89089;-7.31534;-0.0213948;0.006348;0.0854422;0.0858181;-0.0217707;0.0537944;0.250401;3.99359;0.0656828;0.0717258;3.94191;0.253684;87.1926;132.193;-0.00141294;-0.0213909;0.00705312;0.00571229;0.0854379;0.0183768;0.0792493;0;0.12316;8.84082;2.91829
407000;408;26.725;0.968618;0.0376069;-2.5877;26.555;-1.53721;-0.0863027;0.929442;-0.854176;-0.212693;-0.646517;-0.183895;0.70501;-5.83989;-0.00178198;-8.05002e-05;0.00804476;0.00804541;-0.00178264;0.00491403;0.221509;4.5145;0.00604607;0.00655204;4.5132;0.221572;110.101;155.101;-0.00368543;-0.00178547;0.00250248;-0.0026383;0.00804165;-0.00219255;0.0148413;0;0.0251905;-0.288944;-1.59464;-0.985759;1.89686;-7.31002;-0.0219128;0.00720293;0.0868534;0.0873283;-0.0223878;0.054858;0.252297;3.96359;0.0669412;0.073144;3.90072;0.256363;86.6827;131.683;-0.00318806;-0.0219092;0.00776364;0.00669833;0.0868495;0.0123688;0.0840273;0;0.12885;8.84606;2.9257
408000;409;26.7307;0.974315;0.037828;-2.58873;26.5602;-1.54513;-0.0873308;0.934615;-0.862093;-0.212953;-0.647802;-0.181935;0.705759;-5.83793;-0.00175864;-0.000135153;0.00843589;0.00843768;-0.00176043;0.00509906;0.208471;4.79683;0.00629453;0.00679874;4.79296;0.208639;108.87;153.87;-0.00348528;-0.00176196;0.00233305;-0.0025784;0.0084332;-0.0023259;0.0138233;0;0.0244565;-0.289327;-1.60552;-0.990792;1.90868;-7.31977;-0.0218271;0.00632665;0.0873246;0.0876901;-0.0221926;0.0549413;0.249954;4.00074;0.0670924;0.0732551;3.95132;0.25308;87.2588;132.259;-0.00317082;-0.0218232;0.00702908;0.00569472;0.0873203;0.014378;0.0914572;0;0.121393;8.85179;2.93286
409000;410;26.7478;0.991362;0.0384899;-2.5859;26.5794;-1.51361;-0.084499;0.953861;-0.830576;-0.213189;-0.648649;-0.181699;0.706548;-5.8377;-0.00171594;-0.000103436;0.00836254;0.0083636;-0.001717;0.0050403;0.205194;4.87344;0.00622747;0.0067204;4.87105;0.205295;108.868;153.868;-0.00381125;-0.00171923;0.00238387;-0.00256589;0.00835973;-0.00262194;0.0144477;0;0.0207987;-0.290289;-1.61465;-0.991673;1.91697;-7.31881;-0.0221635;0.00626194;0.088238;0.088592;-0.0225175;0.0555548;0.251178;3.98123;0.0678248;0.074073;3.93436;0.254171;87.6407;132.641;-0.00306942;-0.0221576;0.00736255;0.00527299;0.0882311;0.00873107;0.0818498;0;0.120577;8.85891;2.94054
410000;411;26.7676;1.01117;0.0392589;-2.58197;26.6011;-1.48909;-0.0805696;0.975559;-0.806057;-0.212659;-0.647947;-0.186795;0.707072;-5.84279;-0.00169513;1.19202e-05;0.00853161;0.00853163;-0.00169514;0.00511339;0.198688;5.03302;0.00632893;0.00681785;5.03298;0.198689;107.932;152.932;-0.0034448;-0.00169818;0.00251865;-0.00246939;0.00852847;-0.00270217;0.0148195;0;0.0203109;-0.290034;-1.62242;-1.00152;1.92858;-7.32976;-0.0218623;0.00642596;0.0888974;0.089269;-0.0222339;0.0557514;0.245928;4.06624;0.0681439;0.0743352;4.015;0.249066;87.8145;132.814;-0.00280285;-0.0218547;0.00785842;0.00513919;0.088888;0.0125842;0.0832613;0;0.130194;8.85865;2.94797
411000;412;26.7676;1.01122;0.0392609;-2.58396;26.5999;-1.50755;-0.0825577;0.974377;-0.824514;-0.211519;-0.648779;-0.184313;0.706842;-5.84031;-0.00170415;0.00013242;0.00872134;0.00872302;-0.00170583;0.00521442;0.1954;5.11771;0.00645948;0.00695257;5.11365;0.195555;106.33;151.33;-0.00295968;-0.00170666;0.00253187;-0.00224224;0.00871817;-0.00405072;0.0149554;0;0.0200813;-0.28962;-1.6328;-1.00214;1.93757;-7.3353;-0.021785;0.00625428;0.0885664;0.0889197;-0.0221384;0.055529;0.245974;4.06547;0.0678736;0.0740387;4.01654;0.24897;87.3322;132.332;-0.000365007;-0.0217811;0.00697212;0.0056092;0.088562;0.0130551;0.0844034;0;0.14258;8.85759;2.95574
412000;413;26.7749;1.01844;0.0395411;-2.5858;26.6062;-1.52182;-0.0844054;0.980649;-0.838787;-0.214179;-0.649378;-0.181937;0.707577;-5.83793;-0.00175891;-9.64787e-06;0.00873719;0.0087372;-0.00175892;0.00524806;0.201313;4.96738;0.00649104;0.00699741;4.96736;0.201314;107.325;152.325;-0.00365878;-0.00176182;0.00241529;-0.00240935;0.0087343;-0.00283999;0.0136801;0;0.0201796;-0.292562;-1.63785;-1.00313;1.94279;-7.33008;-0.022765;0.00661908;0.0897842;0.0901722;-0.0231529;0.0566625;0.253552;3.94396;0.069137;0.07555;3.89464;0.256763;86.7231;131.723;-0.00081673;-0.0227644;0.00671755;0.00653078;0.0897836;0.00352581;0.0852037;0;0.135954;8.8597;2.96208
413000;414;26.7747;1.01829;0.0395356;-2.58763;26.6045;-1.54644;-0.0862287;0.978908;-0.863402;-0.214404;-0.649406;-0.179652;0.707087;-5.83565;-0.00174895;-0.000171637;0.0086444;0.00864723;-0.00175178;0.00519951;0.202322;4.94262;0.0064288;0.00693268;4.93625;0.202583;108.444;153.444;-0.00364602;-0.00175228;0.00226505;-0.00258322;0.00864187;-0.00211832;0.0148648;0;0.0214641;-0.293007;-1.64547;-1.00616;1.95084;-7.3344;-0.0228274;0.00709051;0.091478;0.0919161;-0.0232656;0.0575909;0.24954;4.00737;0.0703273;0.0767878;3.95073;0.253118;86.6576;131.658;-0.00484427;-0.0228258;0.00734383;0.00686373;0.0914763;0.0140888;0.0787358;0;0.130118;8.85814;2.9643
414000;415;26.779;1.02261;0.0397029;-2.59056;26.6078;-1.55812;-0.0891643;0.982279;-0.875085;-0.213758;-0.649537;-0.182439;0.707725;-5.83844;-0.0017948;-7.10886e-05;0.00880583;0.00880631;-0.00179528;0.00530079;0.203819;4.90631;0.00655181;0.00706772;4.90527;0.203862;107.343;152.343;-0.0031056;-0.00179774;0.00230866;-0.00242583;0.00880319;-0.00352642;0.0142993;0;0.0230949;-0.292819;-1.65338;-1.01049;1.95972;-7.33873;-0.0232482;0.00708669;0.092848;0.093279;-0.0236792;0.0584791;0.25039;3.99378;0.0714001;0.0779721;3.93929;0.253853;86.8063;131.806;-0.0015162;-0.0232458;0.00746702;0.00674677;0.0928455;0.0134732;0.0878268;0;0.125675;8.8595;2.96954
415000;416;26.7909;1.03444;0.0401625;-2.58971;26.6209;-1.54053;-0.0883154;0.995298;-0.857491;-0.214154;-0.65148;-0.178929;0.708734;-5.83493;-0.00190379;-5.41107e-05;0.00895295;0.00895322;-0.00190406;0.00542864;0.212644;4.70269;0.00669438;0.00723819;4.70217;0.212668;107.333;152.333;-0.00385788;-0.00190677;0.00235497;-0.00243727;0.0089502;-0.001843;0.0146723;0;0.0244635;-0.29352;-1.66066;-1.00936;1.96539;-7.33362;-0.0234254;0.00729265;0.0942342;0.0946845;-0.0238757;0.0592801;0.248588;4.02273;0.0724058;0.0790401;3.96572;0.252161;86.7153;131.715;-0.0040069;-0.0234233;0.00762868;0.00699274;0.0942319;0.00849404;0.0870593;0;0.133634;8.86317;2.97649
416000;417;26.8066;1.05017;0.0407732;-2.58689;26.6382;-1.51929;-0.0854871;1.01259;-0.83749;-0.214111;-0.651313;-0.179958;0.708828;-5.83596;-0.00191413;-0.00016599;0.00880466;0.00880723;-0.0019167;0.00536196;0.2174;4.59982;0.00660376;0.00714929;4.595;0.217628;108.262;153.262;-0.00365251;-0.00191738;0.00224721;-0.00255355;0.00880217;-0.00156893;0.0149158;0;0.0272063;-0.293739;-1.67224;-1.01261;1.97688;-7.3421;-0.0234946;0.0064467;0.0941315;0.0944837;-0.0238468;0.0591653;0.249593;4.00652;0.0722618;0.078887;3.96211;0.252391;88.5943;133.594;-0.000197469;-0.0234831;0.00877239;0.004371;0.0941153;0.00520985;0.0765218;0;0.128409;8.86648;2.98438
417000;418;26.8209;1.06447;0.0413282;-2.58611;26.6524;-1.52438;-0.0847154;1.02679;-0.841351;-0.214549;-0.65466;-0.175398;0.710897;-5.8314;-0.0020073;-0.000147979;0.00901781;0.0090198;-0.00200929;0.00551454;0.222593;4.4925;0.0067829;0.00735273;4.48905;0.222764;108.112;153.112;-0.00367821;-0.0020106;0.00230191;-0.0025711;0.0090152;-0.00296436;0.0153246;0;0.0184916;-0.294461;-1.68225;-1.01149;1.98489;-7.34047;-0.0230746;0.00666944;0.0947932;0.0951693;-0.0234507;0.05931;0.24342;4.10812;0.0725379;0.0790801;4.05826;0.246411;88.1226;133.123;-0.0036142;-0.0230647;0.00852211;0.00501621;0.0947803;0.0141768;0.0880562;0;0.128248;8.88083;2.99097
418000;419;26.82;1.06355;0.0412927;-2.58607;26.6506;-1.53884;-0.0846678;1.02505;-0.855806;-0.214474;-0.654098;-0.17953;0.71139;-5.83553;-0.00191855;-4.50783e-05;0.00899641;0.0089966;-0.00191874;0.00545767;0.213257;4.68917;0.00672912;0.00727689;4.68882;0.213273;107.124;152.124;-0.00315063;-0.00192146;0.002345;-0.0024093;0.00899369;-0.00333388;0.015241;0;0.0213215;-0.29444;-1.69074;-1.0187;1.99575;-7.34934;-0.0234522;0.00707;0.0951613;0.0955812;-0.0238722;0.0597267;0.246447;4.05766;0.0729913;0.0796356;4.00388;0.249758;86.9263;131.926;0.00338783;-0.0234494;0.00751608;0.00667222;0.0951583;0.00753247;0.0855937;0;0.145699;8.87913;2.99863
419000;420;26.827;1.07059;0.0415659;-2.58758;26.657;-1.54877;-0.0861857;1.0314;-0.865736;-0.214808;-0.655327;-0.176467;0.711854;-5.83247;-0.00186428;-4.10921e-05;0.00911527;0.00911542;-0.00186444;0.00548993;0.204523;4.88942;0.00678437;0.00731991;4.8891;0.204537;106.395;151.395;-0.00300485;-0.00186702;0.00227894;-0.00233588;0.0091127;-0.00387023;0.0153541;0;0.0205033;-0.295587;-1.69784;-1.01952;2.00237;-7.34677;-0.0239607;0.00747234;0.0965069;0.0969686;-0.0244224;0.0606955;0.24828;4.02771;0.0741397;0.0809274;3.97047;0.251859;86.911;131.911;0.0018781;-0.0239566;0.00809275;0.00692009;0.0965025;0.0100767;0.0792541;0;0.139208;8.87393;3.00659
420000;421;26.8294;1.07299;0.0416592;-2.59001;26.658;-1.56922;-0.0886128;1.03239;-0.886186;-0.214686;-0.656615;-0.173606;0.712301;-5.8296;-0.00200622;-0.000163652;0.00901426;0.00901669;-0.00200865;0.00551267;0.222561;4.49315;0.00678059;0.00735023;4.48892;0.222771;107.653;152.653;-0.00375593;-0.00200932;0.00218774;-0.00248936;0.0090119;-0.00256191;0.0140313;0;0.0198208;-0.296195;-1.7065;-1.01913;2.0096;-7.3474;-0.0243761;0.00781498;0.097647;0.0981455;-0.0248746;0.0615101;0.249635;4.00585;0.0751077;0.0820134;3.94561;0.253446;86.2388;131.239;-0.00217965;-0.0243773;0.00765844;0.00795411;0.0976481;0.0188258;0.0767551;0;0.13822;8.87544;3.0142
421000;422;26.8329;1.07653;0.0417967;-2.59285;26.661;-1.57357;-0.0914517;1.03542;-0.89054;-0.214491;-0.657529;-0.171033;0.712462;-5.82703;-0.00192769;-0.000159444;0.00915161;0.00915391;-0.00192998;0.00554194;0.210639;4.74746;0.00683734;0.00738926;4.74301;0.210837;107.349;152.349;-0.00348946;-0.00193082;0.00221395;-0.00250678;0.0091492;-0.00266212;0.0158429;0;0.0207864;-0.296287;-1.71487;-1.02008;2.01721;-7.34832;-0.024382;0.00738061;0.0988785;0.0993189;-0.0248224;0.0620706;0.246586;4.05539;0.0758529;0.0827609;4.00118;0.249926;86.7513;131.751;-0.00463549;-0.0243805;0.00761744;0.00717034;0.0988769;0.0198919;0.0785216;0;0.134414;8.87761;3.02112
422000;423;26.8494;1.09294;0.0424335;-2.59169;26.6787;-1.55547;-0.0902944;1.05311;-0.872433;-0.214109;-0.658133;-0.172832;0.713339;-5.82883;-0.00193806;-8.53879e-05;0.00932081;0.00932145;-0.0019387;0.00563008;0.207928;4.80936;0.00695125;0.00750677;4.80808;0.207983;106.714;151.714;-0.00368423;-0.00194103;0.00229545;-0.00243967;0.0093182;-0.00155195;0.0149425;0;0.0191342;-0.296474;-1.72445;-1.02464;2.02769;-7.35848;-0.0246494;0.00702446;0.0996881;0.100084;-0.025045;0.0625643;0.247265;4.04424;0.0764507;0.0834191;3.99616;0.25024;87.4103;132.41;-0.00651156;-0.0246439;0.00793707;0.00621504;0.0996819;0.0119049;0.0750331;0;0.138134;8.88054;3.02602
423000;424;26.8618;1.10538;0.0429168;-2.59102;26.6913;-1.55455;-0.0896248;1.06572;-0.872753;-0.213933;-0.659283;-0.171282;0.713974;-5.82728;-0.00195594;-0.000124558;0.00917814;0.00917954;-0.00195733;0.00556843;0.213108;4.69245;0.00686577;0.00742458;4.68982;0.213228;106.973;151.973;-0.00337355;-0.00195891;0.00221362;-0.00243694;0.00917572;-0.00295678;0.0154874;0;0.018806;-0.296693;-1.73375;-1.02814;2.0374;-7.36242;-0.0248808;0.00665263;0.100727;0.101079;-0.0252322;0.0631554;0.247012;4.04839;0.0771838;0.0842072;4.00594;0.249629;88.6709;133.671;-0.010112;-0.0248683;0.00912425;0.00446303;0.10071;0.0117104;0.0876368;0;0.134832;8.8871;3.0332
424000;425;26.8628;1.10642;0.0429569;-2.58851;26.6924;-1.55815;-0.0871124;1.06682;-0.875118;-0.214293;-0.65951;-0.171048;0.714236;-5.82705;-0.00199591;-8.62767e-05;0.00923958;0.00924025;-0.00199657;0.00561841;0.216018;4.62925;0.00692234;0.00749121;4.62805;0.216074;106.381;151.381;-0.00326635;-0.00199864;0.00218903;-0.00233625;0.00923721;-0.00356984;0.0156246;0;0.0197264;-0.296806;-1.74067;-1.02797;2.04322;-7.35595;-0.025082;0.00783102;0.101854;0.102336;-0.0255633;0.0639494;0.246254;4.06085;0.0781511;0.0852659;4.00322;0.249799;87.3421;132.342;-0.000265857;-0.0250736;0.00909966;0.00670851;0.101844;0.0133531;0.0883487;0;0.140148;8.89437;3.04024
425000;426;26.8756;1.11921;0.0434537;-2.59081;26.7046;-1.56594;-0.0894157;1.07902;-0.882906;-0.214499;-0.658366;-0.17412;0.713984;-5.83012;-0.00208502;-0.000280871;0.00937235;0.00937924;-0.0020919;0.00573557;0.222465;4.4951;0.00705428;0.00764742;4.4836;0.223035;107.583;152.583;-0.00369846;-0.00208833;0.00205122;-0.00258649;0.00937031;-0.00313817;0.0151388;0;0.0183676;-0.297293;-1.74799;-1.03519;2.05316;-7.36483;-0.0253333;0.00803755;0.102674;0.103176;-0.025836;0.0645061;0.246736;4.05292;0.0788205;0.0860082;3.99352;0.250406;86.5697;131.57;0.00427696;-0.0253317;0.00825867;0.00784211;0.102672;0.00842383;0.0845739;0;0.152509;8.89076;3.04478
426000;427;26.8794;1.123;0.0436009;-2.59207;26.7076;-1.57674;-0.0906697;1.08208;-0.893703;-0.214678;-0.659079;-0.172897;0.714398;-5.8289;-0.00190165;-0.000138805;0.00938763;0.00938934;-0.00190336;0.00564635;0.20257;4.93656;0.00698104;0.00752846;4.93303;0.202715;106.122;151.122;-0.00324327;-0.00190446;0.00211802;-0.00237039;0.00938542;-0.00346821;0.0153021;0;0.0202982;-0.297973;-1.75637;-1.03828;2.06195;-7.36901;-0.0251836;0.00790403;0.103555;0.104038;-0.0256671;0.0648525;0.243191;4.11199;0.0793111;0.0864701;4.05337;0.246708;86.7891;131.789;0.00399826;-0.0251805;0.00834075;0.00751826;0.103551;0.0106781;0.0828679;0;0.151993;8.89117;3.05039
427000;428;26.882;1.12563;0.0437027;-2.59394;26.7091;-1.59302;-0.0925412;1.08357;-0.909982;-0.214902;-0.659721;-0.170464;0.714474;-5.82646;-0.00201652;-0.000297134;0.00936924;0.00937699;-0.00202427;0.00570063;0.215228;4.64623;0.007024;0.00760084;4.63227;0.215877;107.589;152.589;-0.00386955;-0.00201989;0.00204048;-0.00260838;0.00936722;-0.00232922;0.0142756;0;0.0193427;-0.298045;-1.76358;-1.03962;2.06879;-7.36927;-0.0254622;0.00763867;0.104961;0.105407;-0.0259081;0.0656574;0.242588;4.12221;0.0803124;0.0875431;4.06848;0.245792;87.1532;132.153;-0.000943054;-0.0254572;0.00839558;0.00697109;0.104955;0.0118693;0.0860426;0;0.153028;8.89108;3.05812
428000;429;26.8905;1.13407;0.0440305;-2.59527;26.7176;-1.5911;-0.0938665;1.09206;-0.908069;-0.214721;-0.660676;-0.168401;0.714812;-5.8244;-0.00195757;-6.04194e-05;0.00919674;0.00919706;-0.0019579;0.00557748;0.212855;4.69803;0.00687754;0.00743664;4.69741;0.212883;106.117;151.117;-0.00316155;-0.00196019;0.00218949;-0.00228546;0.00919436;-0.00368277;0.0151491;0;0.0194096;-0.298818;-1.77173;-1.03921;2.07564;-7.36746;-0.0255216;0.007885;0.105526;0.105998;-0.0259943;0.0659964;0.241852;4.13476;0.0807375;0.0879952;4.07775;0.245233;87.7768;132.777;-0.00779443;-0.0255097;0.00975046;0.00624065;0.105511;0.012172;0.0866423;0;0.143051;8.89188;3.06565
429000;430;26.9045;1.14809;0.044575;-2.59407;26.733;-1.57148;-0.092668;1.10741;-0.889685;-0.214321;-0.661163;-0.16643;0.714681;-5.82243;-0.00207226;-0.000313131;0.0096161;0.00962448;-0.00208064;0.00585256;0.215499;4.64039;0.00721063;0.00780341;4.62573;0.216182;106.854;151.854;-0.00345439;-0.00207545;0.00194427;-0.0025444;0.00961427;-0.00278595;0.0150503;0;0.0198962;-0.299161;-1.78247;-1.04049;2.0855;-7.37574;-0.0260119;0.00724202;0.106772;0.107166;-0.0264058;0.0667856;0.243622;4.10472;0.081681;0.0890475;4.05842;0.246402;88.2601;133.26;-0.0010156;-0.0259997;0.00938516;0.00535598;0.106756;0.00416155;0.0829806;0;0.141695;8.89461;3.07329
430000;431;26.9148;1.15838;0.0449744;-2.59345;26.743;-1.57739;-0.0920555;1.11748;-0.895592;-0.215055;-0.661421;-0.167896;0.715483;-5.82389;-0.00203676;7.76323e-05;0.00976379;0.0097643;-0.00203727;0.00590078;0.208603;4.79379;0.00728422;0.00786771;4.79284;0.208645;104.361;149.361;-0.00336109;-0.00203897;0.00228395;-0.0021029;0.00976121;-0.00326847;0.0151432;0;0.0172175;-0.300704;-1.78937;-1.04735;2.09505;-7.38115;-0.0267714;0.00760357;0.108249;0.108676;-0.0271982;0.0679369;0.247313;4.04345;0.0830151;0.0905825;3.99569;0.25027;87.7378;132.738;-0.00288958;-0.026762;0.00910272;0.00628706;0.108237;0.00959379;0.0687591;0;0.145292;8.90197;3.08029
431000;432;26.9188;1.16237;0.0451294;-2.59291;26.746;-1.59598;-0.0915142;1.12048;-0.912944;-0.2151;-0.662262;-0.167407;0.71616;-5.82341;-0.0021372;-4.69849e-05;0.0098418;0.00984198;-0.00213738;0.00598968;0.217155;4.605;0.00737772;0.00798624;4.60469;0.21717;105.256;150.256;-0.0034786;-0.00213979;0.00220607;-0.00227331;0.00983939;-0.003742;0.0148805;0;0.0194535;-0.300848;-1.7982;-1.04953;2.1037;-7.38204;-0.026604;0.00852355;0.108708;0.109243;-0.0271388;0.0681907;0.244729;4.08615;0.0833604;0.0909209;4.02533;0.248427;87.0974;132.097;-0.00276499;-0.026596;0.00961628;0.00756418;0.108699;0.0139181;0.0891966;0;0.150749;8.90641;3.08748
432000;433;26.9306;1.17422;0.0455895;-2.59231;26.759;-1.57853;-0.0909075;1.13347;-0.896733;-0.215111;-0.662102;-0.166696;0.715848;-5.82269;-0.00217154;-9.34613e-05;0.00981599;0.00981672;-0.00217227;0.00599449;0.221225;4.52029;0.00737597;0.00799266;4.51911;0.221283;105.548;150.548;-0.00351196;-0.00217422;0.00215474;-0.00231497;0.00981369;-0.0033601;0.0155564;0;0.0191771;-0.300096;-1.8064;-1.05043;2.11105;-7.38298;-0.0264363;0.00786441;0.110297;0.110748;-0.0268871;0.0688177;0.239682;4.17219;0.0842372;0.0917569;4.119;0.242777;88.3418;133.342;0.00346537;-0.0264204;0.0105046;0.0055493;0.110275;0.0204474;0.0886465;0;0.145736;8.90592;3.09446
433000;434;26.9318;1.17542;0.0456359;-2.59606;26.758;-1.61041;-0.0946646;1.13244;-0.927371;-0.21556;-0.663011;-0.16542;0.716529;-5.82142;-0.00214115;-0.000100949;0.00998955;0.00999039;-0.00214199;0.00606619;0.214339;4.6655;0.00747724;0.00808826;4.66406;0.214405;105.314;150.314;-0.00373855;-0.00214388;0.00215892;-0.00233368;0.00998725;-0.00388644;0.0149384;0;0.020751;-0.301911;-1.81227;-1.05567;2.11894;-7.38431;-0.0269892;0.00864502;0.111294;0.111832;-0.0275275;0.0696798;0.242504;4.12365;0.0852256;0.0929065;4.06256;0.24615;87.1215;132.121;-0.0015306;-0.0269809;0.00976524;0.00766419;0.111285;0.0224317;0.0873383;0;0.150326;8.90703;3.10188
434000;435;26.9386;1.18218;0.0458986;-2.59517;26.7649;-1.6094;-0.0937751;1.13936;-0.927602;-0.215085;-0.663938;-0.164536;0.71704;-5.82053;-0.00215594;-0.00023654;0.0100621;0.0100667;-0.00216052;0.00611362;0.214262;4.66717;0.00753528;0.00815149;4.6594;0.21462;105.664;150.664;-0.00348866;-0.00215888;0.00198825;-0.00243442;0.0100602;-0.00365912;0.015767;0;0.0200043;-0.301375;-1.82143;-1.05663;2.12719;-7.38428;-0.0279224;0.00803054;0.112161;0.11262;-0.0283812;0.0705005;0.248949;4.01688;0.0861136;0.0940006;3.96811;0.252009;87.0725;132.072;0.000450716;-0.0279184;0.00859108;0.00754061;0.112157;0.00757702;0.0790888;0;0.14791;8.90222;3.10802
435000;436;26.9472;1.19082;0.0462341;-2.59724;26.7732;-1.61343;-0.0958363;1.14765;-0.9304;-0.215211;-0.663843;-0.164169;0.716907;-5.82017;-0.00219879;-0.000260561;0.00996629;0.00997187;-0.00220437;0.00608812;0.220623;4.53262;0.0074916;0.00811749;4.52368;0.221059;106.334;151.334;-0.00359104;-0.00220194;0.00202517;-0.00251876;0.00996429;-0.00397467;0.0156438;0;0.0196506;-0.302345;-1.83069;-1.05976;2.13681;-7.3936;-0.0268584;0.00808475;0.114045;0.114507;-0.0273207;0.0709139;0.235507;4.24615;0.0868886;0.0945518;4.19121;0.238594;87.5976;132.598;-0.00184017;-0.0268485;0.00956137;0.00679488;0.114033;0.00969061;0.0866485;0;0.167267;8.89893;3.11309
436000;437;26.9567;1.20027;0.0466007;-2.59728;26.7837;-1.59751;-0.0958767;1.15811;-0.914477;-0.215818;-0.664728;-0.162281;0.717479;-5.81828;-0.00215737;-6.67077e-05;0.00984706;0.00984743;-0.00215774;0.00600258;0.219087;4.56439;0.00738996;0.00800345;4.56378;0.219117;105.128;150.128;-0.00331909;-0.0021599;0.002142;-0.00224916;0.00984479;-0.00434659;0.0153777;0;0.0201452;-0.303326;-1.83873;-1.06284;2.14536;-7.39649;-0.0282194;0.00780992;0.11483;0.115256;-0.0286446;0.0719501;0.245749;4.0692;0.087954;0.0959334;4.02364;0.248531;87.8693;132.869;-0.00393959;-0.0282089;0.00947075;0.00636219;0.114818;0.00191084;0.0803102;0;0.150241;8.90185;3.11722
437000;438;26.9689;1.21251;0.0470762;-2.59599;26.796;-1.59958;-0.0945902;1.1704;-0.917782;-0.21555;-0.66539;-0.162466;0.718054;-5.81846;-0.0022338;-8.10616e-05;0.0102718;0.0102724;-0.00223432;0.00625335;0.217468;4.59838;0.00770182;0.0083378;4.59753;0.217508;104.687;149.687;-0.00366635;-0.00223638;0.00213698;-0.00227165;0.0102696;-0.00296478;0.0157039;0;0.0191097;-0.302548;-1.8444;-1.06536;2.15136;-7.39278;-0.0291628;0.0085241;0.115858;0.116357;-0.0296621;0.0730095;0.251713;3.97278;0.0891195;0.097346;3.92274;0.254924;88.4151;133.415;-0.0050108;-0.0291435;0.0115124;0.00592416;0.115831;0.0166819;0.0793724;0;0.142182;8.9036;3.12352
438000;439;;;;;;;;;;-0.2158;-0.665603;-0.162237;0.718274;-5.81824;-0.00210571;-1.59064e-05;0.0102874;0.0102874;-0.00210574;0.00619659;0.204688;4.88548;0.00765734;0.00826212;4.88544;0.20469;104.287;149.287;-0.00388534;-0.0021082;0.00222268;-0.00222703;0.010285;-0.00292041;0.0148996;0;0.018437;-0.303901;-1.85289;-1.06827;2.16027;-7.39736;-0.0282584;0.00892871;0.116254;0.116804;-0.028808;0.0728059;0.243074;4.11397;0.0890391;0.0970745;4.05456;0.246636;87.2758;132.276;0.000532595;-0.0282482;0.0102971;0.00773741;0.116242;0.0156479;0.09293;0;0.155427;8.90382;3.13154
439000;440;;;;;;;;;;-0.215438;-0.666176;-0.16235;0.718722;-5.81835;-0.0022086;-3.24608e-05;0.00987177;0.00987186;-0.00220869;0.00604027;0.223729;4.46969;0.00742775;0.0080537;4.46956;0.223736;104.97;149.97;-0.00362477;-0.00221104;0.00216998;-0.00220855;0.00986944;-0.00331147;0.0151713;0;0.018928;-0.30499;-1.86466;-1.07043;2.17159;-7.40789;-0.0287781;0.00794948;0.117698;0.118128;-0.0292083;0.0736683;0.244508;4.08984;0.0900808;0.0982244;4.04434;0.247259;87.3868;132.387;-0.00176436;-0.0287724;0.00878952;0.00721952;0.117692;0.00419733;0.111478;0;0.140107;8.90599;3.13847
440000;441;26.9788;1.22238;0.0474594;-2.59613;26.8033;-1.64357;-0.0947337;1.17769;-0.960541;-0.21564;-0.666894;-0.160566;0.719048;-5.81656;-0.00216925;-0.000164582;0.0102063;0.0102085;-0.00217144;0.00618999;0.21254;4.705;0.00763316;0.00825332;4.70127;0.212709;105.121;150.121;-0.00388107;-0.00217204;0.00206093;-0.00236283;0.0102043;-0.00352663;0.015606;0;0.0191716;-0.303575;-1.86815;-1.07182;2.17507;-7.4011;-0.0283076;0.00915704;0.119955;0.120518;-0.028871;0.0746945;0.235986;4.23754;0.0915001;0.0995927;4.17436;0.239558;86.4049;131.405;-0.000221158;-0.0283087;0.00902404;0.00927242;0.119956;0.0155932;0.0916202;0;0.158722;8.90888;3.1458
441000;442;26.9914;1.23502;0.0479498;-2.5976;26.8163;-1.63541;-0.0961966;1.19076;-0.952378;-0.216069;-0.668115;-0.160224;0.720233;-5.81622;-0.00227598;-0.000150158;0.00998436;0.0099862;-0.00227782;0.00613201;0.227955;4.38684;0.00753243;0.00817602;4.38411;0.228097;105.636;150.636;-0.00377087;-0.00227876;0.00208685;-0.00236001;0.00998222;-0.00285959;0.0166838;0;0.0210312;-0.304283;-1.87651;-1.07593;2.18438;-7.40423;-0.0295797;0.00892544;0.120264;0.120794;-0.0301095;0.0754516;0.245956;4.06576;0.0922189;0.100602;4.01182;0.249264;87.1215;132.122;-0.00121937;-0.0295727;0.00984462;0.0081292;0.120256;0.00123344;0.0976732;0;0.161502;8.91151;3.15297
442000;443;;;;;;;;;;-0.216197;-0.668606;-0.159606;0.720589;-5.8156;-0.00217187;-0.000149742;0.0100176;0.0100195;-0.00217371;0.00609659;0.216805;4.61244;0.00750982;0.00812878;4.60938;0.216949;104.778;149.778;-0.00413536;-0.00217439;0.00197141;-0.0022453;0.0100157;-0.00264381;0.016211;0;0.0206571;-0.305999;-1.88905;-1.0813;2.19803;-7.41664;-0.0293408;0.00855491;0.122142;0.122624;-0.0298224;0.0762231;0.240219;4.16288;0.0932926;0.101631;4.1118;0.243203;87.0684;132.068;-0.00235536;-0.0293369;0.00908288;0.0080982;0.122138;-0.00410784;0.102304;0;0.167712;8.91632;3.161
443000;444;;;;;;;;;;-0.21631;-0.670176;-0.158429;0.721821;-5.81443;-0.00214806;-1.64857e-05;0.0101282;0.0101282;-0.00214808;0.00613814;0.212087;4.71505;0.00757044;0.00818419;4.71501;0.212089;104.201;149.201;-0.00344213;-0.00215039;0.00215018;-0.00215682;0.0101259;-0.00419019;0.0157458;0;0.0195627;-0.307194;-1.89915;-1.0848;2.2086;-7.42159;-0.0312327;0.00887594;0.122628;0.123138;-0.031743;0.0774406;0.254695;3.92626;0.0944678;0.103254;3.87922;0.257784;88.5049;133.505;0.000283122;-0.0312112;0.0120959;0.00609719;0.122598;0.0125704;0.0902801;0;0.152672;8.91638;3.16809
444000;445;;;;;;;;;;-0.215759;-0.670441;-0.156971;0.721584;-5.81297;-0.00220978;8.23265e-05;0.0101819;0.0101824;-0.00221033;0.00619636;0.217031;4.60763;0.00763248;0.00826182;4.60674;0.217073;103.106;148.106;-0.00385145;-0.00221167;0.00213263;-0.00194283;0.0101796;-0.00387167;0.0157216;0;0.0221994;-0.305408;-1.90491;-1.08359;2.21272;-7.41358;-0.0306187;0.00876314;0.123378;0.123875;-0.0311157;0.0774953;0.24817;4.0295;0.0946752;0.103327;3.98111;0.251186;88.2375;133.237;-0.00152715;-0.0306004;0.0114645;0.00643206;0.123354;0.0158707;0.0901615;0;0.149021;8.90923;3.17552
445000;446;;;;;;;;;;-0.216549;-0.671076;-0.155558;0.722104;-5.81156;-0.00226344;-7.31403e-05;0.00996829;0.00996873;-0.00226388;0.00611631;0.227064;4.40404;0.00751498;0.00815507;4.40338;0.227098;104.337;149.337;-0.00337028;-0.00226569;0.00199584;-0.00211706;0.00996632;-0.00448356;0.0154354;0;0.0198775;-0.306288;-1.9133;-1.09035;2.22337;-7.42338;-0.0309562;0.00774445;0.123624;0.124011;-0.0313432;0.0776769;0.250407;3.9935;0.0948634;0.103569;3.95653;0.252746;88.739;133.739;0.00320621;-0.0309394;0.0106553;0.00523401;0.1236;0.00361239;0.103148;0;0.150894;8.90865;3.18247
446000;447;;;;;;;;;;-0.216004;-0.672494;-0.151913;0.722485;-5.80791;-0.00226121;8.50078e-05;0.0101499;0.0101505;-0.00226179;0.00620614;0.222781;4.48872;0.00763345;0.00827486;4.48782;0.222825;103.048;148.048;-0.00352442;-0.00226303;0.00210579;-0.00191095;0.0101477;-0.00472005;0.0164112;0;0.0211012;-0.306802;-1.92446;-1.08693;2.23139;-7.4237;-0.031281;0.00787621;0.126107;0.126501;-0.0316742;0.0790874;0.248051;4.03144;0.0966378;0.10545;3.99381;0.250388;87.9577;132.958;0.00511935;-0.0312713;0.00939635;0.00656851;0.126096;0.0275742;0.104016;0;0.165857;8.90968;3.18813
447000;448;;;;;;;;;;-0.217937;-0.673214;-0.14988;0.723311;-5.80588;-0.00223888;-0.000184945;0.0100123;0.0100151;-0.00224167;0.0061284;0.223612;4.47203;0.00753595;0.0081712;4.4677;0.223829;104.332;149.332;-0.00362886;-0.0022412;0.00181062;-0.0021563;0.0100107;-0.00338472;0.0157268;0;0.0202732;-0.309697;-1.93269;-1.09176;2.24124;-7.42921;-0.030386;0.00890434;0.128756;0.129253;-0.0308827;0.0800677;0.235997;4.23734;0.0980967;0.106757;4.18528;0.238933;87.2613;132.261;0.000416007;-0.0303794;0.00978394;0.00814875;0.128749;0.0213498;0.10045;0;0.174448;8.90824;3.19158
448000;449;;;;;;;;;;-0.21781;-0.672839;-0.153226;0.723624;-5.80922;-0.00235411;-7.86772e-05;0.0102432;0.0102437;-0.0023546;0.00629916;0.229821;4.35121;0.00773441;0.00839888;4.35051;0.229858;103.633;148.633;-0.00395058;-0.0023562;0.00191343;-0.00204594;0.0102414;-0.00318037;0.0167984;0;0.0205869;-0.308766;-1.93654;-1.0983;2.24762;-7.42877;-0.0321332;0.00884698;0.129034;0.129518;-0.0326174;0.0810677;0.249029;4.0156;0.0990249;0.10809;3.97083;0.251836;87.8448;132.845;0.000743554;-0.0321199;0.010714;0.00724646;0.129018;0.0125475;0.103259;0;0.157196;8.90947;3.19771
449000;450;;;;;;;;;;-0.217101;-0.672405;-0.155367;0.723465;-5.81137;-0.0023375;-7.55868e-05;0.0100224;0.0100229;-0.00233796;0.00618042;0.233227;4.28766;0.00758236;0.00824056;4.28701;0.233263;103.313;148.313;-0.00400915;-0.00233938;0.00181194;-0.00194001;0.0100208;-0.00241427;0.0157733;0;0.0202622;-0.309952;-1.94757;-1.10188;2.25904;-7.43684;-0.0329182;0.00878772;0.131197;0.131666;-0.0333874;0.0825267;0.250907;3.98554;0.100767;0.110036;3.94358;0.253576;88.0643;133.064;-0.0109475;-0.0329031;0.0109633;0.00692778;0.131178;0.0198136;0.101944;0;0.163897;8.9066;3.20464
450000;451;;;;;;;;;;-0.216991;-0.672673;-0.156665;0.72396;-5.81266;-0.00236602;0.000119473;0.0101214;0.0101225;-0.00236717;0.00624485;0.233764;4.27781;0.00766032;0.00832647;4.27623;0.233851;102.465;147.465;-0.00389482;-0.00236759;0.00203307;-0.00177046;0.0101194;-0.0039343;0.0151101;0;0.02356;-0.310877;-1.96088;-1.10996;2.27458;-7.4595;-0.0324917;0.00851989;0.131456;0.131898;-0.0329332;0.0824154;0.247168;4.04584;0.10072;0.109887;4.005;0.249688;89.4359;134.436;-0.000423192;-0.0324646;0.0132273;0.0044944;0.131411;-0.00361768;0.0995434;0;0.151221;8.91141;3.21157
451000;452;;;;;;;;;;-0.216561;-0.673494;-0.155542;0.724352;-5.81154;-0.00238287;0.000133864;0.0101721;0.0101735;-0.00238429;0.00627889;0.234256;4.26883;0.00770112;0.00837186;4.26688;0.234363;102.341;147.341;-0.00415098;-0.0023844;0.00204548;-0.00175399;0.01017;-0.00343606;0.0161367;0;0.0213938;-0.309506;-1.96448;-1.11068;2.27785;-7.45097;-0.0316219;0.0093809;0.13291;0.133443;-0.032155;0.0827992;0.237919;4.20312;0.101395;0.110399;4.15001;0.240963;87.9144;132.914;-0.00622875;-0.0316046;0.0117198;0.00738165;0.132889;0.0191763;0.111507;0;0.169748;8.91149;3.21935
452000;453;;;;;;;;;;-0.218106;-0.67373;-0.150287;0.723926;-5.80629;-0.00247744;-0.000104768;0.0101658;0.0101667;-0.00247831;0.0063225;0.243703;4.10335;0.00773735;0.00843;4.10227;0.243768;103.905;148.905;-0.00437768;-0.00247954;0.00186302;-0.00204792;0.0101641;-0.00320477;0.015341;0;0.0195209;-0.312839;-1.97117;-1.11197;2.2847;-7.45228;-0.0333387;0.00875878;0.134124;0.134581;-0.0337956;0.0841884;0.248565;4.02309;0.102854;0.112251;3.98222;0.251116;88.2929;133.293;-0.00982466;-0.0333214;0.0113118;0.00658271;0.134102;0.0186457;0.0941336;0;0.175979;8.90882;3.22641
453000;454;;;;;;;;;;-0.216931;-0.676224;-0.145258;0.724871;-5.80126;-0.00243701;5.72766e-05;0.0101238;0.010124;-0.00243727;0.00628065;0.240722;4.15417;0.00769158;0.00837419;4.15383;0.240741;102.605;147.605;-0.00360719;-0.00243862;0.00192921;-0.00179138;0.0101219;-0.00439997;0.0167046;0;0.0238041;-0.311126;-1.98058;-1.11323;2.2932;-7.45407;-0.0331201;0.00809554;0.137255;0.137639;-0.0335039;0.0855714;0.241303;4.14417;0.104729;0.114095;4.10815;0.243418;88.6849;133.685;-0.0131811;-0.0331026;0.0109902;0.00563451;0.137231;0.0270267;0.0951381;0;0.168092;8.91173;3.23383
454000;455;;;;;;;;;;-0.218269;-0.675688;-0.148536;0.725437;-5.80453;-0.00247121;0.000122333;0.0101249;0.0101261;-0.0024724;0.00629924;0.244073;4.09713;0.00770817;0.00839898;4.09564;0.244162;102.172;147.172;-0.00335621;-0.00247265;0.00196333;-0.00169571;0.010123;-0.00391022;0.0163338;0;0.0207663;-0.312622;-1.98925;-1.11684;2.30265;-7.45416;-0.033955;0.00962197;0.137259;0.137798;-0.034494;0.0861458;0.247379;4.04237;0.105264;0.114861;3.99483;0.250324;87.0203;132.02;-0.00931073;-0.0339511;0.0100869;0.00922702;0.137255;0.0290216;0.101503;0;0.164273;8.90957;3.24153
455000;456;;;;;;;;;;-0.218211;-0.674568;-0.15086;0.724857;-5.80686;-0.00241268;-0.000111796;0.0101403;0.0101413;-0.00241368;0.00627747;0.23793;4.20291;0.00769268;0.00836996;4.20159;0.238005;103.858;148.858;-0.00382386;-0.00241478;0.00185186;-0.00205104;0.0101386;-0.00397031;0.0160098;0;0.0229221;-0.312669;-1.99399;-1.12326;2.30987;-7.45703;-0.0339675;0.010191;0.139198;0.139796;-0.0345652;0.0871804;0.244023;4.09797;0.106603;0.116241;4.0444;0.247255;87.0023;132.002;-0.00592717;-0.033961;0.0109416;0.00955446;0.139191;0.0406237;0.088994;0;0.157881;8.90856;3.24915
456000;457;;;;;;;;;;-0.218394;-0.677731;-0.142409;0.726151;-5.79841;-0.00263727;0.000164776;0.0101514;0.0101536;-0.0026394;0.00639648;0.259793;3.84922;0.00779916;0.00852864;3.84693;0.259948;102.07;147.07;-0.00340679;-0.0026386;0.0019853;-0.0016327;0.0101495;-0.00454793;0.0153368;0;0.0212248;-0.312055;-2.00334;-1.11867;2.31564;-7.44931;-0.0345486;0.00945718;0.140429;0.140939;-0.0350582;0.0879986;0.246021;4.06469;0.107567;0.117332;4.02014;0.248747;87.9087;132.909;-0.0108779;-0.0345328;0.0115518;0.00768394;0.14041;0.024046;0.0906553;0;0.163137;8.90194;3.25521
457000;458;;;;;;;;;;-0.217889;-0.677019;-0.142907;0.725433;-5.79891;-0.00266901;-4.04083e-05;0.0100396;0.0100397;-0.00266914;0.00635443;0.265848;3.76155;0.00773787;0.00847258;3.76142;0.265857;103.894;148.894;-0.00401063;-0.00267091;0.00189201;-0.00194851;0.0100378;-0.00354985;0.0161842;0;0.0211641;-0.3111;-2.01158;-1.12615;2.32625;-7.46068;-0.0346814;0.00981837;0.142307;0.14285;-0.0352244;0.0890371;0.243709;4.10326;0.108891;0.118716;4.05542;0.246584;88.1385;133.138;-0.000427238;-0.0346602;0.0126185;0.00745206;0.142279;0.00912162;0.083886;0;0.167969;8.89892;3.25946
458000;459;;;;;;;;;;-0.21801;-0.676911;-0.145916;0.725967;-5.80191;-0.00258656;-5.61967e-05;0.0101856;0.0101859;-0.0025868;0.00638633;0.253942;3.9379;0.0077972;0.0085151;3.93762;0.25396;103.831;148.831;-0.00358738;-0.00258856;0.00191385;-0.00200134;0.0101838;-0.00336348;0.0158918;0;0.0221138;-0.311668;-2.01834;-1.12866;2.33339;-7.46009;-0.0357014;0.00933974;0.143526;0.144011;-0.0361868;0.0900989;0.248746;4.02016;0.110071;0.120132;3.97965;0.251278;89.6606;134.661;-0.00560624;-0.0356669;0.0150287;0.00454219;0.143465;0.0060934;0.0956113;0;0.163037;8.90218;3.26451
459000;460;;;;;;;;;;-0.216421;-0.677043;-0.147926;0.726022;-5.80392;-0.0027813;-0.00016103;0.0102496;0.0102515;-0.00278329;0.00651741;0.271358;3.68517;0.00792671;0.00868988;3.68325;0.271499;104.332;149.332;-0.00413783;-0.00278345;0.00178269;-0.00207968;0.010248;-0.00253861;0.0159064;0;0.0235547;-0.312561;-2.03287;-1.13532;2.3493;-7.47921;-0.0357819;0.0101776;0.144777;0.145349;-0.0363538;0.0908512;0.247152;4.04609;0.111019;0.121135;3.99817;0.250114;88.4784;133.478;0.00400927;-0.0357541;0.0138724;0.00706553;0.144738;0.0138971;0.085291;0;0.169361;8.90014;3.27041
460000;461;;;;;;;;;;-0.217027;-0.676669;-0.148506;0.725972;-5.8045;-0.00272284;-0.00013411;0.0102567;0.0102581;-0.00272423;0.00649115;0.26547;3.76691;0.00790485;0.00865487;3.7655;0.265569;104.306;149.306;-0.00367514;-0.00272501;0.00184188;-0.00208471;0.010255;-0.00319134;0.0157696;0;0.0213807;-0.314588;-2.04095;-1.13998;2.35881;-7.48427;-0.036397;0.00892515;0.148214;0.148645;-0.0368274;0.0927361;0.24557;4.07216;0.113384;0.123648;4.03625;0.247755;88.5531;133.553;-0.0161931;-0.0363772;0.011873;0.00645124;0.148187;0.0246115;0.104459;0;0.156615;8.90626;3.27816
461000;462;;;;;;;;;;-0.218977;-0.678471;-0.141781;0.726895;-5.79778;-0.00274254;-3.4412e-05;0.0103776;0.0103777;-0.00274263;0.00656015;0.264275;3.78393;0.00799112;0.00874687;3.78384;0.264282;102.719;147.719;-0.00408228;-0.0027442;0.00177627;-0.00182158;0.010376;-0.00231449;0.0154809;0;0.022845;-0.31554;-2.04996;-1.14053;2.367;-7.48251;-0.0357847;0.0108092;0.147142;0.147779;-0.0364212;0.0921;0.243198;4.11187;0.11264;0.1228;4.05749;0.246458;88.1498;133.15;-0.00843348;-0.035757;0.0142011;0.00795809;0.147105;0.0359767;0.0977968;0;0.159488;8.89461;3.28536
462000;463;;;;;;;;;;-0.217192;-0.680031;-0.138993;0.727278;-5.79499;-0.00265531;6.97696e-05;0.0103167;0.0103171;-0.00265569;0.0064864;0.257379;3.88532;0.00791326;0.00864853;3.88491;0.257406;102.324;147.324;-0.00372588;-0.00265682;0.00189706;-0.00173406;0.010315;-0.00452454;0.0146106;0;0.0221879;-0.315874;-2.05971;-1.14332;2.37684;-7.49104;-0.0367062;0.0108324;0.149669;0.150297;-0.0373337;0.0938152;0.245249;4.07749;0.114686;0.125087;4.02577;0.2484;88.0803;133.08;-0.00258811;-0.03668;0.0139983;0.0081797;0.149635;0.033439;0.0900994;0;0.171165;8.89438;3.29314
463000;464;;;;;;;;;;-0.217707;-0.681216;-0.134105;0.727624;-5.7901;-0.00282938;-0.000139182;0.00992302;0.00992454;-0.0028309;0.00637772;0.285133;3.50713;0.00773465;0.00850363;3.50579;0.285243;104.323;149.323;-0.00366155;-0.00283132;0.00171802;-0.00197293;0.00992157;-0.00295315;0.0173847;0;0.0295415;-0.315412;-2.0683;-1.13752;2.38145;-7.48224;-0.035698;0.0115821;0.151512;0.152226;-0.0364119;0.0943191;0.235611;4.24428;0.11555;0.125759;4.18068;0.239196;86.8518;131.852;0.00819171;-0.0356894;0.0124633;0.0108442;0.151503;0.0115807;0.107956;0;0.175468;8.89057;3.30061
464000;465;27.1691;1.41264;0.0548463;-2.59646;26.9861;-1.77884;-0.0950656;1.36058;-1.09581;-0.217756;-0.68117;-0.136427;0.728027;-5.79243;-0.00290305;-0.000118194;0.0102964;0.0102974;-0.00290411;0.00660076;0.281949;3.54674;0.00801042;0.00880102;3.54581;0.282023;104.191;149.191;-0.00364507;-0.0029051;0.00181498;-0.00202611;0.0102947;-0.00419256;0.0148159;0;0.0219539;-0.313315;-2.06741;-1.14557;2.38425;-7.47689;-0.037035;0.012718;0.153118;0.153965;-0.0378818;0.0959233;0.241873;4.13441;0.117327;0.127898;4.06434;0.246042;86.8955;131.896;0.00915617;-0.0370178;0.0143654;0.0113422;0.153098;-0.00573838;0.108539;0;0.19416;8.88758;3.30793
465000;466;;;;;;;;;;-0.217965;-0.680903;-0.136452;0.727844;-5.79245;-0.00289894;-8.72797e-05;0.00998456;0.00998515;-0.00289954;0.00644234;0.290343;3.44421;0.00780492;0.00858979;3.44371;0.290385;103.92;148.92;-0.00417171;-0.00290074;0.00174169;-0.00189292;0.00998306;-0.00291568;0.0154692;0;0.0216455;-0.313726;-2.07805;-1.14744;2.39444;-7.48163;-0.0380969;0.0126821;0.154372;0.155204;-0.0389289;0.0970667;0.246786;4.0521;0.118595;0.129422;3.98687;0.250824;87.3181;132.318;0.0118562;-0.0380716;0.0151942;0.0105888;0.154342;0.00220777;0.110771;0;0.176312;8.89022;3.31507
466000;467;;;;;;;;;;-0.216592;-0.679777;-0.138309;0.726731;-5.79431;-0.00282882;2.72256e-05;0.0103255;0.0103255;-0.00282888;0.00657721;0.273965;3.6501;0.00799525;0.00876961;3.65004;0.273969;103.347;148.347;-0.00409382;-0.00283058;0.00195204;-0.00187252;0.0103236;-0.00329073;0.0165388;0;0.0217843;-0.313976;-2.08826;-1.15532;2.40711;-7.49593;-0.0383529;0.0121504;0.157301;0.158053;-0.0391046;0.0985786;0.243819;4.10141;0.120537;0.131438;4.04179;0.247415;87.8933;132.893;0.0161815;-0.038321;0.0155973;0.00928618;0.15726;0.0034238;0.11179;0;0.175926;8.89119;3.32206
467000;468;27.1904;1.43397;0.0556745;-2.59778;27.0095;-1.74755;-0.0963849;1.38394;-1.06576;-0.217044;-0.67896;-0.140344;0.726493;-5.79634;-0.00278915;-8.87903e-06;0.0102308;0.0102308;-0.00278915;0.00650997;0.272623;3.66807;0.00791577;0.00867997;3.66806;0.272624;103.393;148.393;-0.00401533;-0.00279091;0.00188317;-0.00187655;0.010229;-0.00297774;0.0153191;0;0.0205177;-0.31287;-2.09425;-1.15713;2.41303;-7.49426;-0.0386703;0.0120403;0.158099;0.158833;-0.0394044;0.0991186;0.244596;4.08838;0.121178;0.132158;4.03085;0.248087;88.6443;133.644;-0.0032292;-0.0386262;0.0171994;0.00775761;0.158034;0.0302683;0.138128;0;0.179849;8.88869;3.32788
468000;469;;;;;;;;;;-0.216724;-0.680626;-0.134887;0.726922;-5.79089;-0.00283167;7.25265e-05;0.0105324;0.0105328;-0.00283207;0.00668243;0.268853;3.7195;0.00813197;0.00890991;3.71912;0.268881;102.492;147.492;-0.00431701;-0.00283324;0.00193802;-0.0017683;0.0105305;-0.0025677;0.0159899;0;0.0211375;-0.311863;-2.0998;-1.1558;2.41709;-7.48889;-0.0395694;0.0119426;0.160554;0.161265;-0.0402796;0.100772;0.246455;4.05754;0.123152;0.134363;4.00363;0.249773;88.959;133.959;-0.00614051;-0.0395217;0.0177453;0.00714021;0.16048;0.0312693;0.11067;0;0.176103;8.88713;3.33525
469000;470;;;;;;;;;;-0.217006;-0.684295;-0.126251;0.728897;-5.78225;-0.00289971;4.67408e-06;0.00979606;0.00979606;-0.00289971;0.00634789;0.296008;3.37829;0.00768192;0.00846385;3.37829;0.296008;103.725;148.725;-0.00313911;-0.00290131;0.00181752;-0.00178538;0.00979442;-0.00537198;0.016525;0;0.0430412;-0.314201;-2.1099;-1.16144;2.42886;-7.49335;-0.0421283;0.0112197;0.162209;0.162823;-0.0427425;0.102783;0.259716;3.85036;0.125251;0.137044;3.8094;0.262509;90.2163;135.216;0.00869256;-0.042073;0.0194193;0.00446129;0.162101;0.0107359;0.10201;0;0.202235;8.88062;3.33914
470000;471;;;;;;;;;;-0.218112;-0.679029;-0.138468;0.726516;-5.79447;-0.00270836;-2.10448e-05;0.0105353;0.0105353;-0.0027084;0.00662184;0.257076;3.8899;0.00807909;0.00882912;3.88986;0.257078;102.872;147.872;-0.00397038;-0.00271015;0.00187126;-0.00188855;0.0105335;-0.00305762;0.0155811;0;0.0238183;-0.316998;-2.11898;-1.17658;2.44436;-7.51661;-0.0406457;0.013324;0.162408;0.163278;-0.0415163;0.102397;0.250269;3.9957;0.125011;0.13653;3.93288;0.254267;88.4717;133.472;0.0138143;-0.0405936;0.018795;0.0088084;0.162332;-0.0107476;0.083143;0;0.178367;8.87771;3.34325
471000;472;;;;;;;;;;-0.216152;-0.682856;-0.125157;0.727103;-5.78116;-0.00309808;5.32656e-05;0.0102626;0.0102628;-0.0030983;0.00668053;0.301882;3.31255;0.00807523;0.00890738;3.31239;0.301897;103.579;148.579;-0.00367373;-0.00309974;0.00194735;-0.00181577;0.0102607;-0.00456396;0.0153124;0;0.0222057;-0.313859;-2.13109;-1.16858;2.45064;-7.50917;-0.0401892;0.0143355;0.165905;0.166897;-0.0411816;0.104039;0.242243;4.12809;0.127233;0.138719;4.05271;0.246748;88.548;133.548;0.00645382;-0.0401247;0.020769;0.00903886;0.165808;0.010959;0.0961657;0;0.193192;8.87377;3.35071
472000;473;;;;;;;;;;-0.216594;-0.681608;-0.130614;0.727023;-5.78661;-0.00313094;9.09438e-05;0.0104283;0.0104289;-0.00313155;0.00678022;0.300236;3.33071;0.00819829;0.00904029;3.33026;0.300277;103.193;148.193;-0.00434988;-0.00313252;0.00198281;-0.00177554;0.0104263;-0.00284961;0.0150234;0;0.0205253;-0.314997;-2.13605;-1.17613;2.4587;-7.51478;-0.0419694;0.0152104;0.16867;0.169763;-0.0430621;0.106412;0.248825;4.01888;0.12993;0.141883;3.94228;0.25366;87.7739;132.774;0.0123849;-0.0419143;0.0200839;0.0112151;0.168597;0.0164304;0.115941;0;0.19603;8.87309;3.3579
473000;474;;;;;;;;;;-0.216354;-0.682135;-0.126274;0.726679;-5.78227;-0.00317459;0.000142304;0.0104061;0.0104076;-0.00317608;0.00679185;0.305069;3.27794;0.00820464;0.0090558;3.27687;0.305169;103.127;148.127;-0.00399188;-0.00317608;0.00204146;-0.00173133;0.0104041;-0.00368584;0.0151887;0;0.0226255;-0.315895;-2.14836;-1.17642;2.46966;-7.51768;-0.0410177;0.0148566;0.169684;0.170726;-0.04206;0.106393;0.24173;4.13684;0.130123;0.141857;4.0591;0.24636;87.9978;132.998;0.0122361;-0.0409603;0.020149;0.0105172;0.169604;0.0212345;0.114294;0;0.189208;8.86604;3.36582
474000;475;;;;;;;;;;-0.216606;-0.682074;-0.129304;0.727229;-5.7853;-0.00299634;0.000203757;0.0104829;0.010486;-0.00299942;0.00674272;0.285831;3.49858;0.00817598;0.00899029;3.49601;0.28604;101.696;146.696;-0.00350695;-0.00299752;0.0019783;-0.00154712;0.010481;-0.0045714;0.0158234;0;0.0311245;-0.312164;-2.15076;-1.18138;2.47363;-7.52115;-0.040858;0.01346;0.173147;0.173991;-0.0417012;0.107846;0.235972;4.23779;0.132107;0.143794;4.17231;0.239675;89.9353;134.935;-0.0019803;-0.04078;0.0230474;0.00562074;0.172998;0.0215228;0.113878;0;0.19455;8.86289;3.372
475000;476;;;;;;;;;;-0.218241;-0.683236;-0.122393;0.727613;-5.77839;-0.00283534;0.000113318;0.0101736;0.0101746;-0.00283633;0.00650546;0.278696;3.58814;0.00790008;0.00867394;3.58724;0.278766;102.829;147.829;-0.00345952;-0.00283682;0.00197475;-0.00172415;0.0101717;-0.00415671;0.016641;0;0.0249892;-0.317522;-2.16155;-1.18101;2.48352;-7.52182;-0.044158;0.0131723;0.175242;0.17603;-0.044946;0.110488;0.251983;3.96852;0.134855;0.147317;3.91647;0.255332;88.9723;133.972;0.00931241;-0.0441;0.0196306;0.00791938;0.175151;-0.0126087;0.08676;0;0.187101;8.85949;3.37961
476000;477;;;;;;;;;;-0.218679;-0.681157;-0.123811;0.726033;-5.77981;-0.00315507;-0.000132756;0.0101795;0.0101808;-0.00315639;0.00666861;0.309943;3.2264;0.00804837;0.00889148;3.22547;0.310033;103.956;148.956;-0.00372498;-0.00315687;0.00165805;-0.00189992;0.0101782;-0.00412353;0.0166607;0;0.0257313;-0.315883;-2.1605;-1.18729;2.48539;-7.51922;-0.0458636;0.0131516;0.177923;0.178693;-0.0466338;0.112663;0.257772;3.8794;0.137338;0.150218;3.83184;0.260971;89.9255;134.926;-0.00503924;-0.0457912;0.0220921;0.00590908;0.177789;0.0075488;0.084933;0;0.198962;8.85541;3.38672
477000;478;;;;;;;;;;-0.216692;-0.681112;-0.130398;0.726549;-5.7864;-0.00299814;-5.33705e-05;0.0102616;0.0102618;-0.00299835;0.00663007;0.292171;3.42265;0.00802947;0.00884009;3.42247;0.292186;103.762;148.762;-0.00414749;-0.00299995;0.00182209;-0.00190421;0.0102599;-0.00376118;0.0140573;0;0.0210362;-0.316567;-2.18198;-1.19995;2.51021;-7.54435;-0.0442451;0.0153627;0.178013;0.179069;-0.0453019;0.112186;0.24855;4.02333;0.137;0.149581;3.9528;0.252985;89.3441;134.344;-0.00373882;-0.0441551;0.0244254;0.00800904;0.17786;0.020253;0.0934167;0;0.220898;8.8484;3.39453
478000;479;;;;;;;;;;-0.21759;-0.683271;-0.118491;0.726805;-5.77449;-0.00301813;0.000299774;0.0103142;0.0103209;-0.00302486;0.00667288;0.29262;3.4174;0.00807987;0.00889717;3.41202;0.293082;101.315;146.315;-0.00381492;-0.00301908;0.00203521;-0.00141276;0.0103121;-0.004419;0.0143268;0;0.0209766;-0.314457;-2.1876;-1.19452;2.51224;-7.5331;-0.044043;0.0139432;0.182088;0.182945;-0.0448995;0.113922;0.241877;4.13433;0.139362;0.151896;4.07454;0.245426;90.7499;135.75;-0.00136608;-0.0439499;0.0261894;0.00403832;0.18188;0.0276199;0.075365;0;0.211562;8.84031;3.40072
479000;480;;;;;;;;;;-0.217841;-0.682652;-0.125144;0.727413;-5.78114;-0.00315149;3.68736e-05;0.0103101;0.0103102;-0.00315159;0.00673087;0.305672;3.27149;0.0081302;0.0089745;3.27141;0.305678;103.269;148.269;-0.00420465;-0.00315306;0.00186853;-0.00177038;0.0103083;-0.00277398;0.0156343;0;0.0255431;-0.31814;-2.19604;-1.20231;2.52376;-7.54399;-0.0449295;0.0151353;0.182204;0.183209;-0.0459336;0.114571;0.246589;4.05534;0.139985;0.152761;3.98855;0.250718;89.5637;134.564;-0.00558225;-0.0448383;0.0246983;0.00740874;0.182043;0.0155747;0.0891814;0;0.213013;8.83638;3.40555
480000;481;;;;;;;;;;-0.216036;-0.680468;-0.126378;0.725038;-5.78238;-0.00300113;0.000133847;0.0101061;0.0101075;-0.00300249;0.00655498;0.296962;3.36744;0.00793091;0.00873998;3.36636;0.297057;102.187;147.187;-0.00321859;-0.00300234;0.00184948;-0.00155952;0.0101044;-0.00418831;0.0164423;0;0.0296912;-0.316522;-2.20183;-1.21307;2.53373;-7.55787;-0.0463612;0.0153242;0.185681;0.186688;-0.0473688;0.117029;0.249682;4.00509;0.14289;0.156038;3.94117;0.253732;88.9766;133.977;0.00332556;-0.0462801;0.0232463;0.00895183;0.185552;0.0116583;0.0871532;0;0.197268;8.83289;3.41198
481000;482;;;;;;;;;;-0.218374;-0.681103;-0.123924;0.72591;-5.77992;-0.0029915;9.89681e-05;0.0100801;0.0100808;-0.00299225;0.00653655;0.296773;3.36958;0.00790896;0.0087154;3.36898;0.296825;103.018;148.018;-0.00368615;-0.00299294;0.00191636;-0.00169491;0.0100783;-0.00431492;0.0159674;0;0.0214936;-0.318543;-2.20524;-1.21081;2.53587;-7.54799;-0.0482629;0.0153049;0.188848;0.189832;-0.0492467;0.119539;0.255565;3.9129;0.14577;0.159386;3.85471;0.259423;89.5863;134.586;-0.000137477;-0.0481706;0.0248722;0.00764481;0.188686;0.00466918;0.129393;0;0.199122;8.82585;3.41673
482000;483;;;;;;;;;;-0.218169;-0.682141;-0.12291;0.726651;-5.77891;-0.00299509;5.34558e-05;0.0103137;0.0103139;-0.00299531;0.00665462;0.290399;3.44354;0.00806205;0.00887283;3.44337;0.290413;102.772;147.772;-0.00397499;-0.00299658;0.00185776;-0.00172708;0.010312;-0.00321572;0.0161175;0;0.0204934;-0.319092;-2.22165;-1.2225;2.55579;-7.57212;-0.0468788;0.0162951;0.191021;0.192132;-0.0479898;0.120061;0.245412;4.07477;0.146724;0.160081;4.00359;0.249776;89.5659;134.566;0.00870553;-0.0467726;0.0267365;0.00793813;0.190832;0.0379735;0.108098;0;0.229044;8.82095;3.4245
483000;484;;;;;;;;;;-0.218197;-0.680479;-0.12799;0.725977;-5.78399;-0.0028138;0.000325229;0.0104711;0.0104791;-0.00282176;0.00665042;0.26872;3.72134;0.00809233;0.00886723;3.71367;0.269276;100.96;145.96;-0.0043074;-0.00281478;0.00210733;-0.00143345;0.010469;-0.00343021;0.014714;0;0.0215177;-0.315599;-2.22265;-1.22651;2.55815;-7.56064;-0.0483768;0.016966;0.194663;0.195841;-0.0495555;0.122698;0.248516;4.02388;0.149836;0.163598;3.95196;0.253039;90.0485;135.049;0.0233626;-0.0482522;0.0293248;0.00711979;0.194423;0.0333087;0.0944788;0;0.223345;8.81551;3.43068
484000;485;;;;;;;;;;-0.217581;-0.686059;-0.108629;0.727887;-5.76463;-0.00313322;0.000387755;0.0102172;0.0102285;-0.00314447;0.00668649;0.30666;3.26094;0.00807391;0.00891532;3.25285;0.307422;101.335;146.335;-0.00403688;-0.00313404;0.00213324;-0.00133467;0.0102151;-0.00460259;0.0163481;0;0.0206164;-0.319867;-2.23794;-1.21331;2.5657;-7.5545;-0.0498952;0.0172355;0.196021;0.197223;-0.0510973;0.12416;0.254541;3.92864;0.151416;0.165547;3.85975;0.259084;89.3849;134.385;0.00533763;-0.0497817;0.0275813;0.00901567;0.195827;0.0310907;0.0516622;0;0.218003;8.80344;3.43802
485000;486;;;;;;;;;;-0.217448;-0.683988;-0.113175;0.726589;-5.76917;-0.00303645;0.000225619;0.0101575;0.0101613;-0.00304031;0.00660082;0.298937;3.34518;0.00798304;0.0088011;3.34221;0.299203;101.76;146.76;-0.00344217;-0.0030375;0.00194027;-0.00146664;0.0101556;-0.00534439;0.0162551;0;0.02416;-0.31938;-2.2465;-1.22975;2.5809;-7.57527;-0.0505565;0.0155697;0.197031;0.198007;-0.0515317;0.124769;0.256591;3.89726;0.15212;0.166359;3.84242;0.260252;89.6087;134.609;0.00930171;-0.0504607;0.0253853;0.00778344;0.196864;0.0271917;0.0755402;0;0.228554;8.79352;3.44452
486000;487;;;;;;;;;;-0.220126;-0.68578;-0.108013;0.728296;-5.76401;-0.00306636;0.000132414;0.0100475;0.0100488;-0.0030677;0.00655826;0.305187;3.27668;0.0079223;0.00874435;3.27568;0.30528;102.888;147.888;-0.0037345;-0.0030677;0.00192441;-0.00163632;0.0100457;-0.00485236;0.0164649;0;0.0233233;-0.320791;-2.25263;-1.2246;2.58397;-7.56244;-0.050862;0.0170523;0.200287;0.201439;-0.0520146;0.126727;0.253946;3.93785;0.154576;0.168969;3.87275;0.258214;88.6557;133.656;0.000720814;-0.0507702;0.0249702;0.0107905;0.200148;0.011836;0.086008;0;0.209965;8.78897;3.45287
487000;488;;;;;;;;;;-0.217433;-0.684629;-0.109278;0.726591;-5.76528;-0.0034924;0.000253982;0.010367;0.0103717;-0.00349705;0.00693436;0.336876;2.96845;0.00832857;0.00924582;2.96583;0.337173;102.694;147.694;-0.00339867;-0.00349354;0.00206168;-0.00152892;0.010365;-0.00578368;0.0157167;0;0.0217413;-0.319992;-2.26442;-1.23187;2.59759;-7.57419;-0.0505237;0.0159164;0.203273;0.204268;-0.051518;0.127893;0.24855;4.02333;0.156209;0.170524;3.96498;0.252208;88.7788;133.779;0.0287249;-0.0504424;0.0234843;0.00994413;0.20315;0.0121223;0.0984968;0;0.21233;8.78522;3.45943
488000;489;;;;;;;;;;-0.217521;-0.684349;-0.108229;0.726197;-5.76423;-0.00326535;0.000164781;0.0103503;0.0103523;-0.00326735;0.00680981;0.315485;3.16973;0.00821028;0.00907975;3.1684;0.315616;102.503;147.503;-0.00355448;-0.00326661;0.00194167;-0.00158817;0.0103484;-0.00548112;0.015366;0;0.0246215;-0.320843;-2.27026;-1.23392;2.60376;-7.5741;-0.0523442;0.0159668;0.206288;0.20727;-0.0533262;0.130298;0.253743;3.941;0.158965;0.173731;3.88684;0.257279;89.2351;134.235;0.00877964;-0.0522517;0.0249247;0.00892862;0.206136;0.0210445;0.0810231;0;0.219584;8.77724;3.46683
489000;490;;;;;;;;;;-0.216151;-0.680303;-0.11391;0.722848;-5.76991;-0.00314866;0.000288689;0.0106341;0.0106401;-0.00315471;0.00689742;0.296091;3.37734;0.00834615;0.00919656;3.37278;0.296491;101.324;146.324;-0.00371206;-0.00314968;0.00205707;-0.00145557;0.010632;-0.00387114;0.0157051;0;0.0263195;-0.320937;-2.29753;-1.2539;2.63702;-7.6243;-0.0495587;0.0163307;0.207877;0.208909;-0.0505905;0.12975;0.238403;4.19457;0.158845;0.173;4.12942;0.242165;89.8487;134.849;-0.00274073;-0.0494455;0.0279548;0.00718275;0.207664;0.00489546;0.130034;0;0.202204;8.76227;3.47426
490000;491;27.3799;1.62347;0.0630319;-2.59915;27.1922;-1.86658;-0.0977531;1.56666;-1.18478;-0.216376;-0.682765;-0.108344;0.724379;-5.76434;-0.00312634;0.000597686;0.0102999;0.0103264;-0.00315289;0.00673967;0.303531;3.29455;0.00814138;0.00898623;3.27523;0.305322;100.591;145.591;-0.00314524;-0.00312685;0.00238697;-0.00116782;0.0102973;-0.0061904;0.0153205;0;0.0211381;-0.321652;-2.3006;-1.25038;2.63812;-7.61189;-0.0509702;0.0182537;0.209375;0.210649;-0.0522438;0.131446;0.24344;4.10779;0.160703;0.175262;4.03203;0.248014;88.8302;133.83;0.0129538;-0.0508564;0.0277207;0.0108237;0.209195;0.00829373;0.103298;0;0.236174;8.74796;3.47908
491000;492;;;;;;;;;;-0.216276;-0.68441;-0.101682;0.724936;-5.75768;-0.00324962;0.000542624;0.01019;0.0102119;-0.0032715;0.00674168;0.318903;3.13575;0.00812111;0.00898891;3.12147;0.320362;100.772;145.772;-0.00347773;-0.00325015;0.00226524;-0.00115707;0.0101876;-0.00602582;0.015163;0;0.019692;-0.319164;-2.30538;-1.24793;2.64082;-7.60334;-0.051316;0.0186694;0.21372;0.215029;-0.0526246;0.133827;0.240108;4.16479;0.163738;0.178436;4.08609;0.244733;88.9642;133.964;0.0102696;-0.0511919;0.0289407;0.0106398;0.213519;0.025011;0.0934751;0;0.25274;8.74156;3.48297
492000;493;;;;;;;;;;-0.215061;-0.680707;-0.113103;0.722777;-5.7691;-0.00329842;0.000405411;0.0103053;0.0103174;-0.00331049;0.00681393;0.32007;3.12432;0.0082074;0.00908524;3.11657;0.320865;101.419;146.419;-0.00356977;-0.0032992;0.0021516;-0.00131726;0.0103031;-0.00523662;0.0152451;0;0.025368;-0.318657;-2.30295;-1.25412;2.64158;-7.59942;-0.0546789;0.017539;0.218756;0.219877;-0.0557993;0.137838;0.249953;4.00075;0.168296;0.183784;3.9405;0.253775;89.1497;134.15;0.0202572;-0.0545682;0.0273629;0.00991809;0.218575;0.0052017;0.100805;0;0.21591;8.73766;3.48943
493000;494;;;;;;;;;;-0.21606;-0.681241;-0.108959;0.722941;-5.76496;-0.00315522;0.000599305;0.0101795;0.0102063;-0.0031821;0.00669422;0.30996;3.22623;0.00807665;0.00892562;3.20742;0.311777;99.7663;144.766;-0.00404123;-0.00315555;0.00222942;-0.00100929;0.0101772;-0.00329985;0.0161763;0;0.0208861;-0.31606;-2.31646;-1.25456;2.65326;-7.60032;-0.0507499;0.0201278;0.223442;0.224911;-0.0522196;0.138566;0.227128;4.4028;0.170042;0.184754;4.30703;0.232179;88.8225;133.822;0.0184909;-0.0506064;0.0312303;0.0115122;0.223209;0.0236984;0.0639373;0;0.238594;8.72984;3.49667
494000;495;;;;;;;;;;-0.215391;-0.681241;-0.107416;0.72251;-5.76341;-0.0032655;0.000526467;0.0101664;0.010187;-0.0032861;0.00673655;0.321206;3.11327;0.00811168;0.00898206;3.10002;0.322579;100.6;145.6;-0.00326641;-0.003266;0.00220334;-0.00112811;0.0101641;-0.00633646;0.0155185;0;0.0202827;-0.322588;-2.33403;-1.2625;2.67313;-7.61621;-0.0523609;0.0183939;0.221404;0.222635;-0.0535913;0.138113;0.236495;4.22843;0.169141;0.184151;4.15431;0.240714;88.7521;133.752;0.010396;-0.0522481;0.0277149;0.0111612;0.221228;0.0272284;0.121764;0;0.257128;8.7115;3.50412
495000;496;;;;;;;;;;-0.215661;-0.67952;-0.107598;0.720995;-5.7636;-0.00314145;0.000500764;0.0101746;0.0101934;-0.00316025;0.00667685;0.308753;3.23884;0.00805833;0.00890247;3.22551;0.310028;100.484;145.484;-0.00385291;-0.00314199;0.00217831;-0.00115467;0.0101724;-0.00487887;0.0155841;0;0.0208453;-0.323464;-2.33454;-1.2658;2.67524;-7.61656;-0.0552543;0.0186445;0.231254;0.232462;-0.0564625;0.144462;0.238934;4.18526;0.176826;0.192616;4.1171;0.242889;88.8356;133.836;0.00637679;-0.0551372;0.0282916;0.0112413;0.23107;0.0193005;0.0669185;0;0.231529;8.66403;3.51166
496000;497;;;;;;;;;;-0.215327;-0.680174;-0.105341;0.721179;-5.76134;-0.00311682;0.000555588;0.0099335;0.00995711;-0.00314043;0.00654877;0.313768;3.18707;0.00789587;0.00873169;3.17062;0.315395;100.721;145.721;-0.00370086;-0.0031173;0.0022582;-0.00112503;0.00993113;-0.00459769;0.0147435;0;0.0209067;-0.312248;-2.32697;-1.25694;2.66311;-7.58872;-0.0540358;0.0185197;0.237185;0.238358;-0.0552088;0.146783;0.227822;4.3894;0.18015;0.195711;4.31739;0.231622;89.3697;134.37;0.029215;-0.0539015;0.0304078;0.00942832;0.23695;0.0229464;0.0630705;0;0.24108;8.66791;3.51866
497000;498;;;;;;;;;;-0.215868;-0.680193;-0.105817;0.721428;-5.76182;-0.00324318;0.000366793;0.0100045;0.0100147;-0.00325332;0.00663401;0.32417;3.0848;0.00798496;0.00884534;3.0783;0.324855;101.501;146.501;-0.0035775;-0.00324394;0.00204548;-0.00128987;0.0100025;-0.00477476;0.0149639;0;0.0203672;-0.319371;-2.35864;-1.2734;2.69939;-7.63431;-0.0541345;0.0208149;0.238381;0.239855;-0.0556082;0.147732;0.227092;4.4035;0.181305;0.196976;4.3133;0.231841;89.1846;134.185;0.0238789;-0.0539686;0.033757;0.0109278;0.238096;0.0209862;0.0705647;0;0.226371;8.67581;3.52469
498000;499;;;;;;;;;;-0.216181;-0.679302;-0.105434;0.720626;-5.76143;-0.00328637;0.000364014;0.0102841;0.0102938;-0.00329613;0.00679498;0.319559;3.12931;0.00818555;0.00905997;3.12301;0.320204;101.907;146.907;-0.00440197;-0.00328729;0.0021569;-0.00140479;0.0102818;-0.00298105;0.0159278;0;0.0205144;-0.320256;-2.35811;-1.27965;2.70199;-7.63137;-0.0585499;0.0177436;0.241608;0.242653;-0.0595952;0.151124;0.242334;4.12653;0.184864;0.201499;4.07169;0.245598;90.6713;135.671;0.012329;-0.0583987;0.0339009;0.00548957;0.241272;0.0111483;0.104032;0;0.228819;8.67161;3.53412
499000;500;;;;;;;;;;-0.216082;-0.67943;-0.100751;0.720046;-5.75675;-0.00320877;0.000620547;0.010259;0.0102875;-0.0032373;0.0067624;0.312777;3.19716;0.00815452;0.00901653;3.1778;0.314683;99.957;144.957;-0.00365751;-0.00320911;0.00229542;-0.001032;0.0102565;-0.0051305;0.0148347;0;0.0254148;-0.315484;-2.38097;-1.28573;2.72427;-7.64636;-0.0529037;0.0199956;0.245863;0.247195;-0.054236;0.150716;0.215176;4.64737;0.185537;0.200954;4.55777;0.219406;91.3312;136.331;0.0196404;-0.0526987;0.0418417;0.00338293;0.245321;0.0560254;0.0487493;0;0.22448;8.64799;3.54169
500000;501;;;;;;;;;;-0.215588;-0.679319;-0.0936359;0.718832;-5.74963;-0.00329192;0.000628253;0.00997807;0.0100077;-0.00332159;0.00666467;0.329915;3.03108;0.00801192;0.00888623;3.01293;0.331902;100.83;145.83;-0.00355836;-0.0032923;0.00235455;-0.00107536;0.00997552;-0.00474932;0.0160019;0;0.0214901;-0.315058;-2.38407;-1.27801;2.7233;-7.62713;-0.0581553;0.0222086;0.250613;0.252202;-0.0597445;0.155973;0.232052;4.30938;0.191187;0.207965;4.22135;0.236891;90.3549;135.355;0.0207295;-0.0579275;0.041065;0.0080033;0.250136;-0.00919987;0.0964845;0;0.22995;8.61736;3.54893
501000;502;;;;;;;;;;-0.215162;-0.677133;-0.0974121;0.717142;-5.75341;-0.00330139;0.000468935;0.010183;0.0101993;-0.00331768;0.0067585;0.324205;3.08447;0.00813419;0.00901134;3.07424;0.325284;101.322;146.322;-0.00377866;-0.00330206;0.00221195;-0.00125081;0.0101807;-0.00425216;0.0145937;0;0.0202222;-0.315629;-2.39117;-1.28684;2.73373;-7.63876;-0.0543775;0.0202122;0.256721;0.258029;-0.0556852;0.156857;0.211816;4.72108;0.193274;0.209143;4.6337;0.21581;90.8123;135.812;0.021534;-0.0541747;0.0404375;0.00498912;0.256233;0.0294223;0.0559669;0;0.25359;8.53578;3.55445
502000;503;;;;;;;;;;-0.216688;-0.677736;-0.0978338;0.718228;-5.75383;-0.00328659;0.00038433;0.0103412;0.010352;-0.00329742;0.00682472;0.317815;3.14649;0.00822388;0.00909963;3.13944;0.318528;101.555;146.555;-0.00448552;-0.00328744;0.00214946;-0.00135699;0.010339;-0.00268601;0.0154309;0;0.0208896;-0.317738;-2.39922;-1.28977;2.74239;-7.64076;-0.0550979;0.0187952;0.260867;0.261981;-0.056212;0.159097;0.211211;4.73461;0.196096;0.212129;4.66059;0.214565;91.5273;136.527;0.0199879;-0.0549129;0.0413255;0.00190554;0.26033;0.0694524;0.0661777;0;0.227472;8.5548;3.55576
503000;504;;;;;;;;;;-0.216375;-0.679108;-0.0951814;0.719073;-5.75118;-0.00339247;0.000473561;0.010018;0.0100347;-0.00340917;0.00672193;0.338638;2.95301;0.0080699;0.00896258;2.94344;0.339739;101.355;146.355;-0.00361857;-0.00339307;0.00216069;-0.00119117;0.0100158;-0.00494522;0.0150969;0;0.0209484;-0.321942;-2.41591;-1.29784;2.76128;-7.66129;-0.0544455;0.0192283;0.26127;0.262437;-0.0556123;0.159025;0.208388;4.79875;0.196141;0.212033;4.71905;0.211907;91.2361;136.236;0.000172018;-0.0542548;0.040889;0.00298472;0.260754;0.0542338;0.0916597;0;0.241097;8.5802;3.56298
504000;505;;;;;;;;;;-0.215762;-0.679072;-0.0906448;0.718268;-5.74664;-0.00331355;0.00065918;0.0100011;0.0100337;-0.00334611;0.0066899;0.331318;3.01825;0.00804004;0.00891986;2.99861;0.333487;100.797;145.797;-0.00333794;-0.0033139;0.00239928;-0.00105798;0.0099985;-0.00567948;0.0154612;0;0.0217644;-0.321828;-2.43587;-1.30701;2.78303;-7.6808;-0.056624;0.0234508;0.267903;0.269589;-0.0583098;0.163949;0.21136;4.73127;0.201988;0.218599;4.62339;0.216292;89.7486;134.749;0.0335019;-0.0563848;0.0416253;0.00992394;0.267437;0.0288723;0.113654;0;0.244254;8.569;3.57039
505000;506;;;;;;;;;;-0.214625;-0.674821;-0.0946895;0.714432;-5.75069;-0.00334556;0.000555396;0.0101345;0.0101574;-0.0033684;0.00676289;0.330115;3.02925;0.0081304;0.00901719;3.01549;0.331622;101.214;146.214;-0.00354779;-0.0033461;0.00231373;-0.00117947;0.010132;-0.00443629;0.0147462;0;0.021079;-0.324293;-2.45063;-1.30904;2.79721;-7.67813;-0.0602573;0.0232939;0.27351;0.275128;-0.0618751;0.168501;0.220311;4.53903;0.207147;0.224669;4.4465;0.224896;89.5376;134.538;0.0127427;-0.0600323;0.0400294;0.0109409;0.273094;0.0104916;0.085749;0;0.227153;8.51362;3.58441
506000;507;;;;;;;;;;-0.212822;-0.674188;-0.0880335;0.712441;-5.74403;-0.00316534;0.000865742;0.00935521;0.00941479;-0.00322492;0.00631985;0.338351;2.95551;0.00758361;0.00842647;2.91939;0.342538;100.171;145.171;-0.00341743;-0.00316528;0.00254262;-0.000790335;0.00935238;-0.00685724;0.0143181;0;0.0185233;-0.321039;-2.45558;-1.31811;2.80542;-7.68386;-0.0598044;0.0175315;0.282103;0.283;-0.060701;0.17185;0.211995;4.7171;0.21182;0.229134;4.6622;0.214491;91.8209;136.821;0.0295923;-0.0596409;0.0414053;1.90081e-05;0.281554;-0.00842461;0.0905802;0;0.249305;8.41632;3.58478
507000;508;;;;;;;;;;-0.213457;-0.673104;-0.0925345;0.712176;-5.74853;-0.00326166;0.000734521;0.00993539;0.00997614;-0.00330242;0.00663928;0.328287;3.04611;0.00798261;0.00885237;3.02086;0.331031;100.466;145.466;-0.00310598;-0.00326187;0.00247343;-0.000981671;0.00993263;-0.00643911;0.0156419;0;0.0199065;-0.320551;-2.46455;-1.32773;2.81774;-7.69965;-0.0591177;0.0189896;0.28349;0.284539;-0.0601671;0.172353;0.208536;4.79534;0.212606;0.229804;4.72915;0.211454;91.8868;136.887;0.0210842;-0.0589261;0.044678;0.000151675;0.282853;0.00277683;0.0841715;0;0.240883;8.41464;3.59158
508000;509;;;;;;;;;;-0.213948;-0.67515;-0.0894297;0.713862;-5.74543;-0.00330178;0.000695107;0.00964561;0.00968283;-0.00333899;0.00651091;0.342309;2.92134;0.00780987;0.00868121;2.89993;0.344836;100.523;145.523;-0.00343096;-0.00330197;0.00233981;-0.000928504;0.00964314;-0.00554272;0.0161703;0;0.0186704;-0.328262;-2.50011;-1.33743;2.8543;-7.73685;-0.0594939;0.0201596;0.285533;0.286707;-0.0606678;0.173687;0.208361;4.79936;0.214243;0.231583;4.72585;0.211602;90.9087;135.909;0.00248967;-0.0592876;0.0418527;0.00428385;0.28501;0.0227841;0.10401;0;0.226767;8.45834;3.59727
509000;510;;;;;;;;;;-0.214681;-0.675742;-0.0816521;0.71371;-5.73765;-0.00329718;0.000551975;0.00943454;0.00945843;-0.00332106;0.00638975;0.349479;2.8614;0.00765661;0.00851966;2.84801;0.351122;100.951;145.951;-0.00302155;-0.00329752;0.0021213;-0.000997557;0.00943247;-0.00655651;0.0151342;0;0.0272361;-0.324819;-2.50325;-1.32997;2.85317;-7.713;-0.0637295;0.0252879;0.289611;0.291412;-0.0655302;0.178471;0.220052;4.54437;0.219404;0.237961;4.44698;0.224872;90.6497;135.65;-0.00170576;-0.0634195;0.0495515;0.00766452;0.288907;-0.00517135;0.11269;0;0.232612;8.42605;3.60596
510000;511;;;;;;;;;;-0.211637;-0.670855;-0.0808396;0.708076;-5.73684;-0.00335449;0.000630038;0.00992538;0.0099552;-0.00338431;0.00666976;0.337971;2.95884;0.00800697;0.00889301;2.94157;0.339954;101.643;146.643;-0.00341962;-0.00335497;0.00244792;-0.00116395;0.00992261;-0.0057853;0.0143552;0;0.0203654;-0.318723;-2.50907;-1.34165;2.86305;-7.72294;-0.0622256;0.0259361;0.302425;0.30426;-0.0640611;0.184161;0.205756;4.86013;0.227224;0.245548;4.74953;0.210547;89.6276;134.628;0.00557136;-0.0619362;0.0461332;0.0113883;0.301866;0.0294856;0.122147;0;0.2117;8.29836;3.61344
511000;512;;;;;;;;;;-0.211568;-0.672611;-0.0750751;0.709086;-5.73107;-0.00346917;0.000534097;0.00958757;0.00960938;-0.00349099;0.00655018;0.361841;2.76365;0.00783364;0.00873358;2.75263;0.363289;102.316;147.316;-0.00377693;-0.00346973;0.00226874;-0.00117811;0.00958516;-0.00443748;0.0140691;0;0.0225614;-0.325315;-2.53241;-1.34477;2.88571;-7.73697;-0.0609541;0.0218625;0.30585;0.307149;-0.0622525;0.184701;0.199294;5.01771;0.228363;0.246267;4.93391;0.202679;90.8458;135.846;0.00870151;-0.0607112;0.0457583;0.00467246;0.305231;0.0554584;0.0897298;0;0.227118;8.26651;3.61377
512000;513;;;;;;;;;;-0.209845;-0.671108;-0.0842778;0.708184;-5.74028;-0.0032862;0.000840379;0.00989366;0.00994703;-0.00333957;0.0066433;0.332152;3.01067;0.00798095;0.00885773;2.97854;0.335735;99.7603;144.76;-0.00332988;-0.00328619;0.00252555;-0.000822805;0.00989085;-0.0067682;0.0154635;0;0.0195825;-0.321256;-2.53084;-1.35528;2.88879;-7.74365;-0.065546;0.0255053;0.305252;0.306998;-0.0672922;0.187145;0.214727;4.65707;0.230396;0.249527;4.56217;0.219194;90.5523;135.552;0.0366386;-0.0652311;0.0501399;0.00786107;0.304538;0.0323522;0.147175;0;0.227502;8.31673;3.62081
512001;514;;;;;;;;;;;;;;;;;;;;;;;;;;;;;;;;;;;;;;;;;;;;;;;;;;;;;;;;;;;;;;;;;;8.32444;3.62496
512002;515;;;;;;;;;;;;;;;;;;;;;;;;;;;;;;;;;;;;;;;;;;;;;;;;;;;;;;;;;;;;;;;;;;8.32444;3.62496
512003;516;;;;;;;;;;;;;;;;;;;;;;;;;;;;;;;;;;;;;;;;;;;;;;;;;;;;;;;;;;;;;;;;;;8.32444;3.62496
