Time;Image index (Image index);Distance L(t) (Extensometer 1);Change in distance (Extensometer 1);Strain - RC (Extensometer 1);Distance x L(t) (Extensometer 1);Distance y L(t) (Extensometer 1);Distance z L(t) (Extensometer 1);Change in distance x (Extensometer 1);Change in distance y (Extensometer 1);Change in distance z (Extensometer 1);X-displacement (Strain Gauge 1);Y-displacement (Strain Gauge 1);Z-displacement (Strain Gauge 1);Displacement (Strain Gauge 1);Height (Strain Gauge 1);Exx - RC (Strain Gauge 1);Exy - RC (Strain Gauge 1);Eyy - RC (Strain Gauge 1);Max. principal strain - RC (Strain Gauge 1);Min. principal strain - RC (Strain Gauge 1);Max. shear strain - RC (Strain Gauge 1);Poisson ratio -Exx/Eyy (Strain Gauge 1);Poisson ratio -Eyy/Exx (Strain Gauge 1);Von Mises - RC (Strain Gauge 1);Tresca - RC (Strain Gauge 1);Poisson ratio -strain max/min (Strain Gauge 1);Poisson ratio -strain min/max (Strain Gauge 1);Max. strain angle (Strain Gauge 1);Max. shear angle (Strain Gauge 1);Vorticity-z (Strain Gauge 1);du/dx (Strain Gauge 1);du/dy (Strain Gauge 1);dv/dx (Strain Gauge 1);dv/dy (Strain Gauge 1);dw/dx (Strain Gauge 1);dw/dy (Strain Gauge 1);Ezz plane stress state (Strain Gauge 1);Stereo reconstruction error (Strain Gauge 1);X-displacement (Strain Gauge 2);Y-displacement (Strain Gauge 2);Z-displacement (Strain Gauge 2);Displacement (Strain Gauge 2);Height (Strain Gauge 2);Exx - RC (Strain Gauge 2);Exy - RC (Strain Gauge 2);Eyy - RC (Strain Gauge 2);Max. principal strain - RC (Strain Gauge 2);Min. principal strain - RC (Strain Gauge 2);Max. shear strain - RC (Strain Gauge 2);Poisson ratio -Exx/Eyy (Strain Gauge 2);Poisson ratio -Eyy/Exx (Strain Gauge 2);Von Mises - RC (Strain Gauge 2);Tresca - RC (Strain Gauge 2);Poisson ratio -strain max/min (Strain Gauge 2);Poisson ratio -strain min/max (Strain Gauge 2);Max. strain angle (Strain Gauge 2);Max. shear angle (Strain Gauge 2);Vorticity-z (Strain Gauge 2);du/dx (Strain Gauge 2);du/dy (Strain Gauge 2);dv/dx (Strain Gauge 2);dv/dy (Strain Gauge 2);dw/dx (Strain Gauge 2);dw/dy (Strain Gauge 2);Ezz plane stress state (Strain Gauge 2);Stereo reconstruction error (Strain Gauge 2);Voltage ADC 1 channel 1
ms;;mm;mm;S;mm;mm;mm;mm;mm;mm;mm;mm;mm;mm;mm;S;S;S;S;S;S;;;S;S;;;°;°;S;S;S;S;S;S;S;S;pixel;mm;mm;mm;mm;mm;S;S;S;S;S;S;;;S;S;;;°;°;S;S;S;S;S;S;S;S;pixel;V
0.02515;1;25.7534;0;0;-2.10848;25.6602;-0.586872;0;0;0;0;0;0;0;-5.47294;-1.11022e-16;-1.73472e-17;2.22045e-16;2.22946e-16;-1.11923e-16;1.67435e-16;;;1.96847e-16;2.23246e-16;;;0;45;0;-1.11022e-16;-7.63278e-17;4.16334e-17;2.22045e-16;0;0;0;0;0;0;0;0;-6.08964;-2.22045e-16;-1.04083e-16;0;4.11595e-17;-2.63204e-16;1.52182e-16;;;1.90676e-16;2.02909e-16;;;0;45;0;-2.22045e-16;-8.32667e-17;-1.249e-16;0;0;0;0;0;0.0142113
1000.03;2;25.7526;-0.000788122;-3.06026e-05;-2.10877;25.6594;-0.589627;-0.0002956;-0.000878431;-0.00275486;-0.00153374;-0.0107831;-0.00151435;0.0109964;-5.47445;-2.8853e-05;-0.000504489;-0.000156447;0.000415857;-0.000601157;0.000508507;-0.184426;-5.42222;0.000590413;0.000678009;0.691761;1.44559;48.2294;93.2294;0.000119284;-2.88536e-05;-0.000503279;-0.000505699;-0.000156446;0.000246452;-0.000582272;0;0.0129214;-0.00106122;-0.0100886;-0.00562531;0.0115996;-6.09527;0.0007473;3.578e-05;0.000226542;0.000749747;0.000224095;0.000262826;-3.29873;-0.303147;0.000444385;0.000350435;-3.34567;-0.298894;3.73759;48.7376;-0.000508733;0.0007473;3.28123e-05;3.87493e-05;0.000226542;0.000198827;0.00205575;0;0.0111111;0.0142524
2000.03;3;25.7501;-0.0033226;-0.000129016;-2.10862;25.6567;-0.594907;-0.000141256;-0.00353132;-0.00803465;-0.00298515;-0.0211887;-0.00620632;0.0222798;-5.47914;2.0242e-05;-0.000228843;-0.000505802;0.00010586;-0.00059142;0.00034864;0.0400196;24.9878;0.000433893;0.000464853;0.178993;5.58682;64.6694;109.669;-0.000496782;2.02317e-05;-0.000187643;-0.000270065;-0.000505793;0.00065658;0.00304248;0;0.0145213;-0.00216072;-0.0205598;-0.010204;0.0230542;-6.09985;0.000921196;1.06344e-05;0.000498066;0.000921463;0.000497799;0.000211832;-1.84954;-0.540674;0.000532581;0.000282443;-1.85107;-0.540227;16.1198;61.1198;-0.00145375;0.00092112;0.000410116;-0.000389016;0.000497982;0.00144103;0.000533265;0;0.0166566;0.0142745
3000.03;4;25.7484;-0.00501338;-0.000194669;-2.10815;25.6549;-0.602651;0.000331842;-0.00537013;-0.0157794;-0.0040512;-0.0328089;-0.00459959;0.0333765;-5.47753;-2.87779e-05;1.74709e-05;-0.000636558;-2.82761e-05;-0.00063706;0.000304392;-0.0452085;-22.1197;0.000415602;0.000405856;-0.0443852;-22.53;83.728;128.728;0.000979829;-2.87807e-05;0.00011176;-7.68757e-05;-0.000636564;-0.00319482;0.00178696;0;0.0123798;-0.00363087;-0.0318835;-0.0122079;0.0343333;-6.10185;0.000800359;0.000297709;0.000302978;0.000939583;0.000163754;0.000387915;-2.64164;-0.378552;0.000579567;0.000517219;-5.73778;-0.174283;46.4135;91.4135;-0.00173922;0.000800381;0.000807058;-0.000211894;0.000302696;-0.000402194;0.00121145;0;0.0126403;0.0142564
4000.03;5;25.7511;-0.00232537;-9.02938e-05;-2.10756;25.6577;-0.598073;0.000917925;-0.00251705;-0.0112011;-0.00551439;-0.0450765;-0.00219981;0.0454658;-5.47514;-0.000151947;-7.35003e-05;0.000110738;0.000129905;-0.000171114;0.000150509;1.37213;0.728793;0.000174335;0.000200679;0.759172;1.31723;48.8307;93.8307;-0.000624387;-0.000151944;-0.000125623;-2.13916e-05;0.000110733;-0.000101815;-0.000408723;0;0.011788;-0.00464401;-0.044529;-0.0132383;0.0466868;-6.10288;0.000354967;-0.000110558;0.000119562;0.000398748;7.57808e-05;0.000161484;-2.96889;-0.336826;0.000244518;0.000215312;-5.26186;-0.190047;179.499;44.4986;-0.000446506;0.00035492;0.000104662;-0.000325829;0.000119563;-0.000303623;0.00131673;0;0.0111573;0.0142233
5000.03;6;25.7506;-0.00281319;-0.000109236;-2.10689;25.6572;-0.603152;0.00158853;-0.00307046;-0.0162802;-0.0065807;-0.0545744;-0.00281293;0.0550417;-5.47575;-0.000378776;-3.44249e-05;-0.000168108;-0.000162626;-0.000384259;0.000110817;-2.25317;-0.44382;0.000222722;0.000147755;-0.423219;-2.36284;173.973;38.9727;-0.000175883;-0.000378794;0.000124387;-0.000193203;-0.000168116;0.000902704;0.000805985;0;0.0122697;-0.00582594;-0.0541292;-0.0165193;0.0568929;-6.10616;0.000457799;-0.000229979;4.24819e-05;0.000559999;-5.97178e-05;0.000309858;-10.7763;-0.0927959;0.000394747;0.000413145;9.37742;0.106639;125.037;170.037;0.000252229;0.000457797;-0.00070079;0.000241029;4.22628e-05;0.000277346;-0.00152662;0;0.0104034;0.0143064
6000.03;7;25.753;-0.000354133;-1.37509e-05;-2.10623;25.6597;-0.600968;0.00224485;-0.000497313;-0.0140957;-0.00630362;-0.0544624;-0.0144398;0.0566957;-5.48738;-6.69066e-05;-0.000307818;-0.000298533;0.000146164;-0.000511603;0.000328883;-0.224118;-4.46194;0.00039882;0.000438511;0.285697;3.50021;73.2107;118.211;-0.00114256;-6.68747e-05;-0.000439568;-0.000176036;-0.000298582;0.00287543;0.00156878;0;0.0131861;-0.00554279;-0.0548865;-0.0239123;0.0601253;-6.11356;0.000427119;-4.60436e-05;0.000215663;0.000436709;0.000206072;0.000115319;-1.98049;-0.504924;0.000252267;0.000153758;-2.11921;-0.471874;143.682;8.68162;0.000621945;0.000427067;-0.00041728;0.000325271;0.000215577;-0.00113344;0.00049385;0;0.0104335;0.0143475
7000.03;8;25.7511;-0.0022703;-8.81552e-05;-2.10797;25.6577;-0.5975;0.000508466;-0.00248207;-0.0106286;-0.00546149;-0.0596569;-0.0209173;0.0634532;-5.49385;7.27975e-05;-0.000697465;-0.000634171;0.000501239;-0.00106261;0.000781926;0.114792;8.71143;0.000922077;0.00104257;0.471705;2.11997;69.5717;114.572;-0.00112851;7.28711e-05;-0.000812318;-0.00058253;-0.000634257;0.00340861;-0.00115373;0;0.0170526;-0.00538066;-0.0594642;-0.0304453;0.0670213;-6.12009;0.000672631;-2.78502e-06;0.00046874;0.000672669;0.000468702;0.000101984;-1.43498;-0.696875;0.000398265;0.000135978;-1.43517;-0.696779;155.64;20.6403;-0.000312679;0.000672443;-0.000618581;0.000613136;0.000468549;0.000441124;-0.00135146;0;0.011158;0.0143518
8000.03;9;25.7504;-0.00303127;-0.000117704;-2.10917;25.6568;-0.600542;-0.000690051;-0.00341532;-0.0136701;-0.00730323;-0.0655306;-0.0208653;0.069159;-5.4938;0.00029125;-6.44391e-05;-0.000194455;0.000299654;-0.000202859;0.000251256;1.49778;0.667657;0.000291914;0.000335008;1.47715;0.676978;146.427;11.4268;0.000626187;0.000291252;-0.000127017;-1.83131e-06;-0.000194461;0.000481554;8.54771e-05;0;0.0137877;-0.00700177;-0.0644071;-0.0316499;0.0721042;-6.12129;0.000764395;-8.19836e-05;0.000701626;0.000820796;0.000645225;8.77855e-05;-1.08946;-0.917884;0.000499076;0.000117047;-1.27211;-0.786097;136.871;1.87134;-0.000472062;0.000764387;-0.000309122;0.00014517;0.000701581;-0.000687566;0.00170807;0;0.012631;0.0143433
9000.03;10;25.7516;-0.00179633;-6.97513e-05;-2.10952;25.6582;-0.593478;-0.00104149;-0.00204042;-0.00660645;-0.00847535;-0.0744135;-0.0242884;0.0787345;-5.49722;-9.35037e-05;-0.000273984;-0.000471925;5.02538e-05;-0.000615683;0.000332968;-0.198133;-5.04713;0.00042819;0.000443958;0.081623;12.2515;39.3496;84.3496;0.0010633;-9.36263e-05;1.78721e-05;-0.00056595;-0.000471888;-0.00227421;0.0022858;0;0.0132257;-0.00808319;-0.07323;-0.0347928;0.0814771;-6.12444;0.000999986;9.49739e-05;0.000711255;0.00102843;0.000682816;0.000172804;-1.40594;-0.711265;0.000604307;0.000230406;-1.50615;-0.663944;28.7884;73.7884;-0.00134541;0.000999948;0.000480475;-0.000290639;0.000711145;0.00226536;-5.65411e-05;0;0.0138889;0.0143215
10000;11;25.7482;-0.0051535;-0.000200109;-2.11068;25.6545;-0.603475;-0.00220288;-0.00573853;-0.0166029;-0.00847893;-0.0817145;-0.026386;0.0862866;-5.49932;0.00041974;-0.000351543;-0.00026953;0.000567401;-0.000417191;0.000492296;1.5573;0.642135;0.000570655;0.000656395;1.36005;0.735267;10.2149;55.2149;0.00024429;0.000419666;-0.000182881;-0.000520321;-0.000269485;-0.00154303;0.000447648;0;0.0151547;-0.00830654;-0.0797747;-0.0395224;0.0894149;-6.12917;0.000862073;0.00023495;0.000648715;0.00101343;0.000497359;0.000258035;-1.32889;-0.752507;0.000585136;0.000344046;-2.03762;-0.490769;50.3463;95.3463;-0.00235489;0.000862056;0.000766549;-0.000296762;0.000648449;0.00342555;-0.00103958;0;0.0141456;0.0143807
11000;12;25.7504;-0.00296329;-0.000115064;-2.11193;25.6566;-0.601117;-0.00345212;-0.00358777;-0.0142452;-0.00970155;-0.0898704;-0.0294471;0.095068;-5.50238;0.000123845;-1.79253e-05;9.39904e-05;0.000132245;8.55909e-05;2.33268e-05;-1.31763;-0.758936;7.74467e-05;3.11025e-05;-1.54508;-0.647217;2.67088;47.6709;0.00102752;0.00012383;0.000140916;-0.000176772;9.39806e-05;-0.00246323;0.00111522;0;0.0138662;-0.0096682;-0.0884281;-0.0436906;0.0991053;-6.13334;0.000689925;0.000110703;0.000484034;0.000738152;0.000435807;0.000151172;-1.42537;-0.701574;0.000428488;0.000201563;-1.69376;-0.590403;34.0891;79.0891;-0.00138685;0.000689925;0.000337305;-0.000115945;0.000483983;0.00143763;-0.00176964;0;0.0121645;0.0144167
12000;13;25.7492;-0.0041593;-0.000161505;-2.11055;25.6554;-0.607387;-0.0020755;-0.00482253;-0.0205147;-0.00947642;-0.0999151;-0.0270855;0.103954;-5.50002;-0.000607884;-0.000253915;-0.000991446;-0.000481463;-0.00111787;0.000318202;-0.613129;-1.63098;0.000647464;0.00042427;-0.430698;-2.32181;62.4395;107.44;-0.00049751;-0.000607893;-0.000223441;-0.0002844;-0.000991439;-0.000356336;0.000212737;0;0.0127052;-0.0104662;-0.0990404;-0.0436844;0.108751;-6.13333;0.000434899;4.06763e-05;0.000209666;0.00044202;0.000202545;0.000119737;-2.07425;-0.482103;0.000255497;0.00015965;-2.18233;-0.458226;178.087;43.0866;-0.000180214;0.000434883;-0.000100737;0.000182122;0.000209662;0.00116269;0.0027858;0;0.0115719;0.0149108
13000;14;25.7478;-0.00559316;-0.000217181;-2.11129;25.6537;-0.61455;-0.00280863;-0.00649257;-0.0276785;-0.011488;-0.125208;-0.021009;0.127477;-5.49394;0.000275346;-0.000489349;-0.000513735;0.000509395;-0.000747783;0.000628589;0.53597;1.86578;0.000730169;0.000838119;0.681207;1.46798;40.6974;85.6974;-0.00020917;0.000275274;-0.000359425;-0.000619375;-0.00051368;0.0015337;-0.0023317;0;0.0151144;-0.0126608;-0.122872;-0.0452243;0.131541;-6.13487;0.000822693;4.84188e-05;0.000610393;0.000833214;0.000599872;0.000116671;-1.34781;-0.741946;0.000496329;0.000155561;-1.38899;-0.71995;20.7787;65.7787;-0.00149624;0.000822679;0.000268147;-0.000171357;0.000610359;0.00232673;0.00132484;0;0.0145174;0.0157932
14000;15;25.7469;-0.00647853;-0.00025156;-2.11176;25.6528;-0.614906;-0.00328225;-0.00742869;-0.0280339;-0.0106236;-0.142339;-0.0122058;0.143256;-5.48514;0.000118735;-7.26146e-06;-0.000769162;0.000118794;-0.000769222;0.000444008;0.154369;6.47799;0.000556654;0.00059201;0.154434;6.47525;70.6086;115.609;-0.000772893;0.000118701;0.000245197;-0.000259945;-0.000769192;0.000946475;-0.000560236;0;0.0170164;-0.0117507;-0.138289;-0.041236;0.144784;-6.13088;0.0011027;0.000215139;0.000226748;0.00115269;0.000176762;0.000487964;-4.86312;-0.205629;0.000716842;0.000650619;-6.52115;-0.153347;36.5107;81.5107;-0.00181184;0.0011026;0.000924935;-0.000495279;0.000226344;0.00137383;0.00151717;0;0.0149695;0.0179906
15000;16;25.7474;-0.0059613;-0.000231476;-2.10896;25.6535;-0.61561;-0.000481193;-0.00669603;-0.0287382;-0.0064796;-0.147569;-0.0131831;0.148298;-5.48612;0.00039334;7.67661e-05;-0.000732509;0.00039855;-0.00073772;0.000568135;0.536976;1.86228;0.000665696;0.000757513;0.540247;1.85101;83.6074;128.607;0.00104953;0.000393343;0.000140295;1.31659e-05;-0.000732516;-0.00349141;0.00101076;0;0.0166628;-0.00492423;-0.144108;-0.044528;0.150911;-6.13417;0.0014071;5.46935e-05;0.00061429;0.00141086;0.000610535;0.000400162;-2.29062;-0.436564;0.000817012;0.000533549;-2.31086;-0.43274;15.3619;60.3619;-0.000485914;0.00140704;0.000481265;-0.000372216;0.000614176;0.00303552;0.000347611;0;0.0148867;0.0185112
16000;17;25.7487;-0.0046497;-0.000180547;-2.10825;25.655;-0.613417;0.000230717;-0.00526859;-0.0265454;-0.00366405;-0.146745;-0.0201536;0.148168;-5.49309;0.000274746;-7.47797e-05;-0.000325877;0.000283916;-0.000335048;0.000309482;0.843096;1.1861;0.000357765;0.000412643;0.847391;1.18009;43.1466;88.1466;0.000563675;0.000274726;6.61366e-05;-0.000215781;-0.000325877;-0.00111209;0.00203583;0;0.0164909;-0.001173;-0.14453;-0.0498793;0.1529;-6.13952;0.00158045;-3.16579e-05;0.000499212;0.00158138;0.000498286;0.000541546;-3.16589;-0.315867;0.000933587;0.000722061;-3.17364;-0.315096;8.75784;53.7578;-0.000863888;0.00158036;0.000364957;-0.000428702;0.000499146;0.00342596;-0.000609044;0;0.0135173;0.0187131
17000;18;25.7488;-0.00463982;-0.000180164;-2.10853;25.6549;-0.615159;-5.47691e-05;-0.00532386;-0.0282876;-0.00536318;-0.147816;-0.0208848;0.14938;-5.49382;-0.00015154;-0.000315904;-0.000780284;-2.02387e-05;-0.000911586;0.000445673;-0.194212;-5.14902;0.000601091;0.000594231;-0.0222017;-45.0417;72.1644;117.164;-0.000211234;-0.000151519;-0.000393543;-0.000238216;-0.000780312;0.000763323;0.00146528;0;0.0168287;-0.00302006;-0.145394;-0.0509316;0.154086;-6.14058;0.0015076;2.47148e-05;0.000593282;0.00150827;0.000592614;0.000457827;-2.54112;-0.393527;0.000877432;0.000610436;-2.54511;-0.39291;10.3135;55.3135;-0.00086413;0.00150755;0.000356786;-0.00030766;0.000593219;0.0033003;0.000215248;0;0.0132128;0.0184695
18000;19;25.7462;-0.00723574;-0.000280962;-2.11033;25.6522;-0.614898;-0.00185559;-0.00807108;-0.0280259;-0.0131655;-0.133382;-0.0154048;0.134912;-5.48834;-0.000196651;-0.0011574;-0.000605824;0.000774109;-0.00157658;0.00117535;-0.324601;-3.08071;0.00138328;0.00156713;0.491004;2.03664;43.6824;88.6824;-0.000628781;-0.000196759;-0.00106734;-0.00124751;-0.000605724;0.00275365;0.000672271;0;0.0221883;-0.0133332;-0.130436;-0.039128;0.136829;-6.12877;0.000666071;0.000196967;0.000518388;0.000802582;0.000381876;0.000210353;-1.28489;-0.778277;0.000463552;0.000280471;-2.10168;-0.475809;57.2376;102.238;-0.00214155;0.000666012;0.000790215;-0.00039637;0.000518095;0.00267383;-0.000873812;0;0.0205227;0.0171222
19000;20;25.7477;-0.00574803;-0.000223195;-2.10949;25.6539;-0.609077;-0.00101042;-0.00636954;-0.0222049;-0.0128175;-0.132849;-0.0105259;0.13388;-5.48346;0.00040437;-0.000451314;0.000456314;0.000882402;-2.17191e-05;0.000452061;-0.886166;-1.12846;0.00059564;0.000602748;40.628;0.0246136;149.093;14.0929;0.000418799;0.000404216;-0.000187671;-0.000714944;0.000456398;-0.00269804;-0.00128044;0;0.0176502;-0.012944;-0.130042;-0.0325399;0.134675;-6.12218;0.000799484;7.27873e-05;0.00039904;0.000812304;0.00038622;0.000213042;-2.00352;-0.499121;0.000469172;0.000284056;-2.10322;-0.475462;33.7752;78.7752;-0.00146843;0.000799317;0.00072893;-0.000583618;0.000398777;-6.76727e-05;0.00198201;0;0.0135696;0.0171135
20000;21;25.7475;-0.00585217;-0.000227239;-2.10966;25.6537;-0.611996;-0.00118181;-0.00655763;-0.0251238;-0.0121272;-0.132755;-0.00853223;0.13358;-5.48147;0.000409984;-0.000272284;-0.000693058;0.000473535;-0.000756609;0.000615072;0.591558;1.69045;0.000716465;0.000820096;0.625865;1.59779;46.6307;91.6307;0.00113435;0.000409884;-2.27211e-05;-0.000522123;-0.000693021;-0.00296904;-0.000756825;0;0.0179799;-0.0129407;-0.130874;-0.0282919;0.134521;-6.11794;0.000855214;0.000233923;0.000482656;0.000967966;0.000369904;0.000299031;-1.77189;-0.564368;0.000564007;0.000398708;-2.61681;-0.382145;40.116;85.116;-0.00118471;0.000855233;0.000601329;-0.00013362;0.000482502;0.000671767;0.00063564;0;0.0207695;0.0171302
21000;22;25.7472;-0.00618847;-0.000240297;-2.11003;25.6534;-0.609299;-0.00154679;-0.00686097;-0.0224269;-0.0121921;-0.131263;-0.00799893;0.132071;-5.48093;0.000160319;-0.00062707;0.000189319;0.000802056;-0.000452418;0.000627237;-0.84682;-1.18089;0.000733588;0.000836316;1.77282;0.564073;167.153;32.1525;-0.000516366;0.000160002;-0.000240914;-0.00101321;0.000189486;0.00166487;-0.00129094;0;0.0168687;-0.0123676;-0.12918;-0.0277737;0.132709;-6.11742;0.000657499;0.000165999;0.000729036;0.000863076;0.000523458;0.000169809;-0.901874;-1.1088;0.000502051;0.000226412;-1.6488;-0.606503;75.2448;120.245;-0.00124363;0.000657324;0.000945828;-0.000613774;0.000728603;0.000574753;-0.00112935;0;0.0149195;0.0170734
22000;23;25.7487;-0.00470239;-0.000182593;-2.10908;25.655;-0.606669;-0.000599289;-0.00522923;-0.0197969;-0.0118795;-0.130856;-0.00877935;0.131687;-5.48171;0.00013934;-0.000706648;-0.000166562;0.000709401;-0.000736622;0.000723011;0.83657;1.19536;0.000834911;0.000964015;0.963046;1.03837;7.50073;52.5007;-0.000724851;0.000139105;-0.000428046;-0.000985336;-0.000166403;0.00018454;-0.00014783;0;0.0173461;-0.0120226;-0.129889;-0.0243747;0.132702;-6.11402;0.000745983;9.34013e-05;0.000697565;0.000818262;0.000625287;9.64877e-05;-1.06941;-0.935095;0.000493913;0.00012865;-1.30862;-0.764164;63.9831;108.983;-0.00129277;0.000745628;0.00103517;-0.000848413;0.000697034;0.0011233;0.000198187;0;0.0143284;0.0170978
23000;24;25.7477;-0.00567084;-0.000220198;-2.11053;25.6539;-0.608903;-0.00204867;-0.00637335;-0.0220315;-0.010664;-0.130655;-0.00807719;0.131338;-5.48101;0.000110208;-0.000456078;-0.000143478;0.000456753;-0.000490022;0.000473388;0.768119;1.30188;0.000546733;0.000631183;0.932106;1.07284;10.5862;55.5862;4.09236e-05;0.000110117;-0.000287506;-0.000624692;-0.000143415;-0.00106652;-0.000480997;0;0.0243716;-0.0112401;-0.129276;-0.0232671;0.131833;-6.11291;0.00103561;0.00027018;0.000581598;0.00116149;0.000455718;0.000352886;-1.78063;-0.5616;0.000675747;0.000470515;-2.54871;-0.392356;42.0456;87.0456;-0.000917314;0.00103561;0.000818649;-0.000278538;0.0005813;0.00166696;0.000754385;0;0.0161352;0.017113
24000;25;25.7474;-0.00604624;-0.000234774;-2.10778;25.6536;-0.614701;0.000700088;-0.00666239;-0.0278292;-0.0109965;-0.130158;-0.0058556;0.130753;-5.47879;6.37908e-05;-0.000498299;-0.000418724;0.000376164;-0.000731098;0.000553631;0.152346;6.56402;0.000650134;0.000738175;0.51452;1.94356;30.9155;75.9155;0.000548754;6.36393e-05;-0.00025415;-0.000742567;-0.000418632;-0.00114013;0.000941063;0;0.018315;-0.0104729;-0.127781;-0.0258791;0.130795;-6.11552;0.00105529;0.000110052;0.000531968;0.00107749;0.000509766;0.000283861;-1.98374;-0.504098;0.000622388;0.000378481;-2.11369;-0.473106;26.3039;71.3039;-0.000518915;0.00105523;0.000564805;-0.000344939;0.000531815;-0.00228892;0.00205261;0;0.0156562;0.0171248
25000;26;25.7476;-0.00583367;-0.00022652;-2.10912;25.6537;-0.613687;-0.000637341;-0.00653469;-0.026815;-0.0102114;-0.127597;-0.00788443;0.128248;-5.48082;0.000329232;-0.000727324;-0.000285143;0.000811579;-0.00076749;0.000789535;1.15462;0.866086;0.000911795;0.00105271;1.05745;0.945675;9.59104;54.591;-0.00148337;0.000328927;-0.000387005;-0.00106785;-0.000284954;0.00307894;-0.0025043;0;0.0190457;-0.0104305;-0.125963;-0.0252332;0.128888;-6.11488;0.00102808;0.000244582;0.000630995;0.00114456;0.000514515;0.000315024;-1.6293;-0.613759;0.000661935;0.000420032;-2.22455;-0.44953;36.9279;81.9279;7.72021e-06;0.00102811;0.000595656;-0.000106631;0.000630848;-0.00156221;0.000721306;0;0.0178807;0.017107
26000;27;25.7499;-0.0034983;-0.000135838;-2.11007;25.6562;-0.603432;-0.00159009;-0.00402586;-0.0165597;-0.00990736;-0.12537;-0.0124769;0.126378;-5.48541;0.000234761;-0.000719542;-0.000473249;0.000682666;-0.000921155;0.00080191;0.496062;2.01588;0.000929373;0.00106921;0.741098;1.34935;35.6918;80.6918;-9.65186e-05;0.000234669;-0.000601137;-0.000838031;-0.000473171;6.07801e-05;-0.000509062;0;0.0192419;-0.0101658;-0.124548;-0.0282285;0.12811;-6.11787;0.000904964;-3.04382e-05;0.000331254;0.000906575;0.000329643;0.000288466;-2.73194;-0.366041;0.000529862;0.000384621;-2.75017;-0.363614;19.0484;64.0484;-0.00042503;0.000904766;0.000570049;-0.00063127;0.000331092;-0.0014191;0.00376512;0;0.0147584;0.0170813
27000;28;25.7493;-0.00413145;-0.000160424;-2.1092;25.6556;-0.605928;-0.000722613;-0.00464883;-0.0190558;-0.0096133;-0.126412;-0.00476465;0.126867;-5.4777;-6.01622e-05;-0.000356952;-0.000424319;0.000158468;-0.000642949;0.000400709;-0.141785;-7.05291;0.000490071;0.000534278;0.246471;4.05728;40.945;85.945;-0.00018841;-6.02376e-05;-0.00018656;-0.000527407;-0.000424272;0.000899235;-0.00205308;0;0.0206086;-0.00951662;-0.125602;-0.0200617;0.127549;-6.10971;0.000715819;0.000138791;0.000464668;0.000777412;0.000403074;0.000187169;-1.5405;-0.649142;0.000448942;0.000249559;-1.92871;-0.518482;47.2021;92.2021;-5.23704e-05;0.000715711;0.000762193;-0.000484767;0.000464387;-0.000249839;-0.00123912;0;0.0145553;0.0170688
28000;29;25.7491;-0.00433802;-0.000168445;-2.10811;25.6555;-0.60567;0.000370731;-0.0047602;-0.0187982;-0.00890794;-0.124744;-0.00872753;0.125366;-5.48166;2.00389e-05;-0.000736062;-0.000618765;0.000503011;-0.00110174;0.000802374;0.0323853;30.8782;0.000947753;0.00106983;0.456562;2.19028;50.2417;95.2417;-0.00108583;1.99857e-05;-0.000667133;-0.000805035;-0.000618717;0.00375105;-0.000507178;0;0.0216048;-0.00856986;-0.124654;-0.0230102;0.127049;-6.11266;0.00136321;7.39361e-05;0.000519923;0.00136964;0.000513489;0.000428075;-2.62194;-0.381397;0.000798969;0.000570767;-2.66732;-0.374908;8.79811;53.7981;-0.000226377;0.00136321;0.000200477;-5.27115e-05;0.000519905;-0.000708808;0.000375787;0;0.0132902;0.0170682
29000;30;25.7489;-0.00454367;-0.00017643;-2.10802;25.6553;-0.606273;0.000463366;-0.00497324;-0.0194014;-0.00888922;-0.122672;-0.00873998;0.123304;-5.48168;0.00011893;-0.000312982;3.32054e-05;0.000391971;-0.000239836;0.000315904;-3.58164;-0.279202;0.000368282;0.000421205;1.63433;0.611872;169.727;34.7267;-0.000223411;0.000118876;-0.000171949;-0.000454027;3.32396e-05;0.0021826;0.000142335;0;0.0229672;-0.00885427;-0.122701;-0.0219992;0.124972;-6.11164;0.000951063;0.000236384;0.000247588;0.00102311;0.000175536;0.000423789;-3.84132;-0.260327;0.000631746;0.000565052;-5.8285;-0.171571;34.244;79.244;0.0005955;0.000951075;0.000649762;-0.000177284;0.000247405;-0.0036259;-0.000128969;0;0.0167605;0.0170965
30000;31;25.7478;-0.00556644;-0.000216144;-2.10928;25.6541;-0.60573;-0.00079901;-0.00609067;-0.0188584;-0.0080593;-0.123874;-0.00786815;0.124385;-5.4808;0.000152081;-0.000409139;-0.00063294;0.000326544;-0.000807403;0.000566974;0.240277;4.16185;0.000674021;0.000755965;0.404438;2.47257;63.8446;108.845;-0.000189246;0.00015207;-0.000383366;-0.000434933;-0.00063293;9.42631e-05;-0.000811717;0;0.0214077;-0.00803418;-0.123694;-0.020641;0.125662;-6.11029;0.00103001;9.27325e-06;0.000398733;0.00103014;0.000398597;0.000315773;-2.5832;-0.387117;0.000599801;0.000421031;-2.58443;-0.386933;12.4612;57.4612;-0.000957198;0.00102996;0.000316181;-0.000297828;0.000398683;-0.000447858;0.000575826;0;0.0151349;0.0170523
31000;32;25.7487;-0.00467334;-0.000181465;-2.10884;25.6551;-0.604964;-0.000364641;-0.00514052;-0.0180917;-0.00793244;-0.122813;-0.0107915;0.123541;-5.48373;-0.000294495;-0.000871803;-0.000762854;0.000374033;-0.00143138;0.000902708;-0.386044;-2.59038;0.00110033;0.00120361;0.261309;3.82689;43.4506;88.4506;-0.000676063;-0.000294661;-0.000698791;-0.0010449;-0.000762718;0.00219252;-0.000147992;0;0.0212613;-0.00810346;-0.122371;-0.0212048;0.124458;-6.11085;0.000670884;-4.83982e-05;0.00037444;0.000678585;0.000366738;0.000155924;-1.7917;-0.558129;0.000392208;0.000207898;-1.85033;-0.540445;9.62768;54.6277;-8.69043e-05;0.000670785;0.000350529;-0.000447443;0.00037438;-0.000337869;0.00312904;0;0.0135332;0.0171067
32000;33;25.7495;-0.00393799;-0.000152911;-2.10823;25.656;-0.599059;0.000247392;-0.00421364;-0.0121876;-0.00786338;-0.120891;-0.0108516;0.121632;-5.48379;5.40058e-05;-0.000569345;-0.000262214;0.000486787;-0.000694995;0.000590891;0.205961;4.85529;0.000685823;0.000787855;0.700418;1.42772;35.2439;80.2439;-0.000932672;5.39616e-05;-0.000496384;-0.000642329;-0.000262175;0.00370281;0.00171385;0;0.0197657;-0.00791365;-0.120853;-0.022333;0.123154;-6.11198;0.000919793;8.78594e-05;0.00042006;0.00093479;0.000405063;0.000264863;-2.18967;-0.456689;0.000541299;0.000353151;-2.30776;-0.43332;17.1697;62.1697;0.000332944;0.000919793;0.000267025;-9.13959e-05;0.000420028;-0.00236743;0.00332844;0;0.0152662;0.0171069
33000;34;25.7488;-0.00464364;-0.000180312;-2.10856;25.6551;-0.607958;-8.25349e-05;-0.00515831;-0.0210866;-0.00856579;-0.122724;-0.00492849;0.123121;-5.47786;0.000153012;-0.000535723;0.000193552;0.000709388;-0.000362824;0.000536106;-0.790547;-1.26495;0.000629729;0.000714808;1.95518;0.511461;162.925;27.9251;-0.000647191;0.000152825;-0.000258115;-0.00081332;0.000193662;-0.000346888;0.00104912;0;0.0235844;-0.00883386;-0.122903;-0.0153209;0.124169;-6.10497;0.000812417;0.000162982;0.000599998;0.000900742;0.000511673;0.000194535;-1.35403;-0.738534;0.000521647;0.000259379;-1.76039;-0.568057;39.5062;84.5062;0.000108692;0.000812422;0.000449977;-0.000124073;0.00059991;-0.00215187;0.00250576;0;0.0142009;0.017134
34000;35;25.7485;-0.00488814;-0.000189806;-2.1079;25.6549;-0.608199;0.000576588;-0.00535524;-0.0213269;-0.0076408;-0.120586;-0.00508641;0.120935;-5.47802;-9.45154e-05;-0.000203922;0.000765202;0.000811119;-0.000140433;0.000475776;0.123517;8.09605;0.000593125;0.000634368;5.77585;0.173135;98.3165;143.316;0.000594624;-9.45062e-05;-0.000255555;-0.000152334;0.00076519;0.000810315;-0.000387775;0;0.0208578;-0.00733236;-0.120404;-0.0191995;0.122145;-6.10884;0.001175;8.92771e-05;0.000211561;0.0011832;0.000203358;0.000489923;-5.55397;-0.180052;0.000730514;0.000653231;-5.81834;-0.17187;8.67906;53.6791;6.09145e-05;0.00117501;0.000172683;5.79053e-06;0.00021155;-0.00212993;0.000807376;0;0.014727;0.0171368
35000;36;25.7497;-0.00370747;-0.00014396;-2.10868;25.6562;-0.601672;-0.000197923;-0.00408001;-0.0148004;-0.00739709;-0.120684;-0.00318138;0.120953;-5.47612;0.000121453;-0.000480725;0.000158037;0.000620818;-0.000341328;0.000481073;-0.768509;-1.30122;0.000563254;0.000641431;1.81883;0.549804;157.258;22.2575;-0.000587087;0.000121371;-0.000332427;-0.000629019;0.000158097;0.00176481;0.000119849;0;0.0228926;-0.0075533;-0.120634;-0.0142402;0.121706;-6.10389;0.000692837;5.60603e-05;0.000426718;0.000704164;0.00041539;0.000144387;-1.62364;-0.615899;0.000408734;0.000192516;-1.69519;-0.589906;18.2042;63.2042;0.000362586;0.000692835;0.000191151;-7.90662e-05;0.000426701;-0.00218009;0.0029729;0;0.0143794;0.0171514
36000;37;25.7497;-0.0037467;-0.000145484;-2.10893;25.6561;-0.600233;-0.000451987;-0.00410656;-0.0133611;-0.00668123;-0.118429;-0.00874715;0.118939;-5.48168;0.000187964;-0.000326;-7.05784e-05;0.000409388;-0.000292003;0.000350695;2.66319;0.375489;0.000406834;0.000467594;1.402;0.713266;1.24955;46.2495;0.000334069;0.000187894;-0.000156773;-0.000495271;-7.05375e-05;0.00183386;0.00331349;0;0.0230944;-0.00728257;-0.118804;-0.0189213;0.120521;-6.10857;0.000869514;-9.91603e-05;0.00030289;0.000886366;0.000286038;0.000300164;-2.87073;-0.348344;0.000522357;0.000400219;-3.09877;-0.322708;168.662;33.6624;-0.000835942;0.000869517;-0.000133843;-6.44577e-05;0.000302886;0.000365698;0.00168729;0;0.0139642;0.0171161
37000;38;25.7494;-0.00402386;-0.000156246;-2.11053;25.6557;-0.599663;-0.00204917;-0.00450275;-0.0127916;-0.00596355;-0.118249;-0.00740996;0.118631;-5.48035;-0.000326403;-0.000722786;-0.000289433;0.000415105;-0.00103094;0.000723023;-1.12773;-0.886738;0.000859741;0.00096403;0.402647;2.48357;22.3131;67.3131;-0.00089923;-0.000326661;-0.000426506;-0.00101906;-0.000289263;0.00338656;3.63779e-05;0;0.0208396;-0.00703155;-0.118906;-0.0141489;0.119951;-6.10379;0.00117501;-3.03369e-05;0.00036171;0.00117614;0.00036058;0.000407778;-3.24847;-0.307837;0.000695772;0.000543704;-3.26179;-0.30658;178.068;43.068;-0.000269277;0.00117501;-2.49374e-05;-3.57407e-05;0.00036171;-0.00196968;-0.0011196;0;0.0143617;0.0170466
38000;39;25.7504;-0.00303985;-0.000118037;-2.11005;25.6568;-0.596763;-0.00156586;-0.00340776;-0.00989077;-0.00579057;-0.116449;-0.00976516;0.117001;-5.4827;1.48384e-06;-0.000302227;0.000332791;0.000511785;-0.00017751;0.000344648;;;0.00041327;0.000459531;2.88313;0.346845;133.053;178.053;-0.000380418;1.45747e-06;-0.000224851;-0.000379577;0.000332812;0.00273521;-0.000647877;0;0.0215872;-0.00670641;-0.117498;-0.017582;0.118996;-6.10723;0.000837831;0.000223639;-3.34297e-05;0.000891883;-8.74813e-05;0.000489682;25.0625;0.0399003;0.00062579;0.000652909;10.1951;0.0980861;30.97;75.97;7.65734e-05;0.000837855;0.000502835;-5.57992e-05;-3.35311e-05;-0.00174703;-0.00131227;0;0.0134567;0.0170926
39000;40;25.7486;-0.00480239;-0.000186476;-2.10962;25.6549;-0.604421;-0.00113951;-0.00532095;-0.0175492;-0.00512231;-0.115646;-0.0108177;0.116264;-5.48375;-0.000220392;-0.000719875;-0.000776122;0.000273384;-0.0012699;0.000771641;-0.283966;-3.52155;0.000950917;0.00102885;0.21528;4.64511;59.8529;104.853;-0.000372273;-0.000220341;-0.000795168;-0.000644541;-0.000776179;0.00154597;0.00202868;0;0.030459;-0.00545418;-0.116446;-0.0186211;0.118052;-6.10827;0.000780861;-4.43949e-05;0.000256085;0.00078459;0.000252356;0.000266117;-3.04923;-0.327952;0.00046249;0.000354823;-3.10907;-0.32164;7.42713;52.4271;0.000299034;0.000780822;0.000191496;-0.000280409;0.000256067;-0.0016722;0.000745332;0;0.0238834;0.0171511
40000;41;25.751;-0.00237099;-9.20652e-05;-2.10991;25.6576;-0.593479;-0.00143516;-0.00264955;-0.00660675;-0.00546508;-0.114145;-0.00951875;0.114671;-5.48245;-0.000211161;-0.000601577;0.000350516;0.000733578;-0.000594223;0.000663901;0.602429;1.65995;0.000768013;0.000885201;1.23452;0.810034;158.485;23.4849;-0.000686702;-0.000211313;-0.000387053;-0.000815979;0.000350622;0.00189487;0.00256469;0;0.0199487;-0.0063291;-0.115298;-0.0151558;0.116462;-6.1048;0.000712216;0.000101976;0.000360705;0.000739658;0.000333263;0.000203198;-1.97451;-0.506454;0.000427737;0.00027093;-2.21944;-0.450563;35.042;80.042;0.000295349;0.000712161;0.000551746;-0.000347951;0.000360558;-0.000957178;0.00217467;0;0.0146091;0.017048
41000;42;25.7493;-0.00405604;-0.000157495;-2.10913;25.6558;-0.600757;-0.00065444;-0.00444595;-0.0138856;-0.00506866;-0.113926;-0.0102994;0.114503;-5.48323;7.84821e-05;-0.000315627;-0.000450248;0.000225832;-0.000597598;0.000411715;0.174308;5.73696;0.000491293;0.000548953;0.377899;2.64621;79.1938;124.194;-0.000313982;7.85088e-05;-0.000416246;-0.000214954;-0.000450285;0.00352886;0.00311149;0;0.0236231;-0.00604839;-0.114642;-0.0164552;0.115975;-6.1061;0.000769422;0.000116519;0.000119459;0.000789679;9.92023e-05;0.000345238;-6.44086;-0.155259;0.000496698;0.000460318;-7.96028;-0.125624;176.785;41.7847;-0.000420968;0.000769372;-0.000101781;0.000334962;0.000119461;-0.00092281;-0.000354134;0;0.0123533;0.0171846
42000;43;25.7494;-0.00401701;-0.00015598;-2.10983;25.6558;-0.599579;-0.00134711;-0.00443617;-0.0127076;-0.00532774;-0.111731;-0.0109901;0.112396;-5.48393;-0.000310889;-0.000492423;-0.000102125;0.000296858;-0.000709872;0.000503365;-3.0442;-0.328494;0.000597318;0.000671154;0.418185;2.39128;31.8161;76.8161;-0.000629388;-0.000310916;-0.000439409;-0.000545427;-0.0001021;0.00184526;0.00195802;0;0.0189317;-0.00696063;-0.112104;-0.0171113;0.113616;-6.10676;0.000573548;-0.000151185;0.000429254;0.000668919;0.000333884;0.000167518;-1.33615;-0.748418;0.000386201;0.000223357;-2.00345;-0.499139;159.321;24.321;-0.000337564;0.000573493;6.31044e-05;-0.000365505;0.000429263;-0.000450351;-0.000848083;0;0.0112678;0.0171345
43000;44;25.7487;-0.00472024;-0.000183286;-2.11133;25.655;-0.59857;-0.00285559;-0.00524249;-0.0116977;-0.0062887;-0.109517;-0.0115764;0.110307;-5.48451;4.32439e-05;-0.000207205;-7.86377e-05;0.000198284;-0.000233678;0.000215981;0.549914;1.81847;0.000249672;0.000287974;0.848536;1.1785;10.3619;55.3619;-0.000479581;4.31685e-05;2.58868e-05;-0.000440325;-7.86165e-05;-0.00159341;0.000142391;0;0.0186361;-0.00795615;-0.110012;-0.0167215;0.11156;-6.10637;0.000521768;1.38838e-05;0.000216704;0.000522399;0.000216073;0.000153163;-2.40775;-0.415326;0.000303104;0.000204217;-2.41769;-0.413618;15.4396;60.4396;0.000106892;0.000521755;0.000191458;-0.000163745;0.000216686;-0.0033193;0.00128176;0;0.0144636;0.0171312
44000;45;25.7489;-0.0044945;-0.000174521;-2.11137;25.6552;-0.599818;-0.00289106;-0.005048;-0.0129462;-0.00783715;-0.108027;-0.0115952;0.10893;-5.48453;2.24415e-05;-0.000218161;0.000454852;0.000545793;-6.84994e-05;0.000307146;-0.049338;-20.2683;0.000388713;0.000409529;7.96785;0.125504;141.096;6.0963;-0.000181436;2.22943e-05;0.000148678;-0.000584841;0.000454865;-0.000122571;0.00234213;0;0.0210385;-0.0103294;-0.108719;-0.0158095;0.110347;-6.10545;0.000602688;0.000112839;0.000127975;0.000628145;0.000102518;0.000262813;-4.70943;-0.21234;0.000389118;0.000350418;-6.12715;-0.163208;172.627;37.6271;-4.87955e-05;0.000602606;-0.000195666;0.00042149;0.000127962;-0.00279615;-0.00520563;0;0.014016;0.0171729
45000;46;25.7492;-0.00422977;-0.000164241;-2.11107;25.6556;-0.595606;-0.00259271;-0.00465961;-0.00873369;-0.00880427;-0.106492;-0.0120494;0.107533;-5.48498;-9.76388e-05;-0.000189883;-0.000208323;4.48027e-05;-0.000350764;0.000197784;-0.46869;-2.13361;0.000250118;0.000263711;0.127729;7.82909;29.0013;74.0013;-0.00099997;-9.7686e-05;-1.85568e-05;-0.000361228;-0.000208305;0.000857409;0.00318825;0;0.0169817;-0.0110637;-0.106661;-0.0172579;0.108614;-6.1069;0.000601308;0.000308403;-5.76583e-05;0.000723125;-0.000179475;0.0004513;10.4288;0.0958881;0.000551726;0.000601733;4.02912;0.248193;22.1736;67.1736;-0.000629523;0.00060131;0.000314286;0.000302515;-5.76602e-05;-0.00232168;-0.0028109;0;0.0108048;0.0171535
46000;47;25.7468;-0.00656792;-0.000255031;-2.11238;25.6528;-0.60843;-0.00390493;-0.00741526;-0.0215578;-0.0111256;-0.105308;-0.0127222;0.106656;-5.48566;-0.000297715;-0.000412889;0.000345414;0.000547186;-0.000499487;0.000523336;0.861909;1.16022;0.000604506;0.000697782;1.0955;0.912829;159.395;24.3951;-0.000890805;-0.000297973;2.65738e-06;-0.000828168;0.000345499;0.000583953;0.00262123;0;0.0202581;-0.0137629;-0.104968;-0.0189533;0.10755;-6.1086;0.000549379;0.000286992;0.000192747;0.00070894;3.31859e-05;0.000337877;-2.85026;-0.350846;0.000461962;0.000450503;-21.3627;-0.0468106;53.5952;98.5952;-0.00035476;0.00054941;0.000714704;-0.000140872;0.000192533;-0.00369787;-0.00131144;0;0.0134387;0.0171151
47000;48;25.7469;-0.00646088;-0.000250875;-2.11258;25.653;-0.605338;-0.00410136;-0.00725087;-0.0184662;-0.0127611;-0.103695;-0.0134424;0.105339;-5.48638;7.37085e-05;-0.000467842;3.80064e-05;0.000524039;-0.000412325;0.000468182;-1.93937;-0.515631;0.000541891;0.000624243;1.27094;0.78682;177.222;42.222;-0.000299675;7.34313e-05;-5.62929e-05;-0.000879405;3.81142e-05;-0.00135474;0.00211664;0;0.0174887;-0.0155469;-0.103592;-0.0187477;0.106417;-6.10839;0.000428399;0.000261944;0.000298804;0.000633441;9.37617e-05;0.00026984;-1.43371;-0.697489;0.000394769;0.000359786;-6.75586;-0.14802;57.9208;102.921;-0.000528356;0.000428433;0.000564327;-4.04778e-05;0.000298679;-0.00317236;-0.004349;0;0.0118655;0.0171771
48000;49;25.7494;-0.00395709;-0.000153653;-2.11212;25.6556;-0.600602;-0.00363957;-0.00458858;-0.0137306;-0.0141863;-0.105661;-0.0115684;0.107235;-5.4845;-0.000350404;-0.000529434;-0.000144969;0.00029162;-0.000786992;0.000539306;-2.4171;-0.413718;0.000644257;0.000719075;0.370549;2.6987;7.19013;52.1901;-0.00186243;-0.000350817;-7.2308e-06;-0.00105153;-0.000144828;0.00155237;0.00338964;0;0.018818;-0.0171071;-0.105172;-0.0187196;0.108186;-6.10836;0.000257936;0.00024119;0.000157664;0.000454146;-3.85458e-05;0.000246346;-1.63599;-0.611252;0.000316396;0.000328461;11.782;0.0848753;71.1424;116.142;-0.000341311;0.000257948;0.000668019;-0.000185681;0.00015747;-0.00181237;-0.00323649;0;0.0153606;0.0170967
49000;50;25.7492;-0.0042312;-0.000164297;-2.11111;25.6554;-0.602741;-0.0026328;-0.00483098;-0.0158687;-0.0144025;-0.110645;-0.00902867;0.111943;-5.48196;-0.000232973;-0.000754386;0.000608659;0.00105166;-0.000675976;0.00086382;0.382764;2.61257;0.00100528;0.00115176;1.55577;0.642769;155.465;20.4649;-0.00105436;-0.000233499;-0.00023525;-0.00127309;0.000608916;0.00168871;0.00427967;0;0.0178236;-0.0171315;-0.110733;-0.0170476;0.113339;-6.10669;0.00018214;0.000190312;0.000361825;0.000482435;6.15305e-05;0.000210452;-0.503394;-1.98652;0.000303202;0.000280603;-7.84059;-0.127541;43.687;88.687;0.00156359;0.000182103;4.6264e-05;0.000334333;0.000361842;-0.00780616;0.00339771;0;0.0130473;0.017118
50000;51;25.7487;-0.00467832;-0.000181658;-2.11168;25.6548;-0.60606;-0.0031974;-0.0054044;-0.0191879;-0.0140025;-0.112302;-0.00469827;0.113269;-5.47763;-1.09568e-07;-0.000283374;-0.000248692;0.000185033;-0.000433835;0.000309434;;;0.000366802;0.000412579;0.426505;2.34464;19.3927;64.3927;-0.00146472;-3.46146e-07;0.000177084;-0.000743947;-0.000248668;0.00411855;0.000282971;0;0.0210618;-0.0170661;-0.112464;-0.0135063;0.114551;-6.10315;0.000396479;0.000359968;0.000214734;0.000676868;-6.56547e-05;0.000371261;-1.84637;-0.541603;0.000474646;0.000495015;10.3095;0.0969978;18.9324;63.9324;0.000579956;0.000396365;0.000121411;0.000598569;0.000214792;-0.00506089;-0.000605855;0;0.0122922;0.0170991
51000;52;25.7504;-0.00295301;-0.000114665;-2.11042;25.6567;-0.604378;-0.00194189;-0.00352979;-0.0175058;-0.014853;-0.113573;-0.00786138;0.114809;-5.4808;9.28221e-05;-0.000176529;0.000283085;0.000388484;-1.25774e-05;0.000200531;-0.327895;-3.04976;0.000263282;0.000267374;30.8876;0.0323755;152.504;17.5041;-0.00204817;9.2686e-05;0.000197881;-0.000550869;0.000283081;0.00242867;0.00280966;0;0.021148;-0.0176123;-0.114329;-0.0156785;0.116736;-6.10532;0.000155994;0.00041746;0.000410939;0.000719955;-0.000153022;0.000436489;-0.379603;-2.63433;0.000538277;0.000581985;4.7049;0.212544;29.6402;74.6402;0.00108025;0.000155815;0.000105755;0.000729086;0.000411021;-0.00577276;0.00080177;0;0.014018;0.0170943
52000;53;25.7494;-0.00400094;-0.000155356;-2.11153;25.6555;-0.606851;-0.00304742;-0.00473089;-0.0199792;-0.0144774;-0.115392;-0.00809084;0.116578;-5.48103;2.96947e-05;-0.000732412;0.000661037;0.00114291;-0.000452177;0.000797543;-0.0449214;-22.2611;0.00094927;0.00106339;2.52757;0.395637;146.818;11.8175;-0.00157019;2.93555e-05;-0.000362366;-0.00110222;0.000661239;0.00317502;0.00314152;0;0.0197881;-0.0176117;-0.115649;-0.0177899;0.118327;-6.10743;0.00012946;0.000335629;0.000293032;0.000556696;-0.000134204;0.00034545;-0.441795;-2.26349;0.000423022;0.0004606;4.14815;0.241071;28.1187;73.1187;0.0011407;0.000129357;0.000105341;0.000565879;0.000293083;-0.00608201;0.0028771;0;0.0147997;0.0170977
53000;54;25.7489;-0.00454821;-0.000176606;-2.11211;25.6549;-0.604906;-0.00363536;-0.00528263;-0.018034;-0.0153589;-0.116978;-0.00666884;0.11817;-5.4796;-0.000342945;-0.000527046;9.80538e-05;0.000448866;-0.000693758;0.000571312;3.49752;0.285917;0.000664726;0.000761749;0.647007;1.54558;176.706;41.7065;-0.00205139;-0.000343258;-0.000103531;-0.000950374;9.81873e-05;0.0061076;0.00506811;0;0.0209129;-0.0182011;-0.117554;-0.0158178;0.120002;-6.10546;0.000394928;0.000367538;0.000660895;0.000918768;0.000137055;0.000390857;-0.597566;-1.67346;0.000572324;0.000521142;-6.70366;-0.149172;54.3707;99.3707;-2.67579e-06;0.000394924;0.000356936;0.000378138;0.000660899;-0.00246848;0.00172795;0;0.012126;0.0171341
54000;55;25.7481;-0.0052913;-0.00020546;-2.11135;25.6543;-0.604234;-0.00287068;-0.00594965;-0.0173616;-0.0160041;-0.119086;-0.00494432;0.120259;-5.47788;-0.000159312;-0.000441922;0.000921005;0.00107875;-0.000317055;0.000697901;0.172976;5.78114;0.000844918;0.000930535;3.4024;0.29391;131.751;176.751;-0.00019892;-0.000159544;-7.0966e-05;-0.000812477;0.0009211;0.00173854;0.00170698;0;0.0252079;-0.0187725;-0.11813;-0.0137231;0.120397;-6.10337;0.000278057;0.00034594;0.000469477;0.000732703;1.48315e-05;0.000358936;-0.59227;-1.68842;0.000483601;0.000478581;-49.4017;-0.0202422;32.6961;77.6961;0.000397321;0.000277899;3.13121e-05;0.000660508;0.000469536;-0.0028889;-7.54527e-05;0;0.0303458;0.0170798
55000;56;25.7481;-0.00527548;-0.000204846;-2.11152;25.6542;-0.60949;-0.00303689;-0.00607178;-0.022618;-0.0169428;-0.118291;-0.00436489;0.119577;-5.4773;6.45287e-06;-0.000797245;0.00152169;0.00186389;-0.00033574;0.00109981;;;0.0013683;0.00146642;5.55158;0.180129;133.402;178.402;-0.00125963;5.72459e-06;-0.000147076;-0.00144643;0.001522;0.0021688;0.00135726;0;0.0238555;-0.0195938;-0.118477;-0.0145465;0.120964;-6.10419;0.000361886;0.000192004;0.000379031;0.000562654;0.000178263;0.000192196;-0.954768;-1.04738;0.000332035;0.000256261;-3.15632;-0.316825;28.9889;73.9889;0.00107359;0.000361805;-6.34721e-05;0.000447476;0.000379047;-0.00606778;0.00322017;0;0.0137568;0.0171508
56000;57;25.7496;-0.00383567;-0.000148938;-2.11138;25.6557;-0.604839;-0.00289859;-0.00450524;-0.0179667;-0.0169626;-0.118297;-0.00884787;0.119834;-5.48178;-0.000132127;-0.00133301;0.000362663;0.00147104;-0.0012405;0.00135577;0.364323;2.74482;0.0015674;0.0018077;1.18584;0.843283;170.253;35.2528;-0.00125895;-0.000133368;-0.000601672;-0.00206399;0.00036337;0.00567255;0.00351422;0;0.0216456;-0.0195095;-0.11862;-0.019349;0.121761;-6.10899;0.000206182;0.000403851;0.000599866;0.000852293;-4.6245e-05;0.000449269;-0.343714;-2.90939;0.000584221;0.000599025;18.43;0.0542595;55.4405;100.44;0.000894951;0.000206167;0.000367832;0.000439857;0.000599879;-0.00535576;0.00241803;0;0.0115866;0.0171076
57000;58;25.7485;-0.00492085;-0.000191076;-2.11103;25.6546;-0.609042;-0.00255188;-0.00566532;-0.0221702;-0.0175814;-0.119203;-0.00725478;0.120711;-5.48019;0.000139484;-0.000779861;0.000292974;0.000999858;-0.000567399;0.000783628;-0.476097;-2.10041;0.000916267;0.00104484;1.76218;0.56748;165.087;30.0868;-0.00168937;0.000138993;-0.000298467;-0.00126118;0.000293234;0.00588472;0.00421578;0;0.0221093;-0.0203478;-0.119174;-0.0190464;0.12239;-6.10869;0.000437794;0.000137389;0.000551058;0.000643029;0.000345823;0.000148603;-0.794462;-1.25871;0.000371606;0.000198137;-1.85942;-0.537803;46.9854;91.9854;0.000811903;0.000437758;-2.74739e-05;0.000302233;0.000551067;-0.00452866;0.00143488;0;0.0155141;0.0171417
58000;59;25.7482;-0.00523949;-0.000203449;-2.11028;25.6543;-0.609537;-0.00180354;-0.00593531;-0.0226651;-0.0182942;-0.118059;-0.0092456;0.119825;-5.48218;-0.000215663;-0.000867285;0.000559882;0.00112214;-0.000777917;0.000950027;0.385194;2.5961;0.00110298;0.0012667;1.44249;0.693247;160.13;25.1298;-0.00145394;-0.000216385;-0.000251932;-0.00148216;0.000560226;0.00333025;0.00331009;0;0.0254872;-0.0211162;-0.118551;-0.0208648;0.122211;-6.11051;0.000278646;0.000227474;0.000578118;0.000700715;0.00015605;0.000272333;-0.481989;-2.07474;0.000424791;0.00036311;-4.49033;-0.222701;62.3025;107.303;0.00101983;0.000278649;0.000236826;0.000218124;0.000578116;-0.00260325;0.00143097;0;0.0136007;0.0171073
59000;60;25.7481;-0.00533658;-0.000207219;-2.11197;25.654;-0.611887;-0.00349216;-0.00622765;-0.025015;-0.0191516;-0.119487;-0.00773135;0.121259;-5.48067;-5.29694e-05;-0.00113774;-3.18888e-05;0.00109536;-0.00118022;0.00113779;-1.66107;-0.602022;0.00131411;0.00151706;0.9281;1.07747;1.50333;46.5033;-0.000904438;-5.3979e-05;-0.000455184;-0.00182029;-3.13451e-05;0.00356287;0.00259708;0;0.0233604;-0.0219379;-0.119492;-0.0189335;0.122956;-6.10858;0.000490394;0.000209166;0.00071956;0.000843472;0.000366483;0.000238494;-0.681519;-1.46731;0.00048837;0.000317993;-2.30153;-0.434493;44.8456;89.8456;0.00151707;0.000490268;-0.000126771;0.000545026;0.000719574;-0.00593314;0.00113546;0;0.0138698;0.0171521
60000;61;25.7497;-0.00371527;-0.000144263;-2.11175;25.6557;-0.611606;-0.00327239;-0.00457561;-0.0247342;-0.0197697;-0.120076;-0.010817;0.122172;-5.48375;-0.000202902;-0.00113343;0.000536611;0.00135907;-0.00102536;0.00119222;0.378117;2.64469;0.00138114;0.00158962;1.32545;0.754458;164.707;29.7067;-0.00124346;-0.000204038;-0.000380283;-0.00188602;0.000537181;0.00333343;0.00232654;0;0.0259167;-0.0226869;-0.120051;-0.022166;0.124171;-6.11181;0.000247328;0.000199616;0.00090329;0.000959259;0.000191359;0.00038395;-0.273809;-3.65219;0.000586225;0.000511934;-5.01289;-0.199486;81.7197;126.72;0.00112371;0.000247347;0.000351384;4.79484e-05;0.000903248;-0.00508474;0.000766134;0;0.0159701;0.0170976
61000;62;25.7493;-0.00407152;-0.000158096;-2.1113;25.6555;-0.603311;-0.00282288;-0.00469976;-0.0164389;-0.0206532;-0.118924;-0.0141043;0.121525;-5.48704;3.36391e-05;-0.000686559;0.000168401;0.000790878;-0.000588838;0.000689858;-0.199756;-5.0061;0.000799421;0.000919811;1.34312;0.744537;172.817;37.8167;-0.0009327;3.29724e-05;-2.95738e-05;-0.00134346;0.000168636;-0.000399838;0.00246644;0;0.0245301;-0.0236944;-0.120072;-0.0228025;0.124493;-6.11245;0.000425681;3.345e-05;0.000681781;0.000686078;0.000421384;0.000132347;-0.624366;-1.60162;0.000399536;0.000176463;-1.62815;-0.614193;74.3203;119.32;0.000879483;0.000425662;-0.000133;0.000199858;0.000681773;-0.00551425;0.00135294;0;0.0140241;0.017114
62000;63;25.7482;-0.00519557;-0.000201743;-2.11126;25.6542;-0.611668;-0.00277657;-0.006022;-0.0247959;-0.0205754;-0.120258;-0.0105056;0.122457;-5.48344;-8.53591e-05;-0.000732338;0.000430617;0.000949081;-0.000603822;0.000776452;0.198225;5.04477;0.000903925;0.00103527;1.57179;0.636218;160.257;25.2569;-0.000689037;-8.58168e-05;-0.000259581;-0.00120485;0.000430852;0.00142254;0.00279335;0;0.0238732;-0.0235884;-0.120247;-0.0230152;0.124682;-6.11266;0.000511035;0.000151433;0.000750058;0.000823458;0.000437635;0.000192912;-0.681328;-1.46772;0.000475738;0.000257216;-1.88161;-0.53146;62.7658;107.766;0.000770672;0.00051103;0.000121135;0.000181724;0.000750062;-0.00400614;0.00154516;0;0.0130399;0.0171186
63000;64;25.7481;-0.0052948;-0.000205596;-2.11228;25.6541;-0.610247;-0.00379991;-0.006172;-0.0233754;-0.0221648;-0.120682;-0.012735;0.12336;-5.48567;6.30915e-05;-0.000780551;0.00124313;0.00163157;-0.000325348;0.000978461;-0.050752;-19.7037;0.00121082;0.00130461;5.01486;0.199408;138.014;3.01395;-5.51871e-05;6.2427e-05;-0.000168152;-0.00139223;0.00124342;-5.89332e-06;0.00140426;0;0.0222927;-0.0247118;-0.120974;-0.023952;0.125774;-6.1136;0.000655181;0.000164095;0.000835754;0.000932761;0.000558174;0.000187294;-0.78394;-1.27561;0.000541996;0.000249725;-1.6711;-0.59841;66.1187;111.119;0.000430663;0.000655194;0.000342084;-1.38606e-05;0.000835709;-0.00264244;0.000127915;0;0.0131266;0.0171495
64000;65;25.7491;-0.00432248;-0.000167841;-2.11004;25.6553;-0.607775;-0.00156544;-0.00495356;-0.0209034;-0.022833;-0.120201;-0.0149172;0.123257;-5.48785;3.52606e-05;-0.000754053;0.000285726;0.000924875;-0.000603888;0.000764381;-0.123407;-8.10327;0.000889093;0.00101918;1.53153;0.65294;167.011;32.0112;0.000125463;3.47068e-05;-0.000213252;-0.00129472;0.000285988;-0.000108944;0.00239873;0;0.0228848;-0.0250497;-0.121064;-0.0255143;0.126233;-6.11516;0.000308356;0.000162286;0.000918753;0.000959218;0.000267892;0.000345663;-0.335625;-2.97952;0.000571508;0.000460884;-3.58062;-0.279281;85.4967;130.497;0.000320639;0.000308368;0.000373689;-4.89876e-05;0.000918697;-0.00409947;0.00274337;0;0.0146512;0.0171767
65000;66;25.7507;-0.00271856;-0.000105561;-2.1112;25.6569;-0.60514;-0.00271603;-0.00337614;-0.018268;-0.0230516;-0.120466;-0.0138025;0.123426;-5.48674;0.000107504;-0.000880515;-0.000163075;0.000863062;-0.000918633;0.000890848;0.65923;1.51692;0.00102883;0.0011878;0.939507;1.06439;6.1669;51.1669;-0.000442853;0.00010702;-0.000440329;-0.00132082;-0.000162785;0.00188452;0.00176225;0;0.0220015;-0.0255342;-0.121043;-0.0248677;0.126182;-6.11451;0.000446093;0.000244463;0.000936811;0.00103781;0.000345095;0.000346357;-0.476183;-2.10003;0.00061028;0.000461809;-3.00731;-0.332523;83.6685;128.668;0.000967972;0.000446105;0.000680904;-0.000191765;0.000936609;-0.00530817;0.000435812;0;0.0149489;0.0171219
66000;67;25.7483;-0.00509717;-0.000197922;-2.10985;25.6544;-0.612356;-0.00137431;-0.0058243;-0.0254845;-0.0232154;-0.120548;-0.0144292;0.123608;-5.48736;-7.82936e-06;-0.000977752;0.000562417;0.00129577;-0.000741183;0.00101848;;;0.00119048;0.00135797;1.74825;0.572002;161.849;26.8485;-0.000837395;-8.86258e-06;-0.000216559;-0.00173851;0.000562871;0.00165303;0.00390553;0;0.024221;-0.0255477;-0.121132;-0.025695;0.126435;-6.11534;0.000388858;0.000276405;0.00115023;0.00123999;0.000299096;0.000470448;-0.33807;-2.95797;0.000747191;0.000627264;-4.1458;-0.241208;81.1008;126.101;-8.05931e-05;0.000388896;0.000529478;2.35231e-05;0.00115013;-0.00372866;-2.55579e-05;0;0.0147998;0.0171361
67000;68;25.7496;-0.00378701;-0.000147049;-2.11077;25.6557;-0.60805;-0.00228582;-0.00448191;-0.0211783;-0.0227779;-0.121028;-0.0125958;0.123795;-5.48553;0.000203519;-0.00117167;0.000131989;0.00133997;-0.00100447;0.00117222;-1.54193;-0.648536;0.00135818;0.00156296;1.33402;0.749616;173.948;38.9484;-0.00125655;0.000202489;-0.000490319;-0.00185308;0.000132556;0.00152022;0.00301323;0;0.0292674;-0.0251274;-0.12153;-0.0235333;0.126313;-6.11318;0.000444227;0.000127644;0.000641562;0.000704227;0.000381561;0.000161333;-0.692415;-1.44422;0.000407059;0.00021511;-1.84565;-0.541816;69.2467;114.247;0.00138349;0.000444235;0.000231176;2.41331e-05;0.000641543;-0.00586244;-0.000804703;0;0.0151013;0.0170866
68000;69;25.751;-0.00240865;-9.35275e-05;-2.1112;25.6572;-0.603031;-0.00272142;-0.00301589;-0.0161592;-0.0231676;-0.119322;-0.0158094;0.122574;-5.48874;3.70521e-05;-0.000958923;0.000265722;0.0011171;-0.000814328;0.000965715;-0.13944;-7.17157;0.00111967;0.00128762;1.37181;0.728965;170.626;35.6262;-0.000992964;3.61082e-05;-0.000242113;-0.00167557;0.000266152;0.0016299;0.0015449;0;0.0286026;-0.0254457;-0.120357;-0.0268215;0.125907;-6.11647;0.000458292;0.00028627;0.000998024;0.00112158;0.000334739;0.000393419;-0.459199;-2.1777;0.000664847;0.000524559;-3.3506;-0.298454;63.6739;108.674;0.000923247;0.000458267;0.000210141;0.000362359;0.000998043;-0.00450972;0.000732166;0;0.0155354;0.0171503
69000;70;25.7501;-0.00326672;-0.000126846;-2.11125;25.6563;-0.605402;-0.00277009;-0.00393694;-0.0185304;-0.0226895;-0.117865;-0.0175393;0.121304;-5.49047;-0.000303559;-0.000672654;0.000950111;0.00124272;-0.000596172;0.000919448;0.319498;3.12991;0.00108334;0.00122593;2.08451;0.47973;144.505;9.50495;-0.000447217;-0.000304153;-6.39771e-05;-0.00128057;0.000950335;0.000141074;0.00194765;0;0.0353031;-0.0251259;-0.118923;-0.0273329;0.124583;-6.11698;0.000464232;0.000189509;0.000837319;0.000916693;0.000384858;0.000265917;-0.554427;-1.80366;0.000531516;0.000354556;-2.3819;-0.419833;75.6657;120.666;0.00119789;0.00046425;0.000385953;-6.86193e-06;0.000837262;-0.00400687;-0.0001717;0;0.0229501;0.0171169
70000;71;25.7481;-0.00528952;-0.000205391;-2.10996;25.6542;-0.612724;-0.00148176;-0.00603496;-0.0258518;-0.0235434;-0.119981;-0.0174259;0.123505;-5.49036;-7.50456e-05;-0.00113553;0.000236061;0.00122664;-0.00106563;0.00114613;0.317908;3.14557;0.00132453;0.00152818;1.1511;0.868735;172.364;37.3641;0.000138791;-7.59336e-05;-0.000520069;-0.0017508;0.00023657;0.000669169;0.00424916;0;0.0247508;-0.0257199;-0.120497;-0.029052;0.12659;-6.1187;0.000564316;0.000206266;0.000977767;0.00106307;0.000479012;0.00029203;-0.577147;-1.73266;0.000614762;0.000389373;-2.2193;-0.450592;69.4136;114.414;0.000777941;0.000564325;0.000257035;0.000155519;0.000977755;-0.00439018;0.00142665;0;0.0152127;0.0170972
71000;72;25.7491;-0.00427609;-0.00016604;-2.1094;25.6553;-0.612207;-0.000919162;-0.00495924;-0.0253354;-0.0231554;-0.11973;-0.0166491;0.12308;-5.48958;0.000131801;-0.00112493;0.000179784;0.00128098;-0.000969394;0.00112519;-0.733108;-1.36406;0.0013034;0.00150025;1.32142;0.75676;173.879;38.8785;-0.000991483;0.000130578;-0.000323233;-0.00192659;0.000180364;0.00102236;0.00217241;0;0.0252715;-0.0250524;-0.12023;-0.0283391;0.12604;-6.11798;0.000524763;0.000172833;0.000759493;0.000851044;0.000433212;0.000208916;-0.690938;-1.44731;0.000491377;0.000278555;-1.9645;-0.509036;63.0176;108.018;0.00118275;0.000524766;0.000193659;0.000152012;0.000759489;-0.00486767;0.00147973;0;0.0148471;0.0171668
72000;73;25.7495;-0.00386702;-0.000150156;-2.10967;25.6558;-0.605377;-0.00118919;-0.0044088;-0.0185055;-0.0243311;-0.123363;-0.00796401;0.125992;-5.4809;0.000245984;-0.000871477;0.000879258;0.00148984;-0.000364596;0.000927217;-0.279763;-3.57445;0.00113446;0.00123629;4.08627;0.244722;150.923;15.9232;-0.00144084;0.000245104;-0.000155193;-0.00158731;0.000879626;0.00196387;0.000267193;0;0.0227262;-0.0256867;-0.123272;-0.0197161;0.127454;-6.10936;0.000494349;0.000204206;0.000995919;0.00106854;0.000421725;0.000323409;-0.496375;-2.01461;0.000621469;0.000431212;-2.53374;-0.394673;82.5713;127.571;0.000416355;0.000494361;0.000540966;-0.000132385;0.000995793;-0.00350195;0.000658106;0;0.0137153;0.01709
73000;74;25.7487;-0.00474276;-0.00018416;-2.10891;25.6549;-0.608414;-0.000428445;-0.00529702;-0.021542;-0.0240423;-0.120586;-0.0116002;0.123505;-5.48454;0.000103924;-0.000854349;0.00103824;0.00154481;-0.000402647;0.00097373;-0.100096;-9.99036;0.00118708;0.00129831;3.83664;0.260645;144.453;9.45256;-0.000798172;0.000103195;-0.000228619;-0.00147949;0.00103858;0.00148573;0.000791081;0;0.0229016;-0.02552;-0.120962;-0.0230013;0.125747;-6.11265;0.000419072;0.000159354;0.000883104;0.000932557;0.000369618;0.000281469;-0.474544;-2.10728;0.000542255;0.000375292;-2.52303;-0.396349;69.3633;114.363;0.00129963;0.000419057;8.17489e-05;0.000236923;0.000883113;-0.00441032;0.000274549;0;0.013292;0.0171274
74000;75;25.75;-0.00337294;-0.000130971;-2.10896;25.6564;-0.602864;-0.000482218;-0.00379561;-0.015992;-0.0233821;-0.122163;-0.0115452;0.124915;-5.48448;0.000169407;-0.00105024;-8.87791e-05;0.00109845;-0.00101783;0.00105814;1.90818;0.524058;0.00122213;0.00141085;1.07922;0.926599;1.19853;46.1985;-0.00183603;0.000168754;-0.000548809;-0.00155179;-8.83782e-05;0.00422887;0.00366283;0;0.0269232;-0.0245225;-0.123161;-0.0204902;0.127239;-6.11014;0.000347578;0.000276629;0.0008287;0.000954735;0.000221542;0.000366597;-0.419425;-2.38421;0.000576998;0.000488795;-4.30949;-0.232046;72.498;117.498;0.00103748;0.000347608;0.00042323;0.000130098;0.000828649;-0.00384981;0.00131395;0;0.0138598;0.0171882
75000;76;25.747;-0.0063827;-0.000247839;-2.10822;25.6534;-0.606754;0.000261286;-0.00684695;-0.0198821;-0.0257863;-0.124486;-0.00528581;0.127239;-5.47822;0.000215334;-0.00106205;-2.27235e-05;0.001165;-0.000972393;0.0010687;9.47629;0.105527;0.0012357;0.00142493;1.19808;0.834669;177.482;42.4816;-0.000475315;0.000214714;-0.000585229;-0.00153898;-2.23308e-05;0.000490657;0.00250413;0;0.0246913;-0.0261189;-0.123402;-0.0173995;0.12733;-6.10704;0.00042509;0.000173488;0.000781071;0.000851634;0.000354527;0.000248553;-0.54424;-1.83742;0.000493983;0.000331404;-2.40217;-0.416291;66.5153;111.515;0.00136097;0.000425085;0.00014499;0.000201976;0.000781076;-0.00548138;0.000352808;0;0.0140183;0.017146
76000;77;25.7481;-0.00534259;-0.000207452;-2.10923;25.6542;-0.611;-0.000755149;-0.00598737;-0.0241286;-0.0240631;-0.120238;-0.0075813;0.122856;-5.48052;-0.000187677;-0.00130471;0.00106613;0.00188674;-0.00100828;0.00144751;0.176035;5.68068;0.00169689;0.00193001;1.87124;0.534404;150.238;15.2382;-0.00095382;-0.000188746;-0.000649055;-0.00195954;0.00106677;0.00216521;0.000713203;0;0.0242945;-0.0248917;-0.12064;-0.021259;0.125002;-6.1109;0.000293687;0.000266289;0.000928272;0.00102521;0.000196752;0.000414227;-0.316381;-3.16075;0.000628242;0.000552303;-5.21065;-0.191915;68.1026;113.103;0.00134153;0.000293676;0.000225782;0.00030677;0.000928282;-0.00439445;0.000451035;0;0.0146916;0.017157
77000;78;25.7507;-0.00274405;-0.000106551;-2.1092;25.657;-0.606474;-0.000715758;-0.0032687;-0.019602;-0.0238809;-0.118481;-0.0144629;0.121726;-5.4874;-2.28893e-05;-0.000863302;0.000207717;0.000963381;-0.000778554;0.000870967;0.110195;9.07484;0.00100759;0.00116129;1.2374;0.808147;172.223;37.2235;-0.00175031;-2.36825e-05;-0.000199468;-0.00152698;0.00020807;0.00503343;0.00123472;0;0.0256223;-0.0246808;-0.119702;-0.024498;0.124651;-6.11414;0.00043284;0.000131987;0.000766587;0.000812475;0.000386952;0.000212761;-0.564633;-1.77106;0.000469259;0.000283682;-2.09968;-0.476263;60.3909;105.391;0.00116227;0.000432783;-9.69208e-05;0.000360819;0.000766591;-0.00515726;0.000179485;0;0.0147904;0.0171396
78000;79;25.7493;-0.00409856;-0.000159146;-2.10843;25.6556;-0.608682;4.84063e-05;-0.00461765;-0.0218105;-0.0241184;-0.119809;-0.0136566;0.122973;-5.48659;-0.00014547;-0.00112817;0.000484549;0.00134087;-0.00100179;0.00117133;0.300217;3.33092;0.00135725;0.00156177;1.33847;0.74712;165.228;30.228;0.000100754;-0.000146475;-0.000444029;-0.00181189;0.000485086;-0.00118666;0.00315318;0;0.026443;-0.0248045;-0.120838;-0.0239138;0.125654;-6.11356;0.000436286;0.000184951;0.000918277;0.000981067;0.000373495;0.000303786;-0.475114;-2.10476;0.000571768;0.000405048;-2.62672;-0.380703;72.3772;117.377;0.00055353;0.00043629;0.00021169;0.000158225;0.000918271;-0.00415465;0.000498702;0;0.0133926;0.0171909
79000;80;25.7493;-0.00409599;-0.000159047;-2.10834;25.6556;-0.60794;0.000135097;-0.00459034;-0.021068;-0.0241611;-0.118149;-0.0165564;0.121726;-5.48949;8.10625e-05;-0.000668022;0.000116619;0.000767099;-0.000569418;0.000668259;-0.695106;-1.43863;0.000774447;0.000891011;1.34716;0.7423;173.183;38.183;9.19429e-05;8.06481e-05;-0.000206792;-0.00112924;0.000116821;-0.000894657;0.00384979;0;0.0246486;-0.0239506;-0.119335;-0.0272975;0.124739;-6.11694;0.000378016;9.85738e-05;0.000931767;0.000948791;0.000360992;0.000293899;-0.405698;-2.46489;0.000552977;0.000391866;-2.62829;-0.380476;82.9518;127.952;0.000879965;0.00037802;0.000161696;3.54867e-05;0.000931759;-0.00477509;0.00198545;0;0.0151391;0.0171012
80000;81;25.7503;-0.00310313;-0.000120494;-2.10875;25.6567;-0.60478;-0.000266172;-0.00355214;-0.0179078;-0.0243489;-0.118289;-0.0125247;0.121417;-5.48546;-7.67441e-05;-0.00127949;0.000492968;0.00151893;-0.0011027;0.00131082;0.155678;6.42353;0.00151995;0.00174776;1.37746;0.725975;164.509;29.5091;-0.00142767;-7.77393e-05;-0.000654105;-0.00190452;0.000493573;0.00262787;0.00486699;0;0.026906;-0.024185;-0.119593;-0.0216759;0.123924;-6.11132;0.000539638;0.000147063;0.000993428;0.00103692;0.000496146;0.000270387;-0.543207;-1.84092;0.000598851;0.000360516;-2.08995;-0.47848;67.6913;112.691;0.00159316;0.000539602;-1.13901e-05;0.000305445;0.000993439;-0.0042858;0.00111803;0;0.014304;0.0171205
81000;82;25.7504;-0.00299228;-0.00011619;-2.10747;25.6569;-0.603626;0.00100468;-0.00330929;-0.0167538;-0.0243247;-0.11829;-0.0141423;0.12159;-5.48708;-0.000217303;-0.00132009;0.000168235;0.00130955;-0.00135862;0.00133409;1.29166;0.774196;0.00154056;0.00177878;0.963884;1.03747;176.893;41.8927;-0.00150808;-0.000218402;-0.000654833;-0.00198509;0.000168892;0.00318878;0.00521458;0;0.0258521;-0.0242695;-0.118751;-0.0260634;0.123977;-6.11571;0.000410353;0.000277452;0.000732795;0.000892466;0.000250682;0.000320892;-0.559984;-1.78577;0.000531502;0.000427856;-3.56016;-0.280887;46.812;91.812;0.0013318;0.000410233;-8.20012e-06;0.000563012;0.000732833;-0.00441624;-0.000840782;0;0.0131949;0.0171099
82000;83;25.7482;-0.00515491;-0.000200164;-2.10837;25.6545;-0.612013;0.000113202;-0.00575178;-0.0251414;-0.0241912;-0.116907;-0.0163313;0.120496;-5.48927;-0.000216519;-0.000922325;0.000668341;0.00124886;-0.00079704;0.00102295;0.323965;3.08675;0.00119076;0.00136393;1.56687;0.638213;155.115;20.1149;-0.000963274;-0.000217112;-0.000417704;-0.0014265;0.000668679;0.00267138;0.00317222;0;0.0251406;-0.0239786;-0.117969;-0.0275179;0.123486;-6.11716;0.000372543;0.000279447;0.000765718;0.000910799;0.000227462;0.000341669;-0.486527;-2.05538;0.000547366;0.000455558;-4.00418;-0.249739;66.9701;111.97;0.000859661;0.000372564;0.000367768;0.000191162;0.00076569;-0.00326495;0.00137982;0;0.0145739;0.0171422
83000;84;25.749;-0.00441766;-0.000171537;-2.10892;25.6553;-0.604769;-0.000443561;-0.00488581;-0.0178975;-0.0249206;-0.117265;-0.0153;0.120856;-5.48824;-4.97244e-05;-0.000984896;0.000945284;0.0015512;-0.000655638;0.00110342;0.0526026;19.0105;0.00130862;0.00147122;2.36594;0.422666;147.998;12.9981;0.000651648;-5.04797e-05;-0.000394265;-0.00157494;0.000945691;-0.00104963;0.00529405;0;0.0257257;-0.0245752;-0.118548;-0.0247218;0.123567;-6.11437;0.000357451;0.000355526;0.000894644;0.00107163;0.000180466;0.000445581;-0.399545;-2.50284;0.000662508;0.000594108;-5.93812;-0.168403;65.5915;110.591;0.00108044;0.000357466;0.000400576;0.0003105;0.000894627;-0.00538276;-0.000194903;0;0.0156904;0.017145
84000;85;25.7505;-0.00285314;-0.000110787;-2.10738;25.657;-0.605475;0.00109649;-0.00320567;-0.0186027;-0.0247295;-0.116255;-0.0166625;0.120018;-5.4896;6.18871e-05;-0.000895719;0.000519365;0.00121509;-0.000633838;0.000924464;-0.119159;-8.39215;0.00108492;0.00123262;1.91704;0.521638;156.852;21.8521;-0.00129218;6.13613e-05;-0.00042967;-0.00136155;0.000519674;0.00392274;0.00463416;0;0.0241558;-0.0241201;-0.117696;-0.0260094;0.122925;-6.11565;0.000424641;-8.93684e-06;0.000706904;0.000707187;0.000424359;0.000141414;-0.600706;-1.66471;0.000411011;0.000188552;-1.66648;-0.600066;79.187;124.187;0.00133934;0.000424608;-0.000275969;0.00025802;0.000706866;-0.00529213;0.00112975;0;0.0127971;0.0171087
85000;86;25.7499;-0.00350589;-0.000136133;-2.10754;25.6564;-0.605318;0.000942735;-0.00386974;-0.0184463;-0.0254967;-0.115405;-0.01703;0.119408;-5.48997;-7.86057e-05;-0.0014586;0.000246764;0.00155172;-0.00138356;0.00146764;0.318546;3.13927;0.00169561;0.00195685;1.12154;0.891631;172.374;37.3743;-0.00152075;-7.95364e-05;-0.000919831;-0.00199718;0.000247405;0.00395828;0.00545505;0;0.0240986;-0.0246505;-0.116874;-0.0273171;0.12253;-6.11696;0.00034233;0.000369858;0.000675871;0.000914819;0.000103382;0.000405718;-0.506502;-1.97433;0.000578506;0.000540958;-8.84888;-0.113009;49.6008;94.6008;0.00169963;0.00034227;0.00023269;0.00050698;0.000675913;-0.00621829;-0.00257579;0;0.0157924;0.0171502
86000;87;25.7484;-0.00495394;-0.000192361;-2.10732;25.6548;-0.608738;0.00116326;-0.00538587;-0.0218658;-0.0260194;-0.115807;-0.0157458;0.119734;-5.48868;-0.000249253;-0.00107782;0.00044844;0.00123246;-0.00103328;0.00113287;0.555821;1.79914;0.00130981;0.00151049;1.19277;0.838383;166.79;31.7902;-0.00120593;-0.000250197;-0.000408429;-0.00174675;0.000448937;0.00330712;0.00560719;0;0.0258763;-0.0251757;-0.116932;-0.026657;0.122546;-6.1163;0.000471275;0.000293392;0.000754235;0.000938478;0.000287032;0.000325723;-0.624839;-1.60041;0.00055528;0.000434297;-3.26959;-0.305849;49.0706;94.0706;0.00160255;0.000471199;9.88251e-05;0.000487904;0.000754273;-0.00640578;-0.000808764;0;0.0181334;0.0171666
87000;88;25.7501;-0.00328382;-0.00012751;-2.10785;25.6565;-0.605729;0.000626605;-0.00368253;-0.0188575;-0.0262549;-0.114505;-0.0153407;0.118474;-5.48828;-0.000317978;-0.000642134;0.000379501;0.000761484;-0.000699961;0.000730722;0.837885;1.19348;0.000844015;0.000974296;1.08789;0.919206;164.01;29.0097;-0.00150196;-0.000318435;-0.000133138;-0.00115077;0.000379699;0.00445339;0.00392941;0;0.0253023;-0.025179;-0.116333;-0.024201;0.121462;-6.11385;0.0003664;0.0001331;0.000793997;0.000832043;0.000328355;0.000251844;-0.461463;-2.16702;0.000483922;0.000335792;-2.53398;-0.394637;64.3311;109.331;0.0015226;0.000366352;-7.17703e-05;0.000337883;0.000794004;-0.00479755;0.000985828;0;0.016593;0.0171563
88000;89;25.7508;-0.00260592;-0.000101187;-2.10692;25.6573;-0.604309;0.00156298;-0.00289175;-0.0174366;-0.0263573;-0.113812;-0.0169232;0.118043;-5.48986;-0.000207589;-0.00102059;0.000509787;0.00123288;-0.000930686;0.00108179;0.407207;2.45575;0.00125319;0.00144238;1.3247;0.754885;162.485;27.4855;-0.00125287;-0.000208285;-0.00048098;-0.00155981;0.000510192;0.00361884;0.00383917;0;0.0260095;-0.0251974;-0.115594;-0.026552;0.121251;-6.1162;0.000386022;0.000218583;0.000895963;0.000976833;0.000305153;0.00033584;-0.430846;-2.32102;0.000577057;0.000447787;-3.20113;-0.31239;64.0772;109.077;0.00125382;0.000385986;9.1086e-05;0.000346014;0.000895983;-0.00463059;0.00093302;0;0.0137183;0.0171748
89000;90;25.7489;-0.00452332;-0.00017564;-2.10665;25.6554;-0.606644;0.00183233;-0.00484913;-0.0197721;-0.0273291;-0.113528;-0.0166512;0.117952;-5.48959;-0.000419209;-0.00112017;0.000693268;0.0013877;-0.00111364;0.00125067;0.604685;1.65375;0.00144703;0.00166756;1.24609;0.802508;161.571;26.5709;-0.00123342;-0.00042032;-0.00037523;-0.00186427;0.000693825;0.00296687;0.00227388;0;0.0281802;-0.0256995;-0.11503;-0.0266079;0.120832;-6.11625;0.000260854;0.000223638;0.000853059;0.000928024;0.00018589;0.000371067;-0.305787;-3.27025;0.00056697;0.000494756;-4.99234;-0.200307;54.244;99.244;0.00162008;0.000260696;-0.000158799;0.000605849;0.000853072;-0.00502149;0.00140993;0;0.0156661;0.0172123
90000;91;25.7513;-0.00207952;-8.07475e-05;-2.10705;25.6579;-0.602807;0.00143182;-0.00233887;-0.0159347;-0.0284589;-0.111087;-0.0225891;0.116878;-5.49552;-0.000283944;-0.000777678;-0.000180841;0.000546992;-0.00101178;0.000779384;-1.57013;-0.63689;0.000913194;0.00103918;0.540625;1.84971;12.3033;57.3033;-0.00132978;-0.00028437;-0.000348111;-0.0012072;-0.000180599;0.00358896;0.0049204;0;0.0272628;-0.0266109;-0.113488;-0.0316595;0.120789;-6.1213;0.000444811;0.000228617;0.000824816;0.000932079;0.000337548;0.000297265;-0.539286;-1.8543;0.000544911;0.000396354;-2.76132;-0.362146;54.1578;99.1578;0.00162011;0.000444723;-2.05618e-05;0.000477701;0.000824842;-0.00535286;-0.00197179;0;0.0144034;0.0171806
91000;92;25.7503;-0.00306876;-0.00011916;-2.10664;25.6569;-0.604305;0.00183716;-0.00333368;-0.0174332;-0.0287268;-0.112018;-0.0183628;0.117091;-5.4913;-6.44809e-05;-0.00105146;0.000204874;0.00113024;-0.000989849;0.00106005;0.314734;3.17729;0.00122493;0.00141339;1.14183;0.875785;172.629;37.629;-0.000360335;-6.5192e-05;-0.0005129;-0.00158987;0.000205295;0.00169056;0.00373399;0;0.0271072;-0.0267611;-0.113847;-0.0283982;0.120349;-6.11804;0.000349903;0.000316107;0.00100727;0.00113461;0.000222564;0.000456024;-0.347376;-2.87872;0.000694216;0.000608032;-5.09791;-0.196159;58.4895;103.489;0.00213389;0.000349801;8.03662e-05;0.000551694;0.00100732;-0.00573612;-0.00126737;0;0.0166964;0.0171102
92000;93;25.7505;-0.00293851;-0.000114102;-2.10638;25.6572;-0.597075;0.00209644;-0.00301238;-0.0102028;-0.0298419;-0.111202;-0.0219286;0.117206;-5.49486;-0.000285324;-0.000731354;0.000369935;0.000843691;-0.000759081;0.000801386;0.771283;1.29654;0.000925791;0.00106851;1.11146;0.899714;165.216;30.2159;0.000490277;-0.000285749;-0.000285669;-0.00117675;0.000370161;-0.00144698;0.00105176;0;0.0288676;-0.0278878;-0.113072;-0.0296514;0.120176;-6.1193;0.000492236;0.000185801;0.00092053;0.000989898;0.000422868;0.000283515;-0.534732;-1.8701;0.000573535;0.00037802;-2.34092;-0.427183;62.9946;107.995;0.0033448;0.000492193;2.17266e-05;0.000349806;0.000920547;-0.00590424;-0.00103599;0;0.0183926;0.01717
93000;94;25.7501;-0.00334758;-0.000129986;-2.10601;25.6566;-0.605757;0.0024697;-0.00359582;-0.0188848;-0.0314171;-0.110111;-0.0218508;0.116572;-5.49479;-0.000313839;-0.000894038;0.000297787;0.000936869;-0.00095292;0.000944894;1.0539;0.948855;0.00109108;0.00125986;0.983156;1.01713;171.002;36.0022;-0.00139139;-0.000314424;-0.000384504;-0.00140326;0.000298113;0.0049464;0.0048463;0;0.0261423;-0.0290626;-0.11195;-0.0314208;0.119852;-6.12107;0.00066667;8.65796e-05;0.00133513;0.00134616;0.000655638;0.000345263;-0.499328;-2.00269;0.000777295;0.000460351;-2.05321;-0.487041;72.3921;117.392;0.00292913;0.000666565;-0.000292023;0.00046493;0.00133509;-0.00632235;0.00183429;0;0.0167679;0.0171297
94000;95;25.7513;-0.00204956;-7.95842e-05;-2.10637;25.6581;-0.599724;0.00211417;-0.00218053;-0.0128516;-0.032604;-0.108082;-0.0237366;0.115361;-5.49667;-0.000244928;-0.000596205;0.000390013;0.000748004;-0.000602919;0.000675461;0.628;1.59236;0.000781454;0.000900615;1.24064;0.806037;158.018;23.0177;-0.000433329;-0.000245112;-0.000341832;-0.000850416;0.000390133;0.00213096;0.00408254;0;0.0266627;-0.0300269;-0.110867;-0.0315326;0.119111;-6.12118;0.000437737;-3.76794e-05;0.00111013;0.00111223;0.000435632;0.0003383;-0.394313;-2.53606;0.000647151;0.000451066;-2.55314;-0.391674;82.2331;127.233;0.00315338;0.0004377;-0.000349611;0.000274043;0.00111007;-0.00715106;0.000148002;0;0.0176349;0.01717
95000;96;25.7506;-0.00279964;-0.000108709;-2.10615;25.6573;-0.59832;0.00232623;-0.00288317;-0.0114485;-0.0332879;-0.108275;-0.0224213;0.115474;-5.49536;-0.000650382;-0.00100065;-0.00017614;0.000615096;-0.00144162;0.00102836;-3.69241;-0.270826;0.00121899;0.00137114;0.42667;2.34373;14.0432;59.0432;-0.00146255;-0.00065096;-0.000532394;-0.00146868;-0.000175781;0.00599535;0.00426792;0;0.0272421;-0.0306435;-0.110562;-0.0312214;0.118902;-6.12087;0.000488337;0.000163252;0.00111596;0.00115588;0.000448413;0.000353734;-0.437595;-2.28522;0.000672912;0.000471645;-2.57772;-0.38794;64.5347;109.535;0.00310756;0.000488219;-0.000185049;0.000511334;0.00111595;-0.00545272;-0.00187399;0;0.0174426;0.0170966
96000;97;25.7512;-0.00220092;-8.54613e-05;-2.10583;25.658;-0.597223;0.00265248;-0.00222992;-0.0103511;-0.0350677;-0.10742;-0.0197098;0.114705;-5.49265;-0.000349449;-0.000693898;-0.000219348;0.000412542;-0.00098134;0.000696941;-1.59313;-0.627697;0.000826791;0.000929254;0.420387;2.37876;14.3169;59.3169;-0.000575636;-0.000349831;-0.000272316;-0.00111543;-0.000219144;0.000789917;0.00508622;0;0.0253823;-0.0322356;-0.10954;-0.0281498;0.117604;-6.11779;0.000551515;6.14267e-05;0.00121166;0.00121732;0.000545848;0.000335737;-0.455175;-2.19696;0.000704068;0.00044765;-2.23015;-0.4484;80.108;125.108;0.00199113;0.000551496;-8.21931e-05;0.000204952;0.00121165;-0.00441169;-0.00171308;0;0.0170724;0.0171943
97000;98;25.7482;-0.00519639;-0.000201775;-2.104;25.655;-0.604241;0.00447736;-0.00525089;-0.0173695;-0.0360945;-0.106483;-0.0199503;0.11419;-5.49289;-0.00046631;-0.000773472;1.35609e-05;0.000583458;-0.00103621;0.000809832;34.3864;0.0290812;0.000947213;0.00107978;0.563071;1.77598;1.97427;46.9743;6.60016e-05;-0.000466932;-0.000189753;-0.00135691;1.3842e-05;-0.000560725;0.00348857;0;0.0259785;-0.0329427;-0.10835;-0.0287212;0.116833;-6.11837;0.000536664;1.49543e-05;0.00107682;0.00107723;0.000536251;0.000270491;-0.498379;-2.0065;0.000621943;0.000360655;-2.00882;-0.497804;91.0293;136.029;0.00222975;0.000536663;8.88495e-05;-5.89009e-05;0.00107682;-0.00262791;-0.00239131;0;0.01762;0.0171909
98000;99;25.7493;-0.00405513;-0.00015746;-2.10543;25.656;-0.602529;0.00304527;-0.0041827;-0.0156574;-0.0379722;-0.105265;-0.0227615;0.114196;-5.4957;-0.000616249;-0.000633937;-0.000101565;0.000325272;-0.00104309;0.000684179;-6.06754;-0.164811;0.00082546;0.000912238;0.311836;3.20681;5.09598;50.096;-0.0012976;-0.00061677;-6.6214e-05;-0.00120137;-0.000101366;0.00361706;0.00413941;0;0.0261203;-0.0345906;-0.106895;-0.0321557;0.116863;-6.1218;0.00068305;-1.74258e-05;0.00111219;0.0011129;0.000682343;0.000215277;-0.614148;-1.62827;0.00064799;0.000287036;-1.63099;-0.613123;94.6856;139.686;0.0026479;0.000683046;5.69018e-05;-9.17215e-05;0.00111219;-0.0032422;-0.0032811;0;0.0185777;0.0171894
99000;100;25.7489;-0.00446113;-0.000173225;-2.10477;25.6557;-0.602681;0.00371097;-0.00453912;-0.0158088;-0.0398409;-0.104443;-0.0227449;0.114074;-5.49568;-0.000571692;-0.000626268;5.05555e-05;0.000438724;-0.000959861;0.000699292;11.3082;0.0884314;0.000825947;0.00093239;0.457071;2.18785;5.6433;50.6433;0.000120656;-0.00057196;-0.000289241;-0.000963085;5.07098e-05;0.000936291;0.00138849;0;0.0260163;-0.0361842;-0.106243;-0.031084;0.116461;-6.12073;0.000694459;0.000170192;0.00112025;0.00117991;0.000634793;0.000272561;-0.619916;-1.61312;0.000681879;0.000363414;-1.85874;-0.537999;69.2929;114.293;0.00248935;0.000694451;0.00012617;0.000214196;0.00112025;-0.00301327;-0.00234326;0;0.0187009;0.0171821
100000;101;25.7501;-0.00329453;-0.000127926;-2.1047;25.6569;-0.600623;0.00378103;-0.00331427;-0.0137511;-0.0421548;-0.104722;-0.0189602;0.114469;-5.4919;-0.000461558;-0.000475588;6.71639e-05;0.000346927;-0.000741321;0.000544124;6.8721;0.145516;0.000641907;0.000725499;0.467985;2.13682;175.926;40.9259;-0.000218185;-0.000461936;3.99712e-05;-0.000990875;6.72762e-05;-0.00149313;0.00355516;0;0.0255114;-0.0380767;-0.106299;-0.0276957;0.11626;-6.11734;0.000789089;-0.000109225;0.00114355;0.0011745;0.000758135;0.000208183;-0.690037;-1.4492;0.000687601;0.000277577;-1.5492;-0.645495;103.115;148.115;0.00232758;0.000789095;-0.00020094;-1.75431e-05;0.00114353;-0.00318324;-0.00178887;0;0.0169913;0.0172497
101000;102;25.7497;-0.00369022;-0.00014329;-2.10428;25.6566;-0.600586;0.00419707;-0.00367642;-0.0137146;-0.0450944;-0.103073;-0.0254604;0.11535;-5.4984;-0.000607906;-0.000670638;-0.000175804;0.000312725;-0.00109644;0.00070458;-3.45786;-0.289196;0.000854491;0.00093944;0.28522;3.50607;29.4431;74.4431;0.000245471;-0.000607972;-0.000578334;-0.000762902;-0.000175746;0.00112457;0.00406799;0;0.0266844;-0.0407381;-0.105059;-0.0343067;0.117787;-6.12395;0.00105339;-3.12531e-05;0.00112567;0.00113731;0.00104175;4.77798e-05;-0.935788;-1.06862;0.000728445;6.37064e-05;-1.09173;-0.915977;112.128;157.128;0.00234741;0.00105338;3.36224e-05;-9.6124e-05;0.00112567;-0.00319484;-0.000418793;0;0.0186937;0.0172515
102000;103;25.7501;-0.0032622;-0.000126671;-2.10431;25.657;-0.601533;0.00417228;-0.00327104;-0.0146607;-0.0478747;-0.10126;-0.0273252;0.115292;-5.50026;-0.000598426;-0.000528588;-4.39917e-05;0.000275662;-0.00091808;0.000596871;-13.6032;-0.0735123;0.000721708;0.000795828;0.300259;3.33046;13.7678;58.7678;-0.000520475;-0.000598569;-0.000305454;-0.000751598;-4.38987e-05;0.000984824;0.00170212;0;0.0259072;-0.0432178;-0.103178;-0.0364649;0.117657;-6.12611;0.00103198;-4.44022e-05;0.000733961;0.00103846;0.000727486;0.000155485;-1.40604;-0.711216;0.000615418;0.000207313;-1.42746;-0.700546;164.552;29.5524;0.00175708;0.00103197;-0.000269674;0.000180937;0.000733926;-0.00233904;-0.00283691;0;0.0164753;0.0171918
103000;104;25.7485;-0.00489001;-0.000189878;-2.10308;25.6554;-0.60211;0.0054023;-0.00481744;-0.0152377;-0.0513763;-0.101635;-0.0266422;0.116957;-5.49958;-0.000851789;-0.000782979;-0.000481819;0.000137731;-0.00147134;0.000804535;-1.76786;-0.565655;0.00102988;0.00107271;0.0936093;10.6827;30.1843;75.1843;-0.00111;-0.000851961;-0.000587605;-0.000978281;-0.000481685;0.00307588;0.00162126;0;0.0246273;-0.0458999;-0.102805;-0.0369278;0.118487;-6.12657;0.000974827;7.44839e-05;0.00109352;0.00112941;0.000938937;9.52343e-05;-0.891462;-1.12175;0.000698162;0.000126979;-1.20286;-0.831355;59.8094;104.809;0.00178186;0.000974802;-8.81375e-05;0.000237086;0.00109351;-0.000340637;-0.00129866;0;0.0180556;0.0172226
104000;105;25.7503;-0.00310025;-0.000120382;-2.1032;25.6572;-0.603104;0.00528335;-0.00305428;-0.0162319;-0.0562153;-0.101651;-0.0243885;0.118692;-5.49732;-0.000546976;-0.00076578;-3.38337e-05;0.000517214;-0.00109802;0.000807619;-16.1666;-0.0618558;0.000952442;0.00107683;0.471041;2.12296;23.1419;68.1419;-0.00158735;-0.00054709;-0.000629178;-0.000902312;-3.37384e-05;0.00579627;0.0024764;0;0.0245753;-0.0501579;-0.103272;-0.0358943;0.120289;-6.12554;0.00121652;0.000117733;0.00100252;0.00126861;0.000950429;0.000159092;-1.21346;-0.824086;0.000762151;0.000212123;-1.33478;-0.749187;18.3858;63.3858;0.0011923;0.00121647;-9.73965e-05;0.000332908;0.00100252;0.00092409;-0.00229766;0;0.0185733;0.0173578
105000;106;25.7494;-0.00398675;-0.000154805;-2.1019;25.6564;-0.603358;0.00657472;-0.00384417;-0.0164866;-0.0612278;-0.100002;-0.0268251;0.120286;-5.49976;-0.000829291;-0.000826884;-0.000400005;0.00023964;-0.00146894;0.000854288;-2.0732;-0.482345;0.00106817;0.00113905;0.163139;6.12976;26.8208;71.8208;-0.00168348;-0.000829525;-0.000581069;-0.00107259;-0.000399832;0.00656782;0.0062016;0;0.0217272;-0.0545357;-0.101717;-0.0385239;0.121674;-6.12817;0.00106584;4.92639e-05;0.000631827;0.00107136;0.000626305;0.000222529;-1.68692;-0.592796;0.000621496;0.000296706;-1.71061;-0.584587;168.963;33.9626;0.00106251;0.00106564;-0.000542616;0.0006414;0.000631681;0.000330989;-0.000223361;0;0.0163728;0.017283
106000;107;25.7502;-0.00320797;-0.000124565;-2.10079;25.6572;-0.606;0.00768903;-0.00303356;-0.0191284;-0.0675596;-0.100685;-0.0245012;0.123701;-5.49744;-0.000410966;-0.000905751;7.40206e-05;0.000769177;-0.00110612;0.00093765;5.55206;0.180113;0.00108852;0.0012502;0.695381;1.43806;22.9247;67.9247;-0.0010033;-0.000411056;-0.000811735;-0.000999722;7.41013e-05;0.00401848;0.00421161;0;0.0208622;-0.0593267;-0.101329;-0.0385995;0.123601;-6.12824;0.000857651;8.11289e-05;0.000670707;0.000887949;0.00064041;0.00012377;-1.27873;-0.782028;0.000529119;0.000165026;-1.38653;-0.721224;177.761;42.7613;0.00100555;0.000857287;-0.000695536;0.000857939;0.000670469;0.00160657;-0.00034543;0;0.0145145;0.0173884
107000;108;25.7497;-0.00370864;-0.000144006;-2.09938;25.6567;-0.610293;0.00909726;-0.00352251;-0.0234207;-0.0745098;-0.0996768;-0.028258;0.127615;-5.50119;-0.000168584;-0.000856084;-0.000748047;0.000445468;-0.0013621;0.000903783;-0.225365;-4.43724;0.00108741;0.00120504;0.327045;3.05768;53.8541;98.8541;-0.00131756;-0.000168591;-0.000848174;-0.000863999;-0.00074804;0.0045437;0.00354978;0;0.0232126;-0.065324;-0.100524;-0.0441369;0.127752;-6.13378;0.000553106;0.000130334;0.000425992;0.000634554;0.000344544;0.000145005;-1.2984;-0.770181;0.00036681;0.00019334;-1.84172;-0.542971;177.639;42.6389;0.00105497;0.000552149;-0.00112956;0.00139038;0.000425362;-0.00156731;0.00137455;0;0.0151605;0.017299
108000;109;25.7506;-0.00275701;-0.000107054;-2.09895;25.6577;-0.609501;0.00953305;-0.00251296;-0.0226287;-0.0816205;-0.0990378;-0.0296067;0.131708;-5.50254;-0.000701616;-0.0014738;-0.00108786;0.000591667;-0.00238114;0.0014864;-0.644952;-1.5505;0.00181705;0.00198187;0.248481;4.02446;48.4774;93.4774;-0.000812672;-0.000701628;-0.00146584;-0.00148177;-0.00108785;0.00395738;0.00578121;0;0.0258698;-0.0729834;-0.10074;-0.0441478;0.132001;-6.13379;0.000194568;0.000216689;0.000226494;0.000427807;-6.74489e-06;0.000217276;-0.859045;-1.16408;0.000287479;0.000289701;;;8.44859;53.4486;0.00201171;0.000193926;-0.000720893;0.00115424;0.000226257;-0.00493382;-0.000697497;0;0.0167136;0.0173829
109000;110;25.7492;-0.00424321;-0.000164763;-2.09993;25.6561;-0.61217;0.00855161;-0.00414839;-0.0252976;-0.0873095;-0.0984209;-0.0288842;0.134699;-5.50182;-0.000448303;-0.00114431;-0.000590423;0.000627155;-0.00166588;0.00114652;-0.759292;-1.31702;0.00136841;0.00152869;0.37647;2.65625;38.7888;83.7888;-0.0004858;-0.000448485;-0.000995717;-0.00129293;-0.000590264;0.00146628;0.00313861;0;0.0278496;-0.079038;-0.0998432;-0.043736;0.134642;-6.13338;0.000376072;0.000323335;0.000917074;0.00106814;0.000225008;0.000421564;-0.410078;-2.43856;0.000650199;0.000562086;-4.7471;-0.210655;49.4473;94.4473;0.0016973;0.00037587;-6.589e-05;0.00071235;0.000917124;-0.00411446;-0.00132714;0;0.0215973;0.0173713
110000;111;25.7483;-0.00508862;-0.00019759;-2.10006;25.6553;-0.61072;0.00841528;-0.00497348;-0.0238477;-0.0937126;-0.0972072;-0.0314853;0.138646;-5.50442;-0.000604987;-0.000953006;0.000178229;0.00081695;-0.00124371;0.00103033;3.39444;0.2946;0.0011982;0.00137377;0.656866;1.52238;17.0125;62.0125;0.000124977;-0.000605132;-0.000811024;-0.00109488;0.000178354;0.00115113;0.00186661;0;0.0253841;-0.0854516;-0.099207;-0.0458786;0.13874;-6.13552;0.00047188;0.000172932;0.00094629;0.00100264;0.000415535;0.00029355;-0.498664;-2.00536;0.00058169;0.0003914;-2.41288;-0.414443;55.673;100.673;0.00281609;0.000471699;-0.000280351;0.000626001;0.000946266;-0.00451779;-0.00153431;0;0.019194;0.0175362
111000;112;25.7495;-0.00391732;-0.000152109;-2.09904;25.6566;-0.609205;0.00943577;-0.00367841;-0.022333;-0.100256;-0.097931;-0.0311794;0.143575;-5.50411;-0.000725838;-0.000664775;-0.000169743;0.00027279;-0.00116837;0.00072058;-4.27611;-0.233857;0.000883987;0.000960774;0.233479;4.28304;29.6627;74.6627;-0.000249525;-0.000725881;-0.000602035;-0.00072748;-0.000169703;0.0015069;0.00349462;0;0.026091;-0.0916584;-0.100249;-0.0453471;0.143204;-6.13499;0.00062747;0.000358732;0.000962773;0.0011911;0.000399147;0.000395975;-0.651732;-1.53437;0.000700033;0.000527966;-2.98411;-0.335109;57.0797;102.08;0.00345169;0.000627465;0.000346378;0.000371082;0.000962777;-0.00372772;-0.00174431;0;0.0209417;0.0175118
112000;113;25.7479;-0.00546442;-0.000212183;-2.09809;25.6551;-0.609065;0.0103913;-0.00514963;-0.0221932;-0.108876;-0.0988026;-0.0366322;0.151518;-5.50957;-0.00059367;-0.00117966;-0.000339225;0.00072005;-0.00165294;0.0011865;-1.75008;-0.571403;0.0014049;0.001582;0.435617;2.2956;42.1317;87.1317;-0.000978863;-0.000593666;-0.00118306;-0.00117625;-0.000339229;0.0067922;0.00453649;0;0.0323403;-0.0989906;-0.101238;-0.0502532;0.150245;-6.1399;0.00103522;6.89082e-05;0.00121788;0.00124096;0.00101214;0.00011441;-0.850016;-1.17645;0.000762563;0.000152547;-1.22608;-0.81561;67.3159;112.316;0.00336757;0.00103519;-9.63254e-05;0.000234112;0.00121788;-0.00120822;0.0005798;0;0.0296662;0.0176442
113000;114;25.7488;-0.00462864;-0.000179729;-2.09743;25.6559;-0.611155;0.011046;-0.004307;-0.0242836;-0.11709;-0.0993209;-0.0348851;0.157454;-5.50782;-0.00069575;-0.00148456;-0.000505664;0.000886896;-0.00208831;0.0014876;-1.37591;-0.72679;0.0017638;0.00198347;0.424696;2.35463;42.8161;87.8161;-0.00156979;-0.000695761;-0.00147718;-0.00149195;-0.000505653;0.0121412;0.00472833;0;0.0273214;-0.105757;-0.101317;-0.0503095;0.154857;-6.13995;0.00111173;-9.35475e-06;0.00124604;0.00124669;0.00111108;6.78077e-05;-0.892204;-1.12082;0.000789814;9.04103e-05;-1.12206;-0.89122;88.1659;133.166;0.00283631;0.0011117;-0.000251612;0.00023287;0.00124601;7.73047e-05;0.0006384;0;0.0204998;0.0177181
114000;115;25.7492;-0.00418674;-0.00016257;-2.09321;25.6566;-0.61628;0.015273;-0.00364089;-0.0294085;-0.12822;-0.101136;-0.0361508;0.167259;-5.50909;-0.000404332;-0.00195704;-3.68908e-05;0.00174504;-0.00218626;0.00196565;-10.9602;-0.0912391;0.0022745;0.00262087;0.798184;1.25284;41.0224;86.0224;-0.00211754;-0.000404351;-0.00194706;-0.00196703;-3.68714e-05;0.00985479;-0.000188056;0;0.0282775;-0.114046;-0.102316;-0.0564145;0.163272;-6.14606;0.00112624;2.03096e-05;0.000906234;0.0011281;0.000904375;0.000111862;-1.24277;-0.804655;0.000689695;0.000149149;-1.24738;-0.80168;167.763;32.7628;0.00191467;0.00112597;-0.000690372;0.000731147;0.000905996;0.00103634;0.00220449;0;0.0142279;0.017846
115000;116;25.7474;-0.00600873;-0.000233318;-2.09198;25.6545;-0.630267;0.0164965;-0.00570946;-0.0433955;-0.141409;-0.100245;-0.038728;0.177611;-5.51166;-0.000172929;-0.000803811;-0.00088716;0.000349525;-0.00140962;0.00087957;-0.194925;-5.13019;0.00107536;0.00117276;0.247958;4.03294;68.3055;113.306;-0.000825378;-0.000172776;-0.00102486;-0.000582609;-0.000887363;0.00389245;0.00238726;0;0.0253204;-0.125922;-0.101073;-0.0652079;0.174138;-6.15485;0.000702122;0.000122409;0.000779725;0.000869335;0.000612512;0.000128411;-0.900474;-1.11053;0.000515724;0.000171215;-1.41929;-0.704576;29.9657;74.9657;0.00289259;0.000701692;-0.000691608;0.000936362;0.000779494;0.00012383;0.00500176;0;0.0124846;0.0177886
116000;117;25.7478;-0.00563259;-0.000218713;-2.09237;25.6551;-0.620747;0.0161117;-0.00513122;-0.0338749;-0.152479;-0.100481;-0.0412128;0.187203;-5.51415;-0.000407669;-0.0012894;-0.00082505;0.000689822;-0.00192254;0.00130618;-0.494114;-2.02382;0.00156322;0.00174157;0.358807;2.78701;47.3226;92.3226;-0.00131431;-0.000407733;-0.00124041;-0.00133841;-0.000824988;0.00688507;0.00186073;0;0.0286385;-0.138043;-0.10141;-0.0645992;0.183065;-6.15424;0.000430556;0.000284895;0.000934091;0.00106252;0.000302124;0.0003802;-0.460936;-2.1695;0.000632182;0.000506934;-3.51685;-0.284345;62.3281;107.328;0.00201494;0.00043053;0.000203317;0.000366433;0.000934111;-0.00140482;-0.00104359;0;0.0167908;0.017993
117000;118;25.747;-0.00643814;-0.000249992;-2.09419;25.6542;-0.619148;0.0142895;-0.00604973;-0.0322765;-0.162674;-0.101262;-0.0415014;0.196059;-5.51444;-0.000138;-0.00100023;-0.000218606;0.000822741;-0.00117935;0.00100104;-0.631273;-1.5841;0.001162;0.00133473;0.697624;1.43344;63.8055;108.805;-0.00187365;-0.000137882;-0.00112646;-0.000873993;-0.00021874;0.00873416;-0.000117056;0;0.02868;-0.148416;-0.102883;-0.0624754;0.19109;-6.15212;0.000994365;0.000161807;0.000993007;0.00115549;0.000831877;0.000161809;-1.00137;-0.998635;0.000688302;0.000215745;-1.38902;-0.719932;43.7983;88.7983;0.00325925;0.000994358;0.000124239;0.000199375;0.000993013;-0.00244057;-0.000363712;0;0.0241386;0.0180377
118000;119;25.7489;-0.00452639;-0.000175759;-2.09357;25.6563;-0.614129;0.0149122;-0.00395962;-0.0272573;-0.175166;-0.102145;-0.0416302;0.207002;-5.51457;-7.83246e-05;-0.00136153;-0.000463343;0.00110424;-0.00164591;0.00137507;-0.169042;-5.91568;0.00159803;0.00183343;0.6709;1.49053;71.85;116.85;-0.00113072;-7.79858e-05;-0.00163844;-0.00108452;-0.000463759;0.00796492;0.000737588;0;0.0289884;-0.159772;-0.103919;-0.0625632;0.2006;-6.15221;0.00122711;0.000102109;0.00113489;0.00129303;0.00106896;0.000112037;-1.08126;-0.924849;0.000797889;0.000149382;-1.20962;-0.826707;32.0991;77.0991;0.00307958;0.0012271;7.1162e-05;0.000133058;0.00113489;-0.00114685;-0.00110862;0;0.016977;0.0182013
119000;120;25.7496;-0.00375191;-0.000145686;-2.08886;25.6573;-0.618504;0.0196183;-0.00290385;-0.0316319;-0.190629;-0.102411;-0.044989;0.221024;-5.51792;-0.000175785;-0.00196658;-0.000925516;0.00145134;-0.00255264;0.00200199;-0.189932;-5.26505;0.00234067;0.00266932;0.568564;1.75882;62.0895;107.09;-0.00192487;-0.000175345;-0.00220449;-0.0017285;-0.000926013;0.0104175;-0.000110548;0;0.0265287;-0.170871;-0.104725;-0.0671466;0.21136;-6.15679;0.0014377;-0.000161165;0.000955413;0.00148659;0.000906515;0.00029004;-1.50479;-0.664545;0.000865156;0.00038672;-1.6399;-0.609793;151.687;16.6866;0.00272509;0.00143765;-0.000666414;0.000344328;0.000955204;0.00124285;0.00299773;0;0.0155383;0.0181949
120000;121;25.7468;-0.00660481;-0.000256464;-2.08738;25.6543;-0.631669;0.0211025;-0.00596699;-0.044797;-0.205085;-0.100766;-0.049303;0.233761;-5.52224;6.54969e-05;-0.00132869;-0.00135071;0.000862991;-0.0021482;0.0015056;0.0484907;20.6225;0.00179052;0.00200746;0.401727;2.48925;68.9559;113.956;-0.00186782;6.57783e-05;-0.00156044;-0.00109661;-0.00135104;0.00834343;8.06715e-06;0;0.0248122;-0.184171;-0.0996459;-0.0851905;0.226066;-6.17484;0.00104725;4.56606e-05;0.00107082;0.00110619;0.00101188;4.71563e-05;-0.977994;-1.0225;0.000708119;6.28751e-05;-1.09321;-0.914741;27.4302;72.4302;0.00302139;0.00104642;-0.00120133;0.00129263;0.0010701;-0.000758564;0.00253907;0;0.0238307;0.0182966
121000;122;25.7439;-0.00947271;-0.000367824;-2.08894;25.6512;-0.633908;0.0195411;-0.00902756;-0.0470357;-0.219576;-0.106176;-0.0418955;0.247471;-5.51483;-0.000796077;-0.00110393;-0.000370753;0.000540814;-0.00170764;0.00112423;-2.14719;-0.465726;0.00135516;0.00149897;0.316702;3.15754;38.507;83.507;-0.00131128;-0.0007961;-0.00108273;-0.00112513;-0.00037073;0.00428335;0.00136946;0;0.0266327;-0.200711;-0.105771;-0.073162;0.23838;-6.16281;0.000534086;1.434e-05;0.000731191;0.000732229;0.000533048;9.95904e-05;-0.730433;-1.36905;0.000437156;0.000132787;-1.37366;-0.72798;88.0918;133.092;0.00241367;0.000534086;6.37475e-05;-3.50577e-05;0.000731189;0.000107175;-0.00245656;0;0.0209302;0.0182996
122000;123;25.7469;-0.00652457;-0.000253348;-2.08898;25.6544;-0.625081;0.0194985;-0.00585566;-0.0382091;-0.233707;-0.106141;-0.0461819;0.260801;-5.51912;-0.000336865;-0.0014699;-0.00107054;0.000811281;-0.00221869;0.00151498;-0.314668;-3.17796;0.00181117;0.00201998;0.365658;2.7348;59.1404;104.14;-0.00195148;-0.000336618;-0.00164866;-0.00129101;-0.00107082;0.0102555;0.00129055;0;0.0231812;-0.214295;-0.106993;-0.0731181;0.250432;-6.16276;0.00109425;-3.39047e-05;0.00110295;0.00113278;0.00106442;3.41831e-05;-0.992105;-1.00796;0.000733463;4.55774e-05;-1.06423;-0.939648;141.051;6.05147;0.00287673;0.00109416;0.000353867;-0.000421673;0.00110289;-0.00064882;-0.00168172;0;0.020875;0.0183588
123000;124;25.7492;-0.00416217;-0.000161616;-2.08545;25.657;-0.625621;0.0230286;-0.00321071;-0.0387488;-0.250544;-0.104284;-0.0533898;0.276582;-5.52633;-0.000383088;-0.00218016;-0.00220318;0.00106934;-0.00365561;0.00236248;-0.17388;-5.75109;0.00286093;0.00314997;0.292521;3.41856;60.4839;105.484;-0.00246847;-0.000382694;-0.00236865;-0.00199133;-0.00220361;0.0114585;0.00376689;0;0.0250113;-0.227346;-0.106222;-0.0804349;0.263513;-6.17008;0.00134539;-0.000176474;0.00070838;0.00139101;0.000662758;0.000364127;-1.89925;-0.526524;0.000803398;0.000485503;-2.09882;-0.476457;151.326;16.3257;0.00260697;0.00134533;-0.000731235;0.000378641;0.000708128;0.000816074;-0.00200972;0;0.0241422;0.0183689
124000;125;25.7454;-0.00803291;-0.000311916;-2.08383;25.6529;-0.640367;0.024653;-0.00732724;-0.0534954;-0.268071;-0.106836;-0.0508132;0.293015;-5.52375;-0.00018969;-0.00120259;-0.00119014;0.000612566;-0.0019924;0.00130248;-0.159384;-6.27415;0.00157273;0.00173664;0.307452;3.25254;62.6757;107.676;-0.00154353;-0.000189514;-0.00135872;-0.00104631;-0.00119034;0.00663984;0.00154409;0;0.0237034;-0.24353;-0.104877;-0.0952809;0.281752;-6.18493;0.00068368;-0.000128953;0.000886479;0.000949124;0.000621034;0.000164045;-0.771231;-1.29663;0.000556609;0.000218727;-1.5283;-0.654324;88.0455;133.046;0.00223484;0.000683163;-0.00128313;0.00102499;0.000885665;0.00063303;-0.00321168;0;0.023906;0.0184128
125000;126;25.7462;-0.0072178;-0.000280266;-2.08581;25.6537;-0.634206;0.0226714;-0.00651718;-0.0473345;-0.284225;-0.107133;-0.0519201;0.308151;-5.52486;-0.000768204;-0.000942601;-0.000512057;0.000311132;-0.00159139;0.000951262;-1.50023;-0.666563;0.00117841;0.00126835;0.195509;5.11485;46.4209;91.4209;-0.00079437;-0.000768099;-0.0010621;-0.000823135;-0.000512177;0.00602292;0.00251488;0;0.0246208;-0.262036;-0.106898;-0.0891655;0.296716;-6.17881;0.000846568;-0.000107995;0.000829048;0.000946158;0.000729459;0.000108349;-1.02113;-0.979305;0.00057238;0.000144466;-1.29707;-0.77097;131.036;176.036;0.00272908;0.000846571;-0.00029488;7.88941e-05;0.000829011;-0.00132752;-0.00147794;0;0.0201296;0.0185054
126000;127;25.75;-0.00335586;-0.000130308;-2.08386;25.658;-0.625923;0.0246202;-0.00227956;-0.039051;-0.301422;-0.105654;-0.0573284;0.324506;-5.53026;-0.000396133;-0.00197084;-0.00104849;0.00127533;-0.00271996;0.00199765;-0.377811;-2.64683;0.00235641;0.00266353;0.46888;2.13274;60.5515;105.552;-0.00189053;-0.000395607;-0.00225805;-0.00168344;-0.0010491;0.00937963;0.00315013;0;0.0255237;-0.27745;-0.107638;-0.0881154;0.310369;-6.17776;0.0011442;-0.000107643;0.000704323;0.00116913;0.000679395;0.000244867;-1.62454;-0.615559;0.000677951;0.00032649;-1.72084;-0.581112;164.125;29.1245;0.00293906;0.00114421;-0.00019952;-1.57248e-05;0.000704309;0.000794501;-0.00424424;0;0.0197792;0.0184979
127000;128;25.7452;-0.00815379;-0.00031661;-2.08184;25.6528;-0.646408;0.0266381;-0.00743889;-0.0595365;-0.326004;-0.108009;-0.0518596;0.347324;-5.52479;-0.000534021;-0.00117768;-0.00189398;0.000145886;-0.00257389;0.00135989;-0.281957;-3.54664;0.00176656;0.00181318;0.0566791;17.6432;65.2359;110.236;-0.00189364;-0.000533782;-0.00140159;-0.000953455;-0.00189427;0.00792561;0.00440259;0;0.0306978;-0.299072;-0.106179;-0.102123;0.333387;-6.19177;0.000751192;-0.000138685;0.000660567;0.000851779;0.00055998;0.0001459;-1.13719;-0.879358;0.000499834;0.000194533;-1.52109;-0.657424;109.85;154.85;0.003474;0.000749843;-0.00192616;0.00164895;0.000658723;-0.00233915;0.00134196;0;0.0226522;0.0185558
128000;129;25.7466;-0.00683276;-0.000265315;-2.08462;25.6541;-0.639371;0.0238582;-0.00616248;-0.0524988;-0.34551;-0.107748;-0.0544798;0.365998;-5.52741;-0.000818677;-0.00107463;-0.000451602;0.000455052;-0.00172533;0.00109019;-1.81283;-0.551624;0.00132815;0.00145359;0.263748;3.7915;45.8337;90.8337;-0.00171856;-0.000818548;-0.00120217;-0.000947137;-0.000451747;0.00696931;0.0034494;0;0.0275908;-0.32217;-0.107823;-0.0976791;0.353498;-6.18732;0.00051898;6.96954e-05;0.000741968;0.000761959;0.000498989;0.000131485;-0.699464;-1.42967;0.000446897;0.000175314;-1.52701;-0.654876;59.604;104.604;0.00319278;0.000518896;-0.000276948;0.000416261;0.000741932;-0.00109544;-0.00257361;0;0.0218848;0.0185343
129000;130;25.7532;-0.000165641;-6.43181e-06;-2.08571;25.6609;-0.629548;0.0227661;0.000682788;-0.0426764;-0.36811;-0.105415;-0.0637605;0.388179;-5.5367;-0.000959766;-0.00193537;-0.00221589;0.000446896;-0.00362255;0.00203473;-0.433128;-2.30879;0.00257695;0.00271297;0.123365;8.10604;61.0326;106.033;-0.00272631;-0.000959074;-0.00233288;-0.00153735;-0.00221674;0.0126026;0.0041147;0;0.0334525;-0.343151;-0.109509;-0.0968911;0.373005;-6.18654;0.000830462;5.2593e-05;0.000700818;0.000849114;0.000682166;8.34739e-05;-1.18499;-0.84389;0.000519448;0.000111299;-1.24473;-0.803386;176.012;41.0117;0.00352127;0.00083008;-0.000770275;0.000875568;0.000700523;0.00106484;-0.00271797;0;0.0186879;0.0185436
130000;131;25.7469;-0.00649359;-0.000252145;-2.08311;25.6541;-0.656846;0.0253732;-0.00614051;-0.0699741;-0.393061;-0.10858;-0.0570314;0.411752;-5.52997;-0.000697202;-0.000716517;-0.000705546;1.51553e-05;-0.0014179;0.000716529;-0.988175;-1.01197;0.000950361;0.000955372;0.0106885;93.5582;66.6948;111.695;-0.000732864;-0.000696947;-0.00137118;-6.18492e-05;-0.000706229;0.00506581;0.00338321;0;0.0247463;-0.367802;-0.107252;-0.116225;0.400362;-6.20587;0.000746537;-0.000131148;0.0010065;0.00106117;0.00069187;0.00018465;-0.741713;-1.34823;0.000622031;0.0002462;-1.53377;-0.651988;85.0529;130.053;0.00343389;0.000745908;-0.00139234;0.00112972;0.00100554;0.00175115;-0.000866969;0;0.0254258;0.0185661
131000;132;25.7532;-0.000181276;-7.03891e-06;-2.08667;25.6608;-0.632361;0.0218133;0.000520465;-0.0454895;-0.415055;-0.107133;-0.0623711;0.433172;-5.53531;-0.000621611;-0.00136815;-0.000317924;0.000906784;-0.00184632;0.00137655;-1.95522;-0.511453;0.00162006;0.0018354;0.491131;2.03612;62.3081;107.308;-0.00326567;-0.000621136;-0.00177558;-0.000960845;-0.000318565;0.0150694;0.00408802;0;0.0271403;-0.393037;-0.110729;-0.103506;0.421251;-6.19315;0.000875671;0.000230063;0.000791719;0.00106756;0.000599834;0.000233861;-1.10604;-0.904128;0.000617925;0.000311815;-1.77975;-0.561876;28.5847;73.5847;0.00365126;0.000875532;-0.000115401;0.000575555;0.000791739;0.00131191;-0.00435068;0;0.0219327;0.018621
132000;133;25.7501;-0.00333072;-0.000129331;-2.08511;25.6573;-0.650496;0.0233666;-0.00296742;-0.0636243;-0.440022;-0.10623;-0.0635572;0.457104;-5.53649;-0.000846458;-0.00142413;-0.0016266;0.000240051;-0.00271311;0.00147658;-0.520385;-1.92166;0.00189383;0.00196877;0.0884781;11.3022;59.7155;104.716;-0.00153596;-0.000846064;-0.00173451;-0.0011135;-0.00162709;0.00779192;0.00521349;0;0.0251387;-0.415957;-0.106953;-0.118247;0.445467;-6.20789;0.000670357;0.00020803;0.000891247;0.00101633;0.000545271;0.000235531;-0.752156;-1.32951;0.000587301;0.000314041;-1.8639;-0.536508;26.8646;71.8646;0.00361817;0.000668706;-0.00141382;0.00182953;0.00089027;0.0021204;0.00124856;0;0.0252553;0.0186305
133000;134;25.7483;-0.00506975;-0.000196858;-2.08643;25.6554;-0.651254;0.0220511;-0.00483891;-0.0643821;-0.461512;-0.10805;-0.0582731;0.47756;-5.53121;-0.000706174;-0.000493017;2.75051e-05;0.000275188;-0.000953856;0.000614522;25.6743;0.0389494;0.000744777;0.000819363;0.2885;3.4662;52.5703;97.5703;-0.00220246;-0.000706054;-0.00092401;-6.23411e-05;2.71997e-05;0.0103993;0.000895853;0;0.0244442;-0.440176;-0.109239;-0.110291;0.466747;-6.19994;0.000695195;0.000106525;0.000869088;0.000919645;0.000644638;0.000137504;-0.799912;-1.25014;0.000545066;0.000183338;-1.42661;-0.700963;62.8289;107.829;0.00337528;0.000695188;5.77673e-05;0.000155274;0.000869093;0.00231037;0.00481782;0;0.0327296;0.0187536
134000;135;25.7532;-0.000214395;-8.32493e-06;-2.08924;25.6604;-0.636349;0.019239;0.000179175;-0.0494772;-0.484305;-0.104481;-0.0689106;0.500216;-5.54185;-0.000584014;-0.00142813;-0.00166655;0.000401982;-0.00265255;0.00152726;-0.350433;-2.85362;0.00191646;0.00203635;0.151546;6.59867;60.1194;105.119;-0.00371292;-0.000583763;-0.00161576;-0.00124031;-0.00166684;0.0169836;0.00799593;0;0.0271012;-0.464291;-0.108264;-0.113924;0.490169;-6.20357;0.000893378;0.000223397;0.000814695;0.00108087;0.000627201;0.000226835;-1.09658;-0.911926;0.000626716;0.000302447;-1.72332;-0.580274;21.2887;66.2887;0.00384938;0.000893017;-0.000431084;0.000877929;0.000814627;0.000303296;0.00493079;0;0.0267196;0.0188533
135000;136;25.7468;-0.00663363;-0.000257583;-2.088;25.6536;-0.655276;0.0204801;-0.00663869;-0.0684037;-0.511864;-0.108449;-0.0613792;0.526814;-5.53431;-0.000470862;-0.000773102;0.000224758;0.000724685;-0.000970789;0.000847737;2.09498;0.477332;0.000982314;0.00113032;0.74649;1.3396;66.3683;111.368;-0.00183332;-0.00047068;-0.00106239;-0.000484019;0.000224492;0.0111594;0.00185747;0;0.0300739;-0.492434;-0.107567;-0.12297;0.518829;-6.21262;0.00107029;0.000106252;0.000914022;0.00112405;0.000860269;0.000131889;-1.17097;-0.853991;0.000678745;0.000175853;-1.30662;-0.765331;14.0243;59.0243;0.00456393;0.00107013;-0.00037005;0.000582629;0.000913959;0.00224476;0.0068896;0;0.0287494;0.0187422
136000;137;25.7501;-0.0032948;-0.000127936;-2.09492;25.6567;-0.642057;0.0135564;-0.00351791;-0.0551847;-0.534274;-0.105908;-0.0688721;0.549007;-5.54181;-0.000331098;-0.000880749;-0.000510975;0.000464293;-0.00130636;0.000885329;-0.647973;-1.54327;0.00106012;0.00118044;0.355408;2.81367;56.9547;101.955;-0.00375774;-0.000330986;-0.00101812;-0.000743353;-0.000511105;0.0172581;0.00305573;0;0.024245;-0.520275;-0.107725;-0.119705;0.544628;-6.20935;0.000932561;0.000199311;0.000830764;0.00108737;0.000675956;0.000205707;-1.12253;-0.890842;0.000633956;0.000274276;-1.60864;-0.621643;41.4709;86.4709;0.00396495;0.000932577;0.00031184;8.67699e-05;0.000830735;0.00242828;0.00423718;0;0.0175424;0.0190997
137000;138;25.7474;-0.00602154;-0.000233815;-2.09349;25.6538;-0.653824;0.0149887;-0.00643487;-0.0669518;-0.565732;-0.108105;-0.0663017;0.579772;-5.53924;-0.000436921;-0.000979052;-0.000746677;0.000399427;-0.00158303;0.000991227;-0.585154;-1.70895;0.00121066;0.00132164;0.252319;3.96324;45.7643;90.7643;-0.00307881;-0.000437;-0.000901613;-0.00105652;-0.000746604;0.011744;-0.000642274;0;0.0332964;-0.551049;-0.106905;-0.128932;0.57594;-6.21858;0.00104328;8.22199e-05;0.000840275;0.0010724;0.000811152;0.000130623;-1.24159;-0.80542;0.000645714;0.000174164;-1.32207;-0.756391;12.4602;57.4602;0.00407172;0.00104323;-0.000154344;0.000318832;0.000840267;0.00439715;0.00729461;0;0.0218937;0.0192195
138000;139;25.7473;-0.00613772;-0.000238327;-2.101;25.6531;-0.65236;0.00748338;-0.0071278;-0.0654886;-0.591696;-0.107105;-0.0664283;0.604969;-5.53936;-0.000248469;-0.00109867;-0.000640737;0.000671436;-0.00156064;0.00111604;-0.387786;-2.57874;0.00132234;0.00148805;0.430231;2.32433;39.1285;84.1285;-0.00356045;-0.000248681;-0.000920377;-0.00127703;-0.000640557;0.0160589;0.000682351;0;0.0373968;-0.583432;-0.106194;-0.122021;0.605441;-6.21167;0.000951938;0.000191007;0.000697031;0.00105411;0.000594858;0.000229626;-1.3657;-0.732223;0.000610267;0.000306168;-1.77204;-0.564323;16.8348;61.8348;0.00362419;0.000951813;-0.000152732;0.000534833;0.000697037;0.00270164;0.00423514;0;0.0225636;0.0192825
139000;140;25.747;-0.00638133;-0.000247786;-2.09861;25.6529;-0.658454;0.00986617;-0.00733294;-0.071582;-0.618957;-0.104361;-0.0746672;0.632119;-5.5476;-0.000585993;-0.00115658;-0.00096859;0.000395005;-0.00194959;0.0011723;-0.604996;-1.6529;0.00144945;0.00156306;0.20261;4.9356;43.8148;88.8148;-0.00363628;-0.000586193;-0.000994894;-0.00131833;-0.000968416;0.0140243;-0.00193914;0;0.0327273;-0.610379;-0.103656;-0.133202;0.633285;-6.22285;0.000913152;6.92474e-05;0.000897096;0.000974835;0.000835413;6.97112e-05;-1.0179;-0.982417;0.000608761;9.29482e-05;-1.16689;-0.856979;42.7182;87.7182;0.00334248;0.000913153;0.000101661;3.6833e-05;0.000897093;0.00408839;0.00692778;0;0.0214654;0.0194889
140000;141;25.7475;-0.0058499;-0.000227151;-2.10658;25.6528;-0.657491;0.00190151;-0.00742766;-0.0706188;-0.642243;-0.104207;-0.0702758;0.654427;-5.54321;-0.000282347;-0.00101083;-0.000391569;0.000675341;-0.00134926;0.0010123;-0.721067;-1.38683;0.00119029;0.00134973;0.500528;1.99789;19.5933;64.5933;-0.00457719;-0.000282921;-0.000548968;-0.00147273;-0.000391209;0.0141047;0.000505585;0;0.0358205;-0.640388;-0.102968;-0.128856;0.661289;-6.2185;0.000762049;0.000151185;0.000483975;0.00082841;0.000417614;0.000205398;-1.57456;-0.635097;0.000478288;0.000273864;-1.98367;-0.504115;33.4641;78.4641;0.00329897;0.000762058;0.000372305;-6.99956e-05;0.000483917;0.00142799;0.00380203;0;0.0164641;0.0197335
141000;142;25.7493;-0.00410884;-0.000159546;-2.10861;25.6546;-0.649741;-0.000132323;-0.00564982;-0.0628691;-0.666945;-0.0988599;-0.0783374;0.678768;-5.55127;-0.000258466;-0.001905;-0.0018486;0.00101072;-0.00311779;0.00206426;-0.139817;-7.15222;0.00248492;0.00275234;0.324179;3.08472;38.9248;83.9248;-0.00595426;-0.000260128;-0.0011742;-0.00263696;-0.00184748;0.0201045;0.00316372;0;0.0310273;-0.667282;-0.0985248;-0.134673;0.68783;-6.22432;0.000900396;1.28634e-05;0.00102353;0.00102486;0.000899067;6.28971e-05;-0.879696;-1.13676;0.000645408;8.38628e-05;-1.13992;-0.877257;91.9349;136.935;0.00308949;0.000900363;0.00028302;-0.00025726;0.00102349;0.00457593;0.00468825;0;0.0189409;0.0196975
142000;143;25.7469;-0.00644984;-0.000250446;-2.11387;25.6516;-0.655942;-0.00538932;-0.00858994;-0.0690704;-0.690521;-0.100531;-0.0676905;0.701076;-5.54063;-0.000697261;-0.00125227;-0.00128283;0.000295992;-0.00227609;0.00128604;-0.543532;-1.83982;0.00162507;0.00171472;0.130044;7.68969;33.456;78.456;-0.00534967;-0.000698433;-0.000527518;-0.00197744;-0.00128219;0.016485;0.000993553;0;0.0341399;-0.695133;-0.0987745;-0.124292;0.713032;-6.21394;0.000928476;-3.86439e-06;0.000522281;0.000928512;0.000522244;0.000203134;-1.77773;-0.562515;0.000537469;0.000270845;-1.77793;-0.562453;25.097;70.097;0.00241572;0.000928062;0.000902023;-0.00091012;0.000521875;0.00204958;0.00155825;0;0.0147608;0.0197223
143000;144;25.747;-0.00641597;-0.000249131;-2.11808;25.6512;-0.659518;-0.0095979;-0.00899479;-0.0726458;-0.711944;-0.0965427;-0.0757752;0.722445;-5.54871;-6.37033e-05;-0.0016436;-0.00164014;0.00097091;-0.00267475;0.00182283;-0.0388402;-25.7465;0.0021801;0.00243044;0.362991;2.75489;29.924;74.924;-0.00723535;-6.65423e-05;-0.000394513;-0.00289466;-0.00163886;0.0185255;0.00227499;0;0.0351623;-0.722139;-0.0929755;-0.138308;0.741119;-6.22795;0.00091004;-2.78104e-05;0.000978164;0.000988075;0.000900129;4.39728e-05;-0.930356;-1.07486;0.000631446;5.86304e-05;-1.0977;-0.910993;122.577;167.577;0.00207878;0.000909922;0.000431613;-0.000487203;0.000978071;0.00510815;0.00321998;0;0.0168315;0.0197518
144000;145;25.7496;-0.00383545;-0.00014893;-2.12306;25.6538;-0.643963;-0.0145822;-0.00642148;-0.0570914;-0.73533;-0.0931381;-0.0777658;0.745273;-5.5507;-0.000731634;-0.00188823;-0.00116056;0.000954271;-0.00284647;0.00190037;-0.630414;-1.58626;0.0022832;0.00253382;0.335247;2.98287;20.8193;65.8193;-0.00752579;-0.000735068;-0.00054783;-0.0032292;-0.00115893;0.0186059;-0.00231812;0;0.0345988;-0.750697;-0.0931139;-0.122943;0.766376;-6.21219;0.000779361;7.11111e-05;0.000459659;0.000794464;0.000444555;0.000174954;-1.69552;-0.58979;0.000459768;0.000233273;-1.7871;-0.559566;46.5993;91.5993;0.00154851;0.000778138;0.00170766;-0.00156596;0.000458204;0.0016243;0.00380299;0;0.016482;0.0198277
145000;146;25.7437;-0.00973493;-0.000378006;-2.12755;25.6469;-0.666912;-0.019072;-0.0133015;-0.08004;-0.755381;-0.0929043;-0.0690354;0.764197;-5.54197;-0.000715802;-0.00126578;-2.41071e-05;0.000942226;-0.00168214;0.00131218;-29.6926;-0.0336784;0.00153512;0.00174957;0.560137;1.78528;178.939;43.9392;-0.00621894;-0.000719041;0.000311106;-0.00284158;-2.33544e-05;0.0128962;-0.000180786;0;0.0351642;-0.774437;-0.0863166;-0.13719;0.791217;-6.22684;0.000938606;-0.000116356;0.000944893;0.00105815;0.00082535;0.000116399;-0.993346;-1.0067;0.000642058;0.000155199;-1.28206;-0.779995;148.294;13.294;0.00218302;0.00093842;0.000387786;-0.000620495;0.000944824;0.00286888;0.00255091;0;0.0168436;0.0197888
146000;147;25.7476;-0.00575842;-0.000223599;-2.13063;25.651;-0.652891;-0.0221487;-0.00920467;-0.0660188;-0.77128;-0.087802;-0.0774503;0.780116;-5.55039;8.26288e-05;-0.00198669;-0.00177035;0.00134824;-0.00303597;0.00219211;0.0466736;21.4254;0.00259299;0.00292281;0.44409;2.2518;23.9371;68.9371;-0.00809677;7.66725e-05;5.45473e-06;-0.00398253;-0.00176838;0.0210981;0.00346423;0;0.0340078;-0.79432;-0.0849001;-0.130342;0.809408;-6.21999;0.000907812;-9.84748e-05;0.00066923;0.000943206;0.000633836;0.000154685;-1.3565;-0.737191;0.000555197;0.000206247;-1.48809;-0.672001;15.594;60.594;-0.000201511;0.000905027;0.00216552;-0.00236301;0.000666892;0.00794182;0.00279009;0;0.0184301;0.0198916
147000;148;25.749;-0.00437643;-0.000169936;-2.13798;25.6519;-0.650845;-0.0294984;-0.00837699;-0.0639727;-0.790407;-0.0843555;-0.0842722;0.79935;-5.55721;-0.000340245;-0.00147277;8.84803e-05;0.00136241;-0.00161417;0.00148829;3.84543;0.260049;0.00172058;0.00198439;0.844029;1.18479;177.564;42.5636;-0.00868296;-0.000345461;0.000604803;-0.00354945;8.93819e-05;0.0180166;-0.00278712;0;0.0327635;-0.819924;-0.0819305;-0.134599;0.834928;-6.22424;0.000602411;0.000278077;0.000584714;0.000871781;0.000315345;0.000278218;-1.03027;-0.970623;0.000509698;0.000370957;-2.76453;-0.361725;76.9228;121.923;0.00131667;0.000601912;0.00159341;-0.00103728;0.000583484;0.00139213;0.00127757;0;0.016845;0.0199068
148000;149;25.7448;-0.00855714;-0.000332272;-2.13896;25.6473;-0.663463;-0.0304767;-0.0129784;-0.0765907;-0.809011;-0.0866861;-0.0711799;0.816749;-5.54412;-0.000694375;-0.00108545;-0.000126912;0.000711279;-0.00153257;0.00112192;-5.47129;-0.182772;0.00132409;0.0014959;0.46411;2.15466;178.742;43.7421;-0.00688635;-0.000698246;0.000815967;-0.00298579;-0.000126656;0.0113568;-0.00149182;0;0.0393656;-0.839741;-0.0792486;-0.13889;0.854831;-6.22854;0.00106499;4.00937e-05;0.00058919;0.00106835;0.000585835;0.000241257;-1.80756;-0.553233;0.000617772;0.000321676;-1.82363;-0.548356;35.5544;80.5544;0.00129859;0.00106389;0.00156916;-0.0014897;0.00058796;0.00498098;0.00463064;0;0.018855;0.0198799
149000;150;25.7473;-0.00609213;-0.000236556;-2.14574;25.6493;-0.65956;-0.0372569;-0.0109697;-0.0726883;-0.823357;-0.0849865;-0.0740108;0.831034;-5.54695;-0.000208778;-0.00159625;-0.0016159;0.000832086;-0.00265676;0.00174442;-0.129203;-7.73979;0.00210411;0.0023259;0.313195;3.19289;22.5825;67.5825;-0.00888046;-0.000215186;0.000723608;-0.00391937;-0.00161488;0.0169494;0.00155326;0;0.0367855;-0.860738;-0.0805561;-0.128402;0.873983;-6.21764;0.000751726;-3.73992e-05;0.000174487;0.000754139;0.000172074;0.000291033;-4.30821;-0.232115;0.000456347;0.000388044;-4.38265;-0.228172;35.366;80.366;-8.58556e-05;0.000749195;0.00217512;-0.00225119;0.000172122;0.00134721;0.0034534;0;0.0173896;0.0198676
150000;151;25.7498;-0.00363095;-0.000140989;-2.15131;25.6515;-0.649201;-0.0428284;-0.0087015;-0.0623292;-0.845689;-0.0838169;-0.0863398;0.854207;-5.55928;-0.00052374;-0.00161022;-0.00100742;0.000862698;-0.00239386;0.00162828;-0.519883;-1.92351;0.00194822;0.00217104;0.36038;2.77485;12.1664;57.1664;-0.00969417;-0.000531706;0.0010813;-0.00430302;-0.00100671;0.0187081;0.00098523;0;0.0324859;-0.887784;-0.0796604;-0.141633;0.902533;-6.23128;0.000690879;1.5428e-05;0.000771118;0.000773982;0.000688015;4.29836e-05;-0.895945;-1.11614;0.000489853;5.73115e-05;-1.12495;-0.888929;112.507;157.507;0.000946724;0.000689544;0.00166528;-0.00163429;0.000769732;0.00231227;0.00426961;0;0.0177359;0.0199726
151000;152;25.7468;-0.00656898;-0.000255072;-2.15492;25.6479;-0.663586;-0.0464402;-0.0123221;-0.0767145;-0.871599;-0.0868584;-0.0731618;0.878967;-5.5461;-0.000653543;-0.00101364;-0.000240795;0.000587264;-0.0014816;0.00103443;-2.71411;-0.368445;0.0012311;0.00137924;0.396371;2.52289;179.104;44.1038;-0.00841302;-0.000659528;0.00157788;-0.00360408;-0.000241526;0.0113901;-0.00283263;0;0.0361375;-0.917121;-0.0807603;-0.134314;0.930415;-6.22356;0.000340916;-0.000127446;0.000192475;0.000414178;0.000119213;0.000147483;-1.77123;-0.564581;0.000246197;0.000196643;-3.47428;-0.287829;12.4102;57.4102;-0.000472435;0.000336437;0.00274069;-0.00299601;0.000188728;0.00492013;0.00519934;0;0.0172075;0.0200142
152000;153;25.7463;-0.00709175;-0.000275371;-2.16115;25.6469;-0.663087;-0.0526676;-0.013358;-0.0762148;-0.893689;-0.0818282;-0.0839324;0.901344;-5.55687;5.59717e-05;-0.00136577;-0.00283695;0.00059888;-0.00337986;0.00198937;0.0197295;50.6854;0.00247712;0.00265249;0.177191;5.64363;35.1773;80.1773;-0.0100363;4.66871e-05;0.00177991;-0.00452057;-0.0028376;0.0184619;0.00540083;0;0.0325178;-0.945811;-0.0760064;-0.143448;0.959642;-6.23269;0.000722138;-0.000112121;0.0010482;0.00108303;0.000687305;0.000197864;-0.688932;-1.45152;0.000632798;0.000263819;-1.57577;-0.634611;139.442;4.44229;0.000693888;0.000720222;0.00173814;-0.00196178;0.0010467;0.000593656;0.00341496;0;0.0219847;0.0199756
153000;154;25.7492;-0.00418271;-0.000162414;-2.1628;25.6499;-0.655379;-0.0543208;-0.0103789;-0.0685075;-0.915166;-0.0800263;-0.0816503;0.92228;-5.55459;-0.0010804;-0.00158199;-8.51071e-05;0.00107566;-0.00224117;0.00165841;-12.6946;-0.0787739;0.00195398;0.00221122;0.479956;2.08352;176.646;41.6462;-0.0117919;-0.00108984;0.00146156;-0.00462249;-8.49238e-05;0.0216655;-0.00379883;0;0.0345519;-0.969475;-0.0748108;-0.138309;0.982145;-6.22755;0.0007604;-0.000156434;0.000504475;0.000834542;0.000430333;0.000202104;-1.50731;-0.663433;0.000481902;0.000269473;-1.93929;-0.515652;13.662;58.662;-0.00141175;0.000755404;0.00285234;-0.00316597;0.000500421;0.00581456;0.00336785;0;0.0198064;0.0200176
154000;155;25.7435;-0.0099444;-0.000386139;-2.16987;25.6431;-0.670331;-0.0613948;-0.017147;-0.0834593;-0.934362;-0.0799898;-0.074928;0.940768;-5.54786;-0.000240262;-0.000853252;-0.00111315;0.00028169;-0.0016351;0.000958396;-0.21584;-4.63307;0.00119508;0.00127786;0.172277;5.80461;19.4675;64.4675;-0.0100678;-0.000248119;0.00234529;-0.00405458;-0.00111554;0.0128652;-0.00295002;0;0.0364889;-0.996382;-0.071042;-0.142868;1.00908;-6.23211;0.000474027;6.30292e-06;0.000690313;0.000690497;0.000473844;0.000108327;-0.686684;-1.45627;0.000407772;0.000144435;-1.45722;-0.686236;126.644;171.644;-0.00136964;0.000471013;0.00246903;-0.00245589;0.000687267;0.00397302;0.00469762;0;0.0161381;0.0200164
155000;156;25.7482;-0.005162;-0.00020044;-2.17238;25.648;-0.658123;-0.0639045;-0.0122422;-0.0712509;-0.95385;-0.0755876;-0.0869362;0.960781;-5.55987;-0.000139391;-0.00162649;-0.00345159;0.000525743;-0.00411673;0.00232124;-0.0403846;-24.7619;0.00293547;0.00309498;0.127709;7.8303;36.0993;81.0993;-0.0116113;-0.000151518;0.00192138;-0.00518613;-0.00345212;0.019112;0.0042592;0;0.0313851;-1.01801;-0.0695696;-0.144585;1.03057;-6.23383;0.00111303;-0.000205488;0.0010768;0.0013012;0.000888629;0.000206285;-1.03364;-0.967451;0.000767824;0.000275046;-1.46428;-0.682931;170.72;35.7201;-0.00120491;0.00110935;0.0023109;-0.00272196;0.00107415;0.00308818;0.00166692;0;0.0203561;0.0200468
156000;157;25.7518;-0.001631;-6.33314e-05;-2.18132;25.6511;-0.645344;-0.0728435;-0.00913131;-0.0584721;-0.972647;-0.0726244;-0.0892157;0.979426;-5.56215;-0.0013171;-0.00195212;-0.000355551;0.00117413;-0.00284678;0.00201045;-3.70439;-0.26995;0.00238748;0.0026806;0.412441;2.42459;179.481;44.4807;-0.0117298;-0.00133089;0.00169921;-0.00559991;-0.000355089;0.0187489;-0.00201727;0;0.0366187;-1.04285;-0.0679306;-0.139637;1.05434;-6.22888;0.000599767;6.9279e-05;0.000358115;0.00061822;0.000339662;0.000139279;-1.67479;-0.597089;0.00035751;0.000185705;-1.8201;-0.54942;56.2661;101.266;-0.00282763;0.000592818;0.00386736;-0.00372972;0.000350641;0.00449214;0.00674037;0;0.0162887;0.0201032
157000;158;25.7449;-0.00847621;-0.00032913;-2.18246;25.6436;-0.667595;-0.0739831;-0.01667;-0.0807227;-0.989125;-0.0740486;-0.0782545;0.994975;-5.55119;-0.000772759;-0.00148827;-0.000510799;0.000852241;-0.0021358;0.00149402;-1.51284;-0.661007;0.00177741;0.00199203;0.399027;2.5061;2.47679;47.4768;-0.0119746;-0.000784638;0.00211889;-0.00509446;-0.000511937;0.0184017;-0.00133524;0;0.0349396;-1.06267;-0.0636262;-0.146394;1.07459;-6.23604;0.000658612;-0.000131869;0.000709141;0.000818144;0.00054961;0.000134267;-0.928746;-1.07672;0.000481558;0.000179023;-1.48859;-0.671777;167.789;32.7886;-0.00104045;0.000654177;0.00271874;-0.00298233;0.000705457;0.00349327;-4.49979e-05;0;0.0160789;0.0200359
158000;159;25.7477;-0.00567474;-0.000220349;-2.18486;25.6464;-0.659154;-0.0763786;-0.013843;-0.0722821;-1.0019;-0.0705059;-0.0783107;1.00742;-5.55125;0.000180324;-0.00121925;-0.00309856;0.000584002;-0.00350224;0.00204312;0.0581961;17.1833;0.00255186;0.00272416;0.166751;5.99696;36.5865;81.5865;-0.0118758;0.0001673;0.00279616;-0.00524784;-0.00310173;0.0146678;0.00171493;0;0.0335837;-1.07778;-0.0612666;-0.140335;1.0886;-6.22958;0.00109813;-0.000211055;0.000666506;0.00118418;0.000580459;0.000301859;-1.64759;-0.606948;0.000683728;0.000402478;-2.04007;-0.490179;14.8237;59.8237;-0.00247387;0.00109268;0.00288657;-0.00331002;0.000662365;0.00562503;-0.000119422;0;0.0161803;0.019997
159000;160;25.7499;-0.00351988;-0.000136676;-2.18922;25.6484;-0.651088;-0.0807367;-0.0118453;-0.0642163;-1.01578;-0.0641944;-0.0867134;1.02149;-5.55965;0.000468725;-0.00171206;-0.00379666;0.00107091;-0.00439884;0.00273487;0.123457;8.09998;0.00334713;0.0036465;0.243452;4.10759;36.3685;81.3685;-0.0137849;0.000452691;0.0024752;-0.00591722;-0.00379827;0.0235171;0.00571489;0;0.0367152;-1.09593;-0.0586427;-0.130136;1.10518;-6.21938;0.000612057;0.000224778;0.000202207;0.000711302;0.000102963;0.00030417;-3.02688;-0.330373;0.000443879;0.00040556;-6.90835;-0.144752;66.3304;111.33;-0.00426081;0.000601608;0.00502597;-0.00457839;0.000189605;0.00761806;0.00327825;0;0.0163401;0.0200621
160000;161;25.7505;-0.00286902;-0.000111404;-2.19546;25.6487;-0.642191;-0.0869767;-0.0115009;-0.0553193;-1.02798;-0.0601337;-0.0881161;1.0335;-5.56105;-0.00052542;-0.00176899;-0.000552;0.00123033;-0.00230775;0.00176904;-0.951848;-1.05059;0.00207404;0.00235872;0.53313;1.87572;3.8573;48.8573;-0.0131935;-0.000541352;0.00237599;-0.00591405;-0.000553259;0.0218346;0.000727293;0;0.0361713;-1.11307;-0.0527137;-0.135797;1.12257;-6.22504;0.000433832;0.000122662;0.000656045;0.000710439;0.000379437;0.000165501;-0.661284;-1.51221;0.00041049;0.000220668;-1.87235;-0.534088;106.864;151.864;-0.00362322;0.000427373;0.00384322;-0.00359707;0.000648672;0.00433344;-0.000409572;0;0.0166832;0.0200808
161000;162;25.7463;-0.00707625;-0.00027477;-2.19473;25.6443;-0.654044;-0.0862544;-0.0159625;-0.0671717;-1.03898;-0.0613314;-0.0779295;1.0437;-5.55086;-0.000722;-0.0014259;0.000510366;0.00144752;-0.00165916;0.00155334;1.41467;0.706878;0.00179503;0.00207112;0.872445;1.1462;168.942;33.9419;-0.0134516;-0.000737896;0.00296758;-0.00581393;0.000506981;0.0183056;-0.00476762;0;0.0348565;-1.12477;-0.0509137;-0.135519;1.13405;-6.22476;0.000742621;-5.17586e-05;0.000750124;0.000798267;0.000694478;5.18943e-05;-0.989998;-1.0101;0.000501177;6.91925e-05;-1.14945;-0.869982;172.066;37.066;-0.00276067;0.000735844;0.00357968;-0.00368316;0.000743723;0.00369389;-0.000972069;0;0.0175135;0.0201851
162000;163;25.7453;-0.00811505;-0.000315106;-2.19535;25.643;-0.658897;-0.0868677;-0.0171822;-0.0720248;-1.0489;-0.0611873;-0.0751266;1.05336;-5.54806;-0.000478214;-0.000955123;-0.00136552;0.000131267;-0.001975;0.00105313;-0.350207;-2.85545;0.00136253;0.00140418;0.0664646;15.0456;18.6765;63.6765;-0.0119158;-0.000490737;0.0031799;-0.0050938;-0.00137012;0.0134681;-0.00133053;0;0.0317531;-1.13575;-0.0494103;-0.136717;1.14502;-6.22596;0.00123358;-0.000299903;0.000477745;0.00133812;0.000373208;0.000482458;-2.5821;-0.387282;0.000797345;0.000643277;-3.58547;-0.278904;18.6128;63.6128;-0.00300781;0.00122689;0.00307102;-0.00367337;0.000473077;0.00552471;0.00183736;0;0.0181497;0.0201702
163000;164;25.7465;-0.00689703;-0.00026781;-2.1994;25.644;-0.654005;-0.0909256;-0.0161818;-0.0671334;-1.05725;-0.0604436;-0.0751863;1.06164;-5.54812;-9.70527e-05;-0.000974588;-0.00250289;0.0002482;-0.00284814;0.00154817;-0.0387762;-25.789;0.00198667;0.00206423;0.0871446;11.4752;33.7834;78.7834;-0.0119144;-0.00011067;0.00334904;-0.00530863;-0.00250804;0.0113757;0.00210998;0;0.0372502;-1.14728;-0.0498994;-0.128872;1.15557;-6.21811;0.000673619;4.99841e-05;0.00010004;0.000677942;9.57166e-05;0.000291113;-6.7335;-0.148511;0.000423675;0.00038815;-7.0828;-0.141187;47.4828;92.4828;-0.00469513;0.000663187;0.00466687;-0.00456955;8.91523e-05;0.00833044;0.00158834;0;0.0167322;0.0201237
164000;165;25.7478;-0.005591;-0.000217097;-2.20329;25.6451;-0.652319;-0.0948068;-0.0151608;-0.0654475;-1.06508;-0.0563397;-0.0825728;1.06977;-5.55551;0.000459017;-0.00118868;-0.00425099;0.000742006;-0.00453397;0.00263799;0.107979;9.26106;0.00329793;0.00351732;0.163655;6.11043;42.541;87.541;-0.0138492;0.000442395;0.0034888;-0.00588826;-0.00425639;0.0173903;0.00483743;0;0.035477;-1.15909;-0.0478416;-0.130082;1.16735;-6.21973;0.00084219;0.000447127;0.000181237;0.00106771;-4.42874e-05;0.000556001;-4.64689;-0.215198;0.000727022;0.000741335;24.1088;0.0414787;68.8287;113.829;-0.00628673;0.000831453;0.00554827;-0.0046574;0.000165948;0.0113803;-0.000967146;0;0.0154262;0.0200873
165000;166;25.7503;-0.00307251;-0.000119305;-2.20589;25.6475;-0.646344;-0.097408;-0.0127046;-0.0594726;-1.07375;-0.0545096;-0.0879512;1.07872;-5.56089;0.000315146;-0.0016769;-0.00348023;0.000949889;-0.00411497;0.00253243;0.0905533;11.0432;0.0031087;0.00337657;0.230838;4.33205;33.4366;78.4366;-0.0137895;0.000295957;0.00304704;-0.00641879;-0.00348347;0.0190075;0.00391243;0;0.0311517;-1.17083;-0.0457336;-0.134716;1.17944;-6.22436;0.000166589;0.000175479;0.000547893;0.000616357;9.81248e-05;0.000259116;-0.304054;-3.28889;0.000382416;0.000345488;-6.28136;-0.159201;111.18;156.18;-0.00389233;0.00015862;0.00434894;-0.00399639;0.000538457;0.00421833;0.00258116;0;0.0164459;0.0201557
166000;167;25.7502;-0.00324315;-0.000125931;-2.20744;25.6474;-0.639961;-0.0989561;-0.012849;-0.0530893;-1.08055;-0.0533757;-0.0883085;1.08547;-5.56124;-0.000102507;-0.00161886;-0.00187679;0.000856359;-0.00283565;0.001846;-0.0546185;-18.3088;0.00223135;0.00246134;0.301997;3.31129;20.2191;65.2191;-0.0139685;-0.000121278;0.00309094;-0.00633701;-0.00188026;0.0218798;0.00619467;0;0.0330806;-1.17932;-0.0449966;-0.133585;1.18772;-6.22283;0.00051868;2.40176e-05;0.000638005;0.000642657;0.000514027;6.43151e-05;-0.812972;-1.23005;0.000392649;8.57535e-05;-1.25024;-0.799846;119.681;164.681;-0.00428023;0.000511462;0.00384893;-0.00380044;0.000630602;0.00483286;-0.00122426;0;0.0185177;0.0200611
167000;168;25.7513;-0.00214893;-8.34424e-05;-2.21003;25.6483;-0.639733;-0.101551;-0.0119682;-0.0528616;-1.08738;-0.0532972;-0.0863226;1.0921;-5.55926;-0.000505995;-0.00128881;0.000145615;0.00114916;-0.00150954;0.00132935;3.47488;0.28778;0.0015397;0.00177247;0.761265;1.3136;173.874;38.8738;-0.0147729;-0.00052474;0.00368118;-0.00625552;0.000139671;0.0211014;0.000713001;0;0.0338829;-1.18777;-0.0434715;-0.134319;1.19613;-6.22396;0.000968724;-4.51853e-05;0.000543295;0.000973471;0.000538549;0.000217461;-1.78305;-0.560836;0.000563094;0.000289948;-1.80758;-0.553226;33.5092;78.5092;-0.00377397;0.000960804;0.00389013;-0.00398217;0.000535734;0.0077229;-0.000282128;0;0.0185406;0.0200861
168000;169;25.7502;-0.00324465;-0.000125989;-2.21112;25.6471;-0.640482;-0.102637;-0.0131806;-0.0536103;-1.09463;-0.0544303;-0.0795545;1.09886;-5.55249;-0.000723448;-0.00104485;0.000935442;0.00144005;-0.00122806;0.00133405;0.773375;1.29303;0.00154205;0.00177874;1.17263;0.852787;160.108;25.1077;-0.0146176;-0.000741651;0.00404009;-0.00612135;0.000927834;0.0171971;-0.00660334;0;0.0443741;-1.19532;-0.0435234;-0.131912;1.20336;-6.22115;0.00104157;-2.20384e-05;0.000648726;0.00104281;0.000647493;0.000197656;-1.60557;-0.622832;0.000607904;0.000263542;-1.61053;-0.620914;36.3335;81.3335;-0.00474167;0.00103167;0.0044075;-0.00445332;0.000639019;0.00767628;-0.000179344;0;0.0216965;0.0201021
169000;170;25.7465;-0.00691656;-0.000268569;-2.21241;25.643;-0.652436;-0.103931;-0.0172802;-0.065564;-1.10023;-0.054526;-0.0748587;1.10413;-5.54779;-0.00105186;-0.00126452;0.000979707;0.00158591;-0.00165806;0.00162198;1.07365;0.9314;0.00187306;0.00216265;0.956481;1.0455;160.737;25.7374;-0.0149513;-0.00107188;0.00393075;-0.00644921;0.000972788;0.0196617;-0.00449601;0;0.0319639;-1.20318;-0.0434362;-0.124742;1.21041;-6.21398;0.000796055;2.94316e-05;0.000400013;0.00079823;0.000397838;0.000200196;-1.99007;-0.502494;0.000460859;0.000266928;-2.00642;-0.4984;45.8043;90.8043;-0.00582336;0.000783242;0.00512116;-0.00506432;0.000386906;0.00926517;-9.4304e-05;0;0.0189937;0.0201284
170000;171;25.7467;-0.00669998;-0.000260159;-2.21664;25.6428;-0.652221;-0.108163;-0.0174228;-0.0653495;-1.10571;-0.0544752;-0.0733935;1.10949;-5.54633;-0.000494385;-0.00135893;-8.34574e-06;0.00112912;-0.00163185;0.00138049;;;0.00160284;0.00184065;0.691927;1.44524;176.28;41.2804;-0.0134826;-0.000514051;0.00370017;-0.00641554;-1.42681e-05;0.0141655;-0.00382288;0;0.0352322;-1.21189;-0.0426533;-0.125706;1.21914;-6.21495;0.000730543;0.000404528;0.000161293;0.000940544;-4.87069e-05;0.000494625;-4.52928;-0.220785;0.000643879;0.0006595;19.3103;0.0517859;70.3286;115.329;-0.00714438;0.00071308;0.00673121;-0.00592577;0.000138724;0.0106193;-0.000506043;0;0.0155799;0.0201537
171000;172;25.7458;-0.00761725;-0.000295776;-2.21972;25.6415;-0.655792;-0.111245;-0.0187014;-0.0689202;-1.11071;-0.0531081;-0.0746267;1.11448;-5.54756;-0.000545113;-0.00140372;-0.000953691;0.000669104;-0.00216791;0.00141851;-0.571582;-1.74953;0.00171245;0.00189134;0.308641;3.24002;8.21704;53.217;-0.0144569;-0.000565519;0.00372968;-0.00653918;-0.000959667;0.0162482;-0.00148017;0;0.0328143;-1.22064;-0.0405724;-0.127698;1.22797;-6.21734;0.000757655;0.000597365;0.000268893;0.00115869;-0.000132146;0.00064542;-2.81769;-0.354901;0.000820068;0.00086056;8.7683;0.114047;76.2179;121.218;-0.00675538;0.000744846;0.00629043;-0.0050985;0.000249291;0.00855741;-0.000582141;0;0.0149968;0.0201056
172000;173;25.7447;-0.00872039;-0.000338611;-2.22169;25.6402;-0.659412;-0.113208;-0.0200719;-0.0725403;-1.11441;-0.0530541;-0.0741183;1.11813;-5.54705;-0.000222228;-0.00127967;-0.00178813;0.000495006;-0.00250537;0.00150019;-0.124279;-8.04641;0.00185737;0.00200025;0.197578;5.06129;21.2742;66.2742;-0.0136052;-0.000241524;0.00377485;-0.00634208;-0.00179445;0.0158411;0.00103441;0;0.0326329;-1.22681;-0.0395969;-0.129521;1.23426;-6.21876;0.000536708;0.000316151;0.000319427;0.000762364;9.37716e-05;0.000334296;-1.68022;-0.595161;0.000480048;0.000445728;-8.13001;-0.123001;78.1306;123.131;-0.00502799;0.000524366;0.00561078;-0.00497964;0.000303742;0.00592025;-0.000275898;0;0.0164691;0.0200928
173000;174;25.7477;-0.00569082;-0.000220973;-2.22252;25.6434;-0.650018;-0.114036;-0.0168619;-0.0631462;-1.11914;-0.0499855;-0.0816002;1.12323;-5.55454;0.00014419;-0.00139935;-0.00348831;0.000620741;-0.00396486;0.0022928;0.0413353;24.1924;0.0028726;0.00305707;0.15656;6.38731;34.543;79.543;-0.0152988;0.000121209;0.00410426;-0.00692297;-0.00349578;0.0227076;0.00352497;0;0.0295225;-1.23326;-0.037868;-0.134291;1.24113;-6.22353;0.000303233;0.000131889;0.000646308;0.000691149;0.000258392;0.000216379;-0.469178;-2.13139;0.000403246;0.000288505;-2.67481;-0.373859;113.19;158.19;-0.00499705;0.000293401;0.00470242;-0.00443708;0.000635267;0.00524479;0.000390644;0;0.0210575;0.0200723
174000;175;25.7493;-0.00413625;-0.00016061;-2.22427;25.6449;-0.644213;-0.115786;-0.0153063;-0.0573416;-1.1238;-0.0481659;-0.0871446;1.1282;-5.56008;0.000457127;-0.0017173;-0.00371397;0.00107318;-0.00433002;0.0027016;0.123083;8.12459;0.00330304;0.00360213;0.247846;4.03476;33.1582;78.1582;-0.0155473;0.000431065;0.00396431;-0.00742264;-0.00372037;0.0178285;0.00265706;0;0.0340065;-1.2389;-0.0364887;-0.136699;1.24696;-6.22634;0.000709371;9.99711e-07;0.000598061;0.00070938;0.000598052;5.56642e-05;-1.18612;-0.843086;0.000440525;7.42189e-05;-1.18615;-0.843062;41.3054;86.3054;-0.00459973;0.00069931;0.00448888;-0.00448738;0.000587992;0.00575974;-0.00371755;0;0.0189659;0.020179
175000;176;25.7508;-0.00258123;-0.000100229;-2.22357;25.6466;-0.641231;-0.11509;-0.0136099;-0.0543588;-1.12855;-0.0480113;-0.0842493;1.13271;-5.55718;0.000183643;-0.00181934;-0.00485651;0.000771745;-0.00544461;0.00310818;0.0378138;26.4454;0.00391244;0.00414424;0.141745;7.05493;38.1582;83.1582;-0.0167467;0.000157013;0.00385454;-0.00752189;-0.00486231;0.0257811;0.00397068;0;0.0315222;-1.24441;-0.0363402;-0.132778;1.25201;-6.22202;0.000937069;-0.000110996;0.000573186;0.000968254;0.000542002;0.000213126;-1.63484;-0.61168;0.000560352;0.000284168;-1.78644;-0.559772;24.5014;69.5014;-0.00477051;0.000926345;0.00441111;-0.00463475;0.000563469;0.00518584;-0.00216248;0;0.0207285;0.0202052
176000;177;25.7509;-0.00246119;-9.55675e-05;-2.22552;25.6466;-0.640011;-0.117045;-0.0136284;-0.0531391;-1.13122;-0.043739;-0.0911041;1.13573;-5.56404;0.000306129;-0.00172553;-0.00318549;0.00101497;-0.00389433;0.00245465;0.096101;10.4057;0.00299248;0.00327287;0.260628;3.83689;29.6205;74.6205;-0.0160796;0.000279686;0.00400416;-0.00747524;-0.00319204;0.019173;0.00366227;0;0.0346518;-1.24847;-0.0333503;-0.135328;1.25622;-6.22457;0.00123442;-4.58677e-05;0.000677627;0.00123817;0.000673873;0.000282148;-1.82168;-0.548945;0.00071579;0.000376197;-1.83739;-0.54425;34.3801;79.3801;-0.00486285;0.00122364;0.0045503;-0.00464459;0.000667282;0.0075954;-0.000549563;0;0.019108;0.0202755
177000;178;25.7519;-0.00154499;-5.99915e-05;-2.22709;25.6475;-0.636632;-0.118613;-0.0127605;-0.0497606;-1.13419;-0.0426714;-0.0892616;1.13849;-5.5622;-4.36911e-05;-0.00182405;-0.00192878;0.00106695;-0.00303942;0.00205318;-0.0226522;-44.1458;0.00246029;0.00273758;0.351037;2.8487;18.5675;63.5675;-0.0166922;-6.96863e-05;0.00377875;-0.00743738;-0.00193426;0.0224058;0.00411684;0;0.0314682;-1.2524;-0.0327681;-0.130479;1.25961;-6.21972;0.00118746;-2.36562e-05;0.000653622;0.00118851;0.000652576;0.000267966;-1.81674;-0.550436;0.000687286;0.000357288;-1.82126;-0.549071;37.1057;82.1057;-0.00505147;0.0011752;0.00490435;-0.00495429;0.000641604;0.00674418;0.000907121;0;0.0192883;0.0201907
178000;179;25.7528;-0.000625629;-2.42931e-05;-2.22781;25.6486;-0.627071;-0.119328;-0.0116639;-0.0401989;-1.13695;-0.042174;-0.0841029;1.14084;-5.55704;-0.00020239;-0.0019303;-0.0019615;0.0010393;-0.00320319;0.00212125;-0.103181;-9.69169;0.0025534;0.00282833;0.324459;3.08206;17.4316;62.4316;-0.0173791;-0.000230571;0.00388012;-0.0077509;-0.00196717;0.0252254;0.00277057;0;0.03191;-1.25611;-0.0323474;-0.122755;1.26251;-6.212;0.00106529;-3.32614e-05;0.000453418;0.00106709;0.000451615;0.000307738;-2.34946;-0.425629;0.000618502;0.000410317;-2.36283;-0.423221;37.6312;82.6312;-0.0064043;0.00105184;0.00511865;-0.00518832;0.000440324;0.00938573;0.00119783;0;0.0192658;0.0201794
179000;180;25.7524;-0.000972966;-3.77801e-05;-2.22845;25.6481;-0.628724;-0.119971;-0.012109;-0.0418518;-1.13985;-0.0386883;-0.0889418;1.14397;-5.56188;0.000120642;-0.00174908;-0.00169989;0.00118214;-0.00276139;0.00197177;0.0709705;14.0904;0.00233686;0.00262902;0.428097;2.33592;17.6099;62.6099;-0.0176111;9.44216e-05;0.00394173;-0.00745021;-0.00170614;0.0275187;0.00193438;0;0.0321202;-1.25983;-0.0297649;-0.125739;1.26644;-6.21498;0.0011403;0.000121751;0.000575907;0.00116545;0.000550763;0.000307342;-1.98001;-0.505047;0.000673209;0.00040979;-2.11606;-0.472577;52.2038;97.2038;-0.00636274;0.00112551;0.00568465;-0.00544429;0.000559766;0.0084792;-0.000976724;0;0.0187153;0.0201666
180000;181;25.7534;4.18467e-05;1.6249e-06;-2.23031;25.649;-0.626241;-0.121827;-0.0111907;-0.0393692;-1.14313;-0.0378301;-0.0881623;1.14715;-5.5611;4.18119e-05;-0.0013418;-0.000399354;0.00118104;-0.00153858;0.00135981;0.104699;9.5512;0.00157469;0.00181308;0.767616;1.30274;5.48096;50.481;-0.0164964;1.7776e-05;0.00437605;-0.00706212;-0.000408032;0.0220552;-0.000869753;0;0.0317268;-1.26416;-0.0293116;-0.12275;1.27045;-6.21199;0.00093131;0.00024408;0.000130423;0.000999833;6.18998e-05;0.000468967;-7.14066;-0.140043;0.00064691;0.000625289;-16.1525;-0.0619101;58.2516;103.252;-0.0075121;0.000911808;0.0067359;-0.00625295;0.00010777;0.0128699;0.00141069;0;0.0188254;0.0202362
181000;182;25.7504;-0.00297976;-0.000115703;-2.23147;25.6456;-0.639457;-0.122996;-0.0146523;-0.0525849;-1.1465;-0.0414145;-0.0850447;1.1504;-5.55798;-0.000273007;-0.00132368;-5.45579e-05;0.0011644;-0.00149196;0.00132818;-5.00398;-0.199841;0.00153753;0.0017709;0.780447;1.28132;178.382;43.3817;-0.0178105;-0.000296842;0.00438305;-0.00702912;-6.32879e-05;0.0271705;-0.00256729;0;0.0309466;-1.26894;-0.0319606;-0.122883;1.27528;-6.21213;0.000580123;0.000491642;0.000252811;0.000934632;-0.000101698;0.000518165;-2.29469;-0.435788;0.000659606;0.000690887;9.19023;0.108811;78.9329;123.933;-0.00826388;0.000560642;0.00724408;-0.00626303;0.000226699;0.0136319;0.0011135;0;0.0170563;0.0202951
182000;183;25.7497;-0.00373934;-0.000145198;-2.23405;25.6446;-0.640423;-0.125574;-0.0156636;-0.0535515;-1.15148;-0.0431116;-0.0898648;1.15579;-5.5628;-0.000918367;-0.00201107;0.00150533;0.00264146;-0.00205449;0.00234798;0.610076;1.63914;0.00271826;0.00313064;1.2857;0.777787;163.009;28.0088;-0.0190374;-0.000949592;0.00414371;-0.00815089;0.00149878;0.0293488;-0.00632932;0;0.0325132;-1.2754;-0.0323215;-0.131621;1.28258;-6.22086;0.000856262;0.000666869;0.000142776;0.00125581;-0.000256775;0.000756294;-5.99725;-0.166743;0.000934632;0.00100839;4.89072;0.204469;73.7703;118.77;-0.00881143;0.000836789;0.00760765;-0.0062789;0.000114064;0.0130993;-0.000444894;0;0.017183;0.0203452
183000;184;25.7473;-0.00609867;-0.00023681;-2.23516;25.6418;-0.652913;-0.126678;-0.0184438;-0.0660414;-1.15539;-0.0461507;-0.0862849;1.15952;-5.55922;-0.00104346;-0.00159524;0.00116861;0.00200373;-0.00187858;0.00194116;0.892911;1.11993;0.00224184;0.00258821;1.06662;0.937544;162.25;27.25;-0.0191335;-0.00107148;0.0044724;-0.00764941;0.00115989;0.0262851;-0.00553962;0;0.0389446;-1.28033;-0.0339555;-0.135202;1.2879;-6.22444;0.000314588;0.000396488;0.000215578;0.00066465;-0.000134484;0.000399567;-1.45928;-0.685272;0.000494067;0.000532756;4.94222;0.202338;85.0987;130.099;-0.00712073;0.000298735;0.00643787;-0.00564551;0.000194938;0.0089521;-0.00123267;0;0.0153481;0.0203372
184000;185;25.7483;-0.00509807;-0.000197957;-2.23529;25.6428;-0.653712;-0.126816;-0.0174715;-0.0668397;-1.1568;-0.0462563;-0.0939351;1.16153;-5.56687;-0.00104678;-0.00149728;0.00170274;0.00236067;-0.0017047;0.00203268;0.614758;1.62666;0.0023573;0.00271024;1.3848;0.722126;157.073;22.0726;-0.0176299;-0.00107378;0.00451862;-0.0074966;0.00169367;0.0214377;-0.00737905;0;0.0444551;-1.28285;-0.0350077;-0.145695;1.29157;-6.23494;0.000397172;0.000495321;0.000225806;0.000814167;-0.000191189;0.000502678;-1.75891;-0.568534;0.00061647;0.000670237;4.25845;0.234827;83.4789;128.479;-0.00657503;0.000383093;0.00632011;-0.00533049;0.000205961;0.00822028;0.00344664;0;0.0190547;0.02025
185000;186;25.7459;-0.00752122;-0.000292048;-2.23497;25.6402;-0.659512;-0.126492;-0.0200249;-0.07264;-1.16147;-0.0524562;-0.080448;1.16543;-5.55338;-0.000927054;-0.00161262;0.00187547;0.00261057;-0.00166216;0.00213637;0.494305;2.02304;0.00248704;0.00284849;1.57059;0.636703;157.171;22.1713;-0.0169198;-0.000954936;0.00442786;-0.00763613;0.00186698;0.0200775;-0.00820506;0;0.0315719;-1.28736;-0.0386955;-0.136822;1.29519;-6.22606;0.000288259;0.00017007;0.000354387;0.000494577;0.000148069;0.000173254;-0.813401;-1.22941;0.000293106;0.000231006;-3.34019;-0.299384;93.6815;138.681;-0.00679785;0.00027526;0.0054428;-0.00510232;0.000339595;0.00870767;-0.000306643;0;0.0180246;0.0202884
186000;187;25.7452;-0.00820199;-0.000318482;-2.23557;25.6394;-0.663563;-0.127087;-0.0208649;-0.0766907;-1.1649;-0.0550337;-0.0795535;1.16891;-5.55249;-0.0012199;-0.00189825;0.000298833;0.00158397;-0.00250504;0.00204451;4.08221;0.244965;0.00238067;0.00272601;0.632314;1.58149;171.22;36.22;-0.0169007;-0.00124901;0.00407095;-0.00785832;0.00029235;0.020052;-0.00465587;0;0.0310252;-1.29149;-0.0409785;-0.141366;1.29985;-6.23061;0.000451942;-0.00013705;0.000464962;0.000595656;0.000321248;0.000137204;-0.971998;-1.02881;0.000344256;0.000182939;-1.85419;-0.539318;175.931;40.9307;-0.00455814;0.000438943;0.00482779;-0.00510182;0.000453323;0.00454077;0.000864579;0;0.0236676;0.0202673
187000;188;25.7447;-0.00870087;-0.000337853;-2.23457;25.6388;-0.667607;-0.126092;-0.0213841;-0.080735;-1.16721;-0.0582446;-0.0809552;1.17146;-5.55389;-0.00110188;-0.00157211;0.000132697;0.00120437;-0.00217355;0.00168896;8.3037;0.120428;0.00197682;0.00225194;0.554102;1.80472;171.572;36.5721;-0.0184955;-0.00112805;0.00426352;-0.00740049;0.000124845;0.0220607;-0.0042009;0;0.0331004;-1.29387;-0.0438285;-0.145592;1.30277;-6.23483;0.00028085;-0.000239119;0.000409418;0.000592743;9.7525e-05;0.000247609;-0.685975;-1.45778;0.000366999;0.000330145;-6.07786;-0.164532;170.391;35.3911;-0.00585486;0.000267681;0.00466077;-0.00513838;0.000398589;0.00524419;3.285e-05;0;0.0208654;0.0203786
188000;189;25.7453;-0.00805533;-0.000312787;-2.23606;25.6392;-0.673939;-0.127585;-0.0210317;-0.0870668;-1.16994;-0.0616915;-0.0800385;1.17429;-5.55297;-0.000537506;-0.00146627;-0.000954721;0.000734921;-0.00222715;0.00148103;-0.562998;-1.77621;0.00178102;0.00197471;0.329983;3.03046;7.61756;52.6176;-0.0167844;-0.000562986;0.00435083;-0.00728574;-0.000963119;0.0152605;-0.00245762;0;0.0318949;-1.29667;-0.0473102;-0.148292;1.30598;-6.23753;0.000357443;-0.000295828;0.000832291;0.000974188;0.000215546;0.000379321;-0.429469;-2.32846;0.000590864;0.000505761;-4.51963;-0.221257;157.201;22.2009;-0.00440634;0.000343143;0.00476786;-0.00535711;0.000820978;0.00263561;-0.00122577;0;0.0201774;0.020439
189000;190;25.748;-0.00541263;-0.000210171;-2.2362;25.6418;-0.676389;-0.127721;-0.0184544;-0.0895173;-1.17227;-0.0658346;-0.0812747;1.17692;-5.55421;-0.000563214;-0.00145197;-0.00194412;0.000354109;-0.00286145;0.00160778;-0.289701;-3.45184;0.00203596;0.0021437;0.123752;8.08069;18.7485;63.7485;-0.0177179;-0.000588353;0.00432403;-0.00723591;-0.00195243;0.018484;-0.00265808;0;0.0348367;-1.29956;-0.053536;-0.150182;1.30931;-6.23942;0.000569429;-0.000379316;0.000808561;0.00108671;0.00029128;0.000397715;-0.70425;-1.41995;0.000649528;0.000530286;-3.73081;-0.268039;167.122;32.1223;-0.00358255;0.000555944;0.004451;-0.00520847;0.000798735;0.00175334;0.00101784;0;0.0200638;0.0202803
190000;191;25.7472;-0.00624479;-0.000242484;-2.23644;25.6409;-0.67758;-0.127962;-0.0193425;-0.0907078;-1.17426;-0.0695546;-0.0797109;1.17902;-5.55265;-0.000726325;-0.00158405;-0.00300885;8.47698e-05;-0.00381995;0.00195236;-0.241396;-4.14257;0.00257535;0.00260315;0.0221913;45.0626;26.8476;71.8476;-0.0175297;-0.000751758;0.00412217;-0.00730329;-0.00301612;0.0189294;0.00103234;0;0.0368351;-1.30175;-0.0566096;-0.151852;1.3118;-6.24109;0.000912632;-0.000319717;0.000916618;0.00123435;0.000594902;0.000319724;-0.995652;-1.00437;0.000712806;0.000426298;-2.07488;-0.481956;174.278;39.2775;-0.00394313;0.000899953;0.00440871;-0.00504812;0.00090696;0.00406176;0.00183375;0;0.0175837;0.0204457
191000;192;25.7479;-0.00547055;-0.000212421;-2.23581;25.6416;-0.680391;-0.127328;-0.0185842;-0.0935187;-1.17746;-0.072723;-0.0817873;1.18253;-5.55472;-0.000129036;-0.0013664;-0.00290954;0.000430028;-0.00346861;0.00194932;-0.0443493;-22.5483;0.00246827;0.00259909;0.123977;8.06601;29.9904;74.9904;-0.0166633;-0.000153891;0.00443227;-0.00718118;-0.00291846;0.0188356;0.00242146;0;0.047257;-1.30514;-0.0605155;-0.155845;1.31581;-6.24509;0.000989614;-0.00025969;0.00109869;0.00130951;0.000778797;0.000265355;-0.900721;-1.11022;0.000760553;0.000353806;-1.68145;-0.594726;167.495;32.4948;-0.00463525;0.000978248;0.00425821;-0.00477709;0.00108967;0.00506571;0.002438;0;0.0176365;0.020257
192000;193;25.7501;-0.00325776;-0.000126498;-2.23652;25.6439;-0.677152;-0.128036;-0.0163382;-0.0902797;-1.18093;-0.075517;-0.0871213;1.18655;-5.56006;-2.65252e-05;-0.00160417;-0.00474276;0.000467387;-0.00523667;0.00285203;-0.00559277;-178.802;0.00365688;0.00380271;0.0892527;11.2041;38.9975;83.9975;-0.0169387;-5.26197e-05;0.0041644;-0.00740002;-0.00475018;0.0204625;0.00296191;0;0.0502867;-1.30859;-0.0641699;-0.160561;1.31996;-6.2498;0.00110559;-0.000261071;0.00121558;0.00142739;0.000893786;0.000266801;-0.909514;-1.09949;0.000832802;0.000355735;-1.59701;-0.626169;167.091;32.0909;-0.00453088;0.00109317;0.00447161;-0.00499323;0.00120563;0.00546546;0.00105264;0;0.0193702;0.0203918
193000;194;25.7496;-0.00384818;-0.000149424;-2.23623;25.6433;-0.677921;-0.12775;-0.0169265;-0.0910496;-1.18353;-0.0785975;-0.0905231;1.18959;-5.56346;1.15549e-05;-0.00156115;-0.00508343;0.000451855;-0.00552373;0.00298779;0.00227306;439.936;0.00384197;0.00398372;0.0818025;12.2246;41.1944;86.1944;-0.017981;-1.35089e-05;0.00409893;-0.00725016;-0.00509065;0.0226557;0.00575945;0;0.0518264;-1.31127;-0.0674177;-0.165385;1.32338;-6.25463;0.00148926;-0.000179951;0.00088451;0.00153876;0.000835014;0.000351872;-1.68371;-0.593925;0.000889479;0.000469162;-1.84279;-0.542655;22.4594;67.4594;-0.0051239;0.0014774;0.00451573;-0.00487847;0.000874339;0.00449949;0.00311478;0;0.0221819;0.0206688
194000;195;25.7512;-0.0021639;-8.40238e-05;-2.23708;25.645;-0.67383;-0.1286;-0.0152015;-0.0869581;-1.18695;-0.0816007;-0.0877817;1.19298;-5.56072;0.00012538;-0.00136605;-0.0048343;0.000476741;-0.00518566;0.0028312;0.0259355;38.5572;0.00362648;0.00377493;0.0919346;10.8773;41.4957;86.4957;-0.0176574;0.000100403;0.00443799;-0.00719897;-0.00484325;0.0213368;0.00615426;0;0.0443668;-1.31561;-0.0700583;-0.162359;1.32744;-6.2516;0.00150462;-0.000106056;0.000830442;0.00152091;0.000814151;0.000353378;-1.81183;-0.551929;0.000878826;0.000471171;-1.86809;-0.535306;29.9541;74.9541;-0.00646644;0.00149013;0.00517212;-0.00538779;0.000817083;0.00930805;0.00141594;0;0.0177064;0.0210146
195000;196;25.7508;-0.00255188;-9.9089e-05;-2.23872;25.6444;-0.676864;-0.13024;-0.0158141;-0.0899919;-1.19182;-0.0807597;-0.0918008;1.19808;-5.56474;3.53741e-05;-0.00151771;-0.00459677;0.000488352;-0.00504975;0.00276905;0.00769543;129.947;0.00354053;0.00369207;0.0967082;10.3404;38.7878;83.7878;-0.0176252;8.61539e-06;0.00440847;-0.00747142;-0.00460538;0.0214179;0.0067063;0;0.0463988;-1.3213;-0.0702287;-0.164042;1.33329;-6.25328;0.00178918;-3.57574e-05;0.0006074;0.00179027;0.000606319;0.000591973;-2.94564;-0.339484;0.00105139;0.000789297;-2.95268;-0.338676;36.8928;81.8928;-0.00705115;0.00177461;0.00532601;-0.00540385;0.000593226;0.0108849;0.00208486;0;0.0194394;0.0211028
196000;197;25.7515;-0.00187943;-7.29778e-05;-2.23879;25.6451;-0.675943;-0.13031;-0.0151207;-0.0890712;-1.19505;-0.0797551;-0.097375;1.20166;-5.57031;0.00032186;-0.00145876;-0.00393182;0.000774059;-0.00438401;0.00257904;0.0818605;12.2159;0.00321194;0.00343872;0.176564;5.66367;36.1073;81.1073;-0.0182709;0.000295311;0.00448974;-0.00743262;-0.00394087;0.0248545;0.00642083;0;0.0469838;-1.32538;-0.0695991;-0.167869;1.33778;-6.25711;0.00131761;0.000143928;0.000609168;0.00134573;0.000581044;0.000382343;-2.16296;-0.46233;0.000779365;0.00050979;-2.31605;-0.431769;51.2312;96.2312;-0.00745823;0.00130181;0.00591042;-0.00562666;0.000591723;0.0117265;0.00382641;0;0.018487;0.0209439
197000;198;25.7534;-3.05975e-05;-1.18809e-06;-2.24128;25.647;-0.667684;-0.1328;-0.0132653;-0.0808121;-1.19777;-0.0800004;-0.0981046;1.20444;-5.57104;-9.2838e-05;-0.00153501;-0.00318066;0.000540387;-0.00381389;0.00217714;-0.0291882;-34.2604;0.00274054;0.00290285;0.141689;7.0577;30.1667;75.1667;-0.0185869;-0.000119835;0.0044179;-0.00750631;-0.00318927;0.0240469;0.00690284;0;0.0396476;-1.32953;-0.0698217;-0.167551;1.34186;-6.25679;0.00153652;0.000369748;0.000327423;0.00164063;0.000223317;0.000708657;-4.69278;-0.213093;0.00102744;0.000944876;-7.34665;-0.136116;56.4194;101.419;-0.00801311;0.00151907;0.00665628;-0.0059244;0.000305345;0.0122044;0.00401214;0;0.016523;0.0211606
198000;199;25.7499;-0.00345821;-0.000134282;-2.24219;25.6432;-0.677168;-0.133711;-0.0170355;-0.0902965;-1.2006;-0.079091;-0.0991626;1.20729;-5.5721;-3.82874e-05;-0.00152627;-0.00304492;0.000600701;-0.0036839;0.0021423;-0.0125742;-79.5278;0.00267872;0.0028564;0.163061;6.13268;29.5659;74.5659;-0.0187063;-6.4449e-05;0.00432242;-0.00739255;-0.00305312;0.0246362;0.0045037;0;0.0412713;-1.33382;-0.0687224;-0.169781;1.34634;-6.25902;0.000677411;0.000589765;0.000244998;0.00108935;-0.000166942;0.000628147;-2.76496;-0.361669;0.0007878;0.000837529;6.52533;0.153249;77.9479;122.948;-0.00828249;0.000657051;0.00758708;-0.0064106;0.000216397;0.0140472;0.00511546;0;0.0159591;0.0209752
199000;200;25.7509;-0.00251064;-9.74879e-05;-2.24487;25.6441;-0.671017;-0.13639;-0.0161567;-0.0841448;-1.20327;-0.0795211;-0.0975028;1.20983;-5.57044;-0.000283731;-0.00100968;-0.00176146;0.00022855;-0.00227374;0.00125115;-0.161077;-6.2082;0.00159747;0.0016682;0.100517;9.94858;22.919;67.919;-0.0178412;-0.0003072;0.00489604;-0.0069241;-0.00177296;0.0216641;0.00211715;0;0.0453534;-1.33852;-0.0690247;-0.166721;1.35063;-6.25596;0.000439103;0.000576716;0.000527745;0.00106184;-9.49923e-05;0.000578416;-0.832036;-1.20187;0.000741588;0.000771222;11.1782;0.0894601;90.1058;135.106;-0.00736153;0.00041902;0.00751923;-0.00636522;0.000499656;0.0115602;0.00379965;0;0.0214732;0.0212125
200000;201;25.7512;-0.00224063;-8.70031e-05;-2.24549;25.6442;-0.674561;-0.137009;-0.0160327;-0.087689;-1.20731;-0.0822083;-0.0942393;1.21377;-5.56717;-0.000513127;-0.00198388;-0.00126016;0.0011321;-0.00290538;0.00201874;-0.407193;-2.45584;0.00240482;0.00269165;0.389655;2.56637;9.48919;54.4892;-0.0189406;-0.000542585;0.00395372;-0.00792586;-0.00126601;0.0256014;0.000862292;0;0.04512;-1.34354;-0.0710738;-0.165367;1.35554;-6.25461;0.000466034;0.000491577;0.000229065;0.000853204;-0.000158105;0.000505655;-2.03451;-0.491519;0.000628172;0.000674206;5.39643;0.185308;81.5954;126.595;-0.00758175;0.000448248;0.00696755;-0.00598595;0.000204917;0.00982666;0.000234014;0;0.0214835;0.0212456
201000;202;25.7511;-0.00228054;-8.85531e-05;-2.24591;25.6443;-0.666472;-0.13743;-0.0158981;-0.0796001;-1.2102;-0.0850866;-0.0953795;1.21693;-5.56831;-0.000845533;-0.00153129;0.000385274;0.00142019;-0.00188045;0.00165032;2.19463;0.455658;0.00191179;0.00220043;0.75524;1.32408;170.078;35.0776;-0.0192047;-0.000872237;0.00440852;-0.00746374;0.000376732;0.0286842;-0.00318836;0;0.0427939;-1.34688;-0.0730475;-0.167701;1.35924;-6.25694;0.000283264;0.000292925;0.000227947;0.000549833;-3.86223e-05;0.000294228;-1.24267;-0.804717;0.000380084;0.000392304;14.2362;0.0702436;85.9933;130.993;-0.00736413;0.000267145;0.0062717;-0.00568619;0.000208327;0.00855649;0.000522537;0;0.0211482;0.0212892
202000;203;25.75;-0.00344446;-0.000133748;-2.24428;25.6431;-0.672704;-0.1358;-0.0170869;-0.0858317;-1.21365;-0.0845002;-0.0944636;1.22025;-5.5674;-0.00110612;-0.00150663;0.00134469;0.00206133;-0.00182276;0.00194204;0.822579;1.21569;0.00224389;0.00258939;1.13089;0.884261;159.803;24.8033;-0.0188207;-0.00113515;0.00476541;-0.00776325;0.00133449;0.0255661;-0.00649805;0;0.042912;-1.34936;-0.0720516;-0.170368;1.36198;-6.25961;0.00024884;0.000196129;0.000282769;0.000462666;6.8943e-05;0.000196861;-0.88001;-1.13635;0.000288224;0.000262482;-6.71084;-0.149013;91.0378;136.038;-0.00634038;0.00023414;0.00581872;-0.00542628;0.000265864;0.0071376;0.00136415;0;0.0218374;0.0212556
203000;204;25.748;-0.00544525;-0.000211438;-2.24296;25.6411;-0.678068;-0.134478;-0.0191217;-0.0911962;-1.21736;-0.0854324;-0.0920904;1.22382;-5.56503;-0.00120747;-0.00177323;0.00115604;0.00210522;-0.00215665;0.00213094;1.04449;0.957407;0.00246065;0.00284125;0.976153;1.02443;163.184;28.1842;-0.0203971;-0.00123893;0.00459182;-0.00812318;0.00114708;0.0305091;-0.00418366;0;0.0393469;-1.35214;-0.0722257;-0.17009;1.36471;-6.25933;0.000455232;0.000164965;0.00048678;0.000636724;0.000305288;0.000165718;-0.93519;-1.0693;0.000367716;0.000220957;-2.08565;-0.479467;90.0911;135.091;-0.00560092;0.000442332;0.00541316;-0.00508307;0.000472149;0.00588176;0.000745185;0;0.0220517;0.0211539
204000;205;25.748;-0.00540782;-0.000209985;-2.24268;25.6412;-0.677606;-0.134197;-0.0190473;-0.0907343;-1.22052;-0.085993;-0.0895109;1.22681;-5.56245;-0.00119748;-0.00188275;0.000662661;0.00183254;-0.00236735;0.00209994;1.80707;0.553381;0.00243135;0.00279993;0.774087;1.29184;168.024;33.0241;-0.0195988;-0.00122751;0.00421724;-0.00797133;0.000655546;0.0267831;-0.00727623;0;0.0423126;-1.35433;-0.0726454;-0.16864;1.36672;-6.25788;0.000615068;7.19449e-05;0.000539836;0.000658637;0.000496267;8.11853e-05;-1.13936;-0.877685;0.000396218;0.000108247;-1.32718;-0.753475;73.0146;118.015;-0.00497038;0.000601396;0.00537468;-0.00523119;0.000525402;0.0069024;0.000238616;0;0.0267147;0.0212109
205000;206;25.7468;-0.00662591;-0.000257283;-2.23967;25.6402;-0.678978;-0.131188;-0.0200438;-0.0921065;-1.22443;-0.0868769;-0.0885424;1.2307;-5.56148;-0.00110877;-0.00152755;0.000594891;0.00149207;-0.00200595;0.00174901;1.86382;0.536532;0.00202683;0.00233201;0.743821;1.34441;166.553;31.553;-0.0179833;-0.00113641;0.00454206;-0.00758677;0.000585747;0.0209629;-0.00505788;0;0.0411232;-1.35675;-0.0726819;-0.171214;1.36944;-6.26046;0.000414605;1.92033e-05;0.000476416;0.000481896;0.000409125;3.63854e-05;-0.870259;-1.14908;0.000299964;4.85139e-05;-1.17787;-0.848991;116.514;161.514;-0.00521918;0.000401577;0.00514449;-0.00510576;0.000463189;0.00593668;0.000288591;0;0.0265087;0.0212746
206000;207;25.7462;-0.00715515;-0.000277833;-2.23919;25.6396;-0.681198;-0.130707;-0.0205921;-0.0943264;-1.22807;-0.0875634;-0.0866453;1.23423;-5.55958;-0.00111812;-0.00199188;-0.000410641;0.00125867;-0.00278743;0.00202305;-2.72286;-0.367261;0.00239095;0.0026974;0.451551;2.21459;178.589;43.5885;-0.0193724;-0.00114706;0.00388082;-0.00786036;-0.00041619;0.0255926;-0.00432009;0;0.0377127;-1.35895;-0.0731755;-0.171043;1.37163;-6.26029;0.000785726;-6.76302e-05;0.000494207;0.000800651;0.000479281;0.000160685;-1.58987;-0.628981;0.000465243;0.000214247;-1.67052;-0.598614;29.0533;74.0533;-0.00551944;0.000771174;0.00526041;-0.00539722;0.00048038;0.00615579;-0.000268585;0;0.0220488;0.0212118
207000;208;25.7453;-0.00812542;-0.000315509;-2.23791;25.6387;-0.682954;-0.129426;-0.0215013;-0.0960825;-1.23108;-0.0884411;-0.0877251;1.23737;-5.56066;-0.00087055;-0.00170726;-0.00136025;0.00060933;-0.00284013;0.00172473;-0.639993;-1.56252;0.00212584;0.00229964;0.214543;4.66107;9.34427;54.3443;-0.0184717;-0.000898077;0.00419316;-0.00761052;-0.00136759;0.0238508;-0.0030509;0;0.0330787;-1.36067;-0.073627;-0.172827;1.37357;-6.26207;0.000676488;-7.28055e-05;0.000376254;0.000693212;0.00035953;0.000166841;-1.79796;-0.556186;0.000400319;0.000222455;-1.92811;-0.518644;29.0331;74.0331;-0.00470207;0.000663212;0.00500803;-0.00515516;0.000363721;0.00505313;0.000981439;0;0.0211625;0.0212738
208000;209;25.7463;-0.00706392;-0.000274291;-2.23657;25.6399;-0.68174;-0.128093;-0.0202867;-0.0948686;-1.23424;-0.0887494;-0.0880644;1.24056;-5.561;-0.000986699;-0.00175204;-0.00250449;0.000163739;-0.00365493;0.00190933;-0.393972;-2.53825;0.00249299;0.00254578;0.0447995;22.3217;19.9681;64.9681;-0.0173629;-0.00101389;0.00406296;-0.00757583;-0.00251123;0.0243844;-0.00268613;0;0.0342429;-1.36256;-0.0738054;-0.173303;1.37552;-6.26254;0.000787452;-7.25807e-05;0.00073748;0.000839227;0.000685705;7.6761e-05;-1.06776;-0.93654;0.000515981;0.000102348;-1.22389;-0.817067;5.14761;50.1476;-0.00486682;0.000774241;0.00499731;-0.00514272;0.000725005;0.00565964;-0.00168804;0;0.0224183;0.0212263
209000;210;25.745;-0.00843993;-0.000327721;-2.23447;25.6385;-0.689181;-0.125993;-0.0216842;-0.10231;-1.23719;-0.0887648;-0.0887893;1.24354;-5.56172;-0.000419942;-0.00234696;-0.00356932;0.00083165;-0.00482091;0.00282628;-0.117653;-8.49956;0.00352402;0.00376838;0.172509;5.79681;26.0625;71.0625;-0.0179127;-0.000451926;0.00362085;-0.00833354;-0.00357314;0.0244691;-0.000750239;0;0.0333875;-1.36393;-0.0742191;-0.173442;1.37691;-6.26268;0.000862712;-7.58867e-05;0.000583882;0.000882028;0.000564567;0.00015873;-1.47754;-0.676799;0.000515857;0.00021164;-1.56231;-0.640079;26.379;71.379;-0.00451908;0.000850755;0.00473972;-0.00489283;0.000572659;0.00594003;-9.84266e-05;0;0.0232043;0.0212604
210000;211;25.747;-0.00639319;-0.000248247;-2.23381;25.6409;-0.680011;-0.125336;-0.0193269;-0.0931393;-1.24059;-0.0887216;-0.0914932;1.24712;-5.56443;-0.000117897;-0.00193811;-0.00392741;0.000694766;-0.00474007;0.00271742;-0.0300191;-33.3121;0.00341527;0.00362322;0.146573;6.82254;31.4102;76.4102;-0.0182709;-0.000147956;0.0040924;-0.00799162;-0.00393393;0.0253868;0.003071;0;0.0339163;-1.366;-0.0744668;-0.173952;1.37905;-6.26319;0.000914877;-4.87206e-05;0.000663546;0.000923991;0.000654432;0.00013478;-1.37877;-0.725284;0.000548676;0.000179706;-1.4119;-0.708266;29.7554;74.7554;-0.00442628;0.000902654;0.00484814;-0.00494681;0.000651802;0.00706141;-0.000193992;0;0.0191344;0.0212942
211000;212;25.7481;-0.00530046;-0.000205816;-2.23218;25.6422;-0.678055;-0.1237;-0.0180354;-0.0911835;-1.24302;-0.0883898;-0.0933788;1.24965;-5.56631;-7.81621e-05;-0.00197236;-0.00492227;0.000623333;-0.00562377;0.00312355;-0.0158793;-62.9752;0.00397329;0.00416473;0.110839;9.02209;36.6195;81.6195;-0.0171549;-0.00010818;0.00402115;-0.00799498;-0.00492844;0.0241398;0.00287479;0;0.0339352;-1.36722;-0.0747258;-0.175104;1.38041;-6.26435;0.000971326;5.16574e-05;0.000618008;0.000978724;0.00061061;0.000184057;-1.57171;-0.636251;0.000570819;0.000245409;-1.60286;-0.623884;48.5981;93.5981;-0.00487356;0.00095888;0.00509339;-0.00499186;0.000605046;0.00868173;0.0017465;0;0.0239246;0.0211749
212000;213;25.7483;-0.00505175;-0.000196159;-2.23077;25.6425;-0.678845;-0.122289;-0.0176838;-0.0919733;-1.24645;-0.0888041;-0.0972098;1.25339;-5.57015;0.00017937;-0.0014924;-0.0047959;0.000592697;-0.00520923;0.00290096;0.0374007;26.7375;0.0036863;0.00386795;0.113778;8.78902;40.0739;85.0739;-0.0171256;0.000152906;0.00441297;-0.00742724;-0.00480457;0.0206634;0.00226947;0;0.0339007;-1.36906;-0.0758924;-0.176707;1.3825;-6.26595;0.00122263;-0.000155202;0.000434198;0.00125208;0.000404747;0.000423665;-2.81582;-0.355136;0.000737787;0.000564887;-3.09348;-0.32326;29.4358;74.4358;-0.00450526;0.00120959;0.00479687;-0.00511117;0.00042271;0.00736103;0.00120989;0;0.0194058;0.0213714
213000;214;25.7511;-0.00234429;-9.10282e-05;-2.22911;25.6456;-0.67225;-0.120633;-0.0146475;-0.0853781;-1.2493;-0.0891697;-0.096586;1.2562;-5.56952;0.000390432;-0.00218541;-0.00445188;0.00123088;-0.00529233;0.0032616;0.0877004;11.4025;0.00400211;0.0043488;0.232577;4.29965;33.3248;78.3248;-0.017187;0.000359797;0.00372874;-0.00812825;-0.00445647;0.0249602;0.00563058;0;0.0323757;-1.37058;-0.0772009;-0.174019;1.38374;-6.26326;0.00119015;-0.000258616;0.000442183;0.00127086;0.000361473;0.000454692;-2.69153;-0.371537;0.000756119;0.000606256;-3.51577;-0.284433;22.7334;67.7334;-0.00400868;0.00117759;0.00450012;-0.0050209;0.000432096;0.00896214;0.00128428;0;0.02159;0.0213722
214000;215;25.7516;-0.00176473;-6.85242e-05;-2.22761;25.6463;-0.671091;-0.119136;-0.0139051;-0.0842195;-1.25225;-0.0895841;-0.100179;1.25944;-5.57311;0.00034509;-0.00219888;-0.00514716;0.00111696;-0.00591902;0.00351799;0.0670448;14.9154;0.00436622;0.00469066;0.188707;5.29923;36.735;81.735;-0.0172247;0.000315072;0.00362572;-0.00805556;-0.00515133;0.0235828;0.00352302;0;0.0338684;-1.37229;-0.0782033;-0.176277;1.38578;-6.26552;0.00137187;-0.000157115;0.000400416;0.00139665;0.000375637;0.000510506;-3.42612;-0.291875;0.000834559;0.000680675;-3.71808;-0.268956;30.6669;75.6669;-0.00437172;0.00135993;0.00457492;-0.00489375;0.000389967;0.00783506;-8.19827e-05;0;0.0202735;0.0213752
215000;216;25.7508;-0.00260617;-0.000101197;-2.22687;25.6456;-0.670348;-0.118392;-0.0146659;-0.0834762;-1.25539;-0.0917673;-0.100037;1.26271;-5.57297;0.000239699;-0.00204756;-0.00396745;0.00107168;-0.00479943;0.00293556;0.0604164;16.5518;0.00361026;0.00391408;0.223294;4.4784;31.5002;76.5002;-0.0170389;0.000209779;0.00388278;-0.00800287;-0.00397291;0.0236503;0.0055962;0;0.0345875;-1.37387;-0.0803159;-0.17691;1.38754;-6.26615;0.00124837;-0.000204891;0.000467633;0.00129887;0.00041713;0.00044087;-2.66954;-0.374596;0.000765728;0.000587827;-3.11383;-0.321148;25.9953;70.9953;-0.00434754;0.00123597;0.00457384;-0.00498734;0.000457199;0.00997343;0.000816772;0;0.0202349;0.0214565
216000;217;25.753;-0.000389213;-1.51131e-05;-2.22596;25.6478;-0.671533;-0.117484;-0.012392;-0.0846609;-1.25886;-0.0942772;-0.105242;1.26677;-5.57818;-1.69767e-05;-0.00205037;-0.0037919;0.000882411;-0.00469129;0.00278685;-0.0044771;-223.359;0.00345938;0.0037158;0.188096;5.31644;30.4033;75.4033;-0.0168939;-4.53001e-05;0.0036782;-0.00780058;-0.00379658;0.0241274;0.00321414;0;0.0392974;-1.3766;-0.0842681;-0.183353;1.39131;-6.27259;0.00133676;-0.000179936;0.000264449;0.00136614;0.000235061;0.000565542;-5.05488;-0.197829;0.0008434;0.000754056;-5.81188;-0.172061;30.4986;75.4986;-0.00379637;0.0013263;0.00421401;-0.00457859;0.000255588;0.00912393;0.000851451;0;0.0204429;0.021394
217000;218;25.7521;-0.00127048;-4.93327e-05;-2.22543;25.6468;-0.677975;-0.116947;-0.0133998;-0.091103;-1.26251;-0.0973355;-0.110235;1.27104;-5.58317;9.0209e-05;-0.00211727;-0.00283521;0.0012009;-0.00394589;0.0025734;0.0318174;31.4293;0.00310919;0.00343119;0.304341;3.28579;24.1502;69.1502;-0.0168352;6.28064e-05;0.00344933;-0.00770015;-0.00283893;0.0231043;0.00249889;0;0.0339408;-1.37939;-0.0881785;-0.190339;1.39524;-6.27958;0.00132637;-0.00026899;0.000274774;0.00139118;0.000209963;0.000590608;-4.82713;-0.207163;0.000865992;0.000787478;-6.62583;-0.150924;26.8432;71.8432;-0.00398388;0.00131246;0.00474166;-0.0052849;0.000263571;0.0108704;0.000247128;0;0.0188569;0.02149
218000;219;25.7533;-0.00011793;-4.57921e-06;-2.22483;25.6479;-0.684409;-0.116349;-0.0123615;-0.0975372;-1.26552;-0.10043;-0.110981;1.27434;-5.58392;-0.000523126;-0.00206935;-0.00234574;0.000826696;-0.00369556;0.00226113;-0.223011;-4.48408;0.00278054;0.00301484;0.2237;4.47028;19.0859;64.0859;-0.0181404;-0.00054982;0.00344345;-0.00759216;-0.00234953;0.0280176;0.00252507;0;0.0333092;-1.38146;-0.092434;-0.19567;1.3983;-6.28491;0.00141051;-0.000199701;0.000769341;0.00146762;0.000712229;0.000377697;-1.8334;-0.545434;0.000847455;0.000503597;-2.06061;-0.485294;22.2667;67.2667;-0.00370066;0.00139916;0.00437067;-0.004773;0.000759817;0.0115964;0.00532248;0;0.0176314;0.0215037
219000;220;25.7523;-0.00106987;-4.1543e-05;-2.22416;25.6467;-0.69609;-0.115684;-0.0135741;-0.109218;-1.27011;-0.108683;-0.108291;1.27934;-5.58123;-0.000725921;-0.00162189;-0.0015398;0.000539298;-0.00280502;0.00167216;-0.471438;-2.12117;0.00207329;0.00222955;0.192262;5.20125;12.8342;57.8342;-0.0191368;-0.000749632;0.00382416;-0.00707233;-0.00154581;0.0293017;-6.79052e-05;0;0.0407587;-1.3854;-0.100981;-0.200181;1.40342;-6.28942;0.00158777;-1.49906e-06;0.000928432;0.00158778;0.000928429;0.000329673;-1.71016;-0.584739;0.00092108;0.000439564;-1.71017;-0.584736;37.8031;82.8031;-0.00394925;0.00157501;0.00505017;-0.0050565;0.000915692;0.0104696;0.00780761;0;0.0171294;0.0215826
220000;221;25.7502;-0.00324284;-0.000125919;-2.22484;25.644;-0.71161;-0.116362;-0.0162408;-0.124738;-1.27636;-0.118;-0.10403;1.28602;-5.57697;-0.000917323;-0.00188115;-0.00103496;0.000905928;-0.00285821;0.00188207;-0.886335;-1.12824;0.00226857;0.00250943;0.316956;3.15501;5.81021;50.8102;-0.0186833;-0.000943116;0.00365838;-0.00742128;-0.00103989;0.027856;-0.0017603;0;0.0489939;-1.39276;-0.107427;-0.209346;1.41249;-6.29859;0.0013217;1.56602e-05;0.000360914;0.00132196;0.000360659;0.000480649;-3.66209;-0.273068;0.000789056;0.000640866;-3.66539;-0.272822;41.2231;86.2231;-0.00455969;0.0013085;0.00516785;-0.00514148;0.000347566;0.0131987;0.00769492;0;0.0205855;0.0218647
221000;222;25.7474;-0.00598718;-0.000232481;-2.2253;25.6409;-0.722198;-0.116825;-0.0193327;-0.135326;-1.28529;-0.127771;-0.098605;1.29539;-5.57154;-0.00114717;-0.00138269;-0.000328153;0.000704398;-0.00217972;0.00144206;-3.49584;-0.286055;0.00173625;0.00192274;0.32316;3.09444;175.528;40.5276;-0.0173111;-0.00116955;0.00406698;-0.00682786;-0.000335469;0.0215127;-0.00421665;0;0.0571772;-1.40251;-0.114274;-0.214025;1.42334;-6.30327;9.10073e-05;0.000357445;0.000283641;0.000557518;-0.00018287;0.000370194;-0.320854;-3.11668;0.000445332;0.000493592;3.04871;0.328008;96.4962;141.496;-0.0053428;7.75289e-05;0.00592045;-0.0052045;0.000266183;0.0139487;0.00632966;0;0.025866;0.0219963
222000;223;25.7444;-0.00897289;-0.000348416;-2.22698;25.6378;-0.721244;-0.118497;-0.0224492;-0.134372;-1.29424;-0.136204;-0.0990165;1.30515;-5.57195;-0.00105202;-0.00151109;-0.00140733;0.000291819;-0.00275117;0.0015215;-0.74753;-1.33774;0.00193872;0.00202866;0.106071;9.42769;9.67309;54.6731;-0.0164872;-0.00107487;0.00389877;-0.00692283;-0.0014138;0.0193379;-0.00293042;0;0.0491657;-1.41316;-0.121206;-0.217209;1.43489;-6.30645;-2.04551e-05;8.35232e-05;9.17019e-05;0.000136226;-6.49795e-05;0.000100603;0.223061;4.48308;0.000118569;0.000134137;2.09645;0.476997;106.679;151.679;-0.00579347;-3.65168e-05;0.00583597;-0.00566828;7.46775e-05;0.01244;0.00105334;0;0.0315051;0.0227509
223000;224;25.7463;-0.00709009;-0.000275307;-2.22858;25.6396;-0.719479;-0.120097;-0.020648;-0.132607;-1.30541;-0.142765;-0.103273;1.31725;-5.57621;0.000128395;-0.00204338;-0.00449129;0.000902507;-0.0052654;0.00308395;0.0285875;34.9803;0.00384656;0.00411194;0.171403;5.8342;34.3044;79.3044;-0.017497;9.88409e-05;0.00384152;-0.00795552;-0.00449661;0.0238258;0.00439406;0;0.0348561;-1.42536;-0.128541;-0.220272;1.448;-6.30951;0.000653124;-0.000170719;0.000411038;0.000741356;0.000322805;0.000209275;-1.58896;-0.629341;0.00042921;0.000279034;-2.29661;-0.435425;14.6127;59.6127;-0.00389092;0.000639293;0.00492127;-0.00526394;0.000398948;0.00891442;0.00110032;0;0.0239463;0.022918
224000;225;25.7529;-0.000534573;-2.07574e-05;-2.22603;25.6467;-0.706439;-0.117552;-0.0134816;-0.119567;-1.31697;-0.14571;-0.111378;1.32968;-5.58431;0.000249301;-0.00232253;-0.00583465;0.00103457;-0.00661992;0.00382724;0.0427276;23.4041;0.00479548;0.00510299;0.156281;6.39874;38.4228;83.4228;-0.01882;0.000215935;0.00381112;-0.00849363;-0.00583924;0.0287078;0.00958647;0;0.0355978;-1.43463;-0.135032;-0.223348;1.45817;-6.31259;0.00099672;-0.000103587;0.000198028;0.00100994;0.000184812;0.000412562;-5.03321;-0.19868;0.000620923;0.000550083;-5.46466;-0.182994;34.0755;79.0755;-0.00333702;0.000984953;0.00464365;-0.00485462;0.000187254;0.0097577;0.0025945;0;0.0229631;0.0229242
225000;226;25.7525;-0.000865223;-3.35965e-05;-2.22489;25.6461;-0.720509;-0.116413;-0.0141062;-0.133637;-1.3287;-0.149479;-0.118217;1.3423;-5.59115;-0.000125438;-0.00209241;-0.0027588;0.00103009;-0.00391433;0.00247221;-0.0454684;-21.9933;0.00301221;0.00329628;0.263159;3.79998;22.8794;67.8794;-0.0191047;-0.000155179;0.00379035;-0.00799063;-0.00276381;0.0305025;0.00438163;0;0.035564;-1.44567;-0.140058;-0.236644;1.47159;-6.32589;0.00160387;0.000124983;0.000778858;0.00162239;0.00076034;0.000431023;-2.05925;-0.485613;0.000937298;0.000574697;-2.13376;-0.468655;46.8026;91.8026;-0.00348915;0.00159141;0.00524372;-0.00499798;0.000765129;0.0125135;0.0102412;0;0.0223895;0.0229853
226000;227;25.7506;-0.00278338;-0.000108078;-2.22815;25.6433;-0.741775;-0.119669;-0.0169214;-0.154903;-1.34236;-0.157263;-0.112633;1.35623;-5.58557;-0.000999904;-0.00167769;4.46253e-05;0.00127947;-0.00223474;0.00175711;22.4067;0.0446296;0.00205377;0.00234281;0.572533;1.74662;173.56;38.5596;-0.0185664;-0.00102766;0.00428486;-0.00763396;3.68529e-05;0.0244332;-0.0027549;0;0.0373358;-1.46184;-0.1453;-0.250921;1.49032;-6.34016;0.000699048;3.18479e-05;0.00053464;0.000705002;0.000528686;8.81577e-05;-1.30751;-0.764812;0.000423641;0.000117544;-1.3335;-0.749908;52.0004;97.0004;-0.00353288;0.000686708;0.00503255;-0.00496967;0.000521984;0.0132517;0.00905537;0;0.0159341;0.0238548
227000;228;25.7498;-0.00362826;-0.000140885;-2.23035;25.6423;-0.740483;-0.121871;-0.0179239;-0.153611;-1.35685;-0.165337;-0.105131;1.37092;-5.57807;-0.000668896;-0.00152812;-0.00156462;0.000475637;-0.00270916;0.0015924;-0.427513;-2.33911;0.00198375;0.0021232;0.175567;5.69584;13.7027;58.7027;-0.0177569;-0.000693315;0.00408993;-0.00715116;-0.00157183;0.0193818;0.00184353;0;0.0398276;-1.47947;-0.152748;-0.244168;1.50725;-6.33341;0.000345648;6.14638e-06;0.00025625;0.000346068;0.00025583;4.51193e-05;-1.34887;-0.741363;0.000207287;6.01591e-05;-1.35273;-0.739246;47.3055;92.3055;-0.00450642;0.000329805;0.00564183;-0.00563004;0.000240339;0.0125935;0.0049932;0;0.0262395;0.0243567
228000;229;25.7524;-0.000990965;-3.8479e-05;-2.23178;25.6449;-0.739134;-0.123299;-0.0153609;-0.152263;-1.3725;-0.168045;-0.111449;1.38724;-5.58438;0.000296853;-0.0012568;-0.00568661;0.000550117;-0.00593987;0.00324499;0.0522021;19.1563;0.00415544;0.00432666;0.0926144;10.7975;45.7271;90.7271;-0.0171684;0.0002717;0.00465505;-0.00720418;-0.00569671;0.0216185;0.00971426;0;0.0490853;-1.49715;-0.156669;-0.24631;1.52534;-6.33555;0.00159149;-1.04299e-06;0.000515846;0.00159149;0.000515845;0.000537824;-3.08521;-0.324127;0.000937605;0.000717099;-3.08522;-0.324126;39.3993;84.3993;-0.00396877;0.0015766;0.00545302;-0.00546097;0.000500986;0.0116094;0.00673321;0;0.0250365;0.0246551
229000;230;25.7496;-0.00377419;-0.000146551;-2.23734;25.6413;-0.748954;-0.128864;-0.0189256;-0.162082;-1.39124;-0.170071;-0.11837;1.40659;-5.59131;-0.000391845;-0.0020041;-0.0025941;0.000793705;-0.00377965;0.00228668;-0.151053;-6.62021;0.00282179;0.0030489;0.209994;4.76203;21.1673;66.1673;-0.0195143;-0.000422813;0.0040979;-0.00811949;-0.0026005;0.0305974;0.00732672;0;0.052388;-1.52042;-0.155745;-0.264245;1.55105;-6.35349;0.000861298;-0.000178514;0.000488556;0.000932999;0.000416854;0.000258073;-1.76295;-0.567232;0.000539683;0.000344097;-2.23819;-0.446789;19.1852;64.1852;-0.00469595;0.000848015;0.00480059;-0.00515947;0.000477054;0.0119956;0.00871746;0;0.0257859;0.0259017
230000;231;25.7487;-0.00472275;-0.000183384;-2.24137;25.6401;-0.745259;-0.132889;-0.0201221;-0.158387;-1.41176;-0.176555;-0.105815;1.42669;-5.57875;-0.00121926;-0.00165233;-0.000577223;0.000784988;-0.00258147;0.00168323;-2.11228;-0.473422;0.00203378;0.00224431;0.304086;3.28854;178.54;43.5404;-0.0196337;-0.00124867;0.00453983;-0.00784046;-0.000586169;0.0254245;-0.000570773;0;0.0535315;-1.54561;-0.162034;-0.247771;1.57371;-6.33701;0.000717843;-0.00022269;0.000201617;0.000800631;0.00011883;0.000340901;-3.56042;-0.280865;0.000498884;0.000454534;-6.73764;-0.14842;22.2289;67.2289;-0.00446969;0.000700182;0.00550117;-0.0059495;0.000186514;0.00996201;0.00358882;0;0.0285282;0.0261269
231000;232;25.7437;-0.00972527;-0.000377631;-2.24594;25.6342;-0.762459;-0.137457;-0.0260514;-0.175587;-1.43199;-0.178485;-0.108821;1.44716;-5.58176;-4.50667e-05;-0.00164341;-0.00565433;0.000400954;-0.00610035;0.00325065;-0.00797029;-125.466;0.00420693;0.0043342;0.0657264;15.2146;41.6221;86.6221;-0.0176795;-7.66359e-05;0.00479086;-0.0081139;-0.00566451;0.0237347;0.00893009;0;0.050091;-1.56994;-0.160133;-0.263496;1.59993;-6.35274;0.00147029;0.000156469;0.000132219;0.00148834;0.000114165;0.000687087;-11.1201;-0.0899272;0.000956445;0.000916116;-13.0367;-0.0767065;47.5705;92.5705;-0.00573585;0.00145432;0.00596191;-0.00565674;0.000114461;0.0142384;0.00758152;0;0.0209746;0.0273575
232000;233;25.7505;-0.00294871;-0.000114498;-2.25203;25.6411;-0.740311;-0.14355;-0.0191313;-0.153439;-1.45361;-0.177692;-0.116586;1.46906;-5.58952;-8.37342e-05;-0.00164425;-0.00204142;0.000850977;-0.00297613;0.00191355;-0.0410177;-24.3797;0.00232036;0.0025514;0.285934;3.49731;19.684;64.684;-0.0207315;-0.000118612;0.00521;-0.00851187;-0.00205366;0.0299632;0.00343959;0;0.0436539;-1.59846;-0.163445;-0.256834;1.62719;-6.34608;8.47302e-05;-0.000165349;2.56245e-05;0.000223146;-0.000112791;0.000167969;-3.30661;-0.302425;0.000197411;0.000223958;1.9784;0.50546;4.72985;49.7298;-0.00582091;6.27092e-05;0.00630764;-0.00663871;5.74529e-06;0.0123767;0.00259999;0;0.0255785;0.0277352
233000;234;25.7446;-0.00876333;-0.000340279;-2.25702;25.6341;-0.766045;-0.148538;-0.0261655;-0.179173;-1.47668;-0.18319;-0.104656;1.49168;-5.57759;-0.000629673;-0.00195851;-0.00240386;0.000633276;-0.00366681;0.00215004;-0.261943;-3.81763;0.00268068;0.00286672;0.172705;5.79022;18.3203;63.3203;-0.0223894;-0.00066666;0.00488914;-0.00881823;-0.00241392;0.0301054;-0.00179519;0;0.0399791;-1.6255;-0.1644;-0.263966;1.65497;-6.35321;0.00147578;0.000186283;0.000255892;0.00150359;0.000228079;0.000637756;-5.7672;-0.173394;0.00093568;0.000850341;-6.5924;-0.15169;49.3607;94.3607;-0.00592946;0.00145834;0.00627848;-0.00591335;0.000236204;0.0133984;0.00845257;0;0.0255752;0.0287838
234000;235;25.7491;-0.00430409;-0.000167127;-2.26129;25.6385;-0.755369;-0.15281;-0.0217467;-0.168497;-1.4982;-0.18243;-0.114688;1.51362;-5.58762;0.000435971;-0.00215941;-0.00648124;0.00105474;-0.00710001;0.00407738;0.0672666;14.8662;0.00512126;0.0054365;0.148555;6.73151;40.057;85.057;-0.020688;0.000392795;0.00517225;-0.009542;-0.00649236;0.0297314;0.0112357;0;0.0352951;-1.6526;-0.165186;-0.26923;1.68251;-6.35847;-0.000234476;0.000138557;-0.000116238;-2.47147e-05;-0.000325999;0.000150642;-2.01721;-0.495734;0.00020958;0.000200856;-0.0758123;-13.1905;102.171;147.171;-0.00559957;-0.000257979;0.00713459;-0.00685665;-0.000141682;0.0150459;0.00746898;0;0.0313882;0.0294692
235000;236;25.7492;-0.0042122;-0.000163559;-2.26803;25.638;-0.755498;-0.159546;-0.0222533;-0.168626;-1.52093;-0.182617;-0.11623;1.53625;-5.58916;-0.00107051;-0.00211968;-0.000611183;0.00129125;-0.00297293;0.00213209;-1.75153;-0.570929;0.00252494;0.00284279;0.434334;2.30238;179.911;44.9115;-0.0244462;-0.00111653;0.00558449;-0.00982019;-0.000624538;0.0374166;-0.000611099;0;0.0375271;-1.6805;-0.166494;-0.268104;1.70988;-6.35735;0.00177102;0.000305192;0.000290315;0.00183146;0.000229878;0.000800792;-6.10035;-0.163925;0.00115202;0.00106772;-7.9671;-0.125516;51.9346;96.9346;-0.00607571;0.00174839;0.00734103;-0.00674108;0.000263424;0.0143413;0.0107969;0;0.0278938;0.0303334
236000;237;25.7449;-0.00846806;-0.000328813;-2.27138;25.6328;-0.775078;-0.162899;-0.0274091;-0.188206;-1.54253;-0.186154;-0.104133;1.5572;-5.57707;-0.000656612;-0.00215796;-0.00390505;0.000420069;-0.00498173;0.0027009;-0.168144;-5.94727;0.00346966;0.0036012;0.084322;11.8593;26.8073;71.8073;-0.0215528;-0.000701223;0.00534574;-0.00968599;-0.00391705;0.0279866;0.00279014;0;0.0377055;-1.70657;-0.16471;-0.27639;1.73664;-6.36563;0.000528684;3.50163e-05;0.000374221;0.000536252;0.000366654;8.4799e-05;-1.41276;-0.707835;0.000316496;0.000113065;-1.46256;-0.683734;55.1449;100.145;-0.00472759;0.000507102;0.00664074;-0.00657173;0.00035218;0.0116136;0.0121739;0;0.0279782;0.0315775
237000;238;25.7532;-0.000173136;-6.72284e-06;-2.27749;25.6414;-0.746865;-0.16901;-0.0187826;-0.159993;-1.56216;-0.183406;-0.114445;1.57705;-5.58738;0.000423994;-0.00185705;-0.00595315;0.000925358;-0.00645452;0.00368994;0.0712218;14.0406;0.00464231;0.00491992;0.143366;6.97515;39.2062;84.2062;-0.0221904;0.000376098;0.00619828;-0.00996393;-0.00597074;0.0294262;0.00877699;0;0.0367189;-1.73185;-0.167724;-0.265481;1.76009;-6.35472;0.00122456;0.000244847;0.000277148;0.0012841;0.000217612;0.000533243;-4.41844;-0.226324;0.000793536;0.00071099;-5.90086;-0.169467;55.8236;100.824;-0.00609673;0.00119563;0.00809774;-0.0076155;0.0002444;0.01386;0.0106579;0;0.0241861;0.0326908
238000;239;25.7482;-0.00524859;-0.000203802;-2.28329;25.6352;-0.767296;-0.17481;-0.0249995;-0.180424;-1.57927;-0.183993;-0.113503;1.594;-5.58644;-0.000677026;-0.00186888;-0.000142051;0.00147839;-0.00229747;0.00188793;-4.76606;-0.209817;0.00219702;0.00251724;0.643487;1.55403;177.208;42.2077;-0.0235624;-0.000727712;0.00650371;-0.0102369;-0.000161457;0.0313838;-0.00273753;0;0.0365162;-1.75353;-0.163683;-0.283704;1.78385;-6.37295;0.00103193;4.2322e-05;0.000361745;0.00103459;0.000359083;0.000337754;-2.85264;-0.350552;0.000606563;0.000450339;-2.88121;-0.347077;45.4579;90.4579;-0.00510941;0.00101091;0.00656751;-0.00648724;0.000340187;0.010954;0.0140731;0;0.0190897;0.0343689
239000;240;25.7477;-0.00567331;-0.000220294;-2.28583;25.6345;-0.770175;-0.177347;-0.0257385;-0.183303;-1.59703;-0.18568;-0.104003;1.61114;-5.57694;-0.000723511;-0.00188521;-0.0020424;0.000614263;-0.00338018;0.00199722;-0.354245;-2.82291;0.00248366;0.00266296;0.181725;5.50281;14.3504;59.3504;-0.0236698;-0.000771916;0.00623358;-0.0100146;-0.00206009;0.0295323;-0.000310358;0;0.0372742;-1.77561;-0.165423;-0.273276;1.80411;-6.36252;-0.00023316;-6.50868e-05;-0.000170672;-0.000129718;-0.000274114;7.21977e-05;-1.36613;-0.731992;0.000158335;9.62635e-05;-0.473228;-2.11314;167.708;32.708;-0.00688034;-0.000272617;0.00875283;-0.00888244;-0.000208983;0.0157594;0.0119124;0;0.0298086;0.0359481
240000;241;25.7479;-0.00550939;-0.000213929;-2.29287;25.634;-0.77192;-0.18439;-0.0262553;-0.185048;-1.61289;-0.186493;-0.106113;1.6271;-5.57905;0.00027255;-0.00140111;-0.00716328;0.000527797;-0.00741852;0.00397316;0.0380483;26.2824;0.00513067;0.00529755;0.0711459;14.0556;45.7354;90.7354;-0.0221505;0.00022559;0.00692866;-0.00979317;-0.00718646;0.0271887;0.00991713;0;0.0350983;-1.79606;-0.167567;-0.270596;1.82404;-6.35984;0.00163244;0.000110188;4.46206e-05;0.00164005;3.70105e-05;0.00080152;-36.5849;-0.0273337;0.00108124;0.00106869;-44.3131;-0.0225667;45.9796;90.9796;-0.00708462;0.00159808;0.00850476;-0.00829772;8.46222e-06;0.0154416;0.0156021;0;0.0177209;0.0375235
241000;242;25.7493;-0.00406535;-0.000157857;-2.29555;25.6352;-0.772025;-0.187073;-0.0250482;-0.185153;-1.62481;-0.183504;-0.111949;1.63897;-5.58488;0.000367261;-0.0014269;-0.00589066;0.00067726;-0.00620066;0.00343896;0.0623462;16.0395;0.00437703;0.00458528;0.109224;9.15552;41.4837;86.4837;-0.0243543;0.000317493;0.00717216;-0.01008;-0.00591551;0.0335475;0.0083299;0;0.037125;-1.8125;-0.163092;-0.285395;1.84206;-6.37464;0.00101932;-0.00012281;0.000169187;0.0010367;0.000151802;0.000442451;-6.02479;-0.165981;0.000646504;0.000589935;-6.82932;-0.146427;34.413;79.413;-0.00533422;0.000994015;0.00686696;-0.00711852;0.000145621;0.0116659;0.0142787;0;0.0165184;0.0403
242000;243;25.7517;-0.0017058;-6.62358e-05;-2.2998;25.6374;-0.763958;-0.191319;-0.022817;-0.177086;-1.63717;-0.183375;-0.111663;1.65118;-5.5846;-0.000481089;-0.00158039;-0.00119012;0.000784061;-0.00245527;0.00161967;-0.404236;-2.4738;0.00195143;0.00215955;0.319338;3.13148;8.812;53.812;-0.0251966;-0.000536985;0.00752083;-0.0106879;-0.00121719;0.0342445;0.00178412;0;0.0369244;-1.82811;-0.163452;-0.283946;1.85724;-6.37319;0.000557325;-0.000382365;-0.000334121;0.00069886;-0.000475656;0.000587258;1.66803;0.599509;0.000682177;0.000783011;1.46925;0.680617;24.1653;69.1653;-0.00620139;0.000524063;0.00739574;-0.00816738;-0.000361406;0.013039;0.0144517;0;0.0203326;0.0426317
243000;244;25.751;-0.00241633;-9.38258e-05;-2.30255;25.6364;-0.766725;-0.194075;-0.0238607;-0.179853;-1.64631;-0.184925;-0.107782;1.66017;-5.58072;-0.000893177;-0.00149187;0.000583066;0.00150943;-0.00181954;0.00166448;1.53186;0.6528;0.00192476;0.00221931;0.829566;1.20545;167.204;32.2038;-0.0252732;-0.000946851;0.00749266;-0.010463;0.000556124;0.0322441;-0.00397875;0;0.0369748;-1.84152;-0.166438;-0.274243;1.86925;-6.36349;0.00089581;-0.000249878;-0.00036513;0.000943523;-0.000412842;0.000678183;2.4534;0.407597;0.000802828;0.000904243;2.28543;0.437554;33.2007;78.2007;-0.00771569;0.000854824;0.00855038;-0.00906121;-0.000401667;0.0168863;0.0123005;0;0.0244183;0.0438253
244000;245;25.748;-0.00539391;-0.000209445;-2.30715;25.6325;-0.78268;-0.198673;-0.0277472;-0.195808;-1.65431;-0.186018;-0.104515;1.66801;-5.57745;-0.00117033;-0.00179875;-0.00181251;0.000335767;-0.0033186;0.00182718;-0.645697;-1.54871;0.00233239;0.00243625;0.101177;9.88366;9.63381;54.6338;-0.0264755;-0.00122709;0.00719585;-0.010799;-0.00183682;0.0324725;-0.00205712;0;0.0384645;-1.85294;-0.165911;-0.278382;1.88106;-6.36762;0.00168593;-9.99464e-05;-0.000111648;0.00169147;-0.000117188;0.000904331;15.1004;0.0662233;0.00116867;0.00120577;14.4338;0.0692817;39.1812;84.1812;-0.00826553;0.00164512;0.00882667;-0.00904261;-0.000150603;0.0173047;0.0118145;0;0.0184001;0.0476146
245000;246;25.7466;-0.00675445;-0.000262274;-2.31007;25.6305;-0.794433;-0.201592;-0.0297384;-0.207561;-1.66115;-0.186743;-0.101728;1.6747;-5.57466;-0.000356683;-0.00135787;-0.00414508;7.97396e-05;-0.0045815;0.00233062;-0.0860497;-11.6212;0.00308126;0.00310749;0.0174047;57.4558;34.1678;79.1678;-0.0255714;-0.000408243;0.007494;-0.0102433;-0.00417235;0.0297196;0.00417583;0;0.0381555;-1.86276;-0.16437;-0.285972;1.89174;-6.37521;0.00168445;1.22462e-05;-5.35234e-05;0.00168453;-5.36097e-05;0.000869072;31.4712;0.031775;0.00114131;0.00115876;31.4222;0.0318246;42.6288;87.6288;-0.00832385;0.00164586;0.00880178;-0.00879257;-9.22618e-05;0.0169715;0.0147846;0;0.0227452;0.0494966
246000;247;25.7472;-0.00623247;-0.000242006;-2.31283;25.6308;-0.793453;-0.204354;-0.0294328;-0.206581;-1.66684;-0.185722;-0.106295;1.68052;-5.57923;-0.000247692;-0.00155335;-0.0059336;0.000148996;-0.00633029;0.00323964;-0.041744;-23.9556;0.00427072;0.00431952;0.023537;42.4864;39.7628;84.7628;-0.0253352;-0.000305174;0.00767331;-0.0108326;-0.005962;0.0284144;0.00858883;0;0.0378833;-1.87061;-0.162605;-0.294574;1.90063;-6.38382;0.00104285;-0.000261403;4.13377e-05;0.00110697;-2.27856e-05;0.000564878;-25.2275;-0.0396393;0.000745691;0.00075317;48.582;0.0205838;29.0763;74.0763;-0.00707248;0.00101172;0.00736762;-0.00789805;1.42317e-05;0.0128541;0.0136423;0;0.0215386;0.0536828
247000;248;25.7487;-0.00473629;-0.000183909;-2.31451;25.6321;-0.794005;-0.206034;-0.0280985;-0.207133;-1.67154;-0.185712;-0.106133;1.68517;-5.57907;0.000242766;-0.00122457;-0.00729635;0.000436683;-0.00749027;0.00396348;0.0332722;30.0551;0.00514526;0.00528464;0.0583;17.1526;46.3094;91.3094;-0.0239876;0.000188529;0.00796904;-0.0104879;-0.00732758;0.0254712;0.0100649;0;0.0390634;-1.87749;-0.162896;-0.294546;1.90743;-6.38379;0.000791682;-0.000427774;0.000191043;0.00101403;-3.13063e-05;0.000522669;-4.144;-0.241313;0.000686694;0.000696892;32.3906;0.0308731;15.6512;60.6512;-0.00709394;0.000756751;0.00751223;-0.00837252;0.000162923;0.0132825;0.0111093;0;0.0217544;0.0566201
248000;249;25.7498;-0.00359096;-0.000139436;-2.31674;25.6332;-0.791428;-0.208261;-0.0270695;-0.204556;-1.67559;-0.185356;-0.109614;1.68937;-5.58255;0.000299372;-0.00135723;-0.00720713;0.000537233;-0.00744499;0.00399111;0.0415383;24.0742;0.00515175;0.00532148;0.0721604;13.858;44.8836;89.8836;-0.0241877;0.000240835;0.00812032;-0.0109063;-0.00723941;0.0268126;0.011517;0;0.0378709;-1.88354;-0.163663;-0.295742;1.91362;-6.38498;0.000573471;-0.000401273;-3.42171e-05;0.000772958;-0.000233703;0.000503331;16.7598;0.0596665;0.000608358;0.000671107;3.30743;0.302349;17.4978;62.4978;-0.0075051;0.000537362;0.00770254;-0.00850999;-6.38026e-05;0.0143742;0.0113108;0;0.0282176;0.0609402
249000;250;25.7522;-0.00118631;-4.60642e-05;-2.31847;25.6356;-0.785198;-0.209991;-0.0246188;-0.198326;-1.67958;-0.186159;-0.10898;1.69338;-5.58191;0.000313718;-0.00127922;-0.00644964;0.000547582;-0.00668351;0.00361554;0.0486411;20.5587;0.00464896;0.00482073;0.0819304;12.2055;43.3215;88.3215;-0.025268;0.00025466;0.00832095;-0.0109446;-0.00648366;0.0289455;0.0101387;0;0.0395729;-1.89005;-0.16516;-0.290812;1.91941;-6.38005;0.000191542;-0.000351525;-0.000159238;0.000409002;-0.000376699;0.000392851;1.20286;0.831349;0.000453753;0.000523801;1.08575;0.921018;13.0733;58.0733;-0.00893865;0.000142886;0.00916539;-0.00987175;-0.000201186;0.0195353;0.00821657;0;0.0301492;0.0654293
250000;251;25.7532;-0.000239759;-9.30981e-06;-2.32114;25.6364;-0.783865;-0.21266;-0.0238686;-0.196993;-1.68314;-0.186149;-0.112452;1.69713;-5.58539;0.000170614;-0.00171543;-0.00634431;0.000594694;-0.00676839;0.00368154;0.0268924;37.1852;0.00472299;0.00490873;0.0878634;11.3813;39.8063;84.8063;-0.0265833;0.000106819;0.00793192;-0.0114259;-0.00637449;0.0330186;0.00770163;0;0.0392899;-1.89573;-0.166906;-0.289666;1.92498;-6.37891;0.000140329;-0.000215269;-0.000366547;0.000219414;-0.000445632;0.000332523;0.38284;2.61206;0.000391299;0.000443364;0.492365;2.03101;24.9846;69.9846;-0.0100098;8.25851e-05;0.0103134;-0.0107493;-0.000419728;0.0226055;0.00880667;0;0.0317768;0.0724284
251000;252;25.7556;0.00224711;8.7255e-05;-2.32288;25.639;-0.774653;-0.2144;-0.021248;-0.187781;-1.68713;-0.186445;-0.113213;1.70117;-5.58615;0.000425651;-0.00163364;-0.00490362;0.000886564;-0.00536453;0.00312555;0.0868034;11.5203;0.00390556;0.0041674;0.165264;6.05093;35.4406;80.4406;-0.0276443;0.000359715;0.00828119;-0.0116014;-0.00493674;0.0320473;0.00757379;0;0.0433661;-1.90194;-0.168189;-0.287731;1.93092;-6.37697;0.000543768;-0.000134016;-0.000405803;0.00056232;-0.000424354;0.000493337;1.33998;0.746279;0.00057151;0.000657783;1.32512;0.75465;36.7801;81.7801;-0.0110682;0.000487023;0.0103787;-0.0106567;-0.000459676;0.0218972;0.00845611;0;0.0411594;0.076257
252000;253;25.7552;0.00175803;6.82638e-05;-2.32446;25.6381;-0.782041;-0.215984;-0.0221072;-0.19517;-1.68931;-0.188557;-0.113315;1.70358;-5.58625;0.000335454;-0.00126783;-0.00444275;0.000651014;-0.00475831;0.00270466;0.0755059;13.244;0.00340999;0.00360621;0.136816;7.30907;36.79;81.79;-0.0277066;0.00027469;0.00851573;-0.0110982;-0.00447836;0.031733;0.00699677;0;0.0420934;-1.90589;-0.170182;-0.290599;1.93541;-6.37984;0.00104857;6.09391e-05;-0.000162307;0.00105163;-0.000165366;0.000608498;6.46044;0.154788;0.000762212;0.000811331;6.35943;0.157247;46.5383;91.5383;-0.0113699;0.00099156;0.0107927;-0.0106838;-0.000220557;0.0224291;0.00896504;0;0.0376595;0.0856492
253000;254;25.754;0.000567846;2.20494e-05;-2.32686;25.6365;-0.788043;-0.218384;-0.0237043;-0.201171;-1.69275;-0.190527;-0.114398;1.70728;-5.58733;-8.33046e-05;-0.00149476;-0.00290325;0.000561557;-0.00354811;0.00205483;-0.0286936;-34.851;0.0025731;0.00273978;0.158269;6.31834;25.7642;70.7642;-0.0280964;-0.000148411;0.00849029;-0.0115079;-0.00293828;0.0322156;0.00472522;0;0.0431313;-1.91136;-0.171503;-0.294985;1.94158;-6.38423;0.00158435;0.00028108;-0.00031566;0.00162506;-0.00035637;0.000990714;5.01916;0.199237;0.00121964;0.00132095;4.56003;0.219297;51.3751;96.3751;-0.0118568;0.00153122;0.0108622;-0.0103202;-0.000374635;0.0227865;0.00972068;0;0.0330311;0.0917083
254000;255;25.7525;-0.000849401;-3.29821e-05;-2.32858;25.6348;-0.792181;-0.2201;-0.0254113;-0.205309;-1.69544;-0.192226;-0.115178;1.71019;-5.58811;-0.000353601;-0.00108037;-0.00172839;0.000239517;-0.00232151;0.00128051;-0.204584;-4.88796;0.00163338;0.00170735;0.103173;9.69244;19.0287;64.0287;-0.0286743;-0.000415641;0.00901472;-0.0111893;-0.00176851;0.0323454;0.00316734;0;0.0435189;-1.91524;-0.172461;-0.299415;1.94616;-6.38866;0.00162368;0.00025111;-0.000307898;0.00165579;-0.000340009;0.000997898;5.27342;0.18963;0.00123292;0.00133053;4.86983;0.205346;50.324;95.324;-0.0117203;0.00157244;0.010616;-0.0101339;-0.000364236;0.0220196;0.0107148;0;0.0286325;0.0991652
255000;256;25.7534;2.53602e-05;9.84731e-07;-2.33016;25.6357;-0.788323;-0.221679;-0.0245572;-0.201451;-1.6974;-0.193215;-0.116976;1.71236;-5.58991;-0.000318766;-0.00156983;-0.00124004;0.000856611;-0.00241541;0.00163601;-0.257061;-3.89013;0.00195926;0.00218135;0.354643;2.81973;10.2383;55.2383;-0.0281246;-0.000385656;0.00852155;-0.0116704;-0.00127516;0.0330366;0.0039632;0;0.0527465;-1.91847;-0.172916;-0.303359;1.94998;-6.3926;0.00122144;0.000314792;1.9043e-05;0.00129887;-5.83845e-05;0.000678628;-64.1415;-0.0155905;0.000886017;0.000904837;22.2468;0.0449502;56.8569;101.857;-0.0112176;0.00117706;0.0100509;-0.00943302;-3.14178e-05;0.0216904;0.0109085;0;0.0330201;0.104033
256000;257;25.7531;-0.000306387;-1.18969e-05;-2.33066;25.635;-0.797392;-0.22218;-0.0252164;-0.21052;-1.6996;-0.198426;-0.114134;1.71495;-5.58707;-0.000632205;-0.000992033;-0.000635945;0.000357959;-0.00162611;0.000992035;-0.99412;-1.00591;0.00122101;0.00132271;0.220132;4.54272;1.69627;46.6963;-0.0288555;-0.000693765;0.00915249;-0.0111365;-0.000677364;0.0319635;0.00250206;0;0.0551003;-1.9216;-0.176543;-0.30668;1.95391;-6.39592;0.000928499;-8.46805e-05;0.000239194;0.00093875;0.000228944;0.000354903;-3.88178;-0.257614;0.000565192;0.000473204;-4.10035;-0.243881;36.142;81.142;-0.0104168;0.000885821;0.00906782;-0.00924349;0.000198094;0.0182845;0.00735266;0;0.0274211;0.11296
257000;258;25.7513;-0.00209461;-8.13335e-05;-2.33031;25.6331;-0.801493;-0.221833;-0.0271093;-0.214621;-1.70181;-0.20195;-0.114235;1.71756;-5.58717;-0.000803428;-0.000960483;0.000613484;0.00109853;-0.00128847;0.0011935;1.30961;0.763583;0.00137959;0.00159133;0.852582;1.17291;161.907;26.9071;-0.027693;-0.000867226;0.00942578;-0.0113319;0.000569549;0.028652;-0.00146529;0;0.0525505;-1.92445;-0.179454;-0.310359;1.95756;-6.3996;0.000952689;0.000231954;5.19543e-06;0.00100643;-4.8541e-05;0.000527483;;;0.000687702;0.000703311;20.7335;0.0482311;56.3674;101.367;-0.010187;0.000915592;0.00907626;-0.00862075;-3.59675e-05;0.016961;0.00675558;0;0.0219536;0.123641
258000;259;25.7488;-0.00455854;-0.000177007;-2.33068;25.6304;-0.80698;-0.2222;-0.0297901;-0.220109;-1.70452;-0.204826;-0.116027;1.7207;-5.58896;-0.000625553;-0.000931892;0.00118862;0.00158201;-0.00101894;0.00130047;0.526284;1.90012;0.00151334;0.00173397;1.5526;0.644079;156.951;21.9513;-0.0280687;-0.000687289;0.00930207;-0.0111472;0.00114584;0.031768;-0.000115905;0;0.0543106;-1.92748;-0.181125;-0.315747;1.96155;-6.40499;0.0008352;0.000159231;0.00028346;0.000877856;0.000240804;0.000318526;-2.94644;-0.339392;0.000523758;0.000424701;-3.64552;-0.27431;57.9847;102.985;-0.00960832;0.000800735;0.00862114;-0.00830736;0.000246321;0.015666;0.00653133;0;0.0237096;0.132384
259000;260;25.7479;-0.0054543;-0.00021179;-2.33129;25.6295;-0.807905;-0.222806;-0.0307743;-0.221033;-1.70612;-0.21055;-0.117297;1.72306;-5.59023;-0.000954783;-0.00154204;0.000609161;0.00155616;-0.00190179;0.00172897;1.56737;0.63801;0.00199977;0.0023053;0.818265;1.2221;166.899;31.8993;-0.0273457;-0.00102155;0.00858433;-0.0116524;0.000573526;0.0326366;-0.00354547;0;0.0520721;-1.92963;-0.185544;-0.319782;1.96473;-6.40902;0.000917141;0.000243826;0.000210998;0.00099315;0.000134988;0.000429081;-4.34669;-0.23006;0.000622006;0.000572108;-7.35733;-0.135919;60.3004;105.3;-0.00877584;0.000882826;0.00877324;-0.00829162;0.00017255;0.0137151;0.0104428;0;0.0215148;0.146105
260000;261;25.7473;-0.00609253;-0.000236572;-2.33217;25.6289;-0.803885;-0.223688;-0.0313692;-0.217013;-1.7066;-0.21386;-0.119426;1.72409;-5.59236;-0.000414681;-0.00176992;0.000115113;0.00163985;-0.00193942;0.00178963;3.60239;0.277593;0.0020689;0.00238618;0.845537;1.18268;176.003;41.0031;-0.0282782;-0.000488162;0.00871451;-0.0122486;7.87111e-05;0.0341093;0.000261756;0;0.0516921;-1.93069;-0.188243;-0.321353;1.96628;-6.41059;0.000907685;0.000220187;0.000450328;0.000996459;0.000361553;0.000317453;-2.01561;-0.496128;0.000582477;0.00042327;-2.75605;-0.362838;64.6003;109.6;-0.00937265;0.000871813;0.00891319;-0.0084768;0.000410647;0.0156074;0.00851734;0;0.0235706;0.154548
261000;262;25.7462;-0.00717898;-0.000278759;-2.3306;25.6278;-0.808264;-0.22212;-0.0324558;-0.221392;-1.70839;-0.216909;-0.119263;1.72623;-5.5922;-0.000391559;-0.00132719;0.000150522;0.00123407;-0.0014751;0.00135459;2.60134;0.384417;0.0015662;0.00180612;0.836597;1.19532;174.42;39.4204;-0.0286989;-0.000457308;0.0088927;-0.0115414;0.000111868;0.037062;-0.00301733;0;0.0448336;-1.93256;-0.191096;-0.32397;1.96882;-6.41321;0.000747116;0.000136722;0.000352874;0.00078989;0.0003101;0.000239895;-2.11723;-0.472315;0.000459538;0.00031986;-2.54721;-0.392587;60.4534;105.453;-0.00945927;0.000709819;0.00891106;-0.00864109;0.000313193;0.0162093;0.0116188;0;0.0210463;0.164115
262000;263;25.746;-0.00735883;-0.000285742;-2.33183;25.6275;-0.808974;-0.223354;-0.0327711;-0.222102;-1.70796;-0.218815;-0.125451;1.72648;-5.59839;-0.000392982;-0.00180209;0.000129312;0.00168907;-0.00195274;0.00182091;3.03903;0.329052;0.00210444;0.00242788;0.864975;1.1561;176.092;41.0918;-0.0284782;-0.000465689;0.00859156;-0.0121901;9.40318e-05;0.0335624;-0.00112374;0;0.0410373;-1.93259;-0.193665;-0.330149;1.97013;-6.41939;0.000826249;1.20183e-05;0.000289145;0.000826518;0.000288876;0.000268821;-2.85756;-0.349949;0.000484341;0.000358428;-2.86115;-0.34951;44.2934;89.2934;-0.00901393;0.000789766;0.00856491;-0.00854546;0.000252476;0.014278;0.0115904;0;0.0229217;0.177928
263000;264;25.7476;-0.00577721;-0.000224328;-2.33155;25.6291;-0.808816;-0.223067;-0.0311512;-0.221944;-1.70989;-0.22302;-0.121651;1.72866;-5.59459;-0.00048215;-0.00144667;0.000346105;0.00143675;-0.0015728;0.00150477;1.39307;0.717838;0.00173815;0.00200636;0.913502;1.09469;172.06;37.0596;-0.0291075;-0.000548236;0.0086996;-0.0115844;0.000309322;0.0380609;-0.00434213;0;0.0384514;-1.93411;-0.197606;-0.329712;1.97193;-6.41895;0.000779395;-8.75209e-05;0.000165038;0.00079162;0.000152813;0.000319403;-4.72251;-0.211752;0.000484903;0.000425871;-5.18031;-0.193039;35.3892;80.3892;-0.00917976;0.000739748;0.00872802;-0.00890847;0.000126958;0.0156207;0.0128075;0;0.0189461;0.192653
264000;265;25.7478;-0.00555191;-0.00021558;-2.3325;25.6291;-0.813558;-0.224019;-0.0311615;-0.226686;-1.71072;-0.227381;-0.121974;1.73008;-5.59491;-0.000634908;-0.00120019;4.72552e-05;0.000953891;-0.00154154;0.00124772;13.4357;0.0744283;0.001454;0.00166362;0.618789;1.61606;172.749;37.7495;-0.0285351;-0.000698808;0.00897135;-0.0113647;7.73395e-06;0.0346924;-0.00329709;0;0.0397382;-1.9353;-0.202405;-0.33133;1.97386;-6.42057;0.000706527;-0.00039968;0.000222576;0.000931773;-2.67016e-06;0.000467222;-3.17431;-0.315029;0.000622074;0.000622962;;;13.9799;58.9799;-0.00897951;0.00066302;0.00853614;-0.00933979;0.000186231;0.0150613;0.0116217;0;0.0185829;0.207187
265000;266;25.7497;-0.00368367;-0.000143036;-2.33294;25.6309;-0.812571;-0.224465;-0.0292939;-0.225699;-1.71038;-0.230114;-0.124449;1.73027;-5.59738;-0.000649573;-0.0014647;-4.38213e-05;0.00114899;-0.00184239;0.00149569;-14.8232;-0.0674616;0.00174247;0.00199426;0.623644;1.60348;174.994;39.9942;-0.0276055;-0.000715617;0.00865889;-0.011582;-8.02391e-05;0.0339472;-0.00503476;0;0.0381071;-1.93527;-0.206616;-0.333877;1.97469;-6.42312;0.000751614;-0.000361286;0.000101257;0.00091251;-5.96393e-05;0.000486075;-7.42287;-0.134719;0.000629163;0.0006481;15.3005;0.0653574;19.4769;64.4769;-0.00880601;0.000709987;0.00840663;-0.00913487;6.59891e-05;0.0142737;0.0142432;0;0.030315;0.218968
266000;267;25.7501;-0.00333116;-0.000129348;-2.33333;25.6312;-0.813773;-0.224855;-0.0290134;-0.226901;-1.71123;-0.233261;-0.122421;1.73138;-5.59536;-0.000740485;-0.0016958;-0.00046798;0.00109703;-0.0023055;0.00170126;-1.5823;-0.631992;0.00200532;0.00226835;0.475832;2.10158;179.266;44.2659;-0.0287725;-0.000808897;0.00842631;-0.011815;-0.00050206;0.0347798;-0.00464773;0;0.0373248;-1.93639;-0.210298;-0.332417;1.97594;-6.42166;0.000685919;-0.000438488;0.000265469;0.000961972;-1.05837e-05;0.000486278;-2.5838;-0.387027;0.000644872;0.00064837;90.8915;0.0110021;11.1187;56.1187;-0.00857389;0.000644205;0.00826689;-0.00914749;0.000231403;0.0135959;0.0137178;0;0.0275535;0.232762
267000;268;25.7522;-0.00118877;-4.61597e-05;-2.33412;25.6333;-0.812946;-0.225643;-0.0269065;-0.226075;-1.70984;-0.235419;-0.1294;1.73081;-5.60234;-0.000687197;-0.00134484;0.000154623;0.00114288;-0.00167545;0.00140917;4.44434;0.225005;0.00163682;0.00187889;0.682131;1.46599;171.914;36.9143;-0.0288298;-0.000752616;0.00883216;-0.0115131;0.000116529;0.0350586;-0.0035472;0;0.0390496;-1.93541;-0.21414;-0.339373;1.97657;-6.42861;0.00061835;-0.000457811;0.000462663;0.00100489;7.61248e-05;0.000464382;-1.3365;-0.748223;0.000646047;0.000619176;-13.2005;-0.0757545;2.957;47.957;-0.0100878;0.000574815;0.00842811;-0.00934508;0.000427267;0.0162338;0.0101837;0;0.032069;0.247729
268000;269;25.7542;0.000829598;3.22132e-05;-2.33307;25.6355;-0.812313;-0.224591;-0.024763;-0.225441;-1.70945;-0.239547;-0.127267;1.73084;-5.6002;-0.000958825;-0.00150847;0.00028029;0.00129148;-0.00197001;0.00163075;3.42083;0.292326;0.00189656;0.00217433;0.655568;1.52539;169.629;34.6293;-0.0286007;-0.00102759;0.00881442;-0.0118184;0.00024259;0.0331889;-0.000272444;0;0.0406754;-1.93506;-0.218845;-0.33844;1.97659;-6.42768;0.000647493;-0.000534241;0.000619005;0.00116768;9.88176e-05;0.000534431;-1.04602;-0.956003;0.000747694;0.000712575;-11.8165;-0.0846273;178.474;43.474;-0.00903738;0.000608229;0.00781171;-0.00888039;0.000588654;0.0123921;0.0123213;0;0.036119;0.263232
269000;270;25.7549;0.00154267;5.99015e-05;-2.33332;25.6361;-0.815206;-0.224841;-0.0241612;-0.228334;-1.70858;-0.244064;-0.12739;1.73062;-5.60033;-0.000905572;-0.00125926;0.000300581;0.00109372;-0.00169871;0.00139622;3.01274;0.331924;0.00162478;0.00186163;0.643854;1.55315;167.933;32.9333;-0.0286682;-0.000967531;0.00869126;-0.0111977;0.000263615;0.0339593;-0.00132556;0;0.040652;-1.93412;-0.224381;-0.340035;1.97656;-6.42928;0.000704688;-0.000416344;0.000426567;0.00100458;0.000126674;0.000438954;-1.652;-0.605327;0.000631744;0.000585272;-7.93046;-0.126096;7.26024;52.2602;-0.010094;0.000662756;0.00833522;-0.00917031;0.00039193;0.0140966;0.0101858;0;0.0295869;0.283609
270000;271;25.7546;0.00122003;4.73736e-05;-2.33459;25.6356;-0.816788;-0.226107;-0.024651;-0.229916;-1.70813;-0.246678;-0.130362;1.73077;-5.6033;-0.000876139;-0.00121857;-0.000444796;0.00057704;-0.00189797;0.00123751;-1.96975;-0.507677;0.00149525;0.00165001;0.304029;3.28916;176.713;41.7125;-0.0288921;-0.000939165;0.00885549;-0.0112882;-0.000483281;0.0341629;-0.000694982;0;0.0436956;-1.93418;-0.227631;-0.34153;1.97725;-6.43077;0.000424167;-0.000290189;0.000551308;0.000784808;0.000190667;0.00029707;-0.769382;-1.29974;0.000472647;0.000396094;-4.11611;-0.242948;172.087;37.0871;-0.00988682;0.000384101;0.00837891;-0.00895816;0.000516266;0.0140039;0.00852185;0;0.0244698;0.295407
271000;272;25.7576;0.00417941;0.000162286;-2.33509;25.6387;-0.810929;-0.226615;-0.0215381;-0.224057;-1.70695;-0.249841;-0.13333;1.73028;-5.60626;-0.000189351;-0.00111775;-7.55663e-05;0.000986743;-0.00125166;0.0011192;-2.50576;-0.399081;0.00129536;0.00149227;0.788347;1.26848;178.761;43.7615;-0.0283528;-0.000254475;0.00923174;-0.0114659;-0.000117558;0.0307944;0.00293205;0;0.0452895;-1.93338;-0.231981;-0.344772;1.97753;-6.43401;0.000557849;1.67145e-05;0.000839005;0.000839996;0.000556859;0.000141568;-0.664893;-1.504;0.00049348;0.000188758;-1.50845;-0.662931;129.23;174.23;-0.0103749;0.000518717;0.00888503;-0.00884911;0.000799566;0.0146429;0.0109817;0;0.0220177;0.315375
272000;273;25.756;0.00259415;0.00010073;-2.33477;25.637;-0.815854;-0.226295;-0.0232578;-0.228982;-1.7057;-0.255009;-0.13474;1.72991;-5.60768;-0.000652282;-0.00151236;-0.000188927;0.0011094;-0.00195061;0.00153;-3.45256;-0.28964;0.00178881;0.00204;0.568745;1.75826;176.631;41.631;-0.0286202;-0.000724336;0.00907567;-0.0120953;-0.000228976;0.0340757;0.00224202;0;0.0561798;-1.9321;-0.236555;-0.347683;1.97734;-6.43693;0.000382817;0.000339528;0.000863258;0.00103895;0.000207122;0.000415915;-0.443456;-2.25502;0.000634956;0.000554554;-5.01614;-0.199357;105.567;150.567;-0.0100647;0.000343798;0.00952545;-0.00884201;0.000817987;0.0150838;0.0110919;0;0.021877;0.334864
273000;274;25.7556;0.00222275;8.63091e-05;-2.33423;25.6367;-0.813653;-0.225748;-0.0235112;-0.226781;-1.70446;-0.258265;-0.137569;1.7294;-5.6105;-0.000728269;-0.00169553;-0.000943325;0.000863135;-0.00253473;0.00169893;-0.772023;-1.2953;0.00203935;0.00226524;0.340524;2.93665;3.96719;48.9672;-0.0286677;-0.000799762;0.00867974;-0.0120728;-0.000979591;0.0348018;0.00449789;0;0.0521142;-1.93096;-0.239751;-0.349416;1.97691;-6.43866;0.000684357;0.000380837;0.000679068;0.00106256;0.000300866;0.000380847;-1.00779;-0.992272;0.000632408;0.000507795;-3.53167;-0.283152;87.6095;132.61;-0.0104622;0.000642998;0.00986751;-0.00910592;0.000630489;0.0168902;0.0106142;0;0.0215784;0.350217
274000;275;25.7545;0.00105136;4.08242e-05;-2.33354;25.6355;-0.815813;-0.225058;-0.0246939;-0.228941;-1.70292;-0.261555;-0.143747;1.72888;-5.61668;-0.000210057;-0.00168888;-0.000861823;0.0011841;-0.00225598;0.00172004;-0.243735;-4.10281;0.00201801;0.00229338;0.524871;1.90523;6.77849;51.7785;-0.0282437;-0.000282364;0.00875771;-0.0121421;-0.000898778;0.0338831;0.00367924;0;0.0550186;-1.92963;-0.243323;-0.353801;1.97683;-6.44304;0.000544524;0.00039573;0.000607262;0.000972865;0.000178921;0.000396972;-0.896688;-1.11522;0.000597927;0.000529295;-5.43739;-0.183912;90.4322;135.432;-0.0102743;0.000501096;0.0101225;-0.00933047;0.000556137;0.0160187;0.0131808;0;0.0221393;0.369653
275000;276;25.756;0.00262417;0.000101896;-2.3346;25.6373;-0.80837;-0.226123;-0.0229749;-0.221498;-1.70144;-0.265062;-0.147644;1.72829;-5.62058;6.43935e-05;-0.00165308;-0.00197946;0.000985918;-0.00290099;0.00194345;0.0325308;30.7401;0.00233313;0.00259127;0.339856;2.94242;18.3496;63.3496;-0.0280129;-6.65292e-06;0.00870732;-0.0120345;-0.00201608;0.0366133;0.00379234;0;0.0507446;-1.92825;-0.246522;-0.35778;1.9766;-6.44702;0.000464877;0.000423133;0.000602962;0.000962648;0.000105191;0.000428729;-0.77099;-1.29703;0.000609734;0.000571638;-9.15146;-0.109272;92.9466;137.947;-0.00993309;0.00042018;0.010314;-0.00946639;0.000549893;0.0165942;0.0158775;0;0.020521;0.389252
276000;277;25.7556;0.002229;8.65517e-05;-2.3342;25.6367;-0.814609;-0.225718;-0.0235326;-0.227737;-1.70015;-0.267398;-0.147098;1.72733;-5.62003;4.00404e-05;-0.00198076;-0.00261589;0.0010968;-0.00367265;0.00238472;0.0153066;65.3313;0.0028844;0.00317963;0.29864;3.34851;20.3083;65.3083;-0.0283737;-3.44394e-05;0.00837572;-0.0123646;-0.00264909;0.037791;0.00512094;0;0.0566509;-1.92675;-0.249913;-0.356618;1.97534;-6.44586;0.000384642;0.000400355;0.000580005;0.000894422;7.0224e-05;0.000412099;-0.66317;-1.50791;0.000574306;0.000549465;-12.7367;-0.0785133;95.3753;140.375;-0.0112686;0.000335076;0.010769;-0.00996629;0.000522131;0.0193342;0.0175861;0;0.0187287;0.406741
277000;278;25.757;0.00361459;0.000140354;-2.33547;25.6382;-0.808979;-0.226991;-0.0220782;-0.222107;-1.69791;-0.271106;-0.150026;1.72595;-5.62296;0.000400589;-0.00165646;-0.00309935;0.00106024;-0.003759;0.00240962;0.129249;7.73699;0.0029242;0.00321283;0.282053;3.54543;26.8564;71.8564;-0.0282982;0.000329928;0.00865593;-0.0120049;-0.00313556;0.0372903;0.00715931;0;0.0479417;-1.92444;-0.254146;-0.357977;1.97388;-6.44722;0.000489903;0.000241369;0.000275631;0.000646845;0.000118689;0.000264078;-1.77739;-0.562624;0.000397617;0.000352104;-5.44992;-0.183489;76.8566;121.857;-0.0116977;0.000435022;0.0109624;-0.010482;0.000215588;0.0204123;0.0178046;0;0.0176698;0.426922
278000;279;25.7575;0.00407601;0.000158271;-2.33535;25.6386;-0.8088;-0.226866;-0.0215976;-0.221928;-1.69632;-0.274701;-0.151662;1.7251;-5.6246;0.000444699;-0.00214039;-0.00500861;0.00118444;-0.00574836;0.0034664;0.0887868;11.2629;0.00428201;0.00462186;0.206049;4.85322;32.151;77.151;-0.0283227;0.000371832;0.00792698;-0.0122627;-0.00503789;0.037283;0.00820802;0;0.0402424;-1.92257;-0.25858;-0.359663;1.97294;-6.44931;0.000465898;0.000391071;0.000411666;0.000830792;4.67725e-05;0.00039201;-1.13174;-0.883596;0.000538947;0.00052268;-17.7624;-0.0562987;86.7385;131.739;-0.0121472;0.000407064;0.0116384;-0.0108569;0.000344042;0.0218137;0.0188725;0;0.0171663;0.445045
279000;280;25.76;0.00660629;0.000256521;-2.33445;25.6413;-0.806471;-0.22597;-0.0189007;-0.2196;-1.69504;-0.277208;-0.154678;1.72451;-5.62761;0.00041933;-0.001948;-0.00512684;0.00103516;-0.00574266;0.00338891;0.0817912;12.2263;0.00421607;0.00451855;0.180257;5.54763;33.871;78.871;-0.0272041;0.000348489;0.0081118;-0.0120637;-0.005158;0.0343102;0.00887906;0;0.0398517;-1.92133;-0.26245;-0.363988;1.97304;-6.45323;0.000616727;0.000111106;0.000350009;0.000656946;0.000309791;0.000173577;-1.76203;-0.567527;0.000379492;0.000231437;-2.12061;-0.471563;63.4949;108.495;-0.0128155;0.000556212;0.0112244;-0.0110052;0.000287042;0.0233811;0.0198636;0;0.0278375;0.465537
280000;281;25.7625;0.00909791;0.00035327;-2.33401;25.6438;-0.809609;-0.225534;-0.0164567;-0.222737;-1.6927;-0.280578;-0.154697;1.72276;-5.62763;0.000682736;-0.00135467;-0.00574475;0.00095658;-0.0060186;0.00348759;0.118845;8.41431;0.00436633;0.00465012;0.158937;6.29179;40.6163;85.6163;-0.0266164;0.000620403;0.00847817;-0.0112509;-0.00577998;0.0316393;0.00824125;0;0.0386277;-1.91826;-0.266866;-0.365159;1.97085;-6.4544;0.000457911;0.000302931;0.000400772;0.000733617;0.000125067;0.000304275;-1.14257;-0.875218;0.000453178;0.0004057;-5.8658;-0.17048;86.1134;131.113;-0.0139231;0.000388948;0.0123557;-0.0117506;0.000324513;0.0286175;0.019588;0;0.0319228;0.488134
281000;282;25.7636;0.0101739;0.00039505;-2.33367;25.6447;-0.813992;-0.225186;-0.0154828;-0.22712;-1.69073;-0.284468;-0.154122;1.72141;-5.62706;0.000591961;-0.00160229;-0.00685335;0.000922144;-0.00718353;0.00405284;0.0863754;11.5774;0.00512413;0.00540378;0.128369;7.79003;41.9636;86.9636;-0.0257008;0.000526549;0.00827424;-0.0115527;-0.00688652;0.0305282;0.0113765;0;0.035997;-1.91584;-0.272116;-0.366315;1.96944;-6.45556;0.000414678;0.000446886;0.000467837;0.000888933;-6.41818e-06;0.000447675;-0.886373;-1.12819;0.000594773;0.000596901;;;90.4996;135.5;-0.0141449;0.000344332;0.0127664;-0.011872;0.000386481;0.0305308;0.0187408;0;0.0265585;0.510155
282000;283;25.7638;0.0104185;0.000404547;-2.3322;25.6451;-0.814619;-0.223721;-0.0151238;-0.227748;-1.68906;-0.28588;-0.158495;1.7204;-5.63143;0.00054689;-0.00174813;-0.00701656;0.000931386;-0.00740105;0.00416622;0.0779428;12.8299;0.00527199;0.00555496;0.125845;7.94628;41.3811;86.3811;-0.0258031;0.000478726;0.00823696;-0.0118091;-0.00704918;0.0307354;0.011241;0;0.0376429;-1.91368;-0.27465;-0.372388;1.96882;-6.46163;0.000321064;0.000240012;0.000242045;0.000524797;3.83119e-05;0.000243242;-1.32646;-0.753885;0.000337819;0.000324323;-13.698;-0.0730034;84.4927;129.493;-0.0143347;0.000248866;0.0124996;-0.0120206;0.000163969;0.0292424;0.0150279;0;0.0272516;0.527297
283000;284;25.7638;0.0103927;0.000403546;-2.33105;25.6447;-0.828457;-0.222576;-0.0154888;-0.241585;-1.68636;-0.289888;-0.155974;1.71819;-5.62891;0.000369674;-0.0014844;-0.00700001;0.000657426;-0.00728776;0.00397259;0.0528106;18.9356;0.00509181;0.00529679;0.0902096;11.0853;42.9404;87.9404;-0.025732;0.000303059;0.00859612;-0.0116396;-0.00703611;0.0279704;0.011398;0;0.0386538;-1.91029;-0.279984;-0.373072;1.96641;-6.46231;0.00031592;0.000176291;0.000492837;0.000601618;0.00020714;0.000197239;-0.641024;-1.56;0.000352913;0.000262986;-2.90441;-0.344304;102.183;147.183;-0.0155346;0.000246725;0.0121216;-0.011767;0.000419419;0.032306;0.0134061;0;0.0260743;0.553633
284000;285;25.7665;0.0130615;0.000507177;-2.33216;25.6475;-0.822107;-0.223677;-0.0127034;-0.235236;-1.68452;-0.292075;-0.156585;1.71681;-5.62952;4.86e-06;-0.00160409;-0.00690643;0.000359018;-0.00726058;0.0038098;;;0.00496439;0.00507973;0.0494475;20.2235;41.9335;86.9335;-0.0256998;-6.12769e-05;0.008335;-0.0116122;-0.00694011;0.0282353;0.0115376;0;0.0390272;-1.90809;-0.282644;-0.376829;1.96538;-6.46607;0.000608241;8.2232e-05;0.000929232;0.000949072;0.000588401;0.000180335;-0.654563;-1.52774;0.00055318;0.000240447;-1.61297;-0.619975;119.295;164.295;-0.0139886;0.000547601;0.0111843;-0.0110163;0.000866748;0.0271458;0.0147935;0;0.0209009;0.571438
285000;286;25.7666;0.0132227;0.000513434;-2.33047;25.6477;-0.825565;-0.221991;-0.0124993;-0.238693;-1.68178;-0.295205;-0.15689;1.71468;-5.62983;2.62695e-05;-0.00149483;-0.00710819;0.000326809;-0.00740873;0.00386777;0.00369567;270.587;0.00505162;0.00515703;0.0441114;22.6699;43.4706;88.4706;-0.0261214;-3.60478e-05;0.00820439;-0.0112636;-0.00714097;0.028754;0.0103543;0;0.0397508;-1.90495;-0.286294;-0.38036;1.96354;-6.4696;0.000872086;5.15329e-06;0.000963755;0.000964044;0.000871797;4.61236e-05;-0.904883;-1.10512;0.00061426;6.14982e-05;-1.10581;-0.904312;129.079;174.079;-0.0131758;0.000819965;0.0102254;-0.0102142;0.000911524;0.0243784;0.0164051;0;0.019105;0.59481
286000;287;25.7655;0.0121057;0.000470062;-2.3304;25.6465;-0.829967;-0.221924;-0.0137575;-0.243095;-1.67986;-0.298016;-0.159308;1.71351;-5.63224;1.75401e-05;-0.00150665;-0.00642385;0.000352527;-0.00675884;0.00355568;0.00273046;366.239;0.00462788;0.00474091;0.0521579;19.1726;41.2442;86.2442;-0.0265638;-4.7137e-05;0.00839533;-0.0114727;-0.00645818;0.0297167;0.00781348;0;0.0416121;-1.90282;-0.28962;-0.385277;1.96292;-6.47452;0.00112983;9.96728e-05;0.00109119;0.00121203;0.00100898;0.000101528;-1.03541;-0.965804;0.000749563;0.00013537;-1.20125;-0.832468;81.1425;126.143;-0.0121337;0.00108279;0.00990369;-0.00970473;0.00104221;0.0231482;0.0179644;0;0.0203871;0.615733
287000;288;25.7639;0.0104759;0.000406777;-2.33028;25.6447;-0.835407;-0.221804;-0.0155606;-0.248535;-1.6774;-0.302445;-0.157511;1.71171;-5.63045;-0.000435069;-0.00204524;-0.00553327;0.000284001;-0.00625234;0.00326817;-0.0786278;-12.7182;0.00426605;0.00435756;0.0454231;22.0153;33.7817;78.7817;-0.0265882;-0.000505861;0.00792926;-0.0120707;-0.00556278;0.0299816;0.0106546;0;0.04646;-1.90011;-0.29364;-0.385568;1.96095;-6.47481;0.00106529;-3.77362e-05;0.00128056;0.00128698;0.00105887;0.000114056;-0.831898;-1.20207;0.000792965;0.000152075;-1.21543;-0.822754;140.997;5.99706;-0.0113024;0.00102004;0.00944569;-0.00951912;0.00123601;0.019206;0.0152536;0;0.0214572;0.640277
288000;289;25.7653;0.0119454;0.000463837;-2.33058;25.6461;-0.835781;-0.222096;-0.0141229;-0.248909;-1.67455;-0.304729;-0.159324;1.70949;-5.63226;-0.000398576;-0.00134212;-0.00423593;2.42446e-05;-0.00465875;0.0023415;-0.0940942;-10.6276;0.00311395;0.003122;0.0052041;192.156;33.9367;78.9367;-0.0270182;-0.000461351;0.00856031;-0.0112826;-0.00427182;0.0281747;0.00607116;0;0.0471149;-1.89756;-0.296571;-0.389111;1.95961;-6.47835;0.00103327;-1.59778e-05;0.00106547;0.00107206;0.00102669;2.26846e-05;-0.969774;-1.03117;0.000700071;3.02461e-05;-1.04419;-0.95768;153.975;18.9745;-0.0111525;0.000991576;0.00910442;-0.00913608;0.00102407;0.0200873;0.0156593;0;0.0218379;0.661934
289000;290;25.7646;0.0111862;0.000434357;-2.33157;25.6451;-0.841044;-0.223089;-0.015148;-0.254172;-1.67168;-0.307806;-0.163306;1.70761;-5.63624;-0.000485364;-0.00143004;-0.00282749;0.000191928;-0.00350478;0.00184835;-0.171659;-5.82549;0.00240305;0.00246447;0.0547619;18.2609;24.2893;69.2893;-0.0267544;-0.000548014;0.00839885;-0.0112819;-0.00286183;0.0281789;0.00561272;0;0.050638;-1.89518;-0.300013;-0.393293;1.95867;-6.48254;0.0011956;-0.00017599;0.00125603;0.00140438;0.00104725;0.000178565;-0.951888;-1.05054;0.000842819;0.000238087;-1.34102;-0.745702;171.167;36.1672;-0.0105984;0.00115249;0.00894046;-0.00929187;0.00121613;0.0182729;0.0164975;0;0.020838;0.686121
290000;291;25.7641;0.010722;0.000416334;-2.33084;25.6447;-0.840385;-0.222363;-0.0155267;-0.253514;-1.66944;-0.311061;-0.163675;1.70604;-5.63661;-0.0011633;-0.00174963;-0.00220212;0.000142388;-0.00350781;0.0018251;-0.528265;-1.89299;0.00238742;0.00243347;0.0405917;24.6355;12.8471;57.8471;-0.0275811;-0.00123214;0.00834658;-0.0118562;-0.0022355;0.029393;0.00596551;0;0.0535891;-1.89309;-0.303001;-0.395007;1.95746;-6.48425;0.000921405;-0.000151649;0.00125774;0.00131602;0.000863127;0.000226446;-0.732587;-1.36503;0.000772011;0.000301928;-1.52471;-0.655862;152.468;17.4683;-0.00992188;0.000878863;0.00892925;-0.00922948;0.00121794;0.0162823;0.0180895;0;0.020423;0.707438
291000;292;25.765;0.0115946;0.000450217;-2.33098;25.6457;-0.837851;-0.222499;-0.0145795;-0.250979;-1.66694;-0.314174;-0.167618;1.70455;-5.64055;-0.000595181;-0.00183585;-0.000167805;0.00146675;-0.00222974;0.00184825;-3.54686;-0.281939;0.00214927;0.00246433;0.657813;1.52019;177.603;42.603;-0.0275731;-0.000666139;0.00838261;-0.0120497;-0.00020126;0.0320647;0.00556181;0;0.0521863;-1.89101;-0.30649;-0.399991;1.957;-6.48923;0.000908346;-0.00042447;0.00112093;0.00145221;0.000577059;0.000437576;-0.810354;-1.23403;0.000844302;0.000583434;-2.51657;-0.397366;169.676;34.6761;-0.0102343;0.000862608;0.00873092;-0.00957788;0.00108294;0.0152995;0.0163018;0;0.0194086;0.732887
292000;293;25.7639;0.0105475;0.000409556;-2.33172;25.6446;-0.837228;-0.223244;-0.0156789;-0.250356;-1.66444;-0.317909;-0.169926;1.70303;-5.64286;-0.000976292;-0.00153834;7.42636e-05;0.00117453;-0.00207656;0.00162554;13.1463;0.076067;0.00190095;0.00216739;0.565614;1.76799;171.697;36.6968;-0.0277373;-0.00104368;0.00863945;-0.0117053;3.81288e-05;0.0332627;0.00583247;0;0.0598548;-1.88872;-0.310406;-0.403038;1.95603;-6.49228;0.000759821;-0.000567501;0.00101822;0.00147104;0.000306999;0.000582022;-0.746223;-1.34008;0.000896067;0.00077603;-4.79169;-0.208695;170.561;35.5611;-0.00901733;0.000716583;0.00818722;-0.00931992;0.000984901;0.0119826;0.0161702;0;0.0186997;0.756801
293000;294;25.7647;0.0113288;0.000439897;-2.33195;25.6453;-0.838014;-0.223467;-0.0149399;-0.251142;-1.66147;-0.320781;-0.17217;1.70089;-5.64511;-0.00109855;-0.00179567;0.00107888;0.0020901;-0.00210977;0.00209994;1.01823;0.982095;0.00242481;0.00279991;0.990677;1.00941;164.267;29.267;-0.0267091;-0.00116897;0.00842654;-0.0119955;0.00104503;0.0308358;0.00325638;0;0.0550696;-1.88656;-0.314659;-0.40257;1.95452;-6.49181;0.000440329;-0.000576161;0.00112997;0.00145661;0.000113686;0.000671463;-0.389682;-2.56619;0.000935485;0.000895284;-12.8126;-0.0780484;161.932;26.9322;-0.00952436;0.000394523;0.00844467;-0.00959073;0.00109452;0.0150461;0.0166443;0;0.0240777;0.778893
294000;295;25.7683;0.0149042;0.000578726;-2.33301;25.649;-0.831414;-0.224532;-0.0112299;-0.244542;-1.65906;-0.323722;-0.174586;1.69934;-5.64752;-0.000864644;-0.0017427;0.00141373;0.00235655;-0.00180746;0.002082;0.611603;1.63505;0.00241105;0.00277601;1.30379;0.766994;162.493;27.4929;-0.0271238;-0.000933621;0.00840661;-0.0118687;0.00137996;0.0318556;2.14788e-05;0;0.0485038;-1.88391;-0.318555;-0.406917;1.9535;-6.49616;0.000142201;-0.000667731;0.00104859;0.0014024;-0.000211604;0.000807002;-0.135611;-7.37404;0.00101286;0.001076;6.62747;0.150887;160.89;25.8903;-0.00959435;9.59965e-05;0.0083094;-0.00963668;0.00101433;0.0140742;0.0134182;0;0.0301371;0.803672
295000;296;25.7704;0.0169915;0.000659779;-2.33305;25.651;-0.834178;-0.224575;-0.00922652;-0.247306;-1.65642;-0.326148;-0.176637;1.69744;-5.64957;-0.000531304;-0.0014583;0.00159285;0.00233483;-0.00127329;0.00180406;0.333556;2.99799;0.00211299;0.00240542;1.8337;0.545346;160.337;25.3369;-0.0272493;-0.000598604;0.0087951;-0.0116898;0.00155529;0.0344274;0.000908776;0;0.0496182;-1.88149;-0.32229;-0.408626;1.95214;-6.49787;0.00031968;-0.00040296;0.00165505;0.00176722;0.000207506;0.000779859;-0.193154;-5.17721;0.00111543;0.00103981;-8.51649;-0.117419;147.353;12.3527;-0.0103596;0.000273945;0.00878026;-0.0095739;0.00161665;0.0145789;0.0145714;0;0.0394531;0.828201
296000;297;25.7726;0.0191698;0.000744361;-2.33351;25.6532;-0.831441;-0.225033;-0.00699089;-0.24457;-1.65229;-0.327421;-0.18488;1.69453;-5.65781;-0.000258577;-0.00194627;-0.000710401;0.00147485;-0.00244383;0.00195934;-0.363987;-2.74735;0.00228539;0.00261245;0.603499;1.657;4.5489;49.5489;-0.0272925;-0.00032846;0.00808284;-0.0119797;-0.000741196;0.0350256;0.00654183;0;0.047087;-1.87793;-0.325193;-0.414536;1.95044;-6.50378;-0.000127996;-0.000382669;0.00144459;0.00153276;-0.00021617;0.000874465;0.088604;11.2862;0.00110099;0.00116595;7.09052;0.141033;145.853;10.853;-0.0115296;-0.000176489;0.00910446;-0.00985487;0.00140327;0.0166638;0.0135836;0;0.0383217;0.851616
297000;298;25.7741;0.0207452;0.000805534;-2.33437;25.6548;-0.828212;-0.225889;-0.00538155;-0.24134;-1.65094;-0.330054;-0.188702;1.69415;-5.66164;-5.06118e-05;-0.00183317;-0.000776702;0.00145512;-0.00228243;0.00186878;-0.0651624;-15.3463;0.00217543;0.0024917;0.63753;1.56855;6.63543;51.6354;-0.0266555;-0.000119563;0.00821148;-0.0118849;-0.000808761;0.0323298;0.00232443;0;0.0423578;-1.87659;-0.32928;-0.418232;1.95062;-6.50747;-0.000281802;-0.000306455;0.001636;0.00168378;-0.000329582;0.00100668;0.172251;5.8055;0.00124699;0.00134224;5.10884;0.195739;141.671;6.6707;-0.0118624;-0.000328993;0.00912348;-0.00971831;0.0015945;0.0178917;0.0115088;0;0.0314552;0.874886
298000;299;25.7769;0.0235461;0.00091429;-2.33404;25.6576;-0.831484;-0.225558;-0.00264345;-0.244612;-1.64826;-0.33268;-0.189554;1.69215;-5.66249;-0.000131499;-0.00189216;-0.00164683;0.00114906;-0.00292739;0.00203822;-0.0798493;-12.5236;0.00242704;0.00271763;0.392519;2.54765;13.3866;58.3866;-0.0277705;-0.000197118;0.00781136;-0.0116102;-0.0016756;0.0361399;0.00291829;0;0.0391498;-1.8736;-0.333558;-0.421552;1.94919;-6.51079;-0.000649013;-3.41138e-05;0.00165979;0.0016603;-0.000649517;0.00115491;0.391021;2.55741;0.00137547;0.00153987;2.5562;0.391205;134.231;179.231;-0.0124066;-0.000697409;0.00978946;-0.00983504;0.00161195;0.0204612;0.012499;0;0.0256567;0.90208
299000;300;25.7758;0.0223622;0.000868319;-2.33365;25.6563;-0.835972;-0.225166;-0.00394303;-0.2491;-1.64531;-0.335468;-0.189666;1.68984;-5.6626;7.68469e-05;-0.00195547;-0.00343032;0.000949842;-0.00430331;0.00262658;0.0224023;44.6383;0.00323235;0.0035021;0.220723;4.53056;25.6954;70.6954;-0.0253879;1.04766e-05;0.00774146;-0.0116863;-0.00345847;0.032029;0.00861117;0;0.0430505;-1.87049;-0.336407;-0.423612;1.94714;-6.51285;-0.000678665;0.000246069;0.00161304;0.00163917;-0.000704788;0.00117198;0.420735;2.37679;0.00138866;0.00156264;2.32576;0.429967;127.523;172.523;-0.0128921;-0.000731817;0.010826;-0.0103097;0.00155457;0.0240196;0.0150464;0;0.0271105;0.922985
300000;301;25.7783;0.0248543;0.000965088;-2.33331;25.6589;-0.832587;-0.224833;-0.00129897;-0.245715;-1.6428;-0.338874;-0.187511;1.68783;-5.66045;0.000243349;-0.00197788;-0.00408869;0.00101053;-0.00485587;0.0029332;0.0595175;16.8018;0.0036214;0.00391093;0.208104;4.80528;29.2603;74.2603;-0.026727;0.000176875;0.00770222;-0.0116999;-0.00411651;0.0342724;0.00770559;0;0.04244;-1.86717;-0.341498;-0.420374;1.94414;-6.50962;-0.000398235;0.000633903;0.00164528;0.00182595;-0.0005789;0.00120242;0.242046;4.13144;0.00144933;0.00160323;3.15417;0.31704;117.348;162.348;-0.0137751;-0.000454591;0.011924;-0.0106333;0.00157451;0.0264534;0.01446;0;0.0233074;0.947463
301000;302;25.7793;0.0259388;0.0010072;-2.33187;25.6598;-0.842871;-0.223392;-0.000414125;-0.255999;-1.64027;-0.340496;-0.191898;1.68619;-5.66483;0.000443876;-0.00176418;-0.00425694;0.0010323;-0.00484537;0.00293883;0.104271;9.59039;0.00362369;0.00391845;0.213049;4.69375;31.9571;76.9571;-0.025769;0.000379229;0.00793512;-0.0115091;-0.004287;0.0313837;0.0110088;0;0.0397031;-1.86394;-0.344338;-0.429663;1.94356;-6.51891;-3.04366e-05;0.000719675;0.0016136;0.00188412;-0.00030096;0.00109254;0.0188626;53.0151;0.00136749;0.00145672;6.26038;0.159735;112.25;157.25;-0.0144032;-8.71718e-05;0.0121342;-0.0106762;0.00154035;0.0288154;0.0178141;0;0.0184118;0.972427
302000;303;25.7785;0.0250734;0.000973594;-2.33142;25.6588;-0.847415;-0.222939;-0.0013921;-0.260543;-1.63755;-0.343039;-0.19104;1.68397;-5.66398;0.000414002;-0.00171235;-0.00539017;0.000881524;-0.00585769;0.00336961;0.0768068;13.0197;0.0042297;0.00449281;0.15049;6.64496;36.8402;81.8402;-0.0248352;0.000351086;0.00786905;-0.0113495;-0.00541982;0.0286822;0.0147035;0;0.0403541;-1.86013;-0.346995;-0.431034;1.94069;-6.52028;0.000170041;0.000898206;0.00142493;0.00189314;-0.00029817;0.00109566;-0.119333;-8.37994;0.00137232;0.00146087;6.3492;0.1575;105.342;150.342;-0.0142586;0.000112772;0.0125515;-0.0107406;0.00134667;0.028487;0.0192556;0;0.0206295;0.996657
303000;304;25.7794;0.0259985;0.00100952;-2.33011;25.6599;-0.848475;-0.221627;-0.000378489;-0.261603;-1.63438;-0.346163;-0.192981;1.68174;-5.66592;0.000442469;-0.00177793;-0.00635594;0.00087936;-0.00679283;0.00383609;0.0696151;14.3647;0.00484833;0.00511479;0.129454;7.72474;39.5771;84.5771;-0.0264502;0.00037862;0.00782033;-0.0114417;-0.00638512;0.0321058;0.0138723;0;0.0398285;-1.85589;-0.35097;-0.435842;1.93842;-6.52508;0.000966135;0.00059265;0.00179207;0.00210144;0.000656761;0.000722339;-0.539118;-1.85488;0.00124137;0.000963119;-3.1997;-0.312529;103.685;148.685;-0.013847;0.000912816;0.0115427;-0.0103485;0.00172574;0.0274284;0.0215685;0;0.0179341;1.02255
304000;305;25.7805;0.0270959;0.00105213;-2.32834;25.6611;-0.849575;-0.219856;0.000848385;-0.262703;-1.63196;-0.348673;-0.194043;1.68003;-5.66698;0.000307284;-0.00143361;-0.0058285;0.000625719;-0.00614693;0.00338633;0.052721;18.9678;0.00432165;0.0045151;0.101794;9.8238;40.2702;85.2702;-0.0257612;0.000246021;0.00823638;-0.0111631;-0.00586158;0.0289599;0.0119847;0;0.039737;-1.85314;-0.354347;-0.438911;1.93709;-6.52815;0.00120939;0.000451302;0.00167868;0.00195269;0.000935373;0.000508657;-0.72044;-1.38804;0.00112772;0.000678209;-2.0876;-0.479019;99.7201;144.72;-0.0130248;0.00115756;0.0111047;-0.0101972;0.00161722;0.0259889;0.01809;0;0.0188658;1.04621
305000;306;25.782;0.0285668;0.00110924;-2.32934;25.6624;-0.850791;-0.220857;0.00219494;-0.263919;-1.6292;-0.351671;-0.193084;1.67787;-5.66602;0.000180453;-0.00200761;-0.00598221;0.000776772;-0.00657853;0.00367765;0.0301649;33.1511;0.00466621;0.00490353;0.118077;8.46906;36.5132;81.5132;-0.0249245;0.000111878;0.00780691;-0.0118828;-0.00601084;0.025571;0.0144705;0;0.0393894;-1.8502;-0.358425;-0.440227;1.93533;-6.52947;0.00137306;0.000147705;0.00172915;0.00178244;0.00131976;0.000231339;-0.794064;-1.25935;0.00106801;0.000308452;-1.35058;-0.740425;110.657;155.657;-0.0128321;0.0013234;0.0102723;-0.00997336;0.00167649;0.0246049;0.0202336;0;0.0173335;1.07119
306000;307;25.7825;0.0291276;0.00113102;-2.32783;25.6631;-0.852211;-0.219355;0.00284756;-0.265339;-1.62688;-0.354267;-0.195104;1.6764;-5.66804;-9.84587e-05;-0.00175053;-0.00572187;0.000401939;-0.00622226;0.0033121;-0.0172074;-58.1144;0.00428844;0.00441614;0.0645969;15.4806;37.1305;82.1305;-0.0266938;-0.000164447;0.00806354;-0.0116199;-0.00575302;0.0305612;0.0124898;0;0.0444358;-1.84783;-0.362196;-0.441639;1.93409;-6.53088;0.00115933;-0.000174215;0.00154432;0.00161145;0.0010922;0.000259622;-0.75071;-1.33207;0.00094977;0.000346163;-1.47541;-0.677778;151.974;16.974;-0.0116117;0.00111045;0.00955027;-0.00989494;0.0014988;0.0207084;0.0188211;0;0.0150609;1.0943
307000;308;25.7831;0.0297393;0.00115477;-2.32889;25.6635;-0.854028;-0.220407;0.00330624;-0.267156;-1.62377;-0.356856;-0.195887;1.67402;-5.66882;-0.000398242;-0.00149769;-0.00485847;5.7994e-05;-0.0053147;0.00268635;-0.0819686;-12.1998;0.00356262;0.0035818;0.010912;91.6423;35.421;80.421;-0.0264235;-0.00046111;0.00827141;-0.0113104;-0.00489172;0.0286992;0.0106416;0;0.0483176;-1.84471;-0.365835;-0.444613;1.93248;-6.53385;0.00119702;-0.000405495;0.00169158;0.00191925;0.000969358;0.000474946;-0.707636;-1.41316;0.0011081;0.000633261;-1.97992;-0.505071;159.939;24.9389;-0.0108483;0.00114606;0.00930397;-0.0101101;0.00164846;0.0186511;0.0189907;0;0.0223561;1.11816
308000;309;25.7826;0.029174;0.00113282;-2.32907;25.6627;-0.862157;-0.220588;0.00245008;-0.275285;-1.62168;-0.360969;-0.193968;1.67265;-5.6669;-0.000389765;-0.00170345;-0.00366269;0.000335924;-0.00438838;0.00236215;-0.106415;-9.39717;0.00304375;0.00314954;0.0765485;13.0636;27.6834;72.6834;-0.0262957;-0.000453471;0.00797464;-0.0114132;-0.00369315;0.0300689;0.0129787;0;0.0513907;-1.84301;-0.371049;-0.444634;1.93185;-6.53388;0.00103651;-0.000425862;0.0017395;0.00194019;0.000835825;0.000552182;-0.59587;-1.67822;0.00112374;0.000736243;-2.32129;-0.430796;156.03;21.0298;-0.0110447;0.000985158;0.00930396;-0.0101488;0.00169638;0.0187095;0.016874;0;0.0338511;1.14588
309000;310;25.7838;0.0304294;0.00118157;-2.32964;25.664;-0.858739;-0.221162;0.00377383;-0.271867;-1.61833;-0.362785;-0.196203;1.67006;-5.66914;-0.000816302;-0.00176727;-0.00271937;0.000239317;-0.00377499;0.00200715;-0.300181;-3.33133;0.00260011;0.0026762;0.0633955;15.774;19.0104;64.0104;-0.0269283;-0.000884233;0.00823082;-0.0117843;-0.00275177;0.0287327;0.0131452;0;0.0481189;-1.84036;-0.373824;-0.447498;1.93053;-6.53674;0.000917432;-0.000448679;0.001951;0.0021186;0.000749834;0.000684382;-0.470237;-2.12659;0.00124045;0.00091251;-2.82542;-0.353929;150.933;15.9328;-0.0103769;0.00087075;0.0087894;-0.00967719;0.00191255;0.0179691;0.0128451;0;0.0341878;1.16948
310000;311;25.7853;0.0319465;0.00124048;-2.32945;25.6654;-0.863788;-0.220972;0.00514581;-0.276916;-1.61686;-0.367422;-0.19426;1.66943;-5.66719;-0.000828398;-0.00228973;-0.00116784;0.00129789;-0.00329413;0.00229601;-0.709344;-1.40975;0.00273343;0.00306135;0.394003;2.53805;4.8094;49.8094;-0.0279897;-0.000902013;0.00776019;-0.0123428;-0.00119536;0.0322891;0.0110846;0;0.0550392;-1.83857;-0.378423;-0.448643;1.92998;-6.53789;0.0006907;-0.000331507;0.00209294;0.00216737;0.000616277;0.000775544;-0.330014;-3.03018;0.00128954;0.00103406;-3.51687;-0.284344;143.143;8.14294;-0.0111311;0.00064696;0.00871169;-0.00936202;0.00205513;0.0175431;0.0139924;0;0.039838;1.19383
311000;312;25.7837;0.0303332;0.00117783;-2.32847;25.6639;-0.862333;-0.219995;0.00366263;-0.275461;-1.6137;-0.369933;-0.199367;1.66752;-5.6723;-0.000761388;-0.00160002;0.000359128;0.00149415;-0.00189641;0.00169528;2.1201;0.471676;0.00196213;0.00226037;0.787883;1.26922;170.793;35.7931;-0.0264694;-0.000825892;0.00827697;-0.0114658;0.000326166;0.029507;0.00820304;0;0.0564001;-1.83612;-0.382184;-0.452719;1.92934;-6.54196;0.000503694;-0.000584458;0.00185653;0.00207405;0.00028617;0.000893941;-0.27131;-3.68582;0.00129787;0.00119192;-7.24763;-0.137976;151.547;16.5472;-0.0107924;0.000458043;0.00841866;-0.00957538;0.00182132;0.0162018;0.011369;0;0.0379251;1.22007
312000;313;25.7841;0.0306574;0.00119042;-2.32909;25.6641;-0.863722;-0.220607;0.00388605;-0.27685;-1.6112;-0.373601;-0.200417;1.66604;-5.67335;-0.00115437;-0.00164617;0.00156303;0.0023388;-0.00193014;0.00213447;0.738548;1.35401;0.00246843;0.00284596;1.21172;0.82527;159.502;24.5017;-0.0268323;-0.00122019;0.00831924;-0.0115844;0.00152983;0.0305804;0.00541536;0;0.0608866;-1.83397;-0.386243;-0.455585;1.92878;-6.54483;0.000349984;-0.00055094;0.00206914;0.00223055;0.000188578;0.00102098;-0.169145;-5.91209;0.00142833;0.00136131;-11.8283;-0.0845433;147.366;12.3655;-0.0110642;0.000304733;0.00844435;-0.00953076;0.00203371;0.0145587;0.0126296;0;0.0305607;1.24548
313000;314;25.7878;0.0343703;0.00133459;-2.33025;25.6678;-0.86167;-0.221776;0.00757925;-0.274798;-1.60859;-0.376489;-0.202284;1.6644;-5.67522;-0.000774933;-0.00165129;0.00206304;0.00282128;-0.00153316;0.00217722;0.375626;2.66222;0.00255044;0.00290296;1.84017;0.543429;157.661;22.6614;-0.0275731;-0.000840266;0.00827064;-0.011545;0.00203027;0.0338567;0.00940271;0;0.0583545;-1.83176;-0.389962;-0.457769;1.92795;-6.54701;1.23337e-05;-0.00049614;0.00231137;0.00241387;-9.01653e-05;0.00125202;-0.00533612;-187.402;0.00164013;0.00166935;26.7716;0.0373531;142.801;7.80141;-0.0108187;-3.10544e-05;0.0083566;-0.00932854;0.00227665;0.0137644;0.0120773;0;0.0271371;1.27234
314000;315;25.7879;0.034529;0.00134076;-2.33059;25.6679;-0.863783;-0.222108;0.0076375;-0.276911;-1.60657;-0.379961;-0.201897;1.66319;-5.67483;-0.0011554;-0.00191991;0.00254612;0.00336207;-0.00197135;0.00266671;0.453789;2.20367;0.00311395;0.00355561;1.70546;0.586351;155.89;20.8904;-0.0276405;-0.00122432;0.00808658;-0.0118893;0.00251534;0.034986;0.00462885;0;0.0543861;-1.82962;-0.394069;-0.459216;1.92709;-6.54846;-0.000342409;-0.000199466;0.00215978;0.00217558;-0.00035821;0.0012669;0.158538;6.30762;0.00158336;0.0016892;6.07349;0.16465;136.496;1.49642;-0.0104732;-0.000384014;0.00874589;-0.00912247;0.00212164;0.0144412;0.00997406;0;0.0226708;1.29967
315000;316;25.7912;0.0378425;0.00146942;-2.33176;25.6715;-0.850767;-0.223284;0.0112943;-0.263895;-1.60377;-0.381157;-0.208272;1.66154;-5.68121;-0.00112207;-0.00220954;0.00202412;0.00316335;-0.0022613;0.00271232;0.55435;1.80391;0.00314632;0.00361643;1.39891;0.714844;160.822;25.8218;-0.0284037;-0.00119209;0.00764366;-0.0120316;0.0019974;0.0344741;0.00455351;0;0.0530534;-1.82718;-0.396582;-0.465495;1.9268;-6.55474;-0.000494524;9.55576e-05;0.00224016;0.00224349;-0.000497859;0.00137068;0.220754;4.52993;0.00168629;0.00182757;4.50628;0.221912;130.279;175.279;-0.0112216;-0.000540096;0.00976244;-0.00954496;0.00219262;0.0168907;0.0117061;0;0.0243817;1.3218
316000;317;25.79;0.0365619;0.00141969;-2.33176;25.67;-0.857653;-0.223285;0.00977848;-0.270781;-1.60128;-0.383854;-0.209901;1.65997;-5.68284;-0.00104763;-0.00200599;0.00165751;0.00272433;-0.00211444;0.00241939;0.632048;1.58216;0.00280105;0.00322585;1.28844;0.776134;161.975;26.9753;-0.0263792;-0.00111555;0.00783525;-0.0118205;0.00162888;0.0355828;0.00580808;0;0.0483224;-1.82495;-0.399694;-0.468063;1.92595;-6.55731;-0.000463013;0.000169881;0.00211746;0.0021286;-0.000474149;0.00130137;0.218664;4.57322;0.0016007;0.00173516;4.4893;0.222752;128.675;173.675;-0.0117214;-0.000508427;0.00989431;-0.00952952;0.00206863;0.0185354;0.01405;0;0.0236233;1.34844
317000;318;25.7913;0.0378854;0.00147108;-2.33128;25.6713;-0.858723;-0.222798;0.0111167;-0.271851;-1.5996;-0.386847;-0.213398;1.65949;-5.68633;-0.000322967;-0.00168333;0.000701057;0.00194852;-0.00157043;0.00175948;0.460685;2.17068;0.00203558;0.00234597;1.24076;0.80596;170.84;35.84;-0.0259543;-0.000385322;0.00793491;-0.0112916;0.000671013;0.0340897;0.00599807;0;0.0462944;-1.82301;-0.402906;-0.473703;1.92616;-6.56295;-0.00115794;0.000214153;0.00227041;0.00228373;-0.00117127;0.0017275;0.510015;1.96073;0.00202892;0.00230333;1.9498;0.512874;129.74;174.74;-0.0120234;-0.00120824;0.0104895;-0.0100261;0.00221554;0.0198631;0.014973;0;0.0222965;1.37435
318000;319;25.7922;0.0387952;0.00150641;-2.33124;25.6722;-0.861967;-0.222757;0.0119257;-0.275095;-1.59675;-0.388904;-0.217067;1.6577;-5.69;-8.95009e-05;-0.00195346;-0.000115357;0.00185107;-0.00205593;0.0019535;-0.775859;-1.28889;0.00225674;0.00260466;0.900357;1.11067;0.358654;45.3587;-0.0251792;-0.000154103;0.00762578;-0.0115328;-0.000142529;0.0318595;0.00709953;0;0.0460168;-1.82017;-0.406177;-0.478555;1.92537;-6.5678;-0.00125443;0.000257452;0.00202236;0.00204246;-0.00127453;0.0016585;0.620281;1.61217;0.0019321;0.00221133;1.60252;0.624019;129.364;174.364;-0.0123237;-0.00131012;0.0111003;-0.0105499;0.00196091;0.0222687;0.0165188;0;0.0216996;1.40179
319000;320;25.7937;0.0403467;0.00156665;-2.33097;25.6737;-0.864501;-0.222486;0.0134239;-0.277629;-1.59438;-0.390438;-0.217758;1.65587;-5.69069;-0.000212061;-0.00197625;-0.00087261;0.00146132;-0.00254599;0.00200366;-0.24302;-4.1149;0.0023417;0.00267154;0.573969;1.74225;6.2578;51.2578;-0.0263077;-0.00027498;0.00743057;-0.0113891;-0.000898287;0.0357866;0.00647089;0;0.0487198;-1.81717;-0.408647;-0.48138;1.92375;-6.57062;-0.000977896;0.000324553;0.00210809;0.00214185;-0.00101166;0.00157676;0.463878;2.15574;0.00185925;0.00210234;2.11716;0.47233;127.453;172.453;-0.0117625;-0.00103662;0.01152;-0.0108364;0.00204192;0.0232166;0.0187732;0;0.0194507;1.42462
320000;321;25.7936;0.0402304;0.00156214;-2.33063;25.6733;-0.871352;-0.222151;0.0131058;-0.28448;-1.59177;-0.393617;-0.21859;1.65422;-5.69153;-2.04976e-05;-0.00224885;-0.00147747;0.00161491;-0.00311288;0.0023639;-0.0138734;-72.0804;0.00277489;0.00315186;0.518783;1.92759;11.0942;56.0942;-0.0258459;-8.69417e-05;0.00723339;-0.0117447;-0.00150114;0.0338204;0.00868754;0;0.0419358;-1.81412;-0.412514;-0.485901;1.92283;-6.57514;-0.000977935;0.000262603;0.00199903;0.00202201;-0.00100092;0.00151147;0.489206;2.04413;0.00177817;0.00201529;2.02015;0.495013;128.546;173.546;-0.0119319;-0.00103916;0.0116221;-0.0110632;0.00193166;0.0222001;0.0222905;0;0.0174514;1.4515
321000;322;25.7951;0.0416702;0.00161805;-2.33145;25.6747;-0.871338;-0.222971;0.0144784;-0.284466;-1.58968;-0.394916;-0.222413;1.65303;-5.69535;-0.00035208;-0.00199912;-0.00303114;0.000714805;-0.00409802;0.00240641;-0.116154;-8.60923;0.00299882;0.00320855;0.174427;5.73306;21.8806;66.8806;-0.0276473;-0.000415076;0.0073759;-0.0113992;-0.00305642;0.038449;0.0122263;0;0.0414706;-1.81138;-0.414554;-0.492966;1.92249;-6.58221;-0.00035321;8.45052e-05;0.00222497;0.00222774;-0.000355977;0.00129186;0.158748;6.29928;0.00161693;0.00172248;6.25809;0.159793;130.525;175.525;-0.011869;-0.000412164;0.011054;-0.0108568;0.00216401;0.0216201;0.0234842;0;0.0194535;1.47559
322000;323;25.797;0.0436276;0.00169405;-2.33039;25.6766;-0.875004;-0.221911;0.0164165;-0.288132;-1.58789;-0.398423;-0.221176;1.65198;-5.69411;0.000184533;-0.00182529;-0.00389128;0.000882455;-0.0045892;0.00273583;0.0474221;21.0872;0.0033921;0.00364777;0.192289;5.2005;29.6026;74.6026;-0.0254624;0.000124678;0.00740505;-0.0110933;-0.00391713;0.0317796;0.0131278;0;0.0394068;-1.80918;-0.420006;-0.492802;1.92156;-6.58204;0.000190356;-5.3997e-05;0.00254958;0.00255081;0.000189121;0.00118085;-0.0746617;-13.3938;0.00164114;0.00157446;-13.4878;-0.0741413;132.457;177.457;-0.0114331;0.000134299;0.0105063;-0.0105894;0.00249453;0.0200648;0.0225297;0;0.0197008;1.50211
323000;324;25.7988;0.045398;0.00176279;-2.32983;25.6784;-0.876693;-0.221352;0.0181883;-0.289821;-1.58493;-0.400377;-0.222806;1.64983;-5.69574;0.000210588;-0.00179072;-0.00395614;0.00087442;-0.00461997;0.00274719;0.0532307;18.7861;0.00340904;0.00366293;0.18927;5.28347;30.0918;75.0918;-0.0256262;0.00014819;0.00769381;-0.0113148;-0.00398424;0.0322065;0.0134636;0;0.0406337;-1.80596;-0.42372;-0.496172;1.92022;-6.58541;0.000767093;3.7477e-05;0.00264514;0.00264589;0.000766345;0.000939773;-0.29;-3.44827;0.00157203;0.00125303;-3.45261;-0.289636;129.003;174.003;-0.0116451;0.000714587;0.0103456;-0.0102514;0.00259177;0.0198639;0.021873;0;0.0307507;1.52941
324000;325;25.8005;0.0470544;0.00182712;-2.32912;25.68;-0.88037;-0.220637;0.0197916;-0.293498;-1.5827;-0.402068;-0.224512;1.64834;-5.69745;0.000198523;-0.00192337;-0.0049495;0.000837746;-0.00558873;0.00321324;0.0401097;24.9316;0.00403417;0.00428432;0.149899;6.67115;33.6696;78.6696;-0.0266963;0.000137596;0.00731165;-0.011206;-0.00497451;0.0354136;0.014142;0;0.038964;-1.80322;-0.426616;-0.500283;1.91934;-6.58993;0.000823801;0.000118442;0.00282641;0.00283339;0.000816821;0.00100829;-0.291465;-3.43094;0.00168403;0.00134438;-3.46881;-0.288284;126.229;171.229;-0.011245;0.000776662;0.00997084;-0.00971429;0.00277685;0.0178622;0.0233921;0;0.0319687;1.55565
325000;326;25.8035;0.0500759;0.00194444;-2.32872;25.6832;-0.877706;-0.220238;0.0229546;-0.290835;-1.5809;-0.406226;-0.222526;1.64735;-5.69546;0.000123716;-0.00163946;-0.00557536;0.000561682;-0.00601333;0.0032875;0.0221898;45.0657;0.00420862;0.00438334;0.0934062;10.7059;38.091;83.091;-0.0252963;6.52527e-05;0.00760562;-0.0109374;-0.00560309;0.0295292;0.0170894;0;0.0410752;-1.80118;-0.432395;-0.498895;1.91836;-6.58814;0.00114607;5.91753e-05;0.00272761;0.00272982;0.00114386;0.000792979;-0.420175;-2.37996;0.00158294;0.0010573;-2.38649;-0.419025;127.212;172.212;-0.0124218;0.00109716;0.0100303;-0.00989625;0.00267744;0.0194182;0.0175405;0;0.030863;1.58029
326000;327;25.8048;0.0513653;0.00199451;-2.32776;25.6845;-0.880564;-0.219277;0.0242394;-0.293692;-1.57854;-0.40829;-0.221235;1.64543;-5.69417;-7.21212e-05;-0.00176847;-0.00554887;0.000449284;-0.00607028;0.00325978;-0.0129974;-76.9382;0.00420462;0.00434637;0.0740137;13.511;36.8114;81.8114;-0.0252248;-0.000132408;0.00753356;-0.0111216;-0.00557584;0.0306109;0.0176173;0;0.0407182;-1.79853;-0.435954;-0.497765;1.91638;-6.58701;0.00126562;3.01514e-06;0.00285793;0.00285794;0.00126562;0.00079616;-0.442846;-2.25812;0.00165362;0.00106155;-2.25814;-0.442843;128.903;173.903;-0.0128054;0.00121606;0.00998441;-0.00996253;0.00280823;0.0207413;0.0192638;0;0.0310991;1.6065
327000;328;25.8075;0.0541083;0.00210102;-2.32803;25.6873;-0.877895;-0.219546;0.0270621;-0.291023;-1.5768;-0.410113;-0.223798;1.64456;-5.69673;-9.83414e-05;-0.00187827;-0.00511243;0.000527209;-0.00573798;0.0031326;-0.0192357;-51.9866;0.00401262;0.00417679;0.0918806;10.8837;34.1305;79.1305;-0.0250757;-0.000161173;0.00756155;-0.0113655;-0.0051394;0.0264086;0.0172359;0;0.0436272;-1.79666;-0.439276;-0.500298;1.91605;-6.58954;0.00111732;-1.10757e-05;0.00293768;0.00293775;0.00111726;0.000910246;-0.380342;-2.62921;0.00171223;0.00121366;-2.62943;-0.38031;129.478;174.478;-0.012801;0.0010672;0.0100141;-0.0100181;0.00288768;0.0207345;0.0174423;0;0.0279249;1.63107
328000;329;25.8085;0.05512;0.0021403;-2.32803;25.6883;-0.878544;-0.219549;0.0280561;-0.291672;-1.57427;-0.412209;-0.224917;1.64281;-5.69785;-0.000368481;-0.00212793;-0.0053391;0.000418037;-0.00612561;0.00327182;-0.0690157;-14.4895;0.00422998;0.00436243;0.0682441;14.6533;32.8312;77.8312;-0.0262775;-0.00043547;0.00746293;-0.0117665;-0.00536482;0.0307553;0.0156883;0;0.0453355;-1.79442;-0.443045;-0.501783;1.91521;-6.59103;0.00117576;-4.90066e-07;0.0030883;0.0030883;0.00117576;0.000956269;-0.380715;-2.62663;0.00179987;0.00127503;-2.62663;-0.380715;128.692;173.692;-0.0126763;0.00112853;0.00974265;-0.00972506;0.00304099;0.0201624;0.0154878;0;0.0233241;1.65531
329000;330;25.8102;0.0568379;0.00220701;-2.327;25.6902;-0.877226;-0.218524;0.02992;-0.290354;-1.57193;-0.415918;-0.223048;1.64125;-5.69598;-0.000307759;-0.00169444;-0.0046964;0.000270317;-0.00527448;0.0027724;-0.0655308;-15.26;0.0036098;0.00369653;0.05125;19.5122;33.287;78.287;-0.0262678;-0.000370868;0.0079287;-0.0113599;-0.00472654;0.0313342;0.013844;0;0.0524368;-1.79212;-0.447149;-0.501593;1.91396;-6.59083;0.00119925;-5.61884e-06;0.00320834;0.00320835;0.00119924;0.00100456;-0.373792;-2.67528;0.00187191;0.00133941;-2.67533;-0.373786;128.597;173.597;-0.0123521;0.00115257;0.00967595;-0.0096678;0.00316167;0.0186774;0.0151041;0;0.0246889;1.68142
330000;331;25.8093;0.0558561;0.00216888;-2.32668;25.6889;-0.885653;-0.218197;0.0286741;-0.298782;-1.57009;-0.418663;-0.220749;1.63988;-5.69368;-0.000402316;-0.00175828;-0.00388021;0.000331685;-0.00461421;0.00247295;-0.103684;-9.64469;0.00319245;0.00329727;0.0718833;13.9114;28.5551;73.5551;-0.0258602;-0.000464263;0.00771694;-0.0112664;-0.00390855;0.029715;0.013103;0;0.0498382;-1.79048;-0.450637;-0.501929;1.91333;-6.59117;0.000830952;-0.000105896;0.00301486;0.00301999;0.000825829;0.00109708;-0.275618;-3.62821;0.00180226;0.00146277;-3.65692;-0.273454;131.838;176.838;-0.0116699;0.000786091;0.00928518;-0.00947652;0.00297189;0.0166607;0.0155492;0;0.0214822;1.70882
331000;332;25.8081;0.0547415;0.0021256;-2.32802;25.6876;-0.888265;-0.219541;0.0273423;-0.301393;-1.56732;-0.420648;-0.224817;1.63829;-5.69775;-0.00124935;-0.00200496;-0.00250994;0.000222059;-0.00398134;0.0021017;-0.49776;-2.009;0.00273126;0.00280227;0.0557748;17.9293;14.0985;59.0985;-0.0267743;-0.0013153;0.00762961;-0.0116515;-0.0025371;0.0319366;0.0120401;0;0.0495664;-1.78823;-0.453836;-0.504502;1.91265;-6.59374;0.00071017;0.00012593;0.00320376;0.0032101;0.000703827;0.00125314;-0.221668;-4.51125;0.0019483;0.00167085;-4.56092;-0.219254;126.22;171.22;-0.01211;0.000665326;0.0097502;-0.00947443;0.00315638;0.0164589;0.0131498;0;0.0256184;1.73555
332000;333;25.8083;0.0549264;0.00213278;-2.32741;25.6877;-0.890185;-0.218932;0.0275167;-0.303313;-1.56506;-0.423642;-0.227142;1.63722;-5.70008;-0.00116928;-0.0016369;-0.00145281;0.000331984;-0.00295407;0.00164303;-0.804839;-1.24248;0.00208886;0.00219071;0.112382;8.89823;6.18342;51.1834;-0.0261607;-0.00123225;0.00805807;-0.0113345;-0.00148398;0.030137;0.0132789;0;0.0513467;-1.78596;-0.45689;-0.509981;1.91271;-6.59922;0.000532424;0.000158759;0.00305575;0.0030657;0.000522475;0.00127161;-0.174237;-5.73932;0.00189382;0.00169548;-5.86765;-0.170426;125.987;170.987;-0.0112833;0.000487872;0.00978494;-0.00944322;0.00300804;0.0157563;0.0148326;0;0.026367;1.76203
333000;334;25.8072;0.0537777;0.00208818;-2.32719;25.6865;-0.893516;-0.218715;0.0262667;-0.306644;-1.56237;-0.426971;-0.22781;1.63561;-5.70074;-0.0015494;-0.0020327;-0.000295373;0.00120482;-0.0030496;0.00212721;-5.24559;-0.190637;0.00253209;0.00283628;0.395076;2.53116;173.959;38.9594;-0.0279395;-0.00161803;0.00782856;-0.0118814;-0.000323959;0.0350279;0.0117525;0;0.0518942;-1.78358;-0.460656;-0.51142;1.91178;-6.60066;0.00034216;2.69692e-05;0.00275704;0.00275734;0.000341859;0.00120774;-0.124104;-8.05775;0.00173554;0.00161032;-8.06573;-0.123981;129.859;174.859;-0.0113612;0.000291371;0.0101586;-0.0100803;0.00270559;0.0161266;0.0156739;0;0.027556;1.78926
334000;335;25.8081;0.0546612;0.00212249;-2.32798;25.6873;-0.892974;-0.219497;0.0271024;-0.306102;-1.55973;-0.429369;-0.224337;1.63323;-5.69727;-0.00114137;-0.0017375;0.000943871;0.00192757;-0.00212507;0.00202632;1.20925;0.82696;0.00234072;0.00270176;0.907061;1.10246;164.674;29.6743;-0.026733;-0.00120396;0.00786113;-0.011316;0.000914509;0.0327562;0.0109606;0;0.0597601;-1.78133;-0.462971;-0.511187;1.91018;-6.60043;-2.18646e-05;-7.91318e-05;0.00259115;0.00259355;-2.42588e-05;0.0013089;0.00843817;118.509;0.00173717;0.0017452;106.912;0.00935352;132.862;177.862;-0.0109668;-7.06991e-05;0.00975022;-0.00988286;0.00254374;0.0157113;0.0135469;0;0.0203985;1.81219
335000;336;25.8061;0.0526725;0.00204526;-2.32728;25.6853;-0.896942;-0.2188;0.0250292;-0.31007;-1.55876;-0.432385;-0.228896;1.63374;-5.70183;-0.00119123;-0.00173699;0.0014832;0.00233808;-0.00204611;0.0021921;0.803145;1.24511;0.00253308;0.00292279;1.1427;0.875122;160.635;25.635;-0.0268088;-0.00125522;0.00799094;-0.0114388;0.00145283;0.0336587;0.00862352;0;0.0570427;-1.78014;-0.46645;-0.515161;1.91098;-6.6044;-7.65602e-05;-0.00018624;0.00274476;0.002757;-8.88011e-05;0.0014229;0.0278932;35.851;0.0018683;0.0018972;31.0469;0.0322093;134.86;179.86;-0.0110631;-0.00012955;0.00995188;-0.0102958;0.00269539;0.0162271;0.0156659;0;0.0207034;1.83954
336000;337;25.8077;0.0543243;0.0021094;-2.329;25.6869;-0.891984;-0.220519;0.0267055;-0.305112;-1.55646;-0.435132;-0.23143;1.63263;-5.70436;-0.000798446;-0.00153838;0.00211004;0.00277273;-0.00146114;0.00211694;0.378403;2.64268;0.00248322;0.00282258;1.89765;0.526967;156.237;21.237;-0.0271514;-0.000860618;0.00820367;-0.011252;0.00207764;0.033948;0.011172;0;0.0581858;-1.77799;-0.469829;-0.520192;1.91118;-6.60943;-0.000431051;-0.000117181;0.00281864;0.00282286;-0.000435271;0.00162907;0.152929;6.539;0.00204252;0.00217209;6.4853;0.154195;133.657;178.657;-0.0114169;-0.00048687;0.0103637;-0.0105641;0.00276509;0.0178563;0.0150471;0;0.020606;1.86452
337000;338;25.8094;0.055955;0.00217272;-2.32818;25.6884;-0.898479;-0.219704;0.0281915;-0.311607;-1.55386;-0.43741;-0.236869;1.63154;-5.7098;-0.00119518;-0.00212556;0.001237;0.00246976;-0.00242794;0.00244885;0.966192;1.03499;0.00282772;0.00326513;1.01722;0.983067;164.911;29.9111;-0.0268174;-0.00126382;0.00767439;-0.0119015;0.00120984;0.0349476;0.00863348;0;0.0550961;-1.77536;-0.473492;-0.526892;1.91147;-6.61613;-0.000749139;-0.000365814;0.0031122;0.00314655;-0.00078349;0.00196502;0.24071;4.15437;0.00240184;0.00262003;4.01607;0.249;137.051;2.05112;-0.0111376;-0.000809806;0.0103265;-0.011017;0.00305911;0.0183614;0.0178147;0;0.0244176;1.89207
338000;339;25.8115;0.0581284;0.00225712;-2.32848;25.6907;-0.89588;-0.220002;0.0304389;-0.309008;-1.55165;-0.440127;-0.237722;1.63029;-5.71066;-0.00124887;-0.0022139;0.00171721;0.00289889;-0.00243056;0.00266473;0.727268;1.37501;0.00308092;0.00355297;1.19269;0.838442;162.254;27.254;-0.0266401;-0.00131589;0.00738047;-0.0117797;0.00169247;0.0367761;0.00730848;0;0.0516962;-1.77298;-0.47707;-0.530806;1.91123;-6.62005;-0.00102717;-0.000480581;0.0031158;0.00317081;-0.00108219;0.0021265;0.329666;3.03338;0.00255226;0.00283534;2.93;0.341296;138.575;3.57511;-0.0115277;-0.00108875;0.0101848;-0.0111018;0.00306421;0.0191416;0.0188764;0;0.0336057;1.91716
339000;340;25.8132;0.0598243;0.00232297;-2.3289;25.6923;-0.896701;-0.220417;0.0320765;-0.309829;-1.54898;-0.442745;-0.239766;1.62876;-5.7127;-0.00136749;-0.00196499;0.00166362;0.00262962;-0.00233348;0.00248155;0.821996;1.21655;0.00286715;0.00330873;1.12691;0.887386;160.596;25.5959;-0.0269092;-0.00143104;0.00753542;-0.0114365;0.0016372;0.0340996;0.00986469;0;0.0551851;-1.7703;-0.480466;-0.535509;1.91091;-6.62475;-0.0012933;-0.000279242;0.00294823;0.00296654;-0.00131161;0.00213907;0.43867;2.27962;0.00253084;0.00285209;2.26176;0.442134;136.42;1.41992;-0.0117479;-0.00135538;0.0106269;-0.0111392;0.00289197;0.0196727;0.0201228;0;0.0367024;1.94676
340000;341;25.8136;0.0601877;0.00233708;-2.32888;25.6926;-0.899697;-0.220404;0.0323381;-0.312825;-1.54676;-0.444191;-0.243926;1.62766;-5.71686;-0.000823318;-0.00183057;0.000894069;0.00205734;-0.00198659;0.00202196;0.920867;1.08593;0.00233488;0.00269595;1.03561;0.965611;167.192;32.1918;-0.0265018;-0.000886237;0.00771674;-0.0113613;0.000865995;0.0368778;0.00675493;0;0.050368;-1.76791;-0.482545;-0.541094;1.91079;-6.63034;-0.00109149;-0.000438646;0.00320557;0.00324989;-0.00113581;0.00219285;0.340498;2.93687;0.00262832;0.0029238;2.86129;0.349492;137.695;2.69511;-0.0121034;-0.00114905;0.00989921;-0.0107322;0.00315682;0.0203;0.0179365;0;0.0407572;1.96586
341000;342;25.8154;0.0620374;0.0024089;-2.32857;25.6943;-0.904021;-0.220095;0.0340727;-0.317149;-1.54478;-0.446381;-0.245203;1.62657;-5.71814;-0.000468259;-0.00207706;0.000745419;0.00230247;-0.00202531;0.00216389;0.628183;1.59189;0.00250036;0.00288519;1.13685;0.879625;171.3;36.2997;-0.0253969;-0.00053187;0.00732361;-0.0114661;0.000720777;0.0342357;0.00958463;0;0.0446496;-1.76512;-0.485573;-0.546825;1.91061;-6.63607;-0.000915101;-0.000317224;0.00348923;0.00351196;-0.000937832;0.0022249;0.262264;3.81295;0.00270859;0.00296653;3.74477;0.267039;135.22;0.219717;-0.0116704;-0.000966189;0.00951719;-0.0101084;0.00344415;0.0176481;0.0154295;0;0.0349892;1.99323
342000;343;25.8181;0.0647335;0.00251359;-2.32779;25.6972;-0.900768;-0.219309;0.036967;-0.313896;-1.54316;-0.449758;-0.245551;1.62601;-5.71849;-0.000629006;-0.00186389;0.000702414;0.00201591;-0.0019425;0.00197921;0.895491;1.11671;0.00228552;0.00263894;1.03779;0.963585;169.927;34.9268;-0.0254806;-0.000686687;0.00718213;-0.0108977;0.000678377;0.0354482;0.00559057;0;0.0501492;-1.76392;-0.490673;-0.545052;1.9103;-6.63429;-0.000956978;-0.000404893;0.00318534;0.00322455;-0.000996183;0.00211037;0.300431;3.32855;0.00254753;0.00281382;3.2369;0.308937;137.182;2.18247;-0.0125218;-0.00101003;0.00953454;-0.0103032;0.00314012;0.0199713;0.0137876;0;0.0424315;2.01676
343000;344;25.8195;0.0660838;0.00256602;-2.32785;25.6985;-0.902726;-0.219372;0.0382492;-0.315854;-1.54045;-0.451;-0.246122;1.62388;-5.71906;-0.000427281;-0.0020389;-9.5696e-05;0.00178414;-0.00230712;0.00204563;-4.46498;-0.223965;0.00236851;0.0027275;0.77332;1.29313;178.383;43.383;-0.0247876;-0.000485693;0.00692204;-0.0109967;-0.000117577;0.0341152;0.00977652;0;0.0495245;-1.76036;-0.492582;-0.55187;1.90947;-6.64111;-0.000499524;-0.000261705;0.00365838;0.00367478;-0.000515931;0.00209536;0.136543;7.32372;0.0026387;0.00279381;7.12262;0.140398;133.605;178.605;-0.0118785;-0.00054453;0.00900357;-0.00948858;0.00361802;0.0160155;0.0154999;0;0.0324412;2.04663
344000;345;25.8207;0.0672678;0.002612;-2.3287;25.6994;-0.908557;-0.220224;0.0391561;-0.321685;-1.53819;-0.452023;-0.250134;1.62262;-5.72307;-0.00024119;-0.0020999;-0.00121707;0.00142671;-0.00288497;0.00215584;-0.198173;-5.04609;0.00253637;0.00287446;0.494533;2.02211;8.75972;53.7597;-0.025619;-0.000299315;0.00677483;-0.0109831;-0.00123784;0.0350645;0.00928298;0;0.0445382;-1.75821;-0.495003;-0.557363;1.9097;-6.6466;-0.000239345;-2.04529e-05;0.0037296;0.00372971;-0.000239451;0.00198458;0.0641744;15.5825;0.00257001;0.00264611;15.5761;0.0642009;129.676;174.676;-0.0107707;-0.000279891;0.00899865;-0.00900389;0.00368927;0.0140544;0.0174121;0;0.0244622;2.06929
345000;346;25.8219;0.0685072;0.00266012;-2.32795;25.7007;-0.909875;-0.219467;0.0404233;-0.323003;-1.53638;-0.454922;-0.250542;1.62179;-5.72348;7.96205e-05;-0.00156401;-0.0019437;0.000930644;-0.00279472;0.00186268;0.0409634;24.412;0.0022388;0.00248358;0.333001;3.003;19.3425;64.3425;-0.0240142;2.70198e-05;0.00722987;-0.0103756;-0.00196866;0.0305598;0.0130078;0;0.0426543;-1.75642;-0.499433;-0.558848;1.90965;-6.64809;-6.78629e-05;0.00011122;0.00381401;0.00381719;-7.10469e-05;0.00194412;0.0177931;56.2017;0.00256881;0.00259216;53.7278;0.0186123;127.207;172.207;-0.0106363;-0.000105279;0.00890729;-0.00865085;0.0037745;0.0152588;0.0197334;0;0.0204277;2.09802
346000;347;25.823;0.069579;0.00270174;-2.32831;25.7016;-0.912196;-0.219831;0.0413849;-0.325324;-1.53422;-0.456518;-0.253234;1.62061;-5.72617;-7.92959e-05;-0.00192825;-0.00193324;0.00113322;-0.00314576;0.00213949;-0.041017;-24.3801;0.00255993;0.00285265;0.360238;2.77595;15.8761;60.8761;-0.024695;-0.000137869;0.00712008;-0.0109932;-0.00195678;0.0316894;0.0128495;0;0.0408363;-1.75407;-0.502212;-0.562699;1.90935;-6.65194;0.000276356;0.000317372;0.00371651;0.00374554;0.000247322;0.00174911;-0.074359;-13.4483;0.00241881;0.00233215;-15.1444;-0.0660309;123.58;168.58;-0.0110972;0.000236168;0.00963871;-0.00897204;0.00367028;0.0175788;0.0183276;0;0.0206591;2.12187
347000;348;25.8247;0.0713464;0.00277037;-2.32748;25.7034;-0.913883;-0.219002;0.0431758;-0.327011;-1.53223;-0.459779;-0.251695;1.6194;-5.72463;-1.74115e-05;-0.00190584;-0.00290191;0.000930384;-0.00384971;0.00239005;-0.00600002;-166.666;0.00292632;0.00318673;0.241677;4.13776;22.9678;67.9678;-0.0254505;-7.65906e-05;0.00720679;-0.0110447;-0.00292613;0.0322573;0.014663;0;0.0444292;-1.75212;-0.506691;-0.560995;1.90824;-6.65024;0.000476927;0.000551927;0.00362398;0.00371797;0.000382938;0.00166752;-0.131603;-7.59861;0.00236137;0.00222336;-9.70908;-0.102996;119.19;164.19;-0.0112367;0.000435907;0.0102105;-0.00907644;0.00357219;0.0162674;0.0212676;0;0.017663;2.14847
348000;349;25.8234;0.0700126;0.00271858;-2.32776;25.7018;-0.920725;-0.219279;0.0415664;-0.333853;-1.53051;-0.462083;-0.251594;1.61842;-5.72453;4.97967e-05;-0.0022011;-0.00359664;0.00108472;-0.00463156;0.00285814;0.0138454;72.2263;0.00350567;0.00381085;0.234201;4.26983;25.1993;70.1993;-0.0254266;-1.17663e-05;0.00687729;-0.0113125;-0.00361794;0.0333563;0.017757;0;0.0426444;-1.75034;-0.509904;-0.562183;1.90781;-6.65143;0.000718696;0.000514829;0.00363716;0.00372531;0.000630541;0.00154739;-0.197598;-5.06077;0.00230232;0.00206318;-5.90812;-0.169259;118.866;163.866;-0.012153;0.00067597;0.0103197;-0.0092616;0.00358423;0.0201751;0.0213366;0;0.0192702;2.1719
349000;350;25.8242;0.0708304;0.00275033;-2.32673;25.7026;-0.923033;-0.218252;0.0423984;-0.336161;-1.52797;-0.463486;-0.25402;1.6168;-5.72696;-0.000255501;-0.00187677;-0.00362208;0.00058227;-0.00445985;0.00252106;-0.0705399;-14.1764;0.00318511;0.00336141;0.130558;7.65942;26.8891;71.8891;-0.0250739;-0.000313055;0.00710648;-0.0108902;-0.00364565;0.0311928;0.0162833;0;0.0415466;-1.74742;-0.51285;-0.564791;1.90669;-6.65403;0.000469765;0.000557022;0.0038052;0.00389576;0.0003792;0.00175828;-0.123454;-8.10021;0.00248045;0.00234437;-10.2736;-0.0973367;119.445;164.445;-0.012195;0.000427703;0.0103373;-0.00919084;0.00375212;0.0177881;0.0218066;0;0.0192693;2.19824
350000;351;25.8283;0.0749166;0.002909;-2.32799;25.7069;-0.916331;-0.219511;0.0466297;-0.329459;-1.52596;-0.466232;-0.253241;1.61557;-5.72618;-0.000109137;-0.00194888;-0.00350325;0.000778018;-0.00439041;0.00258421;-0.031153;-32.0996;0.00321778;0.00344562;0.177209;5.64307;25.959;70.959;-0.0247813;-0.000169238;0.00720598;-0.0111348;-0.0035274;0.0309206;0.0159647;0;0.0445214;-1.74522;-0.516783;-0.56405;1.90552;-6.65329;0.000799383;0.000601399;0.00386737;0.00398105;0.000685707;0.00164767;-0.206699;-4.83794;0.00245756;0.00219689;-5.80576;-0.172243;117.748;162.748;-0.0120473;0.000752919;0.0108966;-0.00966244;0.00380841;0.0196977;0.0236477;0;0.0180526;2.22512
351000;352;25.8286;0.0751919;0.00291969;-2.32678;25.7071;-0.919306;-0.218304;0.0469093;-0.332434;-1.52352;-0.468571;-0.253286;1.61395;-5.72622;-0.000400311;-0.00142054;-0.003952;9.79536e-05;-0.00445026;0.00227411;-0.101293;-9.87231;0.00300002;0.00303214;0.0220108;45.4323;32.2729;77.2729;-0.0251498;-0.00045462;0.00764287;-0.0105162;-0.00398031;0.031378;0.0173697;0;0.0454596;-1.74272;-0.520605;-0.563607;1.90414;-6.65285;0.000819241;0.000481283;0.00398145;0.00405307;0.000747613;0.00165273;-0.205765;-4.85992;0.00249053;0.00220364;-5.42135;-0.184456;120.102;165.102;-0.012389;0.000766447;0.0112874;-0.0102909;0.00391811;0.0166059;0.0226001;0;0.0156596;2.25132
352000;353;25.8305;0.0771317;0.00299501;-2.32687;25.7091;-0.919653;-0.218387;0.0488384;-0.332781;-1.52165;-0.469921;-0.254848;1.61282;-5.72778;-0.000432284;-0.00182244;-0.00398994;0.000335559;-0.00475778;0.00254667;-0.108343;-9.22991;0.00328942;0.00339556;0.0705284;14.1787;28.8066;73.8066;-0.0258734;-0.000491031;0.00731174;-0.0109891;-0.00401511;0.0318184;0.0158899;0;0.0442189;-1.74073;-0.523607;-0.564869;1.90352;-6.65411;0.000812964;0.00028366;0.00378896;0.00381576;0.000786168;0.0015148;-0.214561;-4.66068;0.00232649;0.00201973;-4.85362;-0.206032;123.422;168.422;-0.0120334;0.000758063;0.0110859;-0.0104865;0.00372778;0.0169815;0.0216128;0;0.0156047;2.27279
353000;354;25.832;0.0786119;0.00305249;-2.32701;25.7105;-0.920791;-0.218535;0.0502714;-0.333919;-1.51853;-0.474547;-0.253046;1.61095;-5.72598;-0.000454527;-0.00156846;-0.00368186;0.000182137;-0.00431853;0.00225033;-0.12345;-8.10043;0.00294161;0.00300044;0.0421757;23.7103;29.1118;74.1118;-0.0252886;-0.000511328;0.00760416;-0.0107707;-0.00370965;0.0301487;0.0169629;0;0.0494165;-1.73788;-0.529475;-0.565005;1.90258;-6.65465;0.0005326;-1.64639e-05;0.00386514;0.00386522;0.000532519;0.00166635;-0.137796;-7.25711;0.00241892;0.0022218;-7.25837;-0.137772;129.426;174.426;-0.0122607;0.000473088;0.010916;-0.0109126;0.00380579;0.0188873;0.019866;0;0.0219973;2.3018
354000;355;25.8306;0.0772181;0.00299837;-2.32678;25.7089;-0.92687;-0.218303;0.0486737;-0.339998;-1.51646;-0.477548;-0.253871;1.61002;-5.72681;-0.000920713;-0.00190738;-0.00303089;0.000203951;-0.00415556;0.00217975;-0.303776;-3.2919;0.0028408;0.00290634;0.049079;20.3753;20.2325;65.2325;-0.0253288;-0.000983664;0.00754168;-0.0113763;-0.0030576;0.03067;0.0152454;0;0.0517734;-1.73593;-0.533697;-0.566246;1.90234;-6.65549;0.000454906;2.83222e-06;0.00385889;0.0038589;0.000454904;0.001702;-0.117885;-8.48283;0.00243517;0.00226933;-8.48288;-0.117884;129.009;174.009;-0.0118985;0.00039968;0.0105533;-0.0105119;0.00380342;0.0175986;0.0204639;0;0.0249197;2.32522
355000;356;25.8335;0.0800806;0.00310951;-2.32564;25.712;-0.922296;-0.217163;0.0518171;-0.335424;-1.51348;-0.479682;-0.256487;1.60826;-5.72942;-0.000806815;-0.00136579;-0.0014657;0.000268703;-0.00254121;0.00140496;-0.550466;-1.81664;0.00179044;0.00187328;0.105738;9.45734;10.0618;55.0618;-0.0246645;-0.000864729;0.00810649;-0.0108442;-0.00149767;0.0296365;0.0146055;0;0.0525728;-1.73295;-0.536741;-0.569524;1.90147;-6.65877;0.000132994;-0.000149371;0.00368381;0.00369009;0.000126722;0.00178168;-0.0361023;-27.699;0.00241892;0.00237558;-29.1196;-0.0343412;132.207;177.207;-0.0121889;7.39658e-05;0.0106063;-0.010867;0.00362778;0.0183762;0.0161257;0;0.0337931;2.35039
356000;357;25.8339;0.0805214;0.00312663;-2.32596;25.7124;-0.924477;-0.217484;0.0521527;-0.337606;-1.51098;-0.482744;-0.25623;1.60678;-5.72917;-0.00129241;-0.00175014;-0.000218896;0.00107495;-0.00258625;0.0018306;-5.90421;-0.169371;0.002173;0.0024408;0.415639;2.40594;173.598;38.5975;-0.0258681;-0.00135482;0.0078111;-0.011301;-0.000247878;0.0336059;0.0118642;0;0.057129;-1.73027;-0.540237;-0.572181;1.90081;-6.66142;-0.000117105;-0.000267922;0.00370606;0.00372474;-0.000135789;0.00193027;0.0315982;31.6473;0.00252964;0.00257369;27.4303;0.036456;134.09;179.09;-0.012921;-0.000177457;0.0104942;-0.010989;0.00365123;0.0208507;0.0139437;0;0.0364911;2.3774
357000;358;25.8336;0.0802181;0.00311485;-2.32495;25.712;-0.930557;-0.216468;0.0517206;-0.343685;-1.50745;-0.485688;-0.259697;1.60491;-5.73263;-0.00116184;-0.00157083;0.00119928;0.00198372;-0.00194628;0.001965;0.968778;1.03223;0.00226902;0.00262;1.01924;0.981124;161.343;26.343;-0.0254916;-0.00122319;0.00806224;-0.011181;0.00116805;0.0323171;0.0125201;0;0.0618524;-1.72671;-0.543936;-0.578624;1.90058;-6.66787;-0.000700089;-0.000314579;0.00382244;0.00384421;-0.000721866;0.00228304;0.183153;5.45993;0.00283424;0.00304405;5.32539;0.18778;134.694;179.694;-0.013252;-0.000761716;0.0105221;-0.0111024;0.00376734;0.0228827;0.016081;0;0.0496527;2.40398
358000;359;25.8315;0.0781272;0.00303367;-2.32578;25.7097;-0.932927;-0.217303;0.0494584;-0.346055;-1.50427;-0.489004;-0.259387;1.60289;-5.73232;-0.00116683;-0.00155353;0.00232561;0.00291664;-0.00175786;0.00233725;0.501731;1.9931;0.00272633;0.00311634;1.6592;0.602701;153.958;18.958;-0.0253888;-0.00122729;0.00802582;-0.0110994;0.00229468;0.0314731;0.0110498;0;0.0562946;-1.72388;-0.546584;-0.581469;1.89964;-6.67071;-0.00101815;-0.000357007;0.00378239;0.00380879;-0.00104455;0.00242667;0.269182;3.71496;0.00294969;0.00323556;3.64633;0.274248;135.555;0.555186;-0.0142384;-0.00108483;0.0108874;-0.0115476;0.0037234;0.0216737;0.0123369;0;0.0328325;2.42301
359000;360;25.8322;0.078823;0.00306068;-2.32576;25.7102;-0.938705;-0.217281;0.0499492;-0.351833;-1.50146;-0.492356;-0.259611;1.60131;-5.73255;-0.00155232;-0.00183183;0.00299967;0.00364527;-0.00219793;0.0029216;0.517499;1.93237;0.00340789;0.00389547;1.6585;0.602954;152.085;17.0852;-0.026018;-0.00161396;0.00762313;-0.0112437;0.00297237;0.0346723;0.00709027;0;0.0510799;-1.72123;-0.550635;-0.585127;1.89953;-6.67437;-0.00147454;-0.000378172;0.00392531;0.00395167;-0.00150089;0.00272628;0.375648;2.66206;0.00325231;0.00363504;2.63288;0.379812;135.71;0.709839;-0.0130367;-0.00154156;0.0108793;-0.011575;0.00386644;0.0214601;0.0126712;0;0.0261752;2.44648
360000;361;25.8333;0.0799009;0.00310254;-2.32548;25.7112;-0.940318;-0.217005;0.0509982;-0.353446;-1.4978;-0.494119;-0.265566;1.59941;-5.7385;-0.00146364;-0.00186441;0.00323598;0.00388577;-0.00211344;0.00299961;0.452303;2.21091;0.00351367;0.00399947;1.8386;0.543891;151.358;16.3585;-0.0261982;-0.00152405;0.00745572;-0.0111407;0.00321001;0.0359963;0.0101193;0;0.0540915;-1.71695;-0.55297;-0.594033;1.8991;-6.68328;-0.00117051;-0.000102018;0.00394153;0.00394356;-0.00117254;0.00255805;0.296968;3.36737;0.00309484;0.00341074;3.36326;0.29733;132.207;177.207;-0.0125902;-0.00122572;0.0103515;-0.0105023;0.00388817;0.0201777;0.0171251;0;0.0238062;2.46935
361000;362;25.837;0.0836358;0.00324756;-2.32701;25.7152;-0.929176;-0.218535;0.0550174;-0.342304;-1.49403;-0.496213;-0.26551;1.59651;-5.73844;-0.0012189;-0.00203267;0.00313723;0.00393838;-0.00202005;0.00297922;0.388527;2.57382;0.00349903;0.00397229;1.94965;0.512913;153.412;18.4119;-0.0244333;-0.00128013;0.00721934;-0.0112443;0.00311332;0.0316469;0.012393;0;0.0583109;-1.71343;-0.555853;-0.596287;1.89747;-6.68553;-0.000818096;-0.000131311;0.00432155;0.0043249;-0.000821448;0.00257317;0.189306;5.28245;0.00319251;0.0034309;5.26497;0.189935;131.162;176.162;-0.012085;-0.000865457;0.00951616;-0.0097294;0.00427647;0.0177196;0.0150321;0;0.0223764;2.49453
362000;363;25.8364;0.0829714;0.00322176;-2.32644;25.7144;-0.936142;-0.217956;0.0541496;-0.34927;-1.48972;-0.498223;-0.271073;1.59404;-5.74401;-0.000845934;-0.0020918;0.00227363;0.00332317;-0.00189547;0.00260932;0.372063;2.68772;0.00305034;0.0034791;1.75322;0.570381;159.208;24.2083;-0.0237516;-0.000903368;0.0067593;-0.0109152;0.00225302;0.033305;0.0127294;0;0.0515778;-1.70903;-0.558301;-0.604205;1.89672;-6.69345;-0.000338015;0.000204093;0.00401453;0.00402408;-0.000347564;0.00218582;0.0841978;11.8768;0.00280576;0.00291443;11.578;0.086371;126.484;171.484;-0.0107784;-0.000377521;0.00933741;-0.00888964;0.00397113;0.0139176;0.0183393;0;0.022296;2.51539
363000;364;25.8366;0.0832233;0.00323155;-2.32662;25.7144;-0.941116;-0.218138;0.0542047;-0.354244;-1.4863;-0.500162;-0.27759;1.59258;-5.75053;-0.000624193;-0.0021274;0.00170145;0.00296309;-0.00188583;0.00242446;0.366859;2.72584;0.00282246;0.00323261;1.57124;0.63644;163.802;28.8021;-0.0235672;-0.000682166;0.0067385;-0.0109726;0.00168105;0.0339958;0.0116868;0;0.0487213;-1.70607;-0.561456;-0.610688;1.89706;-6.69993;-0.00036948;0.000107058;0.00436197;0.00436439;-0.000371902;0.00236815;0.0847049;11.8057;0.00304115;0.00315753;11.7353;0.0852127;127.54;172.54;-0.0109644;-0.000412015;0.00948032;-0.00922206;0.00431723;0.013982;0.0190589;0;0.0227456;2.5396
364000;365;25.839;0.0855653;0.00332248;-2.32717;25.7168;-0.939727;-0.21869;0.0565586;-0.352855;-1.48206;-0.504541;-0.27297;1.5892;-5.7459;-2.93666e-05;-0.002268;-9.58905e-05;0.00220562;-0.00233087;0.00226825;-0.306252;-3.26529;0.00261948;0.00302433;0.946262;1.05679;0.493743;45.4937;-0.0238708;-8.93006e-05;0.00664413;-0.0111805;-0.000115393;0.0323719;0.0152438;0;0.0463874;-1.70165;-0.566685;-0.609266;1.89419;-6.69851;-0.000226827;0.000150138;0.0042972;0.00430218;-0.000231804;0.00226699;0.0527847;18.9449;0.00294843;0.00302266;18.5596;0.0538805;126.672;171.672;-0.0110806;-0.000266826;0.0092858;-0.00894438;0.00425429;0.0144807;0.0221321;0;0.0191962;2.5613
365000;366;25.8404;0.0869538;0.0033764;-2.32881;25.718;-0.939793;-0.22033;0.057803;-0.352921;-1.47806;-0.506414;-0.278788;1.58708;-5.75172;-0.000455375;-0.00260553;-0.00154942;0.00165994;-0.00366473;0.00266233;-0.293901;-3.40251;0.00314599;0.00354978;0.452949;2.20775;9.01879;54.0188;-0.0240802;-0.000518051;0.00627198;-0.0114926;-0.00156572;0.031905;0.0162622;0;0.0429856;-1.69843;-0.569334;-0.614025;1.89363;-6.70327;-0.000213295;0.000168362;0.00421345;0.00421984;-0.000219689;0.00221977;0.0506224;19.7541;0.00288924;0.00295969;19.2082;0.052061;126.797;171.797;-0.0115693;-0.000257549;0.00978739;-0.00940828;0.00416577;0.0163058;0.0204651;0;0.0226413;2.58185
366000;367;25.8423;0.0888934;0.00345171;-2.32744;25.7201;-0.941314;-0.218961;0.05982;-0.354442;-1.47285;-0.509684;-0.281069;1.58369;-5.754;-5.80125e-05;-0.00237247;-0.00299163;0.00126447;-0.00431411;0.00278929;-0.0193916;-51.5686;0.0033774;0.00371905;0.293101;3.4118;20.5767;65.5767;-0.0240912;-0.000119222;0.00654439;-0.0113154;-0.00301028;0.0322538;0.0172004;0;0.0391458;-1.69276;-0.575482;-0.613256;1.89016;-6.7025;0.000265461;0.000245801;0.00459168;0.0046056;0.00025154;0.00217703;-0.0578134;-17.297;0.00299008;0.00290271;-18.3096;-0.0546161;125.106;170.106;-0.0121018;0.000212873;0.0107967;-0.0102597;0.00453369;0.0175616;0.0237076;0;0.0176234;2.59896
367000;368;25.8435;0.090148;0.00350043;-2.32697;25.7213;-0.942118;-0.218487;0.061094;-0.355246;-1.46559;-0.517148;-0.270958;1.5776;-5.74389;-0.000223238;-0.00222654;-0.00421247;0.000771453;-0.00520716;0.00298931;-0.0529945;-18.8699;0.0037551;0.00398574;0.148152;6.7498;27.7393;72.7393;-0.0253846;-0.000283596;0.00672035;-0.0112091;-0.00423266;0.0354247;0.014803;0;0.0405764;-1.68524;-0.584694;-0.601912;1.88261;-6.69115;0.000529243;5.99733e-05;0.00470064;0.0047015;0.000528381;0.00208656;-0.11259;-8.88182;0.0029739;0.00278208;-8.89794;-0.112386;127.452;172.452;-0.0127174;0.000467192;0.0113097;-0.011143;0.00463699;0.0170534;0.0256885;0;0.0218328;2.61731
368000;369;25.846;0.0926466;0.00359745;-2.32728;25.7237;-0.944418;-0.218805;0.0634914;-0.357546;-1.46086;-0.518372;-0.277841;1.57481;-5.75078;-0.000686682;-0.00207695;-0.00386247;0.000339835;-0.00488899;0.00261441;-0.177783;-5.62484;0.00337831;0.00348588;0.0695104;14.3863;25.6609;70.6609;-0.025246;-0.000745977;0.00690001;-0.0110824;-0.0038842;0.0329958;0.0119899;0;0.0432989;-1.68052;-0.588629;-0.60698;1.88124;-6.69662;-7.69528e-05;0.000192116;0.00415938;0.00416808;-8.56473e-05;0.00212686;0.018501;54.051;0.0028077;0.00283582;48.6656;0.0205484;127.169;172.169;-0.0130599;-0.000139575;0.0116247;-0.0111923;0.00409211;0.0201612;0.0218102;0;0.0375746;2.6342
369000;370;25.8439;0.0904571;0.00351243;-2.32766;25.7212;-0.952566;-0.219181;0.0609569;-0.365694;-1.45218;-0.527088;-0.263611;1.56721;-5.73655;-0.00168562;-0.00261191;-0.000634781;0.00150403;-0.00382443;0.00266423;-2.65543;-0.376587;0.00317213;0.00355231;0.39327;2.54278;177.829;42.8294;-0.0269675;-0.00175038;0.00645365;-0.0116677;-0.000652205;0.0370988;0.0117446;0;0.0416525;-1.67216;-0.595929;-0.601527;1.87432;-6.69077;-0.000946927;-0.000252057;0.00422998;0.00424222;-0.00095917;0.0026007;0.223861;4.46706;0.00319621;0.0034676;4.42281;0.226101;133.527;178.527;-0.0135154;-0.00101481;0.0112037;-0.0116487;0.00416751;0.0220784;0.0152197;0;0.0283196;2.65328
370000;371;25.8473;0.0938931;0.00364585;-2.32696;25.7248;-0.950017;-0.218478;0.0645672;-0.363145;-1.4475;-0.526319;-0.278761;1.56524;-5.7517;-0.00173062;-0.00245758;0.00103211;0.00246995;-0.00316846;0.0028192;1.67677;0.596383;0.00326365;0.00375893;0.779543;1.2828;166.269;31.269;-0.0264471;-0.00179696;0.00687907;-0.0117683;0.00101149;0.0347454;0.00898424;0;0.0427752;-1.6672;-0.597036;-0.61839;1.87574;-6.70763;-0.00109471;-0.000306615;0.00408578;0.00410387;-0.0011128;0.00260833;0.267932;3.73229;0.00317258;0.00347778;3.68788;0.271158;134.487;179.487;-0.0135727;-0.00116344;0.0111678;-0.0117218;0.00402372;0.022391;0.014873;0;0.0351604;2.6654
371000;372;25.8484;0.0950255;0.00368982;-2.32728;25.7257;-0.954292;-0.218804;0.0655173;-0.36742;-1.44168;-0.530079;-0.278206;1.56104;-5.75114;-0.00174667;-0.00213117;0.00293918;0.00376346;-0.00257095;0.0031672;0.594272;1.68273;0.00367871;0.00422294;1.46384;0.683135;154.085;19.0854;-0.0266155;-0.00180429;0.00671373;-0.0109346;0.00291897;0.0385661;0.00875245;0;0.0445296;-1.66178;-0.601157;-0.62278;1.87371;-6.71202;-0.000777531;-0.000384799;0.00439949;0.00442794;-0.000805976;0.00261696;0.176732;5.65828;0.00325406;0.00348927;5.49388;0.182021;134.267;179.267;-0.0129279;-0.000838637;0.0103429;-0.0110572;0.00434631;0.0192555;0.0174297;0;0.0301064;2.68247
372000;373;25.8502;0.0967963;0.00375858;-2.32844;25.7276;-0.950707;-0.219963;0.0673244;-0.363835;-1.43729;-0.533135;-0.282792;1.55884;-5.75573;-0.00179352;-0.00191661;0.00341821;0.00404714;-0.00242246;0.0032348;0.524697;1.90586;0.00377428;0.00431307;1.67068;0.59856;150.332;15.3323;-0.0264265;-0.0018464;0.00666323;-0.0104517;0.00339792;0.0374876;0.0089144;0;0.0487697;-1.65746;-0.605688;-0.629177;1.87347;-6.71842;-0.000461576;-0.000387041;0.00466506;0.00469412;-0.000490631;0.00259237;0.0989431;10.1068;0.00330511;0.0034565;9.5675;0.10452;133.059;178.059;-0.01191;-0.000512543;0.00937706;-0.0101013;0.00462137;0.0149193;0.0162751;0;0.0268509;2.69982
373000;374;25.8513;0.0979038;0.00380159;-2.32828;25.7286;-0.95318;-0.219797;0.0683608;-0.366308;-1.43248;-0.535491;-0.287329;1.55606;-5.76026;-0.00110207;-0.00137375;0.00317031;0.00357391;-0.00150566;0.00253979;0.347623;2.87668;0.00301263;0.00338638;2.37364;0.421294;147.722;12.7215;-0.0236455;-0.0011483;0.00699543;-0.00970719;0.00314686;0.0325256;0.0114615;0;0.0521626;-1.65337;-0.60893;-0.634815;1.87281;-6.72406;-0.000263178;-0.000363773;0.0046269;0.00465381;-0.000290091;0.00247195;0.05688;17.5809;0.00320362;0.00329593;16.0426;0.0623341;132.252;177.252;-0.0106125;-0.000306368;0.00861607;-0.00929988;0.00459002;0.0126958;0.0178727;0;0.0227799;2.71147
374000;375;25.853;0.0996319;0.00386869;-2.32826;25.7304;-0.95177;-0.219781;0.0701507;-0.364898;-1.42954;-0.537477;-0.290866;1.55469;-5.7638;-0.000768513;-0.00172816;0.00272481;0.00343526;-0.00147896;0.00245711;0.282043;3.54556;0.0029112;0.00327615;2.32275;0.430523;153.87;18.8696;-0.0236798;-0.000817276;0.00659445;-0.0100217;0.00270462;0.0318731;0.0133003;0;0.0528825;-1.65067;-0.612008;-0.637596;1.87237;-6.72684;-0.000159123;-7.94204e-05;0.00465185;0.00465316;-0.000160434;0.0024068;0.0342064;29.2343;0.00315694;0.00320906;29.0036;0.0344785;128.74;173.74;-0.0106147;-0.000199394;0.00885798;-0.00897401;0.0046128;0.0129409;0.0172276;0;0.0249274;2.72508
375000;376;25.8523;0.0989181;0.00384097;-2.32839;25.7294;-0.95805;-0.219916;0.0691883;-0.371178;-1.42666;-0.540891;-0.293797;1.55379;-5.76673;-0.000822396;-0.00183677;0.00193734;0.00285481;-0.00173986;0.00229733;0.424498;2.35572;0.00267864;0.00306311;1.64082;0.609451;159.497;24.4973;-0.0233366;-0.000871811;0.00645482;-0.0101054;0.00191823;0.0316444;0.0137799;0;0.0555709;-1.6481;-0.615872;-0.642277;1.87298;-6.73152;-8.14282e-05;0.000108064;0.0046221;0.00462458;-8.39097e-05;0.00235424;0.0176172;56.7628;0.0031114;0.00313899;55.1137;0.0181443;126.57;171.57;-0.010812;-0.000121995;0.00926665;-0.00900765;0.00457936;0.0135452;0.0203501;0;0.0249217;2.73941
376000;377;25.8526;0.0992223;0.00385279;-2.328;25.7299;-0.954676;-0.219517;0.0696554;-0.367804;-1.42383;-0.544401;-0.297857;1.55319;-5.77079;-0.000840147;-0.00161129;0.00145183;0.0022831;-0.00167142;0.00197726;0.578682;1.72806;0.00229223;0.00263635;1.36597;0.732083;161.098;26.098;-0.0237607;-0.000886442;0.00654847;-0.00975227;0.00143171;0.0337414;0.0165862;0;0.0538065;-1.64548;-0.619766;-0.646665;1.87347;-6.73591;-0.000200609;0.000193723;0.00453965;0.00454755;-0.000208513;0.00237803;0.0441904;22.6294;0.00310354;0.00317071;21.8095;0.0458516;125.963;170.963;-0.0110887;-0.000241922;0.00952242;-0.00909097;0.00449454;0.0135333;0.0217298;0;0.0228831;2.75248
377000;378;25.8525;0.0990936;0.00384779;-2.329;25.7297;-0.954024;-0.220522;0.0694593;-0.367153;-1.42119;-0.549298;-0.289403;1.55089;-5.76234;-0.000657993;-0.00159514;0.000387965;0.00154367;-0.00181369;0.00167868;1.69601;0.589619;0.00194046;0.00223824;0.851117;1.17493;171.289;36.2886;-0.0233773;-0.00070327;0.0064639;-0.00964564;0.000368354;0.0331548;0.016482;0;0.0614533;-1.6429;-0.624422;-0.639434;1.87027;-6.72868;-8.55297e-05;0.000375742;0.00448213;0.00451283;-0.000116232;0.00231453;0.0190824;52.4044;0.00304804;0.00308604;38.8259;0.025756;123.932;168.932;-0.0112592;-0.000130781;0.0103169;-0.00952024;0.00442921;0.0138913;0.0231324;0;0.0176134;2.76422
378000;379;25.8521;0.0986978;0.00383242;-2.32729;25.7291;-0.962885;-0.218814;0.068886;-0.376014;-1.41957;-0.552319;-0.296003;1.55173;-5.76894;-0.00081218;-0.00161147;-0.000296931;0.00107738;-0.00218649;0.00163194;-2.73525;-0.365598;0.00192032;0.00217592;0.492744;2.02945;177.25;42.2497;-0.0229859;-0.000860041;0.0066929;-0.00991146;-0.000318037;0.0305276;0.0182331;0;0.0572383;-1.64087;-0.62881;-0.644858;1.87182;-6.7341;-0.00018429;0.00018477;0.00448724;0.00449454;-0.000191586;0.00234306;0.0410697;24.3488;0.00306222;0.00312408;23.4596;0.0426265;126.532;171.532;-0.0108329;-0.000232448;0.0102311;-0.00981481;0.00443515;0.0125109;0.0225747;0;0.0165901;2.7787
379000;380;25.8541;0.100746;0.00391195;-2.32794;25.7314;-0.95612;-0.219458;0.0711381;-0.369248;-1.41656;-0.554337;-0.296149;1.54972;-5.76908;-0.000629435;-0.00207164;-0.0017083;0.000971854;-0.00330959;0.00214072;-0.368458;-2.71401;0.00259181;0.00285429;0.293648;3.40544;11.1216;56.1216;-0.0239885;-0.000682506;0.00635321;-0.0105054;-0.00172636;0.0357433;0.0168163;0;0.0521016;-1.63809;-0.631548;-0.644929;1.87033;-6.73417;-0.000173394;0.00020731;0.00468435;0.00469318;-0.000182225;0.0024377;0.0370157;27.0156;0.00319127;0.00325027;25.7548;0.0388277;126.315;171.315;-0.0119499;-0.00022558;0.0106825;-0.0102173;0.00462758;0.0138698;0.0255181;0;0.0189622;2.78933
380000;381;25.8553;0.101915;0.00395734;-2.32905;25.7324;-0.958166;-0.220575;0.0721354;-0.371294;-1.41419;-0.557877;-0.300727;1.54971;-5.77366;-0.00059457;-0.0024963;-0.00243427;0.00114597;-0.00417481;0.00266039;-0.24425;-4.09417;0.0032336;0.00354718;0.274496;3.64304;14.9769;59.9769;-0.0239774;-0.000653209;0.00610188;-0.0111102;-0.00244981;0.0350019;0.0190733;0;0.0502315;-1.63557;-0.636346;-0.649433;1.8713;-6.73908;-1.27808e-05;0.00033907;0.00460869;0.00463343;-3.75254e-05;0.00233548;0.0027732;360.594;0.00310154;0.00311397;123.474;0.00809884;124.867;169.867;-0.0123484;-7.15199e-05;0.0115736;-0.0108438;0.00454207;0.0182353;0.0264226;0;0.0151425;2.80287
381000;382;25.8559;0.102466;0.00397874;-2.3277;25.7328;-0.963836;-0.219223;0.0725999;-0.376964;-1.41182;-0.561199;-0.301084;1.54881;-5.77402;-0.000689138;-0.00228703;-0.00261872;0.000828272;-0.00413613;0.0024822;-0.263159;-3.79999;0.00307097;0.0033096;0.200253;4.99368;16.6212;61.6212;-0.0248286;-0.000748241;0.00651545;-0.0111064;-0.00263738;0.0364773;0.0158999;0;0.0478353;-1.63316;-0.641252;-0.649455;1.87089;-6.7387;-0.000146109;0.000412981;0.00482051;0.00485461;-0.000180215;0.00251741;0.0303099;32.9925;0.00329812;0.00335655;26.9379;0.0371224;124.444;169.444;-0.0125925;-0.00020909;0.0121136;-0.0112299;0.00474757;0.0163783;0.0252867;0;0.0185634;2.81567
382000;383;25.8591;0.105714;0.00410486;-2.32757;25.7364;-0.955868;-0.219093;0.0761724;-0.368996;-1.40937;-0.564378;-0.301303;1.54779;-5.77424;-0.000727511;-0.00224299;-0.0025962;0.000767963;-0.00409167;0.00242982;-0.280222;-3.5686;0.00301653;0.00323976;0.187689;5.32796;16.4211;61.4211;-0.0242411;-0.000788023;0.00672074;-0.0112233;-0.00261632;0.0357025;0.0164608;0;0.0472621;-1.63047;-0.646303;-0.649212;1.87019;-6.73845;-0.000197728;0.000475542;0.00483122;0.00487579;-0.000242301;0.00255904;0.0409272;24.4336;0.00333423;0.00341206;20.1229;0.0496947;123.813;168.813;-0.0134316;-0.000258874;0.0120766;-0.0110675;0.00475875;0.0198183;0.0222186;0;0.0401189;2.82719
383000;384;25.8618;0.108409;0.00420952;-2.32691;25.7392;-0.954695;-0.218429;0.0789839;-0.367823;-1.4074;-0.567046;-0.300704;1.54685;-5.77364;-0.000912188;-0.00221698;-0.00344719;0.000374045;-0.00473342;0.00255373;-0.264618;-3.77903;0.0032874;0.00340498;0.0790222;12.6547;21.7079;66.7079;-0.0244551;-0.000970495;0.00656286;-0.011019;-0.00346633;0.0354108;0.0166108;0;0.0432523;-1.62829;-0.650161;-0.649308;1.86966;-6.73855;-0.000429933;0.00041234;0.00468074;0.0047138;-0.000462987;0.00258839;0.0918514;10.8872;0.00330768;0.00345119;10.1813;0.0982196;125.202;170.202;-0.0146371;-0.000496179;0.0124009;-0.0115153;0.00460429;0.0222472;0.0200892;0;0.0344999;2.83881
384000;385;25.8623;0.108951;0.00423054;-2.32681;25.7396;-0.958989;-0.218327;0.0793776;-0.372118;-1.40542;-0.569098;-0.303835;1.54641;-5.77677;-0.00110256;-0.0021793;-0.0030059;0.000323799;-0.00443226;0.00237803;-0.366799;-2.72629;0.00306848;0.00317071;0.073055;13.6883;18.2687;63.2687;-0.025561;-0.00116007;0.00656269;-0.0109378;-0.00302512;0.0362733;0.010714;0;0.0438188;-1.62626;-0.653798;-0.653802;1.87073;-6.74304;-0.000432338;0.000384842;0.00473587;0.00476437;-0.000460838;0.0026126;0.0912902;10.9541;0.00334047;0.00348347;10.3385;0.0967259;125.629;170.629;-0.0151947;-0.000503101;0.0127331;-0.0118999;0.00465526;0.0252004;0.0176233;0;0.0300603;2.85144
385000;386;25.8645;0.111133;0.00431527;-2.32691;25.7417;-0.961635;-0.218433;0.0814617;-0.374763;-1.40369;-0.572138;-0.304913;1.54618;-5.77785;-0.00132427;-0.00275115;-0.002643;0.000845421;-0.00481269;0.00282906;-0.501049;-1.99581;0.00352423;0.00377208;0.175665;5.69266;12.916;57.916;-0.0254107;-0.00138804;0.00610218;-0.011616;-0.00265787;0.0366502;0.0119128;0;0.0435018;-1.62424;-0.658416;-0.657145;1.87177;-6.74639;-0.000653938;0.000193971;0.00474643;0.00475338;-0.000660896;0.00270714;0.137775;7.25822;0.00341063;0.00360952;7.19233;0.139037;128.058;173.058;-0.015461;-0.000727376;0.0125711;-0.0121166;0.0046678;0.0261693;0.0168382;0;0.0292631;2.86284
386000;387;25.8658;0.112409;0.00436482;-2.32693;25.743;-0.961543;-0.218451;0.0827458;-0.374672;-1.40216;-0.573049;-0.311219;1.54638;-5.78415;-0.00134338;-0.00237371;-0.00274672;0.000430197;-0.00452029;0.00247524;-0.489084;-2.04464;0.00316668;0.00330033;0.0951702;10.5075;14.4361;59.4361;-0.0256838;-0.00140643;0.00671065;-0.0114707;-0.00276647;0.0355969;0.0121314;0;0.04062;-1.62259;-0.661514;-0.662316;1.87325;-6.75156;-0.00114894;0.000223034;0.00484455;0.00485283;-0.00115723;0.00300503;0.237161;4.21654;0.00368209;0.00400671;4.19351;0.238464;128.447;173.447;-0.0156907;-0.00122245;0.0126401;-0.01212;0.00476507;0.0253632;0.0187366;0;0.0238981;2.87216
387000;388;25.8685;0.115116;0.00446992;-2.32659;25.7458;-0.960471;-0.218106;0.0855365;-0.373599;-1.3999;-0.574978;-0.312108;1.54522;-5.78504;-0.00183056;-0.00236171;-0.00114264;0.000900026;-0.00387323;0.00238663;-1.60205;-0.6242;0.00292863;0.00318217;0.232371;4.30346;0.384214;45.3842;-0.0252914;-0.00189304;0.00669818;-0.0114152;-0.0011623;0.0338342;0.00957277;0;0.0449598;-1.62035;-0.664473;-0.666991;1.87402;-6.75623;-0.00131992;0.000272145;0.0050945;0.00510602;-0.00133145;0.00321874;0.259088;3.85969;0.00392387;0.00429165;3.83494;0.26076;128.114;173.114;-0.0160616;-0.0013948;0.0128566;-0.012232;0.0050123;0.0257452;0.0193339;0;0.0245902;2.88492
388000;389;25.8703;0.116951;0.00454118;-2.32761;25.7474;-0.96463;-0.219132;0.0871322;-0.377758;-1.39834;-0.577508;-0.311869;1.54471;-5.7848;-0.00166457;-0.00213185;-0.00112158;0.000755989;-0.00354215;0.00214907;-1.48413;-0.673796;0.00264962;0.00286542;0.213427;4.68545;0.737633;45.7376;-0.0263004;-0.00172216;0.00667431;-0.0109331;-0.00114161;0.0377389;0.010743;0;0.043767;-1.61892;-0.668323;-0.669893;1.87519;-6.75913;-0.00131318;0.000303083;0.00492698;0.00494167;-0.00132787;0.00313477;0.266529;3.75194;0.00381489;0.00417969;3.72151;0.268708;127.907;172.907;-0.0146186;-0.00138623;0.012766;-0.0120825;0.00484594;0.0242599;0.0209937;0;0.0227331;2.89656
389000;390;25.8701;0.116651;0.00452954;-2.32829;25.7467;-0.971568;-0.219806;0.0865092;-0.384696;-1.39559;-0.579729;-0.314267;1.54354;-5.7872;-0.00202073;-0.00204185;-0.00034911;0.00102137;-0.00339121;0.00220629;-5.78825;-0.172764;0.00266727;0.00294172;0.301181;3.32026;172.532;37.532;-0.0259514;-0.00207853;0.0068638;-0.0109324;-0.000370589;0.0351906;0.0111466;0;0.0436881;-1.61619;-0.672835;-0.67178;1.87512;-6.76102;-0.00119019;0.000276305;0.00481615;0.00482883;-0.00120287;0.00301585;0.247125;4.04654;0.00368619;0.00402113;4.01442;0.249102;128.009;173.009;-0.0145087;-0.00126241;0.012641;-0.0120145;0.00473667;0.0242958;0.0215891;0;0.0279718;2.90684
390000;391;25.8704;0.11702;0.00454386;-2.32805;25.7471;-0.972736;-0.219571;0.086857;-0.385864;-1.39333;-0.581734;-0.315479;1.5425;-5.78841;-0.00182013;-0.00209265;0.000846092;0.00199418;-0.00296822;0.0024812;2.15122;0.464852;0.00288339;0.00330827;0.671844;1.48844;165.209;30.2091;-0.0264018;-0.00187717;0.00671264;-0.0108743;0.000825769;0.0392873;0.0108906;0;0.047036;-1.61422;-0.675506;-0.676306;1.87601;-6.76555;-0.000770061;0.000303961;0.00474193;0.00475864;-0.000786773;0.00277271;0.162394;6.15786;0.00346459;0.00369694;6.04831;0.165336;126.749;171.749;-0.0136389;-0.000831408;0.0117471;-0.0110765;0.0046733;0.0210232;0.0194624;0;0.0257193;2.91881
391000;392;25.8726;0.119163;0.00462709;-2.32994;25.7492;-0.970361;-0.22146;0.0889294;-0.383489;-1.39065;-0.58501;-0.313528;1.54093;-5.78646;-0.00186126;-0.00187818;0.00260486;0.0032897;-0.0025461;0.0029179;0.714534;1.39951;0.0033784;0.00389053;1.29205;0.773961;153.687;18.6866;-0.0258549;-0.00191549;0.00685497;-0.0105723;0.00258319;0.0341574;0.00913473;0;0.0471316;-1.61241;-0.679347;-0.677023;1.8761;-6.76627;-0.000607646;2.23547e-05;0.00516879;0.00516887;-0.000607733;0.0028883;0.117561;8.50625;0.00366533;0.00385107;8.50518;0.117575;128.872;173.872;-0.0124436;-0.000670124;0.0112843;-0.0111748;0.00510545;0.0193412;0.0217228;0;0.0218985;2.92727
392000;393;25.8742;0.120825;0.00469163;-2.32977;25.7508;-0.97265;-0.221289;0.0905286;-0.385778;-1.38911;-0.587026;-0.315593;1.54072;-5.78853;-0.00215807;-0.00183703;0.00354522;0.00408571;-0.00269856;0.00339213;0.608728;1.64277;0.0039441;0.00452285;1.51403;0.660488;148.997;13.9969;-0.0266001;-0.00221203;0.00691363;-0.0105378;0.00352308;0.0347578;0.010488;0;0.048781;-1.61109;-0.683655;-0.67939;1.87738;-6.76863;-0.000575584;-0.00028459;0.00509321;0.00510746;-0.000589835;0.00284865;0.11301;8.84877;0.00361765;0.0037982;8.65913;0.115485;131.869;176.869;-0.0126059;-0.000638182;0.0106821;-0.0111894;0.00503648;0.0179568;0.0182856;0;0.0200995;2.93928
393000;394;25.8755;0.1221;0.00474113;-2.33023;25.7519;-0.974069;-0.221756;0.0917136;-0.387197;-1.38833;-0.588919;-0.318375;1.54132;-5.79131;-0.00196958;-0.00177699;0.00287508;0.00345697;-0.00255148;0.00300423;0.685054;1.45974;0.00348209;0.00400563;1.35489;0.738067;151.476;16.4762;-0.0257581;-0.00202015;0.00668924;-0.0102022;0.00285434;0.0358538;0.0146223;0;0.0541335;-1.61052;-0.687907;-0.68359;1.87997;-6.77283;-0.000441206;-0.000474894;0.00511139;0.00515171;-0.000481529;0.00281662;0.0863182;11.585;0.00360572;0.00375549;10.6987;0.0934697;133.547;178.547;-0.0118956;-0.00050342;0.0102719;-0.0111622;0.00505901;0.0158588;0.0217649;0;0.0260498;2.94785
394000;395;25.8787;0.125333;0.00486666;-2.33078;25.7549;-0.979482;-0.222306;0.0947068;-0.39261;-1.38632;-0.592168;-0.320496;1.54119;-5.79343;-0.00198473;-0.00177514;0.00410174;0.00458163;-0.00246462;0.00352312;0.483875;2.06665;0.0041289;0.0046975;1.85896;0.537935;146.365;11.3648;-0.0241866;-0.00203355;0.00653016;-0.01003;0.00408207;0.0318455;0.0153393;0;0.0576497;-1.60902;-0.693659;-0.687122;1.88209;-6.77636;-0.000364156;-0.000503595;0.00519723;0.00524247;-0.000409389;0.00282593;0.0700673;14.272;0.00363912;0.0037679;12.8056;0.078091;133.282;178.282;-0.0114989;-0.000420473;0.00967193;-0.0106228;0.00515083;0.0147167;0.0193823;0;0.0363954;2.96025
395000;396;25.8811;0.127682;0.00495788;-2.33042;25.7575;-0.975187;-0.221941;0.0972635;-0.388315;-1.38437;-0.594407;-0.320387;1.54027;-5.79332;-0.00183166;-0.00127672;0.00435519;0.00460831;-0.00208477;0.00334654;0.420568;2.37774;0.00395474;0.00446205;2.21047;0.452393;141.664;6.6642;-0.0239089;-0.00187458;0.00684121;-0.00934457;0.00433271;0.0305795;0.0138634;0;0.0485817;-1.60779;-0.698303;-0.686511;1.88253;-6.77575;-0.000281233;-0.00047895;0.00553143;0.00557063;-0.000320433;0.00294553;0.0508427;19.6685;0.00382504;0.00392738;17.3847;0.0575218;132.201;177.201;-0.0113233;-0.00033616;0.00959084;-0.0104905;0.00548581;0.0152683;0.018881;0;0.0291604;2.96771
396000;397;25.8849;0.131461;0.00510462;-2.33128;25.7613;-0.971904;-0.222801;0.101107;-0.385032;-1.38273;-0.597566;-0.320575;1.54006;-5.79351;-0.00172086;-0.00132722;0.00472077;0.00498351;-0.0019836;0.00348356;0.36453;2.74326;0.00414489;0.00464474;2.51235;0.398033;140.775;5.77477;-0.022888;-0.00176339;0.00670647;-0.00930931;0.00469926;0.0312479;0.0135226;0;0.0531663;-1.60641;-0.70351;-0.68833;1.88396;-6.77757;-0.000292855;-0.000457158;0.00563111;0.00566618;-0.000327927;0.00299706;0.0520067;19.2283;0.00389137;0.00399607;17.2788;0.0578744;131.534;176.534;-0.0116677;-0.000343896;0.00925524;-0.0101123;0.00558862;0.0145523;0.0163719;0;0.0392774;2.97747
397000;398;25.8854;0.131959;0.00512393;-2.3317;25.7615;-0.980218;-0.223224;0.101253;-0.393347;-1.38081;-0.599817;-0.321422;1.53939;-5.79436;-0.0015948;-0.00120633;0.00400975;0.00425837;-0.00184342;0.00305089;0.39773;2.51427;0.00361367;0.00406786;2.31004;0.432894;142.039;7.03925;-0.0228804;-0.00163301;0.00644831;-0.00881817;0.00398976;0.0324787;0.0155737;0;0.0550892;-1.60517;-0.708016;-0.690402;1.88534;-6.77964;-0.000302705;-0.000579467;0.00565127;0.00570714;-0.000358577;0.00303286;0.053564;18.6693;0.00392974;0.00404381;15.9161;0.0628295;132.469;177.469;-0.0118552;-0.000352658;0.00890777;-0.0100105;0.00561198;0.0154101;0.0161365;0;0.0392049;2.98609
398000;399;25.8901;0.136657;0.00530638;-2.33232;25.7664;-0.97264;-0.22384;0.106206;-0.385768;-1.37891;-0.600964;-0.322206;1.5383;-5.79514;-0.00144424;-0.00162625;0.00448068;0.00489769;-0.00186125;0.00337947;0.322326;3.10245;0.00403141;0.00450596;2.6314;0.380026;143.722;8.72204;-0.0215446;-0.00148667;0.00614158;-0.00934816;0.00446322;0.0301335;0.0158703;0;0.0546197;-1.60389;-0.711929;-0.690888;1.8859;-6.78013;-0.000427489;-0.000634043;0.0062747;0.00633416;-0.000486943;0.00341055;0.0681289;14.6781;0.00439409;0.0045474;13.008;0.0768757;131.631;176.631;-0.0121958;-0.000478031;0.00886705;-0.0100718;0.00623584;0.0132069;0.0180209;0;0.0308644;2.99349
399000;400;25.8926;0.139251;0.00540708;-2.33241;25.7689;-0.976607;-0.223926;0.108654;-0.389735;-1.37725;-0.602454;-0.324575;1.5379;-5.79751;-0.00176702;-0.00154815;0.0044632;0.0048267;-0.00213052;0.00347861;0.39591;2.52583;0.00411607;0.00463814;2.2655;0.441403;142.915;7.91495;-0.0218762;-0.00180537;0.00583489;-0.00888532;0.00444745;0.0319523;0.0126722;0;0.0572861;-1.60259;-0.716761;-0.694618;1.888;-6.78386;-0.000591512;-0.000499168;0.00635997;0.00639563;-0.000627173;0.0035114;0.0930055;10.7521;0.00448744;0.00468187;10.1975;0.0980628;130.484;175.484;-0.0114849;-0.000640947;0.00902024;-0.00995278;0.00631966;0.0112736;0.0184663;0;0.0293295;3.00491
400000;401;25.8974;0.144032;0.00559272;-2.3331;25.7737;-0.974965;-0.224617;0.113457;-0.388093;-1.37683;-0.604223;-0.325196;1.53834;-5.79813;-0.00155685;-0.00130668;0.0043994;0.00467345;-0.0018309;0.00325218;0.353878;2.82584;0.00387298;0.00433624;2.55254;0.391766;141.388;6.38772;-0.0210339;-0.00159488;0.00624346;-0.00881198;0.00438085;0.0303265;0.0141973;0;0.0538155;-1.60269;-0.721417;-0.695451;1.89016;-6.78469;-0.000471293;-0.00026189;0.00638262;0.00639261;-0.000481285;0.00343695;0.0738401;13.5428;0.00443089;0.0045826;13.2824;0.0752878;128.115;173.115;-0.0115699;-0.000515527;0.00894599;-0.00940704;0.00634289;0.0114303;0.0193868;0;0.0244556;3.01104
401000;402;25.9;0.146577;0.00569156;-2.33341;25.7763;-0.97308;-0.224927;0.116058;-0.386208;-1.37494;-0.60447;-0.330364;1.53785;-5.8033;-0.00133097;-0.00127772;0.00471844;0.00497724;-0.00158977;0.0032835;0.282078;3.54512;0.00395603;0.004378;3.1308;0.319407;139.938;4.93783;-0.0208868;-0.00136813;0.00619903;-0.00870938;0.00470013;0.029526;0.0128763;0;0.053421;-1.60159;-0.724794;-0.701527;1.89277;-6.79077;-0.000608673;-0.000143825;0.00640011;0.00640306;-0.000611623;0.00350734;0.0951034;10.5149;0.0044865;0.00467646;10.469;0.0955204;127.258;172.258;-0.011242;-0.000651639;0.00904456;-0.00926821;0.00635948;0.0113468;0.0195083;0;0.0254207;3.01807
402000;403;25.9017;0.148344;0.00576018;-2.33287;25.778;-0.9774;-0.224387;0.117719;-0.390528;-1.37383;-0.606565;-0.332087;1.53806;-5.80502;-0.00113924;-0.00130004;0.00439867;0.00468867;-0.00142924;0.00305896;0.258996;3.86106;0.0036955;0.00407861;3.28053;0.304828;141.354;6.35424;-0.0207806;-0.00117721;0.0062477;-0.00880609;0.00438008;0.0286913;0.012728;0;0.0556336;-1.60098;-0.730534;-0.703359;1.89513;-6.7926;-0.000542825;-3.07802e-05;0.00638567;0.0063858;-0.000542961;0.00346438;0.0850068;11.7638;0.00444925;0.00461918;11.7611;0.0850264;126.396;171.396;-0.0109632;-0.000586136;0.00930731;-0.00930458;0.00634263;0.0108787;0.0218649;0;0.0200132;3.02749
403000;404;25.906;0.152569;0.00592423;-2.33406;25.7822;-0.974208;-0.225581;0.121977;-0.387336;-1.37352;-0.607934;-0.333182;1.53855;-5.80612;-0.00149195;-0.00145877;0.00383245;0.00420593;-0.00186542;0.00303568;0.389293;2.56876;0.00359107;0.00404757;2.25468;0.443523;144.907;9.90694;-0.0214746;-0.00153236;0.00622458;-0.00910129;0.00381421;0.031025;0.0138175;0;0.0565509;-1.60093;-0.734524;-0.707252;1.89808;-6.79649;-0.000706694;-0.000197141;0.00640838;0.00641384;-0.000712152;0.00356299;0.110277;9.06811;0.00453196;0.00475066;9.00627;0.111034;128.023;173.023;-0.0106125;-0.000752651;0.00925825;-0.00958566;0.00636581;0.0117244;0.0213764;0;0.0215457;3.03151
404000;405;25.9084;0.154975;0.00601765;-2.33523;25.7843;-0.979161;-0.226752;0.124101;-0.392289;-1.37292;-0.608272;-0.335124;1.53857;-5.80806;-0.00122581;-0.00155256;0.00440113;0.00480108;-0.00162576;0.00321342;0.278523;3.59037;0.00385855;0.00428456;2.95313;0.338624;143.412;8.41226;-0.0201758;-0.0012661;0.00604127;-0.00910375;0.00438416;0.0288849;0.0135649;0;0.0599101;-1.60086;-0.739012;-0.709008;1.90042;-6.79825;-0.000552187;-0.000157187;0.00670048;0.00670389;-0.000555592;0.00362974;0.08241;12.1345;0.0046655;0.00483965;12.0662;0.082876;127.193;172.193;-0.0109554;-0.000599242;0.00945442;-0.00969953;0.0066561;0.0103431;0.020754;0;0.0196836;3.0398
405000;406;25.9128;0.159444;0.00619118;-2.33527;25.7888;-0.980824;-0.226794;0.128524;-0.393952;-1.37168;-0.608836;-0.335533;1.53778;-5.80847;-0.00117075;-0.00161463;0.00313087;0.00366948;-0.00170936;0.00268942;0.373938;2.67424;0.00317347;0.0035859;2.14669;0.465833;149.648;14.6482;-0.0200774;-0.0012115;0.00596909;-0.00916574;0.00311441;0.0265831;0.0156149;0;0.0599543;-1.60017;-0.743974;-0.710457;1.90231;-6.7997;-0.00074394;-0.000597466;0.00694678;0.00699292;-0.000790078;0.0038915;0.107091;9.33783;0.00494638;0.00518867;8.85092;0.112983;130.321;175.321;-0.0104861;-0.000795506;0.00904785;-0.0101691;0.00690631;0.00990245;0.021262;0;0.0266205;3.04767
406000;407;25.918;0.164624;0.00639232;-2.33552;25.7939;-0.982236;-0.227043;0.133653;-0.395364;-1.37058;-0.61025;-0.335269;1.5373;-5.8082;-0.00139112;-0.00168445;0.00369915;0.00420608;-0.00189804;0.00305206;0.376064;2.65912;0.00360721;0.00406941;2.21601;0.451262;147.371;12.3706;-0.0208716;-0.00143354;0.00602771;-0.0093574;0.00368246;0.0291453;0.0152163;0;0.059062;-1.59946;-0.750424;-0.711453;1.90462;-6.8007;-0.000663619;-0.000369541;0.00770789;0.00772418;-0.0006799;0.00420204;0.0860961;11.6149;0.0053904;0.00560272;11.3608;0.0880224;127.039;172.039;-0.010877;-0.000710315;0.00900648;-0.00966764;0.00766771;0.0101843;0.0225722;0;0.0391688;3.05374
407000;408;25.9226;0.169221;0.00657082;-2.33635;25.7984;-0.982328;-0.227875;0.138193;-0.395456;-1.36993;-0.610653;-0.334643;1.53675;-5.80758;-0.00157241;-0.0020158;0.00340348;0.00411762;-0.00228655;0.00320209;0.462001;2.1645;0.00374749;0.00426945;1.8008;0.555308;150.925;15.9245;-0.0208781;-0.00161567;0.00551548;-0.00950962;0.00339035;0.0301715;0.0168859;0;0.0544449;-1.59958;-0.755682;-0.711523;1.90682;-6.80117;-0.000798335;-0.000300218;0.00748539;0.00749626;-0.000809201;0.00415273;0.106652;9.37626;0.00528792;0.00553697;9.26378;0.107947;127.187;172.187;-0.0107294;-0.000845541;0.00919495;-0.00971729;0.00744348;0.0108309;0.0195145;0;0.033804;3.05756
408000;409;25.9291;0.175737;0.00682384;-2.33712;25.8049;-0.98148;-0.228639;0.144704;-0.394609;-1.36947;-0.611058;-0.335903;1.53677;-5.80884;-0.00146155;-0.00147439;0.00395798;0.00433312;-0.00183669;0.00308491;0.369266;2.70807;0.00365805;0.00411321;2.3592;0.423872;144.387;9.38708;-0.0205876;-0.00149983;0.0059581;-0.00886667;0.00394139;0.0291462;0.0161144;0;0.0529078;-1.5995;-0.760796;-0.714583;1.90993;-6.80383;-0.000860676;-0.000387158;0.00762779;0.00764541;-0.000878297;0.00426185;0.112834;8.86256;0.00541351;0.00568247;8.70481;0.114879;127.532;172.532;-0.011877;-0.000907887;0.00902554;-0.00972053;0.00758744;0.0108501;0.0186274;0;0.0334865;3.06195
409000;410;25.9337;0.180279;0.00700018;-2.33812;25.8093;-0.98382;-0.229646;0.149087;-0.396948;-1.36843;-0.612396;-0.33632;1.53647;-5.80925;-0.00148928;-0.0023506;0.00298984;0.00399696;-0.00249641;0.00324669;0.498115;2.00757;0.00378217;0.00432891;1.60109;0.624576;155.296;20.2961;-0.0215776;-0.00153684;0.00535819;-0.0100248;0.00297828;0.0312562;0.016136;0;0.0574833;-1.59912;-0.767616;-0.715656;1.91274;-6.8049;-0.00104918;-0.000214048;0.00818037;0.00818533;-0.00105414;0.00461974;0.128256;7.79692;0.00584007;0.00615965;7.76493;0.128784;125.742;170.742;-0.0117004;-0.00109454;0.00918033;-0.00952241;0.0081386;0.0109228;0.018471;0;0.0312793;3.07058
410000;411;25.941;0.187565;0.00728313;-2.33781;25.8166;-0.985658;-0.229327;0.156368;-0.398786;-1.36775;-0.613109;-0.336163;1.53611;-5.8091;-0.00142547;-0.00188516;0.00325526;0.00392007;-0.00209029;0.00300518;0.437899;2.28363;0.00352328;0.00400691;1.87537;0.533227;150.907;15.9071;-0.021983;-0.0014691;0.00578816;-0.00952256;0.00324033;0.0341776;0.0147768;0;0.0521794;-1.59916;-0.774481;-0.716385;1.91582;-6.80563;-0.00117489;2.95493e-05;0.00806771;0.00806781;-0.00117498;0.0046214;0.145628;6.8668;0.00580994;0.00616186;6.86633;0.145638;124.842;169.842;-0.0116978;-0.00122085;0.00973001;-0.00958197;0.00802076;0.00952003;0.0185922;0;0.022502;3.07458
411000;412;25.9459;0.192466;0.00747341;-2.33825;25.8213;-0.990387;-0.229766;0.161071;-0.403515;-1.36755;-0.611998;-0.340737;1.5365;-5.81367;-0.00160747;-0.00159002;0.00361775;0.00406355;-0.00205327;0.00305841;0.444329;2.25059;0.00359456;0.00407788;1.97906;0.50529;146.799;11.7994;-0.0205555;-0.0016486;0.00606088;-0.009201;0.0036007;0.028511;0.0139666;0;0.0493834;-1.59958;-0.779045;-0.72252;1.92031;-6.81176;-0.00104268;1.91553e-05;0.00790501;0.00790505;-0.00104272;0.00447389;0.131901;7.58144;0.00564978;0.00596518;7.58118;0.131906;124.459;169.459;-0.011249;-0.00108409;0.00921566;-0.00909571;0.00786288;0.0109192;0.0198785;0;0.0272149;3.07822
412000;413;25.9504;0.197023;0.00765038;-2.33933;25.8256;-0.993887;-0.23085;0.165418;-0.407015;-1.36638;-0.612296;-0.339575;1.53532;-5.81251;-0.00156273;-0.00177033;0.00389069;0.00441498;-0.00208702;0.003251;0.401659;2.48967;0.00383329;0.00433466;2.11545;0.472714;147.023;12.0231;-0.0216783;-0.00160479;0.00583418;-0.00933342;0.00387529;0.0319237;0.014251;0;0.0506122;-1.59916;-0.784629;-0.724696;1.92305;-6.81394;-0.00101424;0.000187393;0.00806843;0.00807229;-0.0010181;0.0045452;0.125704;7.95518;0.00575101;0.00606026;7.92878;0.126123;123.439;168.439;-0.0109703;-0.00105681;0.00968524;-0.0092249;0.00802192;0.00952042;0.0243428;0;0.0272646;3.08253
413000;414;25.956;0.202559;0.00786534;-2.33958;25.8313;-0.991404;-0.231103;0.171053;-0.404532;-1.36668;-0.611689;-0.344404;1.53642;-5.81734;-0.00141281;-0.00172162;0.00387326;0.00438452;-0.00192408;0.0031543;0.364761;2.74152;0.00373347;0.00420573;2.27877;0.438834;146.855;11.8553;-0.021116;-0.00145504;0.00594101;-0.00934379;0.00385715;0.0295847;0.0154122;0;0.0479473;-1.59992;-0.789871;-0.729465;1.92763;-6.81871;-0.00123015;6.37541e-05;0.00802676;0.0080272;-0.00123059;0.0046289;0.153257;6.525;0.00580531;0.00617187;6.52303;0.153303;124.607;169.607;-0.0111682;-0.00127426;0.00960141;-0.00938633;0.00798104;0.0100301;0.0246504;0;0.0284809;3.08865
414000;415;25.9639;0.210469;0.00817247;-2.34034;25.839;-0.995345;-0.231862;0.178781;-0.408473;-1.36569;-0.609935;-0.343661;1.53468;-5.8166;-0.00162336;-0.00156138;0.00448106;0.00485724;-0.00199954;0.00342839;0.362271;2.76036;0.00407176;0.00457119;2.42918;0.411662;143.155;8.15477;-0.0214159;-0.00166457;0.0061294;-0.00920533;0.00446357;0.0300679;0.015069;0;0.0498875;-1.59976;-0.79597;-0.728477;1.92963;-6.81772;-0.00120831;-0.000113548;0.00881587;0.00881716;-0.0012096;0.00501338;0.137061;7.29602;0.00632001;0.0066845;7.28933;0.137187;124.752;169.752;-0.0108249;-0.00125571;0.00960007;-0.00973064;0.0087702;0.00986678;0.0242707;0;0.0208732;3.09103
415000;416;25.9716;0.218209;0.00847303;-2.34102;25.847;-0.989547;-0.232544;0.186719;-0.402675;-1.36608;-0.610295;-0.346156;1.53573;-5.81909;-0.00179652;-0.00199591;0.00520536;0.00573434;-0.0023255;0.00402992;0.34513;2.89746;0.00479007;0.00537323;2.46585;0.40554;143.484;8.4837;-0.0215399;-0.0018413;0.00572539;-0.00966331;0.00519103;0.0293493;0.0137333;0;0.0509698;-1.60079;-0.803034;-0.732594;1.93496;-6.82224;-0.00129281;-0.00018422;0.0095059;0.00950904;-0.00129595;0.00540249;0.136;7.35292;0.00681255;0.00720332;7.33752;0.136286;124.343;169.343;-0.010542;-0.00134117;0.00956629;-0.00983041;0.00946059;0.0115051;0.0256775;0;0.0275687;3.09233
416000;417;25.978;0.224598;0.00872111;-2.34218;25.8532;-0.992459;-0.233705;0.192922;-0.405587;-1.36581;-0.610834;-0.341177;1.53458;-5.81411;-0.00174939;-0.00147063;0.00459335;0.00491774;-0.00207378;0.00349576;0.380853;2.62569;0.00414638;0.00466101;2.37139;0.421693;142.019;7.01901;-0.0210952;-0.00178918;0.00614017;-0.00903329;0.00457566;0.0292241;0.015955;0;0.0623465;-1.60117;-0.8102;-0.728681;1.93679;-6.81833;-0.00110812;-0.000197751;0.00914325;0.00914706;-0.00111193;0.0051295;0.121195;8.25117;0.00650046;0.00683933;8.2263;0.121561;124.165;169.165;-0.0113372;-0.00115193;0.00905643;-0.0093579;0.00910263;0.0111426;0.0237678;0;0.0534561;3.09724
417000;418;25.9883;0.234936;0.00912251;-2.34313;25.8635;-0.990896;-0.234647;0.203284;-0.404024;-1.36477;-0.610749;-0.345033;1.53449;-5.81797;-0.00168645;-0.0015993;0.00479501;0.00516816;-0.0020596;0.00361388;0.35171;2.84325;0.00429967;0.0048185;2.5093;0.398517;142.432;7.43157;-0.021826;-0.00172985;0.00629767;-0.00944524;0.00477655;0.0318846;0.0175105;0;0.057757;-1.60134;-0.817458;-0.734636;1.94222;-6.82388;-0.00146389;-0.000183934;0.00894405;0.0089473;-0.00146714;0.00520722;0.163672;6.10977;0.00650926;0.00694296;6.09845;0.163976;124.942;169.942;-0.0118387;-0.00150877;0.00919721;-0.00946829;0.00890215;0.0131327;0.0199057;0;0.0429475;3.10168
418000;419;25.9943;0.240873;0.00935304;-2.34279;25.8692;-0.998454;-0.234314;0.208989;-0.411582;-1.3652;-0.608479;-0.343706;1.53368;-5.81664;-0.00176952;-0.00160256;0.00569222;0.00602184;-0.00209914;0.00406049;0.310865;3.21683;0.00486756;0.00541399;2.86872;0.348587;139.454;4.45377;-0.0205807;-0.00181231;0.0062341;-0.00938098;0.00567418;0.0293582;0.01561;0;0.0489998;-1.60219;-0.824411;-0.733872;1.94557;-6.82311;-0.00151686;-0.000133317;0.00897582;0.00897752;-0.00151855;0.00524803;0.168994;5.91738;0.00655014;0.00699738;5.9119;0.16915;124.535;169.535;-0.0120916;-0.00155994;0.00910544;-0.00927598;0.00893475;0.0121485;0.0210317;0;0.0335461;3.10167
419000;420;26.0002;0.246756;0.00958148;-2.34347;25.8748;-1.00606;-0.234994;0.214544;-0.419193;-1.36607;-0.609121;-0.340087;1.53389;-5.81302;-0.001943;-0.00167516;0.00550764;0.00586694;-0.0023023;0.00408462;0.352782;2.83461;0.00486388;0.00544616;2.5483;0.392419;140.388;5.3884;-0.0217262;-0.00198438;0.00594805;-0.00924178;0.00549144;0.0312776;0.0172068;0;0.0562628;-1.60327;-0.83076;-0.735276;1.94969;-6.82452;-0.00140632;0.000108481;0.00862319;0.00862436;-0.0014075;0.00501593;0.163086;6.13173;0.00627161;0.0066879;6.12745;0.1632;123.686;168.686;-0.0115013;-0.00144872;0.00951269;-0.00920222;0.00857833;0.0121226;0.0243886;0;0.0231899;3.10436
420000;421;26.0088;0.255424;0.00991807;-2.34379;25.8837;-0.998919;-0.235312;0.223503;-0.412047;-1.3657;-0.607142;-0.345817;1.53407;-5.81875;-0.00223846;-0.00128363;0.00629269;0.00648165;-0.00242742;0.00445453;0.355724;2.81117;0.00531822;0.00593938;2.67018;0.374506;135.756;0.756246;-0.0213099;-0.00227657;0.00631123;-0.00881404;0.00627372;0.0291393;0.0148832;0;0.0579773;-1.60349;-0.837769;-0.738684;1.95415;-6.82793;-0.00151074;0.000427726;0.00754814;0.00756829;-0.00153089;0.00454959;0.200147;4.99633;0.00562569;0.00606612;4.94373;0.202276;123.07;168.07;-0.0110629;-0.00154876;0.00966308;-0.00872463;0.00750189;0.00985954;0.0252361;0;0.0204658;3.10736
421000;422;26.0167;0.263268;0.0102227;-2.3447;25.8914;-1.00134;-0.236226;0.231209;-0.414469;-1.36453;-0.60824;-0.340567;1.53228;-5.8135;-0.002109;-0.00121039;0.00630211;0.00647283;-0.00227972;0.00437627;0.33465;2.9882;0.00524302;0.00583503;2.83931;0.352198;135.376;0.375991;-0.0212168;-0.00214855;0.00661051;-0.00896584;0.00628113;0.0305464;0.0151791;0;0.056766;-1.60359;-0.845456;-0.737972;1.95727;-6.82721;-0.00158071;0.000547949;0.00720168;0.00723573;-0.00161477;0.00442525;0.219492;4.55598;0.00544252;0.00590033;4.48098;0.223165;122.651;167.651;-0.0105583;-0.00161618;0.00960832;-0.00843346;0.007156;0.0112653;0.0262508;0;0.0191149;3.10906
422000;423;26.0247;0.271299;0.0105345;-2.34556;25.8995;-0.999194;-0.23708;0.239284;-0.412322;-1.36578;-0.605986;-0.345766;1.53366;-5.8187;-0.00190381;-0.00169228;0.00731854;0.00761926;-0.00220453;0.0049119;0.260135;3.84416;0.00595203;0.0065492;3.45618;0.289337;135.34;0.340487;-0.0220767;-0.00194682;0.00610646;-0.00941952;0.00730145;0.0308597;0.0128845;0;0.0577869;-1.60535;-0.851121;-0.743535;1.96326;-6.83278;-0.00172953;0.000217905;0.00772155;0.00772657;-0.00173456;0.00473056;0.223988;4.46453;0.0058161;0.00630742;4.4545;0.224492;124.506;169.506;-0.010308;-0.00176942;0.00944845;-0.00892609;0.00767728;0.0108973;0.0268109;0;0.0214895;3.11016
423000;424;26.0311;0.277655;0.0107813;-2.34635;25.9055;-1.00784;-0.237867;0.245264;-0.420969;-1.36571;-0.605148;-0.347664;1.5337;-5.8206;-0.00207476;-0.00120273;0.00662249;0.00678575;-0.00223802;0.00451189;0.31329;3.19193;0.00542594;0.00601585;3.03203;0.329812;134.213;179.213;-0.0221571;-0.00211197;0.00636064;-0.0087007;0.00660312;0.0316346;0.01433;0;0.0588689;-1.60631;-0.859694;-0.74556;1.96854;-6.8348;-0.00153005;4.83511e-05;0.00850565;0.00850588;-0.00153028;0.00501808;0.179886;5.55908;0.00624351;0.00669077;5.55838;0.179908;124.259;169.259;-0.0102686;-0.00157214;0.00935795;-0.00916861;0.00846223;0.0106366;0.0280091;0;0.0366186;3.11595
424000;425;26.0414;0.287999;0.011183;-2.34553;25.9161;-1.00531;-0.237055;0.25583;-0.418435;-1.36555;-0.603856;-0.349544;1.53348;-5.82248;-0.00237759;-0.0011337;0.00736254;0.00749275;-0.00250781;0.00500028;0.322931;3.09664;0.00600817;0.00666704;2.98777;0.334698;132.353;177.353;-0.0214956;-0.00241484;0.00650181;-0.00869531;0.00734219;0.0304301;0.0150131;0;0.0661453;-1.60653;-0.867595;-0.750554;1.97408;-6.8398;-0.00141801;2.44925e-05;0.00905584;0.00905589;-0.00141806;0.00523698;0.156585;6.38631;0.00656123;0.00698264;6.38609;0.15659;123.419;168.419;-0.0114592;-0.00145951;0.00924905;-0.00910432;0.00901345;0.0130516;0.021292;0;0.0593821;3.11684
425000;426;26.0508;0.297445;0.0115497;-2.3479;25.9254;-1.00387;-0.239417;0.265164;-0.417;-1.36525;-0.602086;-0.349411;1.53248;-5.82235;-0.00241916;-0.00118814;0.00684764;0.00699755;-0.00256907;0.00478331;0.353283;2.83059;0.00571715;0.00637775;2.72377;0.367138;133.887;178.887;-0.0222018;-0.00245628;0.00638152;-0.00868807;0.00682811;0.0306696;0.0120424;0;0.0565528;-1.60707;-0.874518;-0.751769;1.97803;-6.84101;-0.00156808;0.000113437;0.01022;0.0102211;-0.00156918;0.00589512;0.153433;6.51749;0.00739282;0.00786016;6.51366;0.153524;121.442;166.442;-0.0105643;-0.00160702;0.00915084;-0.00881852;0.0101785;0.0108695;0.023572;0;0.0372568;3.11594
426000;427;26.0584;0.305025;0.0118441;-2.34785;25.9327;-1.01178;-0.239369;0.272478;-0.424911;-1.36524;-0.600802;-0.351434;1.53244;-5.82437;-0.00225268;-0.00118791;0.00809906;0.00823363;-0.00238725;0.00531044;0.278141;3.5953;0.00643419;0.00708058;3.44901;0.289939;130.888;175.888;-0.021732;-0.00229079;0.0065049;-0.00880166;0.00807877;0.0312552;0.0148132;0;0.0590054;-1.60785;-0.881246;-0.756101;1.9833;-6.84534;-0.00175274;0.000378719;0.0111395;0.0111506;-0.00176386;0.00645722;0.157345;6.35545;0.00808606;0.00860963;6.3217;0.158185;119.648;164.648;-0.0103444;-0.00179114;0.00963882;-0.00876334;0.0110936;0.00922566;0.0248695;0;0.0272305;3.11805
427000;428;26.0667;0.313349;0.0121673;-2.34871;25.941;-1.01083;-0.240234;0.280801;-0.423956;-1.3651;-0.600418;-0.350523;1.53195;-5.82346;-0.0023331;-0.000737133;0.00800718;0.00805947;-0.00238538;0.00522242;0.291375;3.432;0.00631998;0.00696323;3.37869;0.295973;128.393;173.393;-0.0215556;-0.00236534;0.0066568;-0.00805518;0.00798547;0.0306774;0.0144957;0;0.0627857;-1.60834;-0.889045;-0.756813;1.98744;-6.84606;-0.00175753;0.00077406;0.0111923;0.0112384;-0.00180363;0.00652104;0.15703;6.36822;0.00816022;0.00869472;6.231;0.160488;117.26;162.26;-0.0103763;-0.00178857;0.00957071;-0.00790999;0.0111473;0.00884985;0.0284441;0;0.021846;3.12053
428000;429;26.0752;0.321773;0.0124944;-2.35001;25.9491;-1.01705;-0.241527;0.288906;-0.430174;-1.36499;-0.599474;-0.348269;1.53096;-5.8212;-0.00208879;-0.000973096;0.00816428;0.00825582;-0.00218033;0.00521808;0.255845;3.90861;0.00635655;0.00695744;3.7865;0.264096;129.22;174.22;-0.0219328;-0.00212392;0.00655975;-0.00842928;0.00814341;0.0302036;0.0156778;0;0.0592176;-1.60914;-0.895723;-0.757018;1.99116;-6.84626;-0.00177364;0.000759263;0.0114896;0.0115329;-0.00181697;0.00667496;0.154369;6.47798;0.00836036;0.00889994;6.34736;0.157546;117.011;162.011;-0.00963842;-0.00180459;0.0095307;-0.00789722;0.011445;0.00880753;0.030564;0;0.0207992;3.12243
429000;430;26.083;0.329617;0.012799;-2.35017;25.9571;-1.01584;-0.241693;0.29682;-0.428973;-1.36543;-0.597786;-0.352301;1.53162;-5.82524;-0.00241592;-0.000926202;0.00808365;0.00816473;-0.002497;0.00533086;0.298865;3.34599;0.00643895;0.00710782;3.26982;0.305828;129.617;174.617;-0.021831;-0.00245132;0.00668135;-0.00845447;0.00806193;0.0311765;0.0148318;0;0.0566818;-1.61004;-0.902765;-0.760356;1.99634;-6.8496;-0.00184633;0.000789091;0.012115;0.0121594;-0.00189079;0.00702512;0.152401;6.56165;0.0088045;0.00936683;6.43088;0.1555;116.484;161.484;-0.00951246;-0.00187766;0.00964773;-0.00794741;0.0120693;0.00998722;0.0275954;0;0.0217636;3.12648
430000;431;26.0915;0.338091;0.013128;-2.35191;25.9653;-1.01771;-0.243427;0.305105;-0.430839;-1.36558;-0.596527;-0.351596;1.5311;-5.82453;-0.00247175;-0.00101309;0.00915191;0.00923955;-0.00255938;0.00589947;0.27008;3.70261;0.00716681;0.00786595;3.61007;0.277003;127.983;172.983;-0.0218916;-0.00250821;0.00665101;-0.00858885;0.0091305;0.0314899;0.0146319;0;0.0571149;-1.61112;-0.909989;-0.762167;2.00117;-6.85141;-0.00187488;0.000676236;0.0134388;0.0134686;-0.00190468;0.00768663;0.139513;7.16781;0.00967663;0.0102488;7.0713;0.141417;115.692;160.692;-0.00981732;-0.00190734;0.00956494;-0.0080782;0.0133939;0.0120218;0.0283977;0;0.0257415;3.1273
431000;432;26.1004;0.347038;0.0134754;-2.35234;25.9743;-1.0179;-0.243857;0.314049;-0.431025;-1.36566;-0.592651;-0.354706;1.53039;-5.82764;-0.00301615;-0.000962144;0.00939115;0.00946532;-0.00309032;0.00627782;0.32117;3.11362;0.00755405;0.00837043;3.06289;0.326489;127.607;172.607;-0.0249198;-0.00305022;0.00646438;-0.00829733;0.00937091;0.0335419;0.0113236;0;0.0565923;-1.61198;-0.915624;-0.766101;2.00593;-6.85534;-0.00182313;0.00051755;0.0138671;0.0138842;-0.00184018;0.00786218;0.131471;7.60624;0.00992654;0.0104829;7.54502;0.132538;115.695;160.695;-0.00978992;-0.00185646;0.00934572;-0.00817403;0.0138242;0.0128515;0.0235821;0;0.0235262;3.12712
432000;433;26.109;0.355595;0.0138077;-2.35371;25.9827;-1.0201;-0.24523;0.322436;-0.433225;-1.36641;-0.592256;-0.354631;1.53088;-5.82757;-0.00278531;-0.000891594;0.00991358;0.00997588;-0.00284761;0.00641174;0.280959;3.55924;0.00777558;0.00854899;3.50325;0.285449;126.11;171.11;-0.0230378;-0.00281954;0.00662088;-0.00830955;0.00989227;0.0312567;0.0136776;0;0.0593361;-1.61313;-0.923328;-0.767843;2.01104;-6.85709;-0.00170365;0.000521589;0.0141517;0.0141689;-0.00172079;0.00794484;0.120385;8.30671;0.0100687;0.0105931;8.23393;0.121449;114.54;159.54;-0.0095806;-0.00173339;0.00889673;-0.00772265;0.0141129;0.0115439;0.0236174;0;0.0373365;3.12922
433000;434;26.1186;0.365228;0.0141817;-2.35389;25.9923;-1.02122;-0.245412;0.332056;-0.434346;-1.36603;-0.591807;-0.353972;1.53022;-5.82691;-0.00294443;-0.00114629;0.00974826;0.00985095;-0.00304712;0.00644903;0.302047;3.31075;0.0077844;0.00859871;3.23287;0.309323;127.958;172.958;-0.0242411;-0.00298185;0.0065177;-0.00871388;0.00972787;0.0355681;0.013419;0;0.0545654;-1.61365;-0.931481;-0.768751;2.01556;-6.85799;-0.00190946;0.000740365;0.0147448;0.0147777;-0.00194231;0.00835999;0.1295;7.72199;0.0105589;0.0111466;7.6083;0.131435;114.256;159.256;-0.00972297;-0.00194123;0.00962387;-0.0079974;0.0146995;0.0111027;0.0237617;0;0.0306455;3.13217
434000;435;26.1265;0.373096;0.0144872;-2.35471;26.0001;-1.02278;-0.246229;0.339826;-0.435908;-1.36639;-0.590482;-0.355523;1.53039;-5.82846;-0.00304768;-0.00127787;0.0105841;0.0107028;-0.00316643;0.00693464;0.287949;3.47284;0.00839224;0.00924618;3.3801;0.295849;126.906;171.906;-0.0235884;-0.00308542;0.00631513;-0.00876837;0.0105652;0.0333691;0.0160726;0;0.0532487;-1.61499;-0.938729;-0.771502;2.02104;-6.86074;-0.00225964;0.000751948;0.0138249;0.01386;-0.00229472;0.00807736;0.163447;6.11819;0.0100922;0.0107698;6.03995;0.165564;115.033;160.033;-0.00903393;-0.0022888;0.0093047;-0.00766516;0.0137825;0.00782865;0.0264995;0;0.0274779;3.13349
435000;436;26.1357;0.382346;0.0148464;-2.35521;26.0092;-1.02626;-0.246727;0.34894;-0.439391;-1.36591;-0.590106;-0.351875;1.52897;-5.82481;-0.00316106;-0.000927101;0.0107707;0.0108321;-0.00322249;0.00702731;0.293487;3.4073;0.00850165;0.00936974;3.36142;0.297494;125.208;170.208;-0.025301;-0.0031958;0.00662246;-0.00837256;0.0107494;0.0345038;0.0125617;0;0.0552565;-1.61511;-0.946526;-0.770706;2.02447;-6.85995;-0.00210965;0.00116845;0.0133857;0.0134733;-0.00219727;0.00783531;0.157605;6.34499;0.00979714;0.0104471;6.13186;0.163083;113.683;158.683;-0.00929889;-0.00213499;0.00967336;-0.00720649;0.0133402;0.0103093;0.0281974;0;0.0236454;3.1355
436000;437;26.1441;0.39069;0.0151704;-2.35659;26.0174;-1.02719;-0.248115;0.357162;-0.44032;-1.36665;-0.588048;-0.356623;1.52994;-5.82956;-0.00296239;-0.000911375;0.0104847;0.0105462;-0.00302387;0.00678501;0.282545;3.53926;0.00822612;0.00904668;3.48763;0.286728;125.29;170.29;-0.0228169;-0.00299635;0.00655686;-0.00828017;0.0104638;0.0310751;0.0146309;0;0.0543005;-1.61639;-0.952945;-0.777411;2.03105;-6.86665;-0.00220123;0.000996593;0.0137836;0.0138455;-0.00226313;0.00805429;0.1597;6.26175;0.0100698;0.0107391;6.11785;0.163456;113.841;158.841;-0.00896745;-0.002227;0.00936473;-0.00723966;0.0137408;0.00954155;0.0285262;0;0.0213752;3.13951
437000;438;26.1531;0.399729;0.0155214;-2.35759;26.0264;-1.02737;-0.249113;0.366148;-0.440494;-1.36669;-0.585135;-0.358184;1.52922;-5.83112;-0.00292655;-0.000922034;0.0112227;0.0112825;-0.00298638;0.00713444;0.260771;3.83478;0.0086899;0.00951259;3.77799;0.264691;123.944;168.944;-0.0245293;-0.00296041;0.00652908;-0.00826884;0.011202;0.0353118;0.0141881;0;0.0565433;-1.61736;-0.959385;-0.77896;2.03545;-6.8682;-0.00224261;0.000940723;0.0151638;0.0152145;-0.0022933;0.00875388;0.147892;6.76167;0.0109875;0.0116718;6.63431;0.150732;112.514;157.514;-0.00859225;-0.00226754;0.00913807;-0.00711614;0.0151231;0.00935819;0.0288316;0;0.0258075;3.13951
438000;439;26.16;0.406632;0.0157894;-2.35776;26.0331;-1.03236;-0.249278;0.372872;-0.445486;-1.36718;-0.583041;-0.356467;1.52846;-5.8294;-0.00308439;-0.000681015;0.011326;0.0113581;-0.0031165;0.00723731;0.272328;3.67204;0.00879689;0.00964974;3.64451;0.274386;123.359;168.359;-0.0232434;-0.00311823;0.00699005;-0.00824274;0.0113021;0.0324664;0.01389;0;0.0590968;-1.61843;-0.965137;-0.779052;2.03905;-6.86829;-0.00242261;0.000800265;0.0163134;0.0163475;-0.00245673;0.00940214;0.148504;6.73382;0.0118028;0.0125362;6.65419;0.150281;112.478;157.478;-0.00898712;-0.00245011;0.00920551;-0.00745009;0.0162721;0.0115885;0.0293107;0;0.0315757;3.13936
439000;440;26.1683;0.414927;0.0161115;-2.35861;26.0413;-1.03358;-0.250127;0.381082;-0.446706;-1.36706;-0.582225;-0.357831;1.52836;-5.83077;-0.00329128;-0.00112759;0.0108395;0.0109289;-0.00338069;0.00715479;0.303638;3.2934;0.00863628;0.00953972;3.23274;0.309335;125.896;170.896;-0.0236591;-0.00332668;0.00632503;-0.00847596;0.0108203;0.0348131;0.0132953;0;0.0590223;-1.61897;-0.972838;-0.782225;2.04435;-6.87147;-0.00218193;0.000554651;0.0167125;0.0167288;-0.0021982;0.0094635;0.130557;7.65951;0.0119528;0.012618;7.61023;0.131402;112.769;157.769;-0.00986493;-0.00221223;0.00906266;-0.00779529;0.0166723;0.0143036;0.0278134;0;0.0386046;3.14149
440000;441;26.1779;0.424483;0.0164826;-2.35868;26.0507;-1.03792;-0.250196;0.390505;-0.451048;-1.36739;-0.58024;-0.359882;1.52838;-5.83282;-0.00324455;-0.000807093;0.0117056;0.011749;-0.003288;0.0075185;0.277181;3.60776;0.00912824;0.0100247;3.5733;0.279854;123.097;168.097;-0.0225095;-0.00327769;0.00666371;-0.00816745;0.0116839;0.0317496;0.0118067;0;0.0632944;-1.62021;-0.980085;-0.785605;2.05008;-6.87485;-0.00220752;0.000679238;0.0173131;0.0173367;-0.00223113;0.00978393;0.127506;7.84278;0.0123688;0.0130452;7.77038;0.128694;111.768;156.768;-0.0100811;-0.00223614;0.00910729;-0.00758714;0.0172726;0.0129468;0.0260484;0;0.0420685;3.14258
441000;442;26.1858;0.432449;0.0167919;-2.35925;26.0588;-1.03443;-0.250771;0.398597;-0.447558;-1.36777;-0.579696;-0.357584;1.52798;-5.83052;-0.00335387;-0.00047104;0.0112838;0.011299;-0.00336902;0.007334;0.297228;3.36442;0.00887152;0.00977867;3.35379;0.29817;122.712;167.712;-0.0232814;-0.00338487;0.00704092;-0.00787424;0.0112594;0.0306143;0.0131139;0;0.0600927;-1.62123;-0.98742;-0.785173;2.05424;-6.87442;-0.0021705;0.000886835;0.0171899;0.0172305;-0.00221104;0.00972076;0.126266;7.9198;0.0122905;0.012961;7.79293;0.128321;111.087;156.087;-0.00939626;-0.00219682;0.00923352;-0.00730104;0.0171484;0.013017;0.0279009;0;0.0374614;3.14532
442000;443;26.1951;0.441719;0.0171519;-2.35981;26.0679;-1.03921;-0.251328;0.407672;-0.452338;-1.36738;-0.579349;-0.358699;1.52775;-5.83163;-0.0032243;-0.000729718;0.0123796;0.0124136;-0.00325835;0.007836;0.260453;3.83947;0.00954902;0.010448;3.8098;0.262481;121.954;166.954;-0.0236712;-0.0032581;0.00689919;-0.008241;0.0123563;0.0320759;0.012756;0;0.0557668;-1.62161;-0.995904;-0.787761;2.05962;-6.877;-0.00248107;0.000898736;0.0162304;0.0162735;-0.00252413;0.0093988;0.152865;6.5417;0.0117808;0.0125317;6.44714;0.155107;111.89;156.89;-0.00940074;-0.00250595;0.00904979;-0.00710229;0.0161905;0.010627;0.0293091;0;0.0255967;3.1496
443000;444;26.2043;0.450896;0.0175082;-2.3601;26.077;-1.04284;-0.251624;0.416722;-0.455972;-1.36706;-0.57596;-0.363761;1.52739;-5.8367;-0.00356407;-0.000839897;0.0119796;0.0120248;-0.00360932;0.00781707;0.297512;3.3612;0.00945222;0.0104228;3.3316;0.300156;123.315;168.315;-0.0236196;-0.00359819;0.00672487;-0.00828843;0.0119576;0.0317256;0.0142123;0;0.0564243;-1.62184;-1.00138;-0.794371;2.06498;-6.88361;-0.00277457;0.00125294;0.0160937;0.0161766;-0.0028574;0.00951699;0.1724;5.80045;0.0118522;0.0126893;5.66129;0.176638;111.673;156.673;-0.00905582;-0.00279809;0.00962498;-0.00696371;0.0160489;0.0119814;0.0305436;0;0.0218107;3.14938
444000;445;26.2106;0.457158;0.0177514;-2.3615;26.0831;-1.04262;-0.253021;0.422897;-0.455745;-1.36752;-0.574369;-0.365814;1.52768;-5.83875;-0.00330076;-0.000583283;0.0117033;0.0117259;-0.0033234;0.00752467;0.282037;3.54564;0.00912901;0.0100329;3.5283;0.283423;122.177;167.177;-0.0226054;-0.00333154;0.00679799;-0.00785506;0.0116806;0.0306154;0.0121917;0;0.0510692;-1.62306;-1.00714;-0.798235;2.07022;-6.88748;-0.00277408;0.00105143;0.0163451;0.0164027;-0.00283173;0.00961723;0.16972;5.89207;0.011991;0.012823;5.79248;0.172638;111.482;156.482;-0.00887289;-0.00279695;0.00908946;-0.00683546;0.016305;0.0122659;0.0299651;0;0.0227388;3.14939
445000;446;26.2194;0.465988;0.0180942;-2.36154;26.0921;-1.04126;-0.25306;0.431821;-0.454384;-1.36801;-0.573943;-0.361543;1.52695;-5.83448;-0.00330196;-0.0010469;0.0115642;0.0116376;-0.00337532;0.00750647;0.285532;3.50223;0.00909475;0.0100086;3.44785;0.290036;124.657;169.657;-0.0248898;-0.00333868;0.00663824;-0.00861905;0.011543;0.0340714;0.0134791;0;0.052459;-1.62409;-1.01465;-0.796567;2.07406;-6.88581;-0.00278377;0.000958246;0.0178628;0.0179072;-0.00282815;0.0103677;0.155842;6.41677;0.0129839;0.0138236;6.33177;0.157934;110.444;155.444;-0.00881214;-0.00280726;0.00899121;-0.00691183;0.0178236;0.0115822;0.0298884;0;0.0248421;3.15121
446000;447;26.2262;0.472792;0.0183584;-2.36313;26.0987;-1.04283;-0.254649;0.438451;-0.455958;-1.36739;-0.572819;-0.362739;1.52626;-5.83567;-0.00334063;-0.000396362;0.0123077;0.0123177;-0.00335067;0.00783419;0.271427;3.68424;0.00952717;0.0104456;3.6762;0.27202;120.979;165.979;-0.0233143;-0.00337184;0.00722236;-0.00789729;0.012282;0.0306707;0.0132782;0;0.0520994;-1.62428;-1.02202;-0.797715;2.07826;-6.88696;-0.00295168;0.000804956;0.0193727;0.0194016;-0.00298067;0.0111912;0.152363;6.56327;0.0140339;0.0149215;6.50916;0.15363;109.977;154.977;-0.00870615;-0.00297701;0.00894092;-0.00715288;0.0193338;0.0134776;0.0273515;0;0.0260648;3.15416
447000;448;26.2345;0.481123;0.0186819;-2.362;26.107;-1.04749;-0.253518;0.446739;-0.460614;-1.36691;-0.569369;-0.366667;1.52548;-5.8396;-0.0035283;-0.00110043;0.0121789;0.0122556;-0.00360502;0.0079303;0.289707;3.45176;0.00960039;0.0105737;3.39959;0.294153;124.243;169.243;-0.0257385;-0.00356631;0.00669351;-0.00877335;0.0121573;0.0355925;0.0115528;0;0.0525503;-1.62473;-1.02779;-0.802187;2.08318;-6.89143;-0.00294399;0.000587438;0.0199629;0.0199779;-0.00295905;0.0114685;0.147473;6.78088;0.0144066;0.0152913;6.75147;0.148116;109.76;154.76;-0.00838676;-0.00296983;0.00855654;-0.00720273;0.0199271;0.0136699;0.0260247;0;0.0214456;3.15495
448000;449;26.2441;0.490732;0.0190551;-2.36368;26.1165;-1.04688;-0.255199;0.456267;-0.460013;-1.36763;-0.569786;-0.364312;1.52571;-5.83725;-0.00392788;-0.000492737;0.0116092;0.0116248;-0.00394349;0.00778417;0.338341;2.9556;0.00934596;0.0103789;2.94785;0.33923;123.375;168.375;-0.024095;-0.00396068;0.0072308;-0.00809762;0.0115835;0.0313421;0.0145924;0;0.0521005;-1.62654;-1.03644;-0.802837;2.08911;-6.89208;-0.00285029;0.000761898;0.020126;0.0201513;-0.00287552;0.0115134;0.141622;7.06105;0.0144881;0.0153512;7.00786;0.142697;109.499;154.499;-0.0092678;-0.00287629;0.00895005;-0.00724188;0.020087;0.0129859;0.0290956;0;0.0230574;3.15735
449000;450;26.2524;0.499011;0.0193765;-2.36372;26.1248;-1.04752;-0.255238;0.464558;-0.460648;-1.36846;-0.568351;-0.365118;1.52611;-5.83805;-0.00387522;-0.000547009;0.0124616;0.0124799;-0.00389351;0.0081867;0.310973;3.21571;0.00987697;0.0109156;3.2053;0.311983;122.418;167.418;-0.0247101;-0.0039098;0.00735183;-0.00831836;0.012435;0.0336542;0.0144291;0;0.0584023;-1.62772;-1.04324;-0.804886;2.0942;-6.89413;-0.00267365;0.000732451;0.0197946;0.0198185;-0.0026975;0.011258;0.135069;7.4036;0.0141972;0.0150106;7.34698;0.13611;109.404;154.404;-0.00836105;-0.00269886;0.00877168;-0.0071297;0.0197572;0.0113552;0.0294095;0;0.0300436;3.158
450000;451;26.2594;0.50604;0.0196494;-2.3643;26.1316;-1.05258;-0.25582;0.471365;-0.46571;-1.36934;-0.567891;-0.365213;1.52675;-5.83815;-0.00385069;-0.000506727;0.0127226;0.0127381;-0.00386617;0.00830211;0.302666;3.30397;0.0100322;0.0110695;3.29475;0.303513;121.648;166.648;-0.0250216;-0.00388389;0.00726209;-0.00814838;0.0126967;0.0330201;0.0147229;0;0.0533308;-1.62918;-1.05006;-0.807946;2.09991;-6.89719;-0.00319892;0.000829035;0.0187188;0.0187501;-0.00323023;0.0109902;0.170894;5.85159;0.0137043;0.0146535;5.80456;0.172278;110.393;155.393;-0.0087677;-0.00322292;0.00879637;-0.00696693;0.0186811;0.0115838;0.0322088;0;0.0255945;3.1586
451000;452;26.2673;0.513941;0.0199562;-2.36503;26.1393;-1.05587;-0.256549;0.479105;-0.469001;-1.3695;-0.565976;-0.366891;1.52658;-5.83983;-0.00390015;-0.000788524;0.0121485;0.0121871;-0.0039388;0.00806297;0.321039;3.11488;0.0097078;0.0107506;3.09413;0.323193;123.795;168.795;-0.0252257;-0.00393666;0.00711303;-0.00856474;0.0121238;0.0349178;0.015631;0;0.0503957;-1.63002;-1.05602;-0.810763;2.10463;-6.90001;-0.00301367;0.00110883;0.0182353;0.018293;-0.00307137;0.0106822;0.165266;6.05087;0.0133375;0.0142429;5.95597;0.167899;109.604;154.604;-0.00814871;-0.00303458;0.00893344;-0.00655256;0.0181967;0.00948587;0.0317986;0;0.021497;3.1635
452000;453;26.2756;0.522218;0.0202777;-2.36528;26.1476;-1.0567;-0.256806;0.487367;-0.469826;-1.36935;-0.563263;-0.370214;1.52625;-5.84315;-0.00408399;-0.000872383;0.012502;0.0125478;-0.00412974;0.00833876;0.326666;3.06123;0.0100293;0.0111183;3.03839;0.329122;123.835;168.835;-0.0251389;-0.00412163;0.00708863;-0.00870293;0.0124776;0.034084;0.0143096;0;0.0505178;-1.63023;-1.06245;-0.816436;2.11021;-6.90568;-0.00318134;0.00129533;0.0189982;0.0190736;-0.00325674;0.0111652;0.167455;5.97176;0.0139288;0.0148869;5.85666;0.170746;108.666;153.666;-0.00824656;-0.00320069;0.00910462;-0.00634405;0.0189584;0.0114035;0.034668;0;0.0206745;3.16725
453000;454;26.2834;0.530039;0.0205813;-2.36536;26.1554;-1.05773;-0.256885;0.495177;-0.470861;-1.36981;-0.562779;-0.368271;1.52602;-5.84121;-0.00446291;-0.000922017;0.0128021;0.0128512;-0.00451201;0.00868162;0.348607;2.86856;0.0104029;0.0115755;2.84823;0.351096;123.665;168.665;-0.0252368;-0.00449908;0.00682403;-0.00853596;0.0127796;0.0362356;0.01468;0;0.0554167;-1.63147;-1.06989;-0.816635;2.11501;-6.90588;-0.00334906;0.000957218;0.0209292;0.0209668;-0.00338674;0.0121768;0.160019;6.24927;0.0152328;0.0162357;6.19086;0.161528;108.609;153.609;-0.00841074;-0.00337237;0.00898837;-0.00688301;0.02089;0.0128884;0.034955;0;0.0290213;3.166
454000;455;26.2904;0.536987;0.0208511;-2.36682;26.1622;-1.0599;-0.25834;0.50194;-0.47303;-1.36921;-0.559529;-0.37365;1.52559;-5.84659;-0.00424259;-0.000361634;0.0133075;0.013315;-0.00425004;0.00878252;0.318811;3.13666;0.0105818;0.01171;3.13291;0.319192;121.171;166.171;-0.0245137;-0.00427651;0.00764239;-0.00822701;0.0132788;0.032218;0.0160215;0;0.0565283;-1.63187;-1.0757;-0.820653;2.11981;-6.90989;-0.00328389;0.00102865;0.0224525;0.0224936;-0.00332494;0.0129092;0.146259;6.83717;0.016218;0.0172123;6.76511;0.147817;107.048;152.048;-0.00807824;-0.00330547;0.00889443;-0.0066392;0.0224143;0.0124546;0.030493;0;0.0291064;3.1673
455000;456;26.2984;0.545006;0.0211625;-2.36771;26.1702;-1.05941;-0.259235;0.509937;-0.472539;-1.36974;-0.559159;-0.372744;1.52571;-5.84568;-0.00442391;-0.00063747;0.0132845;0.0133074;-0.00444683;0.00887713;0.333013;3.00289;0.0106675;0.0118362;2.99256;0.334162;122.338;167.338;-0.0251165;-0.00446005;0.00737185;-0.00850678;0.0132579;0.0357871;0.0141497;0;0.0545264;-1.63288;-1.08339;-0.821167;2.1247;-6.91081;-0.00331525;0.000808911;0.0233863;0.0234108;-0.00333974;0.0133753;0.14176;7.05416;0.0168313;0.0178337;7.00978;0.142658;108.029;153.029;-0.00849862;-0.00334294;0.00931201;-0.00747239;0.0233443;0.017334;0.0291081;0;0.0226455;3.16766
456000;457;26.3083;0.554857;0.021545;-2.36846;26.18;-1.05863;-0.259979;0.5198;-0.471758;-1.36978;-0.557781;-0.372556;1.52519;-5.84549;-0.0043035;-0.000578639;0.013833;0.0138514;-0.00432194;0.00908667;0.311105;3.21435;0.0109627;0.0121156;3.2049;0.312022;121.29;166.29;-0.0245454;-0.00433965;0.00749148;-0.00850435;0.0138054;0.0342484;0.0147764;0;0.0565088;-1.63391;-1.09004;-0.823102;2.12963;-6.91234;-0.00348347;0.000732889;0.022982;0.0230023;-0.00350375;0.013253;0.151574;6.59744;0.0166263;0.0176707;6.56504;0.152322;108.114;153.114;-0.00801498;-0.00350974;0.0089518;-0.00727344;0.0229431;0.0129405;0.0299266;0;0.0265332;3.17004
457000;458;26.3172;0.563837;0.0218937;-2.36773;26.1891;-1.05959;-0.259248;0.528851;-0.472715;-1.36916;-0.556203;-0.373757;1.52436;-5.84669;-0.00453092;-0.00047719;0.0139294;0.0139417;-0.00454324;0.00924246;0.325278;3.07429;0.0111226;0.0123233;3.06866;0.325875;121.012;166.012;-0.0250011;-0.00456569;0.00752556;-0.00833421;0.0139015;0.0364725;0.0162159;0;0.0583046;-1.63398;-1.0972;-0.824871;2.13405;-6.91411;-0.00346883;0.0010474;0.0225725;0.0226146;-0.00351089;0.0130627;0.153675;6.50723;0.0163726;0.017417;6.44126;0.155249;107.826;152.826;-0.0086356;-0.00349314;0.00934502;-0.00703897;0.0225303;0.0134856;0.0322667;0;0.0328636;3.17237
458000;459;26.3245;0.57107;0.0221746;-2.36894;26.196;-1.06536;-0.260458;0.535777;-0.478484;-1.36943;-0.555095;-0.374152;1.52429;-5.84709;-0.00424103;-0.0003824;0.0146085;0.0146163;-0.00424878;0.00943252;0.290312;3.44457;0.0114268;0.0125767;3.44011;0.290689;119.682;164.682;-0.0248231;-0.00427632;0.0077798;-0.00839294;0.0145787;0.0351945;0.0166565;0;0.0579654;-1.63478;-1.10363;-0.82885;2.13951;-6.91809;-0.00357153;0.000995961;0.0214264;0.0214661;-0.00361114;0.0125386;0.166688;5.99924;0.0156539;0.0167181;5.94439;0.168226;108.079;153.079;-0.00811161;-0.00359345;0.00886927;-0.00668472;0.0213884;0.0114811;0.0325544;0;0.0323399;3.17474
459000;460;26.3335;0.580135;0.0225265;-2.36827;26.2052;-1.06494;-0.259794;0.544963;-0.478067;-1.36995;-0.554409;-0.371992;1.52398;-5.84493;-0.00474449;-0.000307342;0.0150819;0.0150867;-0.00474926;0.00991796;0.314582;3.17883;0.0119594;0.013224;3.17664;0.314798;119.607;164.607;-0.0238704;-0.00478002;0.00796169;-0.00841484;0.0150507;0.0334369;0.0151517;0;0.0555012;-1.63607;-1.1115;-0.827505;2.14404;-6.91675;-0.00397261;0.00124675;0.0208758;0.0209382;-0.00403501;0.0124866;0.190297;5.25494;0.0154801;0.0166488;5.18914;0.19271;108.479;153.479;-0.00796118;-0.00399335;0.00923425;-0.00654641;0.0208348;0.0106706;0.0340355;0;0.0234963;3.1791
460000;461;26.3427;0.589262;0.0228809;-2.36957;26.2142;-1.06528;-0.261095;0.554003;-0.47841;-1.37004;-0.552202;-0.373074;1.52353;-5.84601;-0.00463139;-0.000462405;0.0155679;0.0155784;-0.00464197;0.0101102;0.297497;3.36138;0.0122302;0.0134803;3.356;0.297974;119.047;164.047;-0.024695;-0.0046669;0.00765663;-0.00841992;0.0155391;0.0359553;0.0169208;0;0.0543562;-1.63677;-1.11735;-0.829964;2.14857;-6.91921;-0.0039453;0.00141905;0.0217593;0.0218374;-0.0040234;0.0129304;0.181316;5.51524;0.0160682;0.0172405;5.42759;0.184244;106.901;151.901;-0.00787919;-0.00396282;0.00910757;-0.00607614;0.0217197;0.0124542;0.0341584;0;0.0220425;3.179
461000;462;26.3479;0.594494;0.0230841;-2.36942;26.2192;-1.07325;-0.260941;0.55895;-0.486375;-1.3694;-0.550081;-0.376755;1.52309;-5.84969;-0.00486493;-0.000305532;0.0161446;0.0161491;-0.00486937;0.0105092;0.301334;3.31857;0.0127041;0.0140123;3.31646;0.301526;118.485;163.485;-0.0224706;-0.00490085;0.00802132;-0.0084602;0.016113;0.029594;0.0148337;0;0.0603094;-1.63684;-1.12375;-0.835608;2.15413;-6.92485;-0.00397848;0.00109476;0.0234247;0.0234684;-0.00402215;0.0137453;0.169841;5.88786;0.0171443;0.018327;5.83479;0.171386;106.303;151.303;-0.00807577;-0.00399761;0.00866194;-0.00626986;0.0233887;0.0124252;0.0361221;0;0.0309334;3.17901
462000;463;26.3562;0.602847;0.0234084;-2.37127;26.2275;-1.07207;-0.262789;0.567225;-0.485202;-1.36892;-0.547982;-0.377768;1.52215;-5.8507;-0.00468934;-8.30894e-05;0.0169409;0.0169412;-0.00468966;0.0108154;0.276806;3.61264;0.0131393;0.0144206;3.61246;0.27682;117.028;162.028;-0.0228865;-0.00472482;0.00841938;-0.00840471;0.016906;0.0281481;0.0148608;0;0.060104;-1.63718;-1.12984;-0.838652;2.15876;-6.92789;-0.00407161;0.0011482;0.0249507;0.0249961;-0.00411696;0.0145565;0.163186;6.12798;0.0181923;0.0194087;6.07149;0.164704;106.065;151.065;-0.00842528;-0.00409289;0.00913338;-0.00661094;0.0249107;0.014169;0.0349551;0;0.0311071;3.17903
463000;464;26.3636;0.610245;0.0236957;-2.37068;26.235;-1.07126;-0.262196;0.574746;-0.484387;-1.37019;-0.547011;-0.376161;1.52254;-5.8491;-0.00487576;0.00013743;0.0172132;0.0172141;-0.00487661;0.0110453;0.283257;3.53037;0.0134007;0.0147271;3.52992;0.283292;115.955;160.955;-0.0238346;-0.00490743;0.00839537;-0.0079412;0.0171786;0.0303844;0.014434;0;0.0568118;-1.63881;-1.13601;-0.838135;2.16303;-6.92738;-0.00390002;0.000992719;0.0261471;0.0261799;-0.00393278;0.0150563;0.149157;6.70436;0.0189011;0.0200751;6.65684;0.150221;105.86;150.86;-0.00831686;-0.00392366;0.00915805;-0.00693358;0.0261068;0.016176;0.0326968;0;0.0213369;3.18038
464000;465;26.3727;0.619299;0.0240473;-2.37201;26.2441;-1.06729;-0.263534;0.583885;-0.480415;-1.36959;-0.547319;-0.374286;1.52166;-5.84722;-0.00485593;3.17289e-05;0.017188;0.0171881;-0.00485597;0.011022;0.282518;3.5396;0.0133745;0.014696;3.53957;0.28252;115.911;160.911;-0.0234023;-0.00488695;0.00809646;-0.00785823;0.0171558;0.031574;0.0131999;0;0.0537753;-1.63917;-1.14512;-0.835994;2.16727;-6.92524;-0.00414937;0.000773292;0.0255873;0.0256074;-0.00416947;0.0148884;0.162165;6.16654;0.0186177;0.0198512;6.14164;0.162823;107.256;152.256;-0.00778012;-0.00417686;0.00923194;-0.00744015;0.025546;0.0147563;0.0308122;0;0.0250288;3.18557
465000;466;26.3804;0.627029;0.0243474;-2.37114;26.2514;-1.08173;-0.262665;0.59114;-0.494858;-1.36946;-0.545022;-0.376796;1.52133;-5.84973;-0.00497579;7.6788e-05;0.0177506;0.0177509;-0.00497605;0.0113635;0.280316;3.5674;0.0137951;0.0151513;3.56727;0.280327;115.555;160.555;-0.0241529;-0.00500757;0.0082902;-0.00795322;0.0177169;0.0334969;0.0139565;0;0.0564235;-1.63936;-1.15076;-0.842045;2.17274;-6.93129;-0.00396278;0.000850768;0.0252643;0.0252891;-0.00398753;0.0146383;0.156853;6.3754;0.0183337;0.0195177;6.34204;0.157678;106.621;151.621;-0.00747646;-0.00398732;0.00897654;-0.00704342;0.0252254;0.0128154;0.034225;0;0.0286892;3.18808
466000;467;26.39;0.636624;0.02472;-2.3728;26.2611;-1.07716;-0.26432;0.600821;-0.490291;-1.3705;-0.544052;-0.377836;1.52218;-5.85077;-0.005722;0.00117002;0.0175069;0.0175656;-0.00578079;0.0116732;0.326843;3.05957;0.0140398;0.0155643;3.03862;0.329096;114.093;159.093;-0.0223894;-0.0057454;0.00944978;-0.0069208;0.0174637;0.0261613;0.0187083;0;0.0600208;-1.64091;-1.15825;-0.844213;2.17873;-6.93346;-0.0043198;0.000946789;0.0241826;0.024214;-0.00435122;0.0142826;0.178632;5.59809;0.0177716;0.0190435;5.56489;0.179698;107.492;152.492;-0.00776521;-0.00434413;0.00914673;-0.00702502;0.0241422;0.0128299;0.0377497;0;0.0323626;3.18801
467000;468;26.3986;0.64524;0.0250545;-2.37301;26.2697;-1.07745;-0.264527;0.609449;-0.490574;-1.36926;-0.540912;-0.381818;1.52093;-5.85475;-0.00583207;0.00134065;0.0174897;0.0175665;-0.00590888;0.0117377;0.333458;2.99888;0.0140995;0.0156502;2.97289;0.336373;113.975;158.975;-0.0229243;-0.00585464;0.00970597;-0.00683301;0.0174442;0.0244764;0.0185858;0;0.0586962;-1.64082;-1.16447;-0.847254;2.18315;-6.9365;-0.00434646;0.00119506;0.0236763;0.0237271;-0.00439733;0.0140622;0.183579;5.44725;0.0174693;0.0187496;5.3958;0.185329;106.878;151.878;-0.00781969;-0.00436709;0.00912667;-0.0065195;0.0236363;0.0116228;0.0377363;0;0.0279945;3.19011
468000;469;26.4073;0.653863;0.0253894;-2.37348;26.2783;-1.07726;-0.265004;0.618079;-0.490386;-1.37024;-0.540325;-0.38193;1.52163;-5.85486;-0.00584045;0.00164941;0.0178701;0.0179843;-0.00595464;0.0119694;0.326829;3.05971;0.0143911;0.0159593;3.02021;0.331103;112.787;157.787;-0.0239697;-0.00586017;0.00996727;-0.0064748;0.0178226;0.0267961;0.0163056;0;0.0647176;-1.64177;-1.17135;-0.850626;2.18884;-6.93987;-0.00437896;0.00127997;0.0246691;0.0247254;-0.00443526;0.0145803;0.177508;5.63355;0.0181436;0.0194404;5.57474;0.179381;106.052;151.052;-0.00782713;-0.00439866;0.00917624;-0.00639253;0.0246288;0.0116261;0.039447;0;0.0375781;3.19133
469000;470;26.4145;0.661145;0.0256721;-2.37334;26.2856;-1.07777;-0.264862;0.625388;-0.490901;-1.37029;-0.537632;-0.381438;1.52061;-5.85437;-0.00611103;0.00117502;0.0187066;0.0187621;-0.00616654;0.0124643;0.326677;3.06113;0.0149925;0.0166191;3.04257;0.328669;113.028;158.028;-0.0239313;-0.00613308;0.00927113;-0.00672393;0.0186651;0.0296796;0.0185279;0;0.0601396;-1.64248;-1.17611;-0.852668;2.19272;-6.94191;-0.00457541;0.00141444;0.0254779;0.0255443;-0.00464184;0.0150931;0.179584;5.56843;0.0187691;0.0201241;5.50306;0.181717;105.697;150.697;-0.00761059;-0.00459487;0.00944717;-0.00638296;0.0254353;0.0117458;0.0384103;0;0.0293879;3.19157
470000;471;26.4211;0.667681;0.0259259;-2.3738;26.2919;-1.08427;-0.265326;0.631647;-0.497397;-1.37028;-0.537321;-0.380173;1.52017;-5.85311;-0.00588014;0.00125063;0.018595;0.0186587;-0.00594388;0.0123013;0.316222;3.16234;0.0148231;0.0164017;3.13915;0.318558;112.923;157.923;-0.0276606;-0.00590253;0.00948658;-0.00678751;0.0185516;0.0353408;0.0182693;0;0.0585152;-1.64335;-1.18383;-0.852187;2.19733;-6.94143;-0.0046035;0.00119743;0.027436;0.0274806;-0.00464819;0.0160644;0.167791;5.9598;0.0200502;0.0214192;5.91211;0.169144;105.026;150.026;-0.00763871;-0.00462455;0.00922786;-0.00658264;0.0273952;0.0125203;0.0358261;0;0.0282876;3.1956
471000;472;26.4279;0.674486;0.0261902;-2.37266;26.2986;-1.08907;-0.264179;0.638392;-0.502194;-1.37047;-0.535571;-0.386607;1.52135;-5.85954;-0.00615915;0.00130643;0.0191427;0.01921;-0.00622643;0.0127182;0.32175;3.10801;0.0153101;0.0169576;3.08523;0.324125;112.329;157.329;-0.0260615;-0.00618003;0.00938689;-0.0065735;0.0191003;0.0371732;0.0142974;0;0.0548824;-1.6434;-1.19072;-0.859893;2.20408;-6.94913;-0.00304262;0.00138541;0.0288948;0.0289548;-0.00310261;0.0160287;0.1053;9.49669;0.0204162;0.0213716;9.33242;0.107153;104.457;149.457;-0.00937089;-0.00306832;0.0103389;-0.00729029;0.0288438;0.0147731;0.033889;0;0.0247457;3.19695
472000;473;26.4385;0.685113;0.0266028;-2.37309;26.3094;-1.08665;-0.264612;0.649131;-0.499783;-1.36999;-0.534009;-0.380349;1.51878;-5.85328;-0.00595135;0.000458209;0.0194687;0.019477;-0.00595961;0.0127183;0.305688;3.27131;0.0153615;0.0169577;3.26817;0.305982;111.927;156.927;-0.0280795;-0.00597252;0.00759882;-0.00650438;0.0194405;0.0498328;0.0121925;0;0.0568824;-1.64366;-1.19732;-0.857813;2.20704;-6.94705;-0.00309729;0.00151287;0.0290541;0.0291251;-0.00316832;0.0161467;0.106604;9.38048;0.0205544;0.021529;9.1926;0.108783;104.442;149.442;-0.00905087;-0.00312307;0.0106375;-0.0073268;0.0290002;0.0149777;0.0354802;0;0.028064;3.19827
473000;474;26.4482;0.694793;0.0269787;-2.37338;26.3193;-1.08114;-0.264905;0.659059;-0.49427;-1.37034;-0.529837;-0.389294;1.5199;-5.86223;-0.00589038;0.000840925;0.0190533;0.0190816;-0.0059187;0.0125001;0.309153;3.23464;0.0150861;0.0166669;3.22395;0.310178;110.872;155.872;-0.0272921;-0.00590732;0.00771368;-0.00586364;0.0190244;0.054255;0.0109819;0;0.0546842;-1.64429;-1.20307;-0.863527;2.21286;-6.95277;-0.00330784;0.00161885;0.0281346;0.0282177;-0.00339097;0.0158043;0.117572;8.50542;0.020038;0.0210724;8.32143;0.120172;104.563;149.563;-0.00727084;-0.00333162;0.0105843;-0.00707249;0.0280814;0.010332;0.0334139;0;0.0334496;3.19981
474000;475;26.4559;0.702489;0.0272775;-2.37377;26.3267;-1.08722;-0.26529;0.666508;-0.50035;-1.37079;-0.530686;-0.383733;1.51919;-5.85667;-0.00554047;0.000843669;0.0196109;0.0196391;-0.00556874;0.0126039;0.282521;3.53957;0.0152908;0.0168052;3.52667;0.283553;109.173;154.173;-0.0234972;-0.00555541;0.00736313;-0.00551501;0.0195846;0.0478306;0.0125172;0;0.0556009;-1.6454;-1.21123;-0.860447;2.21693;-6.94969;-0.00338821;0.00197682;0.0267145;0.0268438;-0.00351747;0.0151806;0.12683;7.88456;0.0191762;0.0202408;7.63156;0.131035;103.684;148.684;-0.00794629;-0.00340516;0.0103388;-0.00614015;0.0266644;0.00934119;0.0354714;0;0.0426443;3.2016
475000;476;26.4643;0.710932;0.0276054;-2.37345;26.3352;-1.08927;-0.264971;0.674936;-0.502397;-1.36997;-0.528227;-0.387385;1.51852;-5.86032;-0.00559188;0.000152797;0.020565;0.0205658;-0.00559278;0.0130793;0.271913;3.67764;0.015906;0.0174391;3.67722;0.271945;110.157;155.157;-0.0256426;-0.00561204;0.00680935;-0.00633315;0.0205422;0.047583;0.0120131;0;0.0571718;-1.64504;-1.21699;-0.867986;2.22275;-6.95723;-0.00352231;0.00235799;0.0264668;0.0266511;-0.00370658;0.0151788;0.133084;7.51405;0.019123;0.0202384;7.1902;0.139078;103.805;148.805;-0.00758564;-0.00353846;0.0111144;-0.00614279;0.0264093;0.00517363;0.0353596;0;0.0419595;3.20213
476000;477;26.473;0.719625;0.0279429;-2.37507;26.3439;-1.08649;-0.266593;0.683641;-0.49962;-1.37024;-0.528378;-0.385046;1.51822;-5.85798;-0.00495864;0.000896919;0.020684;0.0207153;-0.00498997;0.0128526;0.239733;4.1713;0.0157395;0.0171369;4.15139;0.240883;107.337;152.337;-0.0236041;-0.00497279;0.0073369;-0.0053813;0.020658;0.0499259;0.0136429;0;0.0569532;-1.64575;-1.22515;-0.86651;2.22718;-6.95575;-0.00380389;0.00272974;0.0268144;0.0270559;-0.00404535;0.0155506;0.14186;7.04921;0.0195259;0.0207341;6.68814;0.149518;102.489;147.489;-0.00620234;-0.00381448;0.0110523;-0.00534482;0.0267586;-0.000726339;0.0396234;0;0.0367333;3.20582
477000;478;26.4786;0.725219;0.0281601;-2.37523;26.349;-1.09708;-0.266753;0.688809;-0.510204;-1.36856;-0.525975;-0.38672;1.5163;-5.85966;-0.00476158;0.000371027;0.020481;0.0204865;-0.00476704;0.0126268;0.232487;4.30131;0.0154931;0.0168357;4.29753;0.232692;108.866;153.866;-0.026361;-0.00478006;0.00698043;-0.0060749;0.0204572;0.0511647;0.0136822;0;0.0538166;-1.64601;-1.23039;-0.872412;2.23256;-6.95743;-0.00232771;0.0043194;0.028916;0.0295021;-0.00291387;0.016208;0.0804993;12.4225;0.0207078;0.0216107;10.1247;0.0987682;102.656;147.656;-0.00370462;-0.00234415;0.0161715;-0.00717336;0.0287979;-0.0099224;0.00652043;0;0.0311218;3.20744
478000;479;26.4867;0.733294;0.0284737;-2.37707;26.3571;-1.09383;-0.268591;0.696893;-0.506955;-1.36905;-0.523368;-0.389905;1.51665;-5.86284;-0.00490664;0.00142803;0.0202862;0.0203668;-0.00498733;0.0126771;0.241871;4.13443;0.01551;0.0169028;4.08372;0.244875;106.083;151.083;-0.0239421;-0.00491673;0.00771434;-0.00470312;0.020258;0.0507329;0.00962893;0;0.0545419;-1.64657;-1.23611;-0.876206;2.23761;-6.96169;-0.00255372;0.00371546;0.030641;0.0310518;-0.0029645;0.0170081;0.0833432;11.9986;0.0217568;0.0226775;10.4745;0.0954697;103.051;148.051;-0.00562621;-0.00257549;0.015372;-0.00756614;0.030533;-0.0120352;-0.00294321;0;0.0355528;3.20725
479000;480;26.4947;0.741289;0.0287841;-2.3785;26.3651;-1.09329;-0.27002;0.704821;-0.506415;-1.36752;-0.522584;-0.393956;1.51605;-5.86689;-0.00385286;0.000353831;0.0229139;0.0229185;-0.00385754;0.013388;0.168145;5.94723;0.0167139;0.0178507;5.94123;0.168315;105.826;150.826;-0.0226038;-0.00387005;0.00673806;-0.00586335;0.0228917;0.0408409;0.0125012;0;0.0483273;-1.64703;-1.24273;-0.879569;2.24293;-6.96881;-0.00308686;0.00268844;0.0317537;0.0319599;-0.00329309;0.0176265;0.0972126;10.2867;0.0224849;0.023502;9.70514;0.103038;103.073;148.073;-0.0108101;-0.00311013;0.0130486;-0.00732214;0.0316747;0.00455612;0.0377592;0;0.029816;3.20961
480000;481;26.5029;0.749537;0.0291044;-2.38154;26.3728;-1.09876;-0.273058;0.712608;-0.511893;-1.36624;-0.521238;-0.3936;1.51434;-5.86654;-0.00397386;-0.000171582;0.022447;0.0224481;-0.00397498;0.0132115;0.177033;5.64866;0.0164513;0.0176154;5.64735;0.177074;108.322;153.322;-0.0255607;-0.00399739;0.00668135;-0.00684742;0.0224252;0.0451682;0.0137763;0;0.0510938;-1.64733;-1.24915;-0.881081;2.24731;-6.97032;-0.00284978;0.00272435;0.0317359;0.0319492;-0.00306306;0.0175061;0.0897966;11.1363;0.0223904;0.0233415;10.4305;0.0958729;103.625;148.625;-0.01221;-0.00287703;0.0136744;-0.00785895;0.0316489;0.0107068;0.0378643;0;0.0291227;3.21138
481000;482;26.5116;0.758243;0.0294425;-2.38323;26.3813;-1.10233;-0.274751;0.721055;-0.515457;-1.36612;-0.521259;-0.391467;1.51368;-5.8644;-0.0036412;-0.0001423;0.022843;0.0228437;-0.00364197;0.0132428;0.159402;6.27346;0.016577;0.0176571;6.27235;0.15943;107.753;152.753;-0.0258048;-0.0036646;0.00672218;-0.00682903;0.0228209;0.0403433;0.014168;0;0.0512986;-1.64785;-1.25621;-0.882182;2.25205;-6.97142;-0.00259249;0.00259798;0.0305701;0.0307724;-0.00279478;0.0167836;0.0848047;11.7918;0.0215071;0.0223781;11.0107;0.0908211;104.684;149.684;-0.012355;-0.00262497;0.014022;-0.00845871;0.030478;0.0116106;0.0378448;0;0.0300324;3.21298
482000;483;26.5195;0.766136;0.0297489;-2.38394;26.389;-1.10684;-0.275458;0.728734;-0.519968;-1.36496;-0.520317;-0.390847;1.51215;-5.86378;-0.0036349;-0.000387341;0.0238111;0.0238165;-0.00364036;0.0137284;0.152656;6.55068;0.0172199;0.0183046;6.54235;0.15285;107.57;152.57;-0.0239843;-0.00365984;0.00647001;-0.00706084;0.0237907;0.0425118;0.0138991;0;0.0485914;-1.64785;-1.26399;-0.881341;2.25607;-6.97058;-0.00300063;0.00273146;0.029936;0.030161;-0.00322561;0.0166933;0.100235;9.97657;0.0212642;0.0222577;9.35046;0.106947;104.663;149.663;-0.0124687;-0.00302971;0.0139097;-0.00808962;0.0298457;0.0116576;0.0365236;0;0.0379468;3.21711
483000;484;26.5282;0.774761;0.0300838;-2.38421;26.3975;-1.10825;-0.27573;0.737318;-0.521377;-1.36556;-0.519301;-0.390764;1.51232;-5.8637;-0.00361968;-8.06869e-05;0.0242846;0.0242848;-0.00361991;0.0139524;0.149052;6.70905;0.0175216;0.0186032;6.70868;0.149061;106.763;151.763;-0.024774;-0.00364309;0.00685866;-0.00683098;0.0242616;0.0364901;0.0130358;0;0.0527416;-1.64903;-1.27144;-0.883255;2.26186;-6.9725;-0.00331577;0.00307462;0.0292244;0.0295124;-0.00360373;0.016558;0.113459;8.81377;0.0209796;0.0220774;8.18939;0.122109;104.389;149.389;-0.0136527;-0.00334006;0.0141054;-0.0076078;0.0291323;0.0113439;0.0391465;0;0.0360218;3.21713
484000;485;26.5349;0.781494;0.0303453;-2.38545;26.404;-1.11315;-0.276975;0.743766;-0.526281;-1.36517;-0.516915;-0.389247;1.51077;-5.86218;-0.0034002;7.6473e-05;0.0249918;0.024992;-0.00340041;0.0141962;0.136053;7.35009;0.0179028;0.0189283;7.34971;0.13606;105.05;150.05;-0.0229308;-0.00341979;0.00658279;-0.00624962;0.0249706;0.0371379;0.0127603;0;0.0507379;-1.64935;-1.27704;-0.885569;2.26615;-6.97481;-0.00312855;0.00336532;0.0293071;0.0296526;-0.00347403;0.0165633;0.106751;9.36763;0.0210223;0.0220844;8.53548;0.117158;103.71;148.71;-0.0137888;-0.00314961;0.0143793;-0.00730195;0.0292121;0.0107621;0.0359577;0;0.0334573;3.21717
485000;486;26.5422;0.78879;0.0306286;-2.38645;26.4112;-1.11474;-0.27797;0.750941;-0.52787;-1.36464;-0.515813;-0.394094;1.51116;-5.86703;-0.00359552;-0.000184418;0.025547;0.0255482;-0.00359668;0.0145724;0.140741;7.10524;0.0183489;0.0194299;7.10325;0.140781;106.11;151.11;-0.0230223;-0.00361938;0.00672632;-0.00689877;0.0255249;0.0389697;0.0140243;0;0.0516339;-1.64984;-1.28411;-0.891021;2.27262;-6.98026;-0.00287082;0.00406791;0.0311229;0.0316029;-0.00335083;0.0174768;0.0922415;10.8411;0.0222697;0.0233025;9.43135;0.106029;101.451;146.451;-0.012945;-0.00288269;0.0148326;-0.00634229;0.0310242;0.00757883;0.0378744;0;0.0348634;3.21774
486000;487;26.5489;0.795454;0.0308874;-2.38806;26.4177;-1.11505;-0.27958;0.75748;-0.528177;-1.36518;-0.513668;-0.394471;1.51101;-5.86741;-0.00379035;-0.000325285;0.0247869;0.0247906;-0.00379405;0.0142923;0.152918;6.53947;0.0179261;0.0190564;6.53406;0.153044;107.213;152.213;-0.0265844;-0.00381606;0.00670991;-0.00716428;0.0247649;0.0399433;0.0121407;0;0.0516913;-1.6511;-1.28999;-0.891424;2.27702;-6.98067;-0.00256105;0.00392092;0.0328743;0.033303;-0.00298971;0.0181463;0.0779042;12.8363;0.0232627;0.0241951;11.1392;0.0897731;101.442;146.442;-0.0134962;-0.00257686;0.0150733;-0.00684928;0.0327718;0.0125634;0.0359976;0;0.0325371;3.21858
487000;488;26.5586;0.805208;0.0312661;-2.38726;26.4277;-1.11266;-0.278784;0.767454;-0.525791;-1.36409;-0.511483;-0.399246;1.51055;-5.87218;-0.00387967;-0.000704764;0.0260614;0.026078;-0.00389625;0.0149871;0.148867;6.71742;0.018819;0.0199828;6.69309;0.149408;107.557;152.557;-0.0264648;-0.00390947;0.0065387;-0.00773682;0.0260408;0.0428203;0.0117422;0;0.0552108;-1.65074;-1.29582;-0.897842;2.28259;-6.98708;-0.00221049;0.00411275;0.0344364;0.0348923;-0.00266638;0.0187794;0.0641905;15.5786;0.0241994;0.0250391;13.086;0.0764173;101.124;146.124;-0.0137867;-0.00222761;0.0157853;-0.00714682;0.0343242;0.0119188;0.0357834;0;0.0288999;3.22144
488000;489;26.5657;0.812302;0.0315416;-2.38862;26.4346;-1.11404;-0.280143;0.774403;-0.527166;-1.3634;-0.512284;-0.396748;1.50954;-5.86968;-0.00380225;-0.000571404;0.0268729;0.0268836;-0.00381289;0.0153482;0.14149;7.06763;0.0193192;0.0204643;7.0507;0.14183;106.371;151.371;-0.0253056;-0.00382945;0.00645039;-0.00738341;0.0268528;0.0398929;0.0112216;0;0.05189;-1.65081;-1.30349;-0.896968;2.28666;-6.98621;-0.00218649;0.00383236;0.0349489;0.0353403;-0.00257786;0.0189591;0.0625623;15.9841;0.0244648;0.0252788;13.7092;0.0729439;102.546;147.546;-0.0143354;-0.00221475;0.0165521;-0.00843155;0.0348237;0.0167526;0.0346983;0;0.0281457;3.2262
489000;490;26.5728;0.819381;0.0318164;-2.38788;26.4415;-1.12163;-0.279399;0.781263;-0.534759;-1.36364;-0.511246;-0.395698;1.50913;-5.86863;-0.00357287;-0.000375656;0.0271412;0.0271458;-0.00357746;0.0153616;0.13164;7.59648;0.0193999;0.0204822;7.58801;0.131787;105.188;150.188;-0.0233378;-0.00359661;0.00633873;-0.00688925;0.0271217;0.0400842;0.011263;0;0.0515769;-1.65156;-1.30978;-0.898;2.2912;-6.98724;-0.00197499;0.00384361;0.0344744;0.0348753;-0.00237589;0.0186256;0.0572885;17.4555;0.0240813;0.0248341;14.6789;0.0681252;102.673;147.673;-0.0143679;-0.00200421;0.0166893;-0.00855005;0.0343469;0.0133246;0.0351564;0;0.0251883;3.22603
490000;491;26.5831;0.829683;0.0322164;-2.3891;26.4521;-1.11211;-0.280621;0.791908;-0.52524;-1.36309;-0.507644;-0.399629;1.50845;-5.87256;-0.00339099;-0.000348808;0.0275769;0.0275808;-0.00339492;0.0154879;0.122965;8.13238;0.019617;0.0206505;8.12413;0.12309;104.636;149.636;-0.0239722;-0.00341388;0.00626437;-0.00676267;0.0275578;0.0433299;0.0101199;0;0.0529397;-1.65218;-1.31543;-0.90085;2.29599;-6.99009;-0.0017794;0.0040472;0.0334298;0.033889;-0.00223863;0.0180638;0.053228;18.7871;0.0233746;0.0240851;15.1383;0.0660576;102.849;147.849;-0.0154934;-0.00180866;0.0171899;-0.00864835;0.0332947;0.014876;0.0401676;0;0.0311569;3.22743
491000;492;26.5901;0.836678;0.0324881;-2.38989;26.4587;-1.12115;-0.281416;0.798484;-0.534281;-1.36282;-0.50859;-0.392558;1.50667;-5.86549;-0.00286024;-0.000523191;0.0265447;0.026554;-0.00286954;0.0147118;0.107752;9.2806;0.0187326;0.0196157;9.25375;0.108064;104.229;149.229;-0.0235151;-0.00288063;0.00552563;-0.00639873;0.02653;0.036197;0.0135358;0;0.0570656;-1.65168;-1.32398;-0.898182;2.2995;-6.98742;-0.00235855;0.00413321;0.0324447;0.0329288;-0.00284268;0.0178857;0.0726947;13.7562;0.0229588;0.0238476;11.5837;0.086328;102.415;147.415;-0.0132988;-0.00237993;0.0164079;-0.00772834;0.0323225;0.0134612;0.0345948;0;0.0360738;3.22894
492000;493;26.5972;0.843794;0.0327644;-2.38937;26.4658;-1.12477;-0.280893;0.805529;-0.5379;-1.36334;-0.506361;-0.398609;1.50798;-5.87154;-0.00296695;-0.000694115;0.0273148;0.0273307;-0.00298285;0.0151568;0.108621;9.20636;0.0192917;0.020209;9.16261;0.109139;104.248;149.248;-0.0207467;-0.00298847;0.00537947;-0.00658865;0.0273009;0.0358405;0.0101043;0;0.0514254;-1.65336;-1.33071;-0.902991;2.30647;-6.99223;-0.00234671;0.00436842;0.0316568;0.032209;-0.00289895;0.017554;0.0741298;13.4899;0.0225013;0.0234053;11.1106;0.0900043;102.619;147.619;-0.0145438;-0.00236771;0.0169602;-0.00780903;0.0315266;0.019661;0.0293419;0;0.0322876;3.22927
493000;494;26.6043;0.850912;0.0330408;-2.39139;26.4724;-1.13299;-0.282912;0.81215;-0.546113;-1.36301;-0.503992;-0.400277;1.50733;-5.87321;-0.00317753;-0.000659822;0.0277754;0.0277895;-0.00319158;0.0154905;0.1144;8.74122;0.0196767;0.0206541;8.70712;0.114849;104.469;149.469;-0.0243008;-0.00320037;0.0056511;-0.00678065;0.0277601;0.0415588;0.0114606;0;0.0579827;-1.6542;-1.33632;-0.909849;2.313;-6.99909;-0.00212081;0.00476778;0.033499;0.0341261;-0.00274794;0.018437;0.0633097;15.7954;0.0237198;0.0245827;12.4188;0.0805233;101.156;146.156;-0.015889;-0.00213549;0.0171763;-0.00721375;0.0333672;0.0152892;0.0341079;0;0.0348577;3.23345
494000;495;26.614;0.860642;0.0334186;-2.39291;26.4824;-1.12497;-0.284429;0.822133;-0.538098;-1.36239;-0.503266;-0.399437;1.50629;-5.87237;-0.00332746;-0.000560127;0.0275487;0.0275589;-0.00333761;0.0154482;0.120784;8.27921;0.0195802;0.0205977;8.25706;0.121108;104.169;149.169;-0.0246403;-0.00334865;0.00558848;-0.00652396;0.0275337;0.043652;0.00951582;0;0.0579278;-1.65456;-1.34478;-0.909403;2.31797;-6.99865;-0.00175209;0.00509576;0.0355973;0.03628;-0.00243485;0.0193574;0.0492198;20.317;0.0250378;0.0258099;14.9003;0.0671126;100.141;145.141;-0.0155428;-0.00176381;0.0176707;-0.00702636;0.035459;0.0160468;0.0361492;0;0.0330658;3.2341
495000;496;26.6204;0.867009;0.0336658;-2.392;26.4887;-1.12927;-0.283517;0.828431;-0.542395;-1.3621;-0.500791;-0.401269;1.50569;-5.8742;-0.00267985;-0.00123798;0.0280671;0.0281169;-0.00272962;0.0154233;0.0954801;10.4734;0.0197176;0.0205643;10.3007;0.0970811;105.366;150.366;-0.0256771;-0.00270696;0.00517282;-0.00745701;0.0280549;0.0440732;0.0116565;0;0.0612579;-1.65485;-1.35015;-0.913113;2.32276;-7.00236;-0.0015913;0.00503329;0.0372604;0.0379019;-0.00223278;0.0200673;0.0427076;23.415;0.0260441;0.0267564;16.9752;0.0589095;100.35;145.35;-0.015415;-0.00160751;0.0181534;-0.00759615;0.0371137;0.0159071;0.0354346;0;0.0269246;3.23485
496000;497;26.6278;0.874385;0.0339522;-2.39316;26.496;-1.12772;-0.284677;0.835806;-0.540845;-1.36185;-0.499643;-0.40291;1.50553;-5.87585;-0.00304631;-0.000955166;0.02889;0.0289186;-0.00307485;0.0159967;0.105445;9.48362;0.0203815;0.0213289;9.40487;0.106328;104.544;149.544;-0.0254041;-0.00307152;0.00544265;-0.00715436;0.0288761;0.043343;0.0129091;0;0.0692315;-1.65541;-1.35658;-0.915251;2.32774;-7.00449;-0.00154545;0.00491323;0.0382332;0.0388311;-0.00214332;0.0204872;0.0404216;24.7392;0.0266306;0.0273163;18.1173;0.0551959;100.942;145.942;-0.0150661;-0.0015682;0.0186947;-0.0083411;0.0380765;0.0161671;0.0385492;0;0.0267347;3.23565
497000;498;26.6364;0.882988;0.0342863;-2.39432;26.5047;-1.12395;-0.285842;0.844506;-0.537074;-1.36264;-0.497642;-0.40642;1.50652;-5.87935;-0.00279648;-0.000749185;0.0286699;0.0286877;-0.0028143;0.015751;0.0975406;10.2521;0.0201289;0.0210013;10.1935;0.0981014;104.197;149.197;-0.0254766;-0.00282047;0.00565545;-0.00695788;0.0286546;0.0439553;0.0128591;0;0.0622605;-1.65659;-1.3623;-0.917712;2.33288;-7.00695;-0.00170361;0.00456354;0.0373703;0.0378962;-0.00222952;0.0200629;0.0455873;21.9359;0.0260392;0.0267505;16.9975;0.0588323;101.116;146.116;-0.0123783;-0.00172634;0.0177603;-0.00813688;0.0372283;0.0145174;0.0322172;0;0.0258843;3.23784
498000;499;26.645;0.891605;0.0346209;-2.39495;26.5132;-1.12777;-0.28647;0.852946;-0.540902;-1.3632;-0.495456;-0.40834;1.50683;-5.88128;-0.00260587;-0.000845745;0.0295612;0.0295834;-0.0026281;0.0161058;0.0881518;11.3441;0.0206541;0.0214744;11.2566;0.0888367;103.53;148.53;-0.0229493;-0.00262906;0.00535509;-0.00685281;0.0295476;0.0463204;0.0100146;0;0.0583203;-1.6579;-1.36781;-0.923124;2.33917;-7.01237;-0.00172044;0.00442494;0.0365627;0.0370675;-0.00222524;0.0196464;0.0470544;21.252;0.0254858;0.0261952;16.6578;0.060032;101.59;146.59;-0.0125897;-0.00174565;0.0177012;-0.00836174;0.036421;0.0152059;0.0306377;0;0.0327384;3.24065
499000;500;26.6508;0.897383;0.0348452;-2.39522;26.5187;-1.13432;-0.286742;0.858449;-0.547444;-1.36091;-0.498309;-0.396879;1.50263;-5.86981;-0.00287177;-0.000968718;0.0306796;0.0307075;-0.00289971;0.0168036;0.0936051;10.6832;0.0215035;0.0224048;10.5899;0.09443;103.303;148.303;-0.0228876;-0.0028955;0.00521134;-0.00694756;0.0306669;0.0426091;0.0116974;0;0.0583241;-1.65682;-1.37745;-0.914413;2.34063;-7.00365;-0.00217157;0.00460596;0.0353292;0.0358866;-0.002729;0.0193078;0.0614668;16.269;0.024884;0.0257437;13.1501;0.0760451;101.413;146.413;-0.0130827;-0.00219103;0.0174247;-0.00774917;0.0351928;0.0196649;0.0331751;0;0.040021;3.24208
500000;501;26.6632;0.909756;0.0353257;-2.39697;26.531;-1.13273;-0.288495;0.870794;-0.545857;-1.36173;-0.49158;-0.409191;1.50446;-5.88213;-0.00297258;-0.00156962;0.0299556;0.0300303;-0.00304723;0.0165387;0.0992326;10.0773;0.0211094;0.0220517;9.85495;0.101472;105.773;150.773;-0.027261;-0.00300482;0.00524909;-0.00817026;0.0299434;0.0475734;0.0138792;0;0.0667215;-1.6582;-1.38151;-0.925617;2.3484;-7.01486;-0.0021882;0.00452345;0.0345671;0.0351156;-0.00273671;0.0189262;0.063303;15.7971;0.0243739;0.0252349;12.8313;0.0779343;101.716;146.716;-0.0142911;-0.00220862;0.0173241;-0.00782312;0.0344319;0.0193166;0.0346066;0;0.0397661;3.24236
501000;502;26.6694;0.916004;0.0355683;-2.39955;26.537;-1.13534;-0.291067;0.876729;-0.548464;-1.36114;-0.489893;-0.409355;1.50342;-5.88229;-0.00309898;-0.00151568;0.0302445;0.0303132;-0.00316774;0.0167405;0.102464;9.75948;0.0213432;0.0223206;9.56936;0.1045;105.626;150.626;-0.0275403;-0.00313108;0.00533284;-0.00814248;0.0302318;0.0494863;0.0116175;0;0.0605889;-1.65899;-1.38936;-0.926891;2.35408;-7.01613;-0.00202631;0.00505197;0.0358208;0.0364836;-0.00268905;0.0195863;0.0565678;17.6779;0.0252665;0.0261151;13.5674;0.0737059;100.288;145.288;-0.0149877;-0.00203834;0.017601;-0.00703927;0.0356836;0.0209252;0.0339251;0;0.0378358;3.24309
502000;503;26.6762;0.922817;0.0358328;-2.39784;26.5439;-1.13572;-0.289358;0.883714;-0.548845;-1.36181;-0.488403;-0.410267;1.50379;-5.8832;-0.00343207;-0.0019941;0.031625;0.0317381;-0.00354513;0.0176416;0.108524;9.21458;0.022434;0.0235221;8.95259;0.111699;106.538;151.538;-0.0264375;-0.00347104;0.00529632;-0.00903668;0.0316134;0.0502184;0.0149163;0;0.0588713;-1.66016;-1.39531;-0.930292;2.35976;-7.01953;-0.001764;0.00538977;0.0373556;0.0380846;-0.002493;0.0202888;0.0472217;21.1767;0.0262602;0.0270518;15.2767;0.0654594;99.7904;144.79;-0.0156882;-0.00177468;0.0183659;-0.00709783;0.0372071;0.0175615;0.0326951;0;0.035572;3.24353
503000;504;26.684;0.930645;0.0361368;-2.39849;26.5516;-1.13908;-0.290007;0.891378;-0.552207;-1.36143;-0.487439;-0.410871;1.50329;-5.88381;-0.00384975;-0.00220883;0.0313239;0.0314621;-0.00398792;0.017725;0.122901;8.13661;0.0224225;0.0236333;7.88935;0.126753;107.599;152.599;-0.0266056;-0.00389271;0.00535145;-0.00951114;0.0313124;0.0510785;0.0144117;0;0.0710532;-1.66045;-1.4017;-0.933391;2.36497;-7.02263;-0.00139305;0.00515651;0.0390279;0.0396753;-0.0020405;0.0208579;0.0356938;28.0161;0.0271559;0.0278105;19.4439;0.05143;100.367;145.367;-0.0173842;-0.00141248;0.0189341;-0.00808602;0.0388681;0.0226048;0.0346607;0;0.035992;3.24503
504000;505;26.6916;0.938237;0.0364316;-2.39762;26.5594;-1.13823;-0.289144;0.899123;-0.551357;-1.35936;-0.485263;-0.412767;1.50124;-5.8857;-0.00401636;-0.00223402;0.0332503;0.0333838;-0.00414981;0.0187668;0.120792;8.27871;0.0237602;0.0250224;8.04465;0.124306;107.101;152.101;-0.0260539;-0.00406192;0.00559846;-0.00978389;0.0332376;0.0518854;0.0168548;0;0.0617558;-1.65896;-1.4077;-0.933594;2.36756;-7.02284;-0.00138422;0.00508509;0.0399077;0.0405247;-0.00200122;0.021263;0.0346854;28.8305;0.0277077;0.0283506;20.25;0.0493828;100.784;145.784;-0.0170756;-0.00140877;0.019392;-0.00865473;0.0397393;0.0237495;0.0333606;0;0.0315257;3.24881
505000;506;26.6991;0.945682;0.0367207;-2.39983;26.5668;-1.13407;-0.291348;0.906583;-0.547199;-1.36047;-0.483131;-0.417274;1.5028;-5.89021;-0.00352564;-0.00212284;0.0336271;0.033748;-0.00364654;0.0186973;0.104845;9.53787;0.0238075;0.0249297;9.2548;0.108052;106.673;151.673;-0.0247788;-0.00357081;0.00575955;-0.00972179;0.0336133;0.045312;0.0202582;0;0.0701076;-1.66124;-1.4132;-0.939744;2.37486;-7.02899;-0.000928209;0.00534895;0.0401657;0.0408505;-0.00161304;0.0212318;0.0231095;43.2722;0.027787;0.028309;25.3252;0.0394864;99.8061;144.806;-0.0140476;-0.0009462;0.0192824;-0.00803497;0.0400007;0.0178592;0.0339595;0;0.0282676;3.25063
506000;507;26.7084;0.955022;0.0370833;-2.40038;26.5761;-1.13455;-0.291903;0.915899;-0.547678;-1.36047;-0.481598;-0.414996;1.50168;-5.88793;-0.00344194;-0.00236178;0.0321792;0.0323351;-0.00359785;0.0179665;0.106962;9.34915;0.0228507;0.0239553;8.98735;0.111268;107.068;152.068;-0.0247827;-0.0034848;0.00507299;-0.00953985;0.0321695;0.04847;0.0229116;0;0.0683269;-1.66125;-1.4216;-0.939187;2.37966;-7.02843;-0.00152131;0.00504949;0.0395306;0.0401426;-0.00213328;0.0211379;0.0384843;25.9846;0.0275004;0.0281839;18.8173;0.0531427;100.67;145.67;-0.0156153;-0.00154372;0.0190317;-0.0083814;0.0393686;0.0215641;0.0406434;0;0.0288359;3.25364
507000;508;26.715;0.961561;0.0373373;-2.40095;26.5824;-1.14;-0.292475;0.922186;-0.55313;-1.35935;-0.48059;-0.416167;1.50067;-5.8891;-0.00349632;-0.00199198;0.0326816;0.0327909;-0.00360567;0.0181983;0.106982;9.3474;0.0231563;0.0242644;9.09425;0.10996;105.968;150.968;-0.0217649;-0.00353486;0.00525747;-0.00898736;0.0326701;0.0471748;0.0224011;0;0.0587625;-1.66107;-1.42661;-0.943189;2.38411;-7.03243;-0.00178171;0.00507169;0.0384838;0.0391128;-0.0024107;0.0207618;0.0462977;21.5993;0.0269148;0.0276823;16.2247;0.0616345;100.47;145.47;-0.0134701;-0.00179971;0.0185159;-0.00785209;0.0383311;0.0205002;0.0376683;0;0.0293424;3.25343
508000;509;26.7224;0.969018;0.0376268;-2.40245;26.5896;-1.14526;-0.293972;0.929319;-0.558383;-1.35939;-0.479897;-0.412856;1.49957;-5.88579;-0.0030761;-0.00158949;0.0332805;0.0333499;-0.00314546;0.0182477;0.0924295;10.8191;0.0233525;0.0243302;10.6025;0.094317;104.153;149.153;-0.0212595;-0.00310763;0.00514359;-0.0080856;0.033269;0.0436217;0.0208161;0;0.0568785;-1.66223;-1.43429;-0.943125;2.38949;-7.03237;-0.00157851;0.00544281;0.0380519;0.0387858;-0.00231243;0.0205491;0.0414831;24.1062;0.0266615;0.0273988;16.7728;0.0596204;99.8909;144.891;-0.0157234;-0.00159134;0.018828;-0.00743224;0.0378954;0.0256414;0.041913;0;0.0372275;3.25364
509000;510;26.7322;0.9788;0.0380067;-2.40145;26.5995;-1.14488;-0.292973;0.939257;-0.558013;-1.36029;-0.478056;-0.415317;1.50047;-5.88825;-0.00331424;-0.00169056;0.0330644;0.0331428;-0.00339264;0.0182677;0.100236;9.97647;0.0233085;0.024357;9.76905;0.102364;104.857;149.857;-0.0215884;-0.00334844;0.00529227;-0.00842742;0.0330523;0.0454786;0.0219656;0;0.0574418;-1.66315;-1.44154;-0.944518;2.39504;-7.03376;-0.0022469;0.00556773;0.0382564;0.0390078;-0.00299832;0.0210031;0.0587327;17.0263;0.0270601;0.0280041;13.0099;0.0768646;98.9314;143.931;-0.0150629;-0.00225094;0.0178641;-0.00624974;0.0381176;0.0228753;0.0419461;0;0.0354083;3.25372
510000;511;26.7387;0.985279;0.0382582;-2.40317;26.6056;-1.14959;-0.294692;0.94541;-0.56272;-1.35926;-0.478159;-0.408248;1.49763;-5.88118;-0.0032442;-0.00147554;0.0325538;0.0326145;-0.00330492;0.0179597;0.0996567;10.0345;0.0229242;0.0239463;9.86847;0.101333;104.585;149.585;-0.0235276;-0.00327626;0.00541715;-0.00812919;0.0325406;0.0439396;0.02208;0;0.0622721;-1.66306;-1.44979;-0.940714;2.39846;-7.02996;-0.00170992;0.00597531;0.0398594;0.0407012;-0.00255179;0.0216265;0.0428989;23.3106;0.0280235;0.0288353;15.9501;0.0626956;98.4867;143.487;-0.0162709;-0.00171286;0.0189144;-0.00644742;0.0397045;0.0252909;0.0424937;0;0.0354066;3.25442
511000;512;26.7475;0.994083;0.0386001;-2.40218;26.6147;-1.14705;-0.293703;0.954456;-0.560179;-1.35887;-0.475486;-0.415552;1.49843;-5.88849;-0.00308236;-0.00140592;0.0346782;0.0347304;-0.00313463;0.0189325;0.0888848;11.2505;0.0242661;0.0252434;11.0796;0.0902562;103.486;148.486;-0.0226384;-0.00311353;0.00544594;-0.00800765;0.0346648;0.0463904;0.0203623;0;0.0577083;-1.66313;-1.45564;-0.947724;2.4048;-7.03697;-0.00184711;0.00583234;0.0416538;0.0424222;-0.0026155;0.0225188;0.0443443;22.5508;0.0291924;0.0300251;16.2195;0.061654;98.5307;143.531;-0.0172058;-0.00185233;0.0188743;-0.00666589;0.0414991;0.0188272;0.044073;0;0.0328806;3.25964
512000;513;26.7554;1.00202;0.0389082;-2.4032;26.6226;-1.14643;-0.294721;0.962367;-0.559556;-1.35805;-0.473973;-0.418394;1.498;-5.89133;-0.00322589;-0.0015248;0.0342124;0.0342744;-0.00328789;0.0187812;0.0942898;10.6056;0.0240207;0.0250416;10.4245;0.0959282;103.7;148.7;-0.0215906;-0.00325688;0.0052013;-0.00800736;0.0342005;0.0439231;0.0220197;0;0.0625379;-1.66294;-1.46174;-0.951154;2.40972;-7.0404;-0.000756926;0.00584774;0.0422894;0.0430696;-0.00153718;0.0223034;0.0178987;55.8699;0.0292389;0.0297379;28.0185;0.0356907;99.1539;144.154;-0.0169607;-0.000771476;0.0202435;-0.00795453;0.0421092;0.031075;0.0447828;0;0.0312206;3.261
513000;514;26.7611;1.00774;0.0391304;-2.40405;26.6281;-1.15069;-0.295573;0.967855;-0.563817;-1.35858;-0.472223;-0.416238;1.49733;-5.88917;-0.00330414;-0.00132031;0.034834;0.0348796;-0.00334979;0.0191147;0.094854;10.5425;0.0244463;0.0254863;10.4125;0.0960387;103.055;148.055;-0.022087;-0.0033332;0.00532888;-0.00772441;0.0348211;0.0462193;0.0222879;0;0.0582213;-1.66458;-1.46712;-0.952018;2.41446;-7.04126;-0.000864039;0.00546684;0.0422059;0.042889;-0.00154711;0.0222181;0.020472;48.8473;0.0291221;0.0296241;27.722;0.0360724;99.6034;144.603;-0.0175844;-0.000883064;0.0197639;-0.0082404;0.0420329;0.0329791;0.0405069;0;0.0336149;3.26211
514000;515;26.7704;1.01702;0.0394909;-2.4028;26.6376;-1.1485;-0.294324;0.977394;-0.561631;-1.35951;-0.471233;-0.416899;1.49804;-5.88983;-0.00312351;-0.00135283;0.0351323;0.0351801;-0.00317129;0.0191757;0.0889071;11.2477;0.0245788;0.0255676;11.0933;0.0901445;103.102;148.102;-0.0208177;-0.00315357;0.00540277;-0.00785871;0.0351191;0.042504;0.0228184;0;0.0624884;-1.66505;-1.47377;-0.953816;2.41954;-7.04306;-0.00129628;0.005756;0.0424459;0.0431907;-0.00204103;0.0226158;0.0305396;32.7444;0.0294977;0.0301545;21.1612;0.0472562;99.1304;144.13;-0.0160371;-0.00130899;0.019748;-0.0076499;0.0422747;0.0321074;0.0443276;0;0.0293478;3.26385
515000;516;26.781;1.02758;0.0399009;-2.40398;26.6482;-1.14719;-0.295504;0.987957;-0.560318;-1.35937;-0.467853;-0.424738;1.49906;-5.89767;-0.00311049;-0.0011844;0.0368044;0.0368395;-0.0031456;0.0199926;0.084514;11.8324;0.0256725;0.0266568;11.7114;0.0853867;102.324;147.324;-0.0216673;-0.00313971;0.00561723;-0.00772413;0.0367899;0.0459341;0.0225544;0;0.0612249;-1.66611;-1.47889;-0.961961;2.4266;-7.0512;-0.00180546;0.00558113;0.0417154;0.0424197;-0.00250978;0.0224647;0.0432804;23.1052;0.0291524;0.029953;16.9017;0.0591655;99.9138;144.914;-0.0164027;-0.00182212;0.0197803;-0.00802587;0.0415425;0.0275512;0.0457282;0;0.0301861;3.26518
516000;517;26.7894;1.03604;0.0402294;-2.40588;26.6566;-1.1443;-0.297404;0.996412;-0.557424;-1.35892;-0.467201;-0.419531;1.49698;-5.89247;-0.00317427;-0.00128534;0.0363208;0.0363626;-0.00321606;0.0197893;0.0873954;11.4422;0.0253817;0.0263858;11.3066;0.0884442;102.497;147.497;-0.0218538;-0.00320338;0.00540938;-0.00772487;0.0363075;0.0456313;0.021649;0;0.0588641;-1.66627;-1.48747;-0.957378;2.43015;-7.04662;-0.00190286;0.00601073;0.0411143;0.0419384;-0.00272694;0.0223327;0.0462822;21.6066;0.0289108;0.0297769;15.3793;0.0650226;98.8643;143.864;-0.0171764;-0.00190874;0.0194971;-0.00691943;0.0409491;0.0295309;0.0463934;0;0.0343235;3.2649
517000;518;26.7968;1.04337;0.0405141;-2.40647;26.6637;-1.14946;-0.297995;1.0035;-0.56259;-1.35861;-0.465791;-0.422014;1.49696;-5.89495;-0.0032694;-0.00148511;0.0380118;0.0380652;-0.00332276;0.020694;0.0860101;11.6265;0.0265538;0.0275919;11.4559;0.0872913;102.76;147.76;-0.0212397;-0.0033027;0.00559272;-0.00828139;0.0379978;0.0451531;0.0242912;0;0.0583681;-1.66686;-1.49523;-0.961584;2.43696;-7.05083;-0.00179953;0.00641906;0.0412082;0.0421458;-0.00273716;0.0224415;0.0436692;22.8994;0.0290526;0.029922;15.3977;0.0649449;97.397;142.397;-0.0172126;-0.00179482;0.0189954;-0.00563877;0.0410547;0.0309617;0.0449776;0;0.0319694;3.26576
518000;519;26.8071;1.05367;0.0409137;-2.4084;26.6738;-1.15086;-0.29992;1.01361;-0.563986;-1.35744;-0.463748;-0.426811;1.49662;-5.89975;-0.00340886;-0.00111704;0.0383907;0.0384205;-0.00343869;0.0209296;0.0887939;11.262;0.0268334;0.0279061;11.173;0.0895014;101.961;146.961;-0.0211829;-0.00343851;0.00581341;-0.00776847;0.038375;0.0443595;0.0217554;0;0.0632399;-1.66694;-1.50309;-0.965295;2.44331;-7.05454;-0.00159566;0.00655319;0.0429741;0.0439177;-0.00253921;0.0232285;0.0371307;26.9319;0.0301605;0.0309713;17.2958;0.0578175;97.3851;142.385;-0.0182088;-0.00159208;0.0196485;-0.00598355;0.0428096;0.0241198;0.0439801;0;0.0385337;3.26897
519000;520;26.8147;1.06128;0.0412094;-2.40572;26.6816;-1.1536;-0.297236;1.02139;-0.566725;-1.3577;-0.461692;-0.425118;1.49574;-5.89805;-0.00347284;-0.00131046;0.0390822;0.0391225;-0.00351315;0.0213178;0.0888599;11.2537;0.0273281;0.0284238;11.136;0.0897989;102.093;147.093;-0.0230181;-0.00350416;0.0056747;-0.0080095;0.0390675;0.0491046;0.0214923;0;0.0614297;-1.66726;-1.51001;-0.962111;2.44654;-7.05135;-0.0013539;0.00643747;0.0439068;0.0448046;-0.00225169;0.0235282;0.0308356;32.43;0.0306479;0.0313709;19.8982;0.0502558;97.6692;142.669;-0.0191969;-0.00135424;0.0199504;-0.00649063;0.043736;0.0219746;0.0446839;0;0.0335615;3.26825
520000;521;26.8213;1.0679;0.0414662;-2.40823;26.6878;-1.15997;-0.299753;1.02753;-0.573097;-1.35782;-0.459907;-0.426514;1.49569;-5.89945;-0.00342947;-0.00192282;0.0394463;0.0395323;-0.00351553;0.0215239;0.0869403;11.5021;0.0276015;0.0286986;11.2451;0.088928;103.135;148.135;-0.0216366;-0.00346712;0.00532694;-0.00887344;0.0394344;0.0440691;0.0211928;0;0.0657799;-1.66865;-1.51424;-0.970635;2.45346;-7.05988;-0.000952324;0.00584422;0.0445344;0.0452733;-0.0016912;0.0234823;0.021384;46.764;0.0307614;0.0313097;26.77;0.0373553;98.5311;143.531;-0.0182665;-0.000963669;0.0198348;-0.00753812;0.0443624;0.0260289;0.0418334;0;0.0353677;3.26976
521000;522;26.8307;1.07728;0.0418305;-2.40792;26.6972;-1.1605;-0.299438;1.03697;-0.573629;-1.35883;-0.459163;-0.423743;1.4956;-5.89668;-0.00326546;-0.00162251;0.0389781;0.0390403;-0.00332769;0.021184;0.0837769;11.9365;0.0272041;0.0282454;11.732;0.0852372;102.458;147.458;-0.0212854;-0.00329865;0.00533097;-0.00829319;0.0389657;0.0436287;0.0224795;0;0.0693307;-1.67048;-1.52025;-0.97095;2.45854;-7.06019;-0.000666607;0.00577856;0.044552;0.0452788;-0.00139338;0.0233361;0.0149625;66.8339;0.0306609;0.0311148;32.4957;0.0307733;98.9513;143.951;-0.0179718;-0.000682831;0.0202974;-0.00811282;0.0443708;0.034457;0.0405142;0;0.0354195;3.27221
522000;523;26.8376;1.08421;0.0420995;-2.40909;26.7042;-1.15654;-0.300612;1.044;-0.569664;-1.358;-0.457971;-0.423233;1.49433;-5.89617;-0.00379193;-0.00134959;0.0405718;0.0406128;-0.00383295;0.0222229;0.0934623;10.6995;0.0284391;0.0296305;10.5957;0.0943779;101.556;146.556;-0.0211591;-0.00382227;0.00548374;-0.00789152;0.0405582;0.0432834;0.0185715;0;0.0662102;-1.67026;-1.52657;-0.971702;2.4626;-7.06094;-0.000775474;0.00622961;0.0447973;0.0456335;-0.00161169;0.0236226;0.0173107;57.7677;0.0309736;0.0314968;28.3141;0.0353181;98.0808;143.081;-0.0181119;-0.00078257;0.0203535;-0.00727937;0.0446176;0.0346289;0.0474791;0;0.0309133;3.2728
523000;524;26.8453;1.09185;0.0423964;-2.41051;26.7118;-1.15679;-0.302026;1.05154;-0.569915;-1.35743;-0.454081;-0.431182;1.4949;-5.90412;-0.0037206;-0.00175126;0.0411186;0.0411869;-0.00378889;0.0224879;0.0904845;11.0516;0.0288041;0.0299839;10.8704;0.0919927;102.433;147.433;-0.021754;-0.00375695;0.00549829;-0.0086885;0.0411056;0.0445454;0.0197239;0;0.0662183;-1.67021;-1.52984;-0.979891;2.46783;-7.06954;-0.00156532;0.00604903;0.0446235;0.0454025;-0.00234438;0.0238735;0.0350785;28.5075;0.0310793;0.0318313;19.3665;0.0516355;100.064;145.064;-0.0157178;-0.00158732;0.0217644;-0.00897281;0.0444142;0.0419454;0.0449275;0;0.0329766;3.27204
524000;525;26.8508;1.09743;0.0426128;-2.40981;26.7172;-1.16156;-0.301328;1.057;-0.574688;-1.3574;-0.455176;-0.426767;1.49393;-5.8997;-0.00376456;-0.00159898;0.0415526;0.0416089;-0.00382091;0.0227149;0.0905976;11.0378;0.0290967;0.0302866;10.8898;0.0918291;101.623;146.623;-0.0225692;-0.00379674;0.00526542;-0.00816464;0.0415405;0.0467432;0.0202636;0;0.0657911;-1.67044;-1.5385;-0.975214;2.47151;-7.06446;-0.00144365;0.00594561;0.0442589;0.0450197;-0.00220447;0.0236121;0.0326182;30.6577;0.0307743;0.0314828;20.422;0.0489667;98.2501;143.25;-0.0158047;-0.00145043;0.0194751;-0.00699277;0.0440942;0.0292573;0.047691;0;0.033204;3.27555
525000;526;26.8622;1.10876;0.043053;-2.41282;26.7282;-1.16449;-0.304337;1.06799;-0.577621;-1.35865;-0.4541;-0.424129;1.494;-5.89706;-0.00378022;-0.00148752;0.0414462;0.0414951;-0.0038291;0.0226621;0.091208;10.964;0.0290241;0.0302161;10.8368;0.0922783;101.432;146.432;-0.0219552;-0.00381117;0.0053119;-0.0079916;0.0414337;0.0445812;0.0193862;0;0.0614198;-1.67273;-1.54666;-0.977188;2.47893;-7.06643;-0.00161113;0.00629094;0.0440628;0.0449135;-0.00246177;0.0236876;0.0365643;27.3491;0.0307957;0.0315835;18.2444;0.0548114;97.5639;142.564;-0.0156115;-0.00161089;0.0194082;-0.00625343;0.0439014;0.0276094;0.0483001;0;0.0407123;3.27802
526000;527;26.8736;1.1202;0.043497;-2.4129;26.7398;-1.16133;-0.304421;1.07961;-0.574462;-1.3589;-0.45128;-0.42847;1.49461;-5.90141;-0.00386176;-0.00158424;0.0436396;0.0436923;-0.00391454;0.0238034;0.0884922;11.3004;0.0305169;0.0317379;11.1616;0.0895933;101.249;146.249;-0.0221269;-0.003895;0.00544196;-0.00829057;0.0436266;0.045506;0.0177026;0;0.0606091;-1.67385;-1.55587;-0.978903;2.48611;-7.06814;-0.00127764;0.00676916;0.0449598;0.0459305;-0.00224827;0.0240894;0.0284174;35.1897;0.0313966;0.0321191;20.4293;0.0489494;96.6552;141.655;-0.0174298;-0.00127087;0.0197961;-0.00568241;0.0447942;0.0291693;0.0450808;0;0.0446542;3.27856
527000;528;26.8794;1.12596;0.0437208;-2.4146;26.7452;-1.16856;-0.30612;1.08494;-0.581687;-1.35786;-0.449437;-0.429623;1.49344;-5.90256;-0.0038538;-0.00111048;0.0437946;0.0438205;-0.00387966;0.0238501;0.087997;11.364;0.030589;0.0318001;11.2949;0.0885353;100.503;145.503;-0.0211668;-0.00388303;0.00580633;-0.00771149;0.0437791;0.0432438;0.0178614;0;0.0639771;-1.67336;-1.56203;-0.981476;2.49066;-7.07072;-0.000934912;0.00659856;0.0460548;0.0469638;-0.00184393;0.0244039;0.0203;49.2611;0.0319416;0.0325385;25.4694;0.0392629;97.1588;142.159;-0.0189597;-0.000934051;0.0202773;-0.00646679;0.0458791;0.019792;0.0485012;0;0.0396103;3.27985
528000;529;26.8899;1.13652;0.044131;-2.41382;26.7558;-1.1688;-0.305344;1.09561;-0.581931;-1.35914;-0.446152;-0.433572;1.49476;-5.90651;-0.00360844;-0.00157127;0.0442317;0.0442832;-0.00365999;0.0239716;0.0815805;12.2578;0.0308147;0.0319621;12.0993;0.0826497;100.807;145.807;-0.0233026;-0.00364011;0.0052687;-0.00809781;0.0442195;0.0489609;0.0164162;0;0.0662335;-1.67476;-1.56735;-0.984865;2.49627;-7.07411;-0.000783007;0.00599381;0.0467124;0.0474571;-0.00152773;0.0244924;0.0167623;59.6577;0.0321594;0.0326566;31.0637;0.0321919;98.3209;143.321;-0.0193834;-0.000795054;0.0203855;-0.00774599;0.046531;0.0276978;0.0414236;0;0.0406936;3.28022
529000;530;26.8969;1.14346;0.0444004;-2.4153;26.7627;-1.16806;-0.306817;1.10249;-0.581192;-1.35815;-0.446329;-0.432217;1.49351;-5.90515;-0.00419004;-0.00155174;0.0459174;0.0459654;-0.00423804;0.0251017;0.0912516;10.9587;0.0321495;0.033469;10.8459;0.0922007;101.045;146.045;-0.0226908;-0.00422536;0.00577806;-0.00853031;0.0459026;0.0443019;0.0147781;0;0.0597847;-1.67459;-1.57294;-0.987948;2.50089;-7.07719;-0.000605617;0.00592847;0.0469557;0.0476835;-0.00133346;0.0245085;0.0128976;77.5337;0.0322427;0.032678;35.7594;0.0279647;98.0139;143.014;-0.0159342;-0.000616253;0.0200058;-0.00751044;0.0467813;0.0239476;0.0424811;0;0.0388353;3.2808
530000;531;26.9057;1.15228;0.0447429;-2.41551;26.7716;-1.16721;-0.307034;1.11137;-0.580339;-1.35768;-0.445132;-0.430641;1.49227;-5.90358;-0.00432742;-0.00169945;0.0452012;0.0452595;-0.00438566;0.0248226;0.0957367;10.4453;0.031736;0.0330968;10.3199;0.0969004;101.053;146.053;-0.0232543;-0.00436131;0.00532291;-0.00838896;0.0451891;0.0471218;0.0149517;0;0.0665653;-1.67461;-1.57942;-0.986223;2.50431;-7.07547;-0.00092115;0.00618845;0.0472439;0.0480263;-0.00170356;0.0248649;0.0194978;51.288;0.0326002;0.0331532;28.1917;0.0354714;97.6407;142.641;-0.0175176;-0.000926908;0.0200715;-0.0070571;0.0470698;0.0278997;0.0470156;0;0.0439372;3.28333
531000;532;26.9134;1.16004;0.045044;-2.41702;26.7792;-1.16899;-0.308545;1.11895;-0.582116;-1.35674;-0.440129;-0.440589;1.49284;-5.91352;-0.00404932;-0.00198335;0.0447798;0.0448603;-0.00412974;0.024495;0.0904272;11.0586;0.0313742;0.03266;10.8627;0.0920579;101.04;146.04;-0.0233198;-0.00408243;0.00470595;-0.00835993;0.0447711;0.0484657;0.0129435;0;0.058517;-1.67485;-1.58244;-0.998195;2.5111;-7.08784;-0.00187319;0.00603806;0.0470963;0.0478298;-0.00260671;0.0252183;0.0397737;25.1423;0.03279;0.0336244;18.3487;0.0544997;99.9135;144.914;-0.0189386;-0.00189623;0.0218958;-0.0090794;0.0468848;0.0490379;0.0488041;0;0.0392178;3.28628
532000;533;26.9237;1.17028;0.0454418;-2.41754;26.7895;-1.16634;-0.309065;1.12931;-0.579465;-1.35777;-0.439835;-0.439669;1.49342;-5.9126;-0.00418753;-0.00238578;0.0452912;0.0454059;-0.0043023;0.0248541;0.0924581;10.8157;0.0318019;0.0331388;10.5539;0.094752;101.332;146.332;-0.0226973;-0.00422276;0.00425253;-0.00870976;0.0452852;0.0477529;0.0144143;0;0.0560573;-1.67611;-1.58988;-1.00084;2.51769;-7.09049;-0.00182391;0.00631346;0.0472231;0.0480227;-0.00262356;0.0253231;0.0386233;25.8911;0.0329245;0.0337642;18.3044;0.0546316;99.7014;144.701;-0.0173989;-0.00184413;0.0223325;-0.00895677;0.0470039;0.0468243;0.0440065;0;0.0391244;3.28774
533000;534;26.9276;1.17424;0.0455954;-2.42104;26.7935;-1.15949;-0.312556;1.13327;-0.572616;-1.35632;-0.439318;-0.436351;1.49098;-5.90929;-0.00402455;-0.00191118;0.0462578;0.0463303;-0.00409709;0.0252137;0.0870026;11.4939;0.0323392;0.0336183;11.3081;0.0884321;100.31;145.31;-0.0228339;-0.0040553;0.00454429;-0.00805634;0.0462497;0.04623;0.0137487;0;0.055707;-1.67605;-1.59769;-1.00094;2.52262;-7.09058;-0.00244929;0.00654594;0.0477522;0.0485917;-0.0032888;0.0259403;0.0512918;19.4963;0.0335445;0.034587;14.7749;0.0676824;98.8568;143.857;-0.0168084;-0.00245848;0.0216349;-0.00782136;0.0475493;0.0386688;0.0489338;0;0.041212;3.28673
534000;535;26.9414;1.18803;0.046131;-2.42212;26.8071;-1.16238;-0.313638;1.14691;-0.575506;-1.35553;-0.437629;-0.436703;1.48986;-5.90964;-0.00446678;-0.00231241;0.0475145;0.0476172;-0.00456944;0.0260933;0.0940087;10.6373;0.0333724;0.0347911;10.4208;0.0959621;100.987;145.987;-0.0219392;-0.00450321;0.00454038;-0.00882503;0.0475072;0.0462146;0.0146393;0;0.0568755;-1.67608;-1.6075;-0.995195;2.5266;-7.08208;-0.000859338;0.00675038;0.0477271;0.0486476;-0.00177977;0.0252137;0.0180052;55.5394;0.0330409;0.0336182;27.3337;0.0365849;97.4158;142.416;-0.0175016;-0.000861204;0.0211902;-0.00702107;0.0475346;0.0252834;0.0463441;0;0.0394429;3.2877
535000;536;26.9485;1.19509;0.0464052;-2.42131;26.814;-1.1698;-0.312827;1.15376;-0.582924;-1.35652;-0.435536;-0.437225;1.4903;-5.91016;-0.00442702;-0.00225272;0.0470877;0.047186;-0.00452534;0.0258557;0.0940165;10.6364;0.0330692;0.0344742;10.4271;0.0959043;101.046;146.046;-0.0223853;-0.00446328;0.00462299;-0.00879006;0.0470799;0.0492425;0.0108796;0;0.0550623;-1.67782;-1.61402;-0.999826;2.53374;-7.08671;-0.000895353;0.00683977;0.0481557;0.0490916;-0.00183125;0.0254614;0.0185929;53.784;0.0333549;0.0339486;26.8077;0.0373027;96.4688;141.469;-0.0162106;-0.000890171;0.020346;-0.00603552;0.0479805;0.0262871;0.0408917;0;0.0333195;3.28778
536000;537;26.9586;1.20519;0.0467972;-2.42221;26.8243;-1.16449;-0.31373;1.16405;-0.577618;-1.35682;-0.433577;-0.43764;1.49013;-5.91058;-0.0043224;-0.0021106;0.0486777;0.0487616;-0.00440632;0.026584;0.0887963;11.2617;0.0340716;0.0354453;11.0663;0.0903644;100.223;145.223;-0.0196274;-0.00435562;0.00451713;-0.00840328;0.0486701;0.0455844;0.0179868;0;0.0553989;-1.67922;-1.62228;-0.997279;2.53892;-7.08416;-0.000436138;0.00608314;0.0488862;0.0496253;-0.00117532;0.0254003;0.0089215;112.089;0.0334822;0.0338671;42.2228;0.0236839;98.1828;143.183;-0.0195124;-0.000450298;0.0209456;-0.0080816;0.0486946;0.0305901;0.0474592;0;0.0368631;3.28918
537000;538;26.9637;1.21028;0.0469949;-2.42201;26.829;-1.17343;-0.313534;1.1688;-0.58656;-1.3577;-0.433385;-0.436563;1.49056;-5.9095;-0.00408965;-0.00219269;0.0477386;0.0478312;-0.00418225;0.0260067;0.0856677;11.673;0.033369;0.0346756;11.4367;0.0874378;100.64;145.64;-0.0209457;-0.00412449;0.00456242;-0.00861356;0.0477309;0.0469412;0.0115647;0;0.0641802;-1.68015;-1.62758;-1.00352;2.54538;-7.09366;-0.000333507;0.00571535;0.048631;0.0492892;-0.000991778;0.0251405;0.00685791;145.817;0.033195;0.0335207;49.6979;0.0201216;98.8453;143.845;-0.0167949;-0.000355517;0.0208944;-0.00875609;0.0484384;0.0274117;0.0418044;0;0.0417024;3.29293
538000;539;26.9739;1.2205;0.0473918;-2.42409;26.8397;-1.16025;-0.315606;1.17946;-0.573381;-1.35505;-0.42937;-0.445172;1.48953;-5.91811;-0.00488937;-0.00353968;0.0473703;0.047609;-0.00512803;0.0263685;0.103216;9.68843;0.0335794;0.035158;9.28407;0.107711;102.055;147.055;-0.0222785;-0.00493098;0.00301199;-0.00976432;0.0473719;0.0518022;0.0159976;0;0.0581441;-1.67943;-1.63113;-1.01031;2.54986;-7.09719;4.42843e-05;0.00650402;0.0496076;0.0504469;-0.000795003;0.0256209;-0.000892692;-1120.21;0.0338994;0.0341613;63.4549;0.0157592;97.9929;142.993;-0.0182194;3.10071e-05;0.0220382;-0.00829806;0.0493964;0.0390393;0.0443749;0;0.0355624;3.29347
539000;540;26.9812;1.2278;0.0476754;-2.42501;26.8467;-1.167;-0.316529;1.18642;-0.580131;-1.35504;-0.42845;-0.443532;1.48877;-5.91647;-0.00464701;-0.00268513;0.0481997;0.0483358;-0.00478309;0.0265594;0.0964115;10.3722;0.0339308;0.0354126;10.1056;0.0989554;101;146;-0.0216126;-0.00468396;0.00395159;-0.00898715;0.0481957;0.0466149;0.00879244;0;0.0570049;-1.67911;-1.63675;-1.01094;2.5535;-7.09825;-0.00213865;0.00630365;0.049193;0.0499558;-0.00290142;0.0264286;0.0434746;23.0019;0.0343119;0.0352381;17.2177;0.0580797;99.4579;144.458;-0.0164536;-0.00215799;0.0222369;-0.00885149;0.0489763;0.0427427;0.0517185;0;0.0363917;3.29404
540000;541;26.9864;1.23304;0.0478787;-2.42564;26.8514;-1.17633;-0.317156;1.19122;-0.589457;-1.35534;-0.42705;-0.438541;1.48716;-5.91148;-0.0043651;-0.00342895;0.0482197;0.0484423;-0.00458775;0.026515;0.0905253;11.0466;0.0339277;0.0353534;10.5591;0.0947054;101.819;146.819;-0.0225241;-0.00440724;0.00325834;-0.00978063;0.0482202;0.0525751;0.0115846;0;0.061257;-1.68036;-1.6427;-1.01027;2.55787;-7.09758;-0.00191203;0.00636056;0.049412;0.0501885;-0.00268855;0.0264385;0.0386957;25.8426;0.0343902;0.0352514;18.6675;0.053569;99.3483;144.348;-0.0172675;-0.00193131;0.022388;-0.00888445;0.0491924;0.0474996;0.0555696;0;0.0363801;3.29483
541000;542;26.9984;1.24502;0.0483438;-2.42662;26.8638;-1.16793;-0.318143;1.20353;-0.581053;-1.35498;-0.422167;-0.44998;1.48885;-5.92291;-0.0046826;-0.00406791;0.0488293;0.0491368;-0.00499007;0.0270634;0.0958972;10.4278;0.0345416;0.0360846;9.84693;0.101555;102.376;147.376;-0.0252682;-0.0047288;0.00262357;-0.0104178;0.0488339;0.060114;0.0134263;0;0.0628355;-1.6812;-1.64814;-1.02476;2.56767;-7.118;-0.00216873;0.00686005;0.050782;0.0516563;-0.00304305;0.0273497;0.0427068;23.4155;0.0354954;0.0364662;16.9751;0.0589097;98.4123;143.412;-0.0176662;-0.0021771;0.0224905;-0.0079842;0.0505636;0.0429043;0.0618028;0;0.0408241;3.29614
542000;543;27.0048;1.25145;0.0485934;-2.42747;26.8702;-1.16668;-0.318989;1.20997;-0.579807;-1.35642;-0.419995;-0.452495;1.49031;-5.92543;-0.00429404;-0.00368083;0.0485421;0.0487973;-0.00454923;0.0266733;0.0884599;11.3046;0.0341491;0.0355644;10.7265;0.093227;101.861;146.861;-0.0227957;-0.0043366;0.00288491;-0.00991558;0.0485446;0.0564927;0.010631;0;0.0611916;-1.6834;-1.65604;-1.02464;2.57414;-7.11389;-0.0014036;0.00726638;0.0505797;0.0515763;-0.00240021;0.0269883;0.0277502;36.0357;0.0352116;0.0359844;21.4883;0.046537;95.1702;140.17;-0.016376;-0.00138833;0.0198791;-0.00472327;0.0504167;0.0253203;0.0595158;0;0.039865;3.29695
543000;544;27.0116;1.25819;0.0488555;-2.42725;26.8766;-1.17559;-0.318772;1.21639;-0.588714;-1.35816;-0.4203;-0.44728;1.49041;-5.92022;-0.0042425;-0.00394477;0.0506291;0.0509112;-0.00452464;0.0277179;0.0837958;11.9338;0.0355452;0.0369572;11.252;0.0888732;101.93;146.93;-0.0221294;-0.00428934;0.00290053;-0.0104324;0.0506325;0.0526528;0.0157918;0;0.0650834;-1.68537;-1.66636;-1.01992;2.5802;-7.10916;-0.00146588;0.00724306;0.0512128;0.0521905;-0.00244362;0.0273171;0.0286234;34.9365;0.0356361;0.0364227;21.3579;0.0468212;96.0419;141.042;-0.0193624;-0.00145593;0.0208764;-0.00570823;0.0510304;0.0296685;0.0536642;0;0.0418477;3.29758
544000;545;27.0267;1.2733;0.0494422;-2.42759;26.8919;-1.17204;-0.319106;1.2317;-0.585172;-1.35573;-0.415946;-0.454576;1.48918;-5.92751;-0.0042922;-0.00422969;0.0493952;0.0497263;-0.00462339;0.0271749;0.0868952;11.5081;0.0347946;0.0362332;10.7554;0.0929767;102.22;147.22;-0.0227104;-0.00433812;0.00233228;-0.0104558;0.0494011;0.0547603;0.0134377;0;0.0650287;-1.68465;-1.67158;-1.0289;2.58667;-7.11576;-0.00196789;0.00705886;0.0524631;0.0533636;-0.00286842;0.028116;0.03751;26.6595;0.0365694;0.037488;18.6038;0.0537524;95.8015;140.801;-0.0169725;-0.00195725;0.0201407;-0.0053475;0.052294;0.0497348;0.037051;0;0.0436192;3.30009
545000;546;27.0294;1.27599;0.0495464;-2.42801;26.8946;-1.17275;-0.319528;1.23433;-0.585875;-1.35532;-0.414939;-0.451613;1.48762;-5.92455;-0.00421614;-0.00408119;0.0485249;0.0488388;-0.00453008;0.0266844;0.0868862;11.5093;0.0341695;0.0355793;10.781;0.0927558;102.399;147.399;-0.0230637;-0.00426222;0.00258573;-0.0104126;0.0485296;0.0555372;0.0155294;0;0.0663947;-1.68433;-1.67886;-1.02435;2.58937;-7.1136;-0.00135831;0.00658986;0.0514518;0.0522617;-0.0021682;0.0272149;0.0263996;37.8793;0.0355859;0.0362866;24.1037;0.0414873;96.8314;141.831;-0.0229484;-0.00135821;0.0204494;-0.00657467;0.0512736;0.0303284;0.0524559;0;0.0401431;3.30062
546000;547;27.0426;1.28919;0.050059;-2.42936;26.9076;-1.17469;-0.320884;1.24739;-0.587819;-1.35644;-0.410813;-0.458474;1.4896;-5.93141;-0.00445898;-0.00412197;0.0524388;0.0527359;-0.00475605;0.028746;0.0850321;11.7603;0.0368451;0.038328;11.0882;0.0901862;101.447;146.447;-0.022626;-0.00450446;0.00248365;-0.0103703;0.052444;0.055494;0.00843189;0;0.0783303;-1.68629;-1.68179;-1.03797;2.59796;-7.12482;-0.0024487;0.00718821;0.053289;0.0542011;-0.0033608;0.028781;0.0459512;21.7622;0.0373048;0.0383746;16.1275;0.0620061;95.3896;140.39;-0.0142451;-0.00243435;0.019847;-0.00480167;0.0531266;0.0585687;0.03212;0;0.0510144;3.30202
547000;548;27.0452;1.29182;0.050161;-2.4314;26.9099;-1.17805;-0.322925;1.2497;-0.591182;-1.35351;-0.410798;-0.453949;1.48553;-5.92688;-0.00432766;-0.00358288;0.0521752;0.0524015;-0.00455395;0.0284777;0.0829448;12.0562;0.036547;0.0379703;11.5068;0.0869049;101.203;146.203;-0.0210151;-0.00437194;0.00325198;-0.0100506;0.0521763;0.0463477;0.0137603;0;0.0755111;-1.68478;-1.69035;-1.02936;2.5991;-7.1186;-0.00059313;0.00707593;0.0535223;0.0544323;-0.00150305;0.0279677;0.0110819;90.2372;0.0367994;0.0372902;36.2145;0.0276132;95.5879;140.588;-0.0156841;-0.000584726;0.0206144;-0.00576821;0.0533444;0.0363932;0.0450714;0;0.0402885;3.30269
548000;549;27.0497;1.29626;0.0503336;-2.43008;26.9142;-1.18474;-0.321601;1.25399;-0.59787;-1.35632;-0.406695;-0.460395;1.48895;-5.93333;-0.00444752;-0.00426804;0.0512879;0.0516128;-0.00477246;0.0281926;0.0867169;11.5318;0.0361046;0.0375902;10.8147;0.0924666;101.257;146.257;-0.0230509;-0.00448861;0.00178659;-0.0100015;0.051295;0.0535814;0.0102105;0;0.0778414;-1.68659;-1.69344;-1.03956;2.60634;-7.12921;-0.00214598;0.00710558;0.0530423;0.0539425;-0.00304615;0.0284943;0.0404578;24.7171;0.0370189;0.0379924;17.7084;0.0564702;97.1258;142.126;-0.0160147;-0.00214416;0.0218277;-0.00684634;0.0528401;0.0510892;0.0476475;0;0.0404927;3.30259
549000;550;27.0595;1.30607;0.0507144;-2.4315;26.924;-1.18373;-0.323022;1.26376;-0.59686;-1.35525;-0.405807;-0.459294;1.48739;-5.93223;-0.00428007;-0.00387564;0.0532144;0.0534745;-0.00454015;0.0290073;0.0804307;12.4331;0.0372554;0.0386764;11.7781;0.0849031;100.816;145.816;-0.020447;-0.00432209;0.00253255;-0.00993386;0.0532185;0.0485492;0.0166536;0;0.0740844;-1.68698;-1.69907;-1.04231;2.61135;-7.13196;-0.00264186;0.00746419;0.0537791;0.0547498;-0.00361263;0.0291812;0.0491244;20.3565;0.0377617;0.0389083;15.1551;0.0659844;96.9935;141.993;-0.0188085;-0.00263587;0.022338;-0.00661468;0.0535687;0.0539721;0.0553397;0;0.0471103;3.30491
550000;551;27.0699;1.31655;0.0511212;-2.43205;26.9344;-1.18631;-0.323568;1.27413;-0.59944;-1.35501;-0.403756;-0.460665;1.48704;-5.9336;-0.00426329;-0.00418419;0.0526757;0.0529815;-0.00456912;0.0287753;0.0809346;12.3557;0.0369384;0.0383671;11.5956;0.0862399;101.478;146.478;-0.0210098;-0.00430949;0.00245624;-0.0104653;0.0526811;0.0500653;0.0143784;0;0.0767678;-1.68759;-1.70817;-1.04195;2.61753;-7.13119;-0.00110785;0.00722004;0.0537744;0.0547083;-0.00204179;0.028375;0.0206018;48.5394;0.0371715;0.0378334;26.7943;0.0373214;95.2883;140.288;-0.014442;-0.00109561;0.0203859;-0.00526124;0.0536019;0.0232519;0.0525684;0;0.0392869;3.30558
551000;552;27.0782;1.32479;0.0514413;-2.43219;26.9428;-1.18242;-0.323707;1.28257;-0.595545;-1.35444;-0.40209;-0.457561;1.48511;-5.9305;-0.00439262;-0.00411338;0.0529915;0.0532848;-0.00468598;0.0289854;0.082893;12.0637;0.0371838;0.0386472;11.3711;0.0879421;101.153;146.153;-0.0224429;-0.00443654;0.00234109;-0.010216;0.0529969;0.0542423;0.011189;0;0.0789016;-1.68795;-1.71681;-1.03685;2.62139;-7.12609;-0.00165096;0.00698224;0.053565;0.0544343;-0.0025202;0.0284772;0.0308215;32.4448;0.0371581;0.0379697;21.5992;0.046298;96.7886;141.789;-0.0211592;-0.00164911;0.0214342;-0.00671357;0.0533701;0.0333778;0.0502136;0;0.0478892;3.30649
552000;553;27.0839;1.33051;0.0516635;-2.43416;26.9476;-1.19886;-0.325681;1.28742;-0.611986;-1.35455;-0.40112;-0.454694;1.48407;-5.92763;-0.00424693;-0.00428548;0.0528744;0.0531941;-0.00456665;0.0288804;0.080321;12.45;0.0370788;0.0385072;11.6484;0.0858488;100.959;145.959;-0.0222671;-0.00428842;0.00180974;-0.0100499;0.0528816;0.0549856;0.0114332;0;0.0691887;-1.6891;-1.72418;-1.04061;2.62845;-7.12746;-0.00238471;0.0072386;0.0547851;0.0556874;-0.00328699;0.0294872;0.0435285;22.9735;0.0382677;0.0393162;16.9417;0.0590258;96.2448;141.245;-0.0173191;-0.0023762;0.0211836;-0.00595181;0.0545972;0.052751;0.0373874;0;0.0502471;3.30814
553000;554;27.0891;1.33568;0.0518643;-2.43338;26.9527;-1.20385;-0.324899;1.29246;-0.616979;-1.35463;-0.397628;-0.459763;1.48476;-5.9327;-0.00474372;-0.00397049;0.0527079;0.052981;-0.00501682;0.0289989;0.0900001;11.1111;0.0371062;0.0386652;10.5607;0.0946909;100.782;145.782;-0.0230444;-0.00478396;0.00218602;-0.00979086;0.0527132;0.0551395;0.0118633;0;0.0734055;-1.68918;-1.73023;-1.05145;2.63678;-7.14591;-0.000689561;0.0066325;0.0548314;0.0556127;-0.00147088;0.0285418;0.012576;79.5165;0.0375751;0.0380557;37.8092;0.0264486;97.8657;142.866;-0.0207248;-0.000703973;0.0226379;-0.00853196;0.0546093;0.0456247;0.0398181;0;0.0440906;3.31037
554000;555;27.1001;1.34673;0.0522933;-2.43347;26.9642;-1.19434;-0.324993;1.30398;-0.607471;-1.35472;-0.400298;-0.451515;1.48303;-5.92445;-0.00451071;-0.00408507;0.0536536;0.0539391;-0.00479622;0.0293677;0.0840709;11.8947;0.0376601;0.0391569;11.2462;0.0889191;100.79;145.79;-0.0223815;-0.00455255;0.00217538;-0.0099998;0.0536593;0.0540453;0.0104953;0;0.0797928;-1.69038;-1.73957;-1.03945;2.63893;-7.1287;-0.000419231;0.00684853;0.0547985;0.0556353;-0.00125596;0.0284456;0.0076504;130.712;0.0375158;0.0379275;44.297;0.0225749;95.545;140.545;-0.0165798;-0.000413038;0.0202744;-0.00587554;0.0546259;0.0405868;0.048561;0;0.0416504;3.3108
555000;556;27.1091;1.35571;0.0526421;-2.43307;26.9729;-1.20372;-0.324592;1.31263;-0.616848;-1.3544;-0.394755;-0.451361;1.4812;-5.9243;-0.00421673;-0.00394144;0.0531838;0.0534532;-0.00448611;0.0289696;0.0792861;12.6126;0.037221;0.0386262;11.9153;0.083926;100.69;145.69;-0.0226764;-0.00425742;0.00228259;-0.00982611;0.0531887;0.0522435;0.0124941;0;0.0683772;-1.69038;-1.74104;-1.04594;2.64246;-7.13279;-0.00249043;0.00722324;0.0553094;0.0561984;-0.00337944;0.0297889;0.0450272;22.2088;0.0386414;0.0397185;16.6295;0.0601342;95.5341;140.534;-0.0137019;-0.00247759;0.0203168;-0.00515425;0.0551385;0.0575145;0.0313401;0;0.0453886;3.31069
556000;557;27.1189;1.36549;0.0530218;-2.43487;26.983;-1.19291;-0.326388;1.32278;-0.606036;-1.35433;-0.389732;-0.46801;1.48497;-5.94095;-0.00429016;-0.00380566;0.0546397;0.0548845;-0.00453491;0.0297097;0.0785173;12.736;0.0381911;0.0396129;12.1026;0.0826266;100.349;145.349;-0.0205113;-0.00433066;0.00249406;-0.00975323;0.0546436;0.049231;0.0153119;0;0.0785868;-1.69131;-1.7449;-1.05933;2.65092;-7.14897;-0.00211994;0.00665573;0.0550869;0.0558511;-0.00288409;0.0293676;0.0384835;25.9851;0.0382317;0.0391568;19.3652;0.051639;97.0562;142.056;-0.0172826;-0.00212217;0.0210733;-0.00698135;0.0548975;0.0517769;0.0473241;0;0.041323;3.3111
557000;558;27.132;1.37862;0.0535315;-2.43648;26.9966;-1.18008;-0.327996;1.33639;-0.593204;-1.35339;-0.387839;-0.468856;1.48388;-5.94179;-0.00423281;-0.00397827;0.0556885;0.0559515;-0.00449577;0.0302236;0.0760086;13.1564;0.0388863;0.0402982;12.4454;0.0803513;100.137;145.137;-0.0225087;-0.00427269;0.00215148;-0.00975996;0.0556938;0.050715;0.0110205;0;0.0823634;-1.69134;-1.75293;-1.05788;2.65566;-7.14903;-0.00116378;0.00750091;0.0557246;0.056697;-0.00213618;0.0294166;0.0208845;47.8824;0.0385298;0.0392221;26.5414;0.0376771;95.5803;140.58;-0.0140939;-0.00115242;0.0215514;-0.00579378;0.0555313;0.0306087;0.0499432;0;0.0497448;3.3136
558000;559;27.1391;1.38569;0.0538062;-2.43629;27.0032;-1.19277;-0.327815;1.34296;-0.605898;-1.35535;-0.386532;-0.465307;1.48421;-5.93824;-0.00463898;-0.00391171;0.056197;0.0564475;-0.00488947;0.0306685;0.0825485;12.1141;0.0393629;0.0408913;11.5447;0.0866198;100.092;145.092;-0.0208136;-0.00467927;0.00230702;-0.00977212;0.0562018;0.053423;0.00999055;0;0.0787861;-1.69364;-1.75942;-1.05777;2.66136;-7.14701;-0.00138221;0.00743849;0.0561355;0.0570819;-0.00232862;0.0297053;0.0246227;40.613;0.0388541;0.039607;24.5132;0.0407943;94.9824;139.982;-0.0134782;-0.00136721;0.0206316;-0.00503725;0.0559602;0.0222404;0.0500873;0;0.0408698;3.31364
559000;560;27.1466;1.39325;0.0540995;-2.43801;27.0107;-1.19119;-0.329535;1.35046;-0.604314;-1.35433;-0.383389;-0.469372;1.48375;-5.94231;-0.00469454;-0.00420958;0.0571878;0.0574729;-0.00497958;0.0312262;0.0820898;12.1818;0.0400784;0.041635;11.5417;0.0866423;100.133;145.133;-0.0216201;-0.00473601;0.00195547;-0.0100136;0.0571944;0.0530422;0.00855004;0;0.0730093;-1.69425;-1.76744;-1.06186;2.66868;-7.15057;-0.00186511;0.00578903;0.0565774;0.0571453;-0.00243303;0.0297892;0.0329656;30.3346;0.0389333;0.0397189;23.4874;0.0425761;99.3937;144.394;-0.0206333;-0.00189887;0.0225482;-0.0100445;0.0563527;0.0247561;0.0340547;0;0.0554637;3.3151
560000;561;27.1593;1.40587;0.0545895;-2.43787;27.0234;-1.19176;-0.329388;1.36313;-0.604891;-1.3544;-0.380738;-0.473081;1.48431;-5.94602;-0.00537594;-0.00437017;0.0576204;0.0579222;-0.00567766;0.0317999;0.0932992;10.7182;0.0406397;0.0423999;10.2018;0.0980223;100.101;145.101;-0.0216812;-0.00541701;0.00165912;-0.0100402;0.0576282;0.055739;0.00491464;0;0.0769257;-1.6952;-1.77418;-1.06838;2.67634;-7.15523;-0.00262415;0.00671549;0.0573111;0.0580544;-0.00336737;0.0307109;0.0457877;21.8399;0.0398728;0.0409478;17.2403;0.0580038;96.3825;141.382;-0.0170266;-0.00262126;0.0204826;-0.00627234;0.0571341;0.051401;0.0312396;0;0.0558832;3.31632
561000;562;27.163;1.40962;0.0547355;-2.43947;27.0262;-1.20875;-0.330989;1.36601;-0.621876;-1.35476;-0.379187;-0.472845;1.48416;-5.94578;-0.00481578;-0.00439831;0.0589696;0.0592715;-0.00511764;0.0321946;0.0816655;12.2451;0.041326;0.0429261;11.5818;0.0863424;100.007;145.007;-0.02011;-0.00485843;0.00178527;-0.0102093;0.0589772;0.0532221;0.00601858;0;0.0790572;-1.69642;-1.78198;-1.07014;2.683;-7.15633;-0.00361254;0.00591226;0.0575155;0.0580821;-0.00417912;0.0311306;0.0628098;15.9211;0.0401869;0.0415075;13.8982;0.0719519;98.4362;143.436;-0.0202982;-0.00362967;0.0210087;-0.00831267;0.0573234;0.0573968;0.0170248;0;0.0528967;3.31677
562000;563;27.17;1.41663;0.0550076;-2.43984;27.0332;-1.21074;-0.331365;1.37293;-0.623872;-1.35504;-0.377664;-0.468703;1.48271;-5.94164;-0.00513821;-0.0043327;0.0583963;0.0586904;-0.00543232;0.0320614;0.0879886;11.3651;0.0410577;0.0427485;10.8039;0.0925588;100.032;145.032;-0.0219337;-0.00518016;0.00181481;-0.0101111;0.0584036;0.0557797;0.0113933;0;0.0746707;-1.69755;-1.7876;-1.06787;2.68655;-7.15406;-0.00418972;0.00576583;0.0572472;0.0577836;-0.00472616;0.0312549;0.0731865;13.6637;0.0401905;0.0416732;12.2263;0.0817906;98.7261;143.726;-0.0220874;-0.00420832;0.0207873;-0.00838389;0.0570585;0.0556106;0.0163835;0;0.0523068;3.31653
563000;564;27.1853;1.43192;0.0556012;-2.44063;27.0493;-1.19282;-0.332154;1.38902;-0.605946;-1.35295;-0.375282;-0.472929;1.48154;-5.94586;-0.00514855;-0.00414098;0.0590732;0.0593391;-0.00541446;0.0323768;0.0871554;11.4738;0.0414822;0.0431691;10.9594;0.0912459;99.7206;144.721;-0.0228872;-0.00518911;0.00198092;-0.00989152;0.0590795;0.0562967;0.00822817;0;0.0731547;-1.69668;-1.79498;-1.07029;2.69188;-7.15648;-0.00357407;0.00588139;0.0575794;0.0581399;-0.00413458;0.0311372;0.0620721;16.1103;0.040209;0.0415163;14.0619;0.0711143;97.9975;142.997;-0.0207843;-0.0035873;0.0204086;-0.00780687;0.0573988;0.0602913;0.0197807;0;0.0497095;3.31822
564000;565;27.1895;1.43609;0.0557633;-2.4427;27.0524;-1.21144;-0.334218;1.3922;-0.624573;-1.35346;-0.374813;-0.465921;1.47967;-5.93886;-0.00483182;-0.00484384;0.0603802;0.060738;-0.00518965;0.0329638;0.0800232;12.4964;0.0423281;0.0439518;11.7037;0.0854431;100.502;145.502;-0.0214705;-0.00488086;0.00171902;-0.0110029;0.0603899;0.0507869;0.00496101;0;0.0749599;-1.69647;-1.79969;-1.06574;2.69308;-7.15259;-0.0031926;0.00699445;0.0581784;0.0589655;-0.00397967;0.0314726;0.054876;18.2229;0.0407018;0.0419634;14.8167;0.0674914;95.1665;140.166;-0.012733;-0.00317946;0.0194786;-0.00476664;0.0580223;0.0501976;0.0416933;0;0.0415913;3.32069
565000;566;27.1999;1.44652;0.0561682;-2.44314;27.0633;-1.20281;-0.334657;1.40303;-0.615941;-1.35349;-0.370878;-0.471562;1.48049;-5.9445;-0.00455564;-0.00469777;0.0597176;0.0600591;-0.00489719;0.0324782;0.0762865;13.1085;0.0417676;0.0433042;12.264;0.0815395;100.362;145.362;-0.0226549;-0.00460252;0.00173711;-0.0107422;0.0597266;0.0552374;0.0105989;0;0.0713101;-1.69769;-1.80607;-1.07456;2.70162;-7.16743;-0.00324857;0.00535554;0.0588822;0.0593404;-0.00370683;0.0315236;0.0551707;18.1256;0.040852;0.0420315;16.0084;0.0624671;100.531;145.531;-0.018853;-0.00329807;0.0230317;-0.0112849;0.0586452;0.05312;0.0438449;0;0.0478789;3.31959
566000;567;27.2063;1.45289;0.0564155;-2.44716;27.0688;-1.21459;-0.338678;1.40854;-0.627719;-1.35243;-0.365584;-0.482232;1.48165;-5.95517;-0.00471654;-0.00487754;0.0608309;0.0611919;-0.0050775;0.0331347;0.0775352;12.8974;0.0425881;0.0441796;12.0516;0.0829767;99.8949;144.895;-0.0224458;-0.00475969;0.00108677;-0.0104732;0.0608416;0.0600979;0.00837907;0;0.0699271;-1.69814;-1.80843;-1.08584;2.70798;-7.18254;-0.00195267;0.00695542;0.0585876;0.0593764;-0.00274149;0.031059;0.033329;30.0039;0.040529;0.041412;21.6585;0.0461713;97.9782;142.978;-0.0114488;-0.00196646;0.0235726;-0.00871307;0.058348;0.0516786;0.0361922;0;0.0518985;3.31972
567000;568;27.2094;1.45602;0.0565368;-2.44905;27.0717;-1.21468;-0.340569;1.41151;-0.627811;-1.35288;-0.367186;-0.474173;1.47985;-5.94711;-0.00424529;-0.00460354;0.061804;0.0621233;-0.0045646;0.033344;0.0686895;14.5583;0.0430179;0.0444586;13.6098;0.0734765;99.6442;144.644;-0.0199247;-0.00428854;0.00153542;-0.0103605;0.0618129;0.0469957;0.00896644;0;0.0663462;-1.6994;-1.81696;-1.07946;2.71192;-7.16816;-0.00233014;0.00588492;0.059302;0.0598589;-0.00288703;0.031373;0.0392928;25.45;0.0409023;0.0418306;20.7337;0.0482306;98.8779;143.878;-0.0189015;-0.00235951;0.0223839;-0.0096555;0.0590819;0.0256355;0.034689;0;0.0529999;3.32241
568000;569;27.2261;1.47267;0.0571836;-2.4472;27.089;-1.20704;-0.338719;1.42876;-0.62017;-1.35293;-0.361958;-0.482609;1.48133;-5.95554;-0.00471146;-0.00534787;0.0619115;0.0623381;-0.00513801;0.033738;0.0760999;13.1406;0.0433729;0.044984;12.1327;0.0824217;100.154;145.154;-0.0200067;-0.00475766;0.000661724;-0.0109803;0.0619248;0.0441872;0.00536524;0;0.0756537;-1.70034;-1.82103;-1.09267;2.72052;-7.18293;-0.00316899;0.00605038;0.0590815;0.0596641;-0.0037516;0.0317079;0.0536376;18.6436;0.0410838;0.0422772;15.9036;0.0628787;96.6926;141.693;-0.0076179;-0.00317261;0.0195105;-0.00661957;0.0589191;0.0399558;0.0188381;0;0.0735818;3.32265
569000;570;27.2339;1.48053;0.0574888;-2.44985;27.0961;-1.22004;-0.341374;1.43583;-0.633165;-1.35431;-0.362129;-0.474099;1.47989;-5.94703;-0.00417475;-0.00561514;0.0627385;0.0632065;-0.00464268;0.0339246;0.066542;15.0281;0.0437674;0.0452328;13.6142;0.0734526;100.501;145.501;-0.0180223;-0.00422575;0.000705525;-0.0115377;0.0627531;0.0429909;0.0117076;0;0.069662;-1.70191;-1.8312;-1.08418;2.72493;-7.17704;-0.000611714;0.00524935;0.0596025;0.0600567;-0.00106592;0.0305613;0.0102632;97.4352;0.0403978;0.0407484;56.3429;0.0177485;98.1418;143.142;-0.0191922;-0.000641119;0.0206649;-0.00929126;0.059414;0.0244854;0.0509511;0;0.0501161;3.32438
570000;571;27.2365;1.48306;0.0575868;-2.45198;27.0978;-1.23307;-0.343503;1.43759;-0.646196;-1.35244;-0.359743;-0.479479;1.47932;-5.95241;-0.00454215;-0.00516516;0.0624679;0.0628637;-0.00493794;0.0339008;0.0727117;13.7529;0.0436483;0.0452011;12.7307;0.07855;100.011;145.011;-0.019151;-0.00458851;0.000964433;-0.010908;0.06248;0.0403015;0.00657201;0;0.0671872;-1.70221;-1.84074;-1.08703;2.73267;-7.18118;-0.00242712;0.0052085;0.0596227;0.0600569;-0.00286129;0.0314591;0.040708;24.5652;0.0410249;0.0419454;20.9895;0.0476429;99.7424;144.742;-0.0206191;-0.00247075;0.0220898;-0.0106856;0.0594052;0.0261252;0.0415905;0;0.050135;3.3249
571000;572;27.2495;1.49612;0.058094;-2.44966;27.1115;-1.22502;-0.341179;1.45129;-0.638145;-1.35375;-0.35807;-0.477444;1.47946;-5.95038;-0.00482873;-0.00529842;0.0624201;0.062835;-0.00524362;0.0340393;0.0773585;12.9268;0.0437428;0.0453858;11.9831;0.0834507;100.505;145.505;-0.022837;-0.00488018;0.00123939;-0.0114222;0.0624326;0.0500463;0.0182983;0;0.0728443;-1.7042;-1.84434;-1.09003;2.73752;-7.18005;-0.00376436;0.00507638;0.0598339;0.0602365;-0.00416701;0.0322018;0.0629136;15.8948;0.0416163;0.0429357;14.4556;0.0691774;98.8028;143.803;-0.0178314;-0.00379214;0.020057;-0.00900626;0.0596563;0.0474932;0.0135472;0;0.058018;3.32408
572000;573;27.2563;1.50293;0.0583586;-2.45022;27.1184;-1.22243;-0.341738;1.45821;-0.635554;-1.35309;-0.353398;-0.484212;1.47993;-5.95715;-0.00450096;-0.00541732;0.0636055;0.0640337;-0.00492917;0.0344814;0.0707637;14.1315;0.0444235;0.0459753;12.9908;0.0769778;100.35;145.35;-0.0210199;-0.00455256;0.00107332;-0.0114921;0.0636188;0.051843;0.00551954;0;0.0789877;-1.70402;-1.84877;-1.09505;2.7424;-7.18752;-0.00168987;0.00519059;0.0598028;0.0602378;-0.00212493;0.0311814;0.0282574;35.389;0.0408853;0.0415752;28.3482;0.0352756;99.1772;144.177;-0.0231911;-0.00172906;0.0215872;-0.0102558;0.0595956;0.0420117;0.0412101;0;0.0581756;3.32408
573000;574;27.2689;1.51546;0.058845;-2.44922;27.132;-1.20212;-0.340743;1.4718;-0.61525;-1.35234;-0.35097;-0.485635;1.47914;-5.95857;-0.00452287;-0.00574636;0.0634127;0.0638954;-0.0050055;0.0344504;0.0713243;14.0205;0.0443596;0.0459339;12.765;0.078339;100.627;145.627;-0.0226576;-0.00457615;0.00071444;-0.0117942;0.063428;0.0485193;0.00635096;0;0.0781501;-1.70449;-1.85361;-1.09804;2.74715;-7.19012;-0.00390242;0.00503785;0.0620088;0.0623917;-0.00428526;0.0333385;0.0629333;15.8898;0.0430939;0.0444513;14.5596;0.0686832;97.7397;142.74;-0.0147203;-0.00392172;0.0189259;-0.00798911;0.0618521;0.0535953;0.0270111;0;0.0601122;3.32688
574000;575;27.2773;1.52394;0.0591745;-2.45069;27.1407;-1.19612;-0.342206;1.48046;-0.609249;-1.35263;-0.349217;-0.48962;1.4803;-5.96256;-0.00463097;-0.00538417;0.063864;0.0642847;-0.00505162;0.0346681;0.072513;13.7906;0.0446357;0.0462242;12.7256;0.078582;100.297;145.297;-0.0226893;-0.0046825;0.0011213;-0.0114706;0.063877;0.0495451;0.00212689;0;0.0752967;-1.70428;-1.85822;-1.10079;2.75124;-7.19403;-0.000993335;0.00710189;0.0608138;0.0616193;-0.00179887;0.0317091;0.016334;61.2218;0.0416921;0.0422788;34.2544;0.0291933;96.1157;141.116;-0.0169661;-0.000992543;0.0220636;-0.00698949;0.0606081;0.0390316;0.0507644;0;0.0423693;3.32724
575000;576;27.2854;1.53196;0.0594856;-2.45296;27.1482;-1.20475;-0.344484;1.48792;-0.617878;-1.35204;-0.347773;-0.484661;1.47779;-5.9576;-0.00439888;-0.00558268;0.0639244;0.0643776;-0.00485204;0.0346148;0.0688138;14.532;0.0446237;0.0461531;13.2681;0.0753685;100.501;145.501;-0.0228978;-0.00445238;0.000991156;-0.0117342;0.0639386;0.0483287;-0.00148274;0;0.07929;-1.70399;-1.86495;-1.10016;2.75535;-7.1898;-0.000931765;0.0076238;0.0614076;0.0623264;-0.00185058;0.0320885;0.0151734;65.9046;0.0421813;0.0427847;33.6795;0.0296917;95.3253;140.325;-0.0156492;-0.000921422;0.0222239;-0.00612019;0.0612023;0.0369985;0.0538358;0;0.0470197;3.33009
576000;577;27.2947;1.54127;0.0598474;-2.45353;27.1574;-1.20673;-0.345048;1.49715;-0.619862;-1.35164;-0.346156;-0.486432;1.47763;-5.95937;-0.00462435;-0.00558663;0.0639577;0.0644098;-0.00507645;0.0347431;0.0723033;13.8306;0.0447281;0.0463242;12.688;0.0788149;100.342;145.342;-0.0208299;-0.00467581;0.000799055;-0.0115605;0.063972;0.0514921;-0.00226297;0;0.0841357;-1.70502;-1.87226;-1.10194;2.76165;-7.1888;-0.00275337;0.00639654;0.062683;0.0633024;-0.00337278;0.0333376;0.0439253;22.7659;0.0433696;0.0444501;18.7686;0.0532804;95.5145;140.514;-0.0113989;-0.0027495;0.0193524;-0.00576251;0.062526;0.0338223;0.0438859;0;0.0525996;3.33114
577000;578;27.3025;1.54912;0.0601521;-2.45817;27.1644;-1.2168;-0.349689;1.50417;-0.62993;-1.35179;-0.344523;-0.485448;1.47706;-5.95838;-0.00426996;-0.00542889;0.0656016;0.0660209;-0.00468926;0.0353551;0.0650893;15.3635;0.0456573;0.0471401;14.0792;0.0710269;100.018;145.018;-0.0217231;-0.00432134;0.00104721;-0.0114802;0.0656149;0.0491055;0.00181;0;0.0784994;-1.70559;-1.88179;-1.09974;2.76759;-7.18898;-0.00195675;0.00596402;0.0614521;0.0620081;-0.00251283;0.0322605;0.0318418;31.4052;0.0422013;0.043014;24.6767;0.0405241;97.2332;142.233;-0.0170682;-0.00197101;0.0208167;-0.00800254;0.0612647;0.0259288;0.057097;0;0.0529997;3.33144
578000;579;27.3081;1.55472;0.0603694;-2.456;27.1702;-1.21729;-0.347522;1.50996;-0.630423;-1.35257;-0.339082;-0.49563;1.47989;-5.96857;-0.00451118;-0.00563915;0.0661521;0.0665993;-0.00495837;0.0357788;0.0681941;14.664;0.0461412;0.0477051;13.4317;0.0744509;100.246;145.246;-0.0179784;-0.00456565;0.00100447;-0.0118422;0.0661665;0.0408859;0.000499744;0;0.0789848;-1.70657;-1.88743;-1.10803;2.77534;-7.19727;-0.00100426;0.00573047;0.0605465;0.0610754;-0.00153323;0.0313043;0.0165866;60.2897;0.0412375;0.0417391;39.8345;0.0251039;97.5439;142.544;-0.0176575;-0.00102477;0.0209339;-0.00859175;0.0603553;0.0208004;0.0451058;0;0.0479243;3.33051
579000;580;27.32;1.56662;0.0608317;-2.45432;27.1823;-1.21783;-0.34584;1.52206;-0.630957;-1.35194;-0.33999;-0.488766;1.47724;-5.9617;-0.00433283;-0.00585003;0.0662333;0.066715;-0.00481452;0.0357647;0.0654177;15.2864;0.0461652;0.0476863;13.857;0.0721655;99.6928;144.693;-0.0227725;-0.00437943;-4.53608e-05;-0.0112704;0.0662493;0.0550284;0.00624611;0;0.0805843;-1.70729;-1.89503;-1.10838;2.78109;-7.19762;-0.00191398;0.00598624;0.0603345;0.0609049;-0.00248443;0.0316947;0.0317227;31.5231;0.0414563;0.0422596;24.5147;0.0407919;96.8713;141.871;-0.016717;-0.00192362;0.0202293;-0.00742174;0.0601584;0.0149479;0.0458539;0;0.0430179;3.33295
580000;581;27.3202;1.56684;0.0608402;-2.45902;27.181;-1.24112;-0.350544;1.5208;-0.654253;-1.35075;-0.33384;-0.498012;1.47783;-5.97095;-0.00447433;-0.00485381;0.0658893;0.0662226;-0.00480757;0.0355151;0.0679067;14.7261;0.045835;0.0473534;13.7746;0.0725972;98.7556;143.756;-0.0243444;-0.0045133;0.000717631;-0.0100573;0.0659002;0.0586888;0.0114369;0;0.116638;-1.70774;-1.89831;-1.11976;2.78815;-7.20661;-0.00254995;0.00701298;0.0615275;0.0622861;-0.00330851;0.0327973;0.041444;24.1289;0.0426697;0.0437297;18.826;0.0531179;94.9142;139.914;-0.0117636;-0.00253785;0.0198026;-0.00500561;0.061366;0.0476182;0.0379366;0;0.0696552;3.33379
581000;582;27.3298;1.57642;0.0612121;-2.45959;27.1906;-1.24149;-0.351115;1.53036;-0.654617;-1.35178;-0.331314;-0.491401;1.47599;-5.96434;-0.00460864;-0.00520684;0.0672502;0.0676256;-0.00498396;0.0363048;0.0685297;14.5922;0.0468335;0.0484063;13.5686;0.0736994;99.0813;144.081;-0.0206418;-0.0046521;0.000640082;-0.0106599;0.0672627;0.0555844;0.00748443;0;0.103119;-1.70931;-1.9046;-1.11758;2.79253;-7.21008;-0.00267196;0.00672304;0.0631806;0.0638599;-0.00335132;0.0336056;0.0422908;23.6458;0.0437332;0.0448075;19.0552;0.0524792;95.3494;140.349;-0.0103709;-0.00266528;0.0199081;-0.00564639;0.0630154;0.0533812;0.0418485;0;0.0587284;3.33298
582000;583;27.344;1.59064;0.0617642;-2.45936;27.2056;-1.2271;-0.350886;1.54532;-0.64023;-1.35072;-0.330299;-0.491886;1.47496;-5.96482;-0.00467692;-0.00453137;0.0659338;0.0662234;-0.00496653;0.035595;0.0709336;14.0977;0.0458941;0.04746;13.3339;0.0749966;98.6039;143.604;-0.0205016;-0.00471535;0.00116584;-0.00985106;0.0659428;0.0582071;0.00408851;0;0.0880897;-1.70905;-1.91272;-1.11409;2.79652;-7.20888;-0.000280933;0.00660184;0.0635019;0.0641781;-0.000957088;0.0325676;0.00442401;226.039;0.0431079;0.0434234;67.0555;0.014913;95.2063;140.206;-0.0131835;-0.000278795;0.0202935;-0.00626974;0.0633288;0.0351379;0.0632173;0;0.0414935;3.33378
583000;584;27.3527;1.5993;0.0621005;-2.46268;27.2142;-1.22245;-0.354205;1.55394;-0.635581;-1.35147;-0.32452;-0.499236;1.47683;-5.97217;-0.00500002;-0.00515176;0.0658468;0.0662194;-0.00537268;0.0357961;0.0759342;13.1693;0.0460418;0.0477281;12.3252;0.0811345;99.2228;144.223;-0.0235392;-0.00504299;0.000668571;-0.0105851;0.065859;0.0569958;0.0147718;0;0.0924977;-1.71081;-1.9159;-1.12615;2.80459;-7.22249;-0.000783572;0.00682954;0.0633929;0.0641117;-0.00150231;0.032807;0.0123606;80.9025;0.0432506;0.0437426;42.6754;0.0234327;96.0438;141.044;-0.0106359;-0.000786241;0.0217688;-0.00720942;0.063192;0.0295125;0.0321914;0;0.0501052;3.33477
584000;585;27.3613;1.6079;0.0624346;-2.46328;27.2224;-1.2313;-0.354799;1.56213;-0.644428;-1.35088;-0.321653;-0.497691;1.47513;-5.97589;-0.00569265;-0.00514457;0.0690731;0.0694254;-0.00604499;0.0377352;0.0824149;12.1337;0.0484246;0.0503136;11.4848;0.0870716;99.0839;144.084;-0.0272367;-0.005739;0.00103522;-0.010892;0.069085;0.0645108;-0.0130206;0;0.0946049;-1.71115;-1.92178;-1.12673;2.80905;-7.21932;-0.00160025;0.00640758;0.0634847;0.0641095;-0.00222508;0.0331673;0.0252069;39.6717;0.0435003;0.0442231;28.8123;0.0347074;96.9517;141.952;-0.0105272;-0.00161235;0.0218335;-0.00807556;0.0632798;0.0263343;0.0338134;0;0.0508664;3.33437
585000;586;27.3722;1.61882;0.0628584;-2.4639;27.2332;-1.23188;-0.355416;1.57302;-0.645011;-1.35087;-0.321212;-0.498925;1.47545;-5.97186;-0.00553194;-0.00495247;0.0679309;0.0682632;-0.0058643;0.0370638;0.0814348;12.2798;0.0475842;0.0494184;11.6405;0.0859072;98.9097;143.91;-0.022028;-0.00557508;0.00100994;-0.0105046;0.0679419;0.0466193;0.0115774;0;0.0837209;-1.71221;-1.92991;-1.12944;2.81636;-7.21815;-0.00290589;0.00606966;0.0649548;0.0654934;-0.0034445;0.034469;0.0447371;22.3528;0.0448545;0.0459586;19.0139;0.0525931;96.7557;141.756;-0.00592786;-0.00291578;0.0205839;-0.0075208;0.0647732;0.0546425;0.00857171;0;0.0606592;3.33588
586000;587;27.3829;1.6295;0.0632731;-2.46572;27.2442;-1.22308;-0.357246;1.58398;-0.636212;-1.3513;-0.3192;-0.49696;1.47475;-5.96989;-0.00529824;-0.00422347;0.067264;0.067509;-0.00554324;0.0365261;0.0787678;12.6955;0.0469629;0.0487015;12.1786;0.0821111;98.0332;143.033;-0.0223055;-0.00533314;0.00126885;-0.00934227;0.0672716;0.0464043;0.0118962;0;0.0834859;-1.71362;-1.93811;-1.12757;2.82209;-7.21593;-0.00248982;0.00561432;0.0632584;0.0637344;-0.00296578;0.0333501;0.0393594;25.4069;0.0435119;0.0444668;21.4899;0.0465335;97.2526;142.253;-0.011185;-0.00250648;0.0201756;-0.00804752;0.0630818;0.0287204;0.0349742;0;0.0527507;3.33898
587000;588;27.3845;1.63113;0.0633365;-2.46587;27.2445;-1.25298;-0.357389;1.58425;-0.666112;-1.35052;-0.315772;-0.497682;1.47353;-5.97062;-0.00555304;-0.00477761;0.0674075;0.067719;-0.00586456;0.0367918;0.0823802;12.1388;0.0472224;0.0490557;11.5472;0.0866014;99.1334;144.133;-0.0213683;-0.0055986;0.00152667;-0.0106508;0.0674171;0.0452435;0.0102036;0;0.0899165;-1.71377;-1.94273;-1.13318;2.82759;-7.22154;-0.00231749;0.00606743;0.0620925;0.062659;-0.00288406;0.0327715;0.0373232;26.793;0.0427665;0.0436954;21.726;0.0460279;96.9903;141.99;-0.0106959;-0.00232845;0.0206798;-0.00765993;0.0619085;0.0359899;0.024609;0;0.067261;3.33863
588000;589;27.3934;1.64002;0.0636816;-2.46631;27.2535;-1.25095;-0.357834;1.59324;-0.66408;-1.35081;-0.312996;-0.495501;1.47247;-5.9737;-0.00569439;-0.00590638;0.069192;0.069655;-0.00615737;0.0379062;0.0822984;12.1509;0.0486192;0.0505415;11.3125;0.0883982;99.3515;144.351;-0.0273823;-0.00574136;-7.74555e-05;-0.0113269;0.0692083;0.0574455;-0.0134176;0;0.0823302;-1.71412;-1.95062;-1.13081;2.83228;-7.22005;-0.00122431;0.00619921;0.0624284;0.0630265;-0.00182244;0.0324245;0.0196115;50.9905;0.0426381;0.0432326;34.5835;0.0289155;96.8962;141.896;-0.0178888;-0.00123696;0.021281;-0.0079802;0.0622333;0.0224282;0.0482315;0;0.0512186;3.33795
589000;590;27.4027;1.64931;0.0640424;-2.46761;27.2627;-1.25156;-0.359132;1.60244;-0.664691;-1.35093;-0.312548;-0.498915;1.47364;-5.97185;-0.00522014;-0.00460879;0.0671429;0.0674352;-0.0055125;0.0364739;0.0777468;12.8623;0.0469024;0.0486318;12.2332;0.0817451;98.5415;143.541;-0.0198017;-0.00525917;0.00111507;-0.00994439;0.0671522;0.038037;0.0140225;0;0.0827247;-1.71484;-1.95656;-1.13485;2.83843;-7.22024;-0.00233195;0.00698964;0.0643688;0.0650934;-0.00305653;0.0340749;0.0362279;27.603;0.0444495;0.0454333;21.2965;0.046956;96.0147;141.015;-0.0149542;-0.00233026;0.0216406;-0.00674443;0.0641717;0.0529247;0.0607114;0;0.0622079;3.33872
590000;591;27.4133;1.6599;0.0644537;-2.46535;27.274;-1.24008;-0.356871;1.61381;-0.653205;-1.34999;-0.309691;-0.4978;1.4718;-5.97074;-0.00548628;-0.00548806;0.0679714;0.0683792;-0.00589403;0.0371366;0.0807145;12.3893;0.0476724;0.0495155;11.6014;0.0861963;99.3855;144.386;-0.0192611;-0.00553333;0.0005624;-0.0111222;0.0679854;0.0371037;0.0115612;0;0.0789582;-1.71456;-1.96138;-1.13279;2.84077;-7.21834;-0.00099508;0.00807273;0.063761;0.0647522;-0.00198628;0.0333692;0.0156064;64.0762;0.0438452;0.0444923;32.5996;0.0306752;94.7455;139.745;-0.0182985;-0.00097813;0.0226247;-0.00559484;0.063551;0.0432785;0.0828983;0;0.0542664;3.33828
591000;592;27.419;1.66562;0.0646759;-2.46731;27.2795;-1.24356;-0.35883;1.61923;-0.656687;-1.34915;-0.305259;-0.495731;1.4694;-5.97591;-0.00519483;-0.00496708;0.0709303;0.071253;-0.00551756;0.0383853;0.0732386;13.654;0.0494439;0.0511804;12.9139;0.0774362;98.3436;143.344;-0.0264865;-0.00523571;0.000769413;-0.0102957;0.0709415;0.0510219;-0.00502434;0;0.0773329;-1.71482;-1.96543;-1.13476;2.8445;-7.22011;-0.000851717;0.00835986;0.0638382;0.0649011;-0.0019146;0.0334078;0.0133418;74.9523;0.0439195;0.0445438;33.898;0.0295002;95.2512;140.251;-0.02064;-0.00083699;0.0240315;-0.00636057;0.0635996;0.0413103;0.0701652;0;0.0529895;3.33747
592000;593;27.429;1.67555;0.0650614;-2.47065;27.2893;-1.24086;-0.362173;1.62903;-0.653989;-1.35028;-0.301723;-0.504335;1.47264;-5.98451;-0.00516728;-0.0053965;0.0715047;0.0718827;-0.00554524;0.0387139;0.0722648;13.838;0.049873;0.0516186;12.9629;0.077143;98.4836;143.484;-0.0252394;-0.00520909;0.000205912;-0.0105979;0.0715183;0.0508351;-0.00982159;0;0.0823288;-1.71655;-1.96937;-1.14406;2.85199;-7.22513;-0.00323712;0.00767181;0.066761;0.067592;-0.00406809;0.03583;0.0484882;20.6236;0.0464767;0.0477734;16.6152;0.060186;95.0877;140.088;-0.00481268;-0.00322279;0.0217715;-0.00550397;0.0665664;0.0107797;0.0347721;0;0.06167;3.34115
593000;594;27.4387;1.68527;0.0654388;-2.47119;27.2984;-1.25311;-0.362712;1.63819;-0.666241;-1.35047;-0.299751;-0.504962;1.47262;-5.98514;-0.00510157;-0.00496365;0.0722304;0.0725477;-0.00541887;0.0389833;0.0706291;14.1585;0.0502689;0.0519777;13.388;0.0746939;97.8646;142.865;-0.0223144;-0.0051385;0.0003617;-0.00990481;0.0722419;0.0502546;-0.00509716;0;0.0843757;-1.71926;-1.98053;-1.14435;2.86145;-7.23108;-0.00445084;0.00709424;0.0690864;0.0697645;-0.00512898;0.0374467;0.0644242;15.5221;0.0483102;0.049929;13.602;0.0735184;98.016;143.016;0.0136595;-0.00446933;0.0247357;-0.00933558;0.0688237;0.0217812;0.0642873;0;0.0540366;3.34379
594000;595;27.4545;1.70109;0.0660529;-2.47136;27.3154;-1.22904;-0.362885;1.65516;-0.642165;-1.35022;-0.299363;-0.50188;1.47126;-5.98008;-0.00501005;-0.00615952;0.0716811;0.0721727;-0.00550161;0.0388372;0.0698935;14.3075;0.0500499;0.0517829;13.1185;0.0762284;99.4473;144.447;-0.0245652;-0.00506182;-5.44673e-06;-0.011873;0.0716988;0.0451371;-0.00653641;0;0.0883839;-1.71825;-1.9875;-1.14517;2.866;-7.22747;-0.00310419;0.00738043;0.0648651;0.0656573;-0.00389636;0.0347768;0.0478561;20.896;0.0451264;0.0463691;16.8509;0.0593439;94.3581;139.358;-0.0108747;-0.00308678;0.0200109;-0.00444485;0.0647027;0.0339088;0.0545566;0;0.0618158;3.34301
595000;596;27.4402;1.68677;0.065497;-2.46781;27.2983;-1.29638;-0.359335;1.63804;-0.70678;-1.34998;-0.294846;-0.501272;1.46992;-5.98123;-0.00469907;-0.00540827;0.0722496;0.0726278;-0.00507732;0.0388526;0.0650394;15.3753;0.0501967;0.0518034;14.3043;0.0699088;98.5275;143.527;-0.0270599;-0.00474261;0.000364888;-0.010767;0.0722631;0.0505753;-0.00674848;0;0.083023;-1.7191;-1.99275;-1.14871;2.87157;-7.2341;-0.00242679;0.00685201;0.0653163;0.0660024;-0.0031129;0.0345577;0.0371545;26.9146;0.0450751;0.0460769;21.2028;0.0471635;95.0492;140.049;-0.00831686;-0.00241874;0.0201028;-0.00555723;0.0651486;0.0411106;0.0487841;0;0.0505595;3.34296
596000;597;27.4507;1.69727;0.0659044;-2.46834;27.3088;-1.29526;-0.359863;1.6486;-0.705661;-1.34919;-0.291256;-0.504727;1.46966;-5.98469;-0.00450843;-0.00494327;0.0707082;0.0710317;-0.00483191;0.0379318;0.063761;15.6836;0.0490445;0.0505757;14.7005;0.0680247;97.805;142.805;-0.0329295;-0.0045429;0.000116164;-0.00964718;0.0707196;0.0593504;-0.0193572;0;0.0784841;-1.72063;-1.99954;-1.15618;2.88019;-7.24176;-0.00189908;0.0072371;0.0653176;0.0660879;-0.00266945;0.0343787;0.0290745;34.3943;0.0449749;0.0458383;24.7571;0.0403925;95.705;140.705;-0.0131163;-0.00189471;0.022013;-0.00660787;0.0651147;0.069052;0.0405158;0;0.076919;3.34305
597000;598;27.4687;1.71528;0.066604;-2.47693;27.3278;-1.25861;-0.368452;1.66758;-0.671737;-1.34871;-0.290145;-0.508479;1.47029;-5.98668;-0.0047834;-0.00582132;0.0737503;0.0741795;-0.00521256;0.039696;0.0648594;15.418;0.0512789;0.052928;14.2309;0.0702696;98.92;143.92;-0.0243191;-0.00483293;0.000316207;-0.0115098;0.0737661;0.0459439;-0.0177901;0;0.0887934;-1.72042;-2.00457;-1.15811;2.88433;-7.24028;-0.00258478;0.00804417;0.065351;0.0662905;-0.00352429;0.0349074;0.0395523;25.283;0.045414;0.0465432;18.8096;0.0531643;94.821;139.821;-0.0129568;-0.0025662;0.0222515;-0.00525859;0.065149;0.0515691;0.0469179;0;0.0673077;3.34306
598000;599;27.4651;1.71166;0.0664633;-2.46863;27.3225;-1.31056;-0.360155;1.66231;-0.72096;-1.34955;-0.287689;-0.508706;1.47066;-5.98319;-0.0038773;-0.00448602;0.0704891;0.0707588;-0.00414694;0.0374529;0.0550057;18.1799;0.0486138;0.0499371;17.0629;0.0586067;98.0319;143.032;-0.0250845;-0.00391593;0.00128128;-0.00985253;0.0704978;0.0401112;0.00466446;0;0.0834259;-1.72064;-2.00891;-1.15652;2.88684;-7.23582;-0.0030053;0.00801585;0.0652673;0.0661959;-0.00393381;0.0350648;0.046046;21.7174;0.0454986;0.0467531;16.8274;0.0594268;93.9887;138.989;-0.0131174;-0.00298129;0.0209033;-0.0040468;0.0650924;0.0124107;0.036504;0;0.0559777;3.34315
599000;600;27.4909;1.7375;0.0674668;-2.47462;27.3504;-1.25868;-0.366146;1.69015;-0.670239;-1.34922;-0.286956;-0.510117;1.4707;-5.98305;-0.00489032;-0.00431757;0.0715025;0.0717457;-0.00513356;0.0384396;0.0683937;14.6212;0.0496302;0.0512529;13.9758;0.0715522;97.793;142.793;-0.0166404;-0.00492774;0.00142471;-0.00965034;0.0715102;0.0370244;0.00483645;0;0.0895033;-1.72229;-2.01775;-1.15685;2.89412;-7.23706;-0.00141651;0.00754529;0.0659785;0.0668129;-0.00225092;0.0345319;0.0214693;46.5782;0.0453109;0.0460425;29.6825;0.0336899;95.8714;140.871;-0.0266547;-0.00141326;0.0231796;-0.00710218;0.0657531;0.0465766;0.0603975;0;0.0675298;3.3445
600000;601;27.4806;1.72708;0.067062;-2.47046;27.338;-1.30975;-0.361981;1.67772;-0.718579;-1.35031;-0.284079;-0.506207;1.46979;-5.98069;-0.00409933;-0.0043922;0.0725622;0.072813;-0.00435015;0.0385816;0.0564941;17.701;0.0500551;0.0514421;16.738;0.0597442;97.9386;142.939;-0.025116;-0.00413987;0.00164956;-0.010002;0.0725699;0.0323866;0.00335303;0;0.0838218;-1.72313;-2.02347;-1.1575;2.89886;-7.23873;-0.00156881;0.0073259;0.066497;0.0672766;-0.00234837;0.0348125;0.0235922;42.3868;0.045654;0.0464166;28.6482;0.0349062;96.0342;141.034;-0.0179068;-0.00156863;0.0229487;-0.00730131;0.0662753;0.0276955;0.02285;0;0.0698682;3.34573
601000;602;27.488;1.73449;0.0673496;-2.4722;27.345;-1.31385;-0.36372;1.68481;-0.722679;-1.34924;-0.280803;-0.511485;1.47001;-5.98597;-0.00407344;-0.00375236;0.0702127;0.0704018;-0.0042625;0.0373321;0.0580157;17.2367;0.0484179;0.0497762;16.5165;0.0605453;97.3425;142.343;-0.0234746;-0.00410633;0.00180245;-0.00892151;0.0702178;0.0341244;0.00307216;0;0.0792228;-1.72414;-2.03055;-1.16275;2.90651;-7.24685;-0.00358846;0.00634602;0.0697542;0.0702992;-0.0041335;0.0372164;0.0514443;19.4385;0.048303;0.0496218;17.0072;0.0587987;96.2167;141.217;-0.0102577;-0.00359411;0.0208653;-0.00717897;0.0695695;0.0086518;0.0117189;0;0.0670442;3.34827
602000;603;27.5101;1.75664;0.06821;-2.46824;27.3695;-1.27503;-0.359762;1.70924;-0.685427;-1.34862;-0.276095;-0.511407;1.46852;-5.99137;-0.00418123;-0.00490058;0.0736358;0.0739432;-0.00448864;0.0392159;0.0567826;17.611;0.0508578;0.0522879;16.4734;0.0607038;97.9343;142.934;-0.0315952;-0.00422129;0.000800364;-0.0101882;0.0736467;0.0429538;-0.0204413;0;0.0801701;-1.725;-2.03719;-1.16474;2.91245;-7.24988;-0.00519421;0.0065875;0.0717678;0.0723275;-0.00575399;0.0390408;0.0723753;13.8169;0.0502463;0.0520544;12.57;0.0795547;97.9606;142.961;0.0172992;-0.00521649;0.0237728;-0.00936535;0.0715243;0.0255955;0.0639694;0;0.0527603;3.34891
603000;604;27.5224;1.76901;0.0686904;-2.48281;27.3808;-1.26986;-0.374335;1.72053;-0.68299;-1.34812;-0.273546;-0.514344;1.4686;-5.99254;-0.0042423;-0.00471589;0.074339;0.074621;-0.0045243;0.0395726;0.057067;17.5233;0.0513219;0.0527635;16.4934;0.0606304;97.6706;142.671;-0.0299843;-0.00428066;0.000911763;-0.0099318;0.0743489;0.0536498;-0.00937402;0;0.0912564;-1.72479;-2.04098;-1.17063;2.91734;-7.25293;-0.00283943;0.00820578;0.0672048;0.0681533;-0.00378791;0.0359706;0.0422504;23.6684;0.0467493;0.0479608;17.9923;0.0555792;94.7866;139.787;-0.00714428;-0.00281974;0.0226552;-0.00529677;0.0669959;0.031909;0.0656692;0;0.0522728;3.34749
604000;605;27.5185;1.76506;0.0685369;-2.47635;27.3757;-1.3069;-0.367875;1.71547;-0.717297;-1.34878;-0.270606;-0.515883;1.46921;-5.99037;-0.00445208;-0.00389385;0.0739284;0.0741213;-0.00464505;0.0393832;0.0602216;16.6053;0.0510331;0.0525109;15.9571;0.0626682;97.4617;142.462;-0.0280159;-0.00449007;0.00218425;-0.00952821;0.0739332;0.0476855;0.00720855;0;0.0891189;-1.72562;-2.04621;-1.17334;2.92258;-7.25564;-0.00261285;0.00745619;0.0652054;0.0660154;-0.00342293;0.0347192;0.040071;24.9557;0.0451945;0.0462923;19.2862;0.0518505;94.8596;139.86;-0.017394;-0.00259887;0.0210414;-0.0052653;0.0650236;0.0341267;0.0528556;0;0.0584496;3.34749
605000;606;27.5398;1.78635;0.0693637;-2.48098;27.3974;-1.2899;-0.372503;1.73719;-0.703025;-1.34824;-0.268285;-0.520001;1.46974;-5.99294;-0.004818;-0.00371648;0.0736882;0.0738638;-0.00499355;0.0394287;0.0653836;15.2944;0.0509886;0.0525715;14.7918;0.0676048;97.3261;142.326;-0.0223901;-0.00485448;0.00230343;-0.00929611;0.0736922;0.046685;0.0133883;0;0.091065;-1.72574;-2.05202;-1.17539;2.92754;-7.25132;-0.00218503;0.00820066;0.0648699;0.0658583;-0.00317338;0.0345158;0.0336833;29.6883;0.0450006;0.0460211;20.7533;0.048185;93.6276;138.628;-0.0147266;-0.00215869;0.0210412;-0.00383246;0.0646936;0.0335278;0.0602125;0;0.0577128;3.34749
606000;607;27.5484;1.795;0.0696997;-2.48552;27.4065;-1.27367;-0.37704;1.74624;-0.686795;-1.34722;-0.265058;-0.517198;1.46723;-5.9954;-0.00479831;-0.00479705;0.0764456;0.0767279;-0.00508057;0.0409042;0.0627676;15.9318;0.0529268;0.054539;15.1022;0.0662155;97.5356;142.536;-0.0266907;-0.00483723;0.000855793;-0.0100231;0.076456;0.0564593;-0.0117912;0;0.0901976;-1.72666;-2.06046;-1.17694;2.93463;-7.26129;-0.00141843;0.00789035;0.0652635;0.0661844;-0.00233936;0.0342619;0.0217339;46.011;0.044923;0.0456825;28.2916;0.0353461;94.2769;139.277;-0.011985;-0.00139947;0.0215734;-0.00493747;0.0650742;0.0396435;0.0354495;0;0.0620943;3.34778
607000;608;27.5563;1.80288;0.0700055;-2.48432;27.4141;-1.28285;-0.375837;1.75383;-0.695977;-1.34763;-0.263478;-0.521584;1.46887;-5.99452;-0.00515575;-0.0045485;0.0730078;0.0732716;-0.00541955;0.0393456;0.0706191;14.1605;0.0507508;0.0524608;13.5199;0.0739651;97.5504;142.55;-0.0198597;-0.0051914;0.000869599;-0.0095718;0.0730171;0.0396896;0.0195772;0;0.0913777;-1.7273;-2.06559;-1.17997;2.93982;-7.25928;-0.00345992;0.00821253;0.0681414;0.0690713;-0.0043898;0.0367305;0.0507755;19.6945;0.0475783;0.0489741;15.7345;0.0635546;93.7449;138.745;-0.0122449;-0.00343335;0.0210944;-0.00380699;0.0679647;0.00952344;0.0475008;0;0.0589704;3.34879
608000;609;27.5648;1.81145;0.0703382;-2.48758;27.423;-1.2699;-0.3791;1.76275;-0.683025;-1.3473;-0.261015;-0.522217;1.46835;-5.99515;-0.00496657;-0.00458825;0.0742586;0.0745235;-0.00523141;0.0398774;0.0668821;14.9517;0.0515147;0.0531699;14.2454;0.0701982;97.4843;142.484;-0.0207754;-0.00500286;0.000884335;-0.00965713;0.0742681;0.0502683;0.0095448;0;0.090418;-1.72852;-2.07365;-1.17608;2.94465;-7.2609;-0.000767178;0.00879941;0.0694236;0.07051;-0.0018535;0.0361817;0.0110507;90.4922;0.0476365;0.0482423;38.0416;0.026287;92.3674;137.367;-0.0131206;-0.000732668;0.0213288;-0.00290876;0.0692471;0.0252444;0.0416876;0;0.0491513;3.35044
609000;610;27.5605;1.80705;0.0701674;-2.47645;27.4172;-1.32108;-0.367975;1.75699;-0.731474;-1.34767;-0.255859;-0.518653;1.46652;-5.99861;-0.00494598;-0.00384124;0.074667;0.0748519;-0.00513089;0.0399914;0.0662405;15.0965;0.0516965;0.0533219;14.5885;0.0685471;96.3989;141.399;-0.027734;-0.004973;0.000950049;-0.0082775;0.0746735;0.0567593;-0.00552737;0;0.0945388;-1.72999;-2.07882;-1.18311;2.95196;-7.26994;-0.00265645;0.00782545;0.0709442;0.071767;-0.00347928;0.0376231;0.0374443;26.7064;0.0490456;0.0501642;20.627;0.0484802;93.5207;138.521;-0.00745763;-0.0026336;0.0204745;-0.00395531;0.070777;-0.000562851;0.00292266;0;0.0736058;3.35194
610000;611;27.582;1.82859;0.0710039;-2.49021;27.4395;-1.28109;-0.381735;1.77927;-0.692643;-1.34746;-0.254849;-0.517695;1.46581;-5.99589;-0.00533017;-0.00379506;0.0774053;0.077579;-0.00550388;0.0415415;0.0688605;14.5221;0.0536482;0.0553886;14.0953;0.0709455;96.0596;141.06;-0.0262766;-0.00535607;0.00088938;-0.00811971;0.0774116;0.0607355;-0.00353991;0;0.0899491;-1.73196;-2.08924;-1.18282;2.96035;-7.26836;-0.00507577;0.00626203;0.073655;0.0741499;-0.00557072;0.0398603;0.0689128;14.5111;0.0513909;0.0531471;13.3106;0.0751278;98.6805;143.68;0.0129651;-0.00511409;0.0246138;-0.0107458;0.0733911;0.0318314;0.0359284;0;0.0673699;3.3535
611000;612;27.5928;1.83944;0.0714252;-2.48804;27.4499;-1.29471;-0.379565;1.78969;-0.707836;-1.34804;-0.251769;-0.520762;1.4669;-5.99896;-0.00502628;-0.00387292;0.0773143;0.0774961;-0.00520805;0.0413521;0.065011;15.382;0.0534847;0.0551361;14.8801;0.067204;96.1991;141.199;-0.0257819;-0.00505341;0.00092618;-0.00830515;0.0773209;0.0523946;-0.00541052;0;0.093988;-1.7315;-2.09104;-1.1904;2.96439;-7.2727;-0.00256659;0.00841704;0.0692516;0.0702249;-0.00353987;0.0368824;0.0370618;26.982;0.04804;0.0491765;19.8383;0.0504076;94.1026;139.103;-0.00440658;-0.00254191;0.0224219;-0.00464855;0.0690496;0.0298016;0.058821;0;0.0652157;3.35183
612000;613;27.6102;1.8568;0.0720992;-2.48833;27.4677;-1.28738;-0.379849;1.80746;-0.70051;-1.3481;-0.247721;-0.523733;1.46732;-6.00193;-0.00503488;-0.0047887;0.0796557;0.0799256;-0.00530479;0.0426152;0.063208;15.8208;0.0551371;0.0568203;15.0667;0.0663716;96.9587;141.959;-0.0224139;-0.0050702;0.000491614;-0.00965471;0.0796662;0.0469948;0.0020843;0;0.0901657;-1.73241;-2.09861;-1.19193;2.97087;-7.27423;-0.00235026;0.00861227;0.0683133;0.0693478;-0.00338476;0.0363663;0.0344042;29.0662;0.0474004;0.0484884;20.4883;0.0488084;93.6865;138.686;-0.00850011;-0.00232151;0.0222211;-0.00409771;0.0681169;0.0451348;0.0597764;0;0.058453;3.35202
613000;614;27.6124;1.85905;0.0721865;-2.49216;27.4699;-1.28151;-0.383676;1.80965;-0.694641;-1.34745;-0.248024;-0.524296;1.46698;-5.99794;-0.00504038;-0.00319207;0.0767744;0.0768987;-0.00516474;0.0410317;0.0656519;15.2318;0.0530712;0.054709;14.8892;0.0671628;95.485;140.485;-0.0187602;-0.00506178;0.00121481;-0.00726405;0.0767784;0.063448;0.0169222;0;0.0964623;-1.73253;-2.10404;-1.19448;2.97581;-7.27678;-0.0025764;0.00856387;0.0674196;0.0684522;-0.00360894;0.0360305;0.0382144;26.1681;0.0468841;0.0480407;18.9674;0.0527221;93.1668;138.167;-0.00864964;-0.00254505;0.021244;-0.00328591;0.0672426;0.0355361;0.0562552;0;0.0612385;3.35193
614000;615;27.6218;1.86837;0.0725484;-2.48953;27.4786;-1.29979;-0.381055;1.81839;-0.712915;-1.34809;-0.247314;-0.519757;1.46583;-5.9954;-0.00538934;-0.00259173;0.0777003;0.0777811;-0.0054701;0.0416256;0.0693606;14.4174;0.0537702;0.0555008;14.2193;0.0703269;94.7637;139.764;-0.0165968;-0.0054062;0.00147534;-0.0063452;0.0777024;0.062702;0.0134375;0;0.0872463;-1.73417;-2.11126;-1.19039;2.98023;-7.27269;-0.00266889;0.00872739;0.0674884;0.0685578;-0.00373826;0.036148;0.0395459;25.2871;0.0470009;0.0481974;18.3395;0.0545271;92.4419;137.442;-0.00874191;-0.00263343;0.0205642;-0.00233252;0.067326;0.0322364;0.0571235;0;0.0587317;3.35161
615000;616;27.6298;1.87636;0.0728588;-2.4946;27.4871;-1.27979;-0.386125;1.82691;-0.692923;-1.34636;-0.244015;-0.528013;1.46664;-6.00165;-0.00530868;-0.00353922;0.0756462;0.0758007;-0.00546312;0.0406319;0.0701778;14.2495;0.0524497;0.0541758;13.875;0.0720722;95.5291;140.529;-0.0223122;-0.00532884;0.000478457;-0.00725446;0.0756519;0.0630336;0.00758058;0;0.0874042;-1.73387;-2.119;-1.20067;2.98966;-7.28574;-0.00085262;0.00933748;0.0689344;0.0701622;-0.00208037;0.0361213;0.0123686;80.8502;0.0474834;0.0481617;33.7258;0.0296509;93.404;138.404;-0.0147013;-0.000818229;0.0239225;-0.00429704;0.0687075;0.0429941;0.0567734;0;0.0652193;3.35311
616000;617;27.6371;1.88371;0.073144;-2.49154;27.4938;-1.30165;-0.383061;1.83354;-0.714781;-1.34703;-0.242527;-0.524154;1.46562;-5.9978;-0.00495652;-0.00327194;0.0748878;0.0750217;-0.00509038;0.040056;0.0661859;15.1089;0.0517947;0.053408;14.7379;0.0678521;95.2148;140.215;-0.0172274;-0.00497419;0.000509488;-0.00677244;0.0748927;0.0560254;0.0184978;0;0.0961173;-1.73435;-2.12811;-1.19682;2.99486;-7.28646;-0.00137702;0.00837689;0.0713772;0.0723292;-0.00232907;0.0373292;0.0192922;51.8345;0.0490143;0.0497722;31.0549;0.032201;93.3065;138.306;-0.0077313;-0.00135024;0.0217444;-0.00408409;0.0711893;0.0166829;0.0484294;0;0.0573837;3.3535
617000;618;27.6332;1.87973;0.0729894;-2.48427;27.4888;-1.33757;-0.375796;1.82854;-0.747967;-1.34457;-0.234385;-0.525056;1.46236;-6.00502;-0.00371062;-0.00381091;0.0767951;0.076975;-0.00389062;0.0404328;0.0483185;20.696;0.0526615;0.0539104;19.7848;0.0505439;95.939;140.939;-0.0215897;-0.00373497;0.000652274;-0.00794035;0.0768016;0.0400498;0.00104345;0;0.0929721;-1.73338;-2.13163;-1.20013;2.99813;-7.28599;-0.00192468;0.00890565;0.0736518;0.074687;-0.00295991;0.0388235;0.0261322;38.2669;0.0508067;0.0517646;25.2328;0.0396309;93.3451;138.345;-0.00905742;-0.00189346;0.0229157;-0.00411969;0.0734441;0.0574043;0.0774088;0;0.0651414;3.35766
618000;619;27.6546;1.90122;0.073824;-2.49411;27.5112;-1.29947;-0.385628;1.85102;-0.712596;-1.34467;-0.231165;-0.529671;1.4636;-6.00787;-0.00370822;-0.00466108;0.0793701;0.0796308;-0.00396891;0.0417999;0.0467206;21.4039;0.0544584;0.0557332;20.0637;0.0498413;96.5194;141.519;-0.0173673;-0.00373839;9.10732e-05;-0.00904738;0.0793802;0.0420595;0.00510212;0;0.091004;-1.73562;-2.13941;-1.20417;3.00657;-7.29457;-0.00504219;0.00716562;0.0761752;0.0768025;-0.00566955;0.041236;0.0661921;15.1075;0.0531924;0.0549814;13.5465;0.0738199;97.0645;142.064;0.0149544;-0.00505485;0.0243769;-0.00874849;0.0759229;0.0124435;0.063946;0;0.0629415;3.35682
619000;620;27.6646;1.91121;0.074212;-2.49805;27.5213;-1.29165;-0.389566;1.86107;-0.704783;-1.34517;-0.228386;-0.529456;1.46355;-6.00765;-0.00327074;-0.00467543;0.0783455;0.0786125;-0.0035377;0.0410751;0.0417476;23.9535;0.0536265;0.0547668;22.2213;0.0450018;96.3644;141.364;-0.0179728;-0.00329806;-0.000282207;-0.00873607;0.0783556;0.0344667;0.00375696;0;0.0970198;-1.73739;-2.14444;-1.2054;3.01167;-7.29055;-0.00519764;0.00755789;0.0762516;0.076947;-0.00589302;0.04142;0.0681643;14.6704;0.0533709;0.0552267;13.0573;0.0765854;96.8428;141.843;0.020875;-0.00520425;0.0248023;-0.00838336;0.0759923;0.0287693;0.0604086;0;0.0589538;3.35593
620000;621;27.6747;1.92135;0.0746056;-2.49956;27.5314;-1.29115;-0.391083;1.87115;-0.704274;-1.34548;-0.22551;-0.532291;1.46441;-6.01049;-0.00439874;-0.00468904;0.0802469;0.0805059;-0.0046577;0.0425818;0.054815;18.2432;0.0552886;0.0567757;17.2845;0.0578554;96.5151;141.515;-0.0192736;-0.00442957;0.000130692;-0.00913102;0.0802571;0.0496926;-0.00198662;0;0.0958711;-1.73786;-2.14838;-1.21066;3.01684;-7.29296;-0.00248102;0.00895793;0.0718482;0.0729125;-0.00354536;0.0382289;0.0345314;28.9592;0.0498322;0.0509719;20.5656;0.0486249;92.9927;137.993;-0.0092977;-0.00244641;0.0221778;-0.00334649;0.0716561;0.0366815;0.0610005;0;0.0549432;3.35432
621000;622;27.6848;1.93141;0.0749963;-2.49995;27.5412;-1.29663;-0.39147;1.88097;-0.709759;-1.34683;-0.22451;-0.532885;1.46571;-6.00471;-0.00330266;-0.00648975;0.0789536;0.0794625;-0.00381153;0.041637;0.0418303;23.9061;0.0542901;0.055516;20.8479;0.0479664;98.2578;143.258;-0.0178812;-0.00334773;-0.00107965;-0.0114872;0.0789726;0.0434734;0.0124061;0;0.0948148;-1.73912;-2.15496;-1.21104;3.02242;-7.29443;-0.00220371;0.00903917;0.0691897;0.0703164;-0.00333039;0.0368234;0.0318503;31.3969;0.0480262;0.0490978;21.1136;0.0473629;91.6166;136.617;-0.0125981;-0.00216386;0.0203092;-0.00147926;0.069035;0.0321094;0.0654241;0;0.0607822;3.35461
622000;623;27.6806;1.92715;0.0748306;-2.49095;27.536;-1.33357;-0.38247;1.8758;-0.743962;-1.34651;-0.220845;-0.532582;1.46475;-6.00707;-0.00442595;-0.00481437;0.0784353;0.0787141;-0.00470473;0.0417094;0.056428;17.7217;0.0541125;0.0556126;16.7308;0.0597699;97.0857;142.086;-0.0189372;-0.00446151;0.000471931;-0.00969439;0.078446;0.0317258;0.0158588;0;0.0935912;-1.73929;-2.16288;-1.21689;3.03051;-7.30227;-0.00225067;0.00731271;0.0714482;0.0721668;-0.00296926;0.037568;0.0315007;31.7453;0.0491308;0.0500907;24.3046;0.0411445;94.0562;139.056;-0.00891384;-0.00223555;0.0203488;-0.00482776;0.0712799;0.0325039;0.058242;0;0.048979;3.35468
623000;624;27.6912;1.93777;0.0752432;-2.49398;27.5464;-1.33345;-0.385496;1.88621;-0.743851;-1.34677;-0.218108;-0.534972;1.46545;-6.00946;-0.00414512;-0.00414834;0.0776794;0.0778892;-0.0043549;0.041122;0.0533619;18.74;0.0534369;0.0548294;17.8854;0.0559114;95.9537;140.954;-0.020356;-0.00416921;9.94841e-05;-0.00807357;0.0776874;0.0447869;0.00878369;0;0.101725;-1.74046;-2.16788;-1.21835;3.03534;-7.29843;-0.00258102;0.00952118;0.0720612;0.0732566;-0.00377638;0.0385165;0.0358171;27.9196;0.0501439;0.0513553;19.3986;0.05155;91.932;136.932;-0.0171413;-0.00253735;0.0217711;-0.00187701;0.0718824;0.0136953;0.0706677;0;0.0557199;3.35472
624000;625;;;;;;;;;;-1.34604;-0.216541;-0.533817;1.46413;-6.00665;-0.00380821;-0.00348897;0.0786223;0.0787698;-0.00395562;0.0413627;0.0484367;20.6455;0.0538801;0.0551503;19.9134;0.0502175;95.28;140.28;-0.0114353;-0.00382829;0.000554307;-0.0072232;0.0786278;0.0262552;0.00703694;0;0.106137;-1.73937;-2.17297;-1.22002;3.03902;-7.29902;-0.00195397;0.00923637;0.0713433;0.0724893;-0.00309995;0.0377946;0.0273882;36.512;0.0493919;0.0503928;23.384;0.0427642;92.5803;137.58;-0.0117281;-0.0019155;0.0222845;-0.00292042;0.0711513;0.0316544;0.0638737;0;0.0582785;3.35625
625000;626;27.7037;1.95021;0.0757259;-2.49181;27.5579;-1.35936;-0.383327;1.89768;-0.768185;-1.34445;-0.211994;-0.53926;1.464;-6.01375;-0.00462804;-0.0037942;0.0811234;0.081291;-0.00479559;0.0430433;0.0570493;17.5287;0.0558612;0.057391;16.9512;0.0589929;95.1652;140.165;-0.0204857;-0.00464764;2.2939e-05;-0.00730852;0.0811301;0.0426454;0.00896331;0;0.100979;-1.74018;-2.18124;-1.22041;3.04556;-7.30401;-0.000696443;0.0091713;0.0744974;0.0755999;-0.00179889;0.0386994;0.00934856;106.968;0.0510101;0.0515992;42.0258;0.0237949;92.5678;137.568;-0.00590708;-0.000660285;0.0227319;-0.0034417;0.0742961;0.0216202;0.0454898;0;0.0608323;3.35922
626000;627;27.7229;1.9695;0.0764755;-2.50077;27.5782;-1.32296;-0.392288;1.91793;-0.736083;-1.34402;-0.209346;-0.541707;1.46412;-6.01464;-0.00432466;-0.00317474;0.082085;0.0822015;-0.00444114;0.0433213;0.0526851;18.9807;0.0563398;0.0577618;18.5091;0.0540275;94.845;139.845;-0.0151343;-0.00434346;0.000867734;-0.00689435;0.0820893;0.0383909;0.0201294;0;0.108551;-1.74269;-2.18831;-1.22717;3.05477;-7.3173;-0.00417686;0.00847383;0.0768317;0.0777086;-0.00505376;0.0413812;0.0543637;18.3946;0.0535699;0.0551749;15.3764;0.0650347;95.9462;140.946;0.0199725;-0.00416882;0.0257122;-0.00746983;0.0765581;0.0236691;0.0365102;0;0.0632033;3.35842
627000;628;;;;;;;;;;-1.34515;-0.205844;-0.540579;1.46425;-6.01341;-0.00357874;-0.00258613;0.0809515;0.0810305;-0.00365779;0.0423441;0.0442085;22.6201;0.05528;0.0564589;22.1529;0.0451409;94.443;139.443;-0.0189412;-0.0035948;0.00135616;-0.00622011;0.0809537;0.0391271;0.021915;0;0.111184;-1.74273;-2.19395;-1.22573;3.05826;-7.31246;-0.00487039;0.0074618;0.0780135;0.0786799;-0.00553679;0.0421083;0.0624301;16.0179;0.0543929;0.0561445;14.2104;0.0703711;96.8545;141.855;0.0137368;-0.00488077;0.0250079;-0.00873716;0.0777492;0.0214661;0.0677316;0;0.06147;3.35969
628000;629;27.7334;1.97993;0.0768803;-2.49954;27.5879;-1.34172;-0.391066;1.92769;-0.75212;-1.3441;-0.204559;-0.543945;1.46436;-6.01375;-0.00437446;-0.00140123;0.0769451;0.0769693;-0.0043986;0.0406839;0.0568517;17.5896;0.0528401;0.0542453;17.4986;0.0571475;93.5725;138.573;-0.020168;-0.00438444;0.00213591;-0.00467126;0.0769439;0.0487826;0.0278627;0;0.101443;-1.74223;-2.19752;-1.22897;3.06184;-7.3111;-0.0028988;0.00838312;0.0747179;0.075613;-0.00379391;0.0397035;0.0387965;25.7755;0.0517197;0.052938;19.9301;0.0501753;93.508;138.508;-0.00550946;-0.00287206;0.0218553;-0.00411739;0.0745284;0.0323749;0.0749468;0;0.0523134;3.35979
629000;630;;;;;;;;;;-1.34579;-0.201168;-0.545803;1.46612;-6.01396;-0.00289972;-0.00130877;0.0766117;0.0766332;-0.00292125;0.0397772;0.0378495;26.4204;0.0520899;0.0530363;26.233;0.0381199;92.7053;137.705;-0.0102124;-0.00290526;0.00113578;-0.00357277;0.0766119;0.0332048;0.0424551;0;0.107119;-1.74354;-2.20314;-1.23238;3.06798;-7.31468;-0.00236203;0.00946806;0.0733627;0.0745286;-0.0035279;0.0390282;0.0321966;31.0591;0.0509025;0.0520377;21.1255;0.0473362;91.985;136.985;-0.00947583;-0.00231925;0.021879;-0.00206847;0.0731815;0.036094;0.0670124;0;0.0495992;3.35892
630000;631;;;;;;;;;;-1.34531;-0.196399;-0.549853;1.46655;-6.01801;-0.0030927;-0.00132584;0.0765064;0.0765285;-0.00311478;0.0398216;0.0404241;24.7377;0.0520883;0.0530955;24.5695;0.0407009;92.8663;137.866;-0.011048;-0.00309896;0.00131604;-0.00377237;0.0765064;0.0451197;0.0304555;0;0.103909;-1.74438;-2.20944;-1.23834;3.07538;-7.32233;-0.0025367;0.0086408;0.0729201;0.073897;-0.00351354;0.0387053;0.0347874;28.746;0.0504766;0.051607;21.032;0.0475465;93.0339;138.034;-0.00450782;-0.00250524;0.0216445;-0.0034496;0.0727366;0.0371814;0.0690076;0;0.0538724;3.35772
631000;632;27.7632;2.00979;0.0780395;-2.50137;27.6173;-1.35054;-0.392894;1.9571;-0.760933;-1.34332;-0.189591;-0.548042;1.46315;-6.02253;-0.00383971;-0.00341949;0.0805097;0.0806481;-0.00397811;0.0423131;0.0476925;20.9677;0.0551393;0.0564175;20.273;0.0493267;94.7916;139.792;-0.027985;-0.00385655;0.000166888;-0.00672586;0.0805151;0.0480327;0.0166574;0;0.104352;-1.74452;-2.21673;-1.23842;3.08073;-7.32241;-0.00291718;0.00896474;0.0722907;0.0733445;-0.003971;0.0386578;0.0403534;24.781;0.0502723;0.0515437;18.47;0.0541418;91.9552;136.955;-0.0071869;-0.00287857;0.0205823;-0.00183903;0.0721306;0.036524;0.0701721;0;0.0513294;3.35964
632000;633;27.7871;2.03371;0.0789687;-2.50736;27.6423;-1.31981;-0.398878;1.98203;-0.732937;-1.34313;-0.187353;-0.54758;1.46252;-6.02051;-0.00408035;-0.00332734;0.0803959;0.0805268;-0.0042112;0.042369;0.0507531;19.7032;0.0551419;0.056492;19.1221;0.0522956;94.5984;139.598;-0.0237146;-0.00409566;5.71561e-05;-0.00644717;0.0804011;0.0438871;0.0199027;0;0.100342;-1.74653;-2.22503;-1.24185;3.08923;-7.33279;-0.00263819;0.00848543;0.0757201;0.0766285;-0.00354655;0.0400875;0.0348414;28.7015;0.0523079;0.05345;21.6065;0.0462824;92.5631;137.563;-0.00499843;-0.00260637;0.020785;-0.00291929;0.0755528;0.0475986;0.0444179;0;0.0608561;3.35922
633000;634;;;;;;;;;;-1.34387;-0.182976;-0.541218;1.46027;-6.01854;-0.00296809;-0.00307802;0.0836806;0.0837898;-0.00307729;0.0434336;0.0354692;28.1934;0.0569134;0.0579114;27.2284;0.0367263;93.7685;138.769;-0.0167718;-0.00297862;-0.000423453;-0.00552032;0.0836849;0.0402666;0.0150314;0;0.104733;-1.74609;-2.22897;-1.24137;3.09162;-7.32672;-0.00268183;0.00965736;0.0742129;0.0754072;-0.00387616;0.0396417;0.0361369;27.6725;0.0516121;0.0528556;19.4541;0.0514031;92.4672;137.467;-0.0069366;-0.00263866;0.0229398;-0.0026757;0.0740113;0.0162081;0.0537771;0;0.0661471;3.35997
634000;635;;;;;;;;;;-1.34272;-0.183593;-0.544003;1.46032;-6.01755;-0.00452589;-0.00195371;0.0818436;0.0818878;-0.00457006;0.0432289;0.0552992;18.0834;0.0561772;0.0576386;17.9183;0.0558088;92.9471;137.947;-0.0147916;-0.00453273;0.000460728;-0.00417538;0.0818453;0.0610712;0.0156864;0;0.107435;-1.74808;-2.2381;-1.24448;3.10058;-7.33461;-0.00387205;0.00860063;0.0785589;0.0794467;-0.00475986;0.0421033;0.0492885;20.2887;0.0546203;0.0561377;16.691;0.0599126;96.0739;141.074;0.0249216;-0.00386683;0.0265433;-0.00797299;0.0782665;0.019204;0.0378198;0;0.0763578;3.36206
635000;636;;;;;;;;;;-1.34282;-0.179759;-0.547862;1.46138;-6.02141;-0.00401812;-0.00281441;0.0809107;0.0810039;-0.00411128;0.0425576;0.0496612;20.1365;0.0554239;0.0567434;19.7028;0.0507541;93.5869;138.587;-0.0162927;-0.00402709;-0.000358453;-0.00507739;0.0809143;0.0566785;0.0148144;0;0.101999;-1.74915;-2.24368;-1.2495;3.10723;-7.33962;-0.00450895;0.00826047;0.0791821;0.0799896;-0.00531648;0.0426531;0.0569441;17.5611;0.055184;0.0568707;15.0456;0.0664647;96.2826;141.283;0.0200011;-0.00450796;0.0260379;-0.00814048;0.0788996;0.0218127;0.0410742;0;0.0713867;3.36216
636000;637;;;;;;;;;;-1.34214;-0.172704;-0.549477;1.46051;-6.0277;-0.00382823;-0.00382126;0.0861239;0.086286;-0.00399027;0.0451381;0.0444503;22.4971;0.0588991;0.0601841;21.6241;0.0462447;94.4648;139.465;-0.0173209;-0.00384371;-0.000638288;-0.00674058;0.0861304;0.0417863;0.00449103;0;0.103583;-1.74857;-2.24702;-1.25232;3.11045;-7.34108;-0.00356703;0.00736648;0.0772785;0.0779442;-0.00423277;0.0410885;0.0461581;21.6646;0.0534297;0.0547847;18.4145;0.0543051;94.4216;139.422;-0.00836774;-0.0035546;0.0212007;-0.00543073;0.0770951;0.000828704;0.0126034;0;0.0741221;3.36117
637000;638;;;;;;;;;;-1.34153;-0.171226;-0.554143;1.46153;-6.0292;-0.00397882;-0.00332798;0.0800901;0.0802216;-0.00411036;0.042166;0.0496793;20.1291;0.0549025;0.0562213;19.517;0.0512375;94.0809;139.081;-0.013018;-0.00398978;-0.000716511;-0.00573616;0.080095;0.0430785;0.026268;0;0.0947868;-1.74886;-2.25278;-1.25146;3.11444;-7.33359;-0.00262731;0.00863893;0.0765168;0.0774488;-0.00355931;0.0405041;0.0343364;29.1237;0.052859;0.0540054;21.7595;0.0459569;93.373;138.373;-0.00637218;-0.00259841;0.0224105;-0.00412154;0.0763182;0.0297341;0.0674791;0;0.058206;3.36128
638000;639;;;;;;;;;;-1.3418;-0.167676;-0.553923;1.46129;-6.02898;-0.00366753;-0.00317782;0.0810801;0.0811991;-0.00378652;0.0424928;0.0452334;22.1075;0.055438;0.0566571;21.4442;0.0466326;94.39;139.39;-0.0150025;-0.0036818;0.000109262;-0.00620719;0.0810848;0.0536411;0.0133241;0;0.092354;-1.74884;-2.25765;-1.25025;3.11746;-7.3229;-0.00250926;0.0090491;0.0740423;0.0750974;-0.00356441;0.0393309;0.0338896;29.5076;0.0512944;0.0524412;21.0687;0.0474638;93.3057;138.306;-0.00182219;-0.00247586;0.0229969;-0.003906;0.0738342;0.0362278;0.0400717;0;0.0588862;3.36109
639000;640;;;;;;;;;;-1.34096;-0.15997;-0.560476;1.46216;-6.04026;-0.00333225;-0.0055285;0.086403;0.0867423;-0.00367157;0.045207;0.0385664;25.9293;0.0590901;0.0602759;23.6254;0.0423274;95.9643;140.964;-0.0109142;-0.00335829;-0.00165605;-0.00908102;0.0864158;0.0403395;0.00130061;0;0.103391;-1.74988;-2.26449;-1.25813;3.12616;-7.34212;-0.00236934;0.00852829;0.073701;0.0746454;-0.00331372;0.0389796;0.0321479;31.1062;0.0509041;0.0519728;22.5261;0.0443929;93.7152;138.715;-0.0100039;-0.00234304;0.0225508;-0.00450214;0.0734981;0.0298544;0.0749177;0;0.0625214;3.36171
640000;641;;;;;;;;;;-1.34129;-0.161304;-0.556873;1.46122;-6.03193;-0.00284296;-0.00318542;0.0798276;0.0799502;-0.00296552;0.0414578;0.0356138;28.079;0.0543156;0.0552771;26.9599;0.0370921;94.2235;139.223;-0.0157376;-0.00285531;-0.000249287;-0.00589675;0.0798323;0.0630567;0.0166673;0;0.0970106;-1.75131;-2.27294;-1.26352;3.13526;-7.35259;-0.00126057;0.00909023;0.0764458;0.0774951;-0.0023098;0.0399024;0.0164898;60.6437;0.0524503;0.0532032;33.5506;0.0298057;91.4396;136.44;-0.00302972;-0.0012207;0.0207477;-0.00172675;0.0762843;0.0439293;0.0816076;0;0.0653831;3.3621
641000;642;;;;;;;;;;-1.34173;-0.157239;-0.56375;1.46382;-6.03881;-0.00341734;-0.00375772;0.0822639;0.0824284;-0.00358182;0.0430051;0.0415412;24.0725;0.0561842;0.0573401;23.013;0.0434538;94.3332;139.333;-0.0105785;-0.00342996;-0.00103315;-0.00626657;0.0822699;0.0348056;0.0145924;0;0.0955965;-1.75168;-2.27952;-1.26329;3.14014;-7.3455;-0.00134025;0.00790691;0.0775149;0.0782999;-0.00212527;0.0402126;0.0172902;57.8361;0.0529226;0.0536168;36.8423;0.0271427;93.4104;138.41;-0.00422025;-0.00131953;0.021396;-0.00459618;0.0773315;0.0104693;0.0852357;0;0.059014;3.36347
642000;643;;;;;;;;;;-1.34262;-0.154414;-0.560208;1.46298;-6.03553;-0.00207793;-0.00419006;0.0816056;0.0818149;-0.0022872;0.042051;0.0254631;39.2726;0.0553214;0.056068;35.7707;0.0279558;94.934;139.934;-0.0111812;-0.00209417;-0.00106952;-0.00706914;0.0816132;0.0556179;0.0137263;0;0.0901924;-1.75207;-2.28469;-1.26026;3.1429;-7.33698;-0.00215387;0.00983599;0.07595;0.0771697;-0.00337351;0.0402716;0.028359;35.2621;0.052607;0.0536955;22.8752;0.0437156;92.5912;137.591;-0.00570639;-0.00211021;0.0237849;-0.00310195;0.0757321;0.0156492;0.0558275;0;0.0590737;3.36324
643000;644;;;;;;;;;;-1.34815;-0.146879;-0.564677;1.46899;-6.04446;-0.00259123;-0.00610505;0.0845465;0.0849722;-0.00301689;0.0439945;0.0306486;32.6279;0.0576801;0.0586594;28.1655;0.0355044;96.1784;141.178;-0.0285271;-0.00261531;-0.00270045;-0.00923604;0.0845604;0.052118;-0.0132656;0;0.099799;-1.76214;-2.29587;-1.27039;3.16071;-7.36167;-0.00259235;0.0110749;0.0802378;0.081693;-0.00404756;0.0428703;0.0323083;30.9518;0.0558601;0.0571604;20.1833;0.049546;93.4789;138.479;0.0198258;-0.00254131;0.0280106;-0.00456481;0.0799314;0.0298594;0.050711;0;0.0751634;3.36254
644000;645;;;;;;;;;;-1.34442;-0.145909;-0.564787;1.46552;-6.03903;-0.00188868;-0.00357195;0.0847336;0.0848806;-0.00203572;0.0434582;0.0222896;44.8639;0.0572777;0.0579442;41.6956;0.0239834;94.5843;139.584;-0.0196063;-0.0019054;-7.15699e-05;-0.00679277;0.0847395;0.033205;0.0171883;0;0.101739;-1.75702;-2.29643;-1.27359;3.15955;-7.35667;-0.00146583;0.0102837;0.0783839;0.079687;-0.00276898;0.041228;0.0187007;53.4739;0.0540713;0.0549707;28.7785;0.0347481;90.5365;135.536;-0.0136689;-0.00141296;0.021815;-0.00039499;0.0782122;0.0442203;0.0181705;0;0.0860983;3.36223
645000;646;;;;;;;;;;-1.34444;-0.143419;-0.566445;1.46593;-6.03958;-0.00308532;-0.00432263;0.0844449;0.0846578;-0.00329827;0.0439781;0.0365365;27.3699;0.0575695;0.0586374;25.6673;0.0389601;95.252;140.252;-0.0309507;-0.00310626;-0.000568594;-0.00777362;0.0844534;0.0436247;0.010602;0;0.104186;-1.75894;-2.30455;-1.27149;3.16568;-7.35759;-0.00187765;0.00956688;0.0794489;0.0805591;-0.0029879;0.0417735;0.0236335;42.3129;0.0547293;0.055698;26.9618;0.0370895;91.0551;136.055;-0.0147816;-0.00183238;0.0210755;-0.00107577;0.0792855;0.000243015;0.0552007;0;0.0655879;3.36215
646000;647;;;;;;;;;;-1.34379;-0.137591;-0.566894;1.46495;-6.04161;-0.0034996;-0.00456911;0.0843086;0.0845457;-0.00373671;0.0441412;0.0415094;24.0909;0.0576498;0.058855;22.6257;0.0441975;95.0057;140.006;-0.0163686;-0.00351686;-0.00145149;-0.00743424;0.0843173;0.0390392;0.0148844;0;0.0982802;-1.75732;-2.30819;-1.27125;3.16734;-7.35338;-0.00337029;0.00893202;0.0782832;0.0792489;-0.00433594;0.0417924;0.0430526;23.2274;0.0543356;0.0557232;18.2772;0.054713;93.6809;138.681;-0.00751568;-0.00334029;0.0234293;-0.00446899;0.0780656;0.0296894;0.0707573;0;0.0613459;3.36372
647000;648;;;;;;;;;;-1.34393;-0.13709;-0.569795;1.46616;-6.04427;-0.00159701;-0.00444608;0.0872408;0.0874628;-0.00181897;0.0446409;0.0183058;54.6275;0.0589242;0.0595212;48.0836;0.0207971;94.9389;139.939;-0.0242206;-0.00161572;-0.00105782;-0.00755745;0.0872494;0.0389655;0.00518999;0;0.115196;-1.75799;-2.31498;-1.27589;3.17452;-7.35988;-0.00274757;0.009688;0.0772888;0.0784448;-0.00390355;0.0411742;0.0355493;28.1299;0.0536451;0.0548989;20.0957;0.0497618;92.1992;137.199;2.16126e-05;-0.00270344;0.0227646;-0.00241849;0.0770918;0.0296465;0.068815;0;0.0624469;3.36453
648000;649;;;;;;;;;;-1.34486;-0.127433;-0.574796;1.46809;-6.05614;-0.000222515;-0.00517726;0.086459;0.0867671;-0.000530644;0.0436489;0.00257365;388.553;0.0580225;0.0581985;163.513;0.00611572;95.114;140.114;-0.0214076;-0.000239154;-0.00238069;-0.00775067;0.0864687;0.0581965;0.0121615;0;0.0994149;-1.75868;-2.32137;-1.28095;3.1816;-7.36634;-0.00184537;0.00942032;0.0782869;0.0793794;-0.00293793;0.0411587;0.0235719;42.4233;0.0539256;0.0548782;27.0189;0.0370112;92.1229;137.123;-0.0018944;-0.00180435;0.0224204;-0.002615;0.0780949;0.0400409;0.0709073;0;0.0639664;3.36489
649000;650;;;;;;;;;;-1.34329;-0.126726;-0.57222;1.46558;-6.04718;-0.00266852;-0.00329234;0.0870995;0.0872201;-0.00278911;0.0450046;0.0306376;32.6397;0.0590984;0.0600061;31.2717;0.0319778;93.2438;138.244;-0.0245674;-0.00267551;-0.00145515;-0.00497782;0.0871035;0.0392605;-0.00054392;0;0.10628;-1.75846;-2.32761;-1.28463;3.18751;-7.37001;-0.00235793;0.00882233;0.0782434;0.0791978;-0.00331229;0.041255;0.0301358;33.1831;0.0539365;0.0550067;23.9103;0.041823;92.3885;137.389;-0.00420308;-0.00232303;0.0214501;-0.00286266;0.0780661;0.0286089;0.0744421;0;0.0716349;3.36449
650000;651;;;;;;;;;;-1.3435;-0.125613;-0.572181;1.46566;-6.05164;-0.00241384;0.000296049;0.0881138;0.0881148;-0.00241481;0.0452648;0.0273946;36.5036;0.0595644;0.060353;36.4893;0.0274053;89.2007;134.201;-0.0261005;-0.00241453;-0.000700004;0.00120923;0.0881136;0.0718485;0.00156651;0;0.111389;-1.76016;-2.33858;-1.28074;3.1949;-7.3665;0.00109258;0.00978031;0.0793124;0.0805167;-0.000111769;0.0403142;-0.0137757;-72.5918;0.0537151;0.0537523;720.383;0.00138815;89.4376;134.438;-0.00367681;0.00114021;0.0197406;0.000541038;0.0791761;0.0244149;0.0855537;0;0.0700803;3.3651
651000;652;;;;;;;;;;-1.34392;-0.122103;-0.576992;1.46763;-6.04689;-0.00284831;-0.00348288;0.0860683;0.0862045;-0.00298452;0.0445945;0.0330935;30.2174;0.0584899;0.0594594;28.8839;0.0346214;93.7062;138.706;-0.0131104;-0.002858;-0.00116733;-0.00560885;0.0860733;0.0625224;0.0194696;0;0.097842;-1.76144;-2.34026;-1.28646;3.19913;-7.36285;-0.0020457;0.0111134;0.0799231;0.0814032;-0.00352575;0.0424645;0.0255959;39.0688;0.0554814;0.0566193;23.0882;0.0433121;89.4789;134.479;-0.00118443;-0.0019847;0.0217114;0.00131881;0.0797621;0.0351231;0.050121;0;0.0777975;3.36359
652000;653;;;;;;;;;;-1.34335;-0.120203;-0.579362;1.46789;-6.04779;-0.00298427;-0.00249615;0.084667;0.084738;-0.0030553;0.0438967;0.0352472;28.3711;0.0575375;0.0585289;27.7348;0.0360558;92.8012;137.801;-0.00952668;-0.00298983;-0.000683887;-0.00416195;0.0846697;0.0528728;0.0274991;0;0.105997;-1.76368;-2.34915;-1.28393;3.20586;-7.36838;-0.00255415;0.0106471;0.0828935;0.0842001;-0.00386083;0.0440305;0.0308124;32.4544;0.0574636;0.0587073;21.8088;0.045853;93.1618;138.162;0.0199712;-0.00250629;0.0267961;-0.00422999;0.0826142;0.0214358;0.0916498;0;0.0814714;3.36362
653000;654;;;;;;;;;;-1.34339;-0.11934;-0.576711;1.46681;-6.04245;-0.00321932;-0.00322767;0.0862088;0.0863252;-0.00333566;0.0448304;0.0373432;26.7786;0.0586936;0.0597739;25.8795;0.0386406;93.3025;138.303;-0.0209052;-0.00322671;-0.00127835;-0.0050165;0.0862129;0.0638391;0.0488129;0;0.10225;-1.76502;-2.355;-1.29403;3.21494;-7.38523;-0.00185416;0.0106693;0.0802708;0.0816343;-0.00321762;0.042426;0.0230988;43.2923;0.0555265;0.0565679;25.371;0.0394151;90.1791;135.179;-0.00225224;-0.00179716;0.0219728;0.000223892;0.0801;0.048766;0.0384357;0;0.0984084;3.36514
654000;655;;;;;;;;;;-1.34409;-0.113245;-0.583209;1.46954;-6.05164;-0.0033755;-0.00506776;0.0899619;0.0902362;-0.00364984;0.046943;0.0375214;26.6515;0.0614103;0.0625907;24.7233;0.0404477;95.0978;140.098;-0.0178418;-0.0033954;-0.0017692;-0.00808381;0.0899722;0.0684063;0.0125138;0;0.111625;-1.76508;-2.36246;-1.29276;3.21993;-7.38031;-0.00344;0.00960593;0.0836569;0.0847038;-0.00448686;0.0445953;0.0411203;24.3189;0.0580227;0.0594604;18.8782;0.0529711;93.5669;138.567;0.00975622;-0.00340452;0.0250979;-0.0046428;0.0834089;0.0289079;0.0821506;0;0.0723686;3.36534
655000;656;;;;;;;;;;-1.34204;-0.106657;-0.576481;1.4645;-6.05321;-0.00362511;-0.00132171;0.085537;0.0855566;-0.0036447;0.0446006;0.0423806;23.5957;0.0582906;0.0594675;23.4742;0.0425999;91.8259;136.826;-0.014048;-0.00362793;0.000194925;-0.00271377;0.0855378;0.0826227;0.0279602;0;0.115357;-1.76447;-2.36543;-1.29437;3.22242;-7.3774;-0.000931973;0.0122377;0.0781374;0.0799882;-0.0027827;0.0413854;0.0119274;83.8409;0.0542768;0.0551806;28.7448;0.0347889;88.9376;133.938;-0.0014304;-0.000858709;0.0234628;0.00183453;0.0779516;0.0288411;0.0620027;0;0.0667852;3.36512
656000;657;;;;;;;;;;-1.34149;-0.109119;-0.581017;1.46598;-6.0489;-0.00496599;-0.00305872;0.0887243;0.0888241;-0.00506574;0.0469449;0.055971;17.8664;0.0609748;0.0625932;17.5343;0.0570312;92.8161;137.816;-0.0372359;-0.00497119;-0.00154903;-0.00443848;0.0887275;0.0722236;-0.0062676;0;0.107568;-1.76425;-2.3712;-1.29655;3.22741;-7.38194;-0.00164858;0.00944862;0.0784969;0.0795957;-0.00274745;0.0411716;0.0210019;47.6148;0.0540029;0.0548955;28.9708;0.0345175;91.6354;136.635;0.00470128;-0.0016058;0.0217741;-0.00196211;0.0783184;0.027216;0.0591619;0;0.0681038;3.36632
657000;658;;;;;;;;;;-1.34107;-0.0970597;-0.582499;1.46533;-6.06118;-0.00259625;-0.0064831;0.0901561;0.0906071;-0.00304721;0.0468272;0.0287973;34.7255;0.0614457;0.0624362;29.7345;0.033631;95.7004;140.7;-0.0304687;-0.00261679;-0.00361164;-0.00911021;0.0901694;0.0575303;-0.0162917;0;0.11427;-1.76484;-2.37718;-1.30609;3.23597;-7.39148;-0.0020232;0.00977447;0.0795547;0.0807095;-0.00317801;0.0419438;0.0254316;39.3212;0.0548964;0.055925;25.3963;0.0393759;91.7718;136.772;0.000498755;-0.00197752;0.0226075;-0.0020901;0.0793622;0.0345116;0.0602499;0;0.074023;3.36759
658000;659;;;;;;;;;;-1.3413;-0.0933238;-0.589759;1.4682;-6.06401;-0.00202166;-0.00608178;0.089871;0.0902717;-0.00242243;0.0463471;0.0224952;44.4539;0.0610047;0.0617961;37.265;0.0268349;96.0382;141.038;-0.0223481;-0.00204892;-0.00228325;-0.00955996;0.0898855;0.0524651;0.0081454;0;0.10882;-1.76724;-2.38503;-1.30548;3.2428;-7.39175;1.07548e-05;0.0120279;0.0794959;0.0812761;-0.00176946;0.0415228;-0.000135288;-7391.64;0.0547834;0.0553637;45.9328;0.0217709;88.2458;133.246;-0.00389721;7.97128e-05;0.0222066;0.00259758;0.0793345;0.0417997;0.0736589;0;0.0791529;3.36666
659000;660;;;;;;;;;;-1.34223;-0.0870192;-0.587287;1.46767;-6.06749;-0.00136129;-0.00797008;0.0892425;0.0899383;-0.00205704;0.0459977;0.0152538;65.5575;0.0606562;0.0613302;43.7221;0.0228717;97.4659;142.466;-0.0217254;-0.00139889;-0.0038209;-0.011774;0.089265;0.0461323;-0.0215347;0;0.103503;-1.7677;-2.39425;-1.30512;3.2497;-7.39673;0.000688341;0.0110138;0.0798953;0.0813983;-0.000814606;0.0411064;-0.00861554;-116.069;0.0545391;0.0548086;99.9235;0.0100077;89.4864;134.486;-0.013335;0.000748792;0.0222926;0.000561045;0.0797214;0.0393587;0.0766319;0;0.0684058;3.36549
660000;661;;;;;;;;;;-1.34154;-0.0830807;-0.586617;1.46655;-6.0761;-0.00140782;-0.00440278;0.0999551;0.100146;-0.00159869;0.0508723;0.0140845;71.0002;0.0673032;0.0678298;62.6424;0.0159636;93.4765;138.477;-0.00920692;-0.00141681;-0.00252126;-0.00611089;0.099961;0.0196958;-0.0102598;0;0.0915418;-1.76916;-2.39825;-1.30671;3.25407;-7.3831;-0.00302699;0.0110472;0.0836625;0.0850481;-0.00441263;0.0447304;0.036181;27.6388;0.0582254;0.0596405;19.2738;0.0518839;92.3741;137.374;0.0262311;-0.0029699;0.0261663;-0.00286451;0.0834029;0.00351784;0.0743076;0;0.0804213;3.36652
661000;662;;;;;;;;;;-1.3413;-0.077805;-0.59292;1.46857;-6.0824;-0.00232203;-0.00330035;0.101675;0.10178;-0.00242666;0.0521032;0.0228378;43.7871;0.0686763;0.0694709;41.9423;0.0238423;92.4418;137.442;-0.0103296;-0.0023262;-0.00210435;-0.00438344;0.101678;0.0268362;-0.0101827;0;0.105038;-1.77123;-2.40699;-1.31308;3.26421;-7.40638;-0.00266119;0.0105919;0.0851976;0.0864565;-0.00392007;0.0451883;0.0312355;32.0149;0.0589878;0.060251;22.0549;0.0453415;93.0521;138.052;0.023492;-0.00261359;0.0266331;-0.00415276;0.0849225;0.017302;0.0904599;0;0.0792147;3.366
662000;663;;;;;;;;;;-1.34238;-0.0755556;-0.591578;1.4689;-6.07235;-0.000731466;-0.00766513;0.0951966;0.0958052;-0.00134009;0.0485726;0.00768375;130.145;0.0643215;0.0647635;71.4917;0.0139876;96.9319;141.932;-0.00803074;-0.000769582;-0.00333503;-0.0116158;0.0952183;0.0435741;0.027992;0;0.0990017;-1.7698;-2.4099;-1.31391;3.26591;-7.39913;-0.00397687;0.00816727;0.0841416;0.0848922;-0.00472746;0.0448098;0.047264;21.1578;0.0582346;0.0597464;17.9573;0.0556878;94.1867;139.187;-0.00589874;-0.00395865;0.0230583;-0.0055149;0.0839271;-0.00773443;0.0587496;0;0.0676403;3.36532
663000;664;;;;;;;;;;-1.34126;-0.0703972;-0.59261;1.46804;-6.07584;-0.00103556;-0.00696832;0.0947418;0.0952461;-0.00153989;0.048393;0.0109304;91.4882;0.0640169;0.064524;61.8525;0.0161675;96.3712;141.371;-0.0139113;-0.00106773;-0.0029639;-0.0106223;0.0947599;0.0516751;0.0301771;0;0.0989062;-1.77117;-2.41676;-1.3155;3.27235;-7.40238;-0.00135015;0.010681;0.0820518;0.0833979;-0.00269631;0.0430471;0.0164548;60.7724;0.0565188;0.0573962;30.9304;0.0323306;89.4554;134.455;-0.00441745;-0.00129371;0.0209951;0.00116101;0.0819008;0.0397719;0.107354;0;0.0778922;3.36518
664000;665;;;;;;;;;;-1.3419;-0.0692873;-0.592702;1.4686;-6.07291;-0.00146416;-0.00743404;0.0922556;0.0928417;-0.00205018;0.0474459;0.0158707;63.0094;0.062589;0.0632612;45.2847;0.0220825;96.6045;141.604;-0.0200263;-0.00149445;-0.00379722;-0.0107587;0.0922743;0.0432633;-0.0241689;0;0.103552;-1.77207;-2.42322;-1.31525;3.27751;-7.39963;-0.00154146;0.0113513;0.08236;0.0838686;-0.00305007;0.0434593;0.0187161;53.43;0.0569563;0.0579458;27.4972;0.0363673;90.2741;135.274;-0.00675331;-0.00147693;0.0236552;-2.62967e-07;0.082161;0.0383494;0.0906825;0;0.0646733;3.36518
665000;666;;;;;;;;;;-1.34197;-0.0646576;-0.601766;1.47214;-6.07673;-0.00245422;-0.00594739;0.0908067;0.0911845;-0.00283197;0.0470082;0.0270269;37.0002;0.0617553;0.0626776;32.1983;0.0310576;95.3535;140.353;-0.0191718;-0.00247353;-0.00305178;-0.00859539;0.0908187;0.0460393;-0.00434241;0;0.121862;-1.77238;-2.42778;-1.32251;3.28398;-7.40878;-0.000662007;0.010401;0.0828313;0.0841075;-0.00193819;0.0430228;0.00799223;125.122;0.0567287;0.0573638;43.3949;0.0230442;90.1413;135.141;-0.00312491;-0.000607883;0.0217328;-5.8122e-05;0.0826631;0.0334637;0.0892025;0;0.0592053;3.36479
666000;667;;;;;;;;;;-1.34286;-0.0605416;-0.599293;1.47176;-6.08106;-0.000561994;-0.00563003;0.0960907;0.0964176;-0.000888839;0.0486532;0.00584857;170.982;0.0645767;0.0648709;108.476;0.00921864;95.8443;140.844;-0.00675707;-0.000594615;-0.00100862;-0.00984384;0.0961047;0.0351732;0.0122198;0;0.107087;-1.77231;-2.43379;-1.32509;3.28942;-7.41136;-0.000405102;0.0116622;0.0824632;0.0840731;-0.00201507;0.0430441;0.00491252;203.561;0.0567324;0.0573921;41.7222;0.023968;88.6223;133.622;-0.00272345;-0.000339515;0.0218973;0.00220963;0.0823045;0.0378793;0.0853774;0;0.065182;3.36662
667000;668;;;;;;;;;;-1.34268;-0.0551081;-0.601727;1.47238;-6.08623;-0.00196909;-0.00206732;0.0989407;0.0989831;-0.00201142;0.0504973;0.0199017;50.247;0.0666693;0.0673297;49.2105;0.0203209;91.7724;136.772;-0.0187555;-0.0019717;-0.000952639;-0.00307964;0.0989423;0.0443526;-0.00613059;0;0.0990436;-1.77412;-2.44332;-1.32757;3.29845;-7.41829;0.000857169;0.01026;0.0828989;0.0841626;-0.000406466;0.0422845;-0.0103399;-96.7125;0.0562443;0.0563793;207.059;0.00482953;91.4549;136.455;-0.0127163;0.000906528;0.0241097;-0.00254205;0.0826791;0.0372327;0.0727227;0;0.0736756;3.36719
668000;669;;;;;;;;;;-1.34085;-0.0536766;-0.601521;1.47058;-6.07574;-0.00429336;-0.00437298;0.0961827;0.0963727;-0.00448332;0.050428;0.0446375;22.4027;0.0657938;0.0672373;21.4958;0.0465207;94.2436;139.244;-0.0340158;-0.00430965;-0.00128144;-0.00718112;0.0961907;0.0609955;-0.00848726;0;0.102124;-1.77567;-2.44836;-1.33221;3.30489;-7.42748;-0.00106175;0.0108084;0.0842547;0.0856027;-0.00240973;0.0440062;0.0126017;79.3543;0.0578884;0.058675;35.5237;0.0281502;89.5509;134.551;0.00161106;-0.00100374;0.0214983;0.000958702;0.0840955;0.0539033;0.0721012;0;0.10027;3.36635
669000;670;;;;;;;;;;-1.34132;-0.0485178;-0.602955;1.47141;-6.07951;-0.00494022;-0.00482637;0.0967412;0.0969698;-0.00516879;0.0510693;0.0510664;19.5824;0.0664365;0.0680924;18.7606;0.0533031;94.5331;139.533;-0.042425;-0.00495858;-0.00162073;-0.00773477;0.0967506;0.0585599;-0.00140483;0;0.10742;-1.77777;-2.45472;-1.33111;3.31028;-7.4223;-0.00319096;0.0107495;0.0856769;0.0869586;-0.00447273;0.0457157;0.0372441;26.8499;0.0595194;0.0609542;19.442;0.0514351;92.2394;137.239;0.0232493;-0.00313666;0.0253975;-0.00270142;0.085433;0.0295715;0.113526;0;0.09253;3.3664
670000;671;;;;;;;;;;-1.34283;-0.0453694;-0.600045;1.47149;-6.07496;-0.0023994;-0.00509665;0.0956891;0.0959532;-0.00266351;0.0493084;0.025075;39.8804;0.0648749;0.0657445;36.0251;0.0277584;95.6751;140.675;-0.0261653;-0.00243172;-0.000248777;-0.00951044;0.095701;0.0308852;-0.0280684;0;0.102502;-1.77806;-2.46218;-1.33345;3.31692;-7.42674;-0.00301901;0.0102246;0.0876971;0.0888352;-0.00415715;0.0464962;0.0344255;29.0483;0.0606567;0.0619949;21.3693;0.0467962;93.3988;138.399;0.0222881;-0.00297797;0.0265756;-0.00476493;0.0874204;0.0138434;0.0935614;0;0.0786055;3.36638
671000;672;;;;;;;;;;-1.34203;-0.0454605;-0.604897;1.47276;-6.07937;-0.00164643;-0.00520951;0.0983334;0.0986041;-0.00191715;0.0502606;0.0167434;59.725;0.0663843;0.0670142;51.4327;0.0194429;95.4882;140.488;-0.0318179;-0.00167762;-0.000537924;-0.00945576;0.0983456;0.017846;-0.0436337;0;0.125394;-1.77786;-2.46612;-1.33739;3.32131;-7.42787;-0.00502229;0.00833038;0.0905529;0.0912735;-0.00574294;0.0485082;0.0554625;18.0302;0.0628509;0.0646777;15.8932;0.0629201;96.8382;141.838;0.026458;-0.00504079;0.0287539;-0.010306;0.0902056;0.0207288;0.0883306;0;0.0793528;3.36521
672000;673;;;;;;;;;;-1.34046;-0.0354951;-0.604529;1.4709;-6.09144;-0.00223008;-0.00458788;0.0965813;0.0967938;-0.00244264;0.0496182;0.0230902;43.3085;0.0653586;0.0661576;39.6268;0.0252355;93.8518;138.852;-0.023428;-0.00224109;-0.00242124;-0.00655927;0.0965882;0.0524177;-0.0275633;0;0.118972;-1.77857;-2.47544;-1.33651;3.32827;-7.43055;0.00113292;0.0113665;0.086786;0.0882687;-0.000349791;0.0443093;-0.0130542;-76.6039;0.0589628;0.059079;252.347;0.0039628;88.7588;133.759;0.00425769;0.00119601;0.021865;0.00169439;0.0866255;0.0335517;0.104818;0;0.0804532;3.36907
673000;674;;;;;;;;;;-1.34109;-0.0303934;-0.613916;1.47524;-6.10089;-0.00271015;-0.00463331;0.100919;0.101126;-0.0029169;0.0520215;0.0268546;37.2376;0.0684105;0.0693621;34.6691;0.0288441;95.3814;140.381;-0.0240857;-0.00274446;0.000719122;-0.00948181;0.100929;0.00796197;0.0127336;0;0.104234;-1.77995;-2.48109;-1.3367;3.33329;-7.42933;1.9357e-05;0.0125522;0.0837787;0.0856193;-0.00182128;0.0437203;-0.00023105;-4328.07;0.0576962;0.0582937;47.0106;0.0212718;86.6777;131.678;-0.000105745;8.49809e-05;0.0205968;0.00512871;0.0836557;0.0449796;0.123607;0;0.0719786;3.36834
674000;675;;;;;;;;;;-1.34042;-0.022417;-0.611233;1.47337;-6.09694;-0.00198553;-0.00736082;0.0947548;0.0953117;-0.0025424;0.048927;0.0209544;47.7226;0.0644053;0.0652361;37.4889;0.0266746;97.578;142.578;-0.0182254;-0.00203842;-0.00157035;-0.0126394;0.0947784;0.0502447;-0.0455041;0;0.103492;-1.7801;-2.48445;-1.3423;3.33811;-7.42932;-5.60849e-05;0.0134794;0.0811816;0.0833597;-0.00223427;0.042797;0.000690858;1447.48;0.0563327;0.0570627;37.3096;0.0268028;87.0368;132.037;0.00351452;2.45105e-05;0.0231565;0.00452846;0.0810176;0.0198356;0.0952914;0;0.0890101;3.3666
675000;676;;;;;;;;;;-1.3402;-0.024196;-0.618401;1.47619;-6.09498;-0.00336239;-0.00851295;0.0997604;0.100458;-0.00406042;0.0522594;0.0337047;29.6695;0.068366;0.0696792;24.7409;0.0404189;96.0098;141.01;-0.0288701;-0.00338381;-0.00606459;-0.0107317;0.0997766;0.0599376;-0.0350242;0;0.0941914;-1.78107;-2.49126;-1.34489;3.34475;-7.43312;-0.000860757;0.0117505;0.083193;0.0848048;-0.00247255;0.0436387;0.0103465;96.651;0.0573785;0.0581849;34.2985;0.0291558;89.7338;134.734;-0.00166101;-0.00079187;0.0237896;0.00064429;0.0829955;0.0533961;0.0997832;0;0.0793006;3.36592
676000;677;;;;;;;;;;-1.3425;-0.0255283;-0.614546;1.47669;-6.08522;-0.00180558;-0.00446674;0.0999856;0.100181;-0.00200121;0.0510912;0.0180584;55.3759;0.0674645;0.0681217;50.0604;0.0199759;95.1118;140.112;-0.0378301;-0.00183557;0.000456152;-0.00893399;0.0999946;0.0452852;-0.0178235;0;0.103284;-1.78187;-2.49745;-1.3469;3.35059;-7.43172;-0.000856224;0.0125825;0.0821573;0.0840225;-0.00272146;0.043372;0.0104218;95.9531;0.0569438;0.0578293;30.8741;0.0323896;89.7732;134.773;-0.0101566;-0.000777179;0.0255604;0.000598309;0.0819285;0.0589005;0.0726285;0;0.078025;3.36745
677000;678;;;;;;;;;;-1.34105;-0.0235727;-0.612875;1.47465;-6.08127;-0.00474577;-0.00292084;0.0986448;0.0987272;-0.00482822;0.0517777;0.0481098;20.7858;0.0674851;0.0690369;20.4479;0.0489047;93.6574;138.657;-0.0311953;-0.00476114;0.000759796;-0.00625508;0.0986484;0.0269191;-0.0121623;0;0.107418;-1.78387;-2.50511;-1.35272;3.35971;-7.44247;-0.00126602;0.0119184;0.0853204;0.086931;-0.00287659;0.0449038;0.0148385;67.3925;0.0589363;0.0598717;30.2201;0.0330905;88.6271;133.627;0.000683853;-0.00119802;0.022163;0.00249006;0.0851596;0.0110188;0.0703109;0;0.089342;3.36622
678000;679;;;;;;;;;;-1.34171;-0.0171729;-0.615129;1.4761;-6.08293;-0.0034429;-0.00640259;0.0991711;0.099569;-0.00384084;0.0517049;0.0347168;28.8045;0.0676959;0.0689399;25.9237;0.0385747;95.4159;140.416;-0.0406584;-0.00346764;-0.00298289;-0.00950298;0.0991857;0.0630411;-0.0291868;0;0.116181;-1.78353;-2.50952;-1.35226;3.36263;-7.44052;-0.00144995;0.0119931;0.0862723;0.0878824;-0.00306006;0.0454712;0.0168067;59.5003;0.0596345;0.0606283;28.7191;0.03482;89.4088;134.409;-0.0013835;-0.00137882;0.023589;0.00133239;0.0860823;0.0473143;0.0626877;0;0.0899179;3.36522
679000;680;;;;;;;;;;-1.33937;-0.0102522;-0.618202;1.4752;-6.09671;-0.00400583;-0.00403153;0.103159;0.10331;-0.00415728;0.0537338;0.0388317;25.7522;0.0703003;0.0716451;24.8505;0.0402407;94.341;139.341;-0.00968297;-0.00402832;0.00015743;-0.0078135;0.103166;0.00511033;-0.0176245;0;0.109692;-1.78523;-2.51805;-1.35591;3.37137;-7.44921;-0.00334819;0.00979926;0.0892671;0.0902926;-0.00437366;0.0473331;0.0375076;26.6613;0.0617047;0.0631108;20.6446;0.0484387;94.2135;139.213;0.0204603;-0.003319;0.0272294;-0.0061513;0.0889708;0.011574;0.102732;0;0.0916818;3.36638
680000;681;;;;;;;;;;-1.33983;-0.00474374;-0.620393;1.4765;-6.0951;-0.00491821;-0.00381941;0.100758;0.100896;-0.00505608;0.0529761;0.048812;20.4868;0.0690112;0.0706348;19.9554;0.0501117;94.49;139.49;-0.0184816;-0.00494195;0.000653063;-0.00786246;0.100765;0.0177952;-0.0255824;0;0.107977;-1.78402;-2.51984;-1.36045;3.37389;-7.45101;-0.0030307;0.00939092;0.0878378;0.0887981;-0.00399107;0.0463946;0.0345034;28.9826;0.060573;0.0618595;22.2492;0.0449454;93.7742;138.774;-0.0031609;-0.00300106;0.0255191;-0.00539204;0.087579;0.00498903;0.101297;0;0.0723143;3.36655
681000;682;;;;;;;;;;-1.34138;-0.00121272;-0.617744;1.47679;-6.09266;-0.00375245;-0.00412986;0.102067;0.102228;-0.00391338;0.0530705;0.0367647;27.2;0.0694929;0.0707606;26.1225;0.0382811;94.6945;139.694;-0.0253472;-0.00377889;0.000539954;-0.00835121;0.102074;0.00965822;-0.0377833;0;0.112747;-1.78738;-2.52878;-1.36164;3.38283;-7.45588;-0.000494961;0.0132585;0.0877391;0.0896883;-0.00244418;0.0460663;0.00564129;177.265;0.0606234;0.0614217;36.6946;0.027252;86.551;131.551;0.00404206;-0.000423275;0.0214843;0.00569918;0.0876077;0.00742069;0.102156;0;0.0934588;3.36516
682000;683;;;;;;;;;;-1.34031;0.0052522;-0.626774;1.47963;-6.10223;-0.0045848;-0.00614106;0.10199;0.102343;-0.0049375;0.0536401;0.0449534;22.2453;0.0699325;0.0715202;20.7277;0.0482447;96.1061;141.106;-0.020463;-0.00462585;-0.000841314;-0.0109281;0.102007;0.0374901;0.0239866;0;0.105767;-1.78714;-2.53448;-1.36021;3.38639;-7.44873;-0.00100575;0.0130537;0.0855648;0.0874903;-0.00293126;0.0452108;0.0117542;85.0759;0.0593281;0.060281;29.8473;0.0335038;87.7273;132.727;0.00399577;-0.000928013;0.0230171;0.00388384;0.0853992;0.0331938;0.118559;0;0.0701955;3.36662
683000;684;;;;;;;;;;-1.34111;0.00632634;-0.618114;1.47671;-6.09303;-0.00311716;-0.00254786;0.0997375;0.0998006;-0.00318023;0.0514904;0.0312536;31.9963;0.0676187;0.0686539;31.3815;0.0318659;93.3283;138.328;-0.0300756;-0.00313057;0.00100031;-0.00576415;0.09974;0.00506151;-0.0481399;0;0.114584;-1.78638;-2.53818;-1.36648;3.39128;-7.45196;-0.000453454;0.0118473;0.0871167;0.0886912;-0.00202795;0.0453596;0.00520514;192.118;0.0598149;0.0604795;43.7344;0.0228653;88.9448;133.945;-0.00134951;-0.000384888;0.0227607;0.00181183;0.086943;0.0261009;0.112629;0;0.0853868;3.36661
684000;685;;;;;;;;;;-1.3407;0.00858586;-0.62356;1.47864;-6.09434;-0.00273936;-0.0034494;0.0993589;0.0994753;-0.00285577;0.0511655;0.0275704;36.2708;0.067289;0.0682207;34.8331;0.0287083;93.6955;138.695;-0.0324018;-0.00275405;-0.000177153;-0.00641773;0.0993643;0.0239132;0.00313708;0;0.100292;-1.78703;-2.5427;-1.36974;3.39632;-7.45512;-0.00147122;0.0117954;0.0861741;0.0877338;-0.00303091;0.0453823;0.0170727;58.573;0.0595252;0.0605098;28.9464;0.0345466;91.3226;136.323;0.00460311;-0.00140307;0.0265158;-0.0017393;0.0859144;0.0464986;0.0834769;0;0.0659152;3.36536
685000;686;;;;;;;;;;-1.34043;0.0136472;-0.626462;1.47966;-6.09879;-0.00384734;-0.00439427;0.101259;0.101442;-0.00403073;0.0527364;0.0379951;26.3192;0.0690108;0.0703152;25.1672;0.0397343;94.0617;139.062;-0.0257094;-0.00386387;-0.00126026;-0.00722913;0.101267;0.0220042;0.0103923;0;0.106089;-1.78837;-2.55068;-1.37034;3.40325;-7.45763;-0.00171934;0.0108708;0.0864477;0.0877683;-0.00303991;0.0454041;0.0198887;50.2797;0.0595514;0.0605388;28.872;0.0346356;92.8007;137.801;0.000573378;-0.0016686;0.02717;-0.00410795;0.0861623;0.0489312;0.0539034;0;0.0804409;3.36694
686000;687;;;;;;;;;;-1.34051;0.0205821;-0.625018;1.4792;-6.10145;-0.00298248;-0.00356284;0.103955;0.104073;-0.00310105;0.0535872;0.0286902;34.8551;0.0704387;0.0714496;33.5606;0.0297968;93.9908;138.991;-0.0350153;-0.00300235;0.000500734;-0.00723274;0.10396;0.0442556;-0.0267175;0;0.109362;-1.79135;-2.56216;-1.36972;3.41317;-7.461;-0.0024076;0.0126499;0.0893013;0.0910142;-0.00412047;0.0475673;0.0269604;37.0915;0.0620952;0.0634231;22.0883;0.0452728;91.7655;136.766;0.030275;-0.00232999;0.0289434;-0.00227457;0.0889902;0.037175;0.0882352;0;0.0968697;3.36734
687000;688;;;;;;;;;;-1.34047;0.0260667;-0.626439;1.47986;-6.10365;-0.003408;-0.00382317;0.104735;0.10487;-0.00354299;0.0542067;0.0325391;30.7323;0.0711241;0.0722756;29.5994;0.0337844;94.631;139.631;-0.0256083;-0.00343636;0.00128887;-0.00843471;0.104741;0.0265285;-0.0060762;0;0.120531;-1.79058;-2.56544;-1.37914;3.41902;-7.47099;-0.000446964;0.013146;0.0883046;0.0902109;-0.00235324;0.046282;0.00506161;197.565;0.0609401;0.0617094;38.3348;0.026086;88.2259;133.226;9.09391e-05;-0.000365124;0.0241546;0.00303396;0.0881159;0.0591161;0.0846999;0;0.102711;3.36515
688000;689;;;;;;;;;;-1.34044;0.0325664;-0.629328;1.48118;-6.10833;-0.00303761;-0.00654258;0.101857;0.102264;-0.00344411;0.0528539;0.0298222;33.5321;0.0693523;0.0704719;29.6924;0.0336787;96.5739;141.574;-0.0301835;-0.00308542;-0.000783155;-0.0117536;0.101876;0.0630278;-0.0223091;0;0.109576;-1.79149;-2.57185;-1.37894;3.42423;-7.46662;-0.00300945;0.0124858;0.0907122;0.0923471;-0.00464433;0.0484957;0.0331759;30.1424;0.0631697;0.0646609;19.8838;0.0502921;92.924;137.924;0.0209868;-0.0029399;0.0306793;-0.00414763;0.0903521;0.0336608;0.0852292;0;0.0982138;3.36537
689000;690;;;;;;;;;;-1.33958;0.0319827;-0.636643;1.48351;-6.10948;-0.0031093;-0.00656073;0.107179;0.107568;-0.0034982;0.0555333;0.0290102;34.4706;0.0729063;0.0740444;30.7496;0.0325207;95.7937;140.794;-0.023695;-0.00314752;-0.00171925;-0.0109198;0.107198;0.0273302;-0.0499526;0;0.107403;-1.79132;-2.57731;-1.38119;3.42914;-7.47324;-0.00205124;0.0111555;0.090124;0.0914549;-0.00338212;0.0474185;0.0227602;43.9363;0.062128;0.0632247;27.0407;0.0369813;92.2553;137.255;0.000484947;-0.00199421;0.0268982;-0.00325829;0.0898492;0.0230296;0.0958175;0;0.0779029;3.36627
690000;691;;;;;;;;;;-1.3405;0.0364049;-0.63424;1.48341;-6.10754;-0.00314112;-0.0050734;0.1037;0.103941;-0.00338149;0.0536611;0.0302903;33.0138;0.070448;0.0715481;30.7382;0.0325329;95.5921;140.592;-0.00699536;-0.00317967;0.000524861;-0.0101296;0.103712;-0.0142354;-0.0261469;0;0.108987;-1.79323;-2.58658;-1.38301;3.43785;-7.48164;0.000427469;0.0130467;0.0897211;0.0915883;-0.00143974;0.046514;-0.00476442;-209.889;0.0615444;0.0620187;63.6143;0.0157197;88.8826;133.883;-0.000993107;0.000511023;0.0253597;0.00174104;0.0895041;0.0415731;0.122829;0;0.0829955;3.36448
691000;692;;;;;;;;;;-1.34034;0.0365345;-0.637283;1.48458;-6.10454;-0.00331862;-0.00710422;0.103108;0.10358;-0.00379074;0.0536856;0.0321857;31.0697;0.0703513;0.0715808;27.3246;0.0365971;96.0181;141.018;-0.0242861;-0.00335355;-0.00283768;-0.010959;0.103128;0.0173012;-0.0471448;0;0.105408;-1.79502;-2.59093;-1.38408;3.44248;-7.47522;0.000767682;0.0143684;0.0848595;0.0872468;-0.0016196;0.0444332;-0.00904651;-110.54;0.0587118;0.0592442;53.8693;0.0185635;86.479;131.479;-0.000891904;0.000856315;0.0241011;0.00538893;0.0846869;0.0580828;0.108838;0;0.086239;3.36376
692000;693;;;;;;;;;;-1.33972;0.0425626;-0.637361;1.48421;-6.10826;-0.00326956;-0.00503487;0.106552;0.106782;-0.0034999;0.0551411;0.0306851;32.5891;0.0723831;0.0735215;30.5101;0.032776;94.3101;139.31;-0.0374841;-0.00328956;-0.0016582;-0.00807636;0.106562;0.0338983;-0.0349263;0;0.109413;-1.79509;-2.59659;-1.38839;3.44852;-7.47857;5.39364e-05;0.0144789;0.0872705;0.0896114;-0.0022869;0.0459491;-0.000618036;-1618.03;0.0605176;0.0612655;39.1846;0.0255202;86.6995;131.7;-0.00487507;0.000144305;0.0243762;0.00537441;0.0870937;0.0443874;0.104452;0;0.0702522;3.36531
693000;694;;;;;;;;;;-1.33866;0.0488751;-0.642929;1.48585;-6.11508;-0.00432205;-0.00629421;0.106647;0.107003;-0.00467792;0.0558406;0.0405266;24.6752;0.0729448;0.0744541;22.8741;0.0437175;95.4233;140.423;-0.0172347;-0.00435432;-0.00196223;-0.0101917;0.106664;-0.0201814;-0.0856902;0;0.101245;-1.79386;-2.5995;-1.38989;3.45066;-7.47527;-0.00153841;0.0112872;0.0869563;0.0883733;-0.00295537;0.0456643;0.0176917;56.5236;0.0599249;0.0608858;29.9026;0.0334419;91.877;136.877;-0.00105263;-0.00147814;0.0264623;-0.00265446;0.0866928;0.0426847;0.0784065;0;0.0821285;3.36429
694000;695;;;;;;;;;;-1.33897;0.0478356;-0.639616;1.48467;-6.10768;-0.00402043;-0.00524642;0.107695;0.10794;-0.00426628;0.0561033;0.0373318;26.7868;0.0734237;0.0748044;25.3008;0.0395244;94.321;139.321;-0.0252765;-0.00404039;-0.0019593;-0.00820197;0.107705;-0.00299281;-0.0744965;0;0.100221;-1.79525;-2.60672;-1.39098;3.45727;-7.47619;-0.00134894;0.0108458;0.0870441;0.0883554;-0.00266026;0.0455078;0.0154972;64.5276;0.0598101;0.0606771;33.2131;0.0301086;93.4101;138.41;-0.00561655;-0.00130409;0.0284125;-0.00529526;0.0867269;0.0271688;0.0760539;0;0.0756392;3.36442
695000;696;;;;;;;;;;-1.33832;0.0570964;-0.647593;1.48786;-6.12198;-0.00464143;-0.00287449;0.107712;0.107786;-0.00471493;0.0562504;0.043091;23.2067;0.0734793;0.0750005;22.8606;0.0437435;92.1378;137.138;-0.0191621;-0.00464565;-0.00153274;-0.00408015;0.107715;0.0165386;-0.041232;0;0.108932;-1.79696;-2.61483;-1.39351;3.4653;-7.47961;-0.000716903;0.0130246;0.0863359;0.0882428;-0.00262383;0.0454333;0.00830365;120.429;0.0597224;0.0605778;33.6313;0.0297342;89.8106;134.811;-0.0119726;-0.000632155;0.0266301;0.000507314;0.0860876;0.0270787;0.102882;0;0.0831551;3.36776
696000;697;;;;;;;;;;-1.33944;0.0621295;-0.642925;1.48705;-6.12251;-0.00368113;-0.00343034;0.10899;0.109095;-0.00378547;0.05644;0.0337748;29.6078;0.0740238;0.0752533;28.8193;0.034699;92.9007;137.901;-0.0147361;-0.0036907;-0.00106761;-0.005553;0.108995;0.0318209;0.0237472;0;0.107144;-1.79854;-2.62331;-1.4007;3.47541;-7.49189;-0.0020208;0.0120932;0.0910627;0.0926081;-0.00356627;0.0480872;0.0221914;45.0626;0.0629612;0.0641163;25.9678;0.0385092;90.0732;135.073;0.00262046;-0.00194762;0.0248661;0.000408412;0.0908463;0.0587201;0.106357;0;0.104211;3.36578
697000;698;;;;;;;;;;-1.341;0.0692434;-0.64426;1.48935;-6.12516;-0.000942832;-0.00516452;0.108466;0.108709;-0.00118608;0.0549478;0.00869241;115.043;0.0728716;0.0732637;91.6547;0.0109105;94.3106;139.311;-0.0124883;-0.000963086;-0.00180323;-0.008194;0.108477;-0.00699275;-0.023495;0;0.117176;-1.79943;-2.62863;-1.39951;3.47941;-7.48389;-0.00150628;0.0140698;0.0902325;0.0923418;-0.00361564;0.0479787;0.0166933;59.9041;0.0628011;0.0639716;25.5396;0.0391549;89.4119;134.412;-0.01202;-0.00140821;0.0278494;0.00144754;0.0899675;0.0533438;0.101911;0;0.0678225;3.36423
698000;699;;;;;;;;;;-1.33941;0.0722658;-0.644664;1.48823;-6.12484;-0.00245355;-0.00315648;0.110206;0.110294;-0.00254192;0.0564181;0.0222633;44.9169;0.0743912;0.0752241;43.3901;0.0230467;92.5501;137.55;-0.00958501;-0.00246075;-0.00117961;-0.00493274;0.11021;0.0543727;0.0974545;0;0.108764;-1.79987;-2.63418;-1.4039;3.48559;-7.49014;-0.000382556;0.015057;0.0885851;0.0910643;-0.00286172;0.046963;0.00431851;231.561;0.0616856;0.0626173;31.8215;0.0314253;87.87;132.87;-0.00629702;-0.000275964;0.0274362;0.00368759;0.0883435;0.0261911;0.0908321;0;0.0668388;3.36417
699000;700;;;;;;;;;;-1.33951;0.0753403;-0.652402;1.49184;-6.121;-0.00459104;-0.00577092;0.108102;0.108397;-0.00488579;0.0566413;0.0424695;23.5463;0.0739469;0.0755217;22.1861;0.0450732;94.2069;139.207;-0.0256866;-0.0046071;-0.00320046;-0.00807993;0.108112;0.00179871;-0.0101678;0;0.106382;-1.80236;-2.6425;-1.40748;3.49461;-7.50492;-0.00141556;0.0137741;0.0931678;0.0951329;-0.00338064;0.0492568;0.0151937;65.8169;0.0645783;0.0656757;28.1405;0.035536;88.5508;133.551;0.0113371;-0.00132477;0.0256808;0.002896;0.0929529;0.0362094;0.101011;0;0.0820812;3.36357
700000;701;;;;;;;;;;-1.33823;0.0839236;-0.649115;1.48972;-6.12609;-0.00351975;-0.00267372;0.101119;0.101187;-0.00358802;0.0523876;0.034808;28.729;0.0686853;0.0698501;28.2014;0.0354593;92.0073;137.007;-0.0274253;-0.00352266;-0.00165225;-0.00359812;0.101121;0.0395191;0.0601785;0;0.098098;-1.80231;-2.64642;-1.40764;3.49761;-7.49781;-0.000572187;0.0142967;0.0893054;0.0915247;-0.00279155;0.0471581;0.00640709;156.077;0.061968;0.0628775;32.7864;0.0305005;87.8031;132.803;-0.00696085;-0.000477308;0.0256935;0.00383876;0.0890962;0.0583722;0.115296;0;0.0735818;3.36223
701000;702;;;;;;;;;;-1.33867;0.0932575;-0.650681;1.49135;-6.13367;-0.00344545;-0.00615174;0.10034;0.100703;-0.00380881;0.052256;0.0343378;29.1224;0.0684404;0.0696746;26.4395;0.0378222;94.758;139.758;-0.0304174;-0.0034625;-0.00358606;-0.0084754;0.100351;0.0676651;-0.0284978;0;0.114138;-1.80213;-2.64947;-1.40935;3.50052;-7.49688;-0.00271576;0.0123842;0.090374;0.0919934;-0.00433512;0.0481642;0.0300503;33.2776;0.0628238;0.064219;21.2205;0.0471243;92.9666;137.967;0.00959576;-0.00264816;0.0306255;-0.00430306;0.0900142;0.0202504;0.0995818;0;0.0832151;3.36333
702000;703;;;;;;;;;;-1.33819;0.0829937;-0.652644;1.49117;-6.11662;-0.00371743;-0.00255183;0.108341;0.108399;-0.00377551;0.0560875;0.0343122;29.1441;0.0735571;0.0747833;28.7112;0.0348296;91.8871;136.887;-0.0143368;-0.00372071;-0.00137123;-0.00361306;0.108343;-0.0176071;-0.0245084;0;0.105132;-1.80262;-2.65594;-1.41299;3.50714;-7.50073;-0.00185868;0.0125086;0.088843;0.0905365;-0.0035521;0.0470443;0.0209209;47.7991;0.0615758;0.0627257;25.4881;0.0392339;92.1379;137.138;-0.00560212;-0.00178504;0.0295065;-0.00307633;0.088515;0.0530753;0.0888682;0;0.066527;3.36358
703000;704;;;;;;;;;;-1.33882;0.0883331;-0.655042;1.49309;-6.12018;-0.00397852;-0.00302093;0.108872;0.108953;-0.00405933;0.0565059;0.0365432;27.3649;0.0740252;0.0753412;26.84;0.0372578;92.7517;137.752;-0.0278857;-0.00398776;-0.000543865;-0.0052459;0.108876;-0.0128948;-0.0303408;0;0.101565;-1.80296;-2.66084;-1.41525;3.51193;-7.50118;-0.00159958;0.0135555;0.0879712;0.0899777;-0.00360611;0.0467919;0.018183;54.9965;0.0612226;0.0623892;24.9515;0.0400778;90.8506;135.851;-0.00195891;-0.001508;0.029351;-0.000942214;0.0876597;0.032913;0.0862036;0;0.0738981;3.36216
704000;705;;;;;;;;;;-1.33865;0.0945298;-0.652509;1.49221;-6.12126;-0.00282121;-0.0042311;0.109146;0.109305;-0.00298087;0.0561432;0.0258481;38.6875;0.073884;0.0748575;36.6689;0.027271;94.0442;139.044;-0.03736;-0.00284213;-0.000348913;-0.00772133;0.109154;-0.000413514;-0.0567396;0;0.115564;-1.8044;-2.67197;-1.41735;3.52196;-7.50807;0.000764059;0.0142245;0.0896809;0.0919011;-0.00145607;0.0466786;-0.00851975;-117.374;0.0617584;0.0622381;63.116;0.0158438;88.5907;133.591;-0.0068971;0.000862852;0.0273781;0.00214221;0.0894298;0.0459306;0.0976102;0;0.0856798;3.3623
705000;706;;;;;;;;;;-1.33853;0.100244;-0.662532;1.49688;-6.12926;-0.00413318;-0.0074833;0.108647;0.109141;-0.00462755;0.0568845;0.0380423;26.2865;0.0743515;0.075846;23.5851;0.0423996;95.5567;140.557;-0.0396677;-0.00416272;-0.00388461;-0.0107158;0.108665;0.0463561;-0.0472697;0;0.117746;-1.80551;-2.67955;-1.41766;3.52841;-7.50752;-0.000592297;0.0144664;0.0898242;0.0920823;-0.00285047;0.0474664;0.00659396;151.654;0.0623601;0.0632885;32.3043;0.0309557;88.8947;133.895;0.00362217;-0.000489705;0.028004;0.00204974;0.0895604;0.0397444;0.103601;0;0.0983468;3.36521
706000;707;;;;;;;;;;-1.33801;0.104721;-0.656188;1.49393;-6.12645;-0.0032277;-0.00383802;0.107906;0.108039;-0.00336009;0.0556994;0.0299121;33.4313;0.0731715;0.0742658;32.1535;0.0311008;93.5912;138.591;-0.0307068;-0.0032434;-0.000563981;-0.0067836;0.107913;0.00649678;-0.0968519;0;0.124339;-1.80561;-2.68641;-1.42129;3.53512;-7.51149;0.000505375;0.0135225;0.0925179;0.0944641;-0.00144079;0.0479524;-0.00546245;-183.068;0.0634618;0.0639366;65.5642;0.0152522;89.4311;134.431;-0.00302367;0.000596418;0.0273912;0.000819819;0.0922582;0.0261797;0.0986624;0;0.0837039;3.3631
707000;708;;;;;;;;;;-1.33815;0.110848;-0.666869;1.49922;-6.13446;-0.00507166;-0.00449337;0.104352;0.104537;-0.00525587;0.0548962;0.0486013;20.5756;0.0715074;0.0731949;19.8895;0.0502778;94.0096;139.01;-0.0430377;-0.00508875;-0.00130906;-0.00736214;0.104361;0.0213759;-0.0729335;0;0.109621;-1.80756;-2.69011;-1.42916;3.54209;-7.52558;-0.00360254;0.0130539;0.0953648;0.0970576;-0.0052954;0.0511765;0.0377764;26.4716;0.0665405;0.0682353;18.3287;0.0545593;90.6461;135.646;0.0169512;-0.00351704;0.0275579;-0.000141873;0.0950958;0.0328727;0.0987732;0;0.0866075;3.36218
708000;709;;;;;;;;;;-1.33595;0.118117;-0.663789;1.49644;-6.13695;-0.00431739;-0.00424027;0.102581;0.102749;-0.00448532;0.0536173;0.0420875;23.76;0.0700425;0.0714897;22.9079;0.0436531;93.6366;138.637;-0.0294607;-0.0043301;-0.00165011;-0.00657929;0.102588;0.028553;0.00618702;0;0.119899;-1.80864;-2.69838;-1.42996;3.54925;-7.53006;0.000186779;0.0151742;0.091541;0.0939955;-0.00226775;0.0481316;-0.00204039;-490.102;0.0634331;0.0641755;41.4488;0.0241261;86.2819;131.282;-0.000457192;0.000282049;0.0248592;0.00629864;0.0913634;0.0386759;0.118386;0;0.0935313;3.36213
709000;710;;;;;;;;;;-1.33705;0.127682;-0.663268;1.49797;-6.1495;-0.00496566;-0.00109603;0.110715;0.110726;-0.00497604;0.0578508;0.0448508;22.2962;0.0755304;0.0771344;22.2517;0.0449403;91.1406;136.141;-0.00890807;-0.00496748;0.000129725;-0.00219411;0.110716;0.00045868;-0.00504726;0;0.119018;-1.80941;-2.70406;-1.43067;3.55426;-7.52551;-0.000972559;0.0153741;0.0912174;0.0937137;-0.00346884;0.0485913;0.010662;93.7912;0.0636636;0.0647884;27.0159;0.0370153;86.846;131.846;-0.00171212;-0.00087035;0.0259736;0.0056687;0.0910166;0.0379587;0.125434;0;0.0904328;3.36067
710000;711;;;;;;;;;;-1.33778;0.1308;-0.667141;1.50061;-6.14646;-0.00301693;-0.00545181;0.110215;0.110477;-0.00327881;0.0568781;0.027373;36.5324;0.0747685;0.0758374;33.6943;0.0296786;94.0967;139.097;-0.0281767;-0.00303384;-0.00265253;-0.00796556;0.110226;-0.000845271;-0.0232192;0;0.116654;-1.80959;-2.71078;-1.43098;3.55959;-7.52109;-0.00534209;0.00953436;0.0978067;0.0986806;-0.00621597;0.0524483;0.0546188;18.3087;0.0679539;0.0699311;15.8753;0.0629908;97.4125;142.413;0.0333056;-0.00537266;0.0336474;-0.0123175;0.0973324;0.0256784;0.0891097;0;0.0827994;3.35924
711000;712;;;;;;;;;;-1.33651;0.1327;-0.672937;1.50224;-6.14917;-0.00326072;-0.00507552;0.111947;0.11217;-0.00348389;0.0578271;0.0291273;34.332;0.0759682;0.0771028;32.1968;0.031059;93.2069;138.207;-0.0188;-0.00326821;-0.00362134;-0.00637902;0.111953;0.0113383;0.0196904;0;0.115703;-1.8108;-2.71515;-1.43472;3.56503;-7.51953;-0.00492521;0.0103763;0.0948963;0.0959635;-0.00599239;0.0509779;0.0519009;19.2675;0.0660638;0.0679706;16.0142;0.0624445;97.1841;142.184;0.0202556;-0.00493975;0.0346486;-0.011688;0.0943971;0.0631478;0.0774174;0;0.0671713;3.36042
712000;713;;;;;;;;;;-1.3358;0.134904;-0.669467;1.50025;-6.1457;-0.00320827;-0.00566339;0.111164;0.111444;-0.00348802;0.0574661;0.0288606;34.6494;0.0754857;0.0766215;31.9506;0.0312983;93.8555;138.856;-0.0181731;-0.00322111;-0.00351087;-0.00759433;0.111173;0.00800741;0.0242632;0;0.11918;-1.80965;-2.71879;-1.43797;3.56854;-7.52391;-0.00168678;0.0145802;0.0889111;0.0911997;-0.00397541;0.0475876;0.0189716;52.7105;0.0621673;0.0634501;22.9409;0.0435902;90.2989;135.299;-0.00512443;-0.00158032;0.0304514;2.65797e-05;0.0885828;0.0377924;0.0888704;0;0.0662867;3.36038
713000;714;;;;;;;;;;-1.33609;0.1445;-0.665441;1.49961;-6.14599;-0.00444397;-0.000726671;0.111345;0.111349;-0.00444853;0.057899;0.0399118;25.0553;0.0757594;0.0771987;25.0306;0.0399511;91.0936;136.094;0.00435001;-0.0044459;0.000795807;-0.00209052;0.111345;-0.011113;0.00241372;0;0.110128;-1.8115;-2.72911;-1.44046;3.57834;-7.53118;0.000779524;0.0145315;0.0913963;0.0936695;-0.00149374;0.0475816;-0.00852906;-117.246;0.0629502;0.0634422;62.708;0.0159469;88.6957;133.696;-0.00639012;0.000883019;0.028195;0.00200021;0.0911288;0.0464249;0.103715;0;0.0813756;3.35903
714000;715;;;;;;;;;;-1.335;0.144672;-0.666131;1.49897;-6.13796;-0.00396665;-0.00507773;0.109833;0.110059;-0.00419277;0.0571259;0.0361153;27.6891;0.0748095;0.0761679;26.2497;0.0380956;94.1107;139.111;-0.0234144;-0.00398546;-0.00187337;-0.00795349;0.109843;0.0506698;0.0505352;0;0.105691;-1.81332;-2.73629;-1.43769;3.58362;-7.52754;-0.00103555;0.0155509;0.0913003;0.093849;-0.00358422;0.0487166;0.0113422;88.1662;0.0637943;0.0649555;26.1839;0.0381914;88.7135;133.714;-0.00283214;-0.000917799;0.0297384;0.00256121;0.0910059;0.0510771;0.104775;0;0.0984454;3.35943
715000;716;;;;;;;;;;-1.33514;0.157405;-0.672551;1.50323;-6.16344;-0.00515264;-0.0025781;0.117019;0.117074;-0.00520701;0.0611404;0.0440323;22.7106;0.0798415;0.0815206;22.4839;0.0444763;90.1809;135.181;-0.0404898;-0.00514947;-0.00481994;-0.000581442;0.117012;0.0373326;-0.00457347;0;0.0931779;-1.81436;-2.74181;-1.44595;3.59169;-7.53421;-0.00114053;0.0160442;0.0931652;0.0958201;-0.00379539;0.0498078;0.012242;81.686;0.0651821;0.0664103;25.2464;0.0396096;87.3845;132.384;-0.00799129;-0.00102391;0.0281913;0.00494322;0.0929195;0.0589354;0.0768528;0;0.0726538;3.36065
716000;717;;;;;;;;;;-1.33857;0.159401;-0.678524;1.50916;-6.16001;-0.00285288;-0.00458182;0.112784;0.112965;-0.00303414;0.0579996;0.0252952;39.5332;0.0763415;0.0773328;37.2313;0.0268591;93.162;138.162;-0.0410334;-0.00286224;-0.00266705;-0.0062976;0.11279;0.0105714;-0.00704122;0;0.12338;-1.81586;-2.74636;-1.45067;3.59782;-7.54709;-0.0037185;0.014129;0.0960258;0.0979886;-0.00568127;0.0518349;0.038724;25.8238;0.0672994;0.0691132;17.2477;0.0579789;89.3462;134.346;0.0155199;-0.00362077;0.02724;0.00220914;0.0957783;0.0364442;0.0925581;0;0.0867005;3.359
717000;718;;;;;;;;;;-1.33627;0.159732;-0.675698;1.50588;-6.14739;-0.00323738;-0.00410067;0.109716;0.109864;-0.00338606;0.0566252;0.029507;33.8902;0.0743972;0.0755002;32.4461;0.0308204;93.4386;138.439;-0.0393485;-0.00325097;-0.00128917;-0.00662598;0.109722;0.0334853;-0.0551296;0;0.116317;-1.81643;-2.75645;-1.44793;3.60471;-7.54383;-0.000606987;0.0147744;0.0933516;0.0956201;-0.0028754;0.0492477;0.00650216;153.795;0.0647265;0.0656636;33.2545;0.0300711;87.5058;132.506;0.00152974;-0.000507978;0.025998;0.00451383;0.0931424;0.0470977;0.120197;0;0.0859971;3.35766
718000;719;;;;;;;;;;-1.33703;0.156289;-0.673613;1.50527;-6.1383;-0.00394883;-0.00128995;0.111496;0.111511;-0.00396324;0.057737;0.0354167;28.2353;0.0756962;0.0769826;28.1362;0.0355414;91.5427;136.543;-0.0160581;-0.00395245;0.000593851;-0.00297808;0.111497;-0.0196289;-0.0646242;0;0.130812;-1.81735;-2.7608;-1.44667;3.608;-7.53526;-0.00139483;0.0153519;0.0913262;0.0938019;-0.00387056;0.0488362;0.0152731;65.4746;0.0638639;0.065115;24.2347;0.0412632;89.1657;134.166;0.00476949;-0.00127863;0.0300589;0.00189178;0.0910201;0.0279723;0.108248;0;0.0863949;3.35782
719000;720;;;;;;;;;;-1.33701;0.166095;-0.675837;1.5073;-6.14442;-0.00109117;-0.00659707;0.11624;0.11661;-0.00146093;0.0590355;0.0093872;106.528;0.0782315;0.078714;79.8189;0.0125284;94.999;139.999;-0.0365995;-0.00112144;-0.00257348;-0.0101976;0.116257;0.00619634;-0.0718585;0;0.115058;-1.81826;-2.76825;-1.45004;3.61551;-7.54015;-0.00511404;0.010002;0.0979831;0.0989445;-0.00607542;0.05251;0.0521931;19.1596;0.0680786;0.0700133;16.286;0.0614023;97.1305;142.13;0.0360328;-0.00513486;0.0341615;-0.0118937;0.0974971;0.0403853;0.0918936;0;0.0778115;3.35712
720000;721;;;;;;;;;;-1.33607;0.172565;-0.680541;1.50931;-6.15159;-0.00294652;-0.00565562;0.113793;0.114066;-0.00321988;0.0586429;0.0258938;38.6193;0.0771397;0.0781906;35.4256;0.0282282;94.0889;139.089;-0.0308609;-0.00296426;-0.00280525;-0.0082072;0.113803;0.0518902;-0.0182884;0;0.118516;-1.81737;-2.77035;-1.45221;3.61754;-7.53814;-0.00235903;0.0136719;0.0895748;0.091565;-0.00434914;0.0479571;0.0263358;37.9711;0.0625434;0.0639427;21.0536;0.0474979;91.1267;136.127;0.000112743;-0.00226606;0.0299027;-0.00119241;0.0892502;0.0270285;0.0881368;0;0.0722098;3.35638
721000;722;;;;;;;;;;-1.33585;0.176678;-0.685891;1.51201;-6.15499;-0.00223092;-0.00563036;0.112589;0.112864;-0.00250635;0.0576853;0.0198148;50.4674;0.076092;0.0769137;45.0312;0.0222068;94.1429;139.143;-0.0443353;-0.00224883;-0.00275161;-0.00821198;0.1126;0.0639254;-0.00732534;0;0.119773;-1.81979;-2.7787;-1.45888;3.62783;-7.5456;-0.0044594;0.0113202;0.0954273;0.0966942;-0.00572625;0.0512102;0.0467308;21.3991;0.0664538;0.0682803;16.8861;0.0592202;96.218;141.218;0.0260796;-0.00444632;0.0348898;-0.0101053;0.0949301;0.0190074;0.081245;0;0.0898002;3.35629
722000;723;;;;;;;;;;-1.33418;0.180224;-0.686534;1.51124;-6.15925;-0.0057175;-0.00430412;0.120301;0.120447;-0.00586434;0.0631559;0.0475268;21.0408;0.0823227;0.0842078;20.539;0.048688;92.0653;137.065;-0.0302502;-0.00571849;-0.00405441;-0.00452575;0.120301;0.0509345;-0.0309182;0;0.11267;-1.8204;-2.787;-1.46077;3.63526;-7.55051;-0.00087705;0.0149146;0.0916783;0.0940223;-0.00322107;0.0486217;0.00956661;104.53;0.0637823;0.0648289;29.1898;0.0342586;89.6996;134.7;-0.00147563;-0.000766045;0.0303486;0.000786325;0.0913583;0.0362016;0.0979948;0;0.100403;3.35582
723000;724;;;;;;;;;;-1.33134;0.183978;-0.677415;1.50506;-6.14655;-0.00650345;-0.00502431;0.11788;0.118083;-0.00670607;0.0623944;0.05517;18.1258;0.0810497;0.0831925;17.6083;0.0567913;93.9781;138.978;-0.0291247;-0.00652501;-0.0013937;-0.0082509;0.117891;0.0283938;-0.0213058;0;0.107314;-1.81851;-2.78924;-1.46009;3.63575;-7.54547;-0.00277543;0.0129219;0.0931651;0.094875;-0.00448537;0.0496802;0.0297904;33.5678;0.0647969;0.0662402;21.1521;0.0472766;91.7555;136.756;-0.00183925;-0.0026943;0.0295776;-0.00227483;0.0928413;0.0491401;0.0911558;0;0.0930953;3.35517
724000;725;;;;;;;;;;-1.33401;0.190787;-0.685461;1.5119;-6.15845;-0.0035229;-0.00533413;0.115752;0.11599;-0.00376097;0.0598757;0.0304348;32.8572;0.0786106;0.0798343;30.8406;0.0324248;93.4027;138.403;-0.0264032;-0.00353312;-0.00348212;-0.00698814;0.11576;0.028469;-0.00130759;0;0.101577;-1.8204;-2.79603;-1.46586;3.64422;-7.54816;-0.0034652;0.0132525;0.0939176;0.0956889;-0.00523647;0.0504627;0.0368962;27.1031;0.0656078;0.0672836;18.2735;0.0547239;91.7665;136.767;-0.00670325;-0.00337929;0.0300974;-0.00209581;0.0935838;0.0249844;0.0766239;0;0.0565562;3.35485
725000;726;;;;;;;;;;-1.3328;0.195821;-0.686553;1.51197;-6.16089;-0.00513536;-0.00534924;0.117881;0.118113;-0.00536753;0.0617404;0.0435639;22.9548;0.080591;0.0823205;22.0051;0.0454439;93.08;138.08;-0.027232;-0.00514231;-0.00404068;-0.00651379;0.117887;0.00973158;0.00303155;0;0.10897;-1.82344;-2.80718;-1.4654;3.65412;-7.5556;-0.000711857;0.0147921;0.0930779;0.0953556;-0.00298949;0.0491725;0.00764797;130.754;0.0645899;0.0655634;31.8969;0.031351;88.5172;133.517;-0.000746749;-0.000606309;0.0279058;0.0028016;0.0928218;0.0282134;0.103067;0;0.0653778;3.35486
726000;727;;;;;;;;;;-1.33337;0.200494;-0.681648;1.51087;-6.15598;-0.00409547;-0.00680321;0.120454;0.120824;-0.00446598;0.0626451;0.0340004;29.4115;0.0820787;0.0835269;27.0544;0.0369626;94.2394;139.239;-0.037034;-0.00411357;-0.00424845;-0.00907394;0.120466;0.0208388;-0.0276219;0;0.116235;-1.82444;-2.81233;-1.4632;3.6577;-7.54837;-0.00106118;0.0174608;0.0897062;0.0929492;-0.00430421;0.0486267;0.0118295;84.5346;0.0634496;0.0648356;21.595;0.0463071;86.5595;131.56;-0.00672081;-0.00092827;0.0296648;0.0062712;0.0894423;0.04265;0.101238;0;0.0785058;3.35437
727000;728;;;;;;;;;;-1.33263;0.202779;-0.682679;1.51098;-6.15353;-0.00643306;-0.00446638;0.107675;0.107849;-0.00660761;0.0572285;0.0597452;16.7378;0.0742003;0.0763047;16.322;0.061267;92.9475;137.947;-0.0257816;-0.00643944;-0.00307763;-0.00571207;0.10768;0.0397222;0.0163684;0;0.128214;-1.82408;-2.81755;-1.46559;3.66249;-7.54933;-0.00263225;0.0133357;0.0916266;0.093477;-0.00448264;0.0489798;0.028728;34.8093;0.0638647;0.0653064;20.8531;0.0479545;92.8552;137.855;0.00228612;-0.00255201;0.0325436;-0.00421764;0.0912229;0.0429977;0.0780123;0;0.0754171;3.35348
728000;729;;;;;;;;;;-1.33225;0.221446;-0.690066;1.51662;-6.1719;-0.00320039;-0.00679333;0.106717;0.107135;-0.00361866;0.0553769;0.0299896;33.3449;0.0726597;0.0738359;29.6063;0.0337765;94.3839;139.384;-0.0284984;-0.00321217;-0.00507178;-0.00834389;0.106726;0.0991001;0.016125;0;0.104536;-1.82513;-2.8248;-1.47266;3.67142;-7.55926;-0.00479155;0.0107658;0.0956394;0.0967805;-0.00593265;0.0513566;0.0501002;19.96;0.066586;0.0684754;16.3132;0.0613;96.3433;141.343;0.0215517;-0.00478574;0.0338585;-0.0102146;0.095169;0.0221336;0.0951726;0;0.0760229;3.35332
729000;730;;;;;;;;;;-1.33497;0.218522;-0.685742;1.51662;-6.15793;-0.0046147;-0.00390745;0.114362;0.11449;-0.00474289;0.0596164;0.0403517;24.7821;0.0779557;0.0794885;24.1393;0.0414262;92.7622;137.762;-0.03641;-0.00462273;-0.00202155;-0.00559198;0.114367;0.0537609;-0.00117951;0;0.107329;-1.82737;-2.83233;-1.47602;3.67968;-7.56275;-0.0040454;0.0110941;0.0963555;0.0975668;-0.00525666;0.0514117;0.0419841;23.8185;0.0668656;0.068549;18.5606;0.0538776;96.0384;141.038;0.0221895;-0.00403378;0.0343058;-0.00999671;0.0958748;0.0246741;0.0790383;0;0.0815541;3.35072
730000;731;;;;;;;;;;-1.3347;0.219063;-0.69036;1.51856;-6.16416;-0.00397745;0.000796369;0.111919;0.111924;-0.00398292;0.0579536;0.0355387;28.1383;0.0759786;0.0772715;28.101;0.0355859;89.4541;134.454;-0.0324505;-0.00397772;0.000477583;0.00108193;0.111919;0.0469977;0.097428;0;0.108142;-1.82737;-2.83537;-1.47326;3.68091;-7.55919;-0.00236734;0.0142439;0.0911878;0.0933083;-0.00448794;0.0488981;0.0259612;38.519;0.0637542;0.0651975;20.7909;0.0480979;90.8859;135.886;0.000984472;-0.00226598;0.0306941;-0.000798941;0.090849;0.0260549;0.0938511;0;0.097768;3.35048
731000;732;;;;;;;;;;-1.33362;0.221307;-0.693744;1.51947;-6.15945;-0.00735964;-0.0044741;0.108785;0.108957;-0.00753173;0.0582444;0.0676531;14.7813;0.0752744;0.0776592;14.4664;0.0691257;93.0451;138.045;-0.0494731;-0.00736742;-0.00282022;-0.00595474;0.10879;0.0104005;-0.0372944;0;0.120347;-1.82727;-2.84442;-1.48232;3.69146;-7.56969;-0.0024673;0.0129767;0.0934622;0.0951866;-0.0041917;0.0496891;0.0263989;37.8804;0.0649001;0.0662522;22.7083;0.0440367;91.9255;136.925;0.0038687;-0.00238651;0.0301417;-0.0026855;0.0931237;0.0306743;0.100977;0;0.0859155;3.35045
732000;733;;;;;;;;;;-1.33458;0.225815;-0.694612;1.52138;-6.16048;-0.00501553;-0.00458303;0.108714;0.108898;-0.00519992;0.0570491;0.0461352;21.6754;0.0743927;0.0760654;20.9423;0.0477503;93.7528;138.753;-0.0313085;-0.00503099;-0.00167284;-0.00719467;0.108722;-0.0294348;-0.0714511;0;0.112604;-1.82885;-2.85222;-1.48491;3.6993;-7.57241;-0.00249046;0.0123292;0.0958184;0.0973411;-0.00401311;0.0506771;0.0259914;38.4742;0.0662723;0.0675694;24.2557;0.0412274;92.8655;137.866;-0.00554707;-0.00242438;0.0308054;-0.00449275;0.0954547;0.0195214;0.0921429;0;0.0682321;3.34918
733000;734;;;;;;;;;;-1.33511;0.238483;-0.702938;1.52759;-6.17398;-0.00245851;-0.00653413;0.114628;0.114992;-0.00282202;0.058907;0.0214476;46.6252;0.0776191;0.0785426;40.7481;0.024541;94.7112;139.711;-0.0239792;-0.00248253;-0.00319859;-0.00951923;0.114643;0.0390451;-0.0504963;0;0.117119;-1.82996;-2.85818;-1.48876;3.70599;-7.57782;-0.00265206;0.0125109;0.0947974;0.0963779;-0.00423261;0.0503053;0.0279761;35.7448;0.0657083;0.0670737;22.7703;0.0439168;91.5454;136.545;-0.00266586;-0.00257561;0.0284415;-0.00200429;0.0944994;0.0392648;0.0959883;0;0.0680116;3.3488
734000;735;;;;;;;;;;-1.33454;0.238106;-0.693406;1.52266;-6.16297;-0.00280233;-0.0043161;0.11476;0.114918;-0.00296058;0.0589395;0.0244191;40.9516;0.0776179;0.0785859;38.8162;0.0257625;93.5574;138.557;-0.0190443;-0.00281869;-0.00113803;-0.00715898;0.114768;0.0185362;-0.0250491;0;0.124511;-1.83099;-2.86548;-1.48374;3.71012;-7.56706;-0.00136092;0.0167675;0.0904813;0.0934468;-0.0043264;0.0488866;0.0150409;66.4855;0.0637889;0.0651822;21.5992;0.046298;87.7248;132.725;-0.00567035;-0.00122984;0.0302732;0.00439686;0.09019;0.0514658;0.0951192;0;0.0718117;3.34837
735000;736;;;;;;;;;;-1.33296;0.246833;-0.700457;1.52589;-6.17794;-0.00594044;-0.00284158;0.119512;0.119576;-0.00600477;0.0627906;0.0497058;20.1184;0.0817927;0.0837207;19.9135;0.0502171;92.0926;137.093;-0.0102847;-0.00594616;-0.00107525;-0.00440997;0.119515;0.00974497;0.0260806;0;0.126436;-1.83349;-2.87207;-1.48839;3.7183;-7.57123;-0.00411144;0.0119181;0.0974902;0.0988695;-0.00549075;0.0521801;0.0421729;23.7119;0.0678174;0.0695735;18.0066;0.0555353;95.297;140.297;0.0252006;-0.00407798;0.0346162;-0.00868342;0.0970089;0.0592233;0.0843021;0;0.0756841;3.34749
736000;737;;;;;;;;;;-1.33357;0.251757;-0.70326;1.52852;-6.18029;-0.00408235;-0.00606464;0.11888;0.119178;-0.00438074;0.0617795;0.0343401;29.1205;0.0809519;0.0823726;27.2051;0.0367579;93.8276;138.828;-0.0213324;-0.00409668;-0.0037976;-0.00808252;0.11889;0.0211271;0.0186549;0;0.121291;-1.8323;-2.87588;-1.49508;3.72334;-7.57866;-0.00291101;0.0121293;0.0920637;0.0935883;-0.00443559;0.0490119;0.0316196;31.626;0.063922;0.0653492;21.0994;0.0473947;94.0153;139.015;-0.00416575;-0.00285667;0.032227;-0.00622441;0.0916555;0.0405144;0.0976645;0;0.0642466;3.34627
737000;738;;;;;;;;;;-1.33291;0.249291;-0.699005;1.52558;-6.16664;-0.00654994;-0.00507949;0.114688;0.1149;-0.00676238;0.0608314;0.0571109;17.5098;0.078951;0.0811085;16.9911;0.0588543;92.8817;137.882;-0.0321343;-0.00655502;-0.00405532;-0.00599227;0.114692;0.027412;0.0228318;0;0.112761;-1.83333;-2.88465;-1.49153;3.7292;-7.57966;-0.00208874;0.0122316;0.0933656;0.094908;-0.00363118;0.0492696;0.0223717;44.6994;0.0645165;0.0656928;26.1369;0.03826;92.5842;137.584;-0.00204533;-0.00202173;0.0299935;-0.00398272;0.0930225;0.0358243;0.0884836;0;0.075222;3.34554
738000;739;;;;;;;;;;-1.33188;0.266195;-0.699063;1.52756;-6.1796;-0.00482421;-0.00119224;0.112361;0.112373;-0.00483634;0.0586047;0.042935;23.291;0.0765784;0.0781396;23.2351;0.0430383;90.6671;135.667;-0.0101858;-0.00482441;-0.00101642;-0.00134955;0.112361;0.00881911;0.0398203;0;0.114755;-1.8333;-2.88976;-1.49212;3.73339;-7.57256;-0.00352101;0.0127058;0.0927427;0.0943914;-0.0051698;0.0497806;0.0379654;26.3398;0.0647198;0.0663742;18.2583;0.0547697;93.9238;138.924;0.00192318;-0.0034575;0.03311;-0.00590516;0.0923148;0.0219803;0.0843859;0;0.105229;3.34439
739000;740;;;;;;;;;;-1.33284;0.269202;-0.703894;1.53115;-6.17601;-0.0049294;-0.00520626;0.107327;0.107568;-0.00517034;0.0563693;0.0459287;21.7729;0.0734962;0.075159;20.8049;0.0480657;93.2514;138.251;-0.0235502;-0.00493558;-0.00401521;-0.00627657;0.107332;-0.00115936;0.0307725;0;0.13096;-1.83522;-2.89855;-1.49838;3.74363;-7.5877;-0.00280491;0.0147749;0.0935214;0.0957367;-0.00502018;0.0503784;0.0299922;33.342;0.065562;0.0671713;19.0704;0.0524374;89.824;134.824;0.00555024;-0.00269615;0.0296869;0.00117374;0.0932182;0.0320343;0.110375;0;0.109472;3.34291
740000;741;;;;;;;;;;-1.33069;0.277491;-0.703222;1.53044;-6.1766;-0.006312;-0.00517689;0.111314;0.111541;-0.0065394;0.0590404;0.0567044;17.6353;0.0766338;0.0787205;17.0568;0.0586276;93.2487;138.249;-0.029898;-0.00631985;-0.00368264;-0.00651297;0.11132;0.0470041;0.0129942;0;0.0971529;-1.83587;-2.90368;-1.49928;3.74828;-7.58522;-0.00366002;0.0152181;0.092961;0.0953012;-0.00600024;0.0506507;0.0393715;25.3991;0.0656257;0.0675343;15.8829;0.0629608;90.1209;135.121;0.00104826;-0.00354427;0.0308517;0.000963629;0.0926315;0.0198871;0.0950986;0;0.0676074;3.34213
741000;742;;;;;;;;;;-1.33417;0.281886;-0.706977;1.536;-6.18315;-0.00237236;-0.00191031;0.115128;0.115159;-0.00240341;0.0587812;0.0206063;48.5288;0.0775863;0.078375;47.9148;0.0208704;91.4454;136.445;-0.0240653;-0.00237481;-0.000781784;-0.00291991;0.115129;0.0145359;0.0749884;0;0.101429;-1.83852;-2.91359;-1.50952;3.76136;-7.60658;-0.00286722;0.0118002;0.0976879;0.0990541;-0.00423341;0.0516438;0.0293508;34.0706;0.0674915;0.0688584;23.3982;0.0427383;92.9597;137.96;0.00452327;-0.00280821;0.0298996;-0.00464427;0.0973441;0.0224304;0.108205;0;0.0857775;3.34021
742000;743;;;;;;;;;;-1.33603;0.280578;-0.706825;1.5373;-6.16812;-0.00443152;-0.00368495;0.107705;0.107826;-0.00455248;0.0561894;0.0411448;24.3044;0.0734488;0.0749192;23.6852;0.0422204;93.5929;138.593;-0.0335375;-0.00444766;-0.000260685;-0.00676253;0.107712;-0.0282134;-0.0653481;0;0.103988;-1.84072;-2.92225;-1.50385;3.76688;-7.59673;-0.00106254;0.0148309;0.0938956;0.096158;-0.00332497;0.0497415;0.0113162;88.369;0.0652419;0.066322;28.92;0.0345782;89.2685;134.269;-0.00587023;-0.000953749;0.0293052;0.00161052;0.0936035;0.0457633;0.11528;0;0.0866813;3.33867
743000;744;;;;;;;;;;-1.33521;0.286403;-0.711988;1.54005;-6.17505;-0.00582215;-0.00379393;0.109777;0.109902;-0.00594654;0.0579241;0.053036;18.8551;0.0753282;0.0772321;18.4816;0.0541078;93.2337;138.234;-0.0349832;-0.00583451;-0.00106153;-0.00624169;0.109783;-0.0643038;-0.0981685;0;0.112643;-1.83936;-2.92495;-1.50578;3.76908;-7.58952;-0.00340055;0.0135576;0.0930079;0.0948782;-0.00527084;0.0500745;0.0365619;27.3509;0.0650803;0.0667661;18.0006;0.0555537;93.0654;138.065;-0.00132123;-0.00331807;0.0332528;-0.00440453;0.0925861;0.0471084;0.07274;0;0.0736725;3.33718
744000;745;;;;;;;;;;-1.334;0.297461;-0.717257;1.54354;-6.18803;-0.00331461;-0.00478619;0.112034;0.112232;-0.00351286;0.0578723;0.0295859;33.7999;0.0760192;0.0771631;31.9488;0.0313001;93.2356;138.236;-0.0350617;-0.00332379;-0.00296328;-0.00642001;0.11204;0.0490448;-0.00391121;0;0.128474;-1.84164;-2.93377;-1.51047;3.77891;-7.59547;-0.00510581;0.0104446;0.0983548;0.0993987;-0.00614969;0.0527742;0.0519122;19.2633;0.0684079;0.0703656;16.1632;0.0618689;97.0521;142.052;0.0286302;-0.00512121;0.0350203;-0.0118211;0.097846;0.0430514;0.0869541;0;0.0741973;3.33587
745000;746;;;;;;;;;;-1.33451;0.300656;-0.716786;1.54438;-6.18455;-0.00390499;-0.00479351;0.115517;0.115709;-0.00409709;0.0599031;0.0338045;29.5819;0.0785408;0.0798709;28.2418;0.0354085;93.5913;138.591;-0.0301742;-0.00392029;-0.0019743;-0.00731088;0.115526;0.0197323;-0.0261239;0;0.129165;-1.84255;-2.94216;-1.5077;3.78477;-7.59443;-0.00424684;0.0108164;0.0979545;0.0990867;-0.00537905;0.0522329;0.0433552;23.0653;0.0679219;0.0696438;18.4209;0.0542863;96.3969;141.397;0.0240165;-0.00424664;0.0346435;-0.0107976;0.0974611;0.0223188;0.0760125;0;0.0814507;3.33437
746000;747;;;;;;;;;;-1.3347;0.301709;-0.707556;1.54048;-6.17554;-0.00308796;-0.00497667;0.114093;0.114304;-0.00329894;0.0588013;0.0270653;36.9477;0.0773256;0.0784018;34.6487;0.0288611;93.7624;138.762;-0.0203312;-0.00310418;-0.00209313;-0.00755688;0.114102;0.00531932;-0.0454021;0;0.123475;-1.84356;-2.9485;-1.50647;3.7897;-7.59328;-0.00220666;0.0130008;0.0942031;0.0959254;-0.00392903;0.0499272;0.0234245;42.6903;0.0652994;0.0665696;24.4145;0.0409592;91.8756;136.876;-0.00921457;-0.00212564;0.0302234;-0.00270753;0.0938628;0.0383967;0.0795959;0;0.0867044;3.33297
747000;748;;;;;;;;;;-1.33266;0.307082;-0.711906;1.54178;-6.18003;-0.0065346;-0.000900595;0.112999;0.113006;-0.00654139;0.0597737;0.0578288;17.2924;0.0776097;0.0796982;17.2755;0.0578854;91.0768;136.077;-0.040004;-0.0065364;0.000433849;-0.00209172;0.112999;0.0394601;0.00722822;0;0.128841;-1.8457;-2.95892;-1.50817;3.79953;-7.5949;-0.00585288;0.0110492;0.100582;0.101717;-0.00698781;0.0543523;0.0581902;17.185;0.0702564;0.0724697;14.5563;0.0686987;96.0219;141.022;0.0205331;-0.00583969;0.0341154;-0.00979094;0.100108;0.0202715;0.0885143;0;0.0913615;3.33198
748000;749;;;;;;;;;;-1.33181;0.322872;-0.719381;1.54773;-6.20053;-0.00751827;-0.00380846;0.119158;0.119272;-0.00763266;0.0634523;0.0630951;15.8491;0.0821771;0.0846031;15.6265;0.0639937;92.6007;137.601;-0.0252707;-0.00752626;-0.00188833;-0.00551123;0.119162;0.0143477;0.0130616;0;0.12138;-1.84519;-2.96328;-1.51754;3.8064;-7.60576;-0.00288178;0.0115794;0.0987576;0.10006;-0.0041843;0.0521222;0.0291804;34.2696;0.0681443;0.0694963;23.9132;0.0418178;92.5552;137.555;0.00192419;-0.00282234;0.0286808;-0.0039427;0.0984442;0.0429458;0.103918;0;0.0823568;3.33014
749000;750;;;;;;;;;;-1.33298;0.32282;-0.719208;1.54865;-6.18747;-0.0042964;-0.00395583;0.115582;0.115713;-0.0044268;0.0600697;0.0371718;26.9021;0.0786588;0.0800929;26.1391;0.0382568;93.0948;138.095;-0.0373354;-0.00430842;-0.0013391;-0.00629135;0.115588;0.00865019;-0.0382689;0;0.107293;-1.84637;-2.96874;-1.51779;3.81132;-7.59715;-0.00230432;0.0136662;0.0935948;0.0955043;-0.00421381;0.0498591;0.0246201;40.6172;0.0651196;0.0664787;22.6646;0.0441217;92.0396;137.04;-0.0118188;-0.00221508;0.0318754;-0.00294982;0.0932156;0.0482601;0.0756542;0;0.0637574;3.32844
750000;751;;;;;;;;;;-1.33419;0.328753;-0.720958;1.55175;-6.1963;-0.0037002;-0.00151967;0.110322;0.110342;-0.00372045;0.0570314;0.03354;29.8152;0.0748326;0.0760419;29.6583;0.0337173;90.4429;135.443;-0.00311329;-0.00369947;-0.00218192;-0.000925418;0.110321;-0.0393436;0.0438258;0;0.112984;-1.84905;-2.97818;-1.51843;3.82024;-7.6067;-0.00121264;0.0153238;0.0940427;0.0964471;-0.0036171;0.0500321;0.0128946;77.5519;0.0655371;0.0667095;26.6642;0.0375034;89.6236;134.624;-0.00187661;-0.00109564;0.0309614;0.00104472;0.0937118;0.0469301;0.0998818;0;0.079992;3.32707
751000;752;;;;;;;;;;-1.33353;0.328057;-0.720801;1.55096;-6.19237;-0.00636489;-0.00169641;0.112886;0.11291;-0.00638901;0.0596494;0.0563835;17.7357;0.0774907;0.0795325;17.6725;0.0565851;90.1644;135.164;-0.0270761;-0.00636356;-0.00304242;-0.000494623;0.112883;0.0343591;0.0259555;0;0.111466;-1.84943;-2.98441;-1.51658;3.82454;-7.60032;-0.00321637;0.0127616;0.0931667;0.0948278;-0.00487745;0.0498526;0.0345228;28.9664;0.0649055;0.0664702;19.4421;0.0514349;93.2878;138.288;0.00105715;-0.00314662;0.032102;-0.00487737;0.0927698;0.0330191;0.0780443;0;0.0784665;3.32533
752000;753;;;;;;;;;;-1.33261;0.341218;-0.727608;1.55618;-6.20437;-0.00498928;-0.00118789;0.115388;0.1154;-0.005001;0.0602006;0.043239;23.1273;0.0786534;0.0802674;23.0754;0.0433362;90.0404;135.04;-0.0184111;-0.00498859;-0.00231625;-0.000181303;0.115387;0.0119646;0.0139941;0;0.121653;-1.84973;-2.98895;-1.52487;3.83152;-7.60884;-0.00251929;0.0126117;0.0925758;0.09422;-0.00416344;0.0491917;0.0272133;36.7468;0.0642461;0.0655889;22.6303;0.0441885;92.8805;137.88;-0.00876488;-0.00244901;0.0311769;-0.00434123;0.0922037;0.0306701;0.0887017;0;0.0752718;3.32247
753000;754;;;;;;;;;;-1.33236;0.342638;-0.725612;1.55534;-6.19151;-0.00678365;-0.000460297;0.108135;0.108137;-0.00678549;0.0574613;0.0627329;15.9406;0.0744564;0.0766151;15.9365;0.0627489;90.7729;135.773;-0.0328184;-0.00678455;0.000604941;-0.00141506;0.108135;0.0117817;0.0324865;0;0.115265;-1.85029;-2.99616;-1.52589;3.83782;-7.61125;-0.00267867;0.0132743;0.0932628;0.0950656;-0.00448142;0.0497735;0.0287218;34.8168;0.0649224;0.0663647;21.2133;0.0471403;92.4785;137.478;0.000395052;-0.00259684;0.0317699;-0.00360171;0.0928817;0.0342795;0.0858894;0;0.073574;3.32082
754000;755;;;;;;;;;;-1.3333;0.352243;-0.728173;1.55949;-6.19484;-0.00435463;-0.00343983;0.115422;0.115521;-0.00445334;0.0599871;0.0377278;26.5056;0.0785405;0.0799828;25.9403;0.03855;92.4066;137.407;-0.0379483;-0.00436081;-0.00178972;-0.00491274;0.115426;-0.0203475;-0.0739202;0;0.121866;-1.85053;-3.00473;-1.53399;3.84786;-7.62213;-0.00212636;0.0122132;0.096448;0.0979386;-0.00361702;0.0507778;0.0220467;45.3583;0.0665309;0.0677038;27.0772;0.0369315;92.5795;137.58;-0.00710741;-0.00206008;0.0301444;-0.00410903;0.0961016;0.0330796;0.090854;0;0.088323;3.31827
755000;756;;;;;;;;;;-1.33161;0.352062;-0.731022;1.55933;-6.19173;-0.00732368;-0.00606691;0.114536;0.114838;-0.00762498;0.0612313;0.063942;15.6392;0.0792225;0.0816417;15.0607;0.0663979;93.6147;138.615;-0.0116615;-0.00733348;-0.00445747;-0.00750037;0.114544;0.000555568;0.00541596;0;0.118563;-1.85308;-3.01155;-1.5399;3.85676;-7.6265;-0.00681041;0.010862;0.100875;0.10196;-0.00789512;0.0549274;0.0675134;14.8119;0.0707518;0.0732365;12.9143;0.0774337;95.9659;140.966;0.029092;-0.00679533;0.033297;-0.00938272;0.100425;0.0199953;0.0965659;0;0.0833952;3.31644
756000;757;;;;;;;;;;-1.33124;0.362971;-0.730462;1.56125;-6.19654;-0.00495747;-0.00323165;0.111523;0.111612;-0.00504706;0.0583296;0.0444526;22.4959;0.0761462;0.0777728;22.1143;0.0452196;92.7025;137.702;-0.0280247;-0.00496631;-0.000926345;-0.00529536;0.111527;0.00903807;-0.0236062;0;0.116463;-1.85392;-3.02152;-1.53719;3.86388;-7.62634;-0.000678323;0.0148637;0.094685;0.096948;-0.00294135;0.0499447;0.007164;139.587;0.0656344;0.0665929;32.9604;0.0303394;89.0219;134.022;-0.00792001;-0.000569669;0.0290195;0.00193881;0.0944012;0.0422997;0.0908575;0;0.0602006;3.31242
757000;758;;;;;;;;;;-1.33184;0.363529;-0.723082;1.55846;-6.18814;-0.00533289;-0.00433662;0.11756;0.117713;-0.00548573;0.0615992;0.0453632;22.0443;0.0803661;0.0821323;21.458;0.0466027;93.327;138.327;-0.0177137;-0.00534728;-0.00147021;-0.0068878;0.117567;-0.0272171;-0.0755494;0;0.138734;-1.85624;-3.03005;-1.52557;3.86706;-7.60492;-0.00181227;0.0135746;0.0936495;0.0955422;-0.00370504;0.0496236;0.0193516;51.6752;0.0649651;0.0661648;25.7871;0.0387791;92.1636;137.164;-0.0138597;-0.00172558;0.0321103;-0.00334692;0.0932622;0.0662964;0.0803042;0;0.0735778;3.31054
758000;759;;;;;;;;;;-1.33029;0.367963;-0.72952;1.56118;-6.19205;-0.00658585;-0.000368233;0.112383;0.112384;-0.00658699;0.0594854;0.058602;17.0643;0.0772119;0.0793138;17.0615;0.0586116;90.8561;135.856;-0.0186043;-0.00658709;0.00102625;-0.00161358;0.112382;0.00797924;0.00973151;0;0.125711;-1.85613;-3.03422;-1.5406;3.87623;-7.63384;-0.00289075;0.0129202;0.0955405;0.0972081;-0.00455841;0.0508833;0.0302568;33.0504;0.0663771;0.0678444;21.325;0.0468933;92.1037;137.104;0.011107;-0.00281142;0.0303586;-0.00295458;0.095196;0.0214509;0.100313;0;0.0886179;3.3079
759000;760;;;;;;;;;;-1.33011;0.385766;-0.736267;1.56847;-6.20887;-0.0077632;-0.00192024;0.116195;0.116225;-0.00779294;0.0620088;0.0668119;14.9674;0.0802071;0.0826784;14.9141;0.0670507;91.5744;136.574;-0.00924432;-0.00776654;-0.000468495;-0.00321076;0.116197;-0.0193772;0.00827838;0;0.137782;-1.85925;-3.04248;-1.53941;3.88372;-7.62225;-0.00421351;0.0114644;0.0980787;0.0993478;-0.00548264;0.0524152;0.0429605;23.2772;0.068133;0.069887;18.1204;0.0551864;95.3905;140.39;0.0284779;-0.00418699;0.0338786;-0.0088663;0.0976158;0.0445647;0.0908971;0;0.0874861;3.30356
760000;761;;;;;;;;;;-1.33041;0.39179;-0.739483;1.57173;-6.21826;-0.00947737;-0.00130639;0.11918;0.119193;-0.00949063;0.0643419;0.0795216;12.5752;0.0828071;0.0857892;12.559;0.079624;90.9469;135.947;-0.0192567;-0.00947853;-0.000523833;-0.00199899;0.119181;0.021213;0.00222392;0;0.133748;-1.85897;-3.04694;-1.55279;3.8924;-7.63801;-0.00256512;0.0118183;0.0943399;0.0957605;-0.00398563;0.049873;0.0271902;36.778;0.0652095;0.0664974;24.0264;0.0416209;93.1179;138.118;-0.000726054;-0.00250685;0.0300932;-0.00484143;0.0939899;0.021556;0.0804279;0;0.0783051;3.30127
761000;762;;;;;;;;;;-1.33244;0.394695;-0.735163;1.57215;-6.21111;-0.00679597;-0.00357521;0.116949;0.117052;-0.00689917;0.0619755;0.0581107;17.2085;0.080433;0.082634;16.9661;0.0589412;91.6435;136.643;-0.0378923;-0.0067959;-0.00359681;-0.00355599;0.116949;0.0117699;-0.0391542;0;0.119348;-1.86064;-3.05865;-1.54744;3.90024;-7.63404;-0.00479839;0.0113845;0.0993109;0.100541;-0.00602876;0.053285;0.0483169;20.6967;0.0691248;0.0710467;16.6769;0.0599631;94.8725;139.872;0.0365168;-0.00476362;0.0325399;-0.00777139;0.0988882;0.0361993;0.0832584;0;0.0944577;3.29908
762000;763;;;;;;;;;;-1.33112;0.401389;-0.736992;1.57358;-6.21346;-0.00613825;-8.35372e-05;0.113817;0.113817;-0.00613831;0.0599776;0.0539309;18.5422;0.0780046;0.0799702;18.5421;0.0539314;89.3835;134.383;-0.0357426;-0.00613891;-0.00145791;0.00114282;0.113816;0.011723;0.019957;0;0.110386;-1.86179;-3.0679;-1.54807;3.90829;-7.63479;-0.00475912;0.0119418;0.100514;0.101852;-0.00609675;0.0539744;0.0473476;21.1204;0.0700221;0.0719659;16.706;0.0598588;94.6478;139.648;0.0255873;-0.00471547;0.033396;-0.00746445;0.100072;0.0212202;0.0718686;0;0.0914227;3.29607
763000;764;;;;;;;;;;-1.32951;0.407673;-0.741512;1.57595;-6.21262;-0.0061011;-0.00538992;0.115552;0.11579;-0.00633943;0.0610647;0.0527998;18.9395;0.0793908;0.0814196;18.265;0.0547494;94.1124;139.112;-0.0314121;-0.00612193;-0.00201814;-0.00839395;0.115563;0.035981;-0.0209472;0;0.123889;-1.86037;-3.06874;-1.55474;3.91093;-7.63207;-0.00333076;0.0127427;0.0953477;0.0969667;-0.00494972;0.0509582;0.0349328;28.6264;0.0663559;0.0679443;19.5903;0.0510456;92.4664;137.466;-0.0111571;-0.00325533;0.030553;-0.00346621;0.0949957;0.0332019;0.104032;0;0.0744714;3.29317
764000;765;;;;;;;;;;-1.33101;0.419464;-0.739675;1.57945;-6.2132;-0.00545696;-0.00588065;0.112314;0.112607;-0.00574987;0.0591782;0.0485868;20.5817;0.0770592;0.0789043;19.5842;0.0510616;93.3536;138.354;-0.0429366;-0.00546291;-0.00483903;-0.00681198;0.112319;0.0743922;0.0448396;0;0.104486;-1.86453;-3.07966;-1.55069;3.91987;-7.62921;-0.00173879;0.0137906;0.095029;0.0969559;-0.00366576;0.0503109;0.0182974;54.6525;0.0658932;0.0670811;26.4491;0.0378085;90.8889;135.889;-0.0150176;-0.00164413;0.0301159;-0.00109491;0.0947016;0.0388413;0.0881659;0;0.0526394;3.28882
765000;766;;;;;;;;;;-1.33037;0.41967;-0.742445;1.58026;-6.20887;-0.00538248;-0.0043419;0.115845;0.116001;-0.00553779;0.0607692;0.0464626;21.5227;0.0792442;0.0810256;20.9471;0.0477393;92.7625;137.763;-0.0262996;-0.0053894;-0.00280567;-0.00571122;0.11585;0.0190901;0.0356714;0;0.125298;-1.86584;-3.08681;-1.5566;3.92845;-7.64146;-0.00209395;0.0114691;0.0954036;0.0967346;-0.00342494;0.0500797;0.0219483;45.5616;0.0656611;0.066773;28.2441;0.0354056;93.3869;138.387;-0.0103083;-0.00204343;0.0301395;-0.00554273;0.0950489;0.0521514;0.0862317;0;0.0827273;3.28611
766000;767;;;;;;;;;;-1.33033;0.42242;-0.742084;1.58079;-6.20744;-0.006256;-0.00437373;0.117512;0.117666;-0.00641037;0.0620382;0.0532372;18.7838;0.0806658;0.0827176;18.3556;0.0544793;93.0274;138.027;-0.0345787;-0.00626645;-0.00218965;-0.0063159;0.117518;0.0323877;-0.0890093;0;0.119549;-1.86772;-3.09491;-1.56116;3.93752;-7.65404;-0.00220312;0.0116432;0.0958951;0.097258;-0.0035661;0.0504121;0.0229743;43.5269;0.0660595;0.0672161;27.273;0.0366663;92.4853;137.485;0.00778738;-0.00214273;0.0286881;-0.00387873;0.0955814;0.0360706;0.100728;0;0.0769793;3.28164
767000;768;;;;;;;;;;-1.33022;0.427518;-0.742166;1.58211;-6.20647;-0.00476944;-0.00431589;0.116605;0.116758;-0.00492271;0.0608403;0.0409026;24.4483;0.0795303;0.0811204;23.7182;0.0421617;93.0776;138.078;-0.0403176;-0.0047803;-0.00204003;-0.00634434;0.116611;0.0564634;-0.0658383;0;0.129971;-1.86838;-3.10435;-1.56213;3.94564;-7.64886;-0.00432635;0.0106075;0.0987763;0.0998563;-0.00540638;0.0526314;0.0437995;22.8313;0.0684442;0.0701751;18.4701;0.0541416;95.9609;140.961;0.0278426;-0.00431987;0.0333227;-0.00998048;0.0983221;0.0260551;0.0886622;0;0.0870513;3.2771
768000;769;;;;;;;;;;-1.32925;0.437114;-0.749144;1.5872;-6.21758;-0.00642006;-0.00311007;0.115906;0.115985;-0.00649908;0.0612421;0.0553902;18.0537;0.0795783;0.0816561;17.8464;0.0560338;92.12;137.12;-0.0222181;-0.00642482;-0.00169268;-0.00437208;0.115909;0.0330937;0.0230252;0;0.118612;-1.86781;-3.10829;-1.5691;3.95124;-7.65504;-0.00273893;0.0149078;0.0929584;0.095227;-0.0050075;0.0501172;0.0294641;33.9397;0.0652179;0.066823;19.0169;0.0525849;88.6698;133.67;0.00599272;-0.00263243;0.0278101;0.00313321;0.0927062;0.023768;0.0897535;0;0.0722074;3.27425
769000;770;;;;;;;;;;-1.32891;0.445148;-0.748176;1.58869;-6.21687;-0.00661669;-0.00346437;0.11587;0.115968;-0.0067146;0.0613412;0.0571045;17.5118;0.0796445;0.0817883;17.271;0.0579005;92.8837;137.884;-0.0314525;-0.00662795;-0.000770956;-0.00586211;0.115875;0.0338768;0.0219194;0;0.131209;-1.87163;-3.1215;-1.56995;3.96378;-7.65668;-0.00510632;0.0107708;0.100341;0.10143;-0.00619525;0.0538125;0.0508898;19.6503;0.0697767;0.07175;16.3722;0.0610792;94.8026;139.803;0.0271645;-0.00507724;0.0311131;-0.00762557;0.0999537;0.0181937;0.079585;0;0.0908207;3.26936
770000;771;;;;;;;;;;-1.32768;0.449709;-0.746816;1.5883;-6.21768;-0.00951897;-0.00191133;0.116043;0.116072;-0.00954805;0.0628099;0.0820298;12.1907;0.0807523;0.0837466;12.1566;0.0822599;91.1809;136.181;-0.00824576;-0.00952023;-0.00127013;-0.00248039;0.116044;0.000255103;-0.0367651;0;0.105623;-1.8704;-3.12867;-1.57483;3.97077;-7.66155;-0.0059411;0.0109961;0.0996222;0.100755;-0.00707436;0.0539149;0.0596363;16.7683;0.0696483;0.0718865;14.2423;0.0702132;95.8629;140.863;0.0252849;-0.00592412;0.0334834;-0.0093367;0.0991673;0.0255189;0.0807413;0;0.0767312;3.26357
771000;772;;;;;;;;;;-1.32821;0.462562;-0.752597;1.59515;-6.23095;-0.00750938;-0.00432519;0.117675;0.117824;-0.00765864;0.0627416;0.0638145;15.6704;0.081223;0.0836554;15.3845;0.0650004;92.4857;137.486;-0.0265715;-0.00751409;-0.00323079;-0.00529701;0.117679;0.0493901;-0.00633325;0;0.128281;-1.87254;-3.13578;-1.57482;3.97738;-7.65496;-0.00210952;0.0129701;0.0953281;0.097025;-0.00380645;0.0504157;0.0221291;45.1894;0.0659888;0.067221;25.4896;0.0392317;91.8535;136.854;-0.0206522;-0.002029;0.03021;-0.00273918;0.0949882;0.037858;0.083384;0;0.0687774;3.25704
772000;773;;;;;;;;;;-1.32771;0.4648;-0.755672;1.59684;-6.22763;-0.00664736;-0.00146513;0.114658;0.114676;-0.00666505;0.0606706;0.0579753;17.2487;0.0787665;0.0808941;17.2056;0.0581207;90.7004;135.7;-0.0153476;-0.00664738;-0.00144713;-0.00148117;0.114658;0.02122;0.0104763;0;0.119613;-1.87368;-3.14051;-1.58104;3.98411;-7.66039;-0.0016416;0.0118795;0.0938417;0.0952974;-0.00309739;0.0491974;0.0174933;57.1647;0.0645889;0.0655966;30.767;0.0325023;92.9028;137.903;-0.0161397;-0.00158209;0.0300656;-0.00472221;0.0934929;0.0487832;0.0730524;0;0.0764331;3.25304
773000;774;;;;;;;;;;-1.32804;0.474758;-0.757541;1.60093;-6.23328;-0.0060137;-0.00241412;0.116099;0.116146;-0.00606141;0.0611038;0.0517983;19.3057;0.0795283;0.0814718;19.1616;0.0521877;90.493;135.493;-0.0444273;-0.00601149;-0.00378502;-0.00119321;0.116095;0.0702004;-0.0067675;0;0.117999;-1.87498;-3.15085;-1.58612;3.99489;-7.69008;-0.000453896;0.0126544;0.100586;0.102147;-0.00201465;0.0520809;0.0045125;221.607;0.0687795;0.0694412;50.7022;0.019723;90.9432;135.943;0.00629407;-0.000375203;0.0284324;-0.00167744;0.100292;0.0384356;0.099151;0;0.0797993;3.24796
774000;775;;;;;;;;;;-1.32938;0.478501;-0.752772;1.6009;-6.21949;-0.00525599;-0.00391245;0.114103;0.114231;-0.0053841;0.0598076;0.0460636;21.7091;0.0780107;0.0797435;21.2164;0.0471334;92.8537;137.854;-0.0393578;-0.00526499;-0.00184103;-0.00576195;0.114108;0.0736603;0.0635721;0;0.113323;-1.8749;-3.1551;-1.58083;3.99611;-7.66131;-0.00172912;0.0127943;0.0944437;0.0961167;-0.00340211;0.0497594;0.0183085;54.6195;0.0652414;0.0663459;28.2521;0.0353956;90.6108;135.611;-0.00341944;-0.00164732;0.0274858;-0.000608405;0.0941734;0.0388636;0.106282;0;0.0714041;3.24568
775000;776;;;;;;;;;;-1.32682;0.48285;-0.757211;1.60217;-6.22152;-0.00701298;-0.00483654;0.116051;0.116241;-0.00720277;0.0617217;0.0604302;16.548;0.0800029;0.0822957;16.1383;0.0619642;93.1896;138.19;-0.0376517;-0.00702326;-0.00283402;-0.00661823;0.116058;0.0458158;-0.074095;0;0.127204;-1.87748;-3.16981;-1.5863;4.01111;-7.67166;-0.00510764;0.010699;0.0996846;0.100766;-0.00618881;0.0534773;0.051238;19.5168;0.0693323;0.0713031;16.2819;0.0614178;94.1381;139.138;-0.00910721;-0.00507011;0.0294948;-0.00630874;0.0993411;0.0105107;0.0861008;0;0.0955052;3.24165
776000;777;;;;;;;;;;-1.32894;0.49453;-0.751828;1.60496;-6.21937;-0.0045214;-0.00593623;0.119869;0.120152;-0.00480405;0.0624778;0.0377195;26.5115;0.0817495;0.0833038;25.0105;0.0399832;93.6008;138.601;-0.0156985;-0.0045334;-0.00396352;-0.0076898;0.119878;-0.0134882;-0.0527312;0;0.121548;-1.87987;-3.17978;-1.59082;4.02189;-7.67754;-0.00518518;0.0108968;0.100392;0.101505;-0.00629811;0.0539016;0.0516492;19.3614;0.0698642;0.0718688;16.1168;0.0620472;95.0952;140.095;0.0246976;-0.00515906;0.0319843;-0.00817132;0.0999813;0.0199973;0.0918894;0;0.0860287;3.22523
777000;778;;;;;;;;;;-1.32879;0.498906;-0.751015;1.60581;-6.21676;-0.00444954;-0.00580626;0.120906;0.121174;-0.0047179;0.0629459;0.0368018;27.1726;0.0824002;0.0839278;25.6839;0.038935;93.2322;138.232;-0.0393761;-0.00445716;-0.00447115;-0.00699205;0.120912;0.0570742;-0.0497885;0;0.120083;-1.88133;-3.18724;-1.58784;4.02729;-7.67009;-0.000397225;0.0140209;0.094219;0.096253;-0.00243122;0.0493421;0.00421597;237.193;0.0649942;0.0657895;39.5904;0.0252587;88.8108;133.811;-0.00970997;-0.000301313;0.0269614;0.00219757;0.0939767;0.0365779;0.088076;0;0.0619354;3.22033
778000;779;;;;;;;;;;-1.32837;0.509312;-0.756376;1.61123;-6.22915;-0.00616119;-0.00454708;0.119114;0.119279;-0.00632602;0.0628025;0.0517251;19.333;0.0817097;0.0837367;18.8553;0.0530355;92.7825;137.782;-0.0293642;-0.00616849;-0.00298812;-0.00593152;0.119119;0.0716285;0.0332996;0;0.113305;-1.88267;-3.19376;-1.59271;4.035;-7.67338;-0.00116569;0.0126507;0.0928086;0.0944819;-0.00283893;0.0486604;0.0125601;79.6171;0.0639552;0.0648805;33.2808;0.0300473;90.9745;135.975;-0.0222917;-0.00108654;0.0280088;-0.00138905;0.0925229;0.0546281;0.0659727;0;0.0770794;3.2166
779000;780;;;;;;;;;;-1.329;0.518234;-0.757;1.61489;-6.23385;-0.00576438;-0.000952404;0.11816;0.118168;-0.0057717;0.0619697;0.0487844;20.4983;0.0807711;0.0826262;20.4736;0.0488434;90.2699;135.27;-0.00812913;-0.00576412;-0.00132609;-0.000620135;0.11816;0.0142376;-0.0135007;0;0.119937;-1.88451;-3.19841;-1.59804;4.04165;-7.67561;-0.00056289;0.013978;0.0937551;0.0957831;-0.00259084;0.049187;0.00600383;166.56;0.0647363;0.0655826;36.9699;0.027049;88.841;133.841;-0.00506975;-0.00046753;0.0268846;0.00218248;0.093514;0.0486067;0.118079;0;0.0806951;3.20839
780000;781;;;;;;;;;;-1.32951;0.525308;-0.766933;1.62226;-6.23345;-0.00694341;-0.00841193;0.116162;0.116734;-0.00751555;0.0621246;0.0597737;16.7298;0.0804447;0.0828328;15.5323;0.064382;95.3976;140.398;-0.0394727;-0.00697169;-0.00520323;-0.0112667;0.116181;0.0495971;0.0108562;0;0.11996;-1.88575;-3.20897;-1.60119;4.05183;-7.68592;-0.00199826;0.0107671;0.0977403;0.0988894;-0.00314736;0.0510184;0.0204446;48.9128;0.067;0.0680245;31.4198;0.0318271;93.1956;138.196;0.0118545;-0.00195442;0.0284729;-0.00533266;0.0974238;0.0377694;0.105537;0;0.0903875;3.19915
781000;782;;;;;;;;;;-1.3261;0.53066;-0.767316;1.62139;-6.23405;-0.00766706;-0.00475229;0.114664;0.114849;-0.0078514;0.06135;0.0668653;14.9554;0.0793125;0.0818;14.6278;0.0683631;92.1343;137.134;-0.0411165;-0.0076663;-0.00493358;-0.00459089;0.114663;0.0465117;-0.0670267;0;0.124186;-1.88674;-3.22226;-1.5985;4.06177;-7.68474;-0.000124109;0.0144137;0.0924596;0.0946516;-0.00231616;0.0484839;0.00134231;744.985;0.0638871;0.0646452;40.8657;0.0244704;88.3197;133.32;-0.00141376;-2.45569e-05;0.0269441;0.00294332;0.0922224;0.0291051;0.0883157;0;0.103968;3.19085
782000;783;;;;;;;;;;-1.3271;0.5395;-0.774112;1.62835;-6.23676;-0.00461173;-0.00821971;0.117041;0.117594;-0.0051646;0.0613792;0.0394028;25.3789;0.0801728;0.0818389;22.7692;0.043919;94.304;139.304;-0.0407425;-0.00461949;-0.00722018;-0.00911037;0.117048;0.0846453;-0.0405428;0;0.106332;-1.89059;-3.23161;-1.60992;4.07548;-7.7015;-0.00239094;0.0125375;0.0984198;0.0999556;-0.00392679;0.0519412;0.0242933;41.1636;0.0679838;0.0692549;25.4548;0.0392853;90.4868;135.487;0.0260446;-0.0023122;0.0266345;-0.000267723;0.0981684;0.0297208;0.0900391;0;0.0940826;3.17869
783000;784;;;;;;;;;;-1.32881;0.542141;-0.757051;1.62258;-6.2182;-0.00555482;-0.00358656;0.111439;0.111549;-0.00566467;0.0586067;0.0498463;20.0617;0.0763242;0.0781423;19.692;0.0507819;92.3295;137.33;-0.0357255;-0.0055592;-0.00240482;-0.00464391;0.111442;0.0157696;-0.0231099;0;0.120813;-1.89059;-3.24006;-1.6062;4.08071;-7.6873;-0.000990716;0.0141834;0.093566;0.0956477;-0.00307239;0.04936;0.0105884;94.4429;0.0648135;0.0658134;31.1314;0.0321219;88.0134;133.013;-0.0106667;-0.000896989;0.0256276;0.00372733;0.0933577;0.0345899;0.0929435;0;0.061067;3.17169
784000;785;;;;;;;;;;-1.32844;0.55692;-0.757701;1.62758;-6.22524;-0.00464346;-0.00507703;0.118288;0.118498;-0.00485278;0.0616752;0.0392554;25.4742;0.0806647;0.0822336;24.4185;0.0409526;93.4308;138.431;-0.0208903;-0.00465648;-0.00270278;-0.00719026;0.118297;0.0201636;-0.0358017;0;0.120311;-1.89154;-3.24967;-1.60686;4.08904;-7.68752;-0.000552458;0.0131354;0.0934106;0.0952123;-0.00235415;0.0487832;0.00591429;169.082;0.064274;0.0650443;40.4445;0.0247252;89.0962;134.096;-0.0144003;-0.000467607;0.0256334;0.00170975;0.0931891;0.0488393;0.0812713;0;0.0643367;3.15402
785000;786;;;;;;;;;;-1.32908;0.565619;-0.755828;1.63023;-6.2286;-0.00594142;-0.00348663;0.112149;0.112251;-0.00604428;0.0591478;0.0529782;18.8757;0.0769282;0.0788638;18.5715;0.0538459;92.5634;137.563;-0.033164;-0.00594838;-0.00168493;-0.00509702;0.112153;0.0521976;0.065608;0;0.113537;-1.89688;-3.26543;-1.61144;4.10584;-7.70872;-0.00250306;0.012178;0.0991043;0.100543;-0.00394225;0.0522428;0.0252569;39.5932;0.0683809;0.0696571;25.5041;0.0392094;91.4632;136.463;0.0417427;-0.00243081;0.0278404;-0.00203893;0.0988191;0.032048;0.108143;0;0.0945383;3.14585
786000;787;;;;;;;;;;-1.33172;0.583754;-0.774841;1.64761;-6.25329;-0.00405314;-0.00333075;0.117854;0.117945;-0.00414407;0.0610447;0.034391;29.0773;0.0800474;0.081393;28.4612;0.0351355;92.1925;137.192;-0.0182683;-0.00405807;-0.00193488;-0.0045744;0.117858;0.0222543;0.0292428;0;0.115278;-1.89854;-3.27022;-1.62131;4.11429;-7.71571;-0.00212828;0.0106835;0.0951433;0.0963029;-0.00328785;0.0497954;0.0223692;44.7044;0.0653255;0.0663938;29.2906;0.0341407;92.2865;137.287;0.0143995;-0.00207724;0.026251;-0.0035033;0.0948808;0.0181655;0.0914567;0;0.0963645;3.12042
787000;788;;;;;;;;;;-1.33337;0.596538;-0.776568;1.65432;-6.24738;-0.00639708;-0.00325721;0.111528;0.111618;-0.00648698;0.0590526;0.0573584;17.4342;0.076666;0.0787368;17.2065;0.0581176;92.2283;137.228;-0.0311395;-0.00640165;-0.00193678;-0.00443755;0.111531;0.0346641;0.00715187;0;0.118667;-1.90159;-3.28272;-1.63305;4.13027;-7.72759;-0.00287685;0.0123184;0.0955783;0.0970962;-0.00439469;0.0507454;0.0300994;33.2232;0.0662443;0.0676606;22.094;0.0452612;90.5343;135.534;0.000548232;-0.00280078;0.026059;-0.000189243;0.0953376;0.0356053;0.0955675;0;0.0898099;3.10372
788000;789;33.4577;7.70429;0.299156;-3.27944;33.2617;-1.52389;-1.17096;7.60145;-0.937014;-1.4171;2.64447;-0.817209;3.10954;-6.29684;-0.00451424;-0.00847176;0.0890584;0.0898192;-0.00527506;0.0475471;0.0506885;19.7283;0.061713;0.0633962;17.0272;0.0587297;98.3996;143.4;-0.01175;-0.00456696;-0.00319589;-0.0132941;0.0890867;0.00634499;-0.035419;0;0.0772341;-2.58512;-4.98645;-1.70036;5.86845;-7.78517;-0.000542325;0.0130239;0.0875744;0.0894591;-0.00242697;0.045943;0.00619273;161.48;0.0604646;0.0612574;36.8604;0.0271294;85.5421;130.542;-0.00355254;-0.000483804;0.0193005;0.00725531;0.0874811;0.0582418;0.108351;0;0.0570632;0.0214914
789000;790;33.4809;7.72753;0.300059;-3.32536;33.2795;-1.54497;-1.21689;7.61931;-0.958101;-1.36658;2.65148;-0.837534;3.09828;-6.31608;-0.00553426;-0.00985121;0.0868436;0.0878825;-0.00657311;0.0472278;0.0637267;15.692;0.0608977;0.0629704;13.37;0.0747944;99.533;144.533;-0.022483;-0.00559613;-0.00440357;-0.0148356;0.0868793;0.0152583;-0.0340034;0;0.0781618;-2.58624;-5.00313;-1.70632;5.88485;-7.79226;-0.00145749;0.0117464;0.0857491;0.0873036;-0.00301198;0.0451578;0.0169972;58.8332;0.0592319;0.0602104;28.9855;0.0345;87.3569;132.357;0.0108324;-0.00139845;0.0196476;0.00447917;0.0856349;0.0256212;0.092038;0;0.0706191;0.0213807
790000;791;33.4843;7.73092;0.30019;-3.37311;33.2789;-1.52751;-1.26463;7.61871;-0.940642;-1.32997;2.64738;-0.83225;3.07735;-6.31508;-0.00411829;-0.00349453;0.0979932;0.0981127;-0.00423774;0.0511752;0.0420263;23.7946;0.0668658;0.0682336;23.1521;0.0431926;92.2032;137.203;-0.0209663;-0.00411978;-0.00305292;-0.00389507;0.0979946;0.0150646;-0.0667437;0;0.0840692;-2.59134;-5.01054;-1.69301;5.88955;-7.78265;-0.000744926;0.0127606;0.0860934;0.0879297;-0.00258122;0.0452554;0.00865253;115.573;0.0594989;0.0603406;34.0651;0.0293555;86.6878;131.688;0.0149265;-0.000678181;0.0207321;0.00542581;0.0859705;0.03516;0.0982783;0;0.0725118;0.0214572
