Time;Image index (Image index);Distance L(t) (Extensometer 1);Change in distance (Extensometer 1);Strain - RC (Extensometer 1);Distance x L(t) (Extensometer 1);Distance y L(t) (Extensometer 1);Distance z L(t) (Extensometer 1);Change in distance x (Extensometer 1);Change in distance y (Extensometer 1);Change in distance z (Extensometer 1);X-displacement (Strain Gauge 1);Y-displacement (Strain Gauge 1);Z-displacement (Strain Gauge 1);Displacement (Strain Gauge 1);Height (Strain Gauge 1);Exx - RC (Strain Gauge 1);Exy - RC (Strain Gauge 1);Eyy - RC (Strain Gauge 1);Max. principal strain - RC (Strain Gauge 1);Min. principal strain - RC (Strain Gauge 1);Max. shear strain - RC (Strain Gauge 1);Poisson ratio -Exx/Eyy (Strain Gauge 1);Poisson ratio -Eyy/Exx (Strain Gauge 1);Von Mises - RC (Strain Gauge 1);Tresca - RC (Strain Gauge 1);Poisson ratio -strain max/min (Strain Gauge 1);Poisson ratio -strain min/max (Strain Gauge 1);Max. strain angle (Strain Gauge 1);Max. shear angle (Strain Gauge 1);Vorticity-z (Strain Gauge 1);du/dx (Strain Gauge 1);du/dy (Strain Gauge 1);dv/dx (Strain Gauge 1);dv/dy (Strain Gauge 1);dw/dx (Strain Gauge 1);dw/dy (Strain Gauge 1);Ezz plane stress state (Strain Gauge 1);Stereo reconstruction error (Strain Gauge 1);X-displacement (Strain Gauge 2);Y-displacement (Strain Gauge 2);Z-displacement (Strain Gauge 2);Displacement (Strain Gauge 2);Height (Strain Gauge 2);Exx - RC (Strain Gauge 2);Exy - RC (Strain Gauge 2);Eyy - RC (Strain Gauge 2);Max. principal strain - RC (Strain Gauge 2);Min. principal strain - RC (Strain Gauge 2);Max. shear strain - RC (Strain Gauge 2);Poisson ratio -Exx/Eyy (Strain Gauge 2);Poisson ratio -Eyy/Exx (Strain Gauge 2);Von Mises - RC (Strain Gauge 2);Tresca - RC (Strain Gauge 2);Poisson ratio -strain max/min (Strain Gauge 2);Poisson ratio -strain min/max (Strain Gauge 2);Max. strain angle (Strain Gauge 2);Max. shear angle (Strain Gauge 2);Vorticity-z (Strain Gauge 2);du/dx (Strain Gauge 2);du/dy (Strain Gauge 2);dv/dx (Strain Gauge 2);dv/dy (Strain Gauge 2);dw/dx (Strain Gauge 2);dw/dy (Strain Gauge 2);Ezz plane stress state (Strain Gauge 2);Stereo reconstruction error (Strain Gauge 2);Voltage ADC 1 channel 1
ms;;mm;mm;S;mm;mm;mm;mm;mm;mm;mm;mm;mm;mm;mm;S;S;S;S;S;S;;;S;S;;;°;°;S;S;S;S;S;S;S;S;pixel;mm;mm;mm;mm;mm;S;S;S;S;S;S;;;S;S;;;°;°;S;S;S;S;S;S;S;S;pixel;V
0.02515;1;25.8055;0;0;-2.394;25.6913;0.387673;0;0;0;0;0;0;0;-5.93651;-1.11022e-16;1.38778e-16;-1.11022e-16;2.77556e-17;-2.498e-16;1.38778e-16;;;1.76514e-16;1.85037e-16;;;0;45;0;-1.11022e-16;1.38778e-16;1.38778e-16;-1.11022e-16;0;0;0;0;0;0;0;0;-5.62768;-1.11022e-16;-3.46945e-18;0;1.08315e-19;-1.11131e-16;5.56195e-17;;;7.41232e-17;7.41593e-17;;;0;45;0;-1.11022e-16;-2.77556e-17;2.08167e-17;0;0;0;0;0;0.0142171
1000.03;2;25.8049;-0.000660533;-2.55966e-05;-2.39318;25.6908;0.382869;0.000821726;-0.000514867;-0.00480392;-0.00325403;-0.01288;0.00274805;0.0135659;-5.93376;-0.000144666;-0.000151995;6.76565e-05;0.000146894;-0.000223904;0.000185399;2.13824;0.467674;0.000215614;0.000247199;0.65606;1.52425;68.6752;113.675;-0.000746742;-0.000144663;-0.000435864;0.000131813;6.75731e-05;0.0051258;0.00362854;0;0.0145216;-0.00352948;-0.0123895;0.000391082;0.0128884;-5.62729;0.000115666;2.90016e-05;0.000111182;0.000142512;8.43357e-05;2.90882e-05;-1.04033;-0.961231;8.27401e-05;3.87842e-05;-1.68982;-0.59178;3.57914;48.5791;0.00284829;0.000115496;-0.000525393;0.000583399;0.000111044;-0.00279616;0.000354562;0;0.0203203;0.0142783
2000.03;3;25.8046;-0.000962448;-3.72962e-05;-2.39363;25.6905;0.381496;0.000369303;-0.000839847;-0.00617688;-0.00321894;-0.024047;0.0107546;0.0265383;-5.92576;-0.00011793;5.65041e-06;0.000381013;0.000381077;-0.000117994;0.000249536;0.309518;3.23083;0.000301188;0.000332714;3.22962;0.309634;58.8213;103.821;7.94365e-05;-0.00011796;-0.000232384;0.000243566;0.000380986;0.00371375;0.00372028;0;0.0143695;-0.00436953;-0.022097;0.00515441;0.0231071;-5.62252;0.000243353;0.000170284;-2.14229e-05;0.000326658;-0.000104728;0.000215693;11.3595;0.0880321;0.000259815;0.00028759;3.11912;0.320603;169.232;34.2318;0.00346485;0.000243217;-0.00020876;0.000549429;-2.14302e-05;-0.00339631;0.000644452;0;0.022386;0.0142703
3000.03;4;25.8036;-0.00190529;-7.38325e-05;-2.39252;25.6896;0.38281;0.00148639;-0.00170236;-0.0048627;-0.00381804;-0.036424;0.0187637;0.0411504;-5.91775;-0.000719059;0.000206108;0.000364048;0.000401943;-0.000756954;0.000579449;1.97518;0.506284;0.000679474;0.000772598;0.531;1.88324;168.828;33.8282;-0.000894291;-0.000719058;0.000210781;0.00020144;0.000364047;0.00388637;0.00479102;0;0.0163468;-0.00507166;-0.0340214;0.0111397;0.0361562;-5.61654;0.000118127;-2.22769e-05;-0.00010029;0.000120376;-0.000102539;0.000111458;1.17785;0.849003;0.000128838;0.00014861;1.17395;0.851824;129.741;174.741;0.00283512;0.000118007;-0.000534922;0.000490481;-0.000100433;-0.00479912;0.000570201;0;0.0239466;0.0142878
4000.03;5;25.8056;9.51004e-05;3.68527e-06;-2.39366;25.6915;0.381126;0.000346181;0.000225734;-0.00654689;-0.0077229;-0.0385437;-0.00129852;0.0393313;-5.93781;-0.000446421;0.00047278;0.00039346;0.000605873;-0.000658834;0.000632354;1.1346;0.881366;0.000730393;0.000843138;0.919614;1.08741;116.343;161.343;-0.0015025;-0.000446366;0.000608089;0.000337585;0.000393387;0.00368008;0.00692369;0;0.0156302;-0.00919252;-0.0377956;-0.00913702;0.0399562;-5.63682;-1.06165e-05;1.47408e-05;0.000260724;0.000261523;-1.14149e-05;0.000136469;0.0407191;24.5585;0.000178275;0.000181958;22.9106;0.0436479;47.333;92.333;0.00197243;-1.0839e-05;-0.000637958;0.000667262;0.000260521;-0.00168516;0.00143224;0;0.0232924;0.0142568
5000.03;6;25.8018;-0.00370963;-0.000143753;-2.39502;25.6878;0.367345;-0.00101464;-0.00352196;-0.0203279;-0.0102441;-0.0563888;0.00501942;0.0575311;-5.93149;-0.000385576;0.00010145;0.000144081;0.000162848;-0.000404343;0.000283595;2.6761;0.373678;0.000337216;0.000378127;0.402747;2.48295;166.322;31.3217;0.000222142;-0.000385575;0.000114987;8.79198e-05;0.00014408;0.00193703;0.00202305;0;0.0115906;-0.0120311;-0.0555691;-0.00831751;0.0574617;-5.636;-8.88075e-06;0.000102286;0.000148878;0.000199166;-5.91692e-05;0.000129168;;;0.00015628;0.000172224;3.36604;0.297085;41.112;86.112;0.000495436;-8.89053e-06;3.12544e-05;0.000173306;0.000148882;0.00283551;0.00209139;0;0.0124673;0.0142923
6000.03;7;25.8045;-0.00101484;-3.93265e-05;-2.39446;25.6905;0.371775;-0.00045894;-0.00082714;-0.015898;-0.0125094;-0.0647659;-0.00270745;0.0660185;-5.93922;1.69021e-05;-0.000320061;0.000397823;0.000579806;-0.000165081;0.000372444;-0.0424866;-23.5368;0.000451734;0.000496592;3.51224;0.284718;106.739;151.739;0.000348136;1.69292e-05;-0.000420192;-0.000219968;0.000397786;0.00442021;0.00241345;0;0.0126898;-0.0139807;-0.0650002;-0.0152502;0.0682133;-5.64293;-0.000122693;0.000188422;0.00024724;0.00032631;-0.000201764;0.000264037;0.496253;2.0151;0.000307697;0.000352049;1.61729;0.618319;27.3865;72.3865;0.00221298;-0.000122817;-0.000154548;0.000531265;0.000247246;-9.10987e-05;0.000290708;0;0.0174323;0.014375
7000.03;8;25.8039;-0.0016152;-6.25913e-05;-2.39426;25.6899;0.370579;-0.000253359;-0.00139372;-0.017094;-0.012573;-0.0781778;0.000956101;0.0791881;-5.93556;-0.000225596;-0.000509906;0.00035627;0.000652403;-0.000521729;0.000587066;0.633216;1.57924;0.000679283;0.000782754;1.25046;0.799703;85.9272;130.927;-0.000528144;-0.000225525;-0.000675345;-0.000344564;0.000356172;0.00727856;0.00588292;0;0.0151112;-0.014264;-0.0771732;-0.0134995;0.0796329;-5.64118;-3.76397e-05;7.21863e-05;0.000147545;0.000172359;-6.24535e-05;0.000117406;0.255107;3.91993;0.000140432;0.000156542;2.75979;0.362346;28.4352;73.4352;0.00297929;-3.79019e-05;-0.000583387;0.000727638;0.000147378;-0.0030192;0.000509676;0;0.0238621;0.0143066
8000.03;9;25.8021;-0.00342475;-0.000132714;-2.39498;25.6881;0.362805;-0.000978204;-0.00316789;-0.0248682;-0.014055;-0.087941;0.00258797;0.0890947;-5.93392;-0.00054034;-0.000397588;-8.17598e-05;0.000147917;-0.000770017;0.000458967;-6.60887;-0.151312;0.000569094;0.000611956;0.192096;5.20574;25.2266;70.2266;-0.00101156;-0.000540362;-0.000345125;-0.000450028;-8.17403e-05;0.00617065;0.00674515;0;0.0153387;-0.0164077;-0.0856466;-0.0172291;0.0888898;-5.64491;6.8297e-07;2.95619e-05;0.000229633;0.000233388;-3.07246e-06;0.00011823;;;0.000156626;0.00015764;;;42.5311;87.5311;0.00302485;4.27048e-07;-0.000657076;0.000716043;0.000229417;-0.0055036;0.00315689;0;0.0231892;0.0143417
9000.03;10;25.8021;-0.0034411;-0.000133347;-2.39427;25.6882;0.360035;-0.000269412;-0.00307927;-0.0276382;-0.0142751;-0.0948655;-0.00290504;0.0959775;-5.93942;-0.000550071;3.13849e-06;0.000166496;0.00016651;-0.000550085;0.000358297;3.3038;0.302681;0.000433032;0.00047773;0.302699;3.30361;153.614;18.6136;-0.00218638;-0.000550101;0.000251023;-0.000244569;0.000166465;0.0064296;0.005682;0;0.0137503;-0.0170262;-0.0935814;-0.0226662;0.097781;-5.65034;-4.25202e-05;5.19146e-05;0.000258178;0.000266888;-5.12308e-05;0.00015906;0.164693;6.07189;0.000197233;0.000212079;5.20953;0.191956;40.5241;85.5241;0.00146301;-4.27356e-05;-0.000554766;0.000658413;0.000258025;-0.00200153;0.00235514;0;0.0226496;0.0158773
10000;11;25.8049;-0.000631109;-2.44564e-05;-2.38776;25.6915;0.373541;0.00624045;0.000156192;-0.0141314;-0.016783;-0.102784;0.00751498;0.104416;-5.929;-0.000523118;8.53915e-05;0.000763032;0.000768677;-0.000528763;0.00064872;0.685578;1.45862;0.000753334;0.00086496;1.45373;0.687887;69.4658;114.466;-0.00117525;-0.000523128;5.91743e-06;0.000164763;0.000763036;0.00518109;0.00257931;0;0.0162983;-0.0125474;-0.102835;-0.00985487;0.104065;-5.63753;-0.000130549;-9.40335e-05;6.95704e-05;0.000106822;-0.0001678;0.000137311;1.8765;0.532908;0.00015985;0.000183081;0.636601;1.57084;65.398;110.398;0.00149161;-0.000130736;-0.000807777;0.000619568;6.92486e-05;-0.00277555;0.00126944;0;0.0191178;0.0183308
11000;12;25.8043;-0.00119264;-4.62166e-05;-2.37489;25.6922;0.365281;0.0191153;0.000904311;-0.0223919;-0.0180503;-0.106775;0.00550354;0.108429;-5.93101;-0.000507828;6.96417e-05;0.000639774;0.000643985;-0.000512039;0.000578012;0.793761;1.25982;0.000668878;0.000770683;1.25769;0.79511;45.6786;90.6786;-0.00027518;-0.000507963;-0.000384842;0.000523605;0.000639703;0.00489843;0.00334567;0;0.0143102;-0.00346696;-0.108474;-0.0157197;0.109662;-5.6434;0.000257897;-0.00013815;-8.40696e-05;0.000306734;-0.000132906;0.00021982;3.06767;0.325981;0.000260356;0.000293093;2.3079;0.433294;117.961;162.961;0.000857522;0.00025751;-0.0011667;0.000890749;-8.47407e-05;-0.00106974;0.00415356;0;0.0176844;0.0184948
12000;13;25.8058;0.000254873;9.87669e-06;-2.36877;25.6941;0.372669;0.0252312;0.00281661;-0.0150041;-0.0203523;-0.103656;-0.000155778;0.105635;-5.93667;-0.00035298;-4.30302e-05;0.000328117;0.000330825;-0.000355688;0.000343256;1.07577;0.929563;0.000396445;0.000457675;0.930099;1.07515;48.1341;93.1341;0.000274108;-0.000353226;-0.000789301;0.000702733;0.000327806;0.00605025;0.00438902;0;0.0137216;-0.000112872;-0.105978;-0.0194406;0.107747;-5.64712;0.000483939;-0.000153023;-1.1196e-05;0.000527414;-5.46713e-05;0.000291043;43.2241;0.0231352;0.000371178;0.000388057;9.64701;0.103659;123.741;168.741;0.00123202;0.000483088;-0.00161866;0.00131334;-1.24944e-05;-0.000570258;0.00329856;0;0.0208913;0.0185155
13000;14;25.8054;-0.000172367;-6.67945e-06;-2.36535;25.694;0.376832;0.0286574;0.00264243;-0.0108405;-0.0228758;-0.0995413;0.00113064;0.102142;-5.93538;-0.000500763;-0.000283036;0.00129793;0.00134142;-0.000544249;0.000942833;0.385816;2.59191;0.00112065;0.00125711;2.46471;0.405727;69.7039;114.704;0.000358139;-0.000500786;-0.000923591;0.000356369;0.00129755;0.00614657;0.00352233;0;0.0160977;0.000965083;-0.102288;-0.0136372;0.103197;-5.64132;0.000292925;-0.000112698;0.000141255;0.000352928;8.12524e-05;0.000135838;-2.07374;-0.482222;0.000213421;0.000181117;-4.3436;-0.230224;112.058;157.058;0.00157779;0.000292326;-0.00132599;0.00110078;0.000140382;0.000501254;0.00396042;0;0.0235472;0.0184929
14000;15;25.804;-0.00157307;-6.09586e-05;-2.36024;25.6931;0.374105;0.0337598;0.00174474;-0.0135674;-0.0253325;-0.0970481;0.000535602;0.100301;-5.93598;-0.00022317;-0.000261677;0.00108457;0.00113499;-0.000273587;0.000704289;0.205768;4.85985;0.000862444;0.000939052;4.14855;0.241048;68.7684;113.768;0.00107697;-0.000223336;-0.00115738;0.000632859;0.00108394;0.00531622;0.00481295;0;0.0160028;0.00274726;-0.0991163;-0.0149242;0.100271;-5.6426;0.000429532;-0.000129043;7.01108e-05;0.000471063;2.85797e-05;0.000221242;-6.12646;-0.163226;0.000304962;0.000294989;-16.4824;-0.0606706;121.595;166.595;0.00164298;0.000428444;-0.00173808;0.00148057;6.86088e-05;0.00192519;0.00370325;0;0.0257398;0.0185681
15000;16;25.8065;0.00101523;3.93417e-05;-2.37663;25.694;0.383404;0.0173751;0.00269688;-0.00426904;-0.0294398;-0.0782258;-0.0120223;0.0844424;-5.94853;-0.000310039;-5.38458e-05;0.00122895;0.00123083;-0.000311921;0.000771377;0.252279;3.96386;0.000941906;0.0010285;3.94598;0.253422;62.7426;107.743;0.00109163;-0.000310281;-0.000805513;0.000696666;0.00122863;0.00648708;0.0036589;0;0.018077;-0.0147365;-0.0799071;-0.0194395;0.0835476;-5.64712;-6.25329e-05;2.2261e-05;0.000260446;0.000261973;-6.406e-05;0.000163016;0.2401;4.16494;0.000199461;0.000217355;4.08949;0.244529;42.9229;87.9229;0.00515642;-6.37705e-05;-0.00152933;0.00157336;0.000259277;-0.00604634;0.002898;0;0.0263165;0.0173998
16000;17;25.804;-0.00153973;-5.96666e-05;-2.38472;25.6907;0.381734;0.00928186;-0.000594359;-0.00593923;-0.0331482;-0.0655434;-0.0175175;0.0755089;-5.95403;-0.000351677;-4.19076e-05;0.00136721;0.00136823;-0.000352699;0.000860463;0.257223;3.88767;0.00104966;0.00114728;3.87931;0.257778;64.6081;109.608;0.001726;-0.000351885;-0.000731264;0.000646266;0.00136694;0.0052612;0.00142688;0;0.0189016;-0.0252215;-0.0670102;-0.0195265;0.0742143;-5.6472;0.000213137;0.000270491;4.50823e-05;0.000412352;-0.000154132;0.000283242;-4.72774;-0.211518;0.000338196;0.000377656;2.67531;0.373788;174.706;39.7061;0.00274085;0.000212222;-0.000838958;0.00138013;4.4767e-05;0.000964716;0.00354566;0;0.025233;0.0172831
17000;18;25.8028;-0.00271585;-0.000105243;-2.38565;25.6894;0.386295;0.00835531;-0.00192989;-0.00137761;-0.0336808;-0.0572375;-0.0187848;0.0690174;-5.9553;-0.000335003;-0.000199002;0.00121347;0.00123864;-0.000360169;0.000799404;0.27607;3.62227;0.000968405;0.00106587;3.43905;0.290778;64.4393;109.439;0.00252864;-0.000335278;-0.00116662;0.000767122;0.00121281;0.00382043;0.00215304;0;0.0153757;-0.0268022;-0.0583525;-0.0176092;0.0665841;-5.64529;0.000403475;0.000331847;0.000149153;0.00063169;-7.90622e-05;0.000355376;-2.7051;-0.369672;0.000449803;0.000473835;7.98978;0.12516;177.891;42.8909;0.00070741;0.000402746;-0.000587899;0.00125183;0.000149036;0.00430403;0.00433472;0;0.0216835;0.0171623
18000;19;25.8016;-0.00391915;-0.000151873;-2.385;25.6882;0.390471;0.0090032;-0.00314147;0.00279783;-0.0342452;-0.049163;-0.0195161;0.0630128;-5.95603;-0.000150897;0.000350213;0.00186579;0.00192488;-0.000209983;0.00106743;0.0808753;12.3647;0.00135867;0.00142324;9.16685;0.109089;63.5009;108.501;0.0016797;-0.000151263;-0.000225964;0.00092523;0.00186583;0.00297715;-0.00124392;0;0.0210359;-0.0277038;-0.0498605;-0.0142875;0.0588022;-5.64197;0.000493562;0.000186144;0.000266262;0.000598008;0.000161816;0.000218096;-1.85367;-0.53947;0.000357168;0.000290795;-3.6956;-0.270592;177.314;42.3142;0.000449819;0.000493114;-0.000592424;0.000964888;0.000266104;0.00500059;0.00394116;0;0.0302051;0.0171727
19000;20;25.8049;-0.000633486;-2.45485e-05;-2.38634;25.6914;0.388644;0.00766047;6.17241e-05;0.000970831;-0.0355613;-0.0597185;-0.0170259;0.0715597;-5.95354;-0.000147941;0.000199631;0.00144949;0.00147406;-0.000172511;0.000823285;0.102064;9.79774;0.00104497;0.00109771;8.54472;0.117031;55.1265;100.127;0.00154404;-0.000148588;-0.000756923;0.00115466;0.00144922;0.00612536;0.000470231;0;0.0166792;-0.029155;-0.0606915;-0.0172069;0.0694949;-5.64488;0.00041832;0.000429272;0.000202312;0.000752967;-0.000132334;0.00044265;-2.06769;-0.483631;0.000551408;0.000590201;5.68988;0.175751;1.69419;46.6942;0.0011675;0.000417412;-0.00055602;0.00141478;0.00020225;0.00364179;0.00471871;0;0.0250115;0.0170445
20000;21;25.8052;-0.00034166;-1.32398e-05;-2.38448;25.692;0.378665;0.00951832;0.000676347;-0.00900789;-0.036176;-0.0781907;-0.010033;0.0867361;-5.94655;-0.000465105;0.000117801;0.00133041;0.0013381;-0.000472801;0.000905452;0.349596;2.86045;0.00108458;0.00120727;2.83016;0.353337;59.5534;104.553;0.000749162;-0.000465344;-0.000466144;0.0007007;0.00133031;0.00562044;0.00259603;0;0.0181706;-0.0293202;-0.0790663;-0.0172205;0.086068;-5.6449;0.000237787;0.000152793;0.000341081;0.00045072;0.000128148;0.000161286;-0.697157;-1.4344;0.000268172;0.000215048;-3.51719;-0.284318;15.431;60.431;0.00355699;0.000236677;-0.00119214;0.00149759;0.000340382;-0.00531374;0.00353839;0;0.0280528;0.0170587
21000;22;25.8058;0.000267068;1.03493e-05;-2.38395;25.6927;0.378129;0.0100552;0.00134547;-0.00954366;-0.0356395;-0.0831119;-0.00746143;0.0907383;-5.94397;-0.000541746;-4.86023e-05;0.000892348;0.000893993;-0.000543391;0.000718692;0.607102;1.64717;0.000838063;0.000958256;1.64521;0.607825;55.6306;100.631;-7.01565e-05;-0.000541876;-0.000609556;0.000511548;0.000892164;0.00566965;0.00309433;0;0.025057;-0.0283576;-0.0849663;-0.0143675;0.0907186;-5.64205;0.000233958;4.91799e-05;0.000438996;0.000450182;0.000222772;0.000113705;-0.532939;-1.87639;0.000259917;0.000151606;-2.02082;-0.49485;39.0002;84.0002;0.00342709;0.000232921;-0.00134328;0.00144135;0.000438096;-0.00636272;0.00252847;0;0.0293709;0.0170847
22000;23;25.8051;-0.000395919;-1.53424e-05;-2.383;25.6921;0.378561;0.010999;0.000760756;-0.00911141;-0.0355641;-0.0878243;-0.000329177;0.0947524;-5.93684;-0.000429996;0.000111292;0.00141736;0.00142404;-0.000436676;0.000930357;0.303379;3.29621;0.00112357;0.00124048;3.26108;0.306647;65.0022;110.002;0.000204659;-0.000430154;-0.00035185;0.00057358;0.0014173;0.00528935;0.00378815;0;0.01714;-0.0272938;-0.0892123;-0.0091217;0.0937389;-5.6368;0.000202307;-9.52189e-06;0.000470558;0.000470896;0.00020197;0.000134463;-0.42993;-2.32596;0.000272786;0.000179284;-2.33152;-0.428905;54.7081;99.7081;0.00230591;0.000201565;-0.00123798;0.0012186;0.000469792;-0.00358448;0.00730929;0;0.0263827;0.0170749
23000;24;25.8047;-0.00078544;-3.04369e-05;-2.38227;25.6917;0.37931;0.011732;0.000426455;-0.0083625;-0.0357172;-0.0896902;0.000814484;0.0965438;-5.9357;-0.000233186;-1.12286e-05;0.00112886;0.00112896;-0.000233278;0.000681117;0.206567;4.84104;0.000841248;0.000908156;4.83952;0.206632;63.8901;108.89;-0.000223624;-0.000233358;-0.000610006;0.000586735;0.00112868;0.00682706;0.00225002;0;0.0175541;-0.0269343;-0.091154;-0.00674657;0.0952892;-5.63442;0.000151421;-1.47911e-05;0.000424058;0.000424858;0.000150621;0.000137119;-0.357075;-2.80053;0.000248729;0.000182825;-2.82072;-0.35452;54.366;99.366;0.00261205;0.000150598;-0.00131282;0.00128288;0.000423197;-0.00299461;0.0038179;0;0.0249429;0.0170963
24000;25;25.8046;-0.00094324;-3.65519e-05;-2.38142;25.6917;0.377911;0.0125842;0.00036759;-0.00976196;-0.0353048;-0.0894724;-0.00185848;0.096204;-5.93837;-0.000481762;-0.000240047;0.00107541;0.00111157;-0.000517927;0.000814749;0.447981;2.23224;0.000961377;0.00108633;2.14619;0.465941;68.2729;113.273;-0.000251525;-0.000481774;-0.000767408;0.000286494;0.00107514;0.00728605;0.00401636;0;0.0165126;-0.0258786;-0.0906714;-0.00973942;0.0947938;-5.63742;7.7264e-05;-2.19257e-05;0.000432374;0.000433722;7.59153e-05;0.000178903;-0.178697;-5.59606;0.000267459;0.000238538;-5.71324;-0.175032;53.9118;98.9118;0.00319728;7.63921e-05;-0.00136509;0.00132076;0.000431442;-0.00385053;0.00303043;0;0.0255415;0.0171005
25000;26;25.8042;-0.00131881;-5.11056e-05;-2.38111;25.6914;0.376173;0.0128961;4.47828e-05;-0.0114998;-0.0350051;-0.0918144;0.00336239;0.0983186;-5.93315;-0.000446112;0.000250226;0.00049889;0.000561057;-0.00050828;0.000534669;0.89421;1.11831;0.000617633;0.000712892;1.10384;0.905932;32.1615;77.1615;0.00024145;-0.000446518;-0.000434527;0.000934333;0.000498827;0.0049826;0.00216684;0;0.0173809;-0.0250503;-0.0932031;-0.00449059;0.0966153;-5.63217;-9.79767e-06;-0.000120712;0.000401916;0.000434698;-4.25795e-05;0.000238639;;;0.000304984;0.000318185;10.2091;0.0979518;64.4034;109.403;0.00259226;-1.05222e-05;-0.00145174;0.00120976;0.00040087;-0.00375126;0.00444756;0;0.0241104;0.0170998
26000;27;25.8054;-0.000148421;-5.75153e-06;-2.38127;25.6925;0.377345;0.0127281;0.00118756;-0.0103282;-0.0347159;-0.0908676;-0.000553824;0.0972749;-5.93707;-0.000300846;0.000254698;0.00131844;0.00135756;-0.000339962;0.000848759;0.228183;4.38245;0.0010371;0.00113168;3.99326;0.250422;56.1912;101.191;0.000443;-0.000301187;-0.000356032;0.00086444;0.00131841;0.00487393;0.00314712;0;0.0185006;-0.0241288;-0.0936046;-0.00547772;0.0968196;-5.63316;6.58252e-05;2.50265e-05;0.00033163;0.000333966;6.34894e-05;0.000135238;-0.19849;-5.03804;0.000204788;0.000180318;-5.26018;-0.190107;43.6934;88.6934;0.00328225;6.4793e-05;-0.00138741;0.00143709;0.000330668;-0.00438448;0.00272237;0;0.0265708;0.0171088
27000;28;25.8037;-0.00184107;-7.13441e-05;-2.37946;25.691;0.375825;0.0145391;-0.000322451;-0.011848;-0.0350961;-0.0914065;-0.000242239;0.097913;-5.93675;-0.000375661;-0.000258019;0.00112326;0.00116643;-0.000418832;0.000792631;0.334438;2.99009;0.00094857;0.00105684;2.78496;0.359072;68.4301;113.43;1.93737e-05;-0.000375729;-0.000966377;0.000449279;0.00112283;0.00657454;0.00348543;0;0.0165544;-0.023336;-0.093456;-0.00643866;0.0965404;-5.63412;5.04306e-05;-5.78609e-05;0.000406278;0.000415449;4.12588e-05;0.000187095;-0.124129;-8.05617;0.000264289;0.00024946;-10.0693;-0.0993113;58.1184;103.118;0.00297007;4.926e-05;-0.00164755;0.00153127;0.000404923;-0.00386645;0.00257831;0;0.0233375;0.0170626
28000;29;25.8054;-8.91107e-05;-3.45316e-06;-2.37865;25.6928;0.380098;0.015351;0.00144951;-0.00757469;-0.0346258;-0.0925135;0.0044094;0.0988794;-5.9321;-0.000715914;-7.48061e-05;0.00100056;0.00100381;-0.000719168;0.000861491;0.715513;1.3976;0.000999278;0.00114865;1.3958;0.716436;54.1317;99.1317;0.000352723;-0.000716051;-0.000679103;0.000528454;0.00100033;0.0056634;0.00377088;0;0.0174963;-0.0219584;-0.0947103;-0.0020558;0.0972442;-5.62973;6.15083e-05;2.54987e-05;0.00025158;0.000254941;5.8147e-05;9.83971e-05;-0.244488;-4.09018;0.000154275;0.000131196;-4.38442;-0.22808;40.4081;85.4081;0.00369117;6.02778e-05;-0.00151833;0.00156903;0.000250428;-0.00226804;0.000971206;0;0.0234133;0.0171197
29000;30;25.8054;-0.000153864;-5.96245e-06;-2.37844;25.6927;0.380238;0.0155657;0.00140228;-0.00743517;-0.0340359;-0.0914476;0.00119625;0.0975835;-5.93532;-0.000579612;-0.000106848;0.000912752;0.000920363;-0.000587223;0.000753793;0.635016;1.57476;0.00087746;0.00100506;1.56731;0.638035;57.183;102.183;0.000172521;-0.000579715;-0.000680635;0.000466084;0.000912526;0.00508937;0.00287599;0;0.0185682;-0.020929;-0.0936404;-0.00482527;0.096072;-5.6325;4.80189e-06;-8.97387e-06;0.000331038;0.000331284;4.55523e-06;0.000163365;;;0.000219354;0.000217819;;;50.2023;95.2023;0.00337227;3.93487e-06;-0.00133525;0.00131687;0.000330146;-0.00379693;0.00188313;0;0.0254222;0.0170692
30000;31;25.8049;-0.000672492;-2.606e-05;-2.37646;25.6924;0.38017;0.0175394;0.00106502;-0.00750286;-0.033101;-0.0931487;0.00403409;0.0989375;-5.93248;-0.000602854;-0.000131497;0.000908541;0.000919896;-0.000614209;0.000767053;0.66354;1.50707;0.000891558;0.00102274;1.49769;0.667694;57.5513;102.551;8.21228e-06;-0.000602937;-0.000693923;0.00043008;0.000908309;0.00571594;0.00526647;0;0.0163858;-0.0188929;-0.0955365;-0.00107223;0.0973926;-5.62875;5.07601e-05;-0.000106115;0.000187739;0.000245547;-7.04821e-06;0.000126298;-0.270376;-3.69855;0.000166097;0.000168397;;;75.7354;120.735;0.00370175;4.9651e-05;-0.00170563;0.00149318;0.00018629;-0.00608603;0.00258123;0;0.0218934;0.0171083
31000;32;25.8059;0.0004004;1.55161e-05;-2.37637;25.6934;0.384706;0.0176322;0.00208367;-0.0029671;-0.0330769;-0.0929586;0.00185168;0.0986854;-5.93466;-0.000487464;-0.000249964;0.000512533;0.000571534;-0.000546464;0.000558999;0.951088;1.05143;0.000645531;0.000745332;1.04588;0.956137;58.8186;103.819;-0.000160221;-0.000487525;-0.000930351;0.000429744;0.000512131;0.00646986;0.00319678;0;0.0170365;-0.0179591;-0.0959419;-0.00346817;0.0976699;-5.63115;-2.30647e-05;4.32769e-05;0.000317479;0.000322893;-2.84783e-05;0.000175686;0.0726495;13.7647;0.000225355;0.000234247;11.3382;0.0881974;40.6568;85.6568;0.00334861;-2.42859e-05;-0.00147738;0.00156342;0.000316389;-0.00233135;-0.000431136;0;0.0216405;0.0170628
32000;33;25.8064;0.000858385;3.32636e-05;-2.37559;25.6939;0.385252;0.0184099;0.0026074;-0.0024212;-0.0322499;-0.0932444;0.00365361;0.0987316;-5.93286;-0.000404201;4.7256e-05;0.00105988;0.0010614;-0.000405725;0.000733563;0.381366;2.62215;0.000874788;0.000978084;2.61606;0.382254;57.4769;102.477;0.000233872;-0.00040441;-0.00055383;0.000647463;0.00105973;0.00605643;0.00421891;0;0.0162749;-0.0161508;-0.0965728;-0.000406587;0.0979149;-5.62808;-4.07902e-05;-6.44212e-05;0.000113564;0.000136917;-6.41437e-05;0.00010053;0.359184;2.78409;0.00011859;0.000134041;2.13454;0.468485;65.7032;110.703;0.00415842;-4.16484e-05;-0.00144068;0.00131162;0.000112528;-0.00303035;-0.00143688;0;0.0217826;0.0170629
33000;34;25.8066;0.00104764;4.05976e-05;-2.374;25.6942;0.387373;0.0200048;0.002913;-0.00029964;-0.0324375;-0.0945456;0.00495292;0.100078;-5.93156;-0.000510313;-0.000111417;0.000537658;0.000549373;-0.000522027;0.0005357;0.949139;1.05359;0.00061864;0.000714267;1.05238;0.950224;51.5572;96.5572;0.000336658;-0.000510491;-0.00083075;0.000607163;0.00053732;0.00436052;0.00227013;0;0.0203741;-0.015141;-0.0982662;0.00263107;0.0994606;-5.62505;-3.17961e-05;-0.000129909;9.28293e-05;0.000174598;-0.000113564;0.000144081;0.342522;2.91952;0.00016761;0.000192108;1.53743;0.650435;77.8735;122.873;0.00329018;-3.24836e-05;-0.00143975;0.00117977;9.18014e-05;-0.00135903;-0.00207382;0;0.0263512;0.0170544
34000;35;25.8082;0.00271381;0.000105164;-2.37211;25.696;0.390999;0.0218951;0.00470611;0.00332583;-0.0317214;-0.0939094;0.00301649;0.0991681;-5.9335;-0.000650278;-0.000325206;0.00139007;0.00144065;-0.000700858;0.00107075;0.467802;2.13765;0.00126075;0.00142767;2.05555;0.486487;67.2434;112.243;0.000102918;-0.000650308;-0.00105884;0.000406936;0.00138956;0.00670556;0.00324413;0;0.0177061;-0.0133141;-0.0981506;0.00144824;0.0990601;-5.62623;9.64438e-05;-0.0001656;3.89884e-05;0.000235789;-0.000100357;0.000168073;-2.47366;-0.40426;0.000199256;0.000224098;2.3495;0.425622;96.5778;141.578;0.00385234;9.59415e-05;-0.00134709;0.00101596;3.80948e-05;-0.00058232;-0.00148115;0;0.0230951;0.0170798
35000;36;25.8081;0.00258144;0.000100034;-2.37184;25.6959;0.391535;0.0221676;0.00459015;0.00386243;-0.0309493;-0.0950817;0.00626145;0.100188;-5.93025;-0.000701413;-0.000264806;0.00115616;0.00119318;-0.000738425;0.0009658;0.606673;1.64833;0.00112546;0.00128773;1.61584;0.618874;60.4061;105.406;-0.000174723;-0.000701553;-0.00112178;0.00059058;0.00115557;0.00776254;0.00347336;0;0.0159072;-0.0118697;-0.0992276;0.00399931;0.100015;-5.62368;-1.55637e-05;-0.000226226;3.49477e-05;0.000237324;-0.00021794;0.000227632;0.445344;2.24546;0.000262926;0.000303509;1.08894;0.918323;87.0344;132.034;0.0034328;-1.62177e-05;-0.00161832;0.00116579;3.36638e-05;-0.00112908;0.000182163;0;0.0214892;0.0170851
36000;37;25.8083;0.00281664;0.000109149;-2.3693;25.6963;0.393802;0.0247075;0.00502606;0.00612947;-0.0307633;-0.0929882;0.00132993;0.0979538;-5.93518;-0.000535718;-0.000100527;0.0011652;0.00117112;-0.000541638;0.000856377;0.459766;2.17502;0.00101088;0.00114184;2.16217;0.462497;59.4977;104.498;0.000181774;-0.000535936;-0.000871315;0.000668951;0.00116482;0.0065981;0.00380163;0;0.0172951;-0.0103213;-0.0977483;0.000276135;0.0982921;-5.6274;0.000152403;-0.00016876;8.22172e-05;0.00028968;-5.50605e-05;0.00017237;-1.85366;-0.539474;0.00021385;0.000229827;5.26112;0.190073;98.1594;143.159;0.00359724;0.000151556;-0.00164959;0.00131217;8.0871e-05;-0.00236297;0.000375903;0;0.0210243;0.0170627
37000;38;25.8074;0.00186697;7.23477e-05;-2.36847;25.6955;0.3919;0.0255372;0.00417782;0.0042268;-0.0296953;-0.0955892;0.00602733;0.100277;-5.93049;-0.0005813;-0.000267355;0.000966811;0.00101168;-0.000626171;0.000818926;0.601255;1.66319;0.000954306;0.0010919;1.61566;0.61894;62.1081;107.108;0.000493319;-0.000581363;-0.000980327;0.000444515;0.000966367;0.00643708;0.00307515;0;0.021927;-0.00818111;-0.100143;0.00564538;0.100635;-5.62203;0.000104142;-0.000162418;2.47863e-05;0.000231659;-0.000102731;0.000167195;-4.20159;-0.238005;0.000197785;0.000222926;2.25501;0.443457;98.4373;143.437;0.00292503;0.000103632;-0.00134786;0.00102312;2.38911e-05;0.000329185;-0.000227;0;0.0291632;0.0170675
38000;39;25.8088;0.00323152;0.000125226;-2.36834;25.6969;0.393246;0.0256608;0.00553913;0.00557345;-0.029512;-0.0936191;0.00242819;0.0981906;-5.93408;-0.000854001;-7.5994e-05;0.000834982;0.000838394;-0.000857413;0.000847904;1.02278;0.97773;0.000979095;0.00113054;0.977819;1.02268;47.3099;92.3099;0.0010003;-0.000854415;-0.00106633;0.000912668;0.000834417;0.00668041;0.00346288;0;0.0175363;-0.00699866;-0.0980557;0.00095952;0.0983099;-5.62672;7.05634e-05;-0.000180765;-6.93799e-05;0.000194427;-0.000193243;0.000193835;1.01706;0.983228;0.000223822;0.000258447;1.00612;0.993913;100.613;145.613;0.00330517;6.96776e-05;-0.00170459;0.00134327;-7.08165e-05;-0.000812498;0.0018357;0;0.023361;0.0170871
39000;40;25.8074;0.00185689;7.19571e-05;-2.36587;25.6957;0.391146;0.0281296;0.004418;0.00347314;-0.029067;-0.0926268;0.00387846;0.0971578;-5.93263;-0.000195671;6.19376e-06;0.000606315;0.000606363;-0.000195718;0.000401041;0.322721;3.09865;0.000482889;0.000534721;3.09814;0.322774;50.5163;95.5163;0.00104415;-0.000196152;-0.000969499;0.000981104;0.000605845;0.00640974;0.00442064;0;0.0161688;-0.00536056;-0.0963166;0.0010989;0.0964719;-5.62658;0.00020655;-0.000172336;-6.57166e-05;0.000290035;-0.000149201;0.000219618;3.14304;0.318163;0.000257902;0.000292824;1.94391;0.514426;110.43;155.43;0.00357464;0.000205534;-0.00178045;0.00143622;-6.72868e-05;-0.00122218;0.00143377;0;0.0241864;0.017122
40000;41;25.8077;0.00219054;8.48865e-05;-2.36504;25.6961;0.393744;0.0289659;0.00479041;0.0060709;-0.0288295;-0.0941507;0.00550871;0.0986197;-5.931;-0.000610583;8.5553e-05;0.00119915;0.00120318;-0.000614618;0.000908901;0.509181;1.96394;0.00106769;0.00121187;1.95761;0.510827;49.892;94.892;0.000855541;-0.000611266;-0.00100217;0.00117131;0.00119865;0.00719401;0.00386522;0;0.0254769;-0.00402958;-0.098324;0.00447119;0.098508;-5.62321;0.000242777;-0.000165156;-7.051e-05;0.000313759;-0.000141492;0.000227626;3.44316;0.290431;0.000269039;0.000303501;2.2175;0.450958;113.399;158.399;0.00323874;0.00024189;-0.00167233;0.00134249;-7.18948e-05;-0.000657097;0.00194729;0;0.0293232;0.0171146
41000;42;25.8067;0.00121762;4.71844e-05;-2.36422;25.6952;0.393088;0.0297843;0.00389862;0.00541494;-0.0294542;-0.0939678;0.00706232;0.0987288;-5.92945;-0.000509313;-0.000363251;0.00151596;0.00157914;-0.000572494;0.00107582;0.335967;2.97648;0.00128677;0.00143442;2.75836;0.362535;68.3321;113.332;0.00100021;-0.000509444;-0.00135653;0.000628016;0.00151511;0.00598539;0.00434377;0;0.0175306;-0.00385882;-0.0982353;0.00662486;0.098534;-5.62105;0.000372194;-0.000195889;-2.56216e-05;0.000452457;-0.000105885;0.000279171;14.5266;0.0688395;0.000342434;0.000372228;4.27309;0.234023;115.93;160.93;0.00379347;0.000371295;-0.00174621;0.00135505;-2.71271e-05;-0.00167734;0.00329106;0;0.0260565;0.017158
42000;43;25.8072;0.00169377;6.56358e-05;-2.36272;25.6958;0.394369;0.0312835;0.00449509;0.00669655;-0.0287418;-0.0962803;0.0115115;0.101136;-5.925;-0.000655068;0.000108119;0.000406615;0.000417514;-0.000665967;0.00054174;1.61103;0.620722;0.000631006;0.00072232;0.626929;1.59508;35.8063;80.8063;0.00127861;-0.000655705;-0.000918212;0.00113336;0.0004062;0.00462399;0.00297557;0;0.0215096;-0.00213289;-0.0998898;0.0107103;0.100485;-5.61697;0.000486632;-0.000315726;1.84527e-05;0.000645583;-0.000140498;0.000393041;-26.3719;-0.0379192;0.000484067;0.000524054;4.59496;0.21763;112.959;157.959;0.00269044;0.000485934;-0.00185452;0.00122379;1.6783e-05;3.15459e-05;0.00424741;0;0.0296317;0.0171189
43000;44;25.8056;3.03991e-05;1.17801e-06;-2.36163;25.6943;0.389025;0.0323733;0.00300617;0.00135207;-0.0274709;-0.0952714;0.0106229;0.0997203;-5.92589;-0.00047765;-0.000128658;0.000775936;0.000789004;-0.000490718;0.000639861;0.615579;1.62449;0.000745508;0.000853148;1.60786;0.621946;54.9067;99.9067;0.000724477;-0.000478054;-0.0011664;0.000907784;0.000775264;0.0061051;0.00329288;0;0.0180161;0.000207911;-0.0982517;0.0068746;0.0984922;-5.6208;0.000499524;-0.000221879;2.78694e-05;0.000587494;-6.01007e-05;0.000323797;-17.9238;-0.0557918;0.000413156;0.00043173;9.77517;0.1023;117.982;162.982;0.00327193;0.000498552;-0.00185497;0.00141198;2.61736e-05;-0.00237306;0.00568508;0;0.0295698;0.0171021
44000;45;25.8047;-0.00083251;-3.22609e-05;-2.3605;25.6936;0.383603;0.0334979;0.00232439;-0.00406929;-0.0265385;-0.0929729;0.00946963;0.097149;-5.92704;-0.000440309;-0.000294712;0.000783457;0.000850732;-0.000507584;0.000679158;0.562008;1.77933;0.000792522;0.000905544;1.67604;0.596644;62.409;107.409;0.00142757;-0.000440569;-0.0013703;0.000779565;0.000782562;0.00607235;0.00484224;0;0.0175308;0.00218619;-0.0956145;0.00356761;0.095706;-5.62411;0.000608465;-0.00018203;-9.26744e-06;0.000658114;-5.89164e-05;0.000358515;;;0.000459642;0.00047802;11.1703;0.089523;124.84;169.84;0.00371278;0.000607368;-0.00185604;0.00149302;-1.09733e-05;-0.0033994;0.00485161;0;0.0284348;0.0171131
45000;46;25.8046;-0.00093424;-3.62031e-05;-2.35892;25.6937;0.381887;0.0350844;0.00239349;-0.00578548;-0.025631;-0.0933188;0.00868595;0.0971638;-5.92783;-0.000475823;6.60155e-05;0.00075718;0.000760705;-0.000479347;0.000620026;0.628414;1.59131;0.000722061;0.000826701;1.58696;0.630136;45.2141;90.2141;0.00132365;-0.000476665;-0.00116864;0.00129915;0.0007565;0.00785553;0.00396212;0;0.0173235;0.00414197;-0.0960335;0.00294512;0.0961679;-5.62473;0.00063303;-0.000219235;0.000124104;0.000714446;4.2687e-05;0.00033588;-5.10081;-0.196047;0.000462725;0.00044784;-16.7369;-0.0597484;121.417;166.417;0.00343429;0.000632138;-0.00179174;0.00135407;0.000122523;-0.00202616;0.00414603;0;0.0298584;0.0171441
46000;47;25.8052;-0.000298328;-1.15606e-05;-2.35763;25.6944;0.383641;0.0363754;0.00312451;-0.00403159;-0.0257856;-0.0923944;0.00785895;0.0962465;-5.92865;-0.000394581;-0.000180916;0.000686312;0.00071579;-0.000424058;0.000569924;0.574929;1.73935;0.000665237;0.000759898;1.68795;0.592434;58.1793;103.179;0.00123317;-0.000394952;-0.00124366;0.000880679;0.000685556;0.00627102;0.00341501;0;0.016646;0.00508404;-0.0951673;0.00188308;0.0953216;-5.62579;0.000582651;-0.000128954;0.00011636;0.000615938;8.30738e-05;0.000266432;-5.0073;-0.199709;0.000385926;0.000355243;-7.41435;-0.134874;125.576;170.576;0.00355606;0.000580958;-0.00210244;0.00184545;0.000114159;-0.00113167;0.00532261;0;0.0284945;0.0170816
47000;48;25.8057;0.000167746;6.5004e-06;-2.35735;25.6949;0.387763;0.0366511;0.00355602;8.99915e-05;-0.0263123;-0.0920056;0.00703906;0.0959527;-5.92947;-0.000635411;0.000124874;0.000809457;0.00082017;-0.000646124;0.000733147;0.784985;1.27391;0.000848551;0.000977529;1.26937;0.787794;41.9734;86.9734;0.00095684;-0.000636476;-0.00121633;0.00146414;0.000808725;0.00742833;0.00360336;0;0.0164084;0.00530158;-0.0950181;0.00188568;0.0951845;-5.62579;0.000698679;-0.00015551;0.000154751;0.00074;0.00011343;0.000313285;-4.51486;-0.221491;0.000460207;0.000417714;-6.52387;-0.153283;126.508;171.508;0.00314416;0.000697186;-0.00204551;0.00173552;0.000152671;-6.19133e-05;0.004814;0;0.0300095;0.0170989
48000;49;25.8048;-0.000701363;-2.71788e-05;-2.35683;25.6941;0.384194;0.0371685;0.00278423;-0.0034789;-0.0254805;-0.0911726;0.00427357;0.0947626;-5.93224;-0.00060483;6.38136e-05;0.00143566;0.00143765;-0.000606824;0.00102224;0.421291;2.37365;0.00121243;0.00136298;2.36914;0.422094;52.6342;97.6342;0.001741;-0.000605651;-0.00115708;0.00128222;0.00143499;0.00647735;0.00288422;0;0.0171586;0.00702084;-0.0942532;-0.00211755;0.094538;-5.6298;0.000619582;-0.000138779;0.000324457;0.000674588;0.00026945;0.000202569;-1.9096;-0.52367;0.000392091;0.000270092;-2.50357;-0.399429;120.971;165.971;0.00304053;0.000618301;-0.0018842;0.00160716;0.000322692;0.000186735;0.00409314;0;0.0288769;0.0170494
49000;50;25.8039;-0.00166459;-6.4505e-05;-2.35548;25.6933;0.380589;0.0385207;0.00199451;-0.00708338;-0.0254914;-0.0924347;0.00739372;0.0961699;-5.92912;-0.000833856;-0.000260699;0.0010851;0.00111989;-0.000868642;0.000994264;0.76846;1.3013;0.00115113;0.00132569;1.28924;0.775653;55.4557;100.456;0.00194971;-0.000834324;-0.00152628;0.00100245;0.00108397;0.00604565;0.00499359;0;0.0166433;0.00795105;-0.0947827;-0.000109805;0.0951157;-5.62779;0.000591345;-3.58839e-05;0.000281956;0.000595453;0.000277849;0.000158802;-2.09729;-0.476805;0.00034404;0.000211736;-2.14308;-0.466618;134.806;179.806;0.00322302;0.000589512;-0.00198698;0.00191582;0.000279983;-0.000858588;0.00526304;0;0.0303252;0.0171073
50000;51;25.8033;-0.00221161;-8.5703e-05;-2.35428;25.6929;0.378817;0.0397214;0.00158137;-0.00885547;-0.0247691;-0.0923962;0.00709165;0.0959211;-5.92942;-0.000626862;-0.000193698;0.00133499;0.00135393;-0.000645804;0.000999866;0.469564;2.12963;0.00117843;0.00133315;2.0965;0.476985;58.5479;103.548;0.00149603;-0.000627394;-0.0014389;0.00104906;0.00133397;0.00690231;0.00492222;0;0.0176934;0.00942094;-0.0946386;5.66008e-05;0.0951064;-5.62762;0.000620363;-2.40555e-05;0.000295578;0.000622135;0.000293806;0.000164165;-2.09881;-0.47646;0.000359374;0.000218886;-2.1175;-0.472254;137.03;2.03004;0.00337044;0.000618253;-0.00210256;0.00205512;0.000293369;-0.00143535;0.00426517;0;0.0310223;0.0171276
51000;52;25.8045;-0.00102858;-3.98591e-05;-2.3536;25.6941;0.379253;0.0404041;0.00282559;-0.00841933;-0.0254375;-0.0907456;0.00441812;0.094347;-5.93209;-0.000544628;2.33981e-05;0.00153468;0.00153494;-0.000544891;0.00103992;0.354881;2.81784;0.00124532;0.00138655;2.81697;0.354992;54.8678;99.8678;0.00266459;-0.00054549;-0.00126866;0.00131277;0.00153387;0.00509967;0.00453267;0;0.0183479;0.00952025;-0.0938254;-0.00353984;0.0943736;-5.63122;0.000675312;-8.1832e-05;0.000284401;0.000691751;0.000267962;0.000211895;-2.37451;-0.42114;0.000402746;0.000282526;-2.58153;-0.387367;130.835;175.835;0.00346938;0.000673702;-0.00195983;0.0017969;0.000282484;-0.00135804;0.0052489;0;0.0306125;0.0170865
52000;53;25.8036;-0.00192318;-7.45258e-05;-2.35291;25.6933;0.379014;0.0410911;0.00199361;-0.00865835;-0.0251333;-0.0908747;0.00430822;0.0943846;-5.9322;-0.000438224;-0.000305791;0.00113516;0.0011925;-0.000495566;0.000844033;0.386047;2.59036;0.00100191;0.00112538;2.40634;0.415569;62.8813;107.881;0.00180598;-0.000438721;-0.00165619;0.00104249;0.00113384;0.00829257;0.00482583;0;0.0180881;0.0105916;-0.0937077;-0.00366615;0.0943756;-5.63134;0.000676075;-5.53276e-05;0.0003328;0.000684772;0.000324103;0.000180335;-2.03147;-0.492254;0.000395541;0.000240446;-2.11282;-0.473301;132.805;177.805;0.00333296;0.000673956;-0.00217025;0.00206032;0.000330448;-0.000819774;0.00407681;0;0.0305234;0.0171891
53000;54;25.8044;-0.00114167;-4.42411e-05;-2.35225;25.6941;0.380916;0.0417549;0.00281113;-0.00675629;-0.0251394;-0.0904354;0.00285068;0.0939078;-5.93366;-0.00058189;-0.000323525;0.00156139;0.00160916;-0.000629661;0.00111941;0.372675;2.6833;0.00133318;0.00149255;2.55559;0.391299;63.3703;108.37;0.00183526;-0.000582367;-0.001678;0.00102806;0.00156003;0.00786209;0.00376669;0;0.0167131;0.0114549;-0.0938947;-0.00426066;0.0946867;-5.63194;0.000728839;1.60082e-05;0.000332595;0.000729485;0.000331949;0.000198768;-2.19137;-0.456335;0.000421735;0.000265024;-2.19758;-0.455046;145.023;10.0226;0.00366795;0.000726944;-0.00191478;0.00194756;0.000330762;-0.00209532;0.00382802;0;0.0306785;0.017132
54000;55;25.8032;-0.00234245;-9.07732e-05;-2.35086;25.6931;0.375523;0.0431466;0.00181196;-0.0121502;-0.024248;-0.0924636;0.00511403;0.0957269;-5.9314;-0.000776131;-0.000219562;0.0015086;0.00152951;-0.00079704;0.00116328;0.51447;1.94375;0.00136525;0.00155103;1.91899;0.521107;58.5157;103.516;0.00199518;-0.000776656;-0.0014888;0.00104679;0.00150752;0.00653766;0.00385236;0;0.0184933;0.0132888;-0.0956128;-0.00264746;0.0965681;-5.63033;0.000793781;-8.11326e-05;0.00039415;0.000809624;0.000378307;0.000215659;-2.01391;-0.496548;0.00046777;0.000287545;-2.14013;-0.467262;132.401;177.401;0.00367656;0.000792015;-0.00204317;0.00188169;0.000392067;-0.00126606;0.00414096;0;0.0303751;0.0171453
55000;56;25.805;-0.000543654;-2.10673e-05;-2.35067;25.6949;0.380619;0.0433297;0.00356023;-0.0070539;-0.0241185;-0.0923108;0.00539955;0.0955622;-5.93111;-0.000695158;-0.000664502;0.00129267;0.00149435;-0.000896831;0.00119559;0.537768;1.85954;0.00139484;0.00159412;1.66625;0.600149;68.5961;113.596;0.00177323;-0.000695111;-0.00192089;0.00058939;0.00129105;0.00733323;0.00442706;0;0.0169954;0.0136971;-0.0958549;-0.000907109;0.0968328;-5.62859;0.000617817;7.53158e-05;0.000469409;0.000649342;0.000437884;0.000105729;-1.31616;-0.759787;0.00038242;0.000140972;-1.48291;-0.67435;164.303;29.3026;0.00331588;0.000614918;-0.00225892;0.0024099;0.000466862;-0.000645526;0.00414411;0;0.03135;0.0171507
56000;57;25.803;-0.0024832;-9.62276e-05;-2.35014;25.693;0.375567;0.0438623;0.00173543;-0.0121058;-0.022584;-0.093978;0.00999555;0.097169;-5.92652;-0.000627772;0.000192758;0.000529681;0.000560938;-0.000659029;0.000609984;1.18519;0.843748;0.000705107;0.000813312;0.851159;1.17487;34.7976;79.7976;0.00209376;-0.000629003;-0.00119649;0.0015804;0.000528985;0.00610209;0.0034817;0;0.0175357;0.0159763;-0.0960008;-0.000394058;0.0973219;-5.62807;0.000810301;-2.7594e-05;0.000421169;0.000812248;0.000419222;0.000196513;-1.92393;-0.519769;0.000469033;0.000262017;-1.93751;-0.516126;139.743;4.74254;0.00407924;0.000808448;-0.00198053;0.0019261;0.000419209;-0.00322211;0.00313292;0;0.031765;0.0171286
57000;58;25.8042;-0.001301;-5.04156e-05;-2.34924;25.6943;0.377983;0.04476;0.00296936;-0.00968972;-0.0240987;-0.0920682;0.00397449;0.0952528;-5.93254;-0.000774888;-0.000274914;0.00119424;0.0012319;-0.000812549;0.00102223;0.648854;1.54118;0.00118861;0.00136297;1.5161;0.659589;56.988;101.988;0.00242243;-0.000775518;-0.00170783;0.00115518;0.00119282;0.0066373;0.00298742;0;0.0178889;0.0159454;-0.0957991;-0.0025896;0.0971516;-5.63027;0.000779853;-3.66661e-05;0.00055169;0.000785601;0.000545943;0.000119829;-1.41357;-0.707428;0.000464915;0.000159772;-1.43898;-0.694936;135.668;0.667813;0.00367295;0.000778075;-0.00195992;0.00188703;0.000549771;-0.00107468;0.00304637;0;0.0313166;0.0170998
58000;59;25.8038;-0.00175315;-6.79369e-05;-2.34884;25.6939;0.375015;0.0451599;0.00259533;-0.0126581;-0.0234743;-0.0910952;0.00423506;0.0941665;-5.93228;-0.000546468;-0.000241141;0.000839852;0.0008806;-0.000587215;0.000733907;0.650671;1.53687;0.000853067;0.000978543;1.49962;0.666836;57.4764;102.476;0.00173734;-0.000547184;-0.00170451;0.0012202;0.00083843;0.00795582;0.00373884;0;0.0185468;0.0166247;-0.0945856;-0.00397033;0.0961175;-5.63165;0.000671189;-1.19065e-05;0.000593476;0.000672972;0.000591692;4.06399e-05;-1.13095;-0.884216;0.000424159;5.41865e-05;-1.13737;-0.879223;134.314;179.314;0.0040706;0.000668651;-0.00227734;0.0022537;0.000590884;-0.00301216;0.00387667;0;0.030299;0.0171237
59000;60;25.8044;-0.00115472;-4.4747e-05;-2.34838;25.6945;0.377914;0.0456222;0.00319609;-0.00975838;-0.0236179;-0.0914615;0.00142918;0.0944725;-5.93508;-0.00059905;-0.000451844;0.00141587;0.00151255;-0.000695736;0.00110414;0.423098;2.36352;0.0013037;0.00147219;2.17403;0.459975;65.2909;110.291;0.00147804;-0.000599386;-0.00184245;0.000935964;0.00141427;0.00928025;0.00430719;0;0.0185487;0.0169705;-0.0949603;-0.00682573;0.0967059;-5.6345;0.000655748;3.66057e-05;0.000443171;0.000661875;0.000437044;0.000112415;-1.47967;-0.675825;0.000388626;0.000149887;-1.51443;-0.660312;151.895;16.895;0.00379952;0.000653486;-0.00205423;0.00212788;0.000441063;-0.00220378;0.00340016;0;0.0317614;0.0170978
60000;61;25.8043;-0.00122384;-4.74256e-05;-2.34814;25.6945;0.377225;0.0458671;0.00315919;-0.010448;-0.0233236;-0.0936271;0.00617721;0.096686;-5.93034;-0.000586251;-0.000463479;0.00113279;0.00124978;-0.000703249;0.000976516;0.51753;1.93226;0.00114221;0.00130202;1.77716;0.562696;64.293;109.293;0.00221043;-0.000586698;-0.00198258;0.00105302;0.00113093;0.00856275;0.00282067;0;0.0172523;0.0177968;-0.0967586;-0.0027551;0.0984203;-5.63043;0.000658343;3.21085e-05;0.000440847;0.000662984;0.000436206;0.000113389;-1.49336;-0.669632;0.000389088;0.000151185;-1.51989;-0.657944;150.702;15.7017;0.00400201;0.000656142;-0.00203455;0.00209921;0.000438779;-0.00155173;0.00329923;0;0.0295408;0.0171411
61000;62;25.8017;-0.00381906;-0.000147994;-2.34766;25.692;0.369861;0.0463401;0.000703169;-0.0178121;-0.0232182;-0.0950042;0.0130523;0.0986673;-5.92346;-0.000713662;-0.000185328;0.000664565;0.000689051;-0.000738148;0.0007136;1.07388;0.931204;0.000824156;0.000951466;0.933487;1.07125;52.067;97.067;0.00218906;-0.000714462;-0.00165021;0.00127753;0.000663222;0.00683456;0.00266937;0;0.0186281;0.0184126;-0.0977062;0.00302383;0.0994719;-5.62465;0.000611199;-1.90877e-05;0.000401173;0.000612919;0.000399452;0.000106734;-1.52353;-0.656371;0.000359259;0.000142311;-1.5344;-0.651721;136.638;1.6382;0.00417545;0.000609022;-0.0021249;0.00208717;0.000398916;-0.00260399;0.00482352;0;0.0297236;0.0171149
62000;63;25.803;-0.00250647;-9.71291e-05;-2.34636;25.6934;0.373898;0.0476466;0.00208229;-0.0137751;-0.0255262;-0.0940795;0.00743195;0.0977639;-5.92908;-0.000650352;-0.000294249;0.00140916;0.00145038;-0.000691568;0.00107097;0.461517;2.16677;0.00126226;0.00142796;2.09723;0.476819;59.8045;104.805;0.00259032;-0.000651117;-0.00186238;0.00127066;0.00140747;0.00582976;0.00363456;0;0.0166427;0.0171816;-0.0968773;-0.0034017;0.0984479;-5.63108;0.000702076;-1.92251e-05;0.000449834;0.000703533;0.000448377;0.000127578;-1.56074;-0.64072;0.000411259;0.000170104;-1.56906;-0.637322;138.52;3.51965;0.00400152;0.000700001;-0.00207581;0.00203788;0.000447681;-0.0017563;0.00293189;0;0.0298326;0.0171544
63000;64;25.8038;-0.00168945;-6.54685e-05;-2.34636;25.6942;0.374543;0.0476468;0.00289341;-0.0131297;-0.0256083;-0.0932038;0.00281917;0.0966989;-5.93369;-0.000725119;-5.73891e-05;0.00115488;0.00115663;-0.00072687;0.000941752;0.627872;1.59268;0.00109684;0.00125567;1.59126;0.628435;50.5311;95.5311;0.00269435;-0.000726349;-0.00168646;0.00156862;0.00115347;0.00716305;0.00292295;0;0.018104;0.0173351;-0.0969187;-0.00642468;0.0986661;-5.6341;0.00072362;3.89594e-05;0.000513332;0.000730606;0.000506346;0.00011213;-1.40965;-0.709394;0.000432169;0.000149506;-1.4429;-0.69305;153.206;18.2062;0.00373163;0.000721216;-0.00211563;0.002194;0.000511096;-0.00159365;0.00343351;0;0.0309922;0.0171486
64000;65;25.8039;-0.00165149;-6.39977e-05;-2.34561;25.6943;0.376127;0.0483885;0.00297611;-0.011546;-0.0255029;-0.0948057;0.00740062;0.0984545;-5.92911;-0.000572059;-0.000246585;0.0014991;0.00152805;-0.000601012;0.00106453;0.381602;2.62053;0.00126746;0.00141938;2.54246;0.393319;60.0559;105.056;0.00244315;-0.000572874;-0.00179608;0.00129971;0.00149752;0.00673615;0.0051988;0;0.0175363;0.0177162;-0.0989692;-0.00124556;0.10055;-5.62892;0.000639807;1.27336e-05;0.000427024;0.000640566;0.000426265;0.000107151;-1.49829;-0.667427;0.00037652;0.000142868;-1.50274;-0.66545;145.334;10.3345;0.00405971;0.000637414;-0.0021623;0.00218823;0.000424687;-0.00207689;0.0028954;0;0.0299345;0.0171219
65000;66;25.8033;-0.00223617;-8.66546e-05;-2.34508;25.6938;0.374807;0.0489197;0.00245671;-0.0128654;-0.0269073;-0.0948113;0.0052093;0.098693;-5.9313;-0.00057202;-0.000331018;0.00158577;0.00163541;-0.000621659;0.00112853;0.360721;2.77222;0.00134622;0.00150471;2.63071;0.380125;62.4845;107.485;0.00272207;-0.000572735;-0.00190549;0.00124006;0.00158401;0.00629314;0.00333944;0;0.0184273;0.0168593;-0.0982212;-0.00613051;0.099846;-5.63381;0.00076258;-3.91898e-05;0.000433831;0.000767187;0.000429224;0.000168982;-1.75778;-0.568899;0.000443979;0.000225309;-1.78738;-0.559477;136.118;1.11803;0.00396512;0.000760364;-0.00218423;0.00210656;0.000431448;-0.00151806;0.00256093;0;0.0306501;0.0170934
66000;67;25.8027;-0.00281847;-0.00010922;-2.34471;25.6932;0.373647;0.0492963;0.0019232;-0.014026;-0.0271944;-0.0961135;0.00540388;0.100033;-5.93111;-0.000737873;-0.000364446;0.000924663;0.00100104;-0.000814254;0.000907649;0.797991;1.25315;0.00104991;0.0012102;1.2294;0.813405;58.4672;103.467;0.00261775;-0.000738649;-0.00202957;0.00129791;0.000922672;0.00736556;0.00427082;0;0.018448;0.0169182;-0.100196;-0.00360079;0.101678;-5.63128;0.000810581;-7.53284e-05;0.000346342;0.000822498;0.000334425;0.000244036;-2.3404;-0.427277;0.000477623;0.000325382;-2.45944;-0.406597;133.084;178.084;0.0034788;0.000808095;-0.00238151;0.00223192;0.00034351;-0.000291781;0.00384953;0;0.0287258;0.0171544
67000;68;25.8024;-0.00316739;-0.000122741;-2.34469;25.6929;0.369618;0.0493104;0.00163235;-0.0180543;-0.0270332;-0.0982021;0.00789635;0.102161;-5.92862;-0.000778198;-0.000252278;0.00126335;0.00129406;-0.000808911;0.00105149;0.615979;1.62343;0.00122488;0.00140198;1.59976;0.625093;56.1012;101.101;0.00199399;-0.000779168;-0.0019226;0.00141464;0.00126154;0.00854426;0.00319152;0;0.0182614;0.0172378;-0.101913;-0.00313359;0.103408;-5.63081;0.000691035;6.30319e-05;0.000261279;0.000700089;0.000252225;0.000223932;-2.64482;-0.378097;0.000409424;0.000298576;-2.77566;-0.360275;149.161;14.1609;0.00340038;0.000688343;-0.00219486;0.00232189;0.000258872;-0.000540586;0.00388983;0;0.0279224;0.0171116
68000;69;25.8021;-0.0034267;-0.00013279;-2.34455;25.6927;0.370532;0.0494577;0.00137221;-0.0171404;-0.0274272;-0.100198;0.0118555;0.104558;-5.92466;-0.000829436;-0.00065127;0.00118312;0.00137548;-0.0010218;0.00119864;0.701059;1.42641;0.00138909;0.00159819;1.34614;0.742867;64.6628;109.663;0.002506;-0.000829658;-0.00223732;0.000931593;0.00118083;0.00717722;0.00474026;0;0.0177165;0.0171728;-0.103256;-0.00130005;0.104682;-5.62898;0.000635775;3.99259e-05;0.000235681;0.00063972;0.000231736;0.000203992;-2.6976;-0.370699;0.000373986;0.000271989;-2.76056;-0.362246;146.202;11.2016;0.00333046;0.000633197;-0.00219086;0.00227161;0.000233283;0.000415861;0.00211672;0;0.0280032;0.0171034
69000;70;25.8039;-0.00166683;-6.4592e-05;-2.34334;25.6945;0.373894;0.0506592;0.00320048;-0.0137789;-0.0287154;-0.100041;0.00667814;0.104295;-5.92983;-0.000757256;-0.000201625;0.00112408;0.00114544;-0.000778622;0.000962032;0.67367;1.48441;0.00111757;0.00128271;1.47111;0.679757;54.2882;99.2882;0.00218183;-0.000758251;-0.00183026;0.00142395;0.00112242;0.00747468;0.00455288;0;0.0181366;0.0168309;-0.104193;-0.0057276;0.105699;-5.63341;0.000660448;1.77313e-05;0.000173659;0.000661093;0.000173014;0.000244039;-3.80313;-0.262942;0.000395867;0.000325386;-3.82103;-0.261709;142.298;7.29849;0.00256593;0.000657807;-0.00226237;0.00229894;0.000171101;0.00104748;0.00303485;0;0.0270758;0.0171683
70000;71;25.804;-0.00157053;-6.08601e-05;-2.34278;25.6947;0.374096;0.0512195;0.00334535;-0.0135766;-0.0295966;-0.101416;0.00724552;0.105895;-5.92927;-0.000624789;-7.93663e-05;0.00156857;0.00157144;-0.000627658;0.00109955;0.398317;2.51056;0.00130804;0.00146607;2.50366;0.399415;55.0708;100.071;0.00244283;-0.000626019;-0.00173213;0.00156978;0.00156708;0.00653264;0.00270102;0;0.0177029;0.0159678;-0.105793;-0.00528141;0.107121;-5.63296;0.000805715;6.36502e-05;0.000120947;0.000811581;0.000115081;0.00034825;-6.66171;-0.150112;0.000507066;0.000464333;-7.05226;-0.141799;145.972;10.9723;0.00274494;0.000802902;-0.00224494;0.00237382;0.00011843;0.00102354;0.00346754;0;0.028986;0.0171582
71000;72;25.8039;-0.00160299;-6.21179e-05;-2.34183;25.6947;0.374095;0.0521752;0.00339989;-0.0135775;-0.0313115;-0.102218;0.00547915;0.107046;-5.93103;-0.000514225;-6.77749e-05;0.00160422;0.00160638;-0.000516391;0.00106139;0.320546;3.11968;0.00127831;0.00141518;3.11079;0.321462;55.5676;100.568;0.0024536;-0.000515613;-0.00180658;0.00166735;0.00160259;0.00697206;0.00223737;0;0.0192008;0.0145847;-0.1074;-0.0052151;0.108511;-5.63289;0.00076097;0.000138279;5.93496e-05;0.000787239;3.30803e-05;0.00037708;-12.8218;-0.0779921;0.000514154;0.000502773;-23.7978;-0.0420207;150.795;15.7945;0.00300159;0.000757948;-0.00218524;0.00246343;5.69717e-05;0.00171455;0.00305525;0;0.0286163;0.0171901
72000;73;25.8033;-0.00224646;-8.70533e-05;-2.34099;25.6942;0.373289;0.0530143;0.00284187;-0.0143839;-0.0325083;-0.103133;0.00453212;0.10823;-5.93198;-0.000738159;-0.000499808;0.00144118;0.00155034;-0.000847317;0.00119883;0.512191;1.9524;0.00140398;0.00159844;1.8297;0.546537;63.1154;108.115;0.00293865;-0.000738779;-0.00222333;0.00121996;0.00143884;0.00625198;0.00331331;0;0.0177554;0.01397;-0.108121;-0.00822697;0.10933;-5.6359;0.000674;0.0002604;2.92461e-05;0.000766033;-6.27862e-05;0.000414409;-23.0458;-0.0433919;0.000532852;0.000552546;12.2007;0.0819628;158.652;23.652;0.00254548;0.000670471;-0.00214792;0.00267027;2.69733e-05;0.00221471;0.00187969;0;0.0265558;0.017117
73000;74;25.8044;-0.00107369;-4.1607e-05;-2.34098;25.6953;0.372537;0.0530225;0.00403128;-0.0151359;-0.0338106;-0.104338;0.00404275;0.109754;-5.93247;-0.000802871;-0.000177338;0.00163801;0.00165083;-0.000815688;0.00123326;0.49015;2.04019;0.001451;0.00164434;2.02385;0.494109;56.1232;101.123;0.00293969;-0.000803988;-0.0018632;0.00150441;0.00163629;0.00406986;0.00325328;0;0.0172558;0.0130988;-0.110156;-0.0090579;0.111302;-5.63674;0.000714273;0.000280275;1.03874e-05;0.000812239;-8.75783e-05;0.000449909;-68.7633;-0.0145426;0.000572921;0.000599878;9.27443;0.107823;158.736;23.7357;0.00272688;0.000710928;-0.00204047;0.00260265;8.34496e-06;0.00289163;0.00255125;0;0.025299;0.0171537
74000;75;25.8049;-0.000600791;-2.32815e-05;-2.34093;25.6958;0.372057;0.0530758;0.004518;-0.0156159;-0.0347628;-0.105374;0.00378756;0.111025;-5.93273;-0.000528801;-0.000202916;0.00150305;0.00152312;-0.000548867;0.00103599;0.351818;2.84238;0.00123956;0.00138132;2.77502;0.360358;57.8802;102.88;0.00335635;-0.000530212;-0.00210105;0.00169137;0.00150087;0.00451649;0.00303607;0;0.0174148;0.0123277;-0.111676;-0.00890282;0.112706;-5.63658;0.000769936;0.000374525;0.000210367;0.000957643;2.26602e-05;0.000467491;-3.65996;-0.273227;0.000631011;0.000623322;-42.261;-0.0236625;167.394;32.3945;0.00303431;0.000766119;-0.00203866;0.00278906;0.00020836;0.00355523;0.00102602;0;0.0257371;0.0172006
75000;76;25.8059;0.000370919;1.43736e-05;-2.34061;25.6968;0.372165;0.0533924;0.00552111;-0.015508;-0.0355118;-0.106376;0.0010816;0.112152;-5.93543;-0.000670739;2.84148e-05;0.00171999;0.00172033;-0.000671077;0.0011957;0.389967;2.56432;0.00142429;0.00159427;2.56354;0.390086;52.1732;97.1732;0.00367364;-0.000672543;-0.00184642;0.00189878;0.00171829;0.0039022;0.00283309;0;0.0171209;0.0120305;-0.113732;-0.0128916;0.115091;-5.64057;0.000814213;0.000418402;-6.96069e-05;0.000980863;-0.000236256;0.00060856;11.6973;0.0854897;0.00074525;0.000811413;4.15169;0.240866;161.268;26.268;0.00281973;0.000810491;-0.00192259;0.00276147;-7.13676e-05;0.00327921;0.00191399;0;0.0247901;0.0172139
76000;77;25.8057;0.0001469;5.69256e-06;-2.33998;25.6967;0.370669;0.0540256;0.00537543;-0.0170041;-0.0368774;-0.108853;0.00416729;0.115006;-5.93235;-0.000575233;-0.00040963;0.00192929;0.00199459;-0.000640528;0.00131756;0.298157;3.35394;0.00158693;0.00175675;3.11398;0.321133;64.0732;109.073;0.0030537;-0.000576202;-0.00227478;0.00145086;0.0019268;0.00519345;0.00213058;0;0.0188927;0.0110132;-0.116285;-0.0104786;0.117274;-5.63816;0.00075089;0.000599956;7.35352e-05;0.00110116;-0.000276735;0.000688948;-10.2113;-0.0979306;0.000841656;0.000918597;3.97911;0.251312;169.947;34.9471;0.00288847;0.000746182;-0.00192613;0.00312775;7.18603e-05;0.00487702;0.0028807;0;0.0260536;0.0171855
77000;78;25.8049;-0.000621771;-2.40945e-05;-2.34053;25.6959;0.368478;0.0534683;0.00458425;-0.0191951;-0.0376577;-0.110588;0.00406919;0.116895;-5.93244;-0.000624671;-0.000414238;0.00107829;0.00117371;-0.000720087;0.000946896;0.579316;1.72617;0.00110379;0.00126253;1.62995;0.613516;61.3483;106.348;0.00379267;-0.000625734;-0.00234718;0.00151542;0.00107562;0.0056774;0.00161532;0;0.0177682;0.0105096;-0.118437;-0.0110884;0.119418;-5.63877;0.000824464;0.000616638;-7.21235e-05;0.00113854;-0.000386201;0.000762371;11.4313;0.0874793;0.000915334;0.00101649;2.94805;0.339207;165.869;30.8689;0.00378253;0.000818845;-0.00217407;0.00340985;-7.42969e-05;0.00355339;0.00290528;0;0.0264255;0.0171747
78000;79;25.8077;0.00216789;8.40087e-05;-2.34068;25.6986;0.375385;0.0533276;0.00727296;-0.0122878;-0.0393015;-0.111717;0.00349979;0.11848;-5.93301;-0.000527962;-0.000442725;0.00115142;0.00126099;-0.000637526;0.000949256;0.45853;2.18088;0.00111563;0.00126568;1.97794;0.505578;63.0957;108.096;0.00302982;-0.000529284;-0.00257385;0.00168483;0.00114821;0.00669783;0.000714664;0;0.0175115;0.00926256;-0.120286;-0.0129736;0.121338;-5.64065;0.000561845;0.000489076;-0.000143404;0.000812163;-0.000393722;0.000602943;3.91792;0.255237;0.000710053;0.000803924;2.06278;0.484782;164.423;29.4229;0.00418849;0.000557125;-0.00213224;0.00311224;-0.000145558;0.00345538;0.00382721;0;0.0274409;0.0171435
79000;80;25.8071;0.00156823;6.07713e-05;-2.34011;25.6981;0.368972;0.0538919;0.00681505;-0.0187012;-0.0404424;-0.114372;0.0052273;0.121424;-5.93129;-0.00051645;-0.00054636;0.00151033;0.00164823;-0.00065435;0.00115129;0.341945;2.92445;0.00137005;0.00153505;2.51888;0.397001;65.8447;110.845;0.00414217;-0.000517509;-0.00265151;0.00155454;0.00150697;0.00452348;0.00196191;0;0.0227714;0.00829195;-0.122982;-0.0119552;0.123839;-5.63963;0.000568284;0.000526978;-0.00021584;0.000833047;-0.000480602;0.000656824;2.6329;0.379809;0.00076748;0.000875766;1.73334;0.576921;163.771;28.7707;0.00372366;0.000564001;-0.00191876;0.00297463;-0.000217542;0.00243506;0.00376111;0;0.0273887;0.0171615
80000;81;25.8064;0.000844365;3.27203e-05;-2.34042;25.6973;0.37248;0.0535847;0.00600952;-0.0151928;-0.0429525;-0.118178;0.00807908;0.126001;-5.92843;-0.000689396;-0.00020019;0.00163159;0.00164873;-0.000706537;0.00117763;0.42253;2.36669;0.00139561;0.00157018;2.33354;0.428534;55.7021;100.702;0.00444567;-0.000691589;-0.00250848;0.00210275;0.00162847;0.00509358;0.00031462;0;0.0220952;0.00604145;-0.126551;-0.0104087;0.127122;-5.63809;0.000615856;0.000396237;-0.000124537;0.000787923;-0.000296603;0.000542263;4.94519;0.202217;0.000647215;0.000723017;2.65649;0.376436;161.288;26.2885;0.00443433;0.00061167;-0.00212729;0.00292163;-0.000126721;0.00189403;0.00456443;0;0.0252721;0.0172982
81000;82;25.8047;-0.000783967;-3.03798e-05;-2.33944;25.6959;0.364731;0.0545661;0.00457479;-0.0229415;-0.0432307;-0.119342;0.00322072;0.126971;-5.93329;-0.000559947;-0.00028685;0.00154858;0.0015869;-0.000598274;0.00109259;0.361588;2.76558;0.00130394;0.00145679;2.65247;0.377007;58.4439;103.444;0.00479232;-0.000562153;-0.00269853;0.00211975;0.00154498;0.00553654;0.000651635;0;0.0189968;0.00634539;-0.127449;-0.0168642;0.128717;-5.64454;0.000688197;0.000307241;-0.00021162;0.000783096;-0.000306518;0.000544807;3.25205;0.307499;0.000648837;0.000726409;2.55481;0.391419;154.941;19.9407;0.0045379;0.00068435;-0.00217516;0.00279187;-0.000213939;0.000732932;0.00546066;0;0.0258724;0.0171814
82000;83;25.807;0.00148785;5.76563e-05;-2.33985;25.6981;0.36808;0.0541524;0.00677081;-0.0195923;-0.0442788;-0.121851;0.00307387;0.129683;-5.93344;-0.000607393;-0.000164407;0.00159236;0.00160458;-0.000619613;0.0011121;0.381442;2.62163;0.00132545;0.0014828;2.58965;0.386153;54.9674;99.9674;0.00491409;-0.00060999;-0.00261829;0.00228409;0.00158895;0.00510457;0.00157583;0;0.0244044;0.00511231;-0.129881;-0.0166008;0.131037;-5.64428;0.00048777;0.000298709;-0.000103593;0.000612392;-0.000228214;0.000420303;4.70854;0.21238;0.000501935;0.000560404;2.68341;0.372661;159.766;24.7663;0.00445128;0.000483502;-0.00233852;0.00293749;-0.000106283;-0.000548518;0.00577713;0;0.0285642;0.017156
83000;84;25.8068;0.00126406;4.89841e-05;-2.33995;25.6979;0.366542;0.0540575;0.00655942;-0.0211304;-0.0469626;-0.125366;0.00482569;0.13396;-5.93169;-0.000682697;-0.000538987;0.00140221;0.0015333;-0.000813793;0.00117355;0.486874;2.05392;0.00137616;0.00156473;1.88414;0.530745;62.8422;107.842;0.00478496;-0.000684421;-0.00301623;0.0019331;0.00139781;0.00552408;0.00158607;0;0.0222212;0.00301521;-0.132965;-0.0170922;0.134093;-5.64477;0.000553903;0.000216982;-2.33582e-05;0.000626367;-9.58218e-05;0.000361094;23.7134;0.0421702;0.00045291;0.000481459;6.53679;0.15298;156.214;21.2145;0.00485009;0.000549378;-0.00258147;0.00301705;-2.66667e-05;-0.00138206;0.00643237;0;0.0279836;0.0173153
84000;85;25.805;-0.00053553;-2.07525e-05;-2.33991;25.6961;0.362976;0.0540879;0.00480559;-0.0246964;-0.0488416;-0.129442;0.00964155;0.138686;-5.92687;-0.000731549;-0.00049523;0.000500197;0.00067461;-0.000905962;0.000790286;1.46252;0.68375;0.000915797;0.00105371;0.744633;1.34294;63.099;108.099;0.00532818;-0.000733384;-0.00297154;0.00197803;0.000495907;0.00567927;0.00334452;0;0.0182971;0.00149107;-0.135982;-0.0144322;0.136754;-5.64211;0.000509381;8.09257e-05;4.22263e-05;0.000523002;2.86047e-05;0.000247199;-12.0631;-0.0828974;0.000339535;0.000329599;-18.2838;-0.0546932;147.469;12.4687;0.0056056;0.000505407;-0.00265794;0.00282107;3.86974e-05;-0.00247459;0.00709645;0;0.0275669;0.0171969
85000;86;25.8064;0.000911941;3.5339e-05;-2.33972;25.6976;0.364326;0.0542795;0.00625755;-0.0233472;-0.0510508;-0.131563;0.00832422;0.141366;-5.92819;-0.000937003;-0.000847846;0.00146081;0.00173031;-0.0012065;0.00146841;0.641425;1.55903;0.00170454;0.00195788;1.43416;0.697274;66.0312;111.031;0.00531499;-0.000937581;-0.0030697;0.00136869;0.00145647;0.00493472;0.00333073;0;0.0149129;-0.000281923;-0.138257;-0.0159593;0.139176;-5.64364;0.000468688;-2.57543e-05;8.05817e-06;0.000470123;6.62269e-06;0.00023175;;;0.000311232;0.000309001;;;134.151;179.151;0.00601337;0.000464368;-0.00299034;0.0029402;3.58744e-06;-0.00318378;0.00482791;0;0.0273927;0.0173155
86000;87;25.806;0.000491072;1.90297e-05;-2.33864;25.6972;0.364378;0.0553607;0.00593257;-0.0232949;-0.0528856;-0.137207;0.0161246;0.147927;-5.92039;-0.000824557;-0.00079043;0.000801375;0.00112229;-0.00114548;0.00113388;1.02893;0.971886;0.00130932;0.00151185;0.979762;1.02066;66.984;111.984;0.00439518;-0.000825345;-0.00306735;0.00148279;0.000796987;0.00639955;0.0042673;0;0.0150502;-0.00133588;-0.142773;-0.00963305;0.143104;-5.63731;0.000398762;-2.30945e-05;4.3715e-05;0.000400258;4.22191e-05;0.000179019;-9.12185;-0.109627;0.000253938;0.000238692;-9.48049;-0.10548;133.775;178.775;0.00651085;0.000395473;-0.00261043;0.00256516;4.03082e-05;-0.00327047;0.00347725;0;0.0296939;0.0173965
87000;88;25.8046;-0.000934178;-3.62007e-05;-2.33847;25.6959;0.36232;0.0555319;0.00454598;-0.0253531;-0.0549116;-0.140473;0.0199257;0.152135;-5.91659;-0.000922128;-0.000846151;0.000750785;0.00110413;-0.00127547;0.0011898;1.22822;0.814188;0.00137505;0.0015864;0.865664;1.15518;66.5926;111.593;0.00421379;-0.000922713;-0.00306942;0.00137341;0.000746436;0.00656528;0.0044778;0;0.0156615;-0.0031542;-0.145377;-0.00799123;0.145631;-5.63567;0.00043992;-0.000282536;8.27569e-05;0.000595581;-7.29037e-05;0.000334242;-5.31581;-0.188118;0.000423452;0.000445656;8.16942;0.122408;109.059;154.059;0.00606583;0.000437283;-0.00287866;0.00231452;7.86539e-05;-0.00207999;0.00891799;0;0.0285983;0.0173829
88000;89;25.8053;-0.000217164;-8.41541e-06;-2.33892;25.6965;0.361743;0.0550789;0.00523293;-0.0259303;-0.0584737;-0.141612;0.0134407;0.153798;-5.92307;-0.00100631;-0.000822269;0.000653031;0.00099147;-0.00134475;0.00116811;1.54098;0.648939;0.00135395;0.00155748;0.737292;1.35631;64.8753;109.875;0.00353866;-0.00100666;-0.0028226;0.00117474;0.000649388;0.00925828;0.00590338;0;0.017859;-0.00652343;-0.147169;-0.0159983;0.148179;-5.64368;0.00044529;-0.0003808;4.90544e-06;0.000664977;-0.000214781;0.000439879;;;0.000529633;0.000586505;3.09606;0.322991;107.302;152.302;0.00623833;0.000442261;-0.00325138;0.00249105;-3.0779e-07;-0.00378665;0.00568566;0;0.0264439;0.0173531
89000;90;25.8045;-0.000979752;-3.79668e-05;-2.33849;25.6958;0.361401;0.05551;0.00451115;-0.0262716;-0.0594028;-0.145817;0.0176089;0.158434;-5.9189;-0.00140555;-0.00135401;0.00035173;0.0010872;-0.00214102;0.00161411;3.99611;0.250243;0.00189663;0.00215214;0.507795;1.9693;66.301;111.301;0.00331444;-0.00140487;-0.00339618;0.00068458;0.000346881;0.00826248;0.00766223;0;0.0180518;-0.00710333;-0.150507;-0.0143905;0.15136;-5.64207;0.00036581;-0.000469418;-3.16815e-05;0.000676822;-0.000342694;0.000509758;11.5465;0.0866064;0.000599062;0.000679677;1.97501;0.506327;103.231;148.231;0.00558282;0.000363243;-0.00325214;0.00231442;-3.68597e-05;-0.00176658;0.00617599;0;0.0276588;0.0173863
90000;91;25.8021;-0.00338098;-0.000131018;-2.33758;25.6937;0.349976;0.0564186;0.00234061;-0.0376972;-0.0625665;-0.15066;0.0237261;0.164851;-5.91279;-0.001053;-0.000860005;9.9028e-05;0.000558098;-0.00151207;0.00103509;10.6334;0.0940435;0.00123679;0.00138011;0.369095;2.70933;66.764;111.764;0.00385216;-0.00105342;-0.00297397;0.00125153;9.49759e-05;0.00644899;0.00890781;0;0.0196461;-0.00975224;-0.15472;-0.0122986;0.155514;-5.63998;0.000277209;-0.000479644;1.27535e-05;0.000642517;-0.000352555;0.000497536;-21.7359;-0.0460068;0.000582579;0.000663381;1.82246;0.548709;99.1624;144.162;0.0051334;0.00027431;-0.00341403;0.00245552;7.04081e-06;0.000521557;0.00575031;0;0.0258622;0.0174698
91000;92;25.803;-0.00256959;-9.95752e-05;-2.33757;25.6945;0.347815;0.056434;0.00318617;-0.0398576;-0.0651275;-0.151837;0.0204619;0.166478;-5.91605;-0.00127982;-0.000852261;0.000970175;0.00125655;-0.00156619;0.00141137;1.31916;0.758058;0.00163297;0.00188183;0.802296;1.24642;61.4197;106.42;0.00311371;-0.00128014;-0.00288259;0.0011735;0.000966387;0.00745174;0.00728108;0;0.0179056;-0.0121368;-0.156222;-0.0190145;0.157842;-5.64669;0.000141647;-0.00046076;1.70841e-05;0.000544316;-0.000385585;0.000464951;-8.29115;-0.12061;0.00053948;0.000619934;1.41166;0.708384;94.679;139.679;0.00473598;0.000138822;-0.00334279;0.00242164;1.16032e-05;0.00109954;0.00416242;0;0.0244891;0.0174794
92000;93;25.802;-0.00356669;-0.000138214;-2.33791;25.6935;0.343204;0.0560972;0.00221622;-0.0444688;-0.0671052;-0.155712;0.0242199;0.171278;-5.91229;-0.00116233;-0.000664286;0.000873818;0.00107137;-0.00135988;0.00121563;1.33017;0.751784;0.00140697;0.00162083;0.787843;1.26929;59.513;104.513;0.00320734;-0.00116298;-0.00265184;0.00131923;0.000870525;0.00710045;0.00637624;0;0.0193805;-0.0139728;-0.160162;-0.0179354;0.161768;-5.64561;8.55662e-06;-0.000314813;-2.32448e-05;0.00030787;-0.000322558;0.000315214;;;0.000364011;0.000420286;0.954464;1.04771;91.4137;136.414;0.00457128;5.3308e-06;-0.00318898;0.00255945;-2.82801e-05;0.00124613;0.00350406;0;0.0197758;0.0175153
93000;94;25.8024;-0.00316325;-0.00012258;-2.33647;25.6941;0.339718;0.0575371;0.00279866;-0.0479543;-0.0701171;-0.160701;0.0281857;0.177583;-5.90833;-0.00104889;-0.000650577;0.00118963;0.00136497;-0.00122424;0.00129461;0.881695;1.13418;0.00149562;0.00172614;1.11496;0.896893;61.2001;106.2;0.00281598;-0.0010494;-0.00250143;0.00119614;0.00118672;0.00913398;0.00579214;0;0.0188992;-0.0164789;-0.165688;-0.017908;0.167466;-5.64559;0.000161104;-0.000106482;-4.82719e-05;0.000205742;-9.29092e-05;0.000149325;3.33743;0.299632;0.00017648;0.000199101;2.21444;0.451582;112.887;157.887;0.00408162;0.00015766;-0.00283942;0.00262702;-5.22976e-05;0.00243769;0.00321761;0;0.0223512;0.0175416
94000;95;25.8022;-0.00336394;-0.000130357;-2.33849;25.6939;0.32994;0.0555115;0.00254028;-0.0577329;-0.0734473;-0.163337;0.0241287;0.180709;-5.91238;-0.000788746;-0.000409223;0.00110168;0.00118646;-0.000873529;0.00103;0.71595;1.39675;0.0011939;0.00137333;1.35824;0.736247;58.9474;103.947;0.00264417;-0.00078996;-0.00243226;0.00160999;0.00109881;0.0066952;0.005569;0;0.0173786;-0.0199291;-0.168971;-0.0289731;0.172591;-5.65665;-5.38342e-05;9.8405e-05;3.4915e-05;9.84878e-05;-0.000117407;0.000107947;1.54187;0.648565;0.000124806;0.00014393;0.838858;1.1921;12.0676;57.0676;0.00507927;-5.73921e-05;-0.0024727;0.00266928;3.18628e-05;0.00336544;0.00287692;0;0.0181723;0.0177174
95000;96;25.8036;-0.00191238;-7.41073e-05;-2.33982;25.6953;0.321779;0.0541805;0.00398028;-0.0658936;-0.0760458;-0.166423;0.0201812;0.184084;-5.91633;-0.000757543;-0.000445799;0.001034;0.0011388;-0.000862343;0.00100057;0.732633;1.36494;0.00115903;0.0013341;1.32059;0.757238;60.0363;105.036;0.00393548;-0.000759029;-0.00267566;0.00178007;0.00103052;0.00605668;0.00471889;0;0.01753;-0.0227474;-0.173756;-0.0370497;0.179113;-5.66473;-0.000132634;0.000201206;5.53559e-05;0.00018344;-0.000260718;0.000222079;2.39602;0.417359;0.000257725;0.000296105;0.703595;1.42127;12.1987;57.1987;0.00631588;-0.000137847;-0.00283325;0.00323509;5.13627e-05;0.00199299;-0.000727737;0;0.0172479;0.0176983
96000;97;25.8043;-0.00120436;-4.66706e-05;-2.33901;25.6961;0.320394;0.0549964;0.00478288;-0.0672791;-0.0793529;-0.171309;0.0226486;0.190149;-5.91386;-0.000563797;-0.000449393;0.00211302;0.00218645;-0.000637228;0.00141184;0.266821;3.74783;0.00171008;0.00188245;3.43118;0.291445;63.7142;108.714;0.00361514;-0.000565359;-0.00272834;0.00182347;0.0021094;0.00783487;0.00392751;0;0.018205;-0.0256079;-0.178758;-0.0391826;0.184784;-5.66686;3.7035e-05;4.34626e-05;0.000118136;0.000137027;1.81436e-05;5.94418e-05;-0.313495;-3.18984;8.59444e-05;7.92558e-05;-7.55239;-0.132408;22.2767;67.2767;0.00713705;3.22111e-05;-0.00301977;0.00310644;0.000113578;7.89835e-05;0.000878759;0;0.0198524;0.0176514
97000;98;25.8021;-0.00343394;-0.00013307;-2.33915;25.6939;0.312278;0.054854;0.00263085;-0.0753946;-0.0816636;-0.174855;0.0208604;0.194109;-5.91565;-0.000623164;-0.000384368;0.00177162;0.0018318;-0.000683344;0.00125757;0.351747;2.84295;0.00150173;0.00167677;2.68065;0.373044;60.8521;105.852;0.0047074;-0.000624982;-0.00271853;0.00194421;0.00176801;0.00578349;0.00273343;0;0.0278968;-0.0279271;-0.181975;-0.0441739;0.189331;-5.67185;8.25772e-05;9.44346e-05;0.000157235;0.000221451;1.83613e-05;0.000101545;-0.525183;-1.9041;0.00014191;0.000135393;-12.0607;-0.0829137;11.937;56.937;0.00775192;7.74877e-05;-0.00300334;0.00319198;0.00015273;-0.00206882;0.00351106;0;0.0318409;0.017844
98000;99;25.8032;-0.00236442;-9.16248e-05;-2.33863;25.6951;0.311119;0.0553725;0.00376614;-0.0765541;-0.0846631;-0.180624;0.0192932;0.200412;-5.91722;-0.000560848;-5.67958e-05;0.00248396;0.00248502;-0.000561907;0.00152346;0.225788;4.42894;0.0018723;0.00203128;4.42247;0.226118;56.2625;101.263;0.00544994;-0.000564069;-0.00265944;0.00253794;0.00248043;0.0072682;0.000139116;0;0.0177353;-0.0306007;-0.187178;-0.0468278;0.195358;-5.67451;-4.8609e-05;6.05947e-06;0.000196937;0.000197087;-4.87584e-05;0.000122923;0.246824;4.05146;0.000150304;0.000163897;4.04211;0.247396;44.2716;89.2716;0.00748506;-5.4197e-05;-0.00333167;0.00334297;0.000191388;-0.00280133;0.00325445;0;0.0270875;0.0177922
99000;100;25.8031;-0.00241038;-9.34056e-05;-2.33917;25.695;0.312384;0.0548332;0.00365554;-0.0752886;-0.0867996;-0.186163;0.0193097;0.206309;-5.9172;-0.000530957;-0.000371305;0.00203991;0.00209246;-0.000583509;0.00133799;0.260284;3.84195;0.00162479;0.00178398;3.586;0.278863;60.8541;105.854;0.00547809;-0.000533635;-0.00309294;0.00234335;0.0020352;0.00893062;0.000873082;0;0.0184503;-0.0324832;-0.191041;-0.0487119;0.199812;-5.67639;3.87983e-05;-3.62396e-05;0.000203769;0.000211379;3.11885e-05;9.00952e-05;-0.190403;-5.25201;0.000131759;0.000120127;-6.77746;-0.147548;57.9279;102.928;0.00765833;3.31268e-05;-0.00344124;0.0033682;0.00019785;-0.00509624;0.00448794;0;0.0300559;0.0178607
100000;101;25.8007;-0.00477779;-0.000185146;-2.3376;25.6927;0.311658;0.0564029;0.00142986;-0.0760152;-0.0896764;-0.194509;0.0263884;0.215806;-5.91012;-0.000682922;-0.00020755;0.00197848;0.00199457;-0.000699011;0.00134679;0.345175;2.89708;0.00161399;0.00179572;2.85342;0.350456;56.5998;101.6;0.00414637;-0.000685636;-0.00276025;0.00233837;0.0019747;0.0117696;0.00189277;0;0.0191718;-0.0349085;-0.197942;-0.0439735;0.20575;-5.67165;-1.02507e-05;-0.000104104;0.000345036;0.000373293;-3.85074e-05;0.0002059;0.0297091;33.6597;0.000262641;0.000274534;9.69407;0.103156;61.724;106.724;0.00707662;-1.50694e-05;-0.00331547;0.00310612;0.000339548;-0.0043169;0.00498033;0;0.0255034;0.0177615
101000;102;25.8002;-0.00536593;-0.000207937;-2.33681;25.6923;0.306172;0.0571907;0.000976868;-0.0815007;-0.0920015;-0.198297;0.0181148;0.219349;-5.9184;-0.000708031;-0.000586692;0.00235967;0.00246804;-0.000816406;0.00164222;0.300055;3.33272;0.00197458;0.00218963;3.02306;0.330791;64.7604;109.76;0.00348633;-0.000709619;-0.00305693;0.00187599;0.00235518;0.0127887;0.00203045;0;0.0204424;-0.0368757;-0.201915;-0.0522115;0.211791;-5.67989;3.11035e-05;-8.09163e-05;0.000553346;0.000565596;1.88536e-05;0.000273371;-0.0562098;-17.7905;0.000370939;0.000364495;-29.9993;-0.0333341;56.5281;101.528;0.00498547;2.7137e-05;-0.00298109;0.00281774;0.000548908;-0.00138699;0.00681093;0;0.0256803;0.0179947
102000;103;25.8027;-0.00283109;-0.000109709;-2.33598;25.6949;0.310593;0.0580234;0.00354501;-0.0770801;-0.0956322;-0.201049;0.0135181;0.223044;-5.92299;-0.000482696;-0.000759915;0.0017641;0.00199698;-0.000715578;0.00135628;0.273622;3.65467;0.0016233;0.00180837;2.79072;0.35833;69.8918;114.892;0.00236951;-0.000483572;-0.00305148;0.00152652;0.00175974;0.0133183;0.00507133;0;0.0225795;-0.0400621;-0.206036;-0.0582367;0.217824;-5.68591;0.000444079;-1.20117e-05;0.000350079;0.00044559;0.000348569;4.85107e-05;-1.26851;-0.788326;0.000270581;6.4681e-05;-1.27834;-0.782263;131.678;176.678;0.00507679;0.000439695;-0.00298583;0.00296208;0.000345623;0.000624075;0.00446615;0;0.0255903;0.0181232
103000;104;25.8024;-0.00309041;-0.000119758;-2.33597;25.6946;0.306792;0.0580365;0.00333145;-0.0808805;-0.0966205;-0.206683;0.0170115;0.228785;-5.9195;-0.000788543;-0.000583867;0.00190977;0.00203069;-0.000909463;0.00147008;0.4129;2.42189;0.00173815;0.0019601;2.23284;0.447859;63.5496;108.55;0.00301476;-0.000789862;-0.00289932;0.00172536;0.00190574;0.0109101;0.0039373;0;0.0312385;-0.0410444;-0.211559;-0.0584396;0.223287;-5.68612;0.000362138;0.000186077;0.000234783;0.000495132;0.00010179;0.000196671;-1.54244;-0.648324;0.000301933;0.000262228;-4.86427;-0.205581;173.385;38.3855;0.0049319;0.000356894;-0.00287192;0.00324446;0.000230677;0.00196401;0.00466717;0;0.0328441;0.018109
104000;105;25.8047;-0.000810254;-3.13985e-05;-2.33525;25.697;0.310012;0.0587493;0.00564731;-0.0776605;-0.0998863;-0.210451;0.0138604;0.233365;-5.92265;-0.000974798;-0.00058639;0.0018505;0.00196738;-0.00109167;0.00152952;0.526774;1.89835;0.0017901;0.00203936;1.80217;0.554886;62.2348;107.235;0.00188704;-0.000975745;-0.00267358;0.00149491;0.00184711;0.0121262;0.00491283;0;0.0189756;-0.0440399;-0.217659;-0.0634135;0.230946;-5.69109;0.000465365;0.000546108;0.000106532;0.000860774;-0.000288877;0.000574826;-4.3683;-0.228922;0.000690584;0.000766434;2.97973;0.335601;173.679;38.6786;0.00511362;0.000459254;-0.00244609;0.00353937;0.00010369;0.00492532;0.00499252;0;0.027422;0.0181328
105000;106;25.8077;0.00218391;8.46295e-05;-2.33556;25.7;0.306921;0.0584427;0.00866328;-0.0807519;-0.101287;-0.216414;0.0157088;0.23946;-5.9208;-0.000696232;-0.000691655;0.00157984;0.00177354;-0.000889929;0.00133173;0.440698;2.26913;0.00156571;0.00177564;1.9929;0.501782;66.6691;111.669;0.00200324;-0.000696955;-0.00277499;0.00138695;0.00157624;0.010561;0.00581057;0;0.0186462;-0.0450304;-0.225721;-0.064886;0.23914;-5.69256;0.000465025;0.000502482;-2.22951e-05;0.000779808;-0.000337078;0.000558443;20.8577;0.0479438;0.000661506;0.000744591;2.31344;0.432258;169.076;34.0765;0.00559689;0.000458214;-0.00271929;0.00372582;-2.58662e-05;0.00419822;0.00488625;0;0.0298139;0.0181408
106000;107;25.8091;0.00362294;0.000140394;-2.33516;25.7015;0.30141;0.0588453;0.0102101;-0.0862624;-0.104164;-0.222118;0.0174909;0.245952;-5.91902;-0.000729806;-0.0010453;0.00112319;0.0015935;-0.00120011;0.0013968;0.649762;1.53903;0.00161821;0.00186241;1.32779;0.753131;72.0126;117.013;0.00154421;-0.000729748;-0.00308308;0.000988704;0.00111899;0.0111469;0.00513423;0;0.0212631;-0.0477337;-0.232646;-0.0675875;0.246923;-5.69527;0.00046866;0.000357499;0.000289256;0.000747539;1.03765e-05;0.000368581;-1.62022;-0.617199;0.000494937;0.000491442;-72.0415;-0.0138809;176.391;41.3905;0.00638768;0.000462432;-0.00283257;0.00354813;0.000285309;-0.00144887;0.00471027;0;0.0286447;0.0182809
107000;108;25.8101;0.00461317;0.000178767;-2.33447;25.7026;0.300285;0.0595335;0.0112802;-0.087388;-0.106485;-0.226673;0.0140699;0.250834;-5.92244;-0.000298018;-0.00104076;0.00206809;0.00246073;-0.000690652;0.00157569;0.144103;6.93948;0.00191273;0.00210092;3.5629;0.28067;76.6761;121.676;0.00191361;-0.000298142;-0.00324031;0.00115361;0.00206339;0.0114021;0.00343911;0;0.0169584;-0.0495733;-0.237564;-0.0724966;0.253278;-5.70017;0.000500285;0.00016366;0.00026543;0.000584287;0.000181428;0.000201429;-1.88481;-0.530558;0.000345319;0.000268572;-3.22048;-0.310513;165.622;30.6217;0.00738952;0.000494623;-0.00304189;0.00336996;0.000260818;-0.00430493;0.00488615;0;0.0290281;0.018325
108000;109;25.8078;0.00231225;8.9603e-05;-2.33343;25.7004;0.295461;0.0605747;0.00912011;-0.0922115;-0.108464;-0.233724;0.0153426;0.258121;-5.92117;-0.000218188;-0.0009159;0.00133134;0.00175621;-0.000643063;0.00119964;0.163886;6.1018;0.00143406;0.00159952;2.73101;0.366165;76.1945;121.195;0.00296972;-0.000219023;-0.00341969;0.00158402;0.00132592;0.00959329;0.0039504;0;0.0142744;-0.0514973;-0.243572;-0.0744274;0.259844;-5.70211;0.00055114;3.95289e-05;0.000334795;0.000558136;0.000327798;0.000115169;-1.6462;-0.607458;0.000323874;0.000153559;-1.70268;-0.587309;149.358;14.3577;0.00673746;0.000546691;-0.00290453;0.00298423;0.000330579;-0.00240248;0.00368486;0;0.0322856;0.018332
109000;110;25.8057;0.000167208;6.47956e-06;-2.33295;25.6983;0.295466;0.0610566;0.00700981;-0.0922071;-0.110924;-0.243316;0.0164623;0.267914;-5.92005;-0.000421346;-0.000531039;0.00169907;0.00182463;-0.000546905;0.00118577;0.247986;4.03249;0.00143392;0.00158103;3.33629;0.299734;65.3231;110.323;0.0035155;-0.000423278;-0.00310316;0.00203564;0.00169441;0.0102653;0.0026571;0;0.0223273;-0.0534045;-0.251399;-0.0755894;0.267894;-5.70327;0.000808806;-8.94566e-05;0.000366284;0.000826206;0.000348884;0.000238661;-2.20814;-0.45287;0.000478928;0.000318214;-2.36814;-0.422273;129.933;174.933;0.00502291;0.000805101;-0.00290235;0.00272468;0.000362078;0.00019217;0.00597016;0;0.0286712;0.0183793
110000;111;25.8055;-2.77586e-05;-1.07568e-06;-2.33177;25.6982;0.297925;0.0622282;0.00689197;-0.0897478;-0.112657;-0.249973;0.0148173;0.274586;-5.9217;-0.00069259;-0.00101969;0.0013997;0.00181444;-0.00110733;0.00146089;0.494814;2.02096;0.00170327;0.00194785;1.63857;0.610288;70.7337;115.734;0.00315542;-0.000693706;-0.00385356;0.00180827;0.0013928;0.0123602;0.00565491;0;0.0152093;-0.0551153;-0.256919;-0.08055;0.274833;-5.70823;0.000752017;-8.81605e-05;0.000200687;0.000765771;0.000186933;0.000289419;-3.74721;-0.266865;0.000461014;0.000385892;-4.0965;-0.244111;130.909;175.909;0.00422493;0.00074819;-0.0029437;0.00276896;0.000196359;0.00217536;0.00618268;0;0.0263018;0.0183823
111000;112;25.8059;0.000393711;1.52569e-05;-2.33209;25.6986;0.295064;0.0619175;0.00732002;-0.0926092;-0.1151;-0.258952;0.0168555;0.283881;-5.91966;-0.000547178;-0.000826309;0.000400738;0.000879367;-0.00102581;0.000952587;1.36543;0.732372;0.00110104;0.00127012;0.857244;1.16653;74.201;119.201;0.00253839;-0.000547916;-0.0031242;0.0014694;0.0003962;0.0124265;0.00670094;0;0.0153208;-0.0578149;-0.265958;-0.0834669;0.28468;-5.71114;0.000719397;0.00045917;8.92682e-06;0.000944705;-0.00021638;0.000580543;;;0.00071296;0.000774057;4.36594;0.229046;164.453;29.4528;0.00461644;0.000712895;-0.00271588;0.00363647;5.34426e-06;0.00560468;0.00672368;0;0.0266999;0.0184651
112000;113;25.807;0.00150823;5.84459e-05;-2.33244;25.6999;0.282914;0.0615662;0.00854392;-0.104758;-0.117987;-0.267019;0.0190969;0.292549;-5.91742;-0.000803558;-0.00107386;0.000780488;0.00132281;-0.00134588;0.00133434;1.02956;0.971289;0.00154079;0.00177913;0.982858;1.01744;71.6782;116.678;0.00173816;-0.000803645;-0.00330263;0.00115138;0.000775614;0.0115182;0.00861458;0;0.0177941;-0.0606442;-0.27586;-0.0883494;0.295942;-5.71603;0.000742477;0.000492289;-0.000149496;0.000960759;-0.000367778;0.000664269;4.96652;0.201348;0.00079209;0.000885691;2.61233;0.3828;161.71;26.7102;0.00484938;0.000736233;-0.00258197;0.00356929;-0.000152709;0.00519677;0.00685989;0;0.0267206;0.0184715
113000;114;25.8104;0.00487666;0.000188978;-2.33319;25.7032;0.280023;0.0608081;0.0118893;-0.10765;-0.119971;-0.273821;0.0196793;0.299597;-5.91683;-0.000885184;-0.00101167;0.000147432;0.000766924;-0.00150468;0.0011358;6.00401;0.166555;0.00133437;0.0015144;0.509694;1.96196;71.4769;116.477;0.00187481;-0.000885239;-0.00308992;0.00106444;0.000143171;0.00992196;0.0114057;0;0.0169525;-0.0630993;-0.283993;-0.0938344;0.305677;-5.72151;0.000597507;0.000303661;-6.86452e-05;0.000715152;-0.000186291;0.000450721;8.70427;0.114886;0.000549494;0.000600962;3.83891;0.260491;158.515;23.5155;0.00556363;0.000591058;-0.00299561;0.00360513;-7.30863e-05;-0.000405699;0.00703678;0;0.027486;0.0185028
114000;115;25.8092;0.00363224;0.000140754;-2.33207;25.7022;0.269971;0.0619309;0.0108491;-0.117702;-0.122501;-0.282312;0.021793;0.308515;-5.91472;-0.000800083;-0.00127573;-0.000100108;0.000872776;-0.00177297;0.00132287;-7.99218;-0.125122;0.00155671;0.00176383;0.492268;2.03141;76.2281;121.228;0.00227804;-0.000799584;-0.00334693;0.000794016;-0.000104896;0.0102238;0.0106783;0;0.0163302;-0.0656986;-0.292755;-0.0972007;0.315389;-5.72488;0.000572229;2.4744e-05;-2.0374e-05;0.000573261;-2.14054e-05;0.000297333;28.0863;0.0356046;0.000389505;0.000396444;26.7812;0.0373397;140.166;5.16641;0.00584575;0.000568016;-0.00285267;0.00290386;-2.44426e-05;-0.00099135;0.00766314;0;0.030798;0.0185292
115000;116;25.8068;0.00127502;4.94087e-05;-2.33272;25.6998;0.263879;0.0612826;0.00848649;-0.123793;-0.124689;-0.2912;0.0230347;0.317609;-5.91348;-0.000443382;-0.00104549;0.000414403;0.00111555;-0.00114453;0.00113004;1.06993;0.934642;0.0013049;0.00150672;0.974681;1.02598;78.6888;123.689;0.00149978;-0.000443483;-0.0032311;0.00113825;0.000409731;0.0113383;0.00933018;0;0.0179732;-0.0681112;-0.300471;-0.101958;0.324527;-5.72964;0.000738406;-0.000256714;0.000170066;0.000837191;7.12812e-05;0.000382955;-4.34188;-0.230315;0.000535949;0.000510607;-11.7449;-0.0851432;118.213;163.213;0.00495447;0.000734497;-0.0033205;0.00280882;0.000164587;0.00102682;0.00592565;0;0.0293361;0.0185375
116000;117;25.8044;-0.00108878;-4.21919e-05;-2.33304;25.6974;0.260285;0.0609618;0.00612038;-0.127387;-0.12782;-0.302558;0.0235926;0.329296;-5.91292;-0.000675694;-0.00122378;0.000409791;0.00120578;-0.00147168;0.00133873;1.64887;0.606475;0.00154837;0.00178498;0.819321;1.22052;76.6084;121.608;0.00325646;-0.000675874;-0.00381363;0.00136328;0.000403271;0.0113565;0.00907783;0;0.0261326;-0.071569;-0.309679;-0.105741;0.334969;-5.73342;0.000678734;-0.000197959;2.94218e-05;0.000734327;-2.6171e-05;0.000380249;-23.0691;-0.0433481;0.000498504;0.000506998;28.0588;0.0356394;122.718;167.718;0.00421167;0.000674814;-0.00320173;0.00280777;2.4316e-05;0.00112565;0.0081918;0;0.0225408;0.0185459
117000;118;25.8007;-0.00485358;-0.000188083;-2.33168;25.6939;0.249644;0.0623203;0.00256882;-0.138029;-0.130951;-0.315042;0.0313678;0.342613;-5.90514;-0.000657668;-0.000947906;0.000520669;0.00104759;-0.00118458;0.00111608;1.26312;0.79169;0.00128955;0.00148811;0.884349;1.13078;73.2713;118.271;0.0018741;-0.000658215;-0.00330993;0.00141134;0.000515643;0.0129413;0.00851363;0;0.0147196;-0.0742094;-0.318373;-0.110194;0.34498;-5.73787;0.00075547;0.00010157;-0.00018412;0.000766324;-0.000194974;0.000480649;4.10313;0.243716;0.000586773;0.000640865;3.93038;0.254428;143.831;8.83088;0.00370341;0.00075055;-0.00293358;0.00313958;-0.000188419;0.00326647;0.00996045;0;0.0313266;0.0185388
118000;119;25.8059;0.000365986;1.41825e-05;-2.33529;25.6988;0.245703;0.058715;0.0075207;-0.14197;-0.132571;-0.322605;0.0278422;0.349891;-5.90867;-0.000705107;-0.00103781;0.000444602;0.00105613;-0.00131663;0.00118638;1.58593;0.630545;0.00137266;0.00158184;0.802143;1.24666;73.7325;118.732;0.000927366;-0.000705093;-0.00310252;0.00102454;0.00044033;0.0140808;0.00992097;0;0.0180109;-0.0781321;-0.330303;-0.114444;0.358193;-5.74212;0.000475446;0.000125511;-0.000215035;0.000497553;-0.000237142;0.000367348;2.21101;0.452281;0.000432967;0.000489797;2.09812;0.476617;146.183;11.1832;0.00558664;0.000469758;-0.00312277;0.00337603;-0.000219904;0.000331047;0.00577587;0;0.027644;0.0185489
119000;120;25.8073;0.00176008;6.82056e-05;-2.33596;25.7002;0.239751;0.058038;0.00891528;-0.147922;-0.134971;-0.331894;0.0281599;0.359394;-5.90835;-0.000494664;-0.000449847;0.000203163;0.000423549;-0.000715051;0.0005693;2.43482;0.410708;0.000664514;0.000759067;0.592335;1.68823;69.0121;114.012;0.0011004;-0.000495716;-0.00241912;0.00151805;0.000200338;0.0130337;0.0118058;0;0.0189349;-0.0814887;-0.340369;-0.120531;0.370161;-5.74821;0.00042802;-8.32165e-05;-0.000187206;0.000439077;-0.000198264;0.00031867;2.28635;0.437378;0.000376623;0.000424894;2.21461;0.451546;128.562;173.562;0.00743057;0.000423236;-0.00325943;0.00309495;-0.000192516;-0.00278505;0.00453614;0;0.0263765;0.018584
120000;121;25.8079;0.00239767;9.29129e-05;-2.33709;25.7008;0.235821;0.0569112;0.00948945;-0.151852;-0.136954;-0.341688;0.0302406;0.369353;-5.90627;-0.000546318;-0.000382287;0.000655516;0.00076681;-0.000657611;0.000712211;0.833416;1.19988;0.000823195;0.000949614;1.16605;0.857594;62.1825;107.182;0.000111167;-0.000547095;-0.00207075;0.00130415;0.000653447;0.0133485;0.00931608;0;0.0394759;-0.0850832;-0.350811;-0.124578;0.381873;-5.75226;0.00039627;-0.000364925;-7.62163e-05;0.000594747;-0.000274692;0.00043472;5.19929;0.192334;0.000513183;0.000579626;2.16514;0.461865;108.022;153.022;0.00750091;0.000392828;-0.00337799;0.00264956;-8.18556e-05;-0.00331668;0.00484974;0;0.0631059;0.0185878
121000;122;25.8045;-0.000993653;-3.85054e-05;-2.33857;25.6973;0.226675;0.0554325;0.00603177;-0.160997;-0.138902;-0.350526;0.0333476;0.378516;-5.90316;-0.000415518;-0.000380299;0.000854925;0.000960064;-0.000520657;0.000740361;0.486028;2.05749;0.000867351;0.000987147;1.84395;0.542314;64.0015;109.001;0.00063561;-0.000416421;-0.00215978;0.00139693;0.000852667;0.0103146;0.0074879;0;0.0180609;-0.0880509;-0.357692;-0.127197;0.389713;-5.75488;0.000375997;-0.000476935;0.000135946;0.000747778;-0.000235835;0.000491806;-2.76579;-0.36156;0.000592974;0.000655741;3.17077;0.315381;99.4772;144.477;0.00638073;0.000372704;-0.00356385;0.00261073;0.00012971;0.000989485;0.00738707;0;0.0283159;0.0185649
122000;123;25.8024;-0.00314868;-0.000122016;-2.34153;25.695;0.221443;0.0524687;0.00364346;-0.16623;-0.141901;-0.361471;0.0344228;0.389849;-5.90209;-8.1624e-06;-6.10366e-05;0.0012424;0.00124537;-1.11344e-05;0.000628252;;;0.000833983;0.00083767;111.849;0.00894062;55.6594;100.659;0.00206301;-1.04431e-05;-0.00226142;0.0021366;0.00123985;0.00989;0.00885509;0;0.0160331;-0.093135;-0.368759;-0.127477;0.401134;-5.75516;0.000391892;-0.000289567;0.000129553;0.000578613;-5.71679e-05;0.00031789;-3.02496;-0.330583;0.000406141;0.000423854;10.1213;0.0988016;104.988;149.988;0.00551472;0.000389043;-0.00298345;0.00240502;0.000125145;0.00311327;0.00940735;0;0.0179311;0.018663
123000;124;25.8024;-0.0031168;-0.00012078;-2.34608;25.6946;0.217443;0.0479258;0.00329524;-0.17023;-0.14412;-0.371722;0.0379589;0.400486;-5.89855;-0.000115268;-0.00018686;0.00178753;0.00180571;-0.000133445;0.000969577;0.0644846;15.5076;0.00125066;0.00129277;13.5315;0.0739017;62.0105;107.01;0.00218804;-0.000116864;-0.00217357;0.00179608;0.00178519;0.0116215;0.0096367;0;0.0346735;-0.0973527;-0.378313;-0.128327;0.411177;-5.756;0.000181579;-0.000127627;5.36396e-05;0.00026037;-2.51515e-05;0.000142761;-3.38517;-0.295406;0.000182543;0.000190348;10.3521;0.0965989;104.553;149.553;0.00564721;0.000178017;-0.00292741;0.00267252;4.93631e-05;0.00426844;0.00818738;0;0.0303902;0.0186885
124000;125;25.8049;-0.000604878;-2.34399e-05;-2.34693;25.697;0.21925;0.0470732;0.0057245;-0.168423;-0.146295;-0.383641;0.0411208;0.412642;-5.89539;-0.000344873;-0.000431738;0.00120992;0.00132176;-0.000456714;0.000889239;0.285037;3.50832;0.00106652;0.00118565;2.89408;0.345533;66.9007;111.901;0.00158512;-0.000345518;-0.00208111;0.00121507;0.00120785;0.0112414;0.0103798;0;0.0206478;-0.101429;-0.390492;-0.128762;0.423499;-5.75644;-0.000108147;-3.37785e-05;0.00016129;0.00016546;-0.000112317;0.000138889;0.670515;1.49139;0.00016135;0.000185185;1.47315;0.678819;52.3591;97.3591;0.00632861;-0.000111683;-0.00272742;0.00265914;0.000157572;8.52657e-05;0.00437107;0;0.0275409;0.0187385
125000;126;25.8061;0.000530048;2.05401e-05;-2.34792;25.6982;0.208871;0.046079;0.00685982;-0.178801;-0.148221;-0.391667;0.0374005;0.420442;-5.89911;-0.000392132;-0.000108549;0.00129731;0.00130425;-0.000399078;0.000851666;0.302266;3.30835;0.00102866;0.00113555;3.26817;0.305982;56.8298;101.83;-4.53529e-05;-0.000393162;-0.00165866;0.00143895;0.00129594;0.0125033;0.00924443;0;0.0207745;-0.104737;-0.398958;-0.139429;0.435405;-5.76711;-0.000111381;-0.000195715;0.000273418;0.000355467;-0.00019343;0.000274448;0.407365;2.4548;0.000321475;0.000365931;1.8377;0.544158;68.6077;113.608;0.00701006;-0.000114807;-0.00301745;0.00262494;0.000268885;-0.00291707;0.00887842;0;0.0268891;0.0187982
126000;127;25.8066;0.00105351;4.08251e-05;-2.35;25.6985;0.209159;0.0440017;0.00719327;-0.178514;-0.149691;-0.401097;0.0400744;0.429991;-5.89644;-0.000384162;-0.000376522;0.00099662;0.00109262;-0.00048016;0.000786389;0.385465;2.59427;0.000930711;0.00104852;2.27553;0.439458;65.1709;110.171;-0.000470479;-0.000384698;-0.00185749;0.0011024;0.000994967;0.013097;0.0107363;0;0.0212301;-0.107887;-0.408042;-0.141545;0.445166;-5.76922;-2.16167e-05;-0.000231169;0.000330807;0.000445266;-0.000136076;0.000290671;0.0653453;15.3033;0.000351105;0.000387561;3.27219;0.305606;73.0688;118.069;0.00630306;-2.44378e-05;-0.00284979;0.00238653;0.000326774;-0.00277438;0.00996571;0;0.0268256;0.0189896
127000;128;25.8037;-0.00184831;-7.16247e-05;-2.35032;25.6956;0.199964;0.0436796;0.00432299;-0.187709;-0.152924;-0.410061;0.0429618;0.439752;-5.89355;-0.000103499;-5.19575e-05;0.00133721;0.00133908;-0.00010537;0.000722225;0.0773992;12.92;0.000929836;0.000962967;12.7083;0.0786885;58.6441;103.644;0.000191717;-0.000104467;-0.00149814;0.00139215;0.00133609;0.0115143;0.00874857;0;0.0188639;-0.112283;-0.417077;-0.141673;0.454568;-5.76935;0.000124051;-0.000171454;0.000256234;0.000373894;6.39163e-06;0.000183751;-0.484133;-2.06555;0.00024716;0.000245002;;;81.8486;126.849;0.00406826;0.000121786;-0.0024789;0.00213569;0.000253177;0.00267488;0.0103079;0;0.0207351;0.0190471
128000;129;25.8023;-0.00323496;-0.000125359;-2.35284;25.694;0.195627;0.0411582;0.00273313;-0.192046;-0.154627;-0.420535;0.046813;0.4505;-5.8897;-9.25422e-05;-0.000327246;0.00122847;0.00130509;-0.000169165;0.000737127;0.0753315;13.2747;0.000931581;0.000982836;7.7149;0.129619;67.8514;112.851;0.000818617;-9.33259e-05;-0.00195059;0.00129396;0.00122662;0.0100308;0.00688389;0;0.0183331;-0.115533;-0.42785;-0.141362;0.465173;-5.76904;0.000285657;0.000191316;0.000127242;0.000413514;-6.14654e-07;0.000207064;-2.24499;-0.445437;0.000275881;0.000276086;;;171.461;36.4613;0.00355157;0.000282805;-0.00201344;0.00239642;0.000125234;0.00813706;0.00999351;0;0.0328055;0.0192616
129000;130;25.803;-0.00250456;-9.70552e-05;-2.35533;25.6946;0.193846;0.0386745;0.00325254;-0.193826;-0.155931;-0.432466;0.0518634;0.462635;-5.88465;7.67403e-05;-6.67746e-05;0.00194186;0.00194425;7.43527e-05;0.000934948;-0.0395189;-25.3043;0.00127211;0.0012466;-26.149;-0.0382424;62.4566;107.457;0.000731667;7.54179e-05;-0.00176441;0.0016277;0.00194031;0.00999084;0.00819216;0;0.0297331;-0.118229;-0.439103;-0.142007;0.476399;-5.76969;0.000193816;0.00029019;-1.75622e-06;0.000402253;-0.000210193;0.000306223;;;0.000359345;0.000408298;1.91373;0.522539;171.828;36.8279;0.00438589;0.000189988;-0.00220167;0.00278254;-4.1378e-06;0.00368793;0.00882787;0;0.0305355;0.0195094
130000;131;25.8057;0.000159048;6.16333e-06;-2.35484;25.6973;0.189096;0.0391674;0.00600797;-0.198577;-0.161528;-0.440933;0.045629;0.4718;-5.89088;9.20232e-05;-0.000203818;0.00150936;0.00153809;6.32956e-05;0.000737395;-0.0609685;-16.4019;0.00100496;0.000983193;-24.3;-0.0411522;65.2231;110.223;0.000773649;9.08197e-05;-0.001975;0.00156486;0.00150743;0.0112147;0.00972387;0;0.0289232;-0.124869;-0.447646;-0.152825;0.489218;-5.7805;0.00036037;8.8541e-05;0.000295237;0.000422144;0.000233463;9.43402e-05;-1.22061;-0.819262;0.000244182;0.000125787;-1.80818;-0.553042;173.79;38.7896;0.00543177;0.000357219;-0.00233506;0.0025123;0.000292516;-0.00237434;0.00916973;0;0.0362258;0.0195782
131000;132;25.8058;0.000234058;9.07008e-06;-2.35564;25.6973;0.188189;0.0383665;0.00601655;-0.199483;-0.163719;-0.450774;0.0461803;0.481803;-5.89033;-0.00046409;-0.000315533;0.00175489;0.00179888;-0.000508086;0.00115348;0.264456;3.78135;0.0013997;0.00153798;3.54051;0.282445;66.1072;111.107;-0.00129147;-0.00046453;-0.00162318;0.000989219;0.00175362;0.0135421;0.0103663;0;0.0219249;-0.12908;-0.457034;-0.155799;0.499815;-5.78348;0.00049178;-0.000117067;0.000419356;0.000578108;0.000333028;0.00012254;-1.1727;-0.85273;0.000335056;0.000163387;-1.73592;-0.576065;104.996;149.996;0.00416818;0.000489988;-0.00213142;0.00189743;0.000417092;-0.000515367;0.010062;0;0.0375072;0.0196277
132000;133;25.8058;0.000297884;1.15434e-05;-2.35679;25.6973;0.188544;0.0372176;0.00597269;-0.199129;-0.166898;-0.458781;0.0466943;0.490424;-5.88982;-0.000294713;-0.000193984;0.000980091;0.00100896;-0.000323578;0.000666266;0.3007;3.32558;0.000802543;0.000888355;3.11812;0.320706;62.9303;107.93;-0.0013625;-0.000295019;-0.00119542;0.000806177;0.000979396;0.01105;0.0102466;0;0.0311308;-0.13455;-0.464307;-0.160017;0.509205;-5.7877;0.000840427;-0.000276897;0.000105216;0.000933046;1.2598e-05;0.000460224;-7.98761;-0.125194;0.000617874;0.000613632;-74.0628;-0.0135021;123.914;168.914;0.00265658;0.000839314;-0.00207055;0.00151808;0.000103111;0.00160147;0.00922827;0;0.037333;0.0197704
133000;134;25.8053;-0.000241189;-9.34641e-06;-2.35914;25.6966;0.183298;0.0348616;0.00525311;-0.204375;-0.170036;-0.466694;0.0484101;0.499058;-5.8881;-9.17156e-05;-0.000384753;0.000869244;0.00100431;-0.000226781;0.000615545;0.105512;9.4776;0.00075655;0.000820727;4.42854;0.225808;75.686;120.686;-0.00231785;-9.17908e-05;-0.00131664;0.000546237;0.000868452;0.011861;0.00841477;0;0.0190985;-0.140629;-0.473065;-0.161347;0.51923;-5.78902;0.000820398;0.000113491;-0.000118496;0.000833922;-0.00013202;0.000482971;6.9234;0.144438;0.000604777;0.000643961;6.31663;0.158312;146.512;11.5119;0.0025197;0.000817895;-0.0020122;0.00224117;-0.000120515;0.00508823;0.00879542;0;0.0284075;0.0199317
134000;135;25.8046;-0.000940276;-3.6437e-05;-2.36138;25.6957;0.175676;0.0326248;0.00439885;-0.211996;-0.172241;-0.474113;0.050698;0.506972;-5.88581;-0.000434278;-0.000438289;0.00133077;0.00143361;-0.00053712;0.000985363;0.326337;3.06432;0.00117639;0.00131382;2.66907;0.374663;72.9751;117.975;-0.00118648;-0.000434244;-0.00123088;0.00035291;0.0013301;0.00999264;0.00896863;0;0.020186;-0.145787;-0.480734;-0.163278;0.528223;-5.79096;0.000716962;0.000261903;-0.000465444;0.000772376;-0.000520858;0.000646617;1.54038;0.64919;0.000751341;0.000862156;1.48289;0.674359;148.668;13.6684;0.0023977;0.000714139;-0.00186473;0.00239105;-0.000467149;0.00394576;0.0109813;0;0.029191;0.0198772
135000;136;25.8051;-0.000378484;-1.46668e-05;-2.36647;25.6958;0.17023;0.0275355;0.00453148;-0.217443;-0.175384;-0.483031;0.0569168;0.517028;-5.8796;-0.000245853;-0.000195049;0.00176234;0.00178111;-0.000264622;0.00102287;0.139504;7.16828;0.00128473;0.00136382;6.73078;0.148571;67.4886;112.489;-0.000999019;-0.000246267;-0.00132279;0.000930427;0.00176149;0.0106657;0.00903675;0;0.0171567;-0.152008;-0.48951;-0.160393;0.537077;-5.78807;0.000539273;9.85513e-05;-0.000338617;0.000550201;-0.000349544;0.000449872;1.59258;0.627913;0.000523756;0.00059983;1.57405;0.635303;142.997;7.99731;0.00321714;0.000537578;-0.00164581;0.00184445;-0.000339967;0.0012831;0.0089403;0;0.0259107;0.0199169
136000;137;25.8068;0.00127096;4.92514e-05;-2.37127;25.6971;0.17043;0.022732;0.00574382;-0.217243;-0.179033;-0.490007;0.0543071;0.524508;-5.88221;-0.00027522;-0.000527546;0.0015651;0.0017056;-0.00041572;0.00106066;0.175849;5.6867;0.00129802;0.00141421;4.10275;0.243739;77.3003;122.3;-0.00109959;-0.000275162;-0.00145846;0.000401661;0.00156417;0.00891905;0.0103895;0;0.0414312;-0.159616;-0.496565;-0.166219;0.547433;-5.7939;0.000194924;-2.52521e-05;-0.000285809;0.000196247;-0.000287132;0.000241689;0.682007;1.46626;0.000280718;0.000322252;0.683472;1.46312;131.151;176.151;0.00453059;0.000193846;-0.00151815;0.00146836;-0.000286961;-0.00125881;0.00775745;0;0.0328567;0.0199334
137000;138;25.8066;0.00111263;4.31158e-05;-2.37599;25.6965;0.168654;0.0180165;0.00516094;-0.219019;-0.181015;-0.495724;0.0500602;0.530109;-5.88645;-0.000122077;-0.000707425;0.00143474;0.00170817;-0.00039551;0.00105184;0.0850866;11.7527;0.00129097;0.00140245;4.31891;0.23154;84.6793;129.679;-0.0013727;-0.00012184;-0.0015772;0.000160994;0.00143375;0.00932034;0.0103372;0;0.0299329;-0.165588;-0.501301;-0.172504;0.55541;-5.80018;0.000140909;-6.44535e-05;-1.11502e-05;0.000164553;-3.47938e-05;9.96734e-05;12.6374;0.0791305;0.000122952;0.000132898;4.72937;0.211444;116.279;161.279;0.00596529;0.00014012;-0.00138685;0.00125814;-1.21098e-05;-0.00178711;0.00603861;0;0.0242401;0.0199411
138000;139;25.8042;-0.00129582;-5.02148e-05;-2.37984;25.6937;0.163074;0.0141676;0.00242199;-0.224599;-0.186012;-0.505334;0.0661408;0.542529;-5.87037;-0.000185447;-0.000664712;0.000932913;0.00124237;-0.000494901;0.000868634;0.198783;5.03062;0.00103349;0.00115818;2.51033;0.398353;83.1735;128.173;-0.00130611;-0.00018523;-0.00141825;8.79804e-05;0.000932129;0.00841124;0.0114207;0;0.0219496;-0.173357;-0.508342;-0.162306;0.561077;-5.78998;-0.000164931;-7.47759e-05;0.000142668;0.000159882;-0.000182145;0.000171014;1.15605;0.865017;0.000197609;0.000228018;0.877774;1.13925;57.7438;102.744;0.00427822;-0.000165717;-0.00140593;0.00125597;0.000141682;-0.00183731;0.00870101;0;0.0247974;0.0199545
139000;140;25.8014;-0.00415523;-0.000161021;-2.38297;25.6907;0.149907;0.0110285;-0.000660499;-0.237765;-0.189794;-0.512156;0.0748951;0.551303;-5.86162;-0.000307701;-0.000572175;0.000870795;0.00110289;-0.000539792;0.000821339;0.353357;2.83;0.000966795;0.00109512;2.04317;0.489436;80.9846;125.985;-0.00172404;-0.000307538;-0.00110665;-3.83267e-05;0.000870346;0.00955623;0.0137724;0;0.0304634;-0.180493;-0.51299;-0.159762;0.566799;-5.78744;0.000104406;-8.89899e-05;0.000233282;0.000278714;5.89735e-05;0.00010987;-0.44755;-2.23439;0.000169605;0.000146494;-4.7261;-0.211591;75.4883;120.488;0.00277355;0.000103542;-0.00149579;0.00131762;0.000232168;-0.000730675;0.00986775;0;0.0267534;0.0199713
140000;141;25.7999;-0.00565816;-0.000219261;-2.3852;25.689;0.146268;0.00880306;-0.00235545;-0.241405;-0.192127;-0.51839;0.0729215;0.557637;-5.86359;-0.000350812;-0.00032765;0.00114173;0.00121049;-0.000419572;0.000815033;0.307263;3.25455;0.000977349;0.00108671;2.88507;0.346612;80.9426;125.943;-0.0018097;-0.000350759;-0.000681924;2.60956e-05;0.00114156;0.00849685;0.0133145;0;0.0241083;-0.185619;-0.518328;-0.166275;0.575122;-5.79395;0.000436795;-0.00010844;0.000215178;0.000481027;0.000170946;0.000155041;-2.02992;-0.49263;0.000281567;0.000206721;-2.81392;-0.355377;120.433;165.433;0.00145383;0.000436206;-0.00130726;0.00109064;0.00021433;0.00182371;0.0109544;0;0.0266506;0.0199567
141000;142;25.7995;-0.0060408;-0.000234089;-2.38722;25.6884;0.140027;0.00678588;-0.00289235;-0.247646;-0.194943;-0.5231;0.0736651;0.563083;-5.86285;-0.000393499;-0.000385601;0.000895838;0.00100236;-0.00050002;0.00075119;0.439253;2.27659;0.000883413;0.00100159;2.00464;0.498843;94.3037;139.304;-0.00315015;-0.000393465;-0.000488594;-0.000282741;0.000895793;0.0112874;0.0148761;0;0.0216373;-0.190614;-0.522483;-0.169927;0.581548;-5.79761;0.000642731;2.8022e-05;0.000130658;0.00064426;0.000129129;0.000257566;-4.91919;-0.203286;0.000393589;0.000343421;-4.98927;-0.20043;147.982;12.9818;0.000898093;0.000642117;-0.0010527;0.00110929;0.000130104;0.00497084;0.00922012;0;0.0283013;0.0199861
142000;143;25.7999;-0.00565945;-0.000219312;-2.38838;25.6887;0.13994;0.00561868;-0.00261737;-0.247732;-0.197499;-0.526893;0.0743608;0.567584;-5.86215;-0.000288878;-0.00031929;0.000421796;0.000544172;-0.000411254;0.000477713;0.684876;1.46012;0.000553392;0.000636951;1.3232;0.755743;133.021;178.021;-0.0036209;-0.0002889;-0.000254858;-0.000383676;0.000421814;0.0114737;0.0138846;0;0.0217746;-0.195993;-0.526756;-0.170686;0.587383;-5.79836;0.000796508;9.80395e-05;-0.00020693;0.000805997;-0.000216419;0.000511208;3.84916;0.259797;0.000622148;0.000681611;3.72424;0.268511;150.46;15.4603;-0.000310517;0.000796094;-0.000718665;0.000915563;-0.000207184;0.00785705;0.0126638;0;0.0341386;0.0199904
143000;144;25.7998;-0.0057619;-0.000223282;-2.39014;25.6885;0.135419;0.00386618;-0.00285902;-0.252254;-0.200167;-0.530116;0.0755793;0.571666;-5.86093;-0.00027121;-0.000437246;0.000646222;0.000821229;-0.000446216;0.000633723;0.419685;2.38274;0.00074236;0.000844964;1.84043;0.543352;125.709;170.709;-0.00367249;-0.000271258;-0.00033836;-0.000536041;0.000646261;0.012199;0.0135386;0;0.022212;-0.200821;-0.530081;-0.172287;0.592451;-5.79996;0.000771864;0.000258313;-0.000506197;0.000822098;-0.00055643;0.000689264;1.52483;0.65581;0.000800805;0.000919019;1.47745;0.676842;150.152;15.1522;-0.000123691;0.00077121;-0.000655236;0.00117303;-0.000506378;0.00679084;0.0113177;0;0.0403527;0.0199775
144000;145;25.8005;-0.00505911;-0.000196048;-2.39077;25.6891;0.136318;0.00322802;-0.00221733;-0.251355;-0.203039;-0.533495;0.0784586;0.576192;-5.85805;-0.000158672;-0.000404813;0.000980952;0.00111011;-0.00028783;0.00069897;0.161753;6.18226;0.000852373;0.00093196;3.85682;0.259281;127.641;172.641;-0.00425154;-0.00015887;-6.07787e-05;-0.000748455;0.000981032;0.0124907;0.0122361;0;0.0206785;-0.205556;-0.533444;-0.171297;0.59679;-5.79898;0.000744217;0.000181819;-0.000380891;0.000772869;-0.000409544;0.000591207;1.95388;0.511802;0.000693326;0.000788276;1.88715;0.529901;150.59;15.5899;-0.000374689;0.000743779;-0.000589507;0.000954013;-0.000381049;0.00543094;0.0112151;0;0.0369758;0.0199732
145000;146;25.8008;-0.00475887;-0.000184413;-2.39311;25.6892;0.131903;0.000890605;-0.00211037;-0.25577;-0.204691;-0.536809;0.078977;0.579914;-5.85754;-3.16179e-05;5.8674e-05;0.00133509;0.00133761;-3.41322e-05;0.000685871;0.0236822;42.2259;0.000903332;0.000914494;39.189;0.0255173;99.1431;144.143;-0.0048534;-3.16405e-05;0.000338315;-0.000220585;0.00133504;0.013418;0.0123089;0;0.0223357;-0.209073;-0.536716;-0.171316;0.600937;-5.79899;0.000610837;5.55508e-05;-0.000268238;0.000614334;-0.000271735;0.000443034;2.27722;0.439132;0.000524164;0.000590712;2.26078;0.442324;143.932;8.93153;0.000227601;0.00061037;-0.000856479;0.000968382;-0.000268604;0.00234355;0.0125039;0;0.0334444;0.0199834
146000;147;25.8016;-0.00388278;-0.000150463;-2.39525;25.6899;0.133366;-0.00124501;-0.00143707;-0.254307;-0.207112;-0.539946;0.0795803;0.583755;-5.85693;6.1431e-05;-2.30959e-05;0.00117391;0.00117439;6.09517e-05;0.000556717;-0.0523304;-19.1093;0.000763418;0.000742289;-19.2675;-0.051901;106.582;151.582;-0.00420279;6.13548e-05;0.000345371;-0.000391154;0.00117385;0.0124202;0.0124055;0;0.020084;-0.213043;-0.540232;-0.171922;0.605636;-5.7996;0.000532635;0.00013842;-0.000202862;0.000557823;-0.00022805;0.000392937;2.6256;0.380866;0.00046685;0.000523916;2.44605;0.408822;151.711;16.711;0.00123105;0.00053227;-0.000588601;0.000865976;-0.000203026;0.00115362;0.00811538;0;0.0307935;0.0199888
147000;148;25.8039;-0.00165136;-6.39924e-05;-2.39677;25.6919;0.13836;-0.00276461;0.000635937;-0.249312;-0.208534;-0.541203;0.0775062;0.585144;-5.85901;-0.000244264;-0.000332611;0.000731336;0.000833942;-0.000346869;0.000590405;0.333996;2.99404;0.000700808;0.000787207;2.4042;0.415939;141.491;6.49084;-0.00511208;-0.000244667;0.000292766;-0.000957378;0.000731348;0.013842;0.0128539;0;0.0194863;-0.216093;-0.542095;-0.172879;0.608647;-5.80056;0.00039339;0.000100905;-0.000212193;0.000409761;-0.000228564;0.000319162;1.85393;0.539395;0.000373453;0.00042555;1.79277;0.557797;148.744;13.7442;0.00167022;0.000393171;-0.000468294;0.000670448;-0.000212298;0.000611929;0.00560051;0;0.0315597;0.0199496
148000;149;25.8034;-0.00216276;-8.381e-05;-2.39847;25.6913;0.136825;-0.00447128;-2.87487e-05;-0.250848;-0.210493;-0.543793;0.0779599;0.588299;-5.85855;-9.95627e-05;-0.000328939;0.000701473;0.000819236;-0.000217326;0.000518281;0.141934;7.04553;0.000631196;0.000691041;3.76961;0.265279;138.778;3.77788;-0.00439139;-9.98397e-05;0.000156225;-0.000813715;0.000701514;0.012489;0.0127569;0;0.0227418;-0.219225;-0.544942;-0.171813;0.611998;-5.79949;0.000382109;5.23698e-05;-0.000228503;0.000386568;-0.000232962;0.000309765;1.67223;0.598005;0.000361332;0.00041302;1.65936;0.602642;143.41;8.40991;0.00248944;0.000381885;-0.000566832;0.00067195;-0.000228662;-0.00132088;0.0045217;0;0.0321086;0.0199889
149000;150;25.8036;-0.00197266;-7.64434e-05;-2.40034;25.6913;0.141201;-0.00634108;-3.61225e-05;-0.246472;-0.212702;-0.547697;0.0813246;0.59315;-5.85519;0.000224621;-0.000432651;0.00112356;0.00129795;5.02234e-05;0.000623865;-0.19992;-5.002;0.000849057;0.00083182;-25.8436;-0.0386943;132.011;177.011;-0.00377051;0.000224214;0.000136026;-0.00100082;0.00112364;0.0111504;0.0127986;0;0.0286088;-0.222806;-0.548661;-0.166505;0.615138;-5.79418;0.000257202;-5.88492e-05;-0.000138315;0.000265772;-0.000146886;0.000206329;1.85953;0.53777;0.000241522;0.000275105;1.80938;0.552675;151.443;16.4427;0.00229667;0.000257203;-0.000109689;-7.98939e-06;-0.00013832;5.65838e-06;0.00480083;0;0.0279969;0.0200017
150000;151;25.8069;0.00141256;5.47387e-05;-2.40176;25.6945;0.144504;-0.00775598;0.00321331;-0.243169;-0.214927;-0.546643;0.0732892;0.591932;-5.86322;1.94278e-05;-0.000538652;0.000843495;0.00110963;-0.000246711;0.000678172;-0.0230325;-43.4169;0.000834243;0.00090423;4.49771;0.222335;146.459;11.4591;-0.00521839;1.87323e-05;0.000219904;-0.00129658;0.000843616;0.0138942;0.0145585;0;0.0320742;-0.226431;-0.549057;-0.173974;0.618871;-5.80165;3.83803e-05;-1.69729e-05;-0.00012498;4.01251e-05;-0.000126724;8.34248e-05;0.307093;3.25635;0.000100563;0.000111233;0.316633;3.15823;121.092;166.092;0.00244184;3.83716e-05;-0.000167148;0.000133227;-0.000124993;-0.00289526;0.00622822;0;0.0281915;0.0199967
151000;152;25.8071;0.00157556;6.1055e-05;-2.40403;25.6945;0.148034;-0.0100302;0.00314424;-0.239639;-0.216701;-0.549971;0.074596;0.595812;-5.86192;0.00036139;-0.000649459;0.000499415;0.00108352;-0.000222713;0.000653116;-0.723627;-1.38193;0.000806895;0.000870821;4.86509;0.205546;159.829;24.8293;-0.00428844;0.00036078;-1.73307e-05;-0.0012815;0.000499626;0.0129859;0.0137143;0;0.0359007;-0.22947;-0.552853;-0.171021;0.622536;-5.7987;-1.76379e-05;-3.62123e-05;-0.000119316;-6.05944e-06;-0.000130894;6.24174e-05;-0.147825;-6.76475;8.53147e-05;8.32232e-05;;;34.5578;79.5578;0.00213739;-1.7682e-05;0.00022693;-0.000299381;-0.000119341;0.00104511;0.004414;0;0.0244034;0.0199955
152000;153;25.8085;0.00300491;0.000116445;-2.40536;25.6958;0.148024;-0.0113597;0.00445551;-0.239648;-0.219087;-0.551226;0.0739281;0.597758;-5.86258;0.00023024;-0.00069822;8.6045e-05;0.000860075;-0.000543791;0.000701933;-2.67581;-0.373719;0.00081735;0.000935911;1.58163;0.632259;177.64;42.6398;-0.0055894;0.000229292;0.000147499;-0.00154406;8.62779e-05;0.0130836;0.0155018;0;0.0279011;-0.232954;-0.554522;-0.170729;0.625228;-5.79841;-5.08977e-05;6.06678e-05;1.19875e-05;4.88766e-05;-8.77868e-05;6.83317e-05;4.24591;0.235521;7.99615e-05;9.11089e-05;0.556764;1.79609;108.933;153.933;0.00239175;-5.08968e-05;0.000165931;-4.45888e-05;1.19755e-05;0.000900696;0.00400825;0;0.0260966;0.0199964
153000;154;25.806;0.000454791;1.76238e-05;-2.40639;25.6931;0.142626;-0.0123832;0.00182888;-0.245047;-0.221269;-0.555741;0.0766639;0.603063;-5.85985;0.000218064;-0.000685865;0.000698828;0.00118522;-0.000268324;0.000726769;-0.312043;-3.20469;0.000893123;0.000969026;4.41711;0.226392;154.6;19.5999;-0.00482348;0.00021727;6.36526e-05;-0.00143502;0.000699061;0.0123136;0.0133286;0;0.0321126;-0.236116;-0.558001;-0.169417;0.629141;-5.7971;0.000145327;-9.71174e-06;0.000120496;0.000148674;0.000117149;1.57629e-05;-1.20608;-0.829133;9.04578e-05;2.10172e-05;-1.26911;-0.787954;6.66355;51.6635;0.00186388;0.000145312;0.000156582;-0.00017601;0.000120483;-0.000389343;0.00840358;0;0.0258502;0.0199986
154000;155;25.8044;-0.00109362;-4.23791e-05;-2.4079;25.6915;0.138496;-0.0139008;0.000154083;-0.249177;-0.223199;-0.558152;0.072265;0.605454;-5.86425;0.000334248;-0.000602022;-0.000225232;0.000718349;-0.000609333;0.000663841;1.48402;0.673845;0.000767399;0.000885121;1.17891;0.84824;10.2538;55.2538;-0.00654126;0.00033357;0.000107022;-0.00131146;-0.000225056;0.0156478;0.0152241;0;0.0294569;-0.238705;-0.559525;-0.175963;0.633255;-5.80364;-2.79704e-05;-0.000134481;0.000194601;0.00025787;-9.12401e-05;0.000174555;0.143732;6.95737;0.000209072;0.00023274;2.82628;0.353822;77.8473;122.847;0.00179993;-2.79759e-05;-0.000439196;0.000170167;0.000194513;0.00110123;0.00903553;0;0.0277203;0.0199827
155000;156;25.8067;0.00116454;4.51275e-05;-2.4093;25.6936;0.14358;-0.0152936;0.0022637;-0.244093;-0.225284;-0.561104;0.0744564;0.609208;-5.86206;0.000226757;-0.000456545;0.000528067;0.000858172;-0.000103348;0.00048076;-0.429409;-2.32878;0.000609491;0.000641013;8.30372;0.120428;154.659;19.6586;-0.00663186;0.000226309;0.000138286;-0.0010512;0.000528162;0.0162416;0.0152873;0;0.024487;-0.241749;-0.562539;-0.173009;0.636259;-5.80069;-6.81235e-05;-4.11087e-06;0.000196886;0.00019695;-6.81873e-05;0.000132568;0.346005;2.89013;0.00015898;0.000176758;2.88836;0.346217;52.5454;97.5454;0.00108125;-6.81594e-05;-0.000276379;0.000268085;0.000196848;0.00205379;0.00797912;0;0.0287263;0.0199969
156000;157;25.8054;-0.00014802;-5.73598e-06;-2.41006;25.6922;0.142163;-0.0160616;0.00088121;-0.24551;-0.22779;-0.563183;0.0725862;0.611827;-5.86393;0.000304333;-0.0008004;0.000258392;0.00108209;-0.000519367;0.000800729;-1.1778;-0.849043;0.000943437;0.00106764;2.08348;0.479965;170.249;35.2493;-0.00649567;0.000303485;-7.20719e-05;-0.00152876;0.00025871;0.0161873;0.0136128;0;0.0258685;-0.244891;-0.564575;-0.174132;0.639561;-5.80181;8.82962e-05;-5.77707e-05;0.000231583;0.000251973;6.79058e-05;9.20338e-05;-0.381273;-2.62279;0.000150542;0.000122712;-3.71063;-0.269496;75.7033;120.703;0.00120338;8.82441e-05;-0.000443688;0.000328091;0.000231486;0.0015149;0.00901313;0;0.0288853;0.0199943
157000;158;25.8056;4.46993e-05;1.73216e-06;-2.41136;25.6923;0.141517;-0.0173596;0.000956546;-0.246156;-0.230327;-0.565468;0.0711183;0.614705;-5.86539;-1.1561e-05;-0.000656366;0.000949777;0.00128266;-0.000344439;0.000813547;0.0121723;82.1538;0.000990093;0.00108473;3.7239;0.268536;144.893;9.89319;-0.00599028;-1.22599e-05;4.01993e-05;-0.00135226;0.000949992;0.013703;0.0141692;0;0.0229431;-0.248705;-0.567329;-0.174197;0.643476;-5.80187;0.000225588;-7.85796e-05;0.000195924;0.000290723;0.000130789;7.9967e-05;-1.1514;-0.868507;0.00016813;0.000106623;-2.22284;-0.449875;110.541;155.541;-7.30548e-05;0.000225551;-0.000438078;0.000280929;0.000195832;0.0022242;0.0120915;0;0.0281635;0.0200703
158000;159;25.8053;-0.000222055;-8.60492e-06;-2.41216;25.6919;0.142602;-0.0181582;0.000607652;-0.245071;-0.231598;-0.568037;0.0731203;0.617779;-5.86339;5.99552e-05;-0.00041092;0.000471127;0.00072502;-0.000193938;0.000459479;-0.127259;-7.85798;0.000559315;0.000612638;3.73842;0.267493;158.315;23.3154;-0.00631419;5.92046e-05;0.000470848;-0.00129233;0.000471101;0.0132688;0.0145006;0;0.0227396;-0.251273;-0.568921;-0.176994;0.646634;-5.80467;0.000486518;-0.00011818;0.000296291;0.000543105;0.000239705;0.0001517;-1.64203;-0.609004;0.00031428;0.000202267;-2.26573;-0.441359;145.612;10.6121;-0.000732768;0.000486525;-0.000242407;6.07161e-06;0.000296269;0.00360056;0.0113105;0;0.0246512;0.0200674
159000;160;25.8052;-0.000347962;-1.3484e-05;-2.41242;25.6918;0.142563;-0.0184208;0.000456755;-0.24511;-0.232646;-0.569158;0.0731862;0.61921;-5.86333;9.35124e-05;-0.000536238;0.000167186;0.000667851;-0.000407152;0.000537501;-0.55933;-1.78785;0.000626707;0.000716669;1.6403;0.609645;172.938;37.9379;-0.00624705;9.28591e-05;0.00019021;-0.00126263;0.000167312;0.0137136;0.0132272;0;0.0313007;-0.253753;-0.569743;-0.173682;0.647428;-5.80136;0.000429585;-0.000110439;0.000220439;0.000477105;0.000172919;0.000152093;-1.94877;-0.513143;0.00027891;0.000202791;-2.75912;-0.362434;139.879;4.87934;0.000420536;0.000429586;-0.000327083;0.000106251;0.000220391;0.000539195;0.00873374;0;0.0380626;0.0200806
160000;161;25.8049;-0.000668881;-2.59201e-05;-2.41244;25.6914;0.143069;-0.0184337;0.000130387;-0.244604;-0.234976;-0.570678;0.0738704;0.621566;-5.86264;0.000114188;-0.000408745;0.000459158;0.000730321;-0.000156975;0.000443648;-0.24869;-4.02107;0.000546769;0.000591531;4.65245;0.21494;159.972;24.9716;-0.00592196;0.000113377;0.000520438;-0.00133761;0.000459106;0.0138022;0.0150492;0;0.025845;-0.255946;-0.570301;-0.174008;0.648868;-5.80169;0.000656657;-0.000126814;0.00010444;0.000684387;7.67105e-05;0.000303838;-6.28739;-0.159048;0.000432959;0.000405117;-8.92168;-0.112086;157.661;22.6613;-0.000908237;0.000656665;-0.000265404;1.18527e-05;0.000104413;0.00132694;0.0101747;0;0.0315564;0.0200543
161000;162;25.8062;0.000678073;2.62763e-05;-2.41344;25.6927;0.145534;-0.0194395;0.00137498;-0.242139;-0.235128;-0.569489;0.0684247;0.619907;-5.86809;0.000143982;-0.000896049;0.00110171;0.00163882;-0.000393134;0.00101598;-0.13069;-7.65169;0.00124447;0.00135464;4.16862;0.239888;149.96;14.9598;-0.00637081;0.000142588;0.000104174;-0.00189531;0.0011021;0.0145961;0.0132457;0;0.0212068;-0.257563;-0.569901;-0.17838;0.650343;-5.80606;0.000779819;-0.000196177;0.000208938;0.000840733;0.000148024;0.000346355;-3.7323;-0.267931;0.000518243;0.000461807;-5.67973;-0.176065;160.635;25.6354;-0.00136242;0.000779826;-0.000232744;-0.00015959;0.00020893;0.00307046;0.0110449;0;0.0295594;0.0200928
162000;163;25.8047;-0.000793022;-3.07307e-05;-2.41248;25.6913;0.143861;-0.0184724;-2.35881e-06;-0.243812;-0.237524;-0.570658;0.0723998;0.622342;-5.86411;-0.000108712;-0.000501329;0.000907718;0.00111337;-0.000314368;0.000713871;0.119764;8.34978;0.000866267;0.000951829;3.54162;0.282356;146.29;11.2904;-0.00637426;-0.000109696;0.000488172;-0.00148982;0.000907724;0.0129651;0.0124787;0;0.0206838;-0.260095;-0.571115;-0.172972;0.650954;-5.80065;0.000783791;-0.000206439;0.000161064;0.00084601;9.88448e-05;0.000373583;-4.86632;-0.205494;0.000534116;0.00049811;-8.55897;-0.116836;168.177;33.1771;-0.00168658;0.00078377;-0.00012398;-0.000288949;0.000161078;0.00390117;0.0103529;0;0.0275015;0.0200955
163000;164;25.806;0.000449941;1.74359e-05;-2.41356;25.6924;0.146257;-0.0195556;0.00113083;-0.241415;-0.238179;-0.57114;0.0752139;0.623368;-5.8613;-5.60126e-05;-0.000218535;0.000512788;0.000587054;-0.000130278;0.000358666;0.109231;9.15487;0.000441253;0.000478221;4.50616;0.221919;146.768;11.7684;-0.0062634;-5.66341e-05;0.000699495;-0.00113604;0.000512568;0.013295;0.0151255;0;0.024479;-0.261831;-0.570485;-0.172902;0.651079;-5.80058;0.000892309;-0.000145114;3.71213e-05;0.000916262;1.31682e-05;0.000451547;-24.0377;-0.0416013;0.0006065;0.000602063;-69.5812;-0.0143717;172.829;37.8292;-0.00170725;0.000892303;-0.00010932;-0.000180939;3.71258e-05;0.00561023;0.0106631;0;0.0293342;0.0200733
164000;165;25.8048;-0.00074319;-2.87997e-05;-2.41358;25.6912;0.145454;-0.0195748;-6.482e-05;-0.242218;-0.2389;-0.571599;0.0750197;0.624041;-5.86149;0.000204324;-0.000619083;0.000453696;0.000960524;-0.000302504;0.000631514;-0.450355;-2.22047;0.000761483;0.000842018;3.17525;0.314936;164.91;29.9098;-0.00649391;0.000203256;0.000349573;-0.0015875;0.000453826;0.0115851;0.0143868;0;0.0218839;-0.263835;-0.571065;-0.172068;0.652175;-5.79975;0.00085427;-0.000103702;0.000146721;0.000869156;0.000131835;0.000368661;-5.82243;-0.17175;0.000540875;0.000491548;-6.59278;-0.151681;171.121;36.1208;-0.00188338;0.000854272;-0.000116119;-9.12773e-05;0.000146719;0.00464819;0.00897189;0;0.0292696;0.0201257
165000;166;25.8062;0.000629871;2.44084e-05;-2.41438;25.6925;0.150661;-0.0203772;0.00120892;-0.237012;-0.240717;-0.571391;0.0715134;0.624137;-5.865;-0.000215588;-0.000392946;0.00142787;0.00151699;-0.000304708;0.000910848;0.150986;6.62313;0.00112671;0.00121446;4.9785;0.200864;134.24;179.24;-0.006439;-0.000216759;0.000795858;-0.0015798;0.00142763;0.0123033;0.0134694;0;0.0226895;-0.266043;-0.571719;-0.173622;0.654054;-5.8013;0.000846856;-0.000132112;-0.000195732;0.000863336;-0.000212212;0.000537774;4.3266;0.231128;0.000657806;0.000717032;4.06826;0.245805;0.0436537;45.0437;-0.00204226;0.000846841;-4.90919e-05;-0.000215219;-0.000195725;0.00555111;0.00794915;0;0.0268071;0.0201173
166000;167;25.8062;0.000694354;2.69072e-05;-2.41584;25.6925;0.147835;-0.0218397;0.00115263;-0.239838;-0.239897;-0.571595;0.0717172;0.624032;-5.8648;-7.4527e-05;-0.000737773;0.00048263;0.000992668;-0.000584565;0.000788616;0.154419;6.47591;0.00092072;0.00105149;1.69813;0.588883;163.655;28.6545;-0.00641578;-7.56991e-05;0.00022446;-0.00169947;0.000482877;0.0114007;0.0138654;0;0.0218152;-0.267009;-0.571597;-0.172306;0.653992;-5.79998;0.000947598;-0.000207669;-0.000127525;0.000986316;-0.000166244;0.00057628;7.43068;0.134577;0.00071939;0.000768373;5.93295;0.16855;2.73507;47.7351;-0.0022013;0.000947534;-2.42075e-06;-0.000413139;-0.000127503;0.00597455;0.0112311;0;0.0283115;0.0201365
167000;168;25.8064;0.000852165;3.30226e-05;-2.4161;25.6926;0.148272;-0.0221005;0.00128409;-0.2394;-0.24219;-0.573244;0.0773115;0.62709;-5.8592;0.000115984;-0.000465622;0.000886741;0.00110578;-0.000103055;0.000604417;-0.130798;-7.64537;0.000773829;0.00080589;10.73;0.0931964;148.196;13.1961;-0.00587591;0.000114823;0.000663179;-0.00159355;0.00088663;0.0106473;0.0152099;0;0.0241857;-0.26976;-0.573021;-0.168136;0.655281;-5.79581;0.00099241;-0.000184117;-0.000106053;0.00102245;-0.000136092;0.00057927;9.35772;0.106864;0.00073123;0.00077236;7.51294;0.133104;173.741;38.7409;-0.00191275;0.0009924;-0.000137429;-0.000230856;-0.000106045;0.00484815;0.00984415;0;0.0295603;0.0200999
168000;169;25.8055;-3.95827e-05;-1.53389e-06;-2.4178;25.6915;0.150252;-0.0237944;0.000217544;-0.237421;-0.242594;-0.575616;0.0794033;0.629675;-5.85711;-0.000151265;-0.000382367;0.000331143;0.000542027;-0.000362149;0.000452088;0.456797;2.18916;0.000525459;0.000602784;1.49669;0.668139;161.758;26.758;-0.00561799;-0.000152481;0.000841397;-0.00160554;0.000330862;0.0109553;0.0150243;0;0.0337922;-0.271181;-0.574597;-0.165314;0.656528;-5.79299;0.000795049;-0.000284927;-0.000228485;0.000869019;-0.000302455;0.000585737;3.47966;0.287385;0.000702223;0.000780983;2.87321;0.348042;5.68987;50.6899;-0.00278058;0.000794951;-4.31253e-05;-0.000526975;-0.000228445;0.00626908;0.0109757;0;0.0325578;0.0201516
169000;170;25.807;0.00150134;5.8179e-05;-2.41987;25.6928;0.157339;-0.025865;0.00152794;-0.230334;-0.243494;-0.571572;0.0683357;0.625023;-5.86818;-0.000190088;-0.000632311;0.0012977;0.00153013;-0.00042251;0.000976319;0.14648;6.82687;0.00118627;0.00130176;3.62151;0.276128;142.871;7.87054;-0.0062145;-0.000191585;0.000579176;-0.001842;0.00129774;0.0104418;0.0133579;0;0.0303193;-0.273944;-0.571954;-0.172855;0.657309;-5.80053;0.000751318;-0.000286618;-0.000121257;0.000837043;-0.000206982;0.000522012;6.19609;0.161392;0.000638308;0.000696016;4.04405;0.247277;3.57812;48.5781;-0.00250217;0.000751205;-1.79473e-05;-0.000555524;-0.000121216;0.00498252;0.0101456;0;0.0315148;0.0201415
170000;171;25.8047;-0.000826631;-3.20331e-05;-2.42002;25.6905;0.150824;-0.0260153;-0.000785457;-0.236849;-0.243048;-0.575057;0.0750936;0.62881;-5.86142;-0.000300853;-0.000591808;0.00170224;0.00186402;-0.000462634;0.00116333;0.176739;5.65805;0.0014222;0.0015511;4.02915;0.248191;137.853;2.85255;-0.00730306;-0.000302894;0.000924589;-0.00210517;0.00170199;0.0133505;0.0119814;0;0.0240171;-0.274347;-0.574693;-0.168241;0.658668;-5.79592;0.000796277;-0.000244766;-0.0001712;0.000854676;-0.000229599;0.000542138;4.65116;0.215;0.000659771;0.00072285;3.72247;0.268639;9.92484;54.9248;-0.00255069;0.00079614;8.67609e-05;-0.000576615;-0.000171173;0.00512306;0.0119793;0;0.0273082;0.020234
171000;172;25.8071;0.00158375;6.13726e-05;-2.42154;25.6928;0.153997;-0.0275387;0.00147327;-0.233676;-0.244941;-0.576638;0.0771762;0.63124;-5.85934;-0.000312642;-0.000536297;0.00120931;0.0013793;-0.000482632;0.000930965;0.258529;3.86803;0.00111576;0.00124129;2.85787;0.349912;144.331;9.3315;-0.00729007;-0.000314604;0.000981871;-0.00205216;0.00120897;0.0123683;0.013647;0;0.0231311;-0.277408;-0.576145;-0.167823;0.661108;-5.7955;0.000787562;-0.000244307;-0.000164156;0.000846612;-0.000223206;0.000534909;4.79765;0.208435;0.000651679;0.000713212;3.79296;0.263646;11.7587;56.7587;-0.00290138;0.000787396;0.000136458;-0.000625435;-0.000164135;0.00508722;0.0146571;0;0.0280915;0.0201675
172000;173;25.8072;0.00164579;6.37768e-05;-2.42261;25.6927;0.15631;-0.0286025;0.00142134;-0.231363;-0.246154;-0.577247;0.0768964;0.632234;-5.85962;-1.93464e-05;-0.000245256;0.00132761;0.00137088;-6.26134e-05;0.000716744;0.0145724;68.623;0.000935487;0.000955659;21.8943;0.045674;131.671;176.671;-0.00791254;-2.05165e-05;0.00106053;-0.00154929;0.00132708;0.0146348;0.0142879;0;0.0247257;-0.279325;-0.576644;-0.168176;0.662438;-5.79585;0.000679521;-0.000315957;-0.000216999;0.000779682;-0.00031716;0.000548421;3.13145;0.31934;0.00065176;0.000731228;2.45833;0.406781;16.8005;61.8005;-0.0027393;0.000679155;0.000279958;-0.000912406;-0.000216988;0.00540877;0.0135473;0;0.0254827;0.0200937
173000;174;25.8058;0.000314901;1.22028e-05;-2.42306;25.6914;0.152168;-0.0290573;6.64944e-05;-0.235505;-0.247013;-0.579379;0.0831065;0.635297;-5.85341;-9.30156e-05;-0.000371016;0.0017643;0.00183568;-0.000164387;0.00100003;0.0527208;18.9678;0.0012821;0.00133337;11.1668;0.089551;131.319;176.319;-0.00759497;-9.46987e-05;0.00113254;-0.00187178;0.00176373;0.0132069;0.0120857;0;0.0395343;-0.281273;-0.577812;-0.16334;0.66307;-5.79102;0.000552878;-0.000319685;-0.000184478;0.000672177;-0.000303777;0.000487977;2.99698;0.333669;0.000576694;0.000650636;2.21273;0.45193;18.0024;63.0024;-0.00265416;0.000552308;0.000475191;-0.00111515;-0.00018454;0.0057167;0.0136365;0;0.0307153;0.020186
174000;175;25.807;0.00146072;5.66048e-05;-2.4248;25.6923;0.155857;-0.0307965;0.00103122;-0.231816;-0.246997;-0.580254;0.083274;0.636111;-5.85324;-0.000282783;-0.000636692;0.00101708;0.00127698;-0.00054268;0.000909828;0.278034;3.59668;0.00107872;0.0012131;2.35309;0.424972;150.752;15.7523;-0.0073411;-0.0002851;0.000972895;-0.00224419;0.00101681;0.0128789;0.0135822;0;0.0333668;-0.282405;-0.579342;-0.162365;0.664644;-5.79004;0.000476385;-0.000255585;-0.000166164;0.000565648;-0.000255427;0.000410537;2.86695;0.348802;0.000485195;0.000547383;2.21452;0.451565;18.9047;63.9047;-0.00249049;0.000476019;0.000382051;-0.00089363;-0.000166205;0.00545414;0.0142141;0;0.0237196;0.0201691
175000;176;25.81;0.00443594;0.000171899;-2.42716;25.6951;0.159404;-0.0331617;0.00377465;-0.228269;-0.248125;-0.581163;0.0813771;0.637133;-5.85514;4.60692e-05;-0.000216482;0.00176503;0.00179187;1.92251e-05;0.000886323;-0.0261011;-38.3125;0.00118822;0.00118176;-93.2049;-0.0107291;126.629;171.629;-0.00677366;4.45915e-05;0.00130236;-0.00173272;0.0017642;0.0110951;0.0126776;0;0.0242009;-0.285118;-0.581198;-0.163334;0.667654;-5.79101;0.000395794;-0.000131291;-0.000178256;0.000424396;-0.000206858;0.000315627;2.22037;0.450374;0.000371598;0.000420836;2.05163;0.487417;28.4922;73.4922;-0.00152647;0.000395427;0.000603863;-0.000866867;-0.000178429;0.00621556;0.0123688;0;0.0314005;0.0201702
176000;177;25.807;0.00144207;5.58823e-05;-2.42841;25.692;0.150416;-0.0344079;0.000703829;-0.237257;-0.250901;-0.582985;0.084765;0.640318;-5.85175;-0.000229936;-0.000612687;0.00157645;0.00176466;-0.000418137;0.0010914;0.145857;6.85605;0.00133778;0.0014552;4.22028;0.236951;140.014;5.0138;-0.00759201;-0.000231993;0.000895651;-0.0021183;0.00157624;0.0148008;0.0147909;0;0.0266635;-0.289045;-0.582291;-0.161086;0.669746;-5.78876;0.000461145;-0.000149168;-4.91788e-05;0.000501548;-8.9582e-05;0.000295565;9.37691;0.106645;0.00036788;0.000394087;5.59876;0.178611;22.8608;67.8608;-0.000594841;0.000460677;0.000680318;-0.000979078;-4.93991e-05;0.00278853;0.0105527;0;0.0276269;0.0203134
177000;178;25.8063;0.000781943;3.03014e-05;-2.43068;25.6912;0.147524;-0.0366727;-0.000156662;-0.240149;-0.253214;-0.583979;0.084963;0.642158;-5.85155;-0.000348614;-0.000396541;0.00117427;0.00127133;-0.000445682;0.000858508;0.296878;3.36839;0.00102881;0.00114468;2.85256;0.350562;141.047;6.0469;-0.00699259;-0.000350336;0.00110646;-0.00189726;0.00117373;0.0134888;0.0140197;0;0.0238591;-0.292513;-0.583041;-0.163401;0.672458;-5.79108;0.000381717;-7.78917e-05;-8.06963e-05;0.000394485;-9.34643e-05;0.000243974;4.73029;0.211404;0.000299053;0.000325299;4.2207;0.236928;31.7904;76.7904;-0.000651744;0.000381022;0.00102508;-0.00118137;-8.12187e-05;0.00409382;0.00933425;0;0.0328443;0.0202301
178000;179;25.806;0.000472625;1.83149e-05;-2.43164;25.6908;0.146068;-0.0376378;-0.000550372;-0.241605;-0.255136;-0.584493;0.0845468;0.643331;-5.85197;-0.000207268;-0.000297336;0.00126829;0.00132595;-0.00026493;0.000795441;0.163423;6.1191;0.000984236;0.00106059;5.00492;0.199803;136.018;1.01788;-0.00728542;-0.00020878;0.00117187;-0.00176437;0.00126765;0.0125233;0.0139397;0;0.0271941;-0.295434;-0.584013;-0.163602;0.674624;-5.79128;0.000279691;-5.37345e-05;-0.000134981;0.000286541;-0.000141831;0.000214186;2.07208;0.482606;0.000251981;0.000285581;2.02031;0.494974;35.6984;80.6984;-0.000540113;0.000279113;0.000969425;-0.00107732;-0.000135449;0.00469639;0.009463;0;0.0271993;0.0203099
179000;180;25.8047;-0.000830019;-3.21644e-05;-2.43172;25.6895;0.139384;-0.0377128;-0.00182882;-0.248288;-0.25685;-0.585672;0.0869181;0.645398;-5.84959;-0.000171869;8.1167e-06;0.00187346;0.0018735;-0.000171902;0.0010227;0.0917388;10.9005;0.00131006;0.0013636;10.8987;0.0917544;120.689;165.689;-0.0069946;-0.000173122;0.00160239;-0.0015829;0.00187218;0.0138723;0.0135464;0;0.0234716;-0.297928;-0.584667;-0.164062;0.676397;-5.79174;0.000406603;-6.87376e-05;5.87935e-06;0.000418066;-5.58354e-06;0.000211825;;;0.000280591;0.000282433;;;29.7835;74.7835;2.92636e-05;0.000406017;0.000947736;-0.00108562;5.43261e-06;0.0011437;0.0095282;0;0.036869;0.0201483
180000;181;25.8065;0.000988645;3.83114e-05;-2.43359;25.6911;0.142838;-0.0395854;-0.000198291;-0.244835;-0.258244;-0.587813;0.0874063;0.647961;-5.84911;-0.000161872;-0.000443963;0.00200354;0.00209103;-0.000249361;0.00117019;0.0807931;12.3773;0.00148414;0.00156026;8.38555;0.119253;131.757;176.757;-0.00719959;-0.000164026;0.00123822;-0.00212251;0.00200287;0.0136788;0.0132632;0;0.0248003;-0.30018;-0.586157;-0.165779;0.679095;-5.79346;0.000442173;-3.7569e-05;-7.42412e-05;0.000444892;-7.696e-05;0.000260926;5.9559;0.167901;0.000325297;0.000347901;5.78082;0.172986;36.0922;81.0922;-0.000256206;0.000441528;0.00106091;-0.00113662;-7.48033e-05;0.00284613;0.00916654;0;0.0339631;0.0202217
181000;182;25.8038;-0.0016806;-6.51254e-05;-2.43393;25.6885;0.132554;-0.0399295;-0.00285699;-0.255119;-0.259583;-0.589226;0.0912537;0.650306;-5.84526;-0.000241468;-0.000424788;0.00147731;0.00157656;-0.000340721;0.000958641;0.163452;6.11802;0.00118111;0.00127819;4.62713;0.216117;136.362;1.36173;-0.00728221;-0.000243076;0.000995367;-0.0018425;0.0014769;0.0137783;0.0113645;0;0.0256141;-0.302036;-0.587076;-0.164389;0.680373;-5.79207;0.00049949;9.63316e-05;-2.24119e-06;0.000517349;-2.0101e-05;0.000268725;;;0.000351791;0.0003583;25.7375;0.0388538;49.3075;94.3075;-0.00116191;0.000498955;0.00123085;-0.00103876;-2.99405e-06;0.00597857;0.0107944;0;0.0321359;0.020099
182000;183;25.8034;-0.00214513;-8.31269e-05;-2.43456;25.688;0.128269;-0.0405542;-0.00336107;-0.259403;-0.260532;-0.589756;0.0884492;0.650778;-5.84806;5.04869e-06;0.000142915;0.00134676;0.00136181;-1.00054e-05;0.000685909;;;0.000911229;0.000914546;136.108;0.00734709;117.056;162.056;-0.00788213;4.09597e-06;0.00167564;-0.00138776;0.00134537;0.0142257;0.0130923;0;0.0238009;-0.303746;-0.587712;-0.16876;0.68275;-5.79644;0.000489833;8.90129e-05;5.94497e-05;0.000507516;4.17664e-05;0.000232875;-8.23946;-0.121367;0.000325317;0.0003105;-12.1513;-0.0822956;48.8612;93.8612;-0.000951393;0.000489379;0.00113433;-0.000956756;5.88103e-05;0.00272231;0.010536;0;0.0376039;0.0202898
183000;184;25.8019;-0.00357747;-0.000138632;-2.43548;25.6865;0.122899;-0.0414754;-0.00486092;-0.264774;-0.262016;-0.591929;0.089641;0.653504;-5.84687;-0.000201566;-0.000372203;0.00185051;0.00191593;-0.00026699;0.00109146;0.108925;9.18065;0.00137495;0.00145528;7.17605;0.139353;132.716;177.716;-0.00858817;-0.000203882;0.00144332;-0.00218401;0.00184954;0.014925;0.0110929;0;0.0226431;-0.30588;-0.589364;-0.170103;0.685454;-5.79778;0.00038618;4.68841e-05;-9.51579e-06;0.000391659;-1.4995e-05;0.000203327;;;0.000266245;0.000271103;26.1193;0.0382859;46.4533;91.4533;-0.000754842;0.000385701;0.00107337;-0.000980005;-1.00908e-05;0.00535383;0.00855947;0;0.0467059;0.0202511
184000;185;25.8019;-0.00363095;-0.000140704;-2.43632;25.6863;0.123457;-0.0423131;-0.00499675;-0.264216;-0.262931;-0.593033;0.0885645;0.654725;-5.84795;-0.000387315;-0.000216107;0.00106762;0.00109904;-0.000418736;0.000758889;0.362783;2.75647;0.000905157;0.00101185;2.62467;0.381001;137.135;2.13483;-0.00828698;-0.000388885;0.00135455;-0.00178448;0.00106673;0.0160056;0.0107718;0;0.0233983;-0.307537;-0.590343;-0.173449;0.687872;-5.80113;0.000519936;7.67708e-05;-6.4002e-05;0.00052986;-7.39264e-05;0.000301893;8.12375;0.123096;0.000380285;0.000402524;7.1674;0.139521;46.5879;91.5879;-0.000548235;0.000519396;0.00119466;-0.00104177;-6.47127e-05;0.00409417;0.0096559;0;0.040532;0.0202618
185000;186;25.8018;-0.00376501;-0.0001459;-2.43687;25.6862;0.116739;-0.0428627;-0.00515214;-0.270934;-0.264286;-0.595248;0.0896682;0.657425;-5.84684;-0.000307388;-0.000192917;0.00141212;0.0014335;-0.000328766;0.000881132;0.217679;4.59392;0.00108203;0.00117484;4.36023;0.229346;132.151;177.151;-0.00794843;-0.000309105;0.00147953;-0.00186249;0.00141104;0.0140218;0.0111827;0;0.0238141;-0.309313;-0.592395;-0.17424;0.690627;-5.80192;0.000478008;6.82765e-05;-2.14736e-06;0.000487528;-1.16673e-05;0.000249598;;;0.000328977;0.000332797;41.786;0.0239315;44.7088;89.7088;0.000556363;0.000477738;0.000874793;-0.000738627;-2.52766e-06;0.00129913;0.00799495;0;0.0395781;0.020121
186000;187;25.8025;-0.0030197;-0.000117018;-2.43743;25.6869;0.116519;-0.0434255;-0.00445588;-0.271153;-0.265939;-0.596608;0.0899372;0.659358;-5.84658;2.21815e-05;2.26805e-05;0.00198302;0.00198328;2.19192e-05;0.000980682;-0.0111857;-89.3996;0.00131494;0.00130758;-90.4814;-0.011052;117.832;162.832;-0.00762563;2.1023e-05;0.00157079;-0.0015224;0.00198179;0.0138369;0.0127809;0;0.024189;-0.311263;-0.593322;-0.177474;0.693118;-5.80515;0.000492479;-6.19913e-05;-7.93486e-06;0.000500044;-1.55e-05;0.000257772;;;0.000338648;0.000343696;32.261;0.0309972;30.5987;75.5987;-0.00108519;0.000492006;0.000850919;-0.000975358;-8.29498e-06;0.00442262;0.00992207;0;0.037654;0.0202451
187000;188;25.8014;-0.00414148;-0.000160488;-2.43815;25.6857;0.112965;-0.0441445;-0.00563507;-0.274708;-0.267399;-0.598635;0.0909511;0.66192;-5.84556;-3.92395e-05;-7.29092e-05;0.0019946;0.00199721;-4.18498e-05;0.00101953;0.0196728;50.8315;0.00134564;0.00135937;47.7233;0.0209541;122.212;167.212;-0.0078562;-4.08408e-05;0.00164873;-0.00179106;0.00199325;0.0148334;0.0122743;0;0.0217698;-0.313604;-0.595361;-0.177759;0.695989;-5.80544;0.000561676;2.26e-05;9.25441e-05;0.000562763;9.14579e-05;0.000235652;-6.06928;-0.164764;0.00034871;0.000314203;-6.15324;-0.162516;36.94;81.94;-0.000329239;0.000561354;0.000848736;-0.000803924;9.21842e-05;0.00308421;0.00745234;0;0.0319663;0.0202556
188000;189;25.8012;-0.00430349;-0.000166766;-2.43822;25.6855;0.112137;-0.0442163;-0.00580099;-0.275536;-0.268405;-0.601728;0.0908195;0.665106;-5.84569;-5.23241e-06;-0.000236462;0.00205697;0.00208373;-3.19989e-05;0.00105787;;;0.00139994;0.00141049;65.1188;0.0153565;126.341;171.341;-0.00850275;-7.203e-06;0.00152998;-0.00199927;0.00205583;0.0154819;0.00953741;0;0.0235491;-0.314885;-0.59855;-0.179576;0.699759;-5.80725;0.000418423;-8.5248e-05;9.42588e-05;0.000439474;7.32076e-05;0.000183133;-4.43908;-0.225272;0.000271886;0.000244178;-6.00312;-0.16658;21.619;66.619;-0.000350467;0.000418082;0.000659265;-0.000830002;9.40452e-05;0.000496742;0.00975978;0;0.0311707;0.0203182
189000;190;25.8027;-0.00287206;-0.000111296;-2.43822;25.6869;0.111924;-0.0442205;-0.00436259;-0.275749;-0.269566;-0.603483;0.0897413;0.667016;-5.84677;-8.39621e-05;-8.88468e-05;0.00228543;0.00228876;-8.7289e-05;0.00118802;0.036738;27.2198;0.00155575;0.00158403;26.2205;0.0381381;119.913;164.913;-0.00718573;-8.53937e-05;0.00152047;-0.00169436;0.00228428;0.0128055;0.0110177;0;0.0241499;-0.316363;-0.600629;-0.181399;0.702671;-5.80908;0.000421185;-3.4275e-05;4.06075e-05;0.000424247;3.75453e-05;0.000193351;-10.3721;-0.0964125;0.000271184;0.000257801;-11.2996;-0.0884987;32.8005;77.8005;-0.000474044;0.000420735;0.000880692;-0.000949591;4.02203e-05;-0.000382248;0.00728113;0;0.033136;0.0203311
190000;191;25.8022;-0.00332691;-0.000128922;-2.43883;25.6865;0.108216;-0.0448282;-0.00486129;-0.279456;-0.271077;-0.605613;0.0882109;0.669351;-5.8483;0.000270436;-0.000100481;0.00171601;0.00172296;0.000263485;0.000729737;-0.157596;-6.34534;0.00107166;0.000972983;-6.53911;-0.152926;123.698;168.698;-0.00783531;0.000268843;0.00158968;-0.0017882;0.00171475;0.0134404;0.0107797;0;0.0258791;-0.318443;-0.60254;-0.184856;0.706138;-5.81253;0.000677341;-3.48058e-05;0.000284851;0.000680404;0.000281788;0.000199308;-2.37788;-0.420543;0.000394757;0.000265744;-2.41459;-0.414149;24.5181;69.5181;-0.000494315;0.00067699;0.000769613;-0.00083954;0.000284555;0.000917894;0.0070584;0;0.0329178;0.0201835
191000;192;25.8014;-0.00409922;-0.00015885;-2.43875;25.6857;0.105406;-0.0447495;-0.00561792;-0.282267;-0.272509;-0.6093;0.0903768;0.673555;-5.84614;0.00020192;-7.24782e-05;0.00206295;0.00206577;0.000199102;0.000933333;-0.0978795;-10.2166;0.00131584;0.00124444;-10.3754;-0.0963816;120.143;165.143;-0.00681874;0.000200404;0.00160134;-0.00174319;0.00206167;0.0122246;0.0117224;0;0.0262885;-0.320372;-0.605855;-0.184394;0.709718;-5.81207;0.000659383;-4.62393e-05;0.000213307;0.000664126;0.000208564;0.000227781;-3.09124;-0.323494;0.000392173;0.000303708;-3.18428;-0.314043;26.2412;71.2412;-0.00113708;0.000658933;0.000857211;-0.000950093;0.000212941;0.00107451;0.0100655;0;0.0345087;0.0203139
192000;193;25.8014;-0.00409337;-0.000158624;-2.43899;25.6857;0.106194;-0.0449896;-0.00563808;-0.281479;-0.274258;-0.611278;0.0874454;0.675667;-5.84907;0.000136224;-0.000522302;0.00198366;0.0021211;-1.21485e-06;0.00106116;-0.068673;-14.5618;0.00141447;0.00141488;;;134.048;179.048;-0.00751439;0.000133802;0.00122082;-0.00226221;0.00198306;0.0129134;0.0140463;0;0.0313752;-0.32238;-0.607842;-0.18844;0.71338;-5.81612;0.000660695;-9.35121e-05;0.000382613;0.000689216;0.000354093;0.000167562;-1.7268;-0.579107;0.000397969;0.000223415;-1.94643;-0.513762;13.2164;58.2164;-0.00133442;0.000660188;0.000824204;-0.00101148;0.000382278;0.00258356;0.0100578;0;0.034559;0.0202744
193000;194;25.8002;-0.00527631;-0.000204464;-2.43864;25.6845;0.102869;-0.044642;-0.00677982;-0.284804;-0.275526;-0.614335;0.0883484;0.679064;-5.84816;0.000201556;-7.09523e-05;0.00207877;0.00208145;0.000198878;0.000941284;-0.0969592;-10.3136;0.00132632;0.00125505;-10.466;-0.0955479;118.505;163.505;-0.00739681;0.000200328;0.00142963;-0.00156872;0.00207775;0.0130799;0.0116318;0;0.033357;-0.324314;-0.61034;-0.189155;0.716571;-5.81683;0.000865908;-0.000106203;0.000167263;0.000881696;0.000151475;0.00036511;-5.17693;-0.193165;0.000544376;0.000486814;-5.82072;-0.1718;20.5144;65.5144;-0.00151226;0.000865479;0.000719247;-0.00093223;0.00016701;0.0019264;0.0110124;0;0.0353897;0.0203559
194000;195;25.8007;-0.00482038;-0.000186796;-2.43835;25.685;0.109048;-0.0443497;-0.00631957;-0.278625;-0.278073;-0.617242;0.0879616;0.682678;-5.84855;0.000230341;-0.000335293;0.00178514;0.00185437;0.000161117;0.000846625;-0.129032;-7.75001;0.00118619;0.00112883;-11.5095;-0.0868851;130.219;175.219;-0.00745;0.0002286;0.00122759;-0.00189575;0.00178445;0.0132798;0.0118572;0;0.0335826;-0.327356;-0.61315;-0.190139;0.720602;-5.81782;0.000942356;-0.000141408;7.72283e-05;0.000964883;5.47013e-05;0.000455091;-12.2022;-0.0819523;0.000625819;0.000606788;-17.6391;-0.0566921;20.8177;65.8177;-0.00247397;0.00094185;0.00073306;-0.00101663;7.69696e-05;0.00488442;0.00905047;0;0.0315173;0.0201998
195000;196;25.8023;-0.00318775;-0.00012353;-2.43901;25.6866;0.11303;-0.0450051;-0.00475903;-0.274643;-0.281193;-0.621669;0.0876687;0.687915;-5.84884;7.32722e-05;-6.21535e-06;0.00103474;0.00103478;7.3232e-05;0.000480772;-0.0708125;-14.1218;0.000666782;0.000641029;-14.1301;-0.0707709;126.975;171.975;-0.0082379;7.15649e-05;0.00183726;-0.00184792;0.00103305;0.0134018;0.0133486;0;0.0293198;-0.330991;-0.617112;-0.191175;0.7259;-5.81885;0.000828008;-0.000139333;-5.25554e-05;0.000849529;-7.40764e-05;0.000461803;15.755;0.063472;0.00059259;0.000615737;11.4683;0.087197;25.7558;70.7558;-0.00270288;0.000827351;0.000875844;-0.0011554;-5.29292e-05;0.00511008;0.00890541;0;0.0307693;0.020261
196000;197;25.8019;-0.00360528;-0.00013971;-2.43936;25.6861;0.111883;-0.0453604;-0.00520716;-0.27579;-0.282844;-0.62462;0.0869156;0.691162;-5.8496;4.61841e-05;-0.000109677;0.00131361;0.00132303;3.67632e-05;0.000643132;-0.0351583;-28.4428;0.000870023;0.000857509;-35.9878;-0.0277872;129.548;174.548;-0.00886502;4.43638e-05;0.00169416;-0.00191123;0.00131218;0.0154461;0.0134866;0;0.026734;-0.333497;-0.620266;-0.191918;0.72992;-5.8196;0.00087911;-5.1364e-05;-0.000203021;0.000881543;-0.000205453;0.000543498;4.33015;0.230939;0.000666815;0.000724664;4.29072;0.233061;33.9392;78.9392;-0.00325617;0.000878414;0.00107739;-0.00118134;-0.0002036;0.00594291;0.0102888;0;0.025159;0.0203781
197000;198;25.8023;-0.00320878;-0.000124345;-2.44074;25.6864;0.11183;-0.0467397;-0.00493966;-0.275843;-0.285604;-0.627481;0.0845678;0.694589;-5.85194;0.000234901;-0.000323394;0.000271291;0.000577002;-7.08094e-05;0.000323906;-0.865863;-1.15492;0.000410313;0.000431874;8.14866;0.12272;174.578;39.5775;-0.00944295;0.000232472;0.0015813;-0.00222802;0.000270094;0.0168943;0.0158041;0;0.0247428;-0.33746;-0.623354;-0.194489;0.735034;-5.82217;0.000744056;-8.62739e-05;-0.000182711;0.000752019;-0.000190674;0.000471347;4.07231;0.245561;0.000575531;0.000628462;3.944;0.25355;33.6485;78.6485;-0.00373884;0.000743089;0.00122043;-0.00139419;-0.000183452;0.00805008;0.0118831;0;0.0249069;0.0203415
198000;199;25.8026;-0.00289413;-0.000112152;-2.44131;25.6866;0.112428;-0.0473075;-0.00468016;-0.275245;-0.288439;-0.628508;0.0809562;0.696256;-5.85556;0.000305422;-0.000404919;-0.000395471;0.000490486;-0.000580536;0.000535511;0.772298;1.29484;0.000619083;0.000714015;0.844886;1.18359;20.9443;65.9443;-0.0101958;0.000301612;0.00197891;-0.00279042;-0.000397348;0.0154955;0.0178532;0;0.0239226;-0.340925;-0.624082;-0.197785;0.738124;-5.82546;0.000771778;-0.00013932;-0.000244052;0.000790539;-0.000262813;0.000526676;3.16235;0.31622;0.000633083;0.000702235;3.00799;0.332448;31.647;76.647;-0.00386468;0.000770727;0.00117717;-0.00145714;-0.000244735;0.00719211;0.0148019;0;0.0249748;0.0202732
199000;200;25.8046;-0.000874839;-3.39012e-05;-2.44362;25.6885;0.109196;-0.0496125;-0.00285697;-0.278477;-0.291861;-0.634132;0.0844395;0.703161;-5.85207;0.000274039;2.2572e-05;-0.00100927;0.000274436;-0.00100967;0.000642052;0.271522;3.68294;0.000780835;0.000856069;0.271808;3.67906;50.8227;95.8227;-0.0103545;0.00027177;0.00217316;-0.00213078;-0.00101163;0.0164318;0.0178092;0;0.0239435;-0.345338;-0.631174;-0.196235;0.745753;-5.82391;0.000463149;1.57517e-05;-0.00023708;0.000463503;-0.000237434;0.000350469;1.95356;0.511887;0.000411642;0.000467291;1.95213;0.51226;43.843;88.843;-0.00112576;0.000462283;0.00134698;-0.00131641;-0.000237987;0.00340302;0.0125552;0;0.0377276;0.0205728
200000;201;25.8054;-0.0001237;-4.79356e-06;-2.44579;25.689;0.110302;-0.0517862;-0.00231402;-0.277371;-0.294013;-0.636847;0.0840855;0.706462;-5.85243;0.000336835;-0.000255598;-0.00135826;0.000374537;-0.00139596;0.000885249;0.24799;4.03242;0.00107741;0.00118033;0.2683;3.72717;42.6028;87.6028;-0.0109593;0.000333362;0.00213295;-0.0026482;-0.0013605;0.0169582;0.0171231;0;0.0274809;-0.348655;-0.634801;-0.195066;0.750056;-5.82274;0.00042569;1.87721e-05;-0.000178305;0.000426273;-0.000178888;0.000302581;2.38743;0.418861;0.000358989;0.000403441;2.3829;0.419656;44.1341;89.1341;-0.000913189;0.000424809;0.00136452;-0.00132779;-0.000179236;0.00238441;0.0138358;0;0.0349733;0.0203631
201000;202;25.8072;0.00165976;6.43179e-05;-2.44601;25.6908;0.109354;-0.0520029;-0.000539066;-0.278318;-0.296371;-0.639137;0.0821126;0.709278;-5.8544;8.80262e-05;-0.000295114;-0.00155874;0.000139315;-0.00161003;0.000874674;0.0564726;17.7077;0.00112268;0.00116623;0.0865296;11.5567;43.47;88.47;-0.0108336;8.43084e-05;0.00214861;-0.00274287;-0.00156101;0.0175197;0.0179278;0;0.0273726;-0.351792;-0.637704;-0.197317;0.754558;-5.82499;0.00021026;7.39608e-05;-0.000184564;0.00022366;-0.000197964;0.000210812;1.13922;0.87779;0.000243575;0.000281083;1.1298;0.885112;55.0348;100.035;-0.000512853;0.000208844;0.00183192;-0.0016847;-0.00018624;0.00197121;0.012001;0;0.0336822;0.0205075
202000;203;25.8087;0.00321414;0.000124552;-2.44793;25.6921;0.11537;-0.0539232;0.000813159;-0.272303;-0.298995;-0.641972;0.0816729;0.712879;-5.85484;0.000212302;-0.000130285;-0.00147816;0.000222284;-0.00148814;0.000855211;0.143626;6.96251;0.00107388;0.00114028;0.149371;6.69475;47.9422;92.9422;-0.0106585;0.000209082;0.0022767;-0.00254134;-0.00148074;0.0145176;0.0183274;0;0.0252432;-0.355538;-0.640805;-0.198225;0.759165;-5.8259;0.000427481;0.000117944;-5.76474e-05;0.000454635;-8.4802e-05;0.000269719;7.41545;0.134854;0.000334955;0.000359625;5.36114;0.186527;55.0905;100.09;-0.000765824;0.000425981;0.00197134;-0.00173635;-5.95836e-05;0.0026249;0.00889643;0;0.0347274;0.0205888
203000;204;25.8099;0.00434467;0.000168362;-2.44911;25.6932;0.113876;-0.0551055;0.00184282;-0.273797;-0.301295;-0.644452;0.0793667;0.715818;-5.85715;0.000206067;-0.000881172;-0.000686777;0.000747449;-0.00122816;0.000987804;0.300049;3.33279;0.00115182;0.00131707;0.608593;1.64313;15.923;60.923;-0.0111018;0.000199981;0.00183393;-0.00359869;-0.000688071;0.0167379;0.0178446;0;0.0247261;-0.358785;-0.643605;-0.202214;0.764097;-5.82989;0.000358495;6.89992e-05;-1.58321e-05;0.000370808;-2.81456e-05;0.000199477;22.6435;0.0441627;0.000257101;0.000265969;13.1746;0.0759034;52.6787;97.6787;-0.000886672;0.000356571;0.0021001;-0.00196286;-1.8035e-05;0.00267965;0.00949488;0;0.030701;0.0204702
204000;205;25.8111;0.00557737;0.000216131;-2.44942;25.6944;0.116216;-0.0554132;0.00304131;-0.271457;-0.304223;-0.647257;0.0789821;0.719535;-5.85753;0.000210351;-0.000161683;-0.000426399;0.000249053;-0.000465101;0.000357077;0.49332;2.02708;0.000418559;0.000476102;0.535482;1.86748;32.6105;77.6105;-0.0113583;0.000206031;0.00261908;-0.00294422;-0.000429817;0.0140664;0.0150192;0;0.0220224;-0.361661;-0.646341;-0.206169;0.768805;-5.83385;0.000152177;5.89961e-06;-5.33656e-05;0.000152347;-5.35348e-05;0.000102941;2.8516;0.35068;0.000123345;0.000137254;2.84575;0.351401;45.8777;90.8777;-0.00115928;0.000150348;0.00192437;-0.00191297;-5.52172e-05;0.00377958;0.00873527;0;0.0317999;0.0205506
205000;206;25.8101;0.0045299;0.00017554;-2.44947;25.6933;0.10783;-0.0554696;0.00202026;-0.279842;-0.306422;-0.651312;0.0776215;0.723966;-5.85889;6.5921e-06;-0.000655069;0.000655871;0.00106233;-0.000399867;0.000731099;;;0.000872603;0.000974798;2.65671;0.376406;163.435;28.4354;-0.0115696;7.50965e-07;0.00217185;-0.00348015;0.000653728;0.0167682;0.0139618;0;0.0236005;-0.363605;-0.651071;-0.209544;0.774604;-5.83722;0.000112318;-4.19681e-05;0.000144148;0.000173118;8.33488e-05;4.48844e-05;-0.779186;-1.28339;9.99724e-05;5.98459e-05;-2.07703;-0.481458;167.639;32.6385;-0.00120835;0.000110472;0.00183843;-0.00192231;0.000142459;0.000421808;0.00916632;0;0.0284325;0.0208258
206000;207;25.8088;0.00330411;0.000128039;-2.44889;25.6922;0.101266;-0.0548904;0.00087083;-0.286407;-0.30761;-0.656802;0.0775501;0.729402;-5.85896;8.11264e-05;-0.000739631;0.000356776;0.000971314;-0.000533412;0.000752363;-0.227388;-4.39778;0.000880931;0.00100315;1.82095;0.549165;172.414;37.4137;-0.0105498;7.52816e-05;0.00201974;-0.00349823;0.00035501;0.0146821;0.0136613;0;0.0257769;-0.363893;-0.65629;-0.214112;0.780371;-5.84179;5.48921e-05;9.40388e-05;4.01045e-05;0.000141827;-4.68307e-05;9.4329e-05;-1.36872;-0.730607;0.000113431;0.000125772;3.02851;0.330195;86.8648;131.865;-0.00115941;5.38031e-05;0.00166686;-0.00147881;3.87198e-05;0.00346699;0.00821455;0;0.0270282;0.0207917
207000;208;25.8095;0.00401205;0.000155473;-2.44729;25.6931;0.0985634;-0.0532885;0.00174513;-0.289109;-0.309038;-0.662041;0.0754592;0.734505;-5.86105;0.000178353;-0.000511286;0.000911328;0.00117391;-8.42269e-05;0.000629068;-0.195707;-5.10968;0.000812139;0.000838757;13.9375;0.0717491;156.283;21.2834;-0.0100425;0.000173567;0.00211549;-0.00313613;0.000909223;0.0125923;0.0128989;0;0.0252941;-0.364038;-0.661566;-0.219559;0.786383;-5.84724;0.000199782;9.72617e-05;4.9184e-05;0.000247486;1.47978e-06;0.000123003;-4.06193;-0.246188;0.0001645;0.000164004;;;68.7383;113.738;-0.00182265;0.000198798;0.00160055;-0.00140626;4.79079e-05;0.00522472;0.00981793;0;0.0258321;0.0209289
208000;209;25.806;0.000481128;1.86444e-05;-2.44536;25.6897;0.0912719;-0.0513554;-0.00159078;-0.296401;-0.309715;-0.668198;0.0782194;0.740629;-5.85829;0.000152636;-0.00105847;0.000915906;0.00165944;-0.000590897;0.00112517;-0.16665;-6.0006;0.00134717;0.00150022;2.80834;0.356082;163.911;28.9107;-0.0102628;0.000147028;0.00139737;-0.00351243;0.00091549;0.0136909;0.0141904;0;0.0226668;-0.363746;-0.666702;-0.220631;0.790873;-5.84831;0.000212939;-1.54795e-05;0.000135094;0.000215904;0.000132129;4.18875e-05;-1.57622;-0.634428;0.00012569;5.58499e-05;-1.63404;-0.611981;31.0398;76.0398;-0.00295916;0.000211625;0.00158996;-0.00162105;0.000133831;0.00776841;0.0121199;0;0.0322386;0.0208879
209000;210;25.8054;-0.000123525;-4.78676e-06;-2.44598;25.6891;0.0823421;-0.0519747;-0.00222695;-0.305331;-0.311243;-0.674352;0.0749569;0.746486;-5.86156;0.000637302;-0.000733388;0.00126849;0.00175131;0.000154487;0.00079841;-0.502409;-1.99041;0.0011196;0.00106455;-11.3363;-0.0882125;157.16;22.1598;-0.00935952;0.000632911;0.00158832;-0.00305363;0.0012675;0.0134967;0.0156935;0;0.0224242;-0.36459;-0.673056;-0.227877;0.79866;-5.85555;0.000436958;-2.74789e-05;-5.84005e-06;0.000438657;-7.5388e-06;0.000223098;;;0.000294983;0.000297464;;;38.2277;83.2277;-0.00261954;0.000435067;0.00188961;-0.00194542;-7.625e-06;0.0080358;0.015085;0;0.0201094;0.0208222
210000;211;25.8053;-0.000197211;-7.6422e-06;-2.44476;25.6891;0.0821808;-0.05076;-0.00218483;-0.305492;-0.312899;-0.681366;0.0775909;0.753781;-5.85892;0.000120975;-0.000530687;0.000387833;0.000801608;-0.0002928;0.000547204;-0.311924;-3.20591;0.000654223;0.000729605;2.73773;0.365266;169.684;34.6839;-0.00983467;0.000117253;0.00171862;-0.00277939;0.000386498;0.0135687;0.0155189;0;0.0242799;-0.364933;-0.679458;-0.230024;0.804829;-5.8577;0.000321351;-8.78409e-06;-1.57513e-05;0.00032158;-1.598e-05;0.00016878;20.4016;0.0490159;0.000219907;0.00022504;20.1238;0.0496923;40.8263;85.8263;-0.0014906;0.000319988;0.00163287;-0.00165099;-1.70844e-05;0.00580404;0.0151256;0;0.0288097;0.0210195
211000;212;25.8049;-0.000628628;-2.43602e-05;-2.44232;25.6889;0.081273;-0.0483193;-0.00238315;-0.3064;-0.313688;-0.686704;0.0782381;0.759002;-5.85827;4.29575e-05;-0.000500117;0.000326982;0.000704858;-0.000334919;0.000519889;-0.131376;-7.61176;0.00061285;0.000693185;2.10457;0.475157;169.714;34.7137;-0.0119569;3.92419e-05;0.00177198;-0.00277156;0.000325538;0.0165571;0.0130135;0;0.0263075;-0.364442;-0.684171;-0.233178;0.809493;-5.86086;0.000309426;0.000126672;7.69697e-05;0.000365113;2.1283e-05;0.000171915;-4.0201;-0.24875;0.000236633;0.00022922;-17.1551;-0.0582916;65.5269;110.527;-0.00100115;0.000308143;0.00186037;-0.00160743;7.52474e-05;0.00725649;0.0144198;0;0.0401929;0.0208516
212000;213;25.8071;0.0015619;6.05258e-05;-2.44173;25.6912;0.0828443;-0.0477226;-0.000131037;-0.304828;-0.314451;-0.693035;0.0809772;0.765333;-5.85554;0.000295314;-0.000137284;-0.00081206;0.000312079;-0.000828825;0.000570452;0.36366;2.74982;0.000680851;0.000760603;0.376532;2.65582;41.2381;86.2381;-0.0102583;0.000292401;0.00214058;-0.00241767;-0.000814343;0.0150955;0.0168031;0;0.0234118;-0.364057;-0.689775;-0.235263;0.814663;-5.86294;0.000301708;9.84349e-05;-6.71767e-05;0.000326332;-9.17999e-05;0.000209066;4.49126;0.222654;0.000253751;0.000278754;3.55481;0.281309;57.0586;102.059;-0.00058845;0.000300414;0.00180857;-0.00161233;-6.88074e-05;0.006019;0.013446;0;0.0406384;0.0209332
213000;214;25.8101;0.00455544;0.00017653;-2.43987;25.6944;0.0818182;-0.0458684;0.00305543;-0.305855;-0.313274;-0.697858;0.0765;0.768764;-5.86001;0.000212948;0.000157104;-0.000817358;0.000236371;-0.000840781;0.000538576;0.260532;3.8383;0.000653714;0.000718101;0.281133;3.55704;57.4743;102.474;-0.00950459;0.000211;0.00229249;-0.00198048;-0.000819975;0.0124386;0.0173538;0;0.0366095;-0.361553;-0.696373;-0.24177;0.821041;-5.86945;0.00026106;8.68853e-05;-2.309e-05;0.000285521;-4.75514e-05;0.000166536;11.3062;0.0884473;0.000208018;0.000222048;6.00448;0.166542;58.9519;103.952;-6.12533e-05;0.000259324;0.00203883;-0.00186561;-2.51647e-05;0.00272509;0.0130115;0;0.0264457;0.0210258
214000;215;25.8069;0.00140773;5.45516e-05;-2.43658;25.6916;0.0707676;-0.0425792;0.000238531;-0.316905;-0.314128;-0.705204;0.07992;0.776129;-5.85659;0.000132465;-0.000352277;-0.0012601;0.000216508;-0.00134415;0.000780327;0.105122;9.51273;0.000976302;0.00104044;0.161075;6.2083;38.7331;83.7331;-0.0100135;0.000129264;0.00184693;-0.00255455;-0.00126175;0.0152913;0.0174585;0;0.0260235;-0.360104;-0.703041;-0.244762;0.826952;-5.87244;-1.55973e-05;0.00011435;-0.000146261;5.07679e-05;-0.000212626;0.000131697;-0.106641;-9.37727;0.000161358;0.000175596;0.238767;4.18819;76.4575;121.458;-0.0010948;-1.68687e-05;0.00182717;-0.0015987;-0.000147924;0.00290248;0.00864734;0;0.0270595;0.0211851
215000;216;25.8073;0.00177099;6.86282e-05;-2.43651;25.6919;0.061781;-0.0425077;0.000633371;-0.325892;-0.316084;-0.713561;0.0805689;0.784583;-5.85594;-0.000219256;-0.000608952;-0.000718714;0.000189184;-0.00112715;0.000658169;-0.305067;-3.27797;0.000821789;0.000877559;0.167842;5.95797;16.6239;61.6239;-0.0121563;-0.000223624;0.00179847;-0.00301757;-0.000720147;0.018161;0.0148498;0;0.0257793;-0.361663;-0.71198;-0.252385;0.837504;-5.88006;0.000153613;0.000107703;2.52348e-05;0.000214804;-3.59558e-05;0.00012538;-6.08736;-0.164275;0.00015657;0.000167173;5.97411;0.167389;72.9862;117.986;-9.55979e-05;0.000152497;0.00171351;-0.00149832;2.37726e-05;0.00418352;0.0117542;0;0.0299661;0.0214066
216000;217;25.803;-0.00256483;-9.93906e-05;-2.43627;25.6876;0.045973;-0.0422662;-0.00366585;-0.3417;-0.319354;-0.723209;0.0810247;0.794722;-5.85549;0.000364915;-0.000471233;0.00020723;0.000763855;-0.00019171;0.000477783;-1.76092;-0.567886;0.00058373;0.000637044;3.98442;0.250977;0.940199;45.9402;-0.010522;0.000361573;0.00168553;-0.00262833;0.000205921;0.015419;0.0165121;0;0.0371291;-0.365097;-0.721077;-0.255664;0.847709;-5.88334;0.000214682;-0.000181515;-4.24845e-05;0.000308543;-0.000136345;0.000222444;5.05317;0.197895;0.000263192;0.000296592;2.26295;0.441902;16.2077;61.2077;-0.00195241;0.00021287;0.00154885;-0.00191233;-4.36676e-05;0.007021;0.0155175;0;0.0158723;0.0215166
217000;218;25.8026;-0.00297114;-0.000115136;-2.43945;25.6869;0.0434216;-0.0454515;-0.00437184;-0.344251;-0.321858;-0.73118;0.0772013;0.802606;-5.85931;0.000517474;3.98209e-06;0.000513431;0.000519918;0.000510987;4.46562e-06;-1.00787;-0.992189;0.000343674;5.95416e-06;-1.01748;-0.982822;69.0238;114.024;-0.0101488;0.000515628;0.00192982;-0.00192186;0.00051157;0.0141393;0.0151226;0;0.0369256;-0.369551;-0.729354;-0.2639;0.859167;-5.89158;0.000353407;5.83666e-05;-1.50416e-05;0.000362432;-2.40665e-05;0.000193249;23.4953;0.0425617;0.00025003;0.000257665;15.0596;0.0664028;51.1339;96.1339;-0.00158612;0.000351825;0.00189623;-0.00178017;-1.68378e-05;0.0098023;0.0179022;0;0.0343504;0.0215354
218000;219;25.8024;-0.00315232;-0.000122157;-2.4419;25.6865;0.0423762;-0.0478969;-0.00478445;-0.345297;-0.326407;-0.742615;0.0810191;0.815219;-5.85549;-1.91757e-05;-0.000674093;0.00081352;0.00118948;-0.000395133;0.000792305;0.0235713;42.4244;0.000952421;0.00105641;3.01032;0.33219;158.451;23.4512;-0.0118027;-2.2471e-05;0.00130765;-0.00265419;0.000812893;0.0194167;0.0138295;0;0.0268159;-0.375763;-0.739304;-0.263829;0.870272;-5.89151;0.00024346;9.83618e-05;-1.35367e-05;0.000276785;-4.68619e-05;0.000161824;17.9851;0.0556015;0.000201964;0.000215765;5.90639;0.169308;61.4946;106.495;-0.00119971;0.000242491;0.00159195;-0.00139561;-1.47991e-05;0.00793379;0.0135588;0;0.0305499;0.0216443
219000;220;25.8039;-0.00166782;-6.46303e-05;-2.44312;25.6879;0.0424836;-0.0491173;-0.00340948;-0.345189;-0.332596;-0.751384;0.0788083;0.825475;-5.8577;0.000184912;-0.000136355;0.000275087;0.000373615;8.63836e-05;0.000143616;-0.672194;-1.48767;0.000225858;0.000191488;-4.32507;-0.23121;167.193;32.1933;-0.0105644;0.000183038;0.00166821;-0.00194076;0.000273705;0.0170151;0.0141448;0;0.0315403;-0.384018;-0.747278;-0.272562;0.883281;-5.90024;0.000328649;-0.000181341;0.000261989;0.000479697;0.000110941;0.000184378;-1.25444;-0.79717;0.00028998;0.000245838;-4.32391;-0.231272;178.762;43.7619;-0.000619523;0.000327577;0.00111304;-0.0014758;0.000261386;0.00328449;0.0117609;0;0.0317789;0.0220947
220000;221;25.8064;0.000855022;3.31333e-05;-2.44464;25.6903;0.0425274;-0.0506372;-0.00101991;-0.345145;-0.339067;-0.757269;0.0761484;0.8332;-5.86036;0.000172058;0.000471304;0.000531506;0.000856191;-0.000152627;0.000504409;-0.323718;-3.08911;0.000627884;0.000672546;5.60969;0.178263;94.2716;139.272;-0.00808049;0.000171514;0.00208745;-0.00114426;0.000529439;0.0130797;0.0173101;0;0.0339813;-0.39279;-0.754887;-0.278744;0.895453;-5.90642;0.000460058;-0.00017365;7.26962e-05;0.000526505;6.24904e-06;0.000260128;-6.3285;-0.158015;0.000348939;0.000346838;;;18.1646;63.1646;-0.00188801;0.000459016;0.00110632;-0.00145411;7.20994e-05;0.00601232;0.0106634;0;0.0397357;0.0225012
221000;222;25.8061;0.000606689;2.351e-05;-2.44539;25.69;0.0332548;-0.0513854;-0.0013269;-0.354418;-0.347196;-0.764809;0.0745912;0.843233;-5.86192;5.1737e-05;-0.000173251;0.0017252;0.00174295;3.39889e-05;0.000854481;-0.0299889;-33.3456;0.00115081;0.00113931;-51.2801;-0.0195008;129.04;174.04;-0.0106483;4.93102e-05;0.00186684;-0.00220993;0.00172348;0.0158478;0.0120054;0;0.0281211;-0.403883;-0.76271;-0.286406;0.909328;-5.91408;0.000824356;-0.000264305;3.42541e-05;0.000904618;-4.60079e-05;0.000475313;-24.0659;-0.0415526;0.000618985;0.000633751;19.6622;0.0508589;19.4531;64.4531;-0.00269717;0.000823037;0.00111632;-0.00164602;3.3666e-05;0.00529077;0.0102489;0;0.0380878;0.0228727
222000;223;25.8023;-0.00324733;-0.000125838;-2.44958;25.6857;0.0139441;-0.0555762;-0.00557992;-0.373729;-0.355096;-0.772541;0.0745347;0.853503;-5.86198;-4.57403e-05;-0.000227915;0.00160411;0.00163502;-7.66461e-05;0.000855832;0.0285144;35.07;0.00111644;0.00114111;21.3321;0.0468778;132.769;177.769;-0.0108082;-4.85606e-05;0.00193359;-0.00238586;0.00160227;0.015204;0.0128422;0;0.0276702;-0.415627;-0.770042;-0.295009;0.92344;-5.92269;0.000827684;1.15741e-05;-0.000155929;0.00082782;-0.000156065;0.000491942;5.30809;0.188392;0.000610586;0.000655923;5.30433;0.188525;39.8649;84.8649;-0.00258821;0.000826357;0.00165147;-0.00162993;-0.000157292;0.00447001;0.0134907;0;0.0198406;0.0229004
223000;224;25.801;-0.0044776;-0.000173513;-2.45679;25.6838;0.000676666;-0.0627874;-0.00750076;-0.386996;-0.364101;-0.781048;0.0754624;0.865044;-5.86105;-2.60524e-06;-0.000513333;0.00133977;0.00151357;-0.000176405;0.000844987;;;0.00107269;0.00112665;8.58009;0.116549;146.903;11.903;-0.0121494;-7.89275e-06;0.00226925;-0.00329218;0.00133733;0.0149384;0.0161682;0;0.0315659;-0.429376;-0.777392;-0.300706;0.937618;-5.92838;0.000465154;0.000114549;-1.79565e-05;0.000490938;-4.37409e-05;0.00026734;25.9045;0.0386033;0.000342804;0.000356453;11.2238;0.0890966;54.8975;99.8975;-0.00218001;0.000462732;0.00243234;-0.00220436;-2.09081e-05;0.00906341;0.0178633;0;0.0292134;0.0230245
224000;225;25.8048;-0.0007665;-2.97029e-05;-2.46071;25.6872;0.00917739;-0.066712;-0.00415001;-0.378495;-0.377579;-0.787913;0.0799516;0.877363;-5.85656;-0.000225159;-0.00104637;-0.000157115;0.00085579;-0.00123806;0.00104693;-1.43308;-0.697797;0.00121558;0.0013959;0.691232;1.44669;0.70625;45.7063;-0.0133155;-0.000233833;0.00220144;-0.00429396;-0.000158991;0.0193039;0.0220563;0;0.079435;-0.446264;-0.784105;-0.298724;0.950372;-5.9264;0.000370472;-0.000101652;0.000262763;0.000431654;0.00020158;0.000115037;-1.40991;-0.709265;0.000249397;0.000153383;-2.14135;-0.466995;8.57398;53.574;-0.00113498;0.000368903;0.00157123;-0.00177472;0.000261534;0.00602008;0.011656;0;0.067078;0.0236916
225000;226;25.808;0.00252568;9.78735e-05;-2.45923;25.6906;0.0215764;-0.065224;-0.000707701;-0.366096;-0.389428;-0.793413;0.0709337;0.886673;-5.86558;8.09288e-05;-0.000736302;0.00068154;0.00117642;-0.000413954;0.000795188;-0.118744;-8.42148;0.00095273;0.00106025;2.84192;0.351875;165.283;30.283;-0.0136168;7.40889e-05;0.00230057;-0.00377135;0.000679167;0.0207971;0.017931;0;0.0546095;-0.460064;-0.790533;-0.306562;0.964667;-5.93424;0.000522369;-0.000181849;0.000148794;0.00059627;7.48928e-05;0.000260689;-3.51068;-0.284845;0.00037505;0.000347585;-7.96165;-0.125602;16.6546;61.6546;-0.00205331;0.000520929;0.00134257;-0.00170684;0.000147909;0.00410187;0.00906014;0;0.0469363;0.0242279
226000;227;25.8059;0.000328761;1.274e-05;-2.46227;25.6881;0.0116118;-0.0682654;-0.00319957;-0.376061;-0.400027;-0.80356;0.0785013;0.901051;-5.85801;1.66557e-05;-0.000379357;0.000661101;0.000836612;-0.000158856;0.000497734;-0.0251939;-39.6922;0.000617542;0.000663645;5.26649;0.18988;156.451;21.4515;-0.0126419;1.13589e-05;0.00251999;-0.00327683;0.000657999;0.0186834;0.0161313;0;0.0302755;-0.474118;-0.798252;-0.307095;0.977906;-5.93477;0.000582185;-1.62421e-05;-0.000247554;0.000582503;-0.000247871;0.000415187;2.35176;0.425214;0.000492222;0.000553583;2.35002;0.425528;41.836;86.836;-0.00277374;0.000579309;0.00236502;-0.00239948;-0.000250351;0.00389803;0.00832156;0;0.0296683;0.0244278
227000;228;25.8053;-0.000199558;-7.73316e-06;-2.47284;25.6866;-0.00337698;-0.0788341;-0.00474316;-0.39105;-0.411649;-0.810304;0.0798678;0.912374;-5.85664;-3.36561e-05;-0.000167773;0.00157702;0.00159431;-5.09463e-05;0.000822629;0.0213415;46.857;0.00108026;0.00109684;31.294;0.031955;133.175;178.175;-0.0125403;-3.80832e-05;0.00264925;-0.00298027;0.00157353;0.0161838;0.0126568;0;0.0321345;-0.493091;-0.804632;-0.313901;0.994538;-5.94158;0.000102234;-5.77014e-05;8.52072e-05;0.000152046;3.53944e-05;5.8326e-05;-1.19982;-0.833456;9.18678e-05;7.7768e-05;-4.29578;-0.232787;3.30853;48.3085;-0.00496489;9.69715e-05;0.00312935;-0.0032448;8.03129e-05;0.00834961;0.0159531;0;0.0292023;0.0245808
228000;229;25.8064;0.00090715;3.51533e-05;-2.47964;25.687;0.00112702;-0.0856373;-0.00428696;-0.386546;-0.423242;-0.815547;0.0834418;0.922612;-5.85307;-0.000359859;-0.000404195;0.0013596;0.00144987;-0.000450134;0.000950003;0.26468;3.77814;0.00114647;0.00126667;3.22098;0.310465;143.178;8.17815;-0.0138343;-0.000366467;0.00285439;-0.00365719;0.00135561;0.0162195;0.0131212;0;0.034742;-0.511052;-0.809642;-0.310766;1.00661;-5.93844;0.000433058;-0.000190149;3.06241e-05;0.000508689;-4.50069e-05;0.000276848;-14.1411;-0.0707159;0.00035508;0.000369131;11.3025;0.0884763;20.6681;65.6681;-0.00583881;0.000429343;0.00235179;-0.00273311;2.78768e-05;0.00978221;0.013212;0;0.0398154;0.02527
229000;230;25.8048;-0.000745536;-2.88905e-05;-2.4791;25.6854;-0.0153619;-0.0851015;-0.00590017;-0.403035;-0.439414;-0.823772;0.0874968;0.937732;-5.84902;0.000106265;-0.000618046;-0.000902649;0.000399592;-0.00119597;0.000797783;0.117726;8.49429;0.000958687;0.00106371;0.334114;2.99299;22.1856;67.1856;-0.0167697;9.42868e-05;0.00369328;-0.00493372;-0.000909284;0.0219775;0.0196738;0;0.0303033;-0.529936;-0.816813;-0.320375;1.02502;-5.94805;0.000678753;7.19152e-05;-0.000117088;0.0006852;-0.000123534;0.000404367;5.79697;0.172504;0.000503059;0.000539156;5.54665;0.180289;46.4716;91.4716;-0.00323663;0.000676466;0.00228264;-0.00214057;-0.000119691;0.00474334;0.0144625;0;0.02921;0.0259173
230000;231;25.8019;-0.00362031;-0.000140292;-2.48665;25.6818;-0.0312432;-0.0926443;-0.00953194;-0.418916;-0.45556;-0.829257;0.0887243;0.950302;-5.84779;0.00040227;-0.000727312;-0.00107092;0.000700834;-0.00136948;0.00103516;0.37563;2.66219;0.0012159;0.00138021;0.511751;1.95408;24.871;69.871;-0.0162569;0.000390153;0.00351639;-0.00497726;-0.00107684;0.0230488;0.0209491;0;0.0346646;-0.551663;-0.820691;-0.32696;1.04152;-5.95464;0.000429142;0.000382497;-4.55043e-05;0.000641959;-0.000258321;0.00045014;9.43081;0.106035;0.000535276;0.000600186;2.48512;0.402395;72.4398;117.44;-0.00369766;0.000424581;0.00380821;-0.00304485;-5.26827e-05;0.00849222;0.0170678;0;0.038611;0.0260798
231000;232;25.806;0.000454918;1.76287e-05;-2.49399;25.6852;-0.00780049;-0.0999824;-0.00613129;-0.395473;-0.470399;-0.831749;0.0767035;0.958627;-5.85981;0.000216386;-0.000602108;0.00152848;0.0017629;-1.80337e-05;0.000890469;-0.141569;-7.06369;0.00118133;0.00118729;97.7559;0.0102296;149.69;14.69;-0.0149539;0.000207051;0.00316375;-0.00436303;0.00152367;0.0191797;0.0162498;0;0.033221;-0.574322;-0.825732;-0.327598;1.05783;-5.95528;0.000556232;-1.205e-05;0.000254078;0.000556712;0.000253599;0.000151557;-2.18922;-0.456785;0.000321841;0.000202076;-2.19525;-0.455529;38.2914;83.2914;-0.00340767;0.000552761;0.00261074;-0.00263563;0.000250671;0.00660164;0.0140256;0;0.0366263;0.0271621
232000;233;25.8042;-0.00134854;-5.22578e-05;-2.49751;25.683;-0.0216065;-0.103506;-0.00829349;-0.409279;-0.484333;-0.836388;0.0763378;0.969511;-5.86017;-3.75395e-05;-0.000567823;0.00255174;0.00267078;-0.000156588;0.00141369;0.0147113;67.9747;0.00183495;0.00188492;17.0561;0.0586301;138.267;3.2674;-0.0146205;-4.82795e-05;0.00354421;-0.00466922;0.00254563;0.0170156;0.0162426;0;0.0625452;-0.594143;-0.828001;-0.33942;1.07415;-5.9671;0.000848303;0.000191684;-0.000236833;0.000881168;-0.000269698;0.000575433;3.58186;0.279185;0.000695012;0.000767244;3.26724;0.306069;52.0774;97.0774;-0.00410626;0.000843316;0.00354535;-0.00316562;-0.000243101;0.00471863;0.0120386;0;0.0569144;0.02753
233000;234;25.801;-0.00455752;-0.00017661;-2.50714;25.6788;-0.0431685;-0.113142;-0.0124839;-0.430841;-0.503517;-0.844526;0.0839198;0.986811;-5.85259;0.000179149;-0.000746192;-0.000701028;0.000605363;-0.00112724;0.000866303;0.255551;3.91311;0.00101533;0.00115507;0.53703;1.86209;16.6118;61.6118;-0.0179867;0.000161415;0.0045055;-0.00600249;-0.000710907;0.0213842;0.0222182;0;0.0327862;-0.619039;-0.832654;-0.345959;1.09371;-5.97364;0.000232271;-0.000242052;-0.000125291;0.000354408;-0.000247428;0.000300918;1.85386;0.539416;0.000349295;0.000401224;1.43237;0.698144;17.8092;62.8092;-0.00681467;0.000221835;0.00408983;-0.00457548;-0.000133626;0.00916544;0.0168896;0;0.0313427;0.0278306
234000;235;25.8067;0.00117064;4.53638e-05;-2.51073;25.6843;-0.0181825;-0.116723;-0.00704837;-0.405855;-0.521913;-0.847683;0.077997;0.998521;-5.85852;0.00039194;-0.000565236;0.000190559;0.000865384;-0.000282885;0.000574135;-2.05679;-0.486194;0.000690803;0.000765513;3.05913;0.32689;3.20563;48.2056;-0.0172124;0.000378301;0.00412284;-0.00525424;0.000182221;0.0225627;0.0197877;0;0.0320137;-0.643911;-0.838884;-0.343937;1.11204;-5.97161;0.000593371;-0.000458641;-2.38467e-05;0.000837565;-0.000268041;0.000552803;24.8828;0.0401885;0.000665953;0.00073707;3.12477;0.320024;14.9234;59.9234;-0.0070082;0.000583075;0.00364239;-0.0045622;-3.03752e-05;0.0105202;0.0124022;0;0.0316801;0.0287809
235000;236;25.8021;-0.00344179;-0.000133374;-2.51986;25.6787;-0.0528971;-0.125859;-0.0126258;-0.44057;-0.537565;-0.851602;0.0760265;1.00994;-5.86049;-0.000177965;-0.000506824;0.00202016;0.00213139;-0.000289196;0.00121029;0.0880946;11.3514;0.00152649;0.00161373;7.37007;0.135684;141.792;6.79205;-0.0174775;-0.000191496;0.00422285;-0.00522611;0.00201139;0.0207651;0.0144989;0;0.0313722;-0.667309;-0.840636;-0.360478;1.13222;-5.98816;0.00061419;-0.000200808;-0.000298953;0.000656398;-0.000341161;0.00049878;2.05447;0.486744;0.000585448;0.00066504;1.92401;0.519748;32.1497;77.1497;-0.00844356;0.000600851;0.00476434;-0.00517049;-0.000310286;0.0110607;0.0179355;0;0.0254517;0.0295059
236000;237;25.8074;0.00189139;7.32942e-05;-2.52813;25.6833;-0.0323374;-0.134131;-0.00804569;-0.42001;-0.556333;-0.857649;0.0873895;1.02601;-5.84912;-0.000269771;-0.000322609;0.00150832;0.00156505;-0.000326494;0.00094577;0.178855;5.59113;0.00116751;0.00126103;4.79349;0.208616;141.911;6.91075;-0.0195934;-0.000289307;0.00562355;-0.00625821;0.00149259;0.019801;0.0152307;0;0.0405427;-0.693636;-0.846736;-0.348959;1.14885;-5.97664;0.000276112;-0.000205222;-0.000205553;0.000351691;-0.000281132;0.000316412;1.34327;0.744454;0.000366117;0.000421882;1.25098;0.799372;24.488;69.488;-0.00827166;0.000265703;0.00415523;-0.00456777;-0.000214166;0.0119343;0.0142435;0;0.029204;0.0302265
237000;238;25.8052;-0.000329763;-1.27788e-05;-2.5322;25.6806;-0.053898;-0.138193;-0.010714;-0.441571;-0.573131;-0.858917;0.0836305;1.03596;-5.85288;0.000244846;-0.00069052;-0.00228913;0.000420798;-0.00246508;0.00144294;0.10696;9.34926;0.00180013;0.00192392;0.170703;5.85811;35.3251;80.3251;-0.0215585;0.000221576;0.00546102;-0.00685765;-0.00230384;0.0255765;0.0251332;0;0.0376024;-0.715598;-0.846803;-0.363429;1.16672;-5.99111;0.000869586;0.000370862;-0.000112763;0.000993872;-0.000237048;0.00061546;7.71163;0.129674;0.00075412;0.000820613;4.1927;0.23851;61.3128;106.313;-0.00666043;0.000858697;0.00542036;-0.00468361;-0.000127386;0.00907256;0.0160897;0;0.0217317;0.0312554
238000;239;25.8079;0.00242371;9.39222e-05;-2.54266;25.6823;-0.0489396;-0.148659;-0.00897132;-0.436612;-0.590452;-0.860969;0.079521;1.04701;-5.85699;4.48892e-05;-0.000115451;0.000232113;0.000287135;-1.0133e-05;0.000148634;-0.193394;-5.1708;0.000194889;0.000198179;28.3366;0.03529;159.692;24.6919;-0.0187809;2.86286e-05;0.00547416;-0.00570402;0.00021714;0.020488;0.0184632;0;0.037432;-0.741878;-0.849861;-0.364416;1.18551;-5.99209;0.000278882;0.000106971;-0.00022273;0.000300742;-0.00024459;0.000272666;1.25211;0.798653;0.000315403;0.000363554;1.22958;0.813288;56.3168;101.317;-0.00678961;0.000266929;0.0051028;-0.00489137;-0.000235747;0.0115792;0.0140226;0;0.0293126;0.0329116
239000;240;25.8062;0.000709551;2.74961e-05;-2.54994;25.6799;-0.0485016;-0.155933;-0.0114143;-0.436174;-0.60828;-0.864691;0.0852564;1.06064;-5.85126;-0.000412982;-0.00017485;0.00294989;0.00295896;-0.000422049;0.0016905;0.139999;7.14291;0.00212732;0.00225401;7.01094;0.142634;132.249;177.249;-0.0209749;-0.00043437;0.00621303;-0.0065413;0.00293066;0.02019;0.0132999;0;0.0336134;-0.76809;-0.851076;-0.363673;1.20273;-5.99135;0.000851334;0.000372156;4.28523e-05;0.000996557;-0.000102371;0.000549464;-19.8667;-0.0503355;0.000700991;0.000732619;9.7348;0.102724;63.8288;108.829;-0.00654994;0.000839268;0.00566866;-0.00492864;2.68553e-05;0.00631876;0.0154246;0;0.0275716;0.0333288
240000;241;25.7999;-0.00557676;-0.000216107;-2.55536;25.6729;-0.0877208;-0.161356;-0.0183748;-0.475394;-0.627275;-0.867942;0.0912122;1.07476;-5.8453;-0.000210103;-0.000498356;-0.00182431;-6.86427e-05;-0.00196578;0.000948566;-0.115168;-8.68293;0.00128825;0.00126476;-0.0349189;-28.6378;33.1624;78.1624;-0.0220634;-0.000238424;0.00653354;-0.0075416;-0.00184557;0.0245109;0.0239498;0;0.0315035;-0.7919;-0.850547;-0.374853;1.22109;-6.00253;0.000639556;0.000208285;-4.26111e-05;0.000698124;-0.000101178;0.000399651;15.0091;0.0666261;0.000502548;0.000532868;6.89993;0.144929;59.0375;104.037;-0.0070335;0.000626256;0.00557623;-0.00516332;-5.81374e-05;0.0100544;0.0154332;0;0.0302305;0.0347034
241000;242;25.8069;0.00134444;5.20988e-05;-2.56116;25.6794;-0.048067;-0.167161;-0.0118928;-0.43574;-0.644651;-0.868487;0.0870455;1.08509;-5.84947;0.000272829;-0.00046448;-0.00155108;0.000384301;-0.00166255;0.00102343;0.175896;5.68517;0.00125622;0.00136457;0.231152;4.32617;34.1014;79.1014;-0.0225026;0.000246699;0.00630368;-0.00724498;-0.00157087;0.0249573;0.0241358;0;0.0326398;-0.816971;-0.854369;-0.36375;1.23681;-5.99143;0.000489609;9.28474e-05;-4.90952e-05;0.000505163;-6.46487e-05;0.000284906;9.97265;0.100274;0.000360264;0.000379874;7.81397;0.127976;53.2832;98.2832;-0.00727141;0.000475022;0.00558622;-0.00540349;-6.46948e-05;0.00744925;0.011757;0;0.0312999;0.0363583
242000;243;25.8025;-0.0030557;-0.000118413;-2.56933;25.6741;-0.0743282;-0.175323;-0.0171929;-0.462001;-0.659888;-0.869673;0.0819736;1.09476;-5.85454;-0.000267189;-0.000715761;0.00224268;0.00243245;-0.00045696;0.00144471;0.119138;8.39361;0.00179347;0.00192627;5.32312;0.18786;145.534;10.5337;-0.0214588;-0.000294076;0.00595218;-0.00736697;0.00222526;0.0207351;0.0143457;0;0.0316045;-0.839257;-0.852368;-0.381785;1.25564;-6.00946;0.000916533;0.00026847;-1.8318e-06;0.000989257;-7.4556e-05;0.000531907;;;0.000685709;0.000709209;13.2686;0.0753656;57.8774;102.877;-0.00878954;0.000900364;0.00622709;-0.00569563;-2.11843e-05;0.0107401;0.0163541;0;0.0281139;0.0376914
243000;244;25.8008;-0.00470736;-0.000182417;-2.57461;25.6719;-0.0785389;-0.180608;-0.0193948;-0.466212;-0.674953;-0.87409;0.0888149;1.10792;-5.8477;-0.000310874;-0.00027387;0.00300662;0.00302908;-0.000333331;0.0016812;0.103397;9.6715;0.00213917;0.00224161;9.08729;0.110044;134.679;179.679;-0.0244168;-0.00034344;0.00755185;-0.00807369;0.00297823;0.0228186;0.0133636;0;0.031823;-0.859605;-0.85426;-0.381981;1.27067;-6.00966;0.000405429;-0.000129541;-5.86701e-05;0.000439139;-9.23796e-05;0.000265759;6.91032;0.144711;0.000327919;0.000354346;4.75363;0.210365;29.5922;74.5922;-0.0108259;0.000380968;0.00673478;-0.00699705;-8.13419e-05;0.012134;0.0165549;0;0.0322337;0.03987
244000;245;25.8055;-2.67769e-05;-1.03764e-06;-2.57903;25.6762;-0.062481;-0.185026;-0.01509;-0.450154;-0.691081;-0.875674;0.0893541;1.1191;-5.84716;0.000147537;-0.000544653;-0.00243012;0.000257896;-0.00254048;0.00139919;0.0607116;16.4713;0.00178584;0.00186558;0.101515;9.8508;37.6176;82.6176;-0.0246674;0.000113157;0.00720124;-0.00831052;-0.00245596;0.0282393;0.0267837;0;0.0321015;-0.880677;-0.857195;-0.376907;1.28547;-6.00458;0.000668856;-0.000102982;-0.000124626;0.000682004;-0.000137773;0.000409888;5.36692;0.186327;0.000506874;0.000546518;4.95019;0.202013;36.4505;81.4505;-0.0101349;0.000646347;0.00650134;-0.00671254;-0.000145757;0.012884;0.0153967;0;0.0267847;0.0416928
245000;246;25.8008;-0.00476236;-0.000184548;-2.58402;25.6709;-0.0886619;-0.190018;-0.0204285;-0.476335;-0.703501;-0.877465;0.0851961;1.12788;-5.85132;0.000299171;-0.000745311;-0.00199722;0.000519859;-0.00221791;0.00136888;0.149794;6.67585;0.00167894;0.00182518;0.234392;4.26636;31.5933;76.5933;-0.0249001;0.000264769;0.00682137;-0.00832936;-0.00202025;0.0281792;0.0246277;0;0.0338795;-0.898533;-0.857675;-0.391276;1.30233;-6.01895;0.000967433;-0.000324769;-0.000130608;0.0010563;-0.000219474;0.000637886;7.40714;0.135005;0.000787617;0.000850515;4.81287;0.207776;27.9479;72.9479;-0.0115893;0.000938559;0.00695234;-0.00760985;-0.000154726;0.00911506;0.0165653;0;0.0261375;0.0442427
246000;247;25.8017;-0.00377615;-0.000146331;-2.58747;25.6715;-0.0884588;-0.193471;-0.0197844;-0.476132;-0.714762;-0.878586;0.0825062;1.13561;-5.85401;6.23768e-05;-0.000401239;0.00101248;0.00115925;-8.43971e-05;0.000621825;-0.0616079;-16.2317;0.000802449;0.0008291;13.7357;0.072803;152.858;17.8577;-0.0225494;3.35097e-05;0.00681346;-0.00760907;0.000989371;0.0216981;0.018909;0;0.0356677;-0.914189;-0.858941;-0.395798;1.31536;-6.02348;0.000709842;-0.000657546;-0.000366644;0.00102135;-0.000678149;0.000849748;1.93605;0.516515;0.000987851;0.001133;1.50608;0.663975;18.8764;63.8764;-0.0136976;0.000678076;0.00667758;-0.00800053;-0.000388731;0.0137716;0.0167544;0;0.0260698;0.0455382
247000;248;25.8091;0.00353128;0.000136842;-2.59483;25.6782;-0.0616229;-0.200826;-0.0131037;-0.449296;-0.7248;-0.880999;0.0837542;1.1439;-5.85276;-0.00027654;-0.000424334;0.00316789;0.00321939;-0.000328046;0.00177372;0.0872949;11.4554;0.00226355;0.00236496;9.81385;0.101897;136.502;1.50165;-0.0236532;-0.000309497;0.00730644;-0.00812854;0.00314137;0.0200201;0.0143363;0;0.0328812;-0.929733;-0.863907;-0.388876;1.32739;-6.01655;0.000230199;-0.000747693;-0.000356954;0.000739886;-0.000866641;0.000803263;0.644899;1.55063;0.00092849;0.00107102;0.85374;1.17132;10.8326;55.8326;-0.0139045;0.000192543;0.00721137;-0.00871138;-0.000382686;0.0118508;0.0137184;0;0.0250108;0.0493592
248000;249;25.8076;0.00203274;7.87715e-05;-2.59864;25.6763;-0.0792357;-0.204633;-0.0150432;-0.466908;-0.736206;-0.884491;0.0870002;1.15408;-5.84951;-0.000608926;-0.000415433;0.00413974;0.00417581;-0.000644996;0.0024104;0.147093;6.79844;0.00302191;0.00321387;6.47417;0.15446;134.051;179.051;-0.0266609;-0.00064956;0.00823168;-0.00902163;0.00410609;0.025174;0.0144003;0;0.0302991;-0.944828;-0.865799;-0.397044;1.34162;-6.02472;0.000564296;-0.000275087;-8.17604e-05;0.000665556;-0.00018302;0.000424288;6.90183;0.144889;0.000515653;0.000565717;3.63652;0.274988;23.8296;68.8296;-0.013013;0.000528569;0.0079044;-0.00845984;-0.000112965;0.0133611;0.0183997;0;0.0202171;0.050917
249000;250;25.8026;-0.00295301;-0.000114433;-2.60216;25.6708;-0.114118;-0.20816;-0.020543;-0.501791;-0.746276;-0.885938;0.0818042;1.16125;-5.85471;7.97172e-05;-5.55753e-05;0.000220111;0.000239448;6.03808e-05;8.95334e-05;-0.362168;-2.76115;0.000143794;0.000119378;-3.96562;-0.252167;153.567;18.5674;-0.0255051;4.11345e-05;0.00867491;-0.00878483;0.000182493;0.0247815;0.0229468;0;0.0391775;-0.957704;-0.866351;-0.413201;1.35591;-6.04088;0.00103757;-0.000145724;-0.00020579;0.00105442;-0.000222641;0.00063853;5.04189;0.198338;0.000787719;0.000851374;4.73597;0.21115;36.8257;81.8257;-0.0118755;0.0010032;0.00799515;-0.00829671;-0.000237748;0.0152566;0.0151192;0;0.0386111;0.0536402
250000;251;25.8019;-0.00364162;-0.000141118;-2.60215;25.6701;-0.118573;-0.208148;-0.0212542;-0.506246;-0.755299;-0.889389;0.0850246;1.16992;-5.85149;6.82768e-05;-0.000677893;-0.00241092;0.000241527;-0.00258417;0.00141285;0.0283198;35.311;0.00180867;0.0018838;0.0934641;10.6993;34.4104;79.4104;-0.0264927;2.52559e-05;0.00792371;-0.00930082;-0.00244216;0.0289805;0.0253476;0;0.0302496;-0.968365;-0.869079;-0.414726;1.36566;-6.0424;0.000857438;-0.00015171;-2.387e-05;0.000882822;-4.92545e-05;0.000466038;35.9211;0.0278388;0.000605634;0.000621384;17.9237;0.055792;33.7093;78.7093;-0.0104999;0.000831483;0.00689983;-0.00720946;-4.76632e-05;0.0130837;0.0135484;0;0.0277963;0.0578175
251000;252;25.8055;-1.17132e-05;-4.53905e-07;-2.60248;25.6737;-0.100801;-0.208475;-0.0175629;-0.488474;-0.762842;-0.893079;0.0846956;1.17758;-5.85182;6.50189e-05;-0.000700047;-0.00227926;0.000258155;-0.00247239;0.00136528;0.0285263;35.0553;0.00174071;0.00182037;0.104415;9.57717;33.1359;78.1359;-0.0267049;2.22916e-05;0.0078507;-0.00927083;-0.0023099;0.0298132;0.0247742;0;0.0328388;-0.977775;-0.874154;-0.408479;1.3737;-6.03616;0.000382681;0.000176021;5.33152e-05;0.000459045;-2.3049e-05;0.000241047;-7.17771;-0.13932;0.000313995;0.000321396;19.916;0.0502108;67.4837;112.484;-0.00953284;0.000357962;0.00738435;-0.00703469;2.60675e-05;0.010695;0.0141303;0;0.0316102;0.0608094
252000;253;25.8097;0.00420287;0.000162867;-2.60638;25.6777;-0.0836906;-0.212381;-0.0136613;-0.471363;-0.769328;-0.89538;0.0813045;1.18329;-5.85521;0.000105606;-0.000926878;-0.000492132;0.000780608;-0.00116713;0.000973871;0.214589;4.66007;0.00113189;0.0012985;0.668825;1.49516;9.45695;54.457;-0.0271112;6.07068e-05;0.007663;-0.00952182;-0.000521078;0.0280637;0.0219303;0;0.0364001;-0.988488;-0.876813;-0.412655;1.38427;-6.04033;0.000203524;0.000486991;8.30745e-06;0.000602593;-0.000390761;0.000496677;;;0.000577844;0.000662236;1.5421;0.648467;83.849;128.849;-0.0100111;0.000173054;0.00879463;-0.00782231;-3.02472e-05;0.00867116;0.0142947;0;0.0317769;0.0658089
253000;254;25.8107;0.00522595;0.000202513;-2.60977;25.6784;-0.0776208;-0.215772;-0.0129583;-0.465294;-0.775958;-0.898189;0.0792927;1.1896;-5.85722;-0.000121483;-0.000489377;0.000751744;0.000970967;-0.000340706;0.000655836;0.161602;6.18806;0.000785895;0.000874448;2.84987;0.350893;157.94;22.9403;-0.0253433;-0.000161193;0.00795322;-0.00892457;0.00072026;0.0234201;0.0186468;0;0.0440952;-0.997829;-0.879438;-0.41293;1.39269;-6.04061;0.000554651;0.000634094;1.89925e-05;0.000975158;-0.000401515;0.000688337;-29.2037;-0.0342422;0.0008175;0.000917782;2.4287;0.411743;77.4909;122.491;-0.0106919;0.000521545;0.00942739;-0.00816396;-2.52445e-05;0.0117556;0.0165354;0;0.0283269;0.0683674
254000;255;25.8081;0.00259675;0.000100628;-2.61413;25.6752;-0.0887609;-0.220124;-0.0160799;-0.476434;-0.781299;-0.902589;0.0802791;1.19647;-5.85623;-0.000189357;-0.000392854;0.00173315;0.00181033;-0.000266536;0.00103843;0.109256;9.15282;0.00130484;0.00138458;6.79207;0.147231;143.414;8.41413;-0.0254602;-0.00022927;0.00817299;-0.00894223;0.00169989;0.0217952;0.0152706;0;0.0410408;-1.00615;-0.882566;-0.417851;1.40209;-6.04553;0.000785068;0.000607857;0.000148039;0.00115281;-0.000219698;0.000686252;-5.30313;-0.188568;0.000851273;0.000915002;5.24722;0.190577;74.4553;119.455;-0.0109875;0.000755223;0.00896307;-0.00775272;0.00010806;0.01299;0.0192141;0;0.0278097;0.0742253
255000;256;25.8068;0.0013215;5.12101e-05;-2.61705;25.6736;-0.10256;-0.223047;-0.0177109;-0.490233;-0.785767;-0.905228;0.0799724;1.20136;-5.85654;-0.000158872;-0.000460921;0.00250048;0.0025781;-0.000236494;0.0014073;0.0635366;15.7389;0.00180275;0.0018764;10.9014;0.0917316;140.582;5.58201;-0.0262976;-0.000200235;0.00820736;-0.00910617;0.00246699;0.0234829;0.0149492;0;0.041574;-1.01281;-0.884476;-0.423469;1.40975;-6.05115;0.000853427;0.000372294;0.000153481;0.00101442;-7.51039e-06;0.000510964;-5.56048;-0.17984;0.000678796;0.000681285;;;66.4776;111.478;-0.0116472;0.000824117;0.00840758;-0.00766863;0.000118211;0.0136434;0.0198971;0;0.0280082;0.0802327
256000;257;25.8024;-0.00316109;-0.000122497;-2.61925;25.6688;-0.119078;-0.225248;-0.0225127;-0.506751;-0.7917;-0.908746;0.0792612;1.20785;-5.85725;-0.000329215;-0.00053414;0.00418789;0.00425019;-0.000391517;0.00232085;0.0786111;12.7208;0.00297257;0.00309447;10.8557;0.0921174;135.633;0.6331;-0.027943;-0.000376889;0.00875111;-0.00977758;0.0041499;0.0235858;0.0123581;0;0.0327756;-1.01945;-0.886245;-0.429922;1.41758;-6.0576;0.000910667;1.74247e-05;0.000120814;0.000911051;0.000120429;0.000395311;-7.53778;-0.132665;0.00057147;0.000527081;-7.56502;-0.132187;44.3041;89.3041;-0.0133055;0.000878802;0.0080152;-0.00798667;8.86955e-05;0.0152146;0.0221139;0;0.0266589;0.0834423
257000;258;25.8006;-0.00487321;-0.000188844;-2.61967;25.667;-0.128236;-0.225671;-0.0243209;-0.515909;-0.79588;-0.913158;0.081475;1.21405;-5.85504;-0.000167365;0.000220616;0.00453181;0.00454215;-0.0001777;0.00235992;0.0369312;27.0774;0.00308903;0.00314656;25.5608;0.0391225;125.668;170.668;-0.0266845;-0.000209638;0.00968214;-0.00919667;0.00448517;0.0215895;0.0115221;0;0.0306387;-1.02426;-0.889699;-0.433351;1.42424;-6.06103;0.000994421;-0.000375895;-0.000122516;0.00110914;-0.000237237;0.00067319;8.11666;0.123203;0.000829888;0.000897586;4.67524;0.213893;26.3603;71.3603;-0.0144858;0.000959101;0.00765649;-0.00841723;-0.00015176;0.0143635;0.0224884;0;0.0263795;0.0892048
258000;259;25.7999;-0.00560907;-0.000217359;-2.61955;25.6662;-0.133648;-0.225552;-0.0250761;-0.52132;-0.799255;-0.916152;0.081132;1.21849;-5.85538;-0.000313983;-0.0004463;0.00421694;0.00426048;-0.000357526;0.002309;0.0744576;13.4305;0.00296669;0.00307867;11.9166;0.0839167;134.715;179.715;-0.0279685;-0.000364679;0.0092286;-0.0100775;0.00417463;0.0226361;0.0132648;0;0.0313912;-1.02833;-0.892528;-0.437534;1.43021;-6.06521;0.00104155;-0.000685559;-0.000173285;0.00135008;-0.000481808;0.000915941;6.01064;0.166372;0.00109652;0.00122126;2.8021;0.356875;19.1441;64.1441;-0.0154137;0.00100197;0.00754675;-0.00892782;-0.000201532;0.0147385;0.0221796;0;0.0299506;0.0945271
259000;260;25.8008;-0.00472592;-0.000183136;-2.61871;25.6672;-0.134246;-0.224709;-0.0241055;-0.521919;-0.802582;-0.921456;0.0823086;1.22474;-5.8542;-0.000162799;-0.000336587;0.00217281;0.00222035;-0.000210337;0.00121534;0.0749255;13.3466;0.00155509;0.00162046;10.5561;0.0947317;139.86;4.85992;-0.0272119;-0.000210302;0.00910086;-0.00975201;0.00213154;0.0256658;0.0178154;0;0.0314676;-1.0322;-0.897468;-0.440541;1.437;-6.06822;0.000852739;-0.000756952;-0.000339471;0.00122013;-0.000706859;0.000963493;2.51196;0.398095;0.00112562;0.00128466;1.72612;0.579333;18.0955;63.0955;-0.0152494;0.000813;0.00742713;-0.00895075;-0.000366776;0.0128946;0.0222849;0;0.0300638;0.103358
260000;261;25.8027;-0.00278728;-0.000108011;-2.61819;25.6692;-0.136239;-0.224184;-0.0221137;-0.523912;-0.806977;-0.924184;0.0791007;1.22947;-5.85741;7.03024e-05;-0.000372376;0.000744897;0.000910027;-9.48274e-05;0.000502427;-0.0943786;-10.5956;0.000640638;0.000669903;9.59667;0.104203;157.526;22.5265;-0.028017;2.36453e-05;0.00892888;-0.00966732;0.000705133;0.0269458;0.0198519;0;0.033972;-1.03693;-0.901439;-0.44559;1.44443;-6.07327;0.000675513;-0.000621118;-0.00017626;0.00100273;-0.000503478;0.000753105;3.83248;0.260928;0.000885391;0.00100414;1.99161;0.502107;16.223;61.223;-0.0145497;0.000637403;0.00750618;-0.0087553;-0.000204244;0.0128838;0.0184018;0;0.0334503;0.107939
261000;262;25.8026;-0.00287901;-0.000111566;-2.61872;25.669;-0.143253;-0.224717;-0.0222984;-0.530926;-0.808933;-0.927908;0.0850944;1.23395;-5.85142;-0.000407278;-0.000568107;0.000502527;0.000775418;-0.000680168;0.000727793;0.810459;1.23387;0.000840982;0.000970391;1.14004;0.877163;160.377;25.3772;-0.0279919;-0.000454983;0.00865447;-0.00978225;0.000465257;0.0283011;0.0222748;0;0.0307053;-1.03994;-0.904663;-0.445613;1.44861;-6.07329;0.000430386;-0.000577616;-0.00019337;0.000774944;-0.000537928;0.000656436;2.22572;0.449293;0.000762093;0.000875248;1.44061;0.69415;13.6547;58.6547;-0.0144078;0.000391276;0.00770452;-0.00886488;-0.000222889;0.0119347;0.018767;0;0.0313968;0.117391
262000;263;25.8046;-0.000911916;-3.5338e-05;-2.61877;25.671;-0.140551;-0.224769;-0.0203115;-0.528224;-0.810641;-0.931461;0.0863057;1.23782;-5.85021;-0.000257481;-0.000558434;-0.000142536;0.000361375;-0.000761393;0.000561384;-1.80642;-0.55358;0.000661802;0.000748512;0.474624;2.10693;177.556;42.5564;-0.0276498;-0.000304525;0.00859877;-0.00971454;-0.000179356;0.0280113;0.0238264;0;0.0291757;-1.04206;-0.90958;-0.445667;1.45322;-6.07334;0.000341249;-0.000145055;-4.85018e-05;0.000389308;-9.65615e-05;0.000242935;7.0358;0.14213;0.000297005;0.000323913;4.03172;0.248033;26.0552;71.0552;-0.0126726;0.000303634;0.00838265;-0.00867607;-8.3628e-05;0.0123231;0.0162863;0;0.032747;0.124889
263000;264;25.8052;-0.000281075;-1.08921e-05;-2.61926;25.6716;-0.145136;-0.225259;-0.0197529;-0.532809;-0.813752;-0.934507;0.0820442;1.24186;-5.85447;8.01157e-06;-0.00033082;-0.00094387;0.000111693;-0.00104755;0.000579622;;;0.00073842;0.000772829;0.106623;9.37885;28.908;73.908;-0.0285186;-3.81939e-05;0.00894822;-0.00961868;-0.000983889;0.0302648;0.0259251;0;0.0283255;-1.04577;-0.913863;-0.450885;1.46016;-6.07856;0.00045922;0.000189542;0.000413284;0.00062718;0.000245324;0.000190928;-1.11115;-0.899969;0.000364952;0.000254571;-2.55654;-0.391153;84.939;129.939;-0.0118982;0.000425512;0.00859336;-0.00821468;0.000376394;0.0100213;0.0173792;0;0.0315655;0.132533
264000;265;25.8064;0.000839209;3.25205e-05;-2.62063;25.6726;-0.14309;-0.226625;-0.0187547;-0.530762;-0.815535;-0.93827;0.0826539;1.2459;-5.85386;-0.000113806;-0.00021063;-0.00169789;-8.62775e-05;-0.00172541;0.000819568;-0.067028;-14.9191;0.00112262;0.00109276;-0.050004;-19.9984;40.2072;85.2072;-0.0282654;-0.000158893;0.00906174;-0.0094977;-0.00173899;0.0295704;0.0249622;0;0.0294752;-1.04845;-0.917652;-0.452857;1.46506;-6.08054;0.000443161;0.000361092;0.000178647;0.000695455;-7.36465e-05;0.000384551;-2.48065;-0.40312;0.000490034;0.000512734;9.44316;0.105897;78.7818;123.782;-0.0116345;0.00040941;0.00894554;-0.00822565;0.000138708;0.0109431;0.0164543;0;0.0339081;0.143717
265000;266;25.806;0.000484795;1.87865e-05;-2.62078;25.6722;-0.140922;-0.226779;-0.0191146;-0.528595;-0.817957;-0.941084;0.0785819;1.24935;-5.85793;0.000177884;-0.000514796;-0.00208455;0.000289513;-0.00219618;0.00124285;0.0853344;11.7186;0.00156955;0.00165713;0.131826;7.58577;35.5393;80.5393;-0.0279737;0.000129219;0.00882902;-0.00987975;-0.00212348;0.0297905;0.0261594;0;0.0299565;-1.05169;-0.921134;-0.45661;1.47073;-6.08429;0.000481135;0.000683325;0.000172217;0.00102724;-0.000373889;0.000700565;-2.79376;-0.35794;0.000837746;0.000934086;2.74745;0.363974;82.478;127.478;-0.0116545;0.000445523;0.00983274;-0.00846897;0.000124117;0.0128839;0.0170755;0;0.0319369;0.152992
266000;267;25.8081;0.0025392;9.83974e-05;-2.62175;25.6742;-0.136199;-0.227743;-0.0171225;-0.523872;-0.819842;-0.943297;0.0762713;1.2521;-5.86024;-0.000203535;-2.56861e-05;-0.00278185;-0.000203279;-0.00278211;0.00128941;-0.0731652;-13.6677;0.00179083;0.00171922;-0.0730665;-13.6862;48.8429;93.8429;-0.0277842;-0.000247306;0.00928003;-0.00935546;-0.00282503;0.0293958;0.0256729;0;0.0326315;-1.05411;-0.923459;-0.459632;1.47485;-6.08731;0.000217759;0.000668513;0.000207676;0.000881249;-0.000455814;0.000668532;-1.04855;-0.953694;0.000784872;0.000891376;1.93335;0.517236;89.0002;134;-0.012473;0.00018001;0.0100524;-0.00871552;0.000157383;0.0121352;0.0221284;0;0.0314413;0.160131
267000;268;25.808;0.0024576;9.52354e-05;-2.62307;25.674;-0.138497;-0.229069;-0.0173523;-0.526169;-0.821038;-0.947347;0.0763034;1.25594;-5.86021;-9.76474e-06;-0.000537796;-0.00276195;9.15916e-05;-0.00286331;0.00147745;;;0.00194012;0.00196993;0.031988;31.2617;38.4223;83.4223;-0.0285416;-5.82668e-05;0.00876236;-0.00986357;-0.0028003;0.02973;0.0254334;0;0.0325303;-1.05605;-0.927377;-0.460481;1.47896;-6.08816;0.000140631;0.000784722;0.000279374;0.000997785;-0.00057778;0.000787783;-0.503378;-1.98658;0.000920364;0.00105038;1.72693;0.579063;91.7603;136.76;-0.0131958;0.000102357;0.0103554;-0.00878475;0.000226078;0.0142417;0.0206682;0;0.0294759;0.173459
268000;269;25.8089;0.00339634;0.000131613;-2.62403;25.6748;-0.131814;-0.230028;-0.0164714;-0.519487;-0.82299;-0.951259;0.0772252;1.26023;-5.85929;-3.07486e-05;-0.000498208;-0.00297935;5.11556e-05;-0.00306126;0.00155621;-0.0103206;-96.8939;0.0020581;0.00207494;0.0167107;59.842;40.0794;85.0794;-0.0284661;-7.96451e-05;0.00887721;-0.00990131;-0.00301875;0.0296134;0.0266777;0;0.0319847;-1.05884;-0.931351;-0.459265;1.48306;-6.08694;0.000155534;0.000539797;0.000388476;0.000824225;-0.000280215;0.00055222;-0.400369;-2.4977;0.000662932;0.000736293;2.9414;0.339974;95.1533;140.153;-0.0141728;0.000112723;0.0103514;-0.0092696;0.000335065;0.0156768;0.0236527;0;0.0271711;0.182632
269000;270;25.8086;0.00306366;0.000118721;-2.62475;25.6744;-0.137767;-0.23075;-0.0169109;-0.52544;-0.824071;-0.954605;0.0750484;1.26333;-5.86146;0.000389949;-0.00058707;-0.0029776;0.000489359;-0.00307701;0.00178319;0.130961;7.63587;0.00223241;0.00237758;0.159037;6.28784;39.1408;84.1408;-0.0296278;0.000339412;0.00886657;-0.0100726;-0.00301686;0.0289628;0.0255051;0;0.0369748;-1.06072;-0.934924;-0.462798;1.48775;-6.09048;0.000136645;0.000663964;0.00034391;0.000912281;-0.000431726;0.000672003;-0.397327;-2.51682;0.000792324;0.000896004;2.1131;0.473238;93.6012;138.601;-0.0138954;9.37923e-05;0.0106119;-0.00928201;0.000287842;0.0133381;0.0213774;0;0.0242203;0.197479
270000;271;25.8102;0.00465332;0.000180322;-2.62658;25.6758;-0.139754;-0.23258;-0.0155108;-0.527427;-0.825099;-0.96228;0.0714292;1.2696;-5.86508;0.000225858;-0.000327096;-0.00340134;0.000255119;-0.0034306;0.00184286;0.0664027;15.0596;0.00237668;0.00245715;0.0743657;13.4471;44.5654;89.5654;-0.0276397;0.000178869;0.00901262;-0.00970077;-0.00344204;0.0262614;0.0252732;0;0.0326034;-1.06274;-0.943225;-0.471408;1.4971;-6.09909;3.07701e-05;0.000139393;0.000179723;0.000263288;-5.27949e-05;0.000158041;-0.171209;-5.84083;0.000195514;0.000210722;4.98699;0.200522;103.62;148.62;-0.0162149;-2.30192e-05;0.0106533;-0.010373;0.000122995;0.0146112;0.023043;0;0.0287576;0.238288
271000;272;25.8094;0.00389659;0.000150998;-2.62742;25.6749;-0.142763;-0.233417;-0.0163737;-0.530436;-0.826453;-0.963071;0.0728;1.27115;-5.86371;0.000304523;-0.000765768;-0.00283788;0.000481199;-0.00301455;0.00174788;0.107307;9.3191;0.00218781;0.0023305;0.159625;6.26468;35.6494;80.6494;-0.0285983;0.000251542;0.0087622;-0.0103237;-0.00287608;0.0284718;0.0269017;0;0.0360594;-1.06472;-0.944358;-0.468861;1.49842;-6.09654;2.44743e-05;-3.94193e-06;0.000196403;0.000196494;2.43839e-05;8.60549e-05;-0.124612;-8.02489;0.000123672;0.00011474;-8.05833;-0.124095;135.862;0.861514;-0.0154458;-3.10361e-05;0.0105305;-0.0105366;0.000140967;0.0115068;0.0223276;0;0.0215351;0.226433
272000;273;25.8103;0.00478513;0.00018543;-2.62854;25.6757;-0.139054;-0.234541;-0.0155752;-0.526726;-0.827302;-0.964227;0.0704948;1.27245;-5.86602;0.00019489;-0.000465262;-0.00344177;0.000253471;-0.00350035;0.00187691;0.0566251;17.66;0.00242248;0.00250255;0.072413;13.8097;42.4582;87.4582;-0.0294603;0.000143713;0.00916304;-0.0101287;-0.00348379;0.0295683;0.0271371;0;0.0387706;-1.06629;-0.945953;-0.471328;1.50131;-6.09901;-1.51387e-05;-5.38728e-06;0.000274107;0.000274208;-1.5239e-05;0.000144723;0.0552292;18.1064;0.000188091;0.000192965;17.9938;0.0555748;135.566;0.566054;-0.016623;-7.20291e-05;0.0106589;-0.0106666;0.000217316;0.0151122;0.0240994;0;0.0190387;0.231872
273000;274;25.8109;0.00533859;0.000206878;-2.62931;25.6762;-0.143031;-0.235309;-0.0151193;-0.530704;-0.827869;-0.966918;0.0753276;1.27514;-5.86119;0.000182149;-0.00041719;-0.00351228;0.000228674;-0.0035588;0.00189374;0.0518606;19.2825;0.00245232;0.00252498;0.0642558;15.5628;43.4833;88.4833;-0.0277578;0.000133203;0.0090342;-0.00990359;-0.00355314;0.0262804;0.0274027;0;0.0333495;-1.06745;-0.948417;-0.46922;1.50303;-6.0969;6.00215e-05;-4.38302e-05;0.00030504;0.000312644;5.24169e-05;0.000130114;-0.196766;-5.08218;0.00019334;0.000173485;-5.96457;-0.167657;144.193;9.19345;-0.0160339;4.78518e-06;0.0104258;-0.0105109;0.000250708;0.0152639;0.0248536;0;0.0272094;0.24021
274000;275;25.8131;0.00758579;0.00029396;-2.62964;25.6784;-0.142137;-0.235637;-0.0128889;-0.529809;-0.828342;-0.97099;0.0723083;1.27836;-5.8642;0.000380802;-0.000443469;-0.00328441;0.000433696;-0.00333731;0.0018855;0.115942;8.62498;0.00238263;0.002514;0.129954;7.69504;42.4215;87.4215;-0.0274415;0.000331699;0.00899998;-0.00992161;-0.00332495;0.0276737;0.0265051;0;0.0345722;-1.06827;-0.953734;-0.472873;1.50812;-6.10055;0.00036837;7.42112e-05;0.000437201;0.000484588;0.000320982;8.18029e-05;-0.842565;-1.18685;0.000284653;0.000109071;-1.5097;-0.662382;101.206;146.206;-0.0161587;0.000312207;0.0107496;-0.0106004;0.00037945;0.0155005;0.0254686;0;0.0518254;0.255695
275000;276;25.8147;0.00915612;0.000354812;-2.63013;25.6799;-0.1456;-0.23613;-0.0113803;-0.533272;-0.830884;-0.978189;0.0805702;1.28597;-5.85594;0.000425553;-0.000380434;-0.00408799;0.000457395;-0.00411983;0.00228861;0.104098;9.6063;0.00291102;0.00305149;0.111023;9.00718;45.6372;90.6372;-0.0278122;0.00037843;0.00891452;-0.00971748;-0.00412782;0.0268711;0.0281225;0;0.0363383;-1.07108;-0.961593;-0.467917;1.51355;-6.09559;0.000392962;8.5334e-05;0.000605224;0.000635275;0.000362911;0.000136182;-0.649285;-1.54016;0.000368016;0.000181576;-1.7505;-0.571265;114.052;159.052;-0.0160431;0.000341862;0.0102845;-0.0101116;0.000552373;0.0180568;0.0234597;0;0.0247082;0.276693
276000;277;25.8158;0.0102394;0.000396792;-2.63072;25.681;-0.145798;-0.236713;-0.0103521;-0.53347;-0.829556;-0.980233;0.07847;1.28654;-5.85804;0.00054786;-0.000496808;-0.00389097;0.000602784;-0.0039459;0.00227434;0.140803;7.10213;0.00285283;0.00303245;0.152762;6.54612;43.6583;88.6583;-0.0285836;0.000499996;0.00876433;-0.00979918;-0.00392941;0.0307298;0.0275913;0;0.0320236;-1.07039;-0.965175;-0.471054;1.51631;-6.09873;0.000321806;0.00038239;0.0006928;0.00093231;8.22957e-05;0.000425007;-0.4645;-2.15285;0.000596005;0.000566676;-11.3288;-0.0882707;101.37;146.37;-0.0152613;0.000273629;0.0105935;-0.00982493;0.0006368;0.0163184;0.0214912;0;0.0278533;0.297247
277000;278;25.8162;0.0106774;0.000413762;-2.63117;25.6813;-0.151895;-0.237172;-0.00999424;-0.539567;-0.830624;-0.981825;0.0709869;1.288;-5.86553;0.000430905;-0.000427385;-0.00344926;0.000477422;-0.00349578;0.0019866;0.124927;8.00469;0.00250487;0.0026488;0.136571;7.3222;43.2564;88.2564;-0.0290828;0.000383457;0.0088619;-0.0097528;-0.00348858;0.0301038;0.02812;0;0.0319545;-1.07211;-0.96739;-0.480601;1.52192;-6.10828;0.000203651;0.000595148;0.000650166;0.00106255;-0.000208737;0.000635645;-0.313229;-3.19255;0.000787227;0.000847527;5.0904;0.196448;98.8788;143.879;-0.0135226;0.00016267;0.0102681;-0.00907357;0.000597658;0.0140969;0.023224;0;0.0273106;0.309929
278000;279;25.8168;0.0113034;0.000438021;-2.63227;25.6818;-0.150676;-0.238272;-0.00947044;-0.538349;-0.831617;-0.98517;0.0738471;1.29136;-5.86267;0.000434942;-0.000503923;-0.00351593;0.000498203;-0.00357919;0.0020387;0.123706;8.08367;0.00256835;0.00271826;0.139194;7.1842;42.5162;87.5162;-0.0276003;0.000388828;0.00857491;-0.00961871;-0.0035527;0.0290506;0.0272544;0;0.035185;-1.07392;-0.971679;-0.478973;1.52541;-6.10665;0.000215612;0.000663877;0.000809385;0.00123974;-0.000214739;0.000727238;-0.26639;-3.75389;0.000906588;0.00096965;5.77322;0.173213;100.34;145.34;-0.0138773;0.000178377;0.00998921;-0.00865598;0.000759752;0.0157842;0.0225529;0;0.0279807;0.325734
279000;280;25.8173;0.0117653;0.000455921;-2.6317;25.6824;-0.152272;-0.2377;-0.00895694;-0.539944;-0.831364;-0.986124;0.0641648;1.2914;-5.87235;0.000261745;-0.000499233;-0.00266663;0.000344515;-0.0027494;0.00154696;0.0981556;10.1879;0.0019579;0.00206261;0.125306;7.98049;39.233;84.233;-0.0281895;0.000216041;0.00854988;-0.00957488;-0.00270315;0.0312042;0.0273012;0;0.0338299;-1.07372;-0.973447;-0.48871;1.52948;-6.11639;4.50029e-06;0.000645035;0.000818653;0.00117432;-0.00035117;0.000762746;;;0.000922494;0.001017;3.34403;0.29904;104.717;149.717;-0.0131076;-3.19558e-05;0.00986065;-0.00856313;0.000770283;0.0170709;0.0222639;0;0.027572;0.343965
280000;281;25.816;0.0104811;0.000406159;-2.63233;25.681;-0.157171;-0.23833;-0.0103419;-0.544843;-0.831125;-0.989252;0.0644542;1.29366;-5.87206;0.000358992;-0.000401494;-0.00264424;0.00041174;-0.00269699;0.00155436;0.135764;7.36573;0.00194978;0.00207249;0.152667;6.55022;40.902;85.902;-0.0280729;0.000312388;0.00883361;-0.00966437;-0.00268328;0.0301272;0.0267093;0;0.0377476;-1.07384;-0.976208;-0.49091;1.53203;-6.11859;2.99233e-05;0.000667039;0.000832935;0.00120998;-0.000347126;0.000778555;-0.0359251;-27.8357;0.000943887;0.00103807;3.48572;0.286885;104.076;149.076;-0.0136815;-8.14199e-06;0.0100924;-0.00875079;0.00078227;0.0165796;0.0233495;0;0.0280926;0.35989
281000;282;25.817;0.0114997;0.000445629;-2.63283;25.682;-0.154804;-0.238823;-0.0093541;-0.542477;-0.832877;-0.99458;0.0738911;1.29936;-5.86262;0.0002544;-0.000181418;-0.00340853;0.000263363;-0.00341749;0.00184043;0.0746362;13.3983;0.002371;0.0024539;0.0770633;12.9764;46.8497;91.8497;-0.0277973;0.000209376;0.00909529;-0.00949221;-0.00345002;0.0284806;0.027098;0;0.0286293;-1.07631;-0.982206;-0.480365;1.53425;-6.10804;0.000169356;0.000606704;0.000922558;0.00126004;-0.000168128;0.000714085;-0.183572;-5.44744;0.000901313;0.000952114;7.49453;0.133431;104.072;149.072;-0.0126336;0.000133275;0.0097374;-0.00851717;0.000875376;0.0141089;0.0232639;0;0.029354;0.377669
282000;283;25.8161;0.0105517;0.000408893;-2.6329;25.681;-0.152456;-0.238898;-0.0103008;-0.540129;-0.83253;-0.998169;0.0698991;1.30166;-5.86661;0.000144976;-0.000556716;-0.00301636;0.000240149;-0.00311153;0.00167584;0.0480633;20.8059;0.00215886;0.00223445;0.0771804;12.9567;39.5926;84.5926;-0.0273578;9.72804e-05;0.00864075;-0.0097833;-0.00305365;0.0275554;0.0274184;0;0.031872;-1.07606;-0.98578;-0.482647;1.53708;-6.11033;2.79589e-05;0.000459047;0.000830622;0.00103904;-0.000180456;0.000609747;-0.0336602;-29.7087;0.000760019;0.000812996;5.75783;0.173676;109.099;154.099;-0.0131649;-9.16855e-06;0.00955474;-0.00862939;0.000785118;0.0133526;0.0222107;0;0.0245904;0.39632
283000;284;25.815;0.00951962;0.000368898;-2.63348;25.6798;-0.167408;-0.239476;-0.0114907;-0.555081;-0.83203;-0.997737;0.0632535;1.30068;-5.87326;0.000165712;-0.00065843;-0.00294451;0.000299358;-0.00307816;0.00168876;0.0562783;17.7688;0.00215882;0.00225168;0.0972523;10.2825;37.6566;82.6566;-0.0290174;0.000116598;0.00858793;-0.00993358;-0.00298128;0.0321605;0.0277799;0;0.03172;-1.07549;-0.985873;-0.496175;1.54104;-6.12385;-5.08229e-07;0.000402925;0.000792233;0.000961069;-0.000169344;0.000565206;;;0.000703983;0.000753608;5.67525;0.176204;110.939;155.939;-0.0154995;-4.20669e-05;0.00993904;-0.00912567;0.00074296;0.0154025;0.0255293;0;0.0254318;0.416382
284000;285;25.8173;0.0117902;0.000456887;-2.63389;25.6821;-0.164389;-0.23989;-0.00923108;-0.552061;-0.83264;-1.00042;0.0644385;1.30318;-5.87207;0.000378132;-0.000730393;-0.00243009;0.000556741;-0.0026087;0.00158272;0.155604;6.42657;0.00195137;0.0021103;0.213417;4.68567;34.2431;79.2431;-0.0282283;0.000327159;0.00863794;-0.010125;-0.00246723;0.0280451;0.0272362;0;0.0323986;-1.07682;-0.989402;-0.494027;1.54354;-6.12171;0.000123484;0.000110803;0.000714561;0.00073465;0.000103396;0.000315627;-0.172811;-5.78666;0.000459198;0.000420836;-7.10522;-0.140742;123.344;168.344;-0.0162224;7.79286e-05;0.00977365;-0.00954635;0.000666838;0.0161222;0.0259618;0;0.0234507;0.433335
285000;286;25.8174;0.0118429;0.000458928;-2.63566;25.682;-0.161499;-0.241659;-0.00934124;-0.549172;-0.833131;-1.00491;0.0640729;1.30692;-5.87244;-0.000107246;-0.000598944;-0.00271123;2.39118e-05;-0.00284239;0.00143315;-0.0395561;-25.2806;0.00190295;0.00191087;0.00841255;118.87;36.7306;81.7306;-0.0284416;-0.000158132;0.00888274;-0.0101053;-0.00275061;0.0289252;0.0249938;0;0.0379484;-1.07795;-0.994952;-0.493771;1.54781;-6.12145;0.000233691;-0.000136779;0.000850624;0.000879589;0.000204726;0.000337432;-0.274729;-3.63995;0.000531461;0.000449909;-4.29642;-0.232752;145.268;10.2677;-0.0172526;0.000181912;0.00991099;-0.0101783;0.00080156;0.0171207;0.026411;0;0.0228566;0.455915
286000;287;25.819;0.0134503;0.000521217;-2.63639;25.6835;-0.164614;-0.242386;-0.00781981;-0.552287;-0.83333;-1.00725;0.0647178;1.30888;-5.87179;4.84114e-05;-0.000639942;-0.00241753;0.000204593;-0.00257371;0.00138915;0.0200252;49.9372;0.00178791;0.0018522;0.0794933;12.5797;34.6722;79.6722;-0.0284072;-3.65876e-06;0.00892162;-0.0102251;-0.00245722;0.0279893;0.0253643;0;0.0381958;-1.07869;-0.997878;-0.494279;1.55037;-6.12196;0.000357494;-0.000292693;0.00095688;0.0010761;0.000238277;0.00041891;-0.373603;-2.67664;0.000652636;0.000558546;-4.51616;-0.221427;155.155;20.1553;-0.0164621;0.00030356;0.00981242;-0.0103917;0.000908826;0.0165067;0.0261741;0;0.0223419;0.474701
287000;288;25.8196;0.0141035;0.000546531;-2.63672;25.6841;-0.167239;-0.242714;-0.00721373;-0.554912;-0.832345;-1.00883;0.0587916;1.3092;-5.87772;0.000225686;-0.000643658;-0.00243746;0.000373093;-0.00258487;0.00147898;0.0925905;10.8002;0.00186013;0.00197198;0.144337;6.92822;35.251;80.251;-0.0292429;0.000173423;0.00893223;-0.0102451;-0.00247725;0.029151;0.0252963;0;0.0371421;-1.07805;-1.00046;-0.503068;1.55441;-6.13075;0.000268185;-0.000357647;0.0010739;0.00120975;0.000132334;0.000538706;-0.249731;-4.00431;0.000766205;0.000718274;-9.14158;-0.10939;153.749;18.7494;-0.0164607;0.000213856;0.00972411;-0.0104312;0.00102673;0.0134784;0.0277312;0;0.0246567;0.493573
288000;289;25.82;0.014524;0.000562826;-2.63697;25.6845;-0.17061;-0.242963;-0.0068387;-0.558283;-0.833392;-1.01294;0.062446;1.3132;-5.87407;0.000167882;-0.000723925;-0.00277202;0.000336475;-0.00294061;0.00163854;0.0605633;16.5116;0.00208165;0.00218472;0.114424;8.73946;35.5462;80.5462;-0.0293586;0.000113021;0.00902408;-0.0105006;-0.00281258;0.0279412;0.027363;0;0.0459825;-1.07891;-1.00512;-0.501768;1.55759;-6.12945;0.000252353;-0.000221958;0.00111135;0.00116532;0.000198391;0.000483462;-0.227068;-4.40396;0.000719917;0.000644617;-5.87384;-0.170247;146.592;11.5924;-0.0154372;0.000198925;0.00990552;-0.0103407;0.00106237;0.0146945;0.0247431;0;0.02169;0.515758
289000;290;25.8222;0.0166473;0.000645108;-2.63754;25.6865;-0.174258;-0.243535;-0.00478741;-0.561931;-0.832272;-1.01496;0.0622579;1.31404;-5.87425;0.00015159;-0.000203576;-0.00329957;0.000163557;-0.00331153;0.00173755;0.0459424;21.7664;0.00226418;0.00231673;0.0493901;20.247;46.2102;91.2102;-0.0277048;0.000104586;0.00925863;-0.00969853;-0.00334255;0.0254513;0.0276607;0;0.0401667;-1.07804;-1.00787;-0.504975;1.5598;-6.13265;0.00013068;-8.13764e-05;0.00128148;0.00128721;0.000124954;0.000581126;-0.101976;-9.80624;0.000819667;0.000774835;-10.3014;-0.0970739;136.903;1.90339;-0.0154365;7.76004e-05;0.0101532;-0.0103042;0.00123;0.0156253;0.0243528;0;0.0253553;0.535105
290000;291;25.824;0.0184336;0.000714328;-2.63784;25.6883;-0.175178;-0.243841;-0.0030294;-0.562851;-0.832434;-1.01763;0.0593631;1.31607;-5.87715;0.00013341;-0.000290676;-0.00344811;0.000156848;-0.00347154;0.0018142;0.0386908;25.846;0.00236838;0.00241893;0.045181;22.1332;45.118;90.118;-0.0285133;8.3835e-05;0.00934622;-0.00996218;-0.00349189;0.0270595;0.0268632;0;0.0336562;-1.07838;-1.01179;-0.509507;1.56404;-6.13719;8.621e-05;7.45424e-05;0.00115222;0.00115741;8.10228e-05;0.000538192;-0.0748208;-13.3653;0.000746065;0.00071759;-14.285;-0.0700037;129.145;174.145;-0.0150569;3.44152e-05;0.0103385;-0.0101785;0.00109884;0.0171729;0.0227811;0;0.0331075;0.558068
291000;292;25.8257;0.0202214;0.000783607;-2.63783;25.6901;-0.175487;-0.243825;-0.00123265;-0.56316;-0.832494;-1.02065;0.0592414;1.31844;-5.87727;0.000320717;-0.000359662;-0.00321165;0.000356965;-0.0032479;0.00180243;0.0998603;10.014;0.00229354;0.00240325;0.109906;9.09866;43.4373;88.4373;-0.0287913;0.000272154;0.00911037;-0.00986322;-0.00325322;0.0264222;0.0278729;0;0.0330842;-1.07846;-1.01541;-0.511107;1.56696;-6.13878;0.000132268;0.000170575;0.00125413;0.00127949;0.000106906;0.000586291;-0.105467;-9.48168;0.000819684;0.000781722;-11.9683;-0.083554;124.396;169.396;-0.0144786;8.51131e-05;0.0100656;-0.00971339;0.00120355;0.0149712;0.0208801;0;0.0294292;0.579506
292000;293;25.8254;0.0199119;0.000771613;-2.63776;25.6898;-0.178107;-0.243754;-0.00155453;-0.56578;-0.832038;-1.02473;0.0604729;1.32137;-5.87604;0.000270744;-0.000263363;-0.00337735;0.000289659;-0.00339627;0.00184296;0.0801647;12.4743;0.00236665;0.00245728;0.0852875;11.725;45.3731;90.3731;-0.0282762;0.000222519;0.00926412;-0.0098257;-0.00342037;0.0254098;0.0274029;0;0.0316995;-1.07839;-1.0197;-0.512356;1.57011;-6.14003;-4.67007e-05;0.00045899;0.00143451;0.00156521;-0.000177398;0.000871304;0.0325551;30.7172;0.00110735;0.00116174;8.82318;0.113338;116.94;161.94;-0.0140473;-9.01856e-05;0.0102692;-0.00933673;0.00138197;0.0161466;0.0218119;0;0.0288771;0.60127
293000;294;25.8258;0.0202616;0.000785164;-2.6381;25.6901;-0.180347;-0.244093;-0.00125341;-0.56802;-0.83245;-1.02725;0.0572201;1.32344;-5.87929;0.000331844;-0.000465388;-0.00372266;0.000384577;-0.00377539;0.00207998;0.0891418;11.2181;0.00265442;0.00277331;0.101864;9.81699;43.3718;88.3718;-0.0284445;0.000280548;0.0091711;-0.010141;-0.00376476;0.0273419;0.0273661;0;0.0315411;-1.07914;-1.02334;-0.515933;1.57415;-6.14361;-4.68313e-05;0.000611589;0.00136916;0.00159674;-0.000274409;0.000935576;0.0342043;29.2361;0.00116677;0.00124743;5.81884;0.171856;112.532;157.532;-0.0136335;-8.94875e-05;0.0104935;-0.00925639;0.00131437;0.0156542;0.0221984;0;0.0291051;0.622273
294000;295;25.8259;0.0203367;0.000788075;-2.6371;25.6902;-0.182895;-0.243098;-0.00109381;-0.570568;-0.832048;-1.02745;0.0541792;1.32321;-5.88233;0.000160402;-0.000602265;-0.00361998;0.000254032;-0.00371361;0.00198382;0.0443102;22.5682;0.00256461;0.00264509;0.0684057;14.6187;41.114;86.114;-0.0286783;0.000108087;0.00900636;-0.0102473;-0.0036605;0.0275739;0.027632;0;0.0314118;-1.07859;-1.02374;-0.521964;1.57603;-6.14964;-0.000246809;0.000659429;0.00137025;0.00160507;-0.000481624;0.00104335;0.18012;5.55186;0.00126161;0.00139113;3.33262;0.300065;113.583;158.583;-0.0136121;-0.000286227;0.0102365;-0.00890222;0.00131815;0.0153063;0.0224249;0;0.0290142;0.642947
295000;296;25.8257;0.0201693;0.000781587;-2.63737;25.69;-0.18459;-0.243367;-0.0013018;-0.572263;-0.831968;-1.0316;0.0554614;1.32644;-5.88105;0.000272806;-0.000676932;-0.00378568;0.000382737;-0.00389561;0.00213917;0.0720627;13.8768;0.0027336;0.00285223;0.0982483;10.1783;40.829;85.829;-0.0284727;0.000220253;0.00888295;-0.0102757;-0.00382505;0.0277296;0.030544;0;0.0345758;-1.07856;-1.02832;-0.522631;1.5792;-6.15031;-0.000213536;0.00073835;0.00137989;0.00166942;-0.00050306;0.00108624;0.154748;6.46211;0.00131316;0.00144832;3.31853;0.301338;111.712;156.712;-0.0139577;-0.000252456;0.0103444;-0.00885246;0.00132674;0.0167871;0.0246674;0;0.0311042;0.669951
296000;297;25.8267;0.0211274;0.000818715;-2.63758;25.691;-0.182756;-0.243577;-0.000347125;-0.570429;-0.832237;-1.03422;0.0566713;1.3287;-5.87984;0.000535233;-0.000337341;-0.00307585;0.000566477;-0.0031071;0.00183679;0.174011;5.74676;0.00228376;0.00244905;0.182317;5.48495;43.4397;88.4397;-0.028351;0.000488212;0.00899743;-0.0097059;-0.0031164;0.0289888;0.0287976;0;0.0317308;-1.07908;-1.03149;-0.522013;1.58142;-6.14969;-0.00010493;0.000669136;0.00130049;0.00156811;-0.000372552;0.000970331;0.0806851;12.3939;0.00118921;0.00129378;4.20911;0.23758;111.304;156.304;-0.0141099;-0.00014576;0.0104126;-0.00906074;0.00124657;0.0168123;0.0251966;0;0.0282127;0.691096
297000;298;25.8263;0.0208146;0.000806594;-2.63763;25.6906;-0.184177;-0.243626;-0.000676693;-0.57185;-0.831615;-1.03677;0.0550341;1.33023;-5.88148;0.000322518;-0.000415819;-0.00343221;0.000368017;-0.0034777;0.00192286;0.0939681;10.6419;0.00245037;0.00256381;0.105822;9.44985;43.3268;88.3268;-0.028459;0.000274536;0.00893956;-0.00980641;-0.00347222;0.0283465;0.0275391;0;0.0313025;-1.07855;-1.03455;-0.523599;1.58358;-6.15128;-0.000301346;0.000557812;0.00123252;0.00141392;-0.000482748;0.000948336;0.244495;4.09006;0.00113818;0.00126445;2.9289;0.341425;115.5;160.5;-0.0152278;-0.000345043;0.0104945;-0.00936368;0.00117768;0.0169345;0.0248504;0;0.0260173;0.712793
298000;299;25.8256;0.0200328;0.000776297;-2.63731;25.6898;-0.191357;-0.243307;-0.00148244;-0.57903;-0.831486;-1.03994;0.0549811;1.33262;-5.88153;0.000199398;-0.000219758;-0.00286822;0.000215061;-0.00288389;0.00154947;0.0695198;14.3844;0.00199814;0.00206596;0.0745735;13.4096;44.8621;89.8621;-0.0287362;0.000153819;0.00908299;-0.00955111;-0.00290957;0.0282034;0.0278611;0;0.030124;-1.07862;-1.03761;-0.527045;1.58677;-6.15472;-0.000277847;0.000449442;0.00133011;0.00144721;-0.000394944;0.000921076;0.20889;4.7872;0.00111991;0.0012281;3.66433;0.272901;118.747;163.747;-0.0160217;-0.000323252;0.0104534;-0.00953853;0.00127564;0.0189249;0.0259064;0;0.0246195;0.737376
299000;300;25.8274;0.0218918;0.000848337;-2.6373;25.6917;-0.190674;-0.243301;0.00039213;-0.578346;-0.829591;-1.04094;0.0500966;1.33203;-5.88642;0.000139257;-0.000577843;-0.00252615;0.000259138;-0.00264603;0.00145258;0.0551263;18.1402;0.00185644;0.00193678;0.0979348;10.2109;36.7561;81.7561;-0.0291308;8.94196e-05;0.00882028;-0.010001;-0.00256498;0.0302728;0.0287045;0;0.0292569;-1.07674;-1.04005;-0.533199;1.58915;-6.16088;-0.000396801;0.000381035;0.00126706;0.00135017;-0.000479909;0.000915041;0.313165;3.1932;0.0010957;0.00122005;2.8134;0.355442;121.368;166.368;-0.0167106;-0.000448831;0.0109857;-0.010206;0.00120687;0.0167418;0.0273445;0;0.0254652;0.762374
300000;301;25.8272;0.0216767;0.000840001;-2.6381;25.6914;-0.194638;-0.244101;6.40083e-05;-0.582311;-0.829472;-1.04389;0.0500237;1.33426;-5.88649;2.67857e-05;-0.00071222;-0.00235294;0.000223657;-0.00254981;0.00138673;0.011384;87.8428;0.00177912;0.00184898;0.0877154;11.4005;32.9275;77.9275;-0.0286774;-2.44776e-05;0.00870373;-0.0101506;-0.00239065;0.0285608;0.0285583;0;0.0331408;-1.07685;-1.04406;-0.534583;1.59231;-6.16226;-0.000178942;3.6836e-05;0.00142328;0.00142412;-0.000179788;0.000801956;0.125725;7.95385;0.00101467;0.00106928;7.92111;0.126245;131.829;176.829;-0.0172164;-0.000233034;0.0104906;-0.0104002;0.00136833;0.0186307;0.0279018;0;0.025029;0.782878
301000;302;25.8282;0.0227228;0.000880539;-2.63788;25.6924;-0.198385;-0.243882;0.00110946;-0.586058;-0.828712;-1.04683;0.0451867;1.33591;-5.89133;-0.000179729;-0.000666995;-0.00189951;4.8634e-05;-0.00212787;0.00108825;-0.0946187;-10.5687;0.00143506;0.001451;0.0228558;43.7526;29.0253;74.0253;-0.0292268;-0.000233109;0.0090024;-0.010353;-0.00193988;0.030446;0.0275545;0;0.0332823;-1.07622;-1.04825;-0.541271;1.59689;-6.16895;-0.000278513;-0.000205948;0.00154775;0.00157069;-0.00030145;0.000936069;0.179947;5.55719;0.00116073;0.00124809;5.21044;0.191922;139.547;4.54667;-0.0175492;-0.000341237;0.0108087;-0.0112005;0.00148945;0.0156716;0.0278705;0;0.0232566;0.80699
302000;303;25.829;0.0234388;0.000908286;-2.63786;25.6931;-0.200962;-0.243853;0.00181221;-0.588635;-0.828461;-1.04975;0.0490042;1.33818;-5.88751;-0.000136091;-0.000700617;-0.00139094;0.000176977;-0.00170401;0.000940491;-0.0978411;-10.2207;0.00119936;0.00125399;0.103859;9.6284;23.0615;68.0615;-0.0290141;-0.000188815;0.00887865;-0.0102919;-0.00143016;0.0297887;0.0284203;0;0.0326399;-1.07627;-1.05175;-0.540488;1.59896;-6.16817;-0.000161772;2.5054e-05;0.00164296;0.00164331;-0.00016212;0.000902714;0.098464;10.156;0.00115338;0.00120362;10.1364;0.0986548;132.11;177.11;-0.0171336;-0.000221163;0.0109675;-0.0108977;0.00158291;0.0147544;0.0264812;0;0.0316401;0.830891
303000;304;25.8303;0.0247633;0.000959612;-2.63806;25.6944;-0.205198;-0.244062;0.00308882;-0.592871;-0.827265;-1.05159;0.0457778;1.33877;-5.89073;-0.000486179;-0.000615326;-0.000839052;-2.24945e-05;-0.00130274;0.000640121;-0.579439;-1.72581;0.000861091;0.000853495;-0.0172671;-57.9137;9.85015;54.8502;-0.0287924;-0.000537542;0.00891746;-0.0101514;-0.000878658;0.0293891;0.0269325;0;0.0326376;-1.07523;-1.05467;-0.545325;1.60182;-6.173;-0.000151331;7.10977e-05;0.00178474;0.00178735;-0.000153938;0.000970645;0.0847914;11.7937;0.00124605;0.00129419;11.6108;0.0861265;130.592;175.592;-0.0166659;-0.000209341;0.0109337;-0.0107705;0.00172508;0.0157149;0.0268669;0;0.0301948;0.853353
304000;305;25.8318;0.0262454;0.00101705;-2.63694;25.696;-0.206335;-0.242935;0.00468538;-0.594008;-0.826129;-1.0549;0.0458275;1.34067;-5.89069;-0.000250101;-0.000627782;-0.000464037;0.000279761;-0.000993898;0.00063683;-0.538969;-1.8554;0.000772918;0.000849106;0.281478;3.55267;5.77192;50.7719;-0.02891;-0.000301444;0.00889384;-0.0101514;-0.000503409;0.0292568;0.0265042;0;0.0339437;-1.07409;-1.0586;-0.548648;1.60478;-6.17633;-9.58771e-05;0.00024844;0.00180354;0.00183549;-0.000127835;0.000981665;0.0531606;18.8109;0.00126842;0.00130889;14.3583;0.0696461;125.255;170.255;-0.0164154;-0.000151453;0.0110625;-0.0105452;0.00174249;0.015881;0.0273947;0;0.0341314;0.878033
305000;306;25.8336;0.0281223;0.00108978;-2.63643;25.6979;-0.207425;-0.242431;0.0066151;-0.595098;-0.825439;-1.05598;0.0391304;1.34089;-5.89738;-0.000527023;-0.000842677;-0.000344302;0.000411952;-0.00128328;0.000847615;-1.5307;-0.653296;0.00102093;0.00113015;0.321015;3.11512;178.019;43.0195;-0.0296879;-0.000584728;0.0090894;-0.0107728;-0.000385271;0.0298913;0.0259312;0;0.0330049;-1.07342;-1.06113;-0.556156;1.60859;-6.18383;-4.95806e-05;0.000320819;0.00182487;0.00187826;-0.000102969;0.000990613;0.0271694;36.8061;0.00128787;0.00132082;18.2409;0.0548217;123.018;168.018;-0.0151087;-0.000102872;0.0109901;-0.0103285;0.00176464;0.0139269;0.0259282;0;0.0313336;0.901005
306000;307;25.8352;0.0296555;0.00114919;-2.6367;25.6994;-0.20839;-0.242693;0.00812164;-0.596063;-0.824961;-1.05811;0.0382449;1.34224;-5.89827;-0.000456804;-0.000762641;0.000359649;0.000816449;-0.000913604;0.000865026;1.27014;0.787314;0.000999371;0.00115337;0.893657;1.119;165.919;30.9193;-0.0294428;-0.000513278;0.00913534;-0.0106525;0.000318226;0.0279299;0.0241107;0;0.0339341;-1.07302;-1.06424;-0.561033;1.61206;-6.18871;5.2099e-05;0.000479678;0.00192365;0.00203943;-6.36796e-05;0.00105156;-0.0270834;-36.923;0.00138134;0.00140207;32.0264;0.0312242;118.543;163.543;-0.0157119;4.0683e-06;0.0107915;-0.00981296;0.00186565;0.0159112;0.0248186;0;0.0299121;0.92868
307000;308;25.8362;0.0306484;0.00118767;-2.63531;25.7006;-0.208144;-0.241304;0.00926428;-0.595817;-0.824307;-1.06227;0.0383284;1.34513;-5.89818;-0.000582932;-0.00102404;0.000663403;0.00123898;-0.00115851;0.00119875;0.878699;1.13805;0.00138445;0.00159833;1.06946;0.935051;164.08;29.0803;-0.0299007;-0.000643541;0.00901859;-0.0110541;0.000623286;0.0279765;0.0226157;0;0.0443714;-1.07226;-1.06938;-0.563177;1.6157;-6.19085;0.000122445;0.000651212;0.00187063;0.00208654;-9.34702e-05;0.00109001;-0.0654565;-15.2773;0.00142321;0.00145334;22.3231;0.0447967;113.6;158.6;-0.0132272;8.12866e-05;0.010416;-0.00909663;0.00181669;0.0132099;0.0236529;0;0.0375812;0.949778
308000;309;25.837;0.031484;0.00122005;-2.63687;25.7013;-0.206103;-0.242864;0.00996072;-0.593776;-0.824517;-1.06459;0.0392638;1.34712;-5.89725;-0.0007199;-0.000792561;0.000627458;0.00099397;-0.00108641;0.00104019;1.14733;0.87159;0.0012015;0.00138692;0.914911;1.093;159.805;24.805;-0.0299242;-0.000778521;0.00928128;-0.0108528;0.000584727;0.0280993;0.0230719;0;0.0363018;-1.073;-1.07164;-0.561976;1.61727;-6.18965;-0.000148802;0.000663742;0.00196788;0.00215879;-0.000339716;0.00124925;0.0756154;13.2248;0.00156477;0.00166567;6.35468;0.157364;116.129;161.129;-0.0137259;-0.000189135;0.0103531;-0.00900522;0.00191461;0.0146198;0.0230506;0;0.0285006;0.974247
309000;310;25.8364;0.0308835;0.00119678;-2.63513;25.7008;-0.210529;-0.241129;0.00949913;-0.598202;-0.822587;-1.06772;0.0405213;1.34845;-5.89599;-0.000448966;-0.00028402;0.00114372;0.00119285;-0.000498099;0.000845474;0.39255;2.54745;0.00100336;0.0011273;2.39481;0.41757;143.676;8.67626;-0.029416;-0.000501727;0.00972181;-0.0102739;0.00109655;0.0257236;0.0222888;0;0.0346315;-1.07087;-1.07477;-0.564777;1.61891;-6.19246;0.000276812;0.000775702;0.00190561;0.00221591;-3.3493e-05;0.0011247;-0.145262;-6.88411;0.00148856;0.0014996;66.1604;0.0151148;109.892;154.892;-0.01408;0.00023606;0.0106297;-0.00906237;0.00184952;0.0151049;0.0267747;0;0.028063;1.00039
310000;311;25.8376;0.0320577;0.00124228;-2.6361;25.7019;-0.207756;-0.2421;0.0106026;-0.595429;-0.822052;-1.07049;0.0376903;1.35024;-5.89882;-0.000643668;-0.000474913;0.00149297;0.00159377;-0.000744471;0.00116912;0.431132;2.31947;0.00137935;0.00155883;2.14081;0.467112;145.639;10.6391;-0.0292175;-0.000699812;0.00967561;-0.0106037;0.00144634;0.0242424;0.0221786;0;0.0380096;-1.07096;-1.07868;-0.565404;1.62178;-6.19308;3.30381e-05;0.000782792;0.00187697;0.00216446;-0.000254453;0.00120946;-0.0176019;-56.8122;0.00153484;0.00161261;8.50633;0.11756;111.783;156.783;-0.0132234;-3.29531e-06;0.0101432;-0.00856042;0.00182593;0.0118841;0.0261303;0;0.0286585;1.02664
311000;312;25.8368;0.0312288;0.00121016;-2.63596;25.7011;-0.212739;-0.241958;0.00974312;-0.600411;-0.820561;-1.07238;0.0354972;1.35077;-5.90102;-0.000574666;-0.00021306;0.00239507;0.00241028;-0.000589874;0.00150008;0.239937;4.16777;0.00183535;0.0020001;4.0861;0.244732;136.341;1.34066;-0.029181;-0.000626782;0.00981214;-0.0102085;0.00234707;0.0243188;0.0208703;0;0.0449549;-1.06933;-1.08096;-0.570778;1.62411;-6.19846;0.00019843;0.00071718;0.00195784;0.00221313;-5.68669e-05;0.001135;-0.101352;-9.86665;0.00149474;0.00151333;38.9178;0.0256952;111.931;156.931;-0.0138855;0.000162759;0.00992803;-0.00847756;0.00190891;0.0144066;0.0272198;0;0.0304985;1.05123
312000;313;25.8371;0.0315919;0.00122423;-2.6355;25.7015;-0.210856;-0.241496;0.010171;-0.598529;-0.819678;-1.07546;0.0343616;1.35265;-5.90215;-0.000757597;-0.000657802;0.00288188;0.00299713;-0.00087284;0.00193498;0.262883;3.80398;0.00234384;0.00257998;3.43376;0.291226;141.796;6.79597;-0.0296135;-0.000815349;0.00948443;-0.0107632;0.00283725;0.0254232;0.0188687;0;0.0358034;-1.06853;-1.08453;-0.571124;1.62608;-6.1988;0.000276904;0.000501497;0.00201082;0.00214541;0.000142305;0.00100155;-0.137707;-7.26177;0.00138528;0.00133541;-15.0761;-0.0663301;116.276;161.276;-0.014071;0.000239818;0.00964683;-0.00862805;0.0019645;0.0106067;0.0285933;0;0.0259821;1.07812
313000;314;25.837;0.0314392;0.00121831;-2.63453;25.7014;-0.208323;-0.240526;0.0101375;-0.595996;-0.817867;-1.08249;0.0469996;1.35753;-5.88951;-0.000611017;-0.000793586;0.00436739;0.00449083;-0.000734459;0.00261265;0.139904;7.14774;0.00326635;0.00348353;6.11448;0.163546;138.336;3.3364;-0.0283357;-0.00066791;0.00915527;-0.010693;0.00432598;0.0229107;0.015812;0;0.0334064;-1.06621;-1.09201;-0.558909;1.62532;-6.18659;0.000112403;0.000445281;0.00193808;0.0020409;9.58905e-06;0.00101565;-0.0579968;-17.2423;0.00135741;0.0013542;;;118.56;163.56;-0.0147494;7.74041e-05;0.00928528;-0.00837865;0.00189516;0.0121025;0.027801;0;0.0252013;1.10265
314000;315;25.8396;0.0340467;0.00131936;-2.63604;25.7039;-0.206501;-0.242038;0.0126185;-0.594174;-0.817131;-1.08102;0.036182;1.35559;-5.90033;-0.000493652;-0.000324636;0.00420556;0.00422788;-0.000515973;0.00237193;0.117381;8.51929;0.00300538;0.00316257;8.194;0.12204;133.391;178.391;-0.0285303;-0.000543969;0.00943068;-0.0100343;0.00416133;0.0229818;0.0156347;0;0.0358556;-1.06591;-1.09194;-0.569067;1.6286;-6.19674;0.000460352;0.000400902;0.00199458;0.00209302;0.00036191;0.000865555;-0.230802;-4.33273;0.00129172;0.00115407;-5.78326;-0.172913;117.305;162.305;-0.0154756;0.00042102;0.00969624;-0.00888023;0.00194774;0.0144383;0.0255697;0;0.0245408;1.12696
315000;316;25.8401;0.0345982;0.00134073;-2.63645;25.7044;-0.208715;-0.242447;0.0131131;-0.596388;-0.816924;-1.08263;0.0294848;1.35658;-5.90703;-0.000407173;-0.000480128;0.00455891;0.00460491;-0.000453167;0.00252904;0.0893137;11.1965;0.0032316;0.00337205;10.1616;0.0984096;134.419;179.419;-0.0286795;-0.000460995;0.00947298;-0.010384;0.00451436;0.0248986;0.0186382;0;0.0321347;-1.06597;-1.09483;-0.575305;1.63277;-6.20298;0.000249313;0.000108307;0.00214868;0.00215483;0.000243157;0.000955838;-0.116031;-8.61838;0.00136275;0.00127445;-8.86189;-0.112843;127.975;172.975;-0.0157637;0.000206258;0.00951576;-0.00928133;0.0021035;0.0115359;0.0273809;0;0.0241145;1.15202
316000;317;25.8408;0.0352682;0.00136669;-2.63707;25.705;-0.216553;-0.243064;0.0136585;-0.604225;-0.816881;-1.08388;0.0261382;1.35749;-5.91037;-0.000558369;-0.000383581;0.00425618;0.00428654;-0.000588737;0.00243764;0.13119;7.62252;0.0030728;0.00325019;7.28091;0.137345;134.096;179.096;-0.0286059;-0.00061105;0.00954927;-0.0102688;0.00421085;0.0253597;0.0184699;0;0.0373727;-1.06682;-1.0965;-0.582745;1.63707;-6.21042;0.000330946;-6.57296e-05;0.00207321;0.00207569;0.000328469;0.000873611;-0.159629;-6.26452;0.00128834;0.00116481;-6.31928;-0.158246;133.455;178.455;-0.0168957;0.000284191;0.00955696;-0.00967168;0.00202764;0.0127398;0.0278267;0;0.0222036;1.17842
317000;318;25.8432;0.037664;0.00145953;-2.6384;25.7073;-0.212082;-0.244402;0.0159669;-0.599755;-0.81469;-1.08835;0.0272302;1.35977;-5.90928;-0.00065915;-0.000194808;0.00483172;0.00483862;-0.000666053;0.00275234;0.136422;7.33022;0.00346914;0.00366978;7.26461;0.137654;130.891;175.891;-0.0282063;-0.000709133;0.00966099;-0.00999673;0.00478529;0.0226349;0.0143562;0;0.0330728;-1.06534;-1.10193;-0.583212;1.63991;-6.21089;0.000368956;-0.000309701;0.00237801;0.00242466;0.000322298;0.00105118;-0.155153;-6.44524;0.00152044;0.00140158;-7.52305;-0.132925;139.38;4.38043;-0.0158904;0.000319421;0.00935989;-0.00995988;0.00233435;0.00889944;0.0295435;0;0.0225404;1.2035
318000;319;25.8441;0.0385458;0.0014937;-2.63829;25.7081;-0.21913;-0.24429;0.0168057;-0.606803;-0.814544;-1.08976;0.0242181;1.36075;-5.91229;-0.000725337;-0.000133297;0.00489335;0.00489651;-0.000728497;0.00281251;0.148229;6.74632;0.0035323;0.00375001;6.72139;0.148779;130.198;175.198;-0.0289317;-0.000774226;0.00967372;-0.00988547;0.0048468;0.024081;0.0165213;0;0.0326032;-1.06518;-1.10522;-0.587043;1.64339;-6.21472;0.000442209;-0.000135815;0.00258872;0.00259728;0.00043365;0.00108182;-0.170821;-5.85407;0.0016066;0.00144242;-5.98936;-0.166963;133.988;178.988;-0.0159084;0.000394771;0.00949235;-0.00974335;0.0025438;0.0105582;0.0306382;0;0.0272803;1.22751
319000;320;25.849;0.0434556;0.00168397;-2.63928;25.713;-0.211087;-0.24528;0.0217072;-0.59876;-0.812938;-1.09272;0.023966;1.36216;-5.91255;-0.000909604;-0.000248193;0.00540969;0.00541942;-0.000919337;0.00316938;0.168143;5.9473;0.00395517;0.00422584;5.89493;0.169637;130.527;175.527;-0.0280457;-0.000958133;0.00941473;-0.00985036;0.00536564;0.0228765;0.015146;0;0.030157;-1.06442;-1.11072;-0.58659;1.64644;-6.21427;0.000414682;-0.000123804;0.00264212;0.00264898;0.000407822;0.00112058;-0.156951;-6.37143;0.00164696;0.0014941;-6.49543;-0.153954;133.386;178.386;-0.0144871;0.000370069;0.00922169;-0.00944852;0.00259971;0.00849642;0.0310226;0;0.0286166;1.25432
320000;321;25.8489;0.0433329;0.00167921;-2.63885;25.7129;-0.213799;-0.244846;0.0216061;-0.601472;-0.813373;-1.09657;0.0258865;1.36555;-5.91063;-0.000430685;-0.000288807;0.00570614;0.0057197;-0.000444247;0.00308197;0.0754776;13.249;0.00396951;0.0041093;12.875;0.0776697;129.945;174.945;-0.0289626;-0.000480405;0.00945569;-0.00997382;0.00566173;0.0242472;0.0151457;0;0.0318385;-1.06436;-1.1148;-0.586767;1.64922;-6.21444;0.000425845;-2.43985e-05;0.0028206;0.00282085;0.000425596;0.00119763;-0.150977;-6.62355;0.00175598;0.00159684;-6.628;-0.150875;130.485;175.485;-0.0146291;0.000382698;0.0092648;-0.00929141;0.00277781;0.00851922;0.0296992;0;0.0343127;1.28124
321000;322;25.8524;0.0468526;0.0018156;-2.6402;25.7164;-0.207473;-0.246196;0.0250576;-0.595146;-0.812236;-1.09884;0.0236678;1.36665;-5.91284;-0.000547091;-0.000136471;0.00562491;0.00562793;-0.000550107;0.00308902;0.0972621;10.2815;0.00394812;0.00411869;10.2306;0.0977459;128.815;173.815;-0.0281608;-0.000595608;0.00963582;-0.00984878;0.00557876;0.0239497;0.0144565;0;0.0299067;-1.06382;-1.11902;-0.588542;1.65237;-6.21622;0.000550455;0.000222878;0.0028094;0.00283118;0.000528675;0.00115125;-0.195934;-5.10377;0.00173824;0.001535;-5.35523;-0.186733;124.18;169.18;-0.0136136;0.000509089;0.00956772;-0.00910093;0.00276378;0.0075554;0.0282435;0;0.0337667;1.3043
322000;323;25.8517;0.0462262;0.00179133;-2.63872;25.7159;-0.211322;-0.244717;0.0245482;-0.598995;-0.812156;-1.10223;0.0238406;1.36933;-5.91267;-0.00116861;-0.000725522;0.00654009;0.00660778;-0.0012363;0.00392204;0.178684;5.59647;0.00486988;0.00522939;5.3448;0.187098;132.524;177.524;-0.0290493;-0.0012235;0.00912117;-0.0104967;0.00649902;0.0255994;0.0141077;0;0.0322156;-1.06376;-1.12261;-0.588989;1.65491;-6.21667;0.000501753;0.000465752;0.00262199;0.00271979;0.000403953;0.00115792;-0.191364;-5.22566;0.00169467;0.00154389;-6.73294;-0.148524;118.058;163.058;-0.0132093;0.000465997;0.00942174;-0.00847133;0.00257783;0.0110018;0.0266734;0;0.0335663;1.33101
323000;324;25.8522;0.046721;0.0018105;-2.63902;25.7163;-0.213136;-0.245017;0.025;-0.600809;-0.81015;-1.10336;0.0190363;1.36898;-5.91748;-0.0010175;-0.000712618;0.00662994;0.00669578;-0.00108334;0.00388956;0.153471;6.51589;0.00486534;0.00518608;6.18068;0.161795;132.069;177.069;-0.028353;-0.00107123;0.00903423;-0.0103854;0.00658965;0.026013;0.0132307;0;0.0301322;-1.0624;-1.12537;-0.595753;1.65834;-6.22343;0.000554349;0.000569501;0.00259749;0.00274551;0.000406331;0.00116959;-0.213417;-4.68565;0.00171105;0.00155945;-6.75682;-0.147999;115.142;160.142;-0.0128233;0.00052193;0.00923113;-0.00807452;0.00255515;0.0100273;0.0287933;0;0.0316598;1.35814
324000;325;25.8536;0.0480935;0.00186369;-2.63875;25.7177;-0.211308;-0.244745;0.0264227;-0.59898;-0.811017;-1.10535;0.0190859;1.3711;-5.91743;-0.00113502;-0.000824694;0.00708422;0.00716615;-0.00121695;0.00419155;0.160218;6.24149;0.00523049;0.00558873;5.88861;0.169819;132.115;177.115;-0.0292206;-0.00119123;0.00906027;-0.0106289;0.0070438;0.0255579;0.0115658;0;0.032625;-1.063;-1.12809;-0.597181;1.66108;-6.22486;0.000434052;0.000640641;0.00252121;0.00270216;0.0002531;0.00122453;-0.17216;-5.80854;0.00172328;0.00163271;-10.6763;-0.0936657;114.346;159.346;-0.0136752;0.000400836;0.00947716;-0.00817753;0.00247662;0.0122432;0.0292746;0;0.0312627;1.38173
325000;326;25.8551;0.0495932;0.00192181;-2.63983;25.7192;-0.207559;-0.245829;0.0278496;-0.595232;-0.809814;-1.10664;0.0128126;1.37136;-5.9237;-0.00112;-0.000957693;0.00603466;0.00616063;-0.00124597;0.0037033;0.185595;5.38809;0.00457927;0.00493774;4.94443;0.202248;135.262;0.261948;-0.0288397;-0.00117639;0.00881057;-0.0106564;0.00599653;0.0246001;0.015074;0;0.0371478;-1.0625;-1.13137;-0.601318;1.66448;-6.229;0.0005721;0.000546684;0.00259893;0.00273698;0.000434049;0.00115147;-0.220129;-4.54279;0.00169856;0.00153529;-6.3057;-0.158587;115.565;160.565;-0.013675;0.000538677;0.00930754;-0.0081965;0.00255588;0.0108208;0.0296005;0;0.0342649;1.40864
326000;327;25.855;0.0495128;0.00191869;-2.64029;25.719;-0.206483;-0.246289;0.0277303;-0.594156;-0.809005;-1.11011;0.0141554;1.37369;-5.92236;-0.00110218;-0.000899603;0.00673285;0.00683481;-0.00120415;0.00401948;0.163702;6.10865;0.00500643;0.0053593;5.67607;0.176178;133.343;178.343;-0.0283822;-0.00115925;0.00899315;-0.0107153;0.00669308;0.022531;0.0125497;0;0.0371066;-1.06196;-1.13499;-0.600073;1.66614;-6.22775;0.000466672;0.000429842;0.00285033;0.00292548;0.000391528;0.00126697;-0.163725;-6.10778;0.00183379;0.0016893;-7.47195;-0.133834;119.458;164.458;-0.0139269;0.000434025;0.00897369;-0.00809373;0.00281027;0.0102175;0.0301986;0;0.0310222;1.43547
327000;328;25.857;0.0514616;0.00199421;-2.64194;25.7209;-0.203124;-0.247941;0.0295464;-0.590797;-0.807265;-1.11093;0.00492039;1.37327;-5.93159;-0.0012887;-0.00147633;0.00570565;0.0060045;-0.00158755;0.00379602;0.225864;4.42744;0.00462394;0.00506137;3.78224;0.264393;139.988;4.98761;-0.0308244;-0.00135164;0.00842486;-0.0113085;0.00567144;0.0268205;0.0128562;0;0.0439867;-1.06097;-1.13725;-0.608186;1.67;-6.23586;0.000262251;0.000323844;0.00271796;0.00275995;0.000220262;0.00126985;-0.0964879;-10.364;0.00177112;0.00169313;-12.5303;-0.0798065;122.563;167.563;-0.0146486;0.000228277;0.0089191;-0.00825039;0.00267835;0.0117008;0.0272902;0;0.0310234;1.46007
328000;329;25.8573;0.0517634;0.0020059;-2.64078;25.7212;-0.207369;-0.246779;0.0299353;-0.595041;-0.806549;-1.11279;0.00290371;1.37435;-5.93361;-0.00124471;-0.000970672;0.00608964;0.00621593;-0.001371;0.00379347;0.204399;4.8924;0.00466855;0.00505796;4.53385;0.220563;135.172;0.172317;-0.0292945;-0.0012996;0.00864411;-0.0105153;0.00605297;0.0249843;0.0136295;0;0.0408697;-1.06048;-1.14069;-0.608988;1.67232;-6.23667;0.000518691;7.56301e-05;0.00261387;0.00261659;0.000515964;0.00105031;-0.198438;-5.03936;0.00160038;0.00140042;-5.07127;-0.197189;127.634;172.634;-0.0148237;0.000482654;0.00866124;-0.00849204;0.00257646;0.0123972;0.0270457;0;0.0270825;1.48632
329000;330;25.8577;0.0521972;0.00202271;-2.64186;25.7216;-0.203214;-0.247856;0.0302939;-0.590886;-0.80617;-1.11595;0.00198027;1.37668;-5.93453;-0.00108707;-0.000927166;0.00617464;0.00629115;-0.00120358;0.00374736;0.176054;5.68009;0.00464753;0.00499649;5.22704;0.191313;134.763;179.763;-0.0287452;-0.00114423;0.00894388;-0.0107269;0.00613532;0.0228431;0.0157297;0;0.0405859;-1.06027;-1.14358;-0.612027;1.67527;-6.2397;0.000391602;-5.96889e-05;0.00274877;0.00275028;0.000390091;0.0011801;-0.142464;-7.01931;0.00171832;0.00157346;-7.05036;-0.141837;131.281;176.281;-0.0156106;0.000352154;0.00878555;-0.00888413;0.00271029;0.0116365;0.0291661;0;0.0274133;1.51243
330000;331;25.8602;0.0546756;0.00211876;-2.64252;25.724;-0.201162;-0.248512;0.0327342;-0.588835;-0.804152;-1.1177;-0.00041631;1.37693;-5.93693;-0.000934477;-0.0011478;0.00555524;0.00575227;-0.0011315;0.00344188;0.168215;5.94476;0.00426237;0.00458918;5.08375;0.196705;137.821;2.82116;-0.0278697;-0.00099116;0.00847055;-0.010704;0.00552022;0.0212426;0.0176019;0;0.0408105;-1.05845;-1.14671;-0.61275;1.67652;-6.24043;0.00033689;-0.000294534;0.00266101;0.00269776;0.000300145;0.00119881;-0.126602;-7.89875;0.00170727;0.00159841;-8.98818;-0.111257;137.181;2.1812;-0.0158222;0.000295115;0.00857827;-0.00914675;0.00262436;0.0115827;0.0270937;0;0.0276227;1.53826
331000;332;25.8617;0.0561995;0.00217781;-2.64234;25.7256;-0.204786;-0.248339;0.0342554;-0.592459;-0.803423;-1.12128;0.00286639;1.37941;-5.93365;-0.000991899;-0.00113939;0.0052727;0.00547349;-0.00119269;0.00333309;0.18812;5.31576;0.00410473;0.00444412;4.58919;0.217904;138.586;3.58554;-0.028639;-0.00104898;0.00852159;-0.0107401;0.00523722;0.0223456;0.0166411;0;0.0352518;-1.05816;-1.1518;-0.612176;1.67961;-6.23985;0.000102783;-0.000415914;0.00268854;0.00275379;3.7531e-05;0.00135813;-0.0382301;-26.1574;0.00182348;0.00181084;-73.3738;-0.0136288;139.343;4.34257;-0.0156805;5.93409e-05;0.00852209;-0.00933083;0.00265241;0.0108168;0.0278178;0;0.0365232;1.56506
332000;333;25.8606;0.0551259;0.00213621;-2.64303;25.7244;-0.206706;-0.249028;0.03309;-0.594379;-0.802688;-1.12492;0.00233502;1.38194;-5.93418;-0.000740491;-0.000978324;0.00490026;0.00506512;-0.000905352;0.00298524;0.151112;6.61759;0.00371548;0.00398032;5.59465;0.178742;138.288;3.28794;-0.0280289;-0.000795341;0.00861263;-0.0105154;0.00486383;0.0221095;0.0182984;0;0.040148;-1.05766;-1.15588;-0.613399;1.68255;-6.24108;7.53898e-05;-0.000383737;0.00295417;0.00300445;2.51163e-05;0.00148967;-0.0255197;-39.1853;0.00199465;0.00198622;-119.621;-0.00835971;137.501;2.50114;-0.0150977;3.25319e-05;0.00852461;-0.00926648;0.00291802;0.00988545;0.0281031;0;0.0344022;1.59042
333000;334;25.8632;0.0577007;0.00223598;-2.64282;25.727;-0.205426;-0.248815;0.0357105;-0.593099;-0.80261;-1.12859;0.00569928;1.3849;-5.93081;-0.000852055;-0.00102198;0.00444243;0.00463285;-0.00104248;0.00283766;0.191799;5.21378;0.00348838;0.00378355;4.44409;0.225018;140.139;5.13923;-0.0282182;-0.000908178;0.00864625;-0.0106392;0.00440574;0.0221002;0.0190272;0;0.0360623;-1.05705;-1.16022;-0.612493;1.68482;-6.24017;3.55934e-06;-0.000492871;0.00305372;0.00313138;-7.41054e-05;0.00160274;;;0.00211272;0.00213699;42.2558;0.0236654;138.917;3.91684;-0.0147864;-3.96997e-05;0.00835568;-0.00931448;0.00301903;0.00968048;0.0269351;0;0.0354701;1.61711
334000;335;25.8657;0.0601486;0.00233084;-2.64343;25.7294;-0.210016;-0.249424;0.0380717;-0.597689;-0.801953;-1.13106;0.0043792;1.38652;-5.93213;-0.000937225;-0.00113197;0.00409262;0.00433563;-0.00118024;0.00275793;0.229004;4.36674;0.00335378;0.00367724;3.67353;0.272218;142.307;7.30722;-0.0276641;-0.000993923;0.00848807;-0.0107037;0.00405738;0.0210556;0.0191464;0;0.0347486;-1.05695;-1.16503;-0.613098;1.68829;-6.24078;1.15728e-06;-0.000334226;0.00303808;0.00307443;-3.51906e-05;0.00155481;;;0.00206145;0.00207308;87.365;0.0114462;136.15;1.15009;-0.0135557;-3.99004e-05;0.00842592;-0.00906782;0.00300275;0.0103191;0.0264561;0;0.0391743;1.64409
335000;336;25.8687;0.0631381;0.00244669;-2.64369;25.7324;-0.209017;-0.249686;0.0410583;-0.596689;-0.801521;-1.13312;-0.00394018;1.38795;-5.94045;-0.00053311;-0.000700143;0.00312033;0.00324991;-0.000662689;0.0019563;0.17085;5.85308;0.00241797;0.0026084;4.90413;0.20391;141.465;6.46453;-0.0274055;-0.000584597;0.00880328;-0.0101689;0.00308195;0.0202661;0.0206899;0;0.0343763;-1.05656;-1.16908;-0.624508;1.69501;-6.25219;4.57933e-05;-0.000109614;0.00323599;0.00323975;4.20314e-05;0.00159886;-0.0141512;-70.6652;0.00214596;0.00213181;-77.0793;-0.0129737;131.668;176.668;-0.0134189;4.41419e-06;0.00890738;-0.00909793;0.00319645;0.00937251;0.024245;0;0.0347406;1.67701
336000;337;25.8683;0.0627754;0.00243263;-2.64384;25.732;-0.211778;-0.249842;0.0406551;-0.599451;-0.799756;-1.13662;0.000720143;1.38979;-5.93579;-0.000312895;-0.000839405;0.00242435;0.00266126;-0.000549803;0.00160553;0.129063;7.74813;0.00198301;0.00214071;4.84039;0.206595;147.369;12.3693;-0.0272054;-0.000363272;0.00841747;-0.0100709;0.00238936;0.0227046;0.0222435;0;0.0322957;-1.05504;-1.17257;-0.621373;1.69532;-6.24905;-0.000131938;-3.66226e-05;0.00312121;0.00312162;-0.00013235;0.00162699;0.0422715;23.6566;0.00212657;0.00216931;23.586;0.042398;130.622;175.622;-0.0134391;-0.000169653;0.00863933;-0.00868444;0.00308401;0.0105746;0.022396;0;0.033669;1.6993
337000;338;25.8697;0.0641508;0.00248593;-2.64426;25.7333;-0.213607;-0.250261;0.0419796;-0.60128;-0.799744;-1.13802;-0.00384622;1.39094;-5.94036;-0.000436449;-0.000689661;0.00248012;0.00263497;-0.000591306;0.00161314;0.175979;5.68249;0.00198335;0.00215085;4.45619;0.224407;144.299;9.2987;-0.0259037;-0.000483403;0.00835997;-0.0097129;0.0024455;0.0208689;0.0237228;0;0.0310314;-1.05497;-1.17478;-0.628322;1.69937;-6.256;-0.000192549;0.0001325;0.00321736;0.0032225;-0.00019769;0.0017101;0.059847;16.7093;0.00221717;0.00228013;16.3008;0.0613468;127.63;172.63;-0.0126464;-0.00022776;0.00868597;-0.00839191;0.00317977;0.00937124;0.0239671;0;0.0356594;1.72628
338000;339;25.8713;0.0658244;0.00255079;-2.64361;25.735;-0.212592;-0.249606;0.0437378;-0.600265;-0.798703;-1.14046;-0.00300098;1.39233;-5.93951;-0.000423981;-0.000602339;0.00254532;0.00266286;-0.000541516;0.00160219;0.166572;6.0034;0.00198058;0.00213625;4.91741;0.203359;142.634;7.63399;-0.0275941;-0.000472139;0.00865315;-0.00983036;0.00250816;0.0235161;0.0226694;0;0.0337887;-1.0541;-1.17885;-0.62673;1.70106;-6.25441;-0.00013908;0.000199708;0.00326003;0.00327172;-0.000150773;0.00171125;0.0426623;23.4399;0.0022331;0.00228166;21.6996;0.0460838;126.233;171.233;-0.0128897;-0.000172163;0.00856382;-0.00813608;0.0032235;0.0104025;0.0250947;0;0.0347593;1.74898
339000;340;25.8725;0.0669364;0.00259388;-2.64399;25.7361;-0.213489;-0.249992;0.0448086;-0.601162;-0.79854;-1.14282;-0.00280396;1.39417;-5.93932;-0.000332899;-0.000948194;0.0020308;0.00236415;-0.000666253;0.0015152;0.163926;6.10033;0.00183887;0.00202027;3.54842;0.281815;151.616;16.6163;-0.0269474;-0.000384419;0.00831873;-0.0101932;0.00199671;0.0219016;0.0233808;0;0.0328943;-1.05378;-1.18195;-0.62743;1.70327;-6.25511;-0.000146643;0.00015436;0.00303085;0.00303833;-0.000154124;0.00159623;0.0483834;20.6682;0.00207883;0.0021283;19.7135;0.0507265;127.151;172.151;-0.013215;-0.000179359;0.00842475;-0.00808984;0.00299548;0.010328;0.0282899;0;0.0344633;1.77617
340000;341;25.8727;0.0672113;0.00260453;-2.64342;25.7365;-0.210363;-0.249421;0.0451694;-0.598036;-0.79815;-1.14751;0.000316873;1.39779;-5.9362;-0.000427093;-0.00102027;0.00160001;0.00202459;-0.000851676;0.00143813;0.266932;3.74628;0.00170602;0.00191751;2.37719;0.420666;155.609;20.6095;-0.0276671;-0.000477145;0.00803264;-0.0100548;0.00156832;0.0252494;0.0255605;0;0.0327784;-1.05339;-1.18679;-0.624965;1.70548;-6.25264;-5.01553e-05;0.000110207;0.00305951;0.00306341;-5.40562e-05;0.00155873;0.0163933;61.0006;0.00206053;0.00207831;56.6708;0.0176458;127.811;172.811;-0.0136624;-8.49839e-05;0.00859324;-0.00834653;0.0030227;0.0115777;0.0289186;0;0.0368946;1.80215
341000;342;25.8731;0.0676121;0.00262006;-2.64353;25.7368;-0.216362;-0.249524;0.045512;-0.604035;-0.796724;-1.14935;-0.00169648;1.39849;-5.93821;-7.77587e-05;-0.000870592;0.000785773;0.00132578;-0.00061777;0.000971778;0.0989582;10.1053;0.00114666;0.0012957;2.14608;0.465966;165.572;30.5725;-0.0283456;-0.00012764;0.00829228;-0.0100255;0.000751797;0.0267826;0.0264157;0;0.0330523;-1.05258;-1.18944;-0.628317;1.70806;-6.25599;-0.000271891;3.93148e-05;0.00287181;0.0028723;-0.000272383;0.00157234;0.0946761;10.5623;0.00201181;0.00209645;10.5451;0.0948311;129.779;174.779;-0.0140797;-0.000307026;0.00848665;-0.00838155;0.0028359;0.00956142;0.0301269;0;0.0410413;1.82813
342000;343;25.8736;0.0681064;0.00263922;-2.64313;25.7374;-0.215929;-0.249128;0.0460531;-0.603602;-0.796414;-1.15008;-0.00641944;1.39893;-5.94293;-0.00030154;-0.000740177;0.00118963;0.00149465;-0.000606554;0.0010506;0.253473;3.94519;0.00124873;0.0014008;2.46416;0.405817;155.859;20.8586;-0.0283524;-0.000348952;0.00829745;-0.00976429;0.00115552;0.0269594;0.0245329;0;0.0332397;-1.05231;-1.1916;-0.634095;1.71153;-6.26177;-0.000270012;-0.000143545;0.00314468;0.0031507;-0.000276036;0.00171337;0.0858631;11.6464;0.00219827;0.00228449;11.4141;0.0876108;132.584;177.584;-0.0153043;-0.000308972;0.00856971;-0.00882713;0.00310809;0.0127496;0.0296503;0;0.0380387;1.85598
343000;344;25.8739;0.06838;0.00264982;-2.64255;25.7377;-0.218501;-0.248548;0.0463661;-0.606174;-0.795977;-1.15219;-0.00924378;1.40043;-5.94576;-0.000359344;-0.000649382;0.00133875;0.00155862;-0.000579212;0.00106891;0.268418;3.72553;0.00127672;0.00142522;2.69092;0.37162;152.012;17.0117;-0.0283242;-0.000405214;0.00831467;-0.00959818;0.00130444;0.0262889;0.0250746;0;0.030979;-1.05126;-1.19425;-0.638394;1.71433;-6.26607;-0.000363192;-0.000226383;0.00275118;0.00276755;-0.000379562;0.00157356;0.132013;7.575;0.00198369;0.00209807;7.29144;0.137147;135.207;0.207019;-0.0163863;-0.000405176;0.0087395;-0.0091644;0.00271312;0.0147385;0.0299624;0;0.0297803;1.88206
344000;345;25.8749;0.0693337;0.00268678;-2.64367;25.7385;-0.219211;-0.249667;0.047204;-0.606884;-0.795653;-1.15411;-0.010184;1.40183;-5.9467;-0.000250393;-0.000873579;0.00147078;0.00183647;-0.00061608;0.00122628;0.170244;5.87391;0.00147326;0.00163503;2.9809;0.33547;155.655;20.6552;-0.0282397;-0.000299153;0.00818094;-0.00991246;0.00143775;0.0274987;0.0270804;0;0.0332322;-1.05152;-1.19767;-0.64055;1.71767;-6.26823;-0.000458695;-0.000366573;0.00298972;0.00302826;-0.000497232;0.00176274;0.153424;6.51788;0.00220336;0.00235033;6.09022;0.164198;136.98;1.97979;-0.0168432;-0.000504937;0.00892027;-0.00962146;0.00295012;0.0142965;0.0301967;0;0.0280979;1.90527
345000;346;25.8762;0.0706828;0.00273906;-2.64401;25.7398;-0.222363;-0.250002;0.0484987;-0.610036;-0.794209;-1.15734;-0.0106799;1.40368;-5.94719;-0.00060287;-0.00105631;0.00147909;0.00192116;-0.00104494;0.00148305;0.407594;2.45342;0.00173721;0.0019774;1.83854;0.54391;156.18;21.1801;-0.0284072;-0.000652338;0.00790555;-0.00999947;0.00144845;0.0294296;0.025255;0;0.0333431;-1.05043;-1.20189;-0.642338;1.72062;-6.27002;-0.000494104;-0.000366078;0.00294388;0.00298243;-0.000532652;0.00175754;0.167841;5.95803;0.00218756;0.00234339;5.59922;0.178596;137.218;2.21829;-0.0167789;-0.000543076;0.00920151;-0.00990083;0.00290174;0.0160596;0.0269818;0;0.0302831;1.93592
346000;347;25.8763;0.0708258;0.0027446;-2.64423;25.7399;-0.222966;-0.25023;0.0486138;-0.610639;-0.793544;-1.15907;-0.012913;1.40475;-5.94943;-0.000526554;-0.000815782;0.00126298;0.00157905;-0.000842616;0.00121083;0.416912;2.39858;0.00141953;0.00161444;1.87398;0.533623;154.895;19.8947;-0.0286496;-0.00057583;0.00834291;-0.00995804;0.00122856;0.0302687;0.0277584;0;0.0335182;-1.04988;-1.20436;-0.645991;1.72338;-6.27367;-0.00064677;-0.000441247;0.00306147;0.00311325;-0.000698552;0.0019059;0.211261;4.73348;0.00234332;0.0025412;4.45673;0.22438;137.966;2.96643;-0.0172969;-0.000696851;0.00916745;-0.0100144;0.00301968;0.015887;0.0309619;0;0.0301333;1.96009
347000;348;25.8782;0.0727127;0.00281772;-2.64414;25.7418;-0.225396;-0.250134;0.0504995;-0.613069;-0.792351;-1.16069;-0.0170932;1.40546;-5.95361;-0.000509883;-0.000862661;0.00128308;0.00163073;-0.000857533;0.00124413;0.397391;2.51641;0.00145953;0.00165884;1.90165;0.52586;155.605;20.605;-0.0286308;-0.000559294;0.00826672;-0.00997562;0.00124932;0.0288896;0.0273243;0;0.034728;-1.04867;-1.20746;-0.653373;1.72759;-6.28105;-0.000742504;-0.000356827;0.00324159;0.0032733;-0.00077421;0.00202376;0.229055;4.36576;0.00248087;0.00269834;4.22792;0.236523;136.23;1.22973;-0.0165167;-0.000791845;0.00926107;-0.0099365;0.00319891;0.0146922;0.0256345;0;0.0322539;1.9898
348000;349;25.8801;0.0745833;0.00289021;-2.64539;25.7435;-0.23083;-0.251391;0.0522027;-0.618503;-0.791794;-1.16487;-0.0131025;1.40855;-5.94962;-0.000691941;-0.000688263;0.000920302;0.00117415;-0.00094579;0.00105997;0.751863;1.33003;0.00122631;0.00141329;1.24145;0.80551;154.761;19.761;-0.0287745;-0.000741822;0.00864675;-0.0100082;0.000883189;0.0291548;0.0282423;0;0.0362207;-1.04831;-1.21262;-0.65074;1.72998;-6.27842;-0.000699664;-0.000344683;0.0032584;0.0032882;-0.000729456;0.00200883;0.214726;4.6571;0.00247143;0.00267843;4.50774;0.221841;136.021;1.02148;-0.0154742;-0.000749341;0.00931874;-0.00996995;0.00321518;0.0148372;0.0258958;0;0.0446425;2.01225
349000;350;25.8795;0.0739948;0.0028674;-2.64574;25.7428;-0.238711;-0.251734;0.0515039;-0.626384;-0.79048;-1.1686;-0.0116491;1.4109;-5.94816;-0.000771318;-0.00083688;0.000298178;0.000756568;-0.00122971;0.000993138;2.58677;0.386582;0.00115757;0.00132418;0.615242;1.62538;164.291;29.2913;-0.0295781;-0.000824028;0.00863384;-0.0102974;0.000261267;0.0305462;0.028659;0;0.0358556;-1.04698;-1.21685;-0.653218;1.73309;-6.2809;-0.000953239;-0.000339734;0.00330592;0.00333284;-0.000980168;0.00215651;0.288343;3.46809;0.00261069;0.00287534;3.40028;0.294093;135.965;0.965324;-0.0148461;-0.00100436;0.00947438;-0.0101122;0.00326124;0.0152115;0.0252875;0;0.0440115;2.0423
350000;351;25.8811;0.0755962;0.00292946;-2.64485;25.7445;-0.239023;-0.250847;0.053202;-0.626695;-0.790614;-1.17072;-0.0133366;1.41274;-5.94985;-0.000768154;-0.00121939;0.00113519;0.00173032;-0.00136328;0.0015468;0.676677;1.47781;0.00179028;0.0020624;1.26923;0.787882;160.327;25.3273;-0.0300362;-0.000825255;0.00833115;-0.0107517;0.00110126;0.0322728;0.0284722;0;0.036704;-1.04676;-1.2202;-0.657633;1.73697;-6.28531;-0.000849471;-0.000243049;0.00363141;0.00364456;-0.000862616;0.00225359;0.233923;4.27491;0.00276251;0.00300478;4.22501;0.236686;133.891;178.891;-0.014442;-0.000899131;0.00952199;-0.00996447;0.00358627;0.0138005;0.0237207;0;0.0337865;2.06442
351000;352;25.8845;0.0789906;0.003061;-2.64554;25.7479;-0.232226;-0.251535;0.0566059;-0.619898;-0.790608;-1.17297;-0.0155682;1.41462;-5.95208;-0.000643653;-0.000506275;0.000208019;0.000443734;-0.000879369;0.000661552;3.09421;0.323184;0.000777573;0.000882069;0.504605;1.98175;160.494;25.4941;-0.0298339;-0.000692702;0.00890956;-0.00991405;0.000168464;0.0302066;0.0294907;0;0.0374448;-1.04698;-1.22383;-0.660093;1.74059;-6.28777;-0.000805519;-8.18618e-05;0.00350828;0.00350984;-0.000807072;0.00215845;0.229605;4.35531;0.0026502;0.00287794;4.34885;0.229946;131.917;176.917;-0.0145966;-0.000851667;0.00948079;-0.0096034;0.0034635;0.0149786;0.0222448;0;0.035615;2.09139
352000;353;25.8835;0.0779883;0.00302216;-2.64371;25.747;-0.244704;-0.249712;0.0556701;-0.632376;-0.790662;-1.17464;-0.020333;1.4161;-5.95685;-0.000746463;-0.000897185;0.00157137;0.00187807;-0.00105316;0.00146562;0.475039;2.10509;0.00171454;0.00195416;1.78327;0.560768;152.52;17.5195;-0.0288594;-0.00080245;0.00884386;-0.0106156;0.00153273;0.0256093;0.0271932;0;0.0399513;-1.04657;-1.22646;-0.667044;1.74484;-6.29472;-0.000867355;0.000117664;0.00341364;0.00341687;-0.000870587;0.00214373;0.254085;3.93569;0.00261684;0.00285831;3.92479;0.254791;129.43;174.43;-0.0142483;-0.000910211;0.00953022;-0.00925474;0.00336839;0.0151326;0.0202352;0;0.0342455;2.12001
353000;354;25.8834;0.0778951;0.00301854;-2.64455;25.7468;-0.245164;-0.25055;0.0554859;-0.632837;-0.789518;-1.17832;-0.0150709;1.41845;-5.95158;-0.000527372;-0.000654589;0.00040231;0.000740317;-0.000865378;0.000802847;1.31086;0.762858;0.000927985;0.00107046;0.855483;1.16893;162.359;27.3595;-0.0296247;-0.000579659;0.0089441;-0.0102443;0.000362541;0.0284901;0.0273819;0;0.0407896;-1.04526;-1.22978;-0.665439;1.74578;-6.29312;-0.00101976;0.000177853;0.00335282;0.00336004;-0.00102699;0.00219351;0.304151;3.28784;0.00264955;0.00292469;3.27176;0.305646;128.984;173.984;-0.0141064;-0.0010617;0.0095516;-0.00915506;0.00330737;0.0147819;0.0235435;0;0.0343359;2.14386
354000;355;25.8818;0.0762837;0.0029561;-2.64527;25.745;-0.256448;-0.251268;0.0536822;-0.644121;-0.788605;-1.18282;-0.0122308;1.42166;-5.94874;-0.000565299;-0.000336158;3.92866e-05;0.000189082;-0.000715094;0.000452088;14.3891;0.069497;0.000550685;0.000602783;0.264415;3.78193;159.658;24.6576;-0.0293753;-0.000615392;0.00934559;-0.010012;-4.32621e-06;0.0260175;0.0291782;0;0.0399069;-1.04433;-1.23424;-0.664569;1.74804;-6.29225;-0.000854768;8.33117e-05;0.00325064;0.00325233;-0.000856458;0.00205439;0.262954;3.80295;0.00250303;0.00273919;3.79742;0.263337;130.049;175.049;-0.0145391;-0.0008975;0.00944598;-0.00924105;0.00320617;0.0115658;0.0284291;0;0.0351768;2.17294
355000;356;25.8841;0.0785599;0.0030443;-2.64599;25.7472;-0.254054;-0.25199;0.05592;-0.641727;-0.787542;-1.1841;-0.0192526;1.42221;-5.95577;-0.00065116;-0.000448811;4.42928e-06;0.000232405;-0.000879136;0.00055577;;;0.000676989;0.000741027;0.264356;3.78278;162.73;27.7301;-0.0296121;-0.000703838;0.00937947;-0.0102706;-3.9458e-05;0.0267075;0.0306154;0;0.039966;-1.04409;-1.23805;-0.667516;1.75171;-6.29519;-0.00110176;0.000255869;0.00326209;0.00327704;-0.00111671;0.00219687;0.337747;2.9608;0.00263696;0.00292917;2.93454;0.340769;128.297;173.297;-0.0153879;-0.00114494;0.00984508;-0.00929166;0.00321381;0.0130398;0.03;0;0.0343201;2.19824
356000;357;25.8813;0.0757378;0.00293494;-2.64517;25.7444;-0.264221;-0.251166;0.0530653;-0.651893;-0.786835;-1.18893;-0.0160858;1.4258;-5.9526;-0.000532215;-0.000796789;0.000369837;0.000834397;-0.000996775;0.000915586;1.43905;0.694901;0.00105861;0.00122078;0.837096;1.19461;165.34;30.3403;-0.0269728;-0.000588155;0.00901965;-0.0106043;0.000329492;0.0211133;0.0304173;0;0.0529953;-1.04323;-1.242;-0.670038;1.75495;-6.29772;-0.0011106;0.000114842;0.00323539;0.00323842;-0.00111364;0.00217603;0.343268;2.91318;0.00261058;0.00290137;2.90797;0.343883;130.198;175.198;-0.0160471;-0.00115565;0.00975809;-0.00948665;0.00318794;0.0145507;0.031084;0;0.0435127;2.22757
357000;358;25.8821;0.0766141;0.0029689;-2.64338;25.7454;-0.265186;-0.249375;0.0541202;-0.652859;-0.788417;-1.18955;-0.0197264;1.42724;-5.95624;-0.000477769;-0.000748581;-0.000319489;0.000354123;-0.00115138;0.000752752;-1.49542;-0.66871;0.000908922;0.00100367;0.307564;3.25136;178.046;43.0459;-0.0290266;-0.00053014;0.0087635;-0.0102591;-0.000357621;0.028023;0.030453;0;0.0357348;-1.04366;-1.24263;-0.676478;1.75812;-6.30416;-0.000757243;-2.11584e-05;0.00317347;0.00317359;-0.000757357;0.00196547;0.238616;4.19083;0.00240821;0.00262063;4.19035;0.238644;131.652;176.652;-0.0166857;-0.000805297;0.00979583;-0.00979968;0.00312564;0.016234;0.0313582;0;0.0299595;2.24803
358000;359;25.8837;0.0782061;0.0030306;-2.64368;25.747;-0.265637;-0.249674;0.0556855;-0.65331;-0.787783;-1.19144;-0.0252952;1.42856;-5.96181;-0.000643481;-0.000865558;-0.000119467;0.000522871;-0.00128582;0.000904344;-5.38627;-0.185657;0.00107477;0.00120579;0.406644;2.45915;172.582;37.5815;-0.0298718;-0.000697711;0.00872088;-0.0104469;-0.000157124;0.0298366;0.0295738;0;0.0339315;-1.04325;-1.24643;-0.681774;1.7626;-6.30945;-0.000787836;-0.000103152;0.0032803;0.00328291;-0.00079045;0.00203668;0.240172;4.16368;0.0024942;0.00271557;4.15322;0.240777;132.664;177.664;-0.0171792;-0.000836122;0.00965696;-0.00982368;0.00323382;0.0168645;0.0315854;0;0.0314616;2.27798
359000;360;25.8834;0.0778688;0.00301752;-2.64392;25.7466;-0.26916;-0.249912;0.0552852;-0.656833;-0.787494;-1.19385;-0.0238681;1.43039;-5.96038;-0.000439639;-0.000102674;-0.000304021;-0.000248785;-0.000494875;0.000123045;-1.44608;-0.691524;0.000285718;0.00016406;-0.502722;-1.98917;164.272;29.2723;-0.028742;-0.000485111;0.00933078;-0.00953484;-0.000347562;0.0289938;0.0299455;0;0.0334048;-1.043;-1.24938;-0.683556;1.76523;-6.31123;-0.00066424;-0.000226149;0.00351437;0.00352657;-0.000676443;0.00210151;0.189007;5.29081;0.00260596;0.00280201;5.2134;0.191813;133.785;178.785;-0.0172697;-0.000713722;0.00953564;-0.00994727;0.00346909;0.0168183;0.0333785;0;0.0285583;2.30256
360000;361;25.8845;0.0789548;0.00305961;-2.6443;25.7476;-0.274997;-0.250295;0.0562761;-0.66267;-0.787272;-1.19669;-0.0272184;1.43269;-5.96373;-0.000601952;-0.000785657;-0.000120598;0.00046042;-0.00118297;0.000821695;-4.9914;-0.200345;0.000978903;0.00109559;0.389207;2.56933;172.417;37.4167;-0.0296439;-0.000656181;0.00887413;-0.0104407;-0.00015967;0.0295171;0.0303822;0;0.0329273;-1.04243;-1.25306;-0.690782;1.77031;-6.31846;-0.000651848;-0.000299173;0.00365607;0.00367675;-0.000672525;0.00217464;0.178292;5.60878;0.00270337;0.00289952;5.46708;0.182913;134.507;179.507;-0.0172589;-0.000703921;0.00965054;-0.0102062;0.00360972;0.0152008;0.0307417;0;0.0281976;2.33203
361000;362;25.8849;0.0793499;0.00307492;-2.64306;25.7481;-0.277654;-0.249061;0.0567714;-0.665327;-0.788378;-1.2002;-0.0224393;1.43615;-5.95895;-0.000705161;-0.00062219;-0.0013266;-0.000320417;-0.00171134;0.000695461;-0.531556;-1.88127;0.0010505;0.000927282;-0.187232;-5.34098;16.2103;61.2103;-0.0300765;-0.000755432;0.0087926;-0.0100428;-0.00136511;0.0317864;0.0313278;0;0.0348341;-1.04351;-1.25675;-0.687455;1.77227;-6.31513;-0.000886838;-0.000312646;0.00377222;0.0037931;-0.000907725;0.00235041;0.235097;4.25356;0.00287941;0.00313389;4.17869;0.239309;134.599;179.599;-0.0169486;-0.000940504;0.00978167;-0.0103601;0.0037246;0.0159371;0.0282805;0;0.030084;2.35475
362000;363;25.8871;0.0815916;0.00316179;-2.64411;25.7502;-0.280216;-0.250112;0.0588894;-0.667889;-0.786829;-1.20094;-0.0288823;1.43603;-5.96539;-0.000638414;-0.0010765;-0.000307364;0.000616264;-0.00156204;0.00108915;-2.07706;-0.48145;0.00129656;0.0014522;0.394525;2.5347;176.946;41.9457;-0.0292568;-0.000692017;0.00825663;-0.0104065;-0.000340882;0.0348117;0.0326874;0;0.0304813;-1.04259;-1.25999;-0.694042;1.77659;-6.32172;-0.000625463;-0.000358099;0.00394216;0.00397006;-0.000653368;0.00231172;0.15866;6.30278;0.00288923;0.00308229;6.07631;0.164574;134.543;179.543;-0.016247;-0.000677527;0.00953609;-0.0102072;0.00389693;0.0149058;0.0265278;0;0.0284906;2.38386
363000;364;25.889;0.0835061;0.00323598;-2.64398;25.7521;-0.280908;-0.249982;0.0608199;-0.668581;-0.786755;-1.20257;-0.0321935;1.43743;-5.96871;-0.000521618;-0.000704721;-0.000383016;0.000255804;-0.00116044;0.000708121;-1.36187;-0.734283;0.000871498;0.000944161;0.220437;4.53644;178.412;43.4118;-0.0298886;-0.000573882;0.00883724;-0.0102453;-0.000421831;0.0275174;0.0305026;0;0.0380786;-1.04235;-1.26378;-0.69818;1.78076;-6.32586;-0.000591088;-0.000360546;0.00391457;0.00394324;-0.000619757;0.0022815;0.150997;6.62265;0.0028579;0.003042;6.36256;0.15717;134.544;179.544;-0.0154062;-0.000641457;0.00936277;-0.0100402;0.00387097;0.0140839;0.025551;0;0.0328143;2.40455
364000;365;25.8882;0.0827173;0.00320541;-2.64567;25.751;-0.292833;-0.251671;0.0597206;-0.680506;-0.785039;-1.21205;-0.0155426;1.44416;-5.95206;-0.000822472;-0.00065637;-4.39457e-05;0.000329908;-0.00119633;0.000763117;-18.7156;-0.0534313;0.000927293;0.00101749;0.275768;3.62624;165.821;30.8206;-0.0303502;-0.00087474;0.00893572;-0.0102409;-8.36564e-05;0.0284975;0.0321002;0;0.0398565;-1.04125;-1.27227;-0.688934;1.78256;-6.31661;-0.000508989;-0.000235425;0.00399235;0.00400463;-0.000521269;0.00226295;0.127491;7.84369;0.00285939;0.00301727;7.68247;0.130166;132.852;177.852;-0.0139408;-0.000560135;0.00968759;-0.0101139;0.00394564;0.0131384;0.0268655;0;0.0303618;2.43462
365000;366;25.8894;0.0839017;0.00325131;-2.64492;25.7524;-0.286457;-0.250917;0.0610605;-0.674129;-0.785664;-1.21422;-0.0236337;1.44643;-5.96015;-0.000854892;-0.000785506;0.000179997;0.000603174;-0.00127807;0.000940621;4.74949;0.210549;0.00110919;0.00125416;0.471941;2.11891;164.193;29.1934;-0.0299841;-0.00090749;0.00872089;-0.010282;0.000142284;0.0320187;0.0326067;0;0.0437639;-1.04208;-1.27584;-0.691537;1.78659;-6.31921;-0.000766346;-4.99375e-05;0.00407027;0.00407078;-0.000766861;0.00241882;0.188279;5.31127;0.0030023;0.0032251;5.30837;0.188382;130.633;175.633;-0.0140534;-0.000814035;0.00970959;-0.00976245;0.00402332;0.0139075;0.0264347;0;0.0315771;2.46027
366000;367;25.8926;0.0870536;0.00337345;-2.64403;25.7556;-0.288677;-0.250024;0.064296;-0.67635;-0.787466;-1.21761;-0.0171883;1.45016;-5.9537;-0.000931957;-0.00121242;-0.000580003;0.000469146;-0.00198111;0.00122513;-1.60681;-0.62235;0.00150175;0.0016335;0.23681;4.22279;178.033;43.0334;-0.0299409;-0.000987596;0.00819189;-0.0106133;-0.000612841;0.0325168;0.0310522;0;0.0379628;-1.04323;-1.28109;-0.690904;1.79077;-6.31858;-0.000737601;0.000121142;0.0039287;0.00393185;-0.000740744;0.0023363;0.187747;5.32633;0.00289986;0.00311506;5.30797;0.188396;128.646;173.646;-0.0139418;-0.000782173;0.00972574;-0.00943883;0.0038816;0.0133513;0.0253252;0;0.032095;2.48542
367000;368;25.8931;0.0875748;0.00339364;-2.64303;25.7562;-0.288474;-0.249028;0.0649245;-0.676147;-0.788104;-1.21704;-0.0263006;1.45016;-5.96281;-0.000689465;-0.000595389;6.81391e-05;0.000395013;-0.00101634;0.000705676;10.1185;0.098829;0.000840753;0.000940902;0.388663;2.57292;164.592;29.5924;-0.0294822;-0.000738082;0.00869147;-0.00987517;3.05474e-05;0.0319244;0.0312554;0;0.0341904;-1.04351;-1.28249;-0.69958;1.7953;-6.32726;-0.000432789;0.000172781;0.00395465;0.00396145;-0.000439583;0.00220052;0.109438;9.1376;0.00279902;0.00293402;9.01183;0.110965;127.208;172.208;-0.0140831;-0.00047358;0.00941784;-0.00903189;0.0039105;0.014284;0.0277691;0;0.0320515;2.50862
368000;369;25.8931;0.0876237;0.00339554;-2.64246;25.7563;-0.289948;-0.248462;0.0650152;-0.67762;-0.787504;-1.21834;-0.030893;1.45102;-5.96741;-0.0010364;-0.000725025;0.00102053;0.00125039;-0.00126627;0.00125833;1.01556;0.984683;0.001453;0.00167777;0.987463;1.0127;152.477;17.4766;-0.0299602;-0.00108985;0.00892934;-0.0103595;0.000980961;0.032244;0.0296403;0;0.0384001;-1.04248;-1.28368;-0.707612;1.7987;-6.33529;-0.000466841;9.77993e-05;0.00382924;0.00383146;-0.000469066;0.00215026;0.121915;8.20245;0.00272416;0.00286702;8.16828;0.122425;128.17;173.17;-0.014328;-0.00050473;0.0089369;-0.00870348;0.00378946;0.00966035;0.0302052;0;0.0335375;2.53466
369000;370;25.8968;0.0912471;0.00353595;-2.64212;25.7601;-0.281677;-0.248113;0.0687854;-0.66935;-0.787638;-1.22175;-0.032971;1.454;-5.96948;-0.00116327;-0.000828575;0.00118075;0.00144406;-0.00142658;0.00143532;0.985201;1.01502;0.00165737;0.00191376;1.01225;0.987899;152.466;17.4664;-0.0303051;-0.00121687;0.00874584;-0.0103805;0.00114289;0.03478;0.0300985;0;0.0388166;-1.0424;-1.28905;-0.705978;1.80185;-6.33366;-0.000460991;0.000108219;0.00384134;0.00384406;-0.000463712;0.00215389;0.120008;8.33279;0.00273044;0.00287185;8.28977;0.120631;128.13;173.13;-0.0151752;-0.000500702;0.00916565;-0.0089104;0.0037995;0.0133477;0.0326288;0;0.0319558;2.55715
370000;371;25.8934;0.0878904;0.00340588;-2.64311;25.7565;-0.29554;-0.249111;0.0651532;-0.683212;-0.786122;-1.22427;-0.0343805;1.45534;-5.97089;-0.00111246;-0.000498961;0.00157973;0.00166923;-0.00120196;0.0014356;0.704205;1.42004;0.00166498;0.00191413;1.38876;0.720065;144.335;9.33525;-0.0298317;-0.00116337;0.00912562;-0.0100976;0.00153828;0.0313352;0.0291659;0;0.0408205;-1.04135;-1.29085;-0.711953;1.80487;-6.33963;-0.000326994;0.00015065;0.00370221;0.00370784;-0.000332619;0.00202023;0.088324;11.322;0.0025899;0.00269364;11.1474;0.089707;127.38;172.38;-0.0151572;-0.000365395;0.00910065;-0.00876343;0.00366097;0.0128914;0.0318565;0;0.0357966;2.58157
371000;372;25.8953;0.0897932;0.00347961;-2.64405;25.7583;-0.292372;-0.250052;0.0670056;-0.680045;-0.784888;-1.22867;-0.031958;1.45832;-5.96847;-0.00105509;-0.000623338;0.00164005;0.00177723;-0.00119227;0.00148475;0.643327;1.55442;0.0017255;0.00197967;1.49063;0.670859;146.399;11.399;-0.0300402;-0.00110672;0.00895504;-0.0101759;0.00160021;0.0303129;0.0290297;0;0.0408089;-1.04022;-1.29646;-0.712486;1.80846;-6.34016;-0.000401188;-6.13042e-05;0.00385442;0.0038553;-0.000402071;0.00212868;0.104085;9.60751;0.00271417;0.00283825;9.58861;0.10429;130.398;175.398;-0.016882;-0.000444313;0.00920203;-0.00928536;0.00381224;0.0148204;0.0349958;0;0.0282153;2.6025
372000;373;25.8935;0.0879468;0.00340806;-2.64331;25.7564;-0.300887;-0.249304;0.0651281;-0.68856;-0.783176;-1.23208;-0.0305603;1.46025;-5.96707;-0.0014696;-0.000859553;0.00229511;0.00248207;-0.00165656;0.00206932;0.640317;1.56173;0.00240524;0.00275909;1.49833;0.667411;145.931;10.9312;-0.029991;-0.00152652;0.00901443;-0.0106964;0.00225494;0.0293706;0.0275078;0;0.0375121;-1.03856;-1.29922;-0.71338;1.80983;-6.34106;-0.000349825;-0.000131478;0.00377363;0.00377782;-0.000354013;0.00206591;0.0927026;10.7872;0.00264446;0.00275455;10.6714;0.0937084;131.45;176.45;-0.0167089;-0.000393748;0.00914699;-0.00937182;0.00373196;0.0143438;0.0319911;0;0.0282158;2.62547
373000;374;25.8947;0.089203;0.00345674;-2.64332;25.7577;-0.301755;-0.249315;0.0663797;-0.689428;-0.782658;-1.23433;-0.0352451;1.46197;-5.97176;-0.00162433;-0.00088922;0.00300156;0.0031666;-0.00178937;0.00247799;0.541162;1.84788;0.00289792;0.00330398;1.76967;0.565077;143.389;8.38947;-0.0309453;-0.00168236;0.00906911;-0.0108015;0.00296095;0.03046;0.0271851;0;0.0372704;-1.03835;-1.30424;-0.715963;1.81434;-6.34364;-0.000187419;-0.000237128;0.00401762;0.00403095;-0.000200749;0.00211585;0.0466494;21.4365;0.00275665;0.00282113;20.0795;0.049802;132.279;177.279;-0.016334;-0.000232973;0.00911184;-0.00954692;0.0039763;0.0135284;0.0295201;0;0.0345509;2.64533
374000;375;25.8939;0.0883545;0.00342386;-2.64479;25.7566;-0.305517;-0.25079;0.0653311;-0.69319;-0.783176;-1.23653;-0.0410641;1.46426;-5.97758;-0.0013061;-0.000714931;0.0028827;0.00300136;-0.00142476;0.00221306;0.453083;2.2071;0.0026089;0.00295075;2.10657;0.474706;142.038;7.03833;-0.0306074;-0.00136373;0.00936435;-0.010752;0.00283923;0.0276738;0.026133;0;0.0377063;-1.03907;-1.30527;-0.723935;1.81865;-6.35161;-0.000347702;-0.000424256;0.00392586;0.00396757;-0.000389412;0.00217849;0.088567;11.2909;0.00278394;0.00290466;10.1886;0.0981488;134.975;179.975;-0.0173189;-0.000393736;0.00879362;-0.00960286;0.00388744;0.0116327;0.0325197;0;0.0283274;2.6629
375000;376;25.8935;0.0879632;0.0034087;-2.64635;25.756;-0.312035;-0.252348;0.0646995;-0.699707;-0.78052;-1.24411;-0.0349517;1.4691;-5.97146;-0.00118848;-0.000703345;0.00351031;0.00361333;-0.0012915;0.00245242;0.338568;2.95362;0.00293566;0.00326989;2.79778;0.357426;139.895;4.89462;-0.0309794;-0.00124592;0.00937584;-0.0107353;0.00346676;0.0287809;0.0254331;0;0.0443724;-1.03773;-1.31164;-0.723358;1.82223;-6.35104;-1.48278e-05;-0.000250409;0.00419123;0.00420608;-2.96835e-05;0.00211788;0.00353782;282.66;0.002814;0.00282384;141.698;0.00705728;132.011;177.011;-0.0160225;-6.14557e-05;0.00919874;-0.00965996;0.00414913;0.0130279;0.0278037;0;0.0447585;2.6762
376000;377;25.8951;0.0895598;0.00347057;-2.64598;25.7577;-0.311768;-0.25198;0.0663456;-0.699441;-0.780896;-1.24515;-0.0383152;1.47026;-5.97483;-0.00112251;-0.000652992;0.00299798;0.00309898;-0.00122351;0.00216125;0.374421;2.67079;0.0025727;0.00288166;2.53286;0.394811;140.92;5.92041;-0.0300047;-0.00117685;0.00917405;-0.0104396;0.00295623;0.0289958;0.025513;0;0.0316696;-1.03725;-1.31511;-0.724655;1.82497;-6.35233;6.33998e-05;-0.000314418;0.00426925;0.00429263;4.00247e-05;0.0021263;-0.0148503;-67.3386;0.00284851;0.00283507;-107.25;-0.00932405;132.669;177.669;-0.0148824;1.57498e-05;0.00917838;-0.00976744;0.00422736;0.0116511;0.0272336;0;0.0423517;2.6944
377000;378;25.8964;0.0908429;0.00352029;-2.64549;25.7589;-0.316942;-0.251483;0.0676234;-0.704614;-0.780676;-1.24979;-0.0393645;1.4741;-5.97588;-0.00130901;-0.000738242;0.00246015;0.00259958;-0.00144845;0.00202402;0.532088;1.87939;0.00236842;0.00269869;1.79473;0.557186;143.866;8.86559;-0.0296333;-0.00136356;0.00902373;-0.0104634;0.0024198;0.0286149;0.0272026;0;0.0337711;-1.03675;-1.32037;-0.727455;1.82959;-6.35513;-8.59998e-05;-0.00040773;0.004557;0.00459254;-0.000121533;0.00235703;0.018872;52.9886;0.003103;0.00314271;37.7884;0.0264631;133.042;178.042;-0.0144548;-0.000132271;0.00885539;-0.009628;0.00451805;0.0114024;0.0305791;0;0.0422788;2.70649
378000;379;25.8981;0.0925756;0.00358744;-2.64723;25.7605;-0.314147;-0.253223;0.0692209;-0.70182;-0.77822;-1.25104;-0.0438767;1.474;-5.98039;-0.0012807;-0.000590199;0.00381645;0.00388389;-0.00134815;0.00261602;0.335574;2.97997;0.00313675;0.00348802;2.88091;0.347112;137.772;2.772;-0.0312781;-0.00133674;0.00946686;-0.0105961;0.00377198;0.0299067;0.0236816;0;0.0354952;-1.03585;-1.32264;-0.733732;1.83323;-6.36141;-0.000108306;-0.00019037;0.00456009;0.00456784;-0.000116056;0.00234195;0.0237509;42.1037;0.00308464;0.0031226;39.3588;0.0254073;130.488;175.488;-0.0138179;-0.0001535;0.00917128;-0.0095085;0.00451825;0.0107458;0.0292634;0;0.0400448;2.72172
379000;380;25.901;0.0954672;0.00369949;-2.64738;25.7635;-0.309122;-0.253377;0.0721729;-0.696795;-0.777463;-1.254;-0.0438757;1.47611;-5.98039;-0.00103077;-0.000419923;0.00401873;0.00405341;-0.00106545;0.00255943;0.256492;3.89876;0.00311869;0.00341258;3.8044;0.262854;135.235;0.234725;-0.0300034;-0.00108248;0.00938182;-0.0101723;0.00397498;0.0289702;0.025796;0;0.0332762;-1.03511;-1.32687;-0.731644;1.83503;-6.35932;-4.67895e-05;-0.000183841;0.00456091;0.00456823;-5.41128e-05;0.00231117;0.0102588;97.4772;0.00306368;0.00308156;84.4205;0.0118455;130.213;175.213;-0.0135998;-9.01176e-05;0.00898482;-0.00931044;0.00452074;0.0108076;0.0292352;0;0.0325603;2.7341
380000;381;25.9022;0.0966276;0.00374445;-2.6468;25.7647;-0.309868;-0.252796;0.0733902;-0.697541;-0.776622;-1.25494;-0.0528859;1.47676;-5.9894;-0.00134719;-0.000455705;0.00381539;0.00385531;-0.00138711;0.00262121;0.353093;2.83211;0.00313654;0.00349494;2.77939;0.359791;136.297;1.29663;-0.0309174;-0.00140013;0.00943238;-0.0102929;0.00377118;0.0311848;0.023729;0;0.0446309;-1.03378;-1.32918;-0.742897;1.84047;-6.37058;-0.000135526;0.000121065;0.00454015;0.00454328;-0.000138659;0.00234097;0.0298506;33.5002;0.00307611;0.00312129;32.7659;0.0305195;126.514;171.514;-0.0138762;-0.000174843;0.00915184;-0.00886769;0.00449846;0.0124013;0.030181;0;0.0306078;2.74985
381000;382;25.9036;0.0980756;0.00380057;-2.64712;25.7662;-0.303341;-0.25312;0.0748903;-0.691013;-0.774158;-1.26077;-0.0431224;1.48011;-5.97964;-0.00129631;-0.000698243;0.00562296;0.00569271;-0.00136607;0.00352939;0.230538;4.33767;0.00432305;0.00470585;4.16723;0.239967;134.17;179.17;-0.0299691;-0.00134814;0.00886829;-0.0101989;0.00558409;0.0285439;0.0221159;0;0.0334036;-1.03233;-1.3357;-0.73169;1.83988;-6.35937;-0.000132276;0.000290508;0.00460529;0.00462303;-0.000150024;0.00238653;0.0287227;34.8157;0.00313323;0.00318204;30.8154;0.0324513;124.538;169.538;-0.013806;-0.000171791;0.0095184;-0.00889389;0.00456024;0.0123674;0.0292946;0;0.0308766;2.76157
382000;383;25.9033;0.0977874;0.0037894;-2.64694;25.7659;-0.309552;-0.252935;0.0745456;-0.697225;-0.774263;-1.26305;-0.0492972;1.4823;-5.98581;-0.00153119;-0.000829684;0.00593136;0.0060225;-0.00162232;0.00382241;0.258151;3.8737;0.00465106;0.00509654;3.71228;0.269377;134.625;179.625;-0.0294131;-0.00158421;0.00873469;-0.010323;0.00589378;0.0287131;0.0206212;0;0.0315487;-1.03252;-1.33781;-0.742125;1.84569;-6.3698;-4.30628e-06;0.00027571;0.00443042;0.0044475;-2.13816e-05;0.00223444;;;0.00297215;0.00297925;208.006;0.00480755;124.419;169.419;-0.0145279;-4.22244e-05;0.00930392;-0.00871266;0.00438737;0.0109244;0.0349306;0;0.0291232;2.7761
383000;384;25.9059;0.100423;0.00389152;-2.64788;25.7685;-0.304984;-0.253874;0.0771531;-0.692657;-0.774047;-1.26234;-0.0576924;1.48189;-5.9942;-0.00143626;-0.000486077;0.00560839;0.00564177;-0.00146964;0.0035557;0.256091;3.90486;0.00433491;0.00474094;3.83888;0.260493;132.689;177.689;-0.0297188;-0.00148731;0.00920428;-0.0101085;0.00556638;0.0287302;0.0210023;0;0.0319522;-1.03246;-1.34052;-0.746481;1.84938;-6.37416;-5.90047e-05;0.000286281;0.00427985;0.00429865;-7.78123e-05;0.00218823;0.0137866;72.534;0.00289206;0.00291764;55.2439;0.0181015;124.453;169.453;-0.0144227;-9.60921e-05;0.00922807;-0.0086169;0.00423749;0.0133593;0.0301714;0;0.0302871;2.7883
384000;385;25.9053;0.0997977;0.0038673;-2.64854;25.7678;-0.302819;-0.254538;0.076482;-0.690492;-0.772933;-1.26592;-0.0612692;1.4845;-5.99778;-0.00140586;-0.000675937;0.00596497;0.00602644;-0.00146733;0.00374689;0.235686;4.24293;0.00458567;0.00499585;4.10707;0.243482;133.346;178.346;-0.0306229;-0.00145772;0.00891807;-0.0101996;0.00592566;0.0299458;0.0228835;0;0.0344333;-1.03206;-1.34334;-0.749588;1.85246;-6.37727;-0.000114017;0.000337027;0.00436876;0.00439396;-0.000139214;0.00226659;0.0260983;38.3167;0.00297679;0.00302211;31.5626;0.0316831;123.992;168.992;-0.0149365;-0.000151977;0.00943379;-0.00871916;0.00432451;0.0121075;0.0320643;0;0.0283822;2.80277
385000;386;25.9071;0.101529;0.00393441;-2.64929;25.7695;-0.298825;-0.255289;0.0781924;-0.686498;-0.772081;-1.26643;-0.0699275;1.48487;-6.00644;-0.00175439;-0.00128739;0.00656117;0.00675592;-0.00194914;0.00435253;0.267389;3.73987;0.00527509;0.00580337;3.46611;0.288508;136.722;1.7222;-0.0310712;-0.00181739;0.00879787;-0.0112892;0.00652355;0.0320935;0.0210844;0;0.0329529;-1.03171;-1.3462;-0.75526;1.85664;-6.38294;-0.000168693;4.80053e-05;0.0042673;0.00426782;-0.000169213;0.00221852;0.0395316;25.2963;0.00290326;0.00295802;25.2217;0.0396485;127.839;172.839;-0.0162406;-0.000208692;0.00907935;-0.00894345;0.00422626;0.0132766;0.0343283;0;0.0269213;2.81741
386000;387;25.9075;0.101933;0.00395005;-2.64968;25.7699;-0.298458;-0.255675;0.0785628;-0.686131;-0.771326;-1.2707;-0.0682955;1.48805;-6.00481;-0.00173075;-0.00133615;0.0065733;0.00678299;-0.00194044;0.00436172;0.2633;3.79795;0.00528883;0.00581562;3.49559;0.286075;136.73;1.72991;-0.0310268;-0.00178986;0.0083527;-0.0109449;0.00653953;0.0328543;0.020398;0;0.0337951;-1.03069;-1.35112;-0.754724;1.85942;-6.3824;-0.000146709;-8.6311e-05;0.00452688;0.00452847;-0.000148302;0.00233839;0.0324084;30.8562;0.00306961;0.00311785;30.5354;0.0327488;129.307;174.307;-0.0162994;-0.000190762;0.00925692;-0.00938606;0.00448423;0.0131328;0.0323792;0;0.0281854;2.82837
387000;388;25.9087;0.103226;0.00400015;-2.65037;25.7711;-0.299129;-0.256364;0.0797839;-0.686802;-0.771387;-1.27408;-0.0651998;1.49083;-6.00171;-0.00162388;-0.000923726;0.0072767;0.00737156;-0.00171874;0.00454515;0.223162;4.48105;0.00557629;0.0060602;4.28894;0.233158;132.46;177.46;-0.0300666;-0.0016778;0.00865366;-0.0104164;0.00723995;0.029891;0.0185596;0;0.03473;-1.03164;-1.35517;-0.753486;1.86239;-6.38116;-0.000195623;-9.1301e-05;0.00461042;0.00461215;-0.000197357;0.00240476;0.0424307;23.5679;0.00314262;0.00320634;23.3696;0.0427906;129.422;174.422;-0.0163425;-0.000241666;0.00945865;-0.00959556;0.0045659;0.012719;0.0318502;0;0.0315809;2.83958
388000;389;25.9096;0.104114;0.00403458;-2.65114;25.7719;-0.300661;-0.257139;0.0805795;-0.688334;-0.77063;-1.27728;-0.0653535;1.49318;-6.00187;-0.00189017;-0.00071778;0.00762837;0.00768219;-0.00194399;0.00481309;0.247782;4.03581;0.00587761;0.00641746;3.95176;0.253052;130.74;175.74;-0.0307716;-0.00194177;0.00882919;-0.0101745;0.00758994;0.0300405;0.017795;0;0.038071;-1.03125;-1.35868;-0.754081;1.86497;-6.38176;-5.79219e-05;-0.000189631;0.00492459;0.0049318;-6.51287e-05;0.00249846;0.0117618;85.0213;0.00330979;0.00333129;75.724;0.0132059;130.022;175.022;-0.0163139;-0.000107059;0.00958399;-0.00991478;0.00487891;0.0122883;0.0310486;0;0.0464763;2.85404
389000;390;25.9107;0.105215;0.00407722;-2.65222;25.7729;-0.298249;-0.258216;0.081603;-0.685922;-0.770361;-1.27916;-0.0739747;1.49505;-6.01049;-0.00157946;-0.000627163;0.00768002;0.00772231;-0.00162175;0.00467203;0.205658;4.86244;0.00576533;0.00622937;4.76173;0.210008;130.103;175.103;-0.0302604;-0.00163378;0.00926993;-0.0104333;0.00763758;0.02725;0.0205237;0;0.0378519;-1.03096;-1.36238;-0.763494;1.87133;-6.39117;-7.02835e-05;-0.00026306;0.00489097;0.00490488;-8.41926e-05;0.00249454;0.01437;69.5892;0.00329834;0.00332605;58.2578;0.0171651;131.191;176.191;-0.0157371;-0.000124148;0.00990616;-0.010382;0.00484218;0.0120861;0.0299617;0;0.0306985;2.86647
390000;391;25.9142;0.108646;0.0042102;-2.65213;25.7765;-0.290128;-0.258131;0.0851544;-0.677801;-0.767703;-1.28368;-0.0716128;1.49744;-6.00813;-0.0017612;-0.000919146;0.00832897;0.00841201;-0.00184424;0.00512813;0.211455;4.72915;0.0063132;0.00683751;4.56123;0.219239;130.568;175.568;-0.0300701;-0.00181568;0.00872793;-0.0104696;0.00829161;0.026675;0.0188866;0;0.0374624;-1.02909;-1.36837;-0.758655;1.8727;-6.38633;-0.000214872;-0.000117814;0.00516495;0.00516753;-0.000217451;0.00269249;0.041602;24.0373;0.00351974;0.00358999;23.7641;0.0420803;129.232;174.232;-0.0160453;-0.000267041;0.0100327;-0.010214;0.00511489;0.0129839;0.0325412;0;0.0329908;2.87687
391000;392;25.9159;0.110346;0.00427604;-2.65335;25.778;-0.294076;-0.259351;0.0866924;-0.681749;-0.767638;-1.28444;-0.0771752;1.49834;-6.01369;-0.00180669;-0.000984903;0.00782247;0.00792218;-0.0019064;0.00491429;0.230962;4.32973;0.00601842;0.00655238;4.15558;0.24064;131.838;176.838;-0.0296553;-0.00186067;0.00854873;-0.0104274;0.0077867;0.0277667;0.0180957;0;0.0368616;-1.02948;-1.37027;-0.765935;1.87727;-6.39361;-0.000243208;-8.96311e-05;0.0053396;0.00534104;-0.000244647;0.00279284;0.045548;21.9549;0.00364498;0.00372379;21.8316;0.0458051;128.683;173.683;-0.0154666;-0.000294782;0.0100322;-0.0101552;0.00528955;0.0129591;0.0322119;0;0.0345298;2.88928
392000;393;25.9165;0.110945;0.00429927;-2.65435;25.7785;-0.296082;-0.260345;0.0871696;-0.683754;-0.767852;-1.28818;-0.0757784;1.50158;-6.01229;-0.00191947;-0.000897028;0.00787081;0.00795232;-0.00200098;0.00497665;0.243872;4.10051;0.00607932;0.00663553;3.97421;0.251622;131.392;176.392;-0.0289762;-0.00197327;0.00870078;-0.0104015;0.00783365;0.0252076;0.0198931;0;0.035455;-1.03044;-1.37492;-0.768332;1.88217;-6.39601;-0.000201293;-6.14605e-05;0.00534537;0.00534605;-0.000201974;0.00277401;0.0376575;26.5551;0.00363323;0.00369868;26.469;0.0377801;128.157;173.157;-0.014647;-0.000249997;0.00980005;-0.00986856;0.00529761;0.011754;0.030845;0;0.0341108;2.90263
393000;394;25.9223;0.116801;0.00452619;-2.65209;25.7847;-0.284316;-0.258091;0.093421;-0.671989;-0.765951;-1.29201;-0.0723832;1.50373;-6.0089;-0.00173864;-0.000955593;0.00834198;0.00843176;-0.00182843;0.0051301;0.208421;4.79798;0.00631945;0.00684013;4.61148;0.21685;130.503;175.503;-0.0281663;-0.00179099;0.00845005;-0.0102671;0.00830702;0.0226885;0.0179114;0;0.0355563;-1.02867;-1.38224;-0.760448;1.88336;-6.38813;-0.000463852;0.000303047;0.00548907;0.00550446;-0.00047924;0.00299185;0.0845046;11.8337;0.00383937;0.00398913;11.4858;0.0870639;124.776;169.776;-0.0149858;-0.000508941;0.0101632;-0.00949872;0.00543775;0.0118794;0.0316084;0;0.0296607;2.9127
394000;395;25.9245;0.119025;0.0046124;-2.65228;25.787;-0.283528;-0.258276;0.0956473;-0.671201;-0.766247;-1.2948;-0.0728095;1.5063;-6.00932;-0.00143324;-0.000317302;0.00836875;0.00837901;-0.0014435;0.00491126;0.171261;5.83903;0.00612415;0.00654834;5.80463;0.172276;126.272;171.272;-0.0275085;-0.00147714;0.00882314;-0.00936887;0.0083302;0.0220873;0.0177047;0;0.0344386;-1.02888;-1.38592;-0.762983;1.88719;-6.39066;-0.000455017;0.000392167;0.00545764;0.00548353;-0.000480914;0.00298222;0.0833725;11.9944;0.00382608;0.0039763;11.4023;0.0877015;123.898;168.898;-0.0155364;-0.000498725;0.0101977;-0.0093557;0.005406;0.0158708;0.0313598;0;0.0303804;2.92426
395000;396;25.9241;0.118563;0.00459448;-2.65272;25.7864;-0.287675;-0.258718;0.0950911;-0.675348;-0.76592;-1.29705;-0.0791909;1.50839;-6.0157;-0.00154494;-0.000997887;0.00728799;0.00739932;-0.00165627;0.0045278;0.211985;4.71732;0.0055677;0.00603706;4.46745;0.223841;132.54;177.54;-0.0277393;-0.00159593;0.00822483;-0.0101396;0.0072549;0.0212738;0.0197171;0;0.0339688;-1.02907;-1.38951;-0.771072;1.89322;-6.39875;-0.000510889;0.000396913;0.00521585;0.00524323;-0.000538267;0.00289075;0.0979493;10.2094;0.00368803;0.00385433;9.74094;0.10266;123.983;168.983;-0.0154911;-0.000552364;0.00996217;-0.00911389;0.00516656;0.0131655;0.0329361;0;0.0287503;2.93722
396000;397;25.9269;0.12142;0.00470518;-2.65373;25.7892;-0.288636;-0.259732;0.0978478;-0.676309;-0.765071;-1.29639;-0.0858825;1.50776;-6.0224;-0.00128863;-0.000683575;0.00665111;0.00670954;-0.00134705;0.0040283;0.193746;5.16138;0.00498311;0.00537106;4.9809;0.200767;131.437;176.437;-0.0270246;-0.00133484;0.00833581;-0.00963176;0.00661683;0.0212994;0.0202469;0;0.0359116;-1.02874;-1.39186;-0.775457;1.89656;-6.40313;-0.000557281;0.000558548;0.00510365;0.00515823;-0.000611865;0.00288505;0.109193;9.15812;0.00365986;0.00384673;8.43034;0.118619;122.562;167.562;-0.0156772;-0.000597078;0.0101072;-0.00893639;0.00505298;0.0159858;0.031554;0;0.0279401;2.94815
397000;398;25.9292;0.123718;0.00479425;-2.65352;25.7915;-0.284707;-0.259521;0.100224;-0.67238;-0.764115;-1.30076;-0.0794531;1.51068;-6.01597;-0.00140719;-0.000520153;0.00674311;0.00677617;-0.00144026;0.00410821;0.208686;4.79188;0.00506624;0.00547762;4.70484;0.212547;130.268;175.268;-0.0269318;-0.00145238;0.00854726;-0.00951412;0.00670696;0.0213103;0.020862;0;0.0373196;-1.02788;-1.39751;-0.770143;1.89808;-6.39782;-0.000717514;0.000619543;0.00497676;0.00504338;-0.000784142;0.00291376;0.144173;6.9361;0.00365181;0.00388502;6.43172;0.155479;122.388;167.388;-0.0147812;-0.000756347;0.0101242;-0.00883134;0.00492595;0.0127115;0.0306289;0;0.0283031;2.95788
398000;399;25.9295;0.123937;0.00480274;-2.65293;25.7918;-0.288135;-0.25893;0.100467;-0.675807;-0.764232;-1.3024;-0.0823038;1.51231;-6.01882;-0.00132495;-0.000640382;0.00653988;0.00659168;-0.00137676;0.00398422;0.202596;4.93593;0.00491803;0.00531229;4.78784;0.208863;131.346;176.346;-0.0270974;-0.00137024;0.00832127;-0.00953196;0.00650569;0.0205364;0.0225316;0;0.0352306;-1.02843;-1.40115;-0.772829;1.90214;-6.40051;-0.000609789;0.000400143;0.00510298;0.00513087;-0.00063768;0.00288428;0.119497;8.36844;0.00365175;0.0038457;8.04616;0.124283;124.164;169.164;-0.0154626;-0.000650167;0.00984644;-0.0089925;0.00505483;0.014634;0.031073;0;0.0265298;2.96537
399000;400;25.9304;0.124922;0.0048409;-2.65338;25.7927;-0.288282;-0.259376;0.10141;-0.675955;-0.764063;-1.30682;-0.0827602;1.51606;-6.01927;-0.00136369;-0.000898548;0.0065433;0.00664412;-0.00146452;0.00405432;0.208411;4.79821;0.00498975;0.00540576;4.53672;0.220423;133.004;178.004;-0.0271485;-0.00140936;0.00786406;-0.00959225;0.00651298;0.0256638;0.0215004;0;0.0344834;-1.02859;-1.40701;-0.773924;1.90699;-6.4016;-0.000538316;0.000220402;0.00535842;0.00536665;-0.000546542;0.0029566;0.100462;9.95405;0.00377317;0.00394213;9.81928;0.10184;125.94;170.94;-0.0169611;-0.000585906;0.0102554;-0.00975574;0.00530614;0.0137647;0.0351524;0;0.0252024;2.97729
400000;401;25.9342;0.128689;0.00498687;-2.65357;25.7965;-0.285127;-0.259564;0.105212;-0.672799;-0.763965;-1.30887;-0.0795034;1.5176;-6.01602;-0.0013353;-0.000551185;0.00627548;0.00631519;-0.00137501;0.0038451;0.21278;4.6997;0.00473548;0.0051268;4.59285;0.21773;131.061;176.061;-0.0271149;-0.00137768;0.00818056;-0.00921685;0.00624238;0.0230782;0.0208352;0;0.0341179;-1.02873;-1.41212;-0.770596;1.9095;-6.39827;-0.000479031;8.52353e-05;0.00569035;0.00569153;-0.000480209;0.00308587;0.0841831;11.8789;0.00396413;0.00411449;11.8522;0.0843725;126.808;171.808;-0.0167004;-0.000528677;0.0101949;-0.00996242;0.00563868;0.0137414;0.0351347;0;0.0274996;2.98603
401000;402;25.9375;0.13199;0.00511478;-2.65448;25.7997;-0.288502;-0.260478;0.108399;-0.676175;-0.763074;-1.3089;-0.084819;1.51746;-6.02133;-0.00142486;-0.000826966;0.00648216;0.00656772;-0.00151043;0.00403907;0.219813;4.54932;0.00495923;0.00538543;4.34826;0.229977;132.66;177.66;-0.0274363;-0.00146953;0.0078958;-0.00948114;0.00645153;0.0231609;0.0196247;0;0.036088;-1.02841;-1.41476;-0.77855;1.9145;-6.40623;-0.00048374;5.75295e-05;0.00595594;0.00595645;-0.000484254;0.00322035;0.0812198;12.3123;0.00414183;0.0042938;12.3003;0.081299;126.906;171.906;-0.0160663;-0.00053607;0.0104092;-0.0102279;0.00590208;0.0122836;0.0338669;0;0.0314037;2.99634
402000;403;25.9415;0.135993;0.00526991;-2.65571;25.8036;-0.291463;-0.261708;0.112264;-0.679136;-0.762744;-1.30914;-0.0924;1.51794;-6.02891;-0.000979026;-0.000188588;0.00588186;0.00588704;-0.000984206;0.00343563;0.166448;6.00788;0.00429056;0.00458083;5.98152;0.167182;128.345;173.345;-0.0266492;-0.00101601;0.00827929;-0.0085987;0.00584781;0.0229049;0.0234382;0;0.0346553;-1.02886;-1.41893;-0.785968;1.92085;-6.41365;-0.000567037;3.7219e-05;0.00617813;0.00617834;-0.000567242;0.00337279;0.0917812;10.8955;0.0043204;0.00449705;10.8919;0.0918114;126.928;171.928;-0.0164196;-0.000619669;0.0104008;-0.0102569;0.00612438;0.0137262;0.0310683;0;0.0359185;3.00702
403000;404;25.9451;0.139619;0.00541042;-2.65601;25.8072;-0.289134;-0.262007;0.115905;-0.676806;-0.764004;-1.31255;-0.0869933;1.5212;-6.02351;-0.00145269;-0.000544302;0.00661471;0.00665127;-0.00148925;0.00407026;0.219615;4.55342;0.005005;0.00542701;4.46619;0.223904;130.3;175.3;-0.027454;-0.00149353;0.00802792;-0.00904778;0.00658285;0.0244762;0.0203051;0;0.0355388;-1.03065;-1.42533;-0.780638;1.92437;-6.40832;-0.000546353;8.03203e-05;0.00638052;0.00638146;-0.000547284;0.00346437;0.0856282;11.6784;0.00444797;0.00461916;11.6602;0.0857617;126.332;171.332;-0.0159999;-0.000599106;0.0105013;-0.010269;0.00632574;0.0139414;0.0343309;0;0.0320929;3.01404
404000;405;25.9502;0.14465;0.00560539;-2.65633;25.8123;-0.285176;-0.262324;0.120974;-0.672849;-0.763855;-1.31304;-0.0900146;1.52172;-6.02653;-0.00119564;-0.000596144;0.00651007;0.00655592;-0.00124149;0.0038987;0.18366;5.44485;0.00483784;0.00519827;5.28071;0.189369;130.669;175.669;-0.0273672;-0.00123739;0.00802564;-0.00915187;0.00647825;0.0226761;0.0217671;0;0.0332521;-1.03063;-1.4293;-0.78566;1.92934;-6.41334;-0.000658514;2.0425e-05;0.00657594;0.006576;-0.000658572;0.00361728;0.10014;9.98603;0.0046192;0.00482305;9.98524;0.100148;126.573;171.573;-0.014789;-0.00070971;0.0102296;-0.0101154;0.00652396;0.0106419;0.0321734;0;0.0298957;3.02221
405000;406;25.9543;0.148815;0.0057668;-2.65678;25.8164;-0.287449;-0.262773;0.12509;-0.675122;-0.762646;-1.31453;-0.0900521;1.52241;-6.02656;-0.00148954;-0.000529169;0.00675602;0.00678985;-0.00152336;0.0041566;0.220475;4.53565;0.0051106;0.00554214;4.45715;0.224358;129.866;174.866;-0.027031;-0.00152941;0.00794987;-0.00893873;0.00672478;0.0238543;0.0236189;0;0.033748;-1.03052;-1.4349;-0.785672;1.93344;-6.41335;-0.000697672;0.00027296;0.00688002;0.00688984;-0.000707492;0.00379867;0.101405;9.8614;0.0048463;0.00506489;9.73841;0.102686;124.365;169.365;-0.0156181;-0.000746733;0.0105289;-0.00990585;0.00682501;0.0148692;0.032807;0;0.0289948;3.02996
406000;407;25.9587;0.15315;0.00593479;-2.65727;25.8207;-0.285482;-0.263263;0.12942;-0.673155;-0.76223;-1.31651;-0.0916012;1.524;-6.02811;-0.00135149;-0.000559578;0.00686204;0.00689998;-0.00138944;0.00414471;0.196951;5.07739;0.00512629;0.00552628;4.96603;0.201368;129.773;174.773;-0.0271162;-0.00139217;0.00798169;-0.00903113;0.00683056;0.024622;0.0225615;0;0.033486;-1.03051;-1.4406;-0.789506;1.93923;-6.41718;-0.000910702;0.000445921;0.00677699;0.00680277;-0.000936481;0.00386963;0.134382;7.4415;0.0048774;0.0051595;7.26418;0.137662;123.188;168.188;-0.0151405;-0.000953799;0.0102571;-0.00929039;0.00672484;0.0132413;0.0325334;0;0.0292293;3.03981
407000;408;25.9615;0.155977;0.00604433;-2.65713;25.8236;-0.287011;-0.263125;0.132259;-0.674684;-0.76282;-1.31677;-0.0942272;1.52468;-6.03074;-0.00140998;-0.000481276;0.0072138;0.00724057;-0.00143675;0.00433866;0.195455;5.11626;0.00537042;0.00578488;5.03955;0.198431;128.477;173.477;-0.026563;-0.00144865;0.00791112;-0.00880178;0.00718284;0.0235514;0.0211102;0;0.0353205;-1.03106;-1.44447;-0.793275;1.94393;-6.42095;-0.00093421;0.000559576;0.00662819;0.00666937;-0.000975392;0.00382238;0.140945;7.09496;0.00480449;0.00509651;6.83763;0.146249;122.427;167.427;-0.0147215;-0.000975121;0.0102504;-0.0090585;0.00657615;0.0121273;0.0320878;0;0.0285721;3.04649
408000;409;25.9659;0.160424;0.00621666;-2.65822;25.8279;-0.288077;-0.264217;0.136606;-0.67575;-0.762347;-1.31652;-0.0987085;1.52451;-6.03522;-0.00181971;-0.000722169;0.0072361;0.00729333;-0.00187694;0.00458513;0.251476;3.97652;0.00559383;0.00611351;3.88576;0.25735;130.635;175.635;-0.0257062;-0.00186239;0.00789241;-0.00925925;0.00720544;0.0200974;0.0237874;0;0.0327442;-1.03176;-1.44867;-0.796371;1.94869;-6.42405;-0.00102004;0.000600392;0.00650631;0.00655391;-0.00106763;0.00381077;0.156776;6.37851;0.00476518;0.00508103;6.13874;0.1629;122.317;167.317;-0.0152568;-0.00105973;0.0101981;-0.00892557;0.00645483;0.0123383;0.0320792;0;0.031172;3.05202
409000;410;25.9693;0.163753;0.00634565;-2.6579;25.8313;-0.289625;-0.263902;0.139967;-0.677298;-0.762046;-1.31761;-0.0978327;1.52525;-6.03435;-0.00167882;-0.000752389;0.0069021;0.00696757;-0.00174429;0.00435593;0.243233;4.11128;0.00532262;0.00580791;3.9945;0.250344;131.317;176.317;-0.0274909;-0.00172123;0.00780088;-0.00923271;0.00687216;0.026109;0.0221125;0;0.0361177;-1.03183;-1.45377;-0.796056;1.95239;-6.42373;-0.000685184;0.000484542;0.00653316;0.00656554;-0.000717564;0.00364155;0.104878;9.53491;0.00463477;0.00485541;9.14977;0.109292;122.792;167.792;-0.0166197;-0.000729025;0.0104134;-0.00937318;0.00647941;0.0154091;0.0342805;0;0.025926;3.05944
410000;411;25.9722;0.166709;0.00646021;-2.65872;25.8341;-0.292498;-0.264714;0.142823;-0.680171;-0.762341;-1.3185;-0.0988363;1.52623;-6.03535;-0.00154476;-0.00058155;0.00698139;0.00702087;-0.00158424;0.00430256;0.221268;4.51941;0.00528836;0.00573674;4.4317;0.225647;129.735;174.735;-0.0265106;-0.0015842;0.00780171;-0.00889379;0.00695133;0.0250434;0.0228998;0;0.0337392;-1.03259;-1.45938;-0.797362;1.9575;-6.42504;-0.00082065;0.000420371;0.00678491;0.00680807;-0.000843814;0.00382594;0.120952;8.26773;0.00484454;0.00510126;8.06822;0.123943;123.385;168.385;-0.0167004;-0.000866071;0.0104528;-0.00953634;0.00673073;0.0141407;0.0358251;0;0.0246818;3.06633
411000;412;25.9768;0.171269;0.00663693;-2.65965;25.8386;-0.295938;-0.265652;0.147272;-0.683611;-0.76151;-1.31892;-0.100511;1.52628;-6.03702;-0.00145535;-0.000628667;0.00798632;0.008028;-0.00149703;0.00476251;0.182231;5.48754;0.0059145;0.00635002;5.36262;0.186476;128.126;173.126;-0.0277593;-0.00149634;0.0078911;-0.00906859;0.00795563;0.026339;0.0219428;0;0.035;-1.03284;-1.46488;-0.80129;1.96334;-6.42897;-0.000885494;0.000232989;0.00733434;0.00734093;-0.000892093;0.00411651;0.120733;8.28276;0.00521681;0.00548868;8.22889;0.121523;124.469;169.469;-0.0167136;-0.000935033;0.0105017;-0.00995198;0.00727962;0.0145193;0.0348674;0;0.0249494;3.07284
412000;413;25.9819;0.176404;0.0068359;-2.66009;25.8436;-0.301698;-0.266088;0.152323;-0.689371;-0.761776;-1.31956;-0.101401;1.52704;-6.03791;-0.00155503;-0.000984032;0.00772337;0.00782658;-0.00165825;0.00474241;0.201341;4.96669;0.00584935;0.00632322;4.71979;0.211874;130.983;175.983;-0.0278968;-0.00160014;0.00765265;-0.00954113;0.00769479;0.0277159;0.0224517;0;0.0352236;-1.03346;-1.47107;-0.801687;1.96845;-6.42936;-0.000841541;0.000111787;0.00764803;0.0076495;-0.000843013;0.00424626;0.110034;9.08812;0.00540264;0.00566168;9.074;0.110205;125.055;170.055;-0.0165718;-0.000894462;0.0105959;-0.010284;0.00759233;0.0147908;0.0324432;0;0.0318013;3.07821
413000;414;25.9885;0.18293;0.00708879;-2.66072;25.8502;-0.295017;-0.266714;0.158896;-0.68269;-0.760491;-1.32197;-0.0937875;1.52799;-6.0303;-0.00182248;-0.00100569;0.00820556;0.00830542;-0.00192234;0.00511388;0.222103;4.50242;0.00627663;0.00681851;4.32047;0.231456;130.317;175.317;-0.0264983;-0.00186746;0.00760336;-0.00952903;0.00817739;0.0234457;0.023058;0;0.0342535;-1.03302;-1.47864;-0.795601;1.97142;-6.42328;-0.00107658;0.000143267;0.00806987;0.00807211;-0.00107882;0.00457547;0.133407;7.49585;0.0057747;0.00610062;7.48234;0.133648;124.414;169.414;-0.0146059;-0.00112595;0.0103114;-0.00993263;0.00801714;0.0102134;0.0326503;0;0.0317433;3.08372
414000;415;25.9978;0.192266;0.00745058;-2.66208;25.8595;-0.289749;-0.268073;0.168202;-0.677422;-0.760472;-1.32121;-0.0987836;1.52764;-6.0353;-0.00193393;-0.00102276;0.00852353;0.00862262;-0.00203302;0.00532782;0.226893;4.40736;0.00653241;0.00710376;4.24129;0.235778;129.785;174.785;-0.0280848;-0.00197826;0.00750519;-0.00946221;0.00849613;0.0275964;0.0220682;0;0.0357784;-1.03356;-1.48417;-0.800893;1.97799;-6.42857;-0.00101721;8.42142e-05;0.00856799;0.00856873;-0.00101795;0.00479334;0.118722;8.42304;0.00608028;0.00639112;8.41765;0.118798;124.177;169.177;-0.0148026;-0.00106792;0.0103313;-0.0100655;0.00851508;0.0108007;0.0361066;0;0.0299477;3.08881
415000;416;26.0036;0.198123;0.00767753;-2.66296;25.8653;-0.294215;-0.268954;0.173949;-0.681888;-0.761056;-1.3213;-0.103718;1.52833;-6.04023;-0.00190196;-0.000936431;0.00891962;0.00900005;-0.00198239;0.00549122;0.213233;4.6897;0.00675845;0.00732163;4.53999;0.220265;128.676;173.676;-0.0276657;-0.00194667;0.00771382;-0.00949383;0.00889056;0.0271779;0.0223662;0;0.0361668;-1.03483;-1.49117;-0.807025;1.98639;-6.4347;-0.00104978;0.000227187;0.00843426;0.0084397;-0.00105521;0.00474746;0.124466;8.03435;0.00600917;0.00632994;7.99809;0.12503;123.167;168.167;-0.0140735;-0.00109535;0.0100918;-0.00954465;0.00838379;0.0107945;0.0346545;0;0.0300581;3.09461
416000;417;26.0098;0.20427;0.00791575;-2.66308;25.8714;-0.2938;-0.269081;0.180121;-0.681473;-0.760559;-1.32091;-0.100588;1.52754;-6.0371;-0.0017479;-0.000669747;0.00845036;0.00849415;-0.0017917;0.00514292;0.206843;4.83457;0.00634489;0.00685723;4.74084;0.210933;127.728;172.728;-0.0274013;-0.00178847;0.00777065;-0.00902474;0.00842064;0.0257367;0.0232855;0;0.0351747;-1.03501;-1.49669;-0.805774;1.99013;-6.43345;-0.00122898;0.00040297;0.00852771;0.00854433;-0.00124559;0.00489496;0.144116;6.93887;0.00615358;0.00652661;6.85965;0.14578;122.176;167.176;-0.0152487;-0.00127174;0.0101514;-0.00925122;0.0084767;0.0142235;0.0333987;0;0.0314901;3.09733
417000;418;26.0168;0.211247;0.00818611;-2.66363;25.8784;-0.292179;-0.269625;0.187097;-0.679851;-0.759816;-1.32271;-0.0990817;1.52862;-6.03559;-0.00186861;-0.000790822;0.00888878;0.0089466;-0.00192644;0.00543652;0.210221;4.75689;0.00669952;0.00724869;4.64412;0.215326;127.759;172.759;-0.0272072;-0.00191061;0.007699;-0.00919007;0.00885971;0.0260719;0.0238057;0;0.0354807;-1.035;-1.50443;-0.805265;1.99574;-6.43294;-0.00123683;0.000585442;0.00831638;0.00835213;-0.00127258;0.00481235;0.148722;6.72394;0.00603715;0.00641647;6.56317;0.152365;121.311;166.311;-0.0155052;-0.00127767;0.0103142;-0.00905118;0.0082638;0.012476;0.0339952;0;0.0284472;3.10129
418000;419;26.0206;0.215071;0.00833429;-2.66212;25.8824;-0.29392;-0.268113;0.191077;-0.681593;-0.759663;-1.32492;-0.0923062;1.53004;-6.02882;-0.00197743;-0.000704972;0.00951608;0.00955916;-0.00202051;0.00578983;0.207799;4.81235;0.00714218;0.00771978;4.73107;0.211369;126.292;171.292;-0.0274985;-0.00201841;0.00775802;-0.00907157;0.00948652;0.0278496;0.0224118;0;0.0370726;-1.03494;-1.51259;-0.79929;1.99948;-6.42697;-0.00144831;0.000638293;0.00855526;0.00859582;-0.00148887;0.00504235;0.169289;5.90705;0.00628589;0.00672313;5.77337;0.173209;120.661;165.661;-0.015403;-0.00148446;0.00988883;-0.00852054;0.00850698;0.0128227;0.0337485;0;0.0285783;3.10342
419000;420;26.0281;0.222554;0.00862427;-2.66491;25.8897;-0.291288;-0.270906;0.198343;-0.678961;-0.759207;-1.32315;-0.0977341;1.52862;-6.03425;-0.00216729;-0.000814674;0.00965126;0.00970716;-0.00222318;0.00596517;0.22456;4.45315;0.00732582;0.00795356;4.36633;0.229025;127.118;172.118;-0.0265361;-0.00221162;0.00791357;-0.00944069;0.00962058;0.0239481;0.0217988;0;0.0345884;-1.03648;-1.51876;-0.802628;2.00627;-6.43031;-0.00107025;0.000468125;0.00886988;0.00889188;-0.00109225;0.00499207;0.120661;8.28767;0.00632353;0.00665609;8.1409;0.122837;121.259;166.259;-0.0165483;-0.00111289;0.0102746;-0.00924178;0.00881767;0.0153091;0.0353891;0;0.0258843;3.11005
420000;421;26.0345;0.22893;0.00887136;-2.6661;25.8958;-0.301518;-0.272099;0.204513;-0.689191;-0.759897;-1.32082;-0.102594;1.52726;-6.03911;-0.00200048;-0.000737133;0.00942421;0.00947157;-0.00204784;0.00575971;0.21227;4.71098;0.00709619;0.00767961;4.62515;0.216209;126.755;171.755;-0.0283634;-0.00204262;0.00782315;-0.00920048;0.00939416;0.0274343;0.0218591;0;0.0351392;-1.03779;-1.52302;-0.812879;2.01429;-6.44056;-0.00123074;0.000294425;0.00940667;0.00941482;-0.00123888;0.00532685;0.130837;7.64311;0.00672764;0.00710247;7.59944;0.131589;122.296;167.296;-0.0159764;-0.00127894;0.0105127;-0.00981617;0.00935197;0.0156969;0.0343284;0;0.0310275;3.11273
421000;422;26.042;0.236463;0.00916326;-2.6661;25.9034;-0.304092;-0.272096;0.212057;-0.691765;-0.759742;-1.32012;-0.105181;1.52676;-6.04169;-0.0018795;-0.000445689;0.00955658;0.00957392;-0.00189685;0.00573539;0.196671;5.08463;0.00709987;0.00764718;5.04728;0.198126;124.797;169.797;-0.0272054;-0.0019181;0.00799299;-0.00878874;0.00952504;0.0260788;0.0224267;0;0.034931;-1.03808;-1.52969;-0.816484;2.02095;-6.44416;-0.00122574;0.000256965;0.00985781;0.00986376;-0.0012317;0.00554773;0.124342;8.04231;0.00702251;0.00739698;8.00826;0.124871;122.05;167.05;-0.0149096;-0.00127477;0.0105262;-0.00989958;0.00980298;0.0114856;0.0331002;0;0.0337091;3.11328
422000;423;26.0492;0.243697;0.0094436;-2.66783;25.9105;-0.302248;-0.273828;0.219173;-0.689921;-0.760452;-1.32017;-0.101394;1.5269;-6.03791;-0.00202207;-0.000420697;0.0098387;0.0098536;-0.00203697;0.00594528;0.205522;4.86567;0.00734285;0.00792704;4.83738;0.206723;124.619;169.619;-0.0276575;-0.00206196;0.00819278;-0.00893297;0.00980555;0.0262348;0.0235368;0;0.0354436;-1.03978;-1.5368;-0.81353;2.02601;-6.44121;-0.00120933;0.000126928;0.0104059;0.0104072;-0.00121072;0.00580898;0.116216;8.60466;0.00737494;0.00774531;8.59594;0.116334;121.891;166.891;-0.0139984;-0.00125783;0.010214;-0.00984415;0.0103542;0.00945253;0.0346368;0;0.0302945;3.11605
423000;424;26.0594;0.253909;0.00983933;-2.66872;25.9206;-0.303121;-0.274715;0.229338;-0.690794;-0.760293;-1.31838;-0.106485;1.52562;-6.043;-0.00257458;-0.000968331;0.00999452;0.0100687;-0.00264875;0.00635871;0.257599;3.882;0.00774779;0.00847829;3.8013;0.263068;127.726;172.726;-0.0265912;-0.00262075;0.00781769;-0.00964494;0.00996473;0.0220954;0.0244681;0;0.0364424;-1.04047;-1.54385;-0.819479;2.0341;-6.44716;-0.00137024;0.000298695;0.0107875;0.0107948;-0.00137757;0.0060862;0.127021;7.8727;0.00769695;0.00811494;7.83611;0.127614;120.742;165.742;-0.0143767;-0.00141607;0.0102898;-0.00957224;0.0107352;0.0112799;0.0371262;0;0.031396;3.12046
424000;425;26.0668;0.261294;0.0101255;-2.6694;25.9279;-0.307796;-0.275395;0.236637;-0.695469;-0.76108;-1.31837;-0.103947;1.52583;-6.04046;-0.0027134;-0.000746768;0.0104829;0.010525;-0.00275553;0.00664025;0.258842;3.86336;0.00809307;0.00885367;3.81959;0.261808;126.126;171.126;-0.0266745;-0.00275789;0.00807136;-0.00944969;0.0104509;0.0214195;0.0224114;0;0.0341482;-1.0421;-1.55143;-0.81963;2.04076;-6.44731;-0.00149007;0.000399605;0.0106065;0.0106196;-0.00150326;0.00606145;0.140487;7.11808;0.00763037;0.00808193;7.06442;0.141554;120.091;165.091;-0.0149462;-0.00153062;0.0099206;-0.00900746;0.0105578;0.0129295;0.0372647;0;0.0314049;3.12191
425000;426;26.0743;0.268791;0.010416;-2.66985;25.9355;-0.303699;-0.275851;0.244176;-0.691372;-0.759826;-1.31706;-0.105554;1.52418;-6.04207;-0.0026919;-0.0012385;0.0112929;0.0114018;-0.00280074;0.00710126;0.238371;4.19515;0.00868659;0.00946834;4.07099;0.245641;127.036;172.036;-0.027199;-0.00274252;0.00777187;-0.0101242;0.0112638;0.0232113;0.0220819;0;0.0356288;-1.04164;-1.55727;-0.821342;2.04565;-6.44902;-0.00173634;0.000580683;0.0104645;0.0104921;-0.00176392;0.006128;0.165927;6.02676;0.00765078;0.00817067;5.94818;0.168119;119.674;164.674;-0.0143581;-0.00177465;0.0100397;-0.00876415;0.0104148;0.011452;0.0340924;0;0.0295082;3.12377
426000;427;26.0811;0.275544;0.0106777;-2.67143;25.942;-0.309516;-0.277424;0.250735;-0.697189;-0.760693;-1.31654;-0.10368;1.52403;-6.04019;-0.00254883;-0.000788069;0.0108087;0.010855;-0.00259517;0.00672509;0.235814;4.24063;0.00823911;0.00896678;4.18278;0.239076;125.996;170.996;-0.026251;-0.00259684;0.00836265;-0.0098178;0.0107744;0.0194632;0.0240957;0;0.0360112;-1.04328;-1.56478;-0.821298;2.05219;-6.44898;-0.00160431;0.000496007;0.0104686;0.0104889;-0.00162465;0.00605678;0.15325;6.52529;0.00759232;0.0080757;6.4561;0.154892;119.655;164.655;-0.0151303;-0.00164179;0.00976831;-0.00866556;0.0104215;0.0124367;0.0338783;0;0.0284333;3.12625
427000;428;26.0873;0.281789;0.0109197;-2.67196;25.9482;-0.312324;-0.277962;0.256924;-0.699997;-0.761112;-1.31621;-0.10702;1.52419;-6.04353;-0.00227728;-0.000455034;0.0106957;0.0107116;-0.00229323;0.00650243;0.212916;4.69668;0.0080156;0.0086699;4.67099;0.214088;123.898;168.898;-0.0281996;-0.00231831;0.0082607;-0.00905886;0.010662;0.0266653;0.0237444;0;0.0349236;-1.04429;-1.57234;-0.825187;2.06004;-6.45287;-0.00159454;0.000496314;0.0109057;0.0109253;-0.00161422;0.00626977;0.146212;6.83936;0.00787695;0.0083597;6.76819;0.14775;119.522;164.522;-0.0161401;-0.00163454;0.0100613;-0.00895047;0.0108557;0.0138841;0.03797;0;0.0272726;3.1298
428000;429;26.0951;0.289565;0.0112211;-2.67299;25.9559;-0.314998;-0.278984;0.264604;-0.702671;-0.75964;-1.3133;-0.114605;1.5215;-6.05112;-0.00282707;-0.00108865;0.0116989;0.01178;-0.00290821;0.00734411;0.241653;4.13817;0.0089811;0.00979215;4.05061;0.246876;125.765;170.765;-0.0267469;-0.0028751;0.00779752;-0.00984714;0.0116694;0.0256488;0.0245394;0;0.0327284;-1.04459;-1.57816;-0.831072;2.06698;-6.45875;-0.00159624;0.000461329;0.0113923;0.0114086;-0.0016126;0.00651061;0.140116;7.13694;0.00819634;0.00868082;7.07466;0.14135;119.708;164.708;-0.0152617;-0.00164073;0.0104881;-0.00943669;0.011338;0.0137847;0.0349622;0;0.0322011;3.13102
429000;430;26.1055;0.299975;0.0116244;-2.67315;25.9664;-0.313402;-0.279144;0.275072;-0.701074;-0.760038;-1.31285;-0.109911;1.52096;-6.04642;-0.00252771;-0.00083586;0.0108999;0.0109518;-0.00257954;0.00676565;0.231901;4.31218;0.0082958;0.00902086;4.24563;0.235536;125.748;170.748;-0.0269373;-0.00257385;0.0080779;-0.00963116;0.010868;0.019938;0.0240222;0;0.0364718;-1.04455;-1.58689;-0.827786;2.07233;-6.45546;-0.00170515;0.000245302;0.0120875;0.0120919;-0.00170952;0.0069007;0.141067;7.08881;0.00868734;0.00920093;7.07328;0.141377;120.087;165.087;-0.0142916;-0.00175208;0.0103099;-0.00968215;0.012035;0.00987614;0.0331548;0;0.0463162;3.13292
430000;431;26.1143;0.308779;0.0119656;-2.675;25.975;-0.313333;-0.281001;0.283733;-0.701005;-0.759148;-1.3117;-0.111868;1.51966;-6.04838;-0.00249444;-0.000427804;0.0116939;0.0117068;-0.00250733;0.00710706;0.213311;4.68798;0.00876074;0.00947608;4.66902;0.214177;122.999;167.999;-0.0284975;-0.00253804;0.00860678;-0.00933565;0.0116574;0.0250336;0.0237492;0;0.0373639;-1.04531;-1.59289;-0.834006;2.07979;-6.46168;-0.00177795;0.000173177;0.0126775;0.0126796;-0.00178002;0.00722982;0.140244;7.13045;0.00910461;0.00963976;7.1233;0.140384;119.818;164.818;-0.014227;-0.00182538;0.0102227;-0.0097329;0.012626;0.0104478;0.0355162;0;0.028128;3.13445
431000;432;26.1234;0.317882;0.0123184;-2.67557;25.9841;-0.317512;-0.28157;0.292775;-0.705185;-0.760722;-1.31157;-0.106972;1.51999;-6.04348;-0.00273576;-0.000672362;0.0120868;0.0121172;-0.00276619;0.0074417;0.226343;4.41807;0.0091408;0.00992227;4.38046;0.228286;123.771;168.771;-0.0265297;-0.00278225;0.00844132;-0.00965251;0.0120518;0.0205513;0.024162;0;0.0387072;-1.04757;-1.60107;-0.83204;2.08641;-6.45972;-0.0019175;0.000189575;0.0130655;0.0130679;-0.0019199;0.00749388;0.146761;6.8138;0.00941734;0.00999185;6.80653;0.146918;119.005;164.005;-0.0141519;-0.00196097;0.0098387;-0.00931686;0.0130177;0.00982641;0.0406321;0;0.0307679;3.13659
432000;433;26.1318;0.32623;0.0126419;-2.67591;25.9924;-0.321049;-0.281912;0.30109;-0.708722;-0.759947;-1.3091;-0.111279;1.51778;-6.04779;-0.00268106;-0.000957506;0.0122237;0.012285;-0.00274232;0.00751366;0.219332;4.5593;0.00924076;0.0100182;4.47979;0.223225;124.769;169.769;-0.0275391;-0.00273142;0.00828914;-0.0100679;0.0121903;0.0205382;0.0239802;0;0.036273;-1.04761;-1.60729;-0.837489;2.09338;-6.46517;-0.00197922;0.000434263;0.0128433;0.012856;-0.00199193;0.00742396;0.154105;6.48907;0.00930598;0.00989862;6.45405;0.154942;118.006;163.006;-0.0144004;-0.00201785;0.00979787;-0.00879234;0.012796;0.0109901;0.0376463;0;0.0323813;3.14103
433000;434;26.139;0.333441;0.0129213;-2.67705;25.9995;-0.322849;-0.283051;0.3082;-0.710521;-0.760015;-1.30849;-0.109033;1.51712;-6.04555;-0.00282844;-0.000801949;0.0125369;0.0125786;-0.00287018;0.00772439;0.22561;4.43243;0.00948828;0.0102992;4.38251;0.22818;124.077;169.077;-0.0272526;-0.00287889;0.00860144;-0.0100626;0.0125006;0.0190168;0.0221718;0;0.0368123;-1.04863;-1.61486;-0.83753;2.09973;-6.46521;-0.00217242;0.000582;0.0127628;0.0127855;-0.00219506;0.00749027;0.170214;5.87495;0.0093417;0.00998703;5.82466;0.171684;117.501;162.501;-0.0148692;-0.00220796;0.00974148;-0.00844246;0.0127162;0.00926295;0.0390584;0;0.0290015;3.14203
434000;435;26.147;0.341442;0.0132314;-2.67745;26.0075;-0.32158;-0.283452;0.316219;-0.709253;-0.760113;-1.30844;-0.106033;1.51692;-6.04255;-0.0025738;-0.000273534;0.0126342;0.0126391;-0.00257872;0.00760893;0.203717;4.90877;0.00940427;0.0101452;4.90132;0.204027;121.584;166.584;-0.0289107;-0.00261845;0.00903402;-0.00944128;0.012594;0.0239289;0.02271;0;0.0376448;-1.04938;-1.62341;-0.835358;2.10582;-6.46304;-0.00198275;0.000702095;0.0128019;0.0128352;-0.00201602;0.00742559;0.154879;6.45664;0.00930189;0.00990079;6.3666;0.15707;116.855;161.855;-0.0152171;-0.00201786;0.00994023;-0.00840124;0.0127534;0.0137588;0.0370385;0;0.0288428;3.14265
435000;436;26.1541;0.348546;0.0135067;-2.67924;26.0144;-0.324737;-0.285242;0.323137;-0.712409;-0.759496;-1.30561;-0.11173;1.51457;-6.04824;-0.00318361;-0.000699172;0.0128054;0.0128359;-0.00321412;0.00802502;0.248614;4.0223;0.00980584;0.0107;3.9936;0.2504;123.53;168.53;-0.0270354;-0.00323174;0.0085687;-0.00982068;0.0127694;0.0216628;0.0247241;0;0.0341381;-1.04998;-1.62962;-0.839969;2.11274;-6.46765;-0.00204549;0.000609998;0.0132113;0.0132356;-0.00206984;0.00765274;0.154829;6.45873;0.00958847;0.0102037;6.39452;0.156384;117.458;162.458;-0.0154526;-0.00208518;0.0102866;-0.00892093;0.0131593;0.0127579;0.0358244;0;0.0267535;3.14404
436000;437;26.1626;0.357103;0.0138382;-2.67975;26.023;-0.327896;-0.285749;0.331648;-0.715569;-0.759578;-1.30531;-0.109315;1.51418;-6.04583;-0.00275348;-0.00045966;0.0122274;0.0122415;-0.00276757;0.00750453;0.22519;4.4407;0.00922298;0.010006;4.42318;0.226082;122.749;167.749;-0.0279917;-0.00279782;0.00862981;-0.00941456;0.0121907;0.0230143;0.0239128;0;0.036825;-1.05085;-1.63733;-0.840218;2.11922;-6.4679;-0.00207404;0.000474713;0.0138614;0.0138755;-0.00208817;0.00798185;0.149627;6.68328;0.0100192;0.0106425;6.64483;0.150493;117.215;162.215;-0.0136261;-0.00211407;0.0100502;-0.00895034;0.0138117;0.0104393;0.0333007;0;0.0279496;3.14619
437000;438;26.1722;0.366643;0.0142079;-2.68212;26.0322;-0.33351;-0.288113;0.340924;-0.721183;-0.759807;-1.30116;-0.116462;1.51125;-6.05297;-0.00305003;-0.000397437;0.0129517;0.0129616;-0.0030599;0.00801073;0.235493;4.24642;0.00982121;0.010681;4.23595;0.236075;122.338;167.338;-0.0274168;-0.0030971;0.00905045;-0.00969604;0.0129113;0.0195264;0.0232626;0;0.0375397;-1.05208;-1.6427;-0.848632;2.12733;-6.47631;-0.00216019;0.000264422;0.0144519;0.0144561;-0.0021644;0.00831025;0.149474;6.69011;0.010434;0.0110803;6.67904;0.149722;118.172;163.172;-0.0140497;-0.00220724;0.0103887;-0.00969409;0.0143987;0.0107854;0.0348522;0;0.0302701;3.14933
438000;439;26.1828;0.377288;0.0146204;-2.6821;26.043;-0.327672;-0.288094;0.351703;-0.715344;-0.758616;-1.30231;-0.111566;1.51127;-6.04808;-0.00304236;-0.000296122;0.0134489;0.0134542;-0.00304768;0.00825095;0.226216;4.42054;0.0101392;0.0110013;4.41458;0.226522;121.414;166.414;-0.0265838;-0.00308898;0.00920805;-0.00964561;0.0134071;0.0171555;0.022918;0;0.0375059;-1.05177;-1.65236;-0.845661;2.13346;-6.47334;-0.00238455;0.000177601;0.0151938;0.0151956;-0.00238635;0.00879099;0.156942;6.37178;0.0110124;0.0117213;6.36774;0.157042;117.407;162.407;-0.0137593;-0.00242837;0.0098753;-0.00935219;0.0151458;0.00933301;0.0384888;0;0.0292846;3.15055
439000;440;26.1916;0.386071;0.0149608;-2.68181;26.0519;-0.329222;-0.287805;0.360543;-0.716895;-0.759163;-1.30235;-0.109036;1.5114;-6.04555;-0.00269901;1.15432e-05;0.0136447;0.0136447;-0.00269902;0.00817185;0.197807;5.05543;0.0101168;0.0108958;5.05541;0.197808;119.179;164.179;-0.0278105;-0.00273908;0.00910943;-0.00893965;0.0136037;0.0211113;0.0225136;0;0.0368618;-1.0527;-1.66042;-0.846442;2.14047;-6.47412;-0.00242359;0.000360274;0.0152779;0.0152852;-0.00243092;0.00885806;0.158634;6.30383;0.0110896;0.0118108;6.28784;0.159037;116.268;161.268;-0.0140215;-0.00246243;0.00969441;-0.00881115;0.0152317;0.00909954;0.0415971;0;0.0318895;3.15201
440000;441;26.2007;0.395198;0.0153145;-2.68274;26.0609;-0.329232;-0.288739;0.369622;-0.716905;-0.758887;-1.29983;-0.112913;1.50938;-6.04943;-0.00322034;-0.000471218;0.0136694;0.0136826;-0.00323347;0.00845802;0.235587;4.24472;0.010369;0.0112774;4.23154;0.236321;121.875;166.875;-0.0267936;-0.00326815;0.008989;-0.00977377;0.0136297;0.0176571;0.0243539;0;0.0380792;-1.05362;-1.66721;-0.849578;2.14744;-6.47726;-0.00262124;0.000462235;0.015052;0.0150641;-0.00263332;0.00884872;0.174145;5.74234;0.0110258;0.0117983;5.72058;0.174807;115.934;160.934;-0.0153007;-0.00265652;0.00948359;-0.00840208;0.0150078;0.0104736;0.0403246;0;0.0310564;3.15264
441000;442;26.2071;0.401553;0.0155607;-2.68387;26.0671;-0.333998;-0.289872;0.375834;-0.721671;-0.758855;-1.29868;-0.11446;1.50849;-6.05097;-0.00354434;-0.000632375;0.0144561;0.0144783;-0.00356653;0.00902243;0.245179;4.07865;0.0110349;0.0120299;4.0595;0.246336;121.658;166.658;-0.0261645;-0.00359292;0.00876108;-0.0098591;0.0144185;0.022076;0.0246746;0;0.0320796;-1.05462;-1.67446;-0.851858;2.15446;-6.47954;-0.00251904;0.000610866;0.0150658;0.0150869;-0.00254024;0.00881359;0.167203;5.98075;0.0110029;0.0117515;5.93919;0.168373;115.39;160.39;-0.0146243;-0.0025534;0.00967993;-0.00830113;0.0150198;0.00853748;0.0401551;0;0.0297277;3.1535
442000;443;26.2157;0.410195;0.0158956;-2.68475;26.0758;-0.333488;-0.290745;0.384439;-0.721161;-0.75908;-1.29681;-0.115775;1.50709;-6.05229;-0.00329271;-0.00043488;0.0145054;0.014516;-0.00330333;0.00890966;0.227;4.40529;0.0109459;0.0118795;4.39435;0.227565;120.702;165.702;-0.0262034;-0.00333944;0.00895635;-0.00966132;0.0144659;0.017162;0.0233792;0;0.0360279;-1.05555;-1.68095;-0.85387;2.16076;-6.48155;-0.00275058;0.000565951;0.0152574;0.0152752;-0.00276835;0.00902175;0.180279;5.54697;0.0112206;0.012029;5.51779;0.181232;115.797;160.797;-0.0157325;-0.00278632;0.00975731;-0.00846242;0.0152107;0.0112363;0.0389455;0;0.0305407;3.15553
443000;444;26.2207;0.41515;0.0160877;-2.68612;26.0805;-0.343664;-0.292119;0.389148;-0.731337;-0.758829;-1.29626;-0.11338;1.50631;-6.04989;-0.00330009;-0.000366101;0.0147775;0.0147849;-0.0033075;0.0090462;0.223319;4.47791;0.0111242;0.0120616;4.47011;0.223708;120.092;165.092;-0.026695;-0.00334567;0.00897288;-0.00953869;0.0147379;0.0200585;0.0230552;0;0.0371068;-1.0561;-1.68814;-0.854465;2.16686;-6.48214;-0.00259659;0.000585661;0.0155032;0.0155221;-0.00261552;0.0090688;0.167488;5.97058;0.0113211;0.0120917;5.93461;0.168503;115.555;160.555;-0.014936;-0.00263352;0.00994141;-0.00860339;0.0154547;0.0133382;0.0351187;0;0.0272432;3.15959
444000;445;26.2314;0.42584;0.0165019;-2.68698;26.0911;-0.345219;-0.292974;0.399787;-0.732892;-0.759882;-1.293;-0.119257;1.50449;-6.05577;-0.00347464;-0.000338138;0.0151569;0.0151631;-0.00348077;0.00932191;0.229244;4.36216;0.0114468;0.0124292;4.35623;0.229556;120.103;165.103;-0.0267596;-0.00352249;0.00927143;-0.0097713;0.0151146;0.0184937;0.0249678;0;0.0368171;-1.05803;-1.69474;-0.861301;2.17564;-6.48898;-0.00266492;0.000359953;0.0163011;0.0163079;-0.00267175;0.00948983;0.163481;6.1169;0.0118632;0.0126531;6.10383;0.163832;115.961;160.961;-0.0138272;-0.00270632;0.00999374;-0.00909409;0.016252;0.00983584;0.0332024;0;0.0290677;3.16122
445000;446;26.2424;0.436848;0.0169285;-2.68705;26.1022;-0.339229;-0.293051;0.410924;-0.726902;-0.759445;-1.29442;-0.114713;1.50514;-6.05123;-0.00329693;-1.21787e-05;0.0153705;0.0153705;-0.00329694;0.00933371;0.214498;4.66206;0.0115045;0.0124449;4.66205;0.214498;118.549;163.549;-0.0286864;-0.00334081;0.00950363;-0.00935304;0.015326;0.0221323;0.0229106;0;0.0372567;-1.05801;-1.7046;-0.857745;2.18192;-6.48542;-0.002808;0.000263057;0.0168934;0.0168969;-0.00281151;0.00985421;0.166219;6.01616;0.0123093;0.0131389;6.0099;0.166392;115.587;160.587;-0.0135385;-0.00284871;0.00972316;-0.00901378;0.0168469;0.00952621;0.0386115;0;0.034869;3.1624
446000;447;26.2507;0.445222;0.017253;-2.6893;26.1104;-0.341168;-0.2953;0.419087;-0.728841;-0.759996;-1.29252;-0.117226;1.50397;-6.05374;-0.00325656;-0.000388291;0.0161222;0.0161299;-0.00326434;0.00969714;0.201993;4.95067;0.0119904;0.0129295;4.94126;0.202378;118.935;163.935;-0.0269195;-0.00330475;0.00921515;-0.00980855;0.0160804;0.0168606;0.0228388;0;0.0377828;-1.05961;-1.71124;-0.862487;2.18975;-6.49017;-0.00289682;0.000273396;0.0174425;0.0174462;-0.00290049;0.0101733;0.166078;6.02126;0.0127084;0.0135644;6.0149;0.166254;114.944;159.944;-0.01435;-0.00293625;0.00960545;-0.00887212;0.0173972;0.00961816;0.0433034;0;0.0308501;3.16309
447000;448;26.2592;0.453635;0.017579;-2.68945;26.1188;-0.345194;-0.29545;0.427476;-0.732866;-0.759942;-1.2902;-0.119256;1.50212;-6.05577;-0.00353968;-0.000433872;0.0165052;0.0165146;-0.00354907;0.0100318;0.214458;4.66292;0.0123638;0.0133758;4.65323;0.214905;119.108;164.108;-0.0273451;-0.00358961;0.00930872;-0.0099843;0.0164627;0.016437;0.0225144;0;0.0375734;-1.06055;-1.71751;-0.865898;2.19645;-6.49358;-0.00294178;0.000375127;0.0175898;0.0175966;-0.00294863;0.0102726;0.167244;5.9793;0.0128274;0.0136968;5.96772;0.167568;114.283;159.283;-0.0141998;-0.00297865;0.00951747;-0.00858278;0.0175453;0.00961436;0.0440139;0;0.0303117;3.16436
448000;449;26.2679;0.46234;0.0179163;-2.68998;26.1275;-0.346388;-0.295978;0.436158;-0.734061;-0.759909;-1.28952;-0.11751;1.50138;-6.05402;-0.00352983;5.92361e-05;0.016394;0.0163942;-0.00353001;0.00996209;0.215312;4.64442;0.0122765;0.0132828;4.64424;0.215321;117.702;162.702;-0.0286372;-0.00357434;0.00972617;-0.00941821;0.0163475;0.0234358;0.0221794;0;0.0340833;-1.06157;-1.72531;-0.865851;2.20303;-6.49353;-0.00308247;0.000514878;0.0174995;0.0175123;-0.00309535;0.0103038;0.176147;5.67708;0.0128317;0.0137385;5.65763;0.176752;113.761;158.761;-0.0156314;-0.00311618;0.00942386;-0.00821393;0.0174559;0.0118143;0.0451906;0;0.0324337;3.16718
449000;450;26.2742;0.468634;0.0181602;-2.6911;26.1337;-0.348276;-0.297101;0.442345;-0.735949;-0.759457;-1.28755;-0.118082;1.4995;-6.05459;-0.00380205;-0.000427573;0.0168873;0.0168961;-0.00381088;0.0103535;0.225142;4.44163;0.012726;0.0138047;4.43366;0.225547;118.885;163.885;-0.026338;-0.00385157;0.00928487;-0.00994237;0.016845;0.0168692;0.0213355;0;0.0367934;-1.06181;-1.73141;-0.866929;2.20835;-6.49461;-0.0030427;0.000645434;0.0174382;0.0174586;-0.00306302;0.0102608;0.174484;5.73118;0.012783;0.013681;5.69979;0.175445;113.827;158.827;-0.015388;-0.00307745;0.00982505;-0.00834945;0.017391;0.0132994;0.040678;0;0.0322637;3.16733
450000;451;26.2818;0.4763;0.0184573;-2.69232;26.1412;-0.350872;-0.298321;0.449892;-0.738545;-0.759683;-1.28683;-0.121136;1.49924;-6.05765;-0.00386481;-1.66075e-05;0.0169837;0.0169837;-0.00386483;0.0104243;0.22756;4.39444;0.0128066;0.013899;4.39443;0.227561;117.361;162.361;-0.0265458;-0.00390806;0.00944279;-0.00928209;0.0169399;0.0182542;0.0229857;0;0.0367394;-1.06288;-1.73924;-0.870898;2.21656;-6.49858;-0.00296672;0.000641564;0.0177864;0.0178062;-0.00298653;0.0103964;0.166797;5.99531;0.0129813;0.0138618;5.96216;0.167724;113.827;158.827;-0.0145146;-0.00300358;0.0100731;-0.00859768;0.0177367;0.0114882;0.0368698;0;0.0322538;3.16942
451000;452;26.2899;0.484397;0.0187711;-2.693;26.1492;-0.353841;-0.299002;0.457923;-0.741514;-0.760011;-1.28519;-0.120953;1.49798;-6.05747;-0.00389398;-0.000546022;0.0176217;0.0176356;-0.00390783;0.0107717;0.220976;4.52537;0.0132531;0.0143623;4.51288;0.221588;118.866;163.866;-0.0278311;-0.00394725;0.00943505;-0.010316;0.0175781;0.019062;0.0228402;0;0.0355725;-1.06408;-1.74607;-0.87255;2.22315;-6.50023;-0.00300593;0.000553689;0.0180988;0.0181133;-0.00302045;0.0105669;0.166084;6.02104;0.0131981;0.0140892;5.99691;0.166753;113.632;158.632;-0.0144598;-0.00304243;0.00984846;-0.00854845;0.0180513;0.0109686;0.0362;0;0.0318072;3.1718
452000;453;26.2979;0.492359;0.0190796;-2.69428;26.1571;-0.357477;-0.30028;0.465746;-0.74515;-0.759364;-1.28451;-0.119775;1.49698;-6.05629;-0.00404696;-0.000485983;0.0180856;0.0180963;-0.00405763;0.011077;0.223767;4.46894;0.0136197;0.0147693;4.45982;0.224224;118.17;163.17;-0.0266693;-0.00409816;0.00935223;-0.0101103;0.0180428;0.0184904;0.0223513;0;0.0358798;-1.06428;-1.75397;-0.872593;2.22947;-6.50027;-0.00310647;0.000411599;0.0188689;0.0188766;-0.00311418;0.0109954;0.164635;6.07406;0.0137406;0.0146605;6.0615;0.164976;113.746;158.746;-0.0143609;-0.00314597;0.00991144;-0.00888338;0.0188208;0.00997458;0.0375793;0;0.0281993;3.1775
453000;454;26.3074;0.501832;0.0194467;-2.69503;26.1665;-0.360718;-0.301025;0.475149;-0.748391;-0.760495;-1.28474;-0.119997;1.49776;-6.05651;-0.00405743;-0.00050858;0.018392;0.0184035;-0.00406895;0.0112362;0.220608;4.53292;0.0138264;0.0149817;4.52292;0.221096;118.157;163.157;-0.0269791;-0.00411055;0.00950205;-0.0102985;0.0183478;0.0181965;0.0218867;0;0.0368061;-1.06621;-1.76309;-0.874093;2.23815;-6.50177;-0.00315416;0.000252309;0.0196158;0.0196186;-0.00315696;0.0113878;0.160797;6.21902;0.0142484;0.0151837;6.21439;0.160917;113.555;158.555;-0.0144556;-0.00319504;0.0097475;-0.00903085;0.0195692;0.0109472;0.0417511;0;0.0290626;3.17616
454000;455;26.3182;0.512696;0.0198677;-2.69554;26.1774;-0.35565;-0.301539;0.486088;-0.743323;-0.760035;-1.28298;-0.119226;1.49597;-6.05574;-0.0041483;-0.000514641;0.0187988;0.0188103;-0.00415983;0.0114851;0.220668;4.53168;0.0141324;0.0153134;4.52189;0.221146;117.92;162.92;-0.0281794;-0.00420201;0.00955377;-0.0103562;0.0187541;0.0179494;0.0191862;0;0.036745;-1.06632;-1.76983;-0.874439;2.24366;-6.50212;-0.00348296;0.000306735;0.0199141;0.0199181;-0.00348698;0.0117026;0.174899;5.71758;0.0145807;0.0156034;5.71214;0.175066;112.24;157.24;-0.0147766;-0.00351668;0.00901684;-0.00820358;0.0198743;0.0114402;0.0454065;0;0.0296925;3.17706
455000;456;26.3259;0.520421;0.020167;-2.69536;26.1852;-0.35778;-0.301355;0.493844;-0.745453;-0.760143;-1.28103;-0.121014;1.49449;-6.05753;-0.00419255;-0.000503858;0.0186184;0.0186295;-0.00420367;0.0114166;0.225183;4.44082;0.0140324;0.0152221;4.43172;0.225646;117.914;162.914;-0.030053;-0.00424469;0.00941763;-0.0102031;0.018575;0.0238748;0.020754;0;0.0373918;-1.06688;-1.77579;-0.879859;2.25074;-6.50754;-0.00353859;0.000341746;0.0200144;0.0200194;-0.00354355;0.0117815;0.176802;5.65604;0.0146708;0.0157086;5.64953;0.177006;112.298;157.298;-0.0154926;-0.00357289;0.00916181;-0.00827468;0.0199733;0.00911946;0.0482474;0;0.0287217;3.17772
456000;457;26.335;0.52945;0.0205169;-2.69664;26.1941;-0.35923;-0.302635;0.50277;-0.746903;-0.760021;-1.28103;-0.118454;1.49422;-6.05497;-0.00441017;-0.000791688;0.0188629;0.0188898;-0.00443707;0.0116634;0.233801;4.27714;0.0143035;0.0155512;4.25727;0.234892;118.604;163.604;-0.0278623;-0.00446536;0.009157;-0.010513;0.018822;0.0200813;0.0208258;0;0.0376105;-1.068;-1.78566;-0.876587;2.25778;-6.50427;-0.00365778;0.000639939;0.0202642;0.0202813;-0.00367489;0.0119781;0.180505;5.54001;0.0148977;0.0159708;5.51888;0.181196;111.288;156.288;-0.0155645;-0.00368855;0.00934003;-0.00785621;0.0202216;0.0130501;0.04221;0;0.0304915;3.18056
457000;458;26.3415;0.536027;0.0207718;-2.69746;26.2006;-0.362706;-0.30346;0.509249;-0.750379;-0.760587;-1.28055;-0.118586;1.49411;-6.0551;-0.00447751;-5.3564e-05;0.0196218;0.0196219;-0.00447763;0.0120498;0.228191;4.3823;0.0148013;0.0160663;4.38221;0.228196;115.975;160.975;-0.0279644;-0.00452433;0.00978099;-0.00965567;0.0195749;0.0203142;0.0209616;0;0.0351857;-1.06919;-1.79228;-0.878968;2.26452;-6.50665;-0.00381649;0.000678971;0.0201112;0.0201304;-0.00383574;0.0119831;0.18977;5.26955;0.0148648;0.0159774;5.24812;0.190544;111.707;156.707;-0.0133525;-0.00384808;0.00952763;-0.00796218;0.0200669;0.00790642;0.0382645;0;0.0311084;3.1839
458000;459;26.3491;0.543545;0.0210631;-2.69943;26.2078;-0.371392;-0.305422;0.516485;-0.759064;-0.760817;-1.27549;-0.130248;1.49086;-6.06676;-0.00438432;-0.000518475;0.0190226;0.0190341;-0.0043958;0.0117149;0.230479;4.33878;0.0143804;0.0156199;4.33007;0.230943;117.954;162.954;-0.0289867;-0.00443836;0.00958135;-0.0103863;0.0189777;0.0213134;0.0233447;0;0.0379841;-1.07063;-1.79684;-0.892247;2.27398;-6.51992;-0.00348761;0.000676658;0.0202183;0.0202376;-0.00350691;0.0118722;0.172498;5.79717;0.0147998;0.0158296;5.77077;0.173287;111.8;156.8;-0.0128882;-0.00352165;0.00982994;-0.00826399;0.0201711;0.00711746;0.0333067;0;0.0280681;3.18505
459000;460;26.3586;0.553102;0.0214335;-2.69936;26.2175;-0.367122;-0.305353;0.52616;-0.754795;-0.760077;-1.27715;-0.123715;1.49135;-6.06023;-0.00429519;-0.00042426;0.0195792;0.0195868;-0.00430273;0.0119448;0.219375;4.55841;0.0147035;0.0159263;4.55218;0.219675;116.79;161.79;-0.0290483;-0.00434597;0.00944733;-0.0100647;0.0195356;0.0227069;0.0231454;0;0.0382142;-1.07054;-1.8065;-0.887382;2.27968;-6.51506;-0.0035978;0.000496981;0.020946;0.0209561;-0.00360786;0.012282;0.171766;5.82188;0.0153156;0.0163759;5.80844;0.172163;111.971;156.971;-0.0143198;-0.0036346;0.00979535;-0.00857789;0.0208991;0.00910626;0.0354396;0;0.0310608;3.18516
460000;461;26.3673;0.561783;0.0217699;-2.70051;26.226;-0.370431;-0.306508;0.534723;-0.758103;-0.761548;-1.2766;-0.126555;1.49187;-6.06251;-0.00322316;0.00184437;0.0184319;0.0185879;-0.00337912;0.0109835;0.174869;5.71858;0.0136583;0.0146447;5.50079;0.181792;108.474;153.474;-0.0208636;-0.0032408;0.0100734;-0.00620981;0.0183837;0.00915804;0.0136495;0;0.0310283;-1.07199;-1.81265;-0.893291;2.28754;-6.52097;-0.00375016;0.0003159;0.0214584;0.0214623;-0.00375412;0.0126082;0.174764;5.72199;0.0157098;0.016811;5.71701;0.174917;112.081;157.081;-0.0138717;-0.00378838;0.00959344;-0.00873271;0.0214134;0.00964073;0.0397515;0;0.031971;3.18666
461000;462;26.3767;0.571195;0.0221346;-2.70049;26.2356;-0.365633;-0.306491;0.544254;-0.753306;-0.760147;-1.27423;-0.124102;1.48892;-6.06061;-0.00484112;-0.000375666;0.0202014;0.0202071;-0.00484676;0.0125269;0.239642;4.17288;0.0153443;0.0167026;4.1692;0.239854;117.063;162.063;-0.0297745;-0.00489506;0.00986828;-0.0103681;0.0201538;0.0199009;0.0237263;0;0.040798;-1.07175;-1.82032;-0.889861;2.29218;-6.51754;-0.0039832;0.000301296;0.0220158;0.0220193;-0.00398669;0.013003;0.180925;5.52716;0.0161731;0.0173373;5.5232;0.181054;111.366;156.366;-0.0144922;-0.00401879;0.00925617;-0.0084258;0.0219739;0.0113396;0.0436297;0;0.0296485;3.18799
462000;463;26.3846;0.579073;0.0224399;-2.70137;26.2433;-0.369271;-0.307365;0.552034;-0.756944;-0.760166;-1.2738;-0.125354;1.48867;-6.06187;-0.00471989;-0.000187897;0.0204742;0.0204756;-0.00472129;0.0125984;0.230529;4.33785;0.0154662;0.0167979;4.33686;0.230582;115.834;160.834;-0.0287316;-0.00476874;0.00973219;-0.00986305;0.0204278;0.0210773;0.0217954;0;0.0381099;-1.07272;-1.82791;-0.89298;2.29987;-6.52066;-0.00429249;0.000367325;0.0225943;0.0225993;-0.0042975;0.0134484;0.189981;5.26368;0.0166842;0.0179312;5.25871;0.190161;110.43;155.43;-0.0161211;-0.00432449;0.00895248;-0.00799213;0.0225552;0.0111218;0.0504278;0;0.0288561;3.1931
463000;464;26.3926;0.587082;0.0227502;-2.70214;26.2512;-0.374688;-0.308138;0.55993;-0.762361;-0.760499;-1.27207;-0.127178;1.48752;-6.06369;-0.00466155;-0.000147596;0.0201311;0.020132;-0.00466243;0.0123972;0.23156;4.31854;0.0152155;0.0165296;4.31791;0.231593;115.93;160.93;-0.0304592;-0.00470953;0.00971768;-0.0097731;0.0200848;0.0272349;0.0242066;0;0.0371442;-1.07389;-1.83471;-0.897393;2.30753;-6.52507;-0.00415882;0.000598407;0.022449;0.0224624;-0.00417228;0.0133173;0.185257;5.39791;0.016542;0.0177565;5.38373;0.185745;110.214;155.214;-0.0152019;-0.00419021;0.00935372;-0.0079291;0.0224064;0.0114135;0.0460352;0;0.029608;3.19424
464000;465;26.4014;0.595852;0.0230901;-2.70324;26.2599;-0.374686;-0.309241;0.568633;-0.762359;-0.760768;-1.27129;-0.126714;1.48695;-6.06323;-0.00459209;-5.3113e-06;0.0202999;0.0202999;-0.00459209;0.012446;0.226212;4.42063;0.0152955;0.0165947;4.42063;0.226212;115.41;160.41;-0.029687;-0.00463883;0.00987703;-0.00964655;0.0202521;0.0250441;0.0233067;0;0.0373187;-1.07478;-1.84172;-0.899442;2.31432;-6.52712;-0.0040309;0.000705512;0.0226216;0.0226403;-0.00404957;0.0133449;0.178188;5.61205;0.0166088;0.0177932;5.59079;0.178866;109.985;154.985;-0.0143765;-0.00406249;0.00960621;-0.00796326;0.0225767;0.0107428;0.0406301;0;0.0322617;3.19427
465000;466;26.4085;0.603013;0.0233676;-2.70407;26.267;-0.379558;-0.310068;0.575678;-0.767231;-0.760899;-1.26932;-0.129004;1.48553;-6.06552;-0.00500012;2.37499e-05;0.020667;0.020667;-0.00500014;0.0128336;0.241938;4.13329;0.0157122;0.0171114;4.13328;0.241939;115.44;160.44;-0.0303144;-0.00504696;0.00995187;-0.0096547;0.0206184;0.0250236;0.0247191;0;0.0366181;-1.07573;-1.84861;-0.902286;2.32135;-6.52996;-0.00423542;0.000687488;0.0226161;0.0226337;-0.00425301;0.0134434;0.187274;5.33976;0.0166884;0.0179245;5.32181;0.187906;110.183;155.183;-0.0127556;-0.00426709;0.00957963;-0.00797122;0.0225715;0.00716232;0.037933;0;0.0299236;3.19556
466000;467;26.4179;0.612408;0.0237317;-2.70439;26.2765;-0.374831;-0.310389;0.585158;-0.762504;-0.760203;-1.26824;-0.127784;1.48414;-6.0643;-0.00496095;0.000148084;0.0204186;0.0204195;-0.00496181;0.0126907;0.242962;4.11587;0.0155334;0.0169209;4.11533;0.242994;115.094;160.094;-0.0299799;-0.00500492;0.00989446;-0.00935589;0.0203707;0.0272572;0.0244767;0;0.0379336;-1.07584;-1.85636;-0.900569;2.32692;-6.52825;-0.00397216;0.0008124;0.0228217;0.0228463;-0.00399677;0.0134215;0.174052;5.74541;0.0167231;0.0178954;5.71619;0.174942;110.305;155.305;-0.0139535;-0.00400657;0.0101891;-0.0083187;0.0227713;0.00884221;0.0369962;0;0.034097;3.19686
467000;468;26.4247;0.619178;0.023994;-2.70492;26.2831;-0.380288;-0.310919;0.591832;-0.767961;-0.75979;-1.26643;-0.130031;1.48258;-6.06654;-0.00495234;2.28626e-05;0.0210409;0.0210409;-0.00495236;0.0129966;0.235368;4.24867;0.0159366;0.0173288;4.24865;0.235369;114.956;159.956;-0.0304956;-0.00499842;0.0098722;-0.00957573;0.0209931;0.0285288;0.02512;0;0.0375661;-1.07624;-1.8626;-0.904935;2.33377;-6.53261;-0.00413519;0.000611958;0.0233101;0.0233237;-0.00414883;0.0137363;0.177399;5.63701;0.0171007;0.018315;5.62177;0.17788;110.311;155.311;-0.0133238;-0.0041703;0.00985653;-0.00838473;0.0232628;0.00818332;0.0387133;0;0.031549;3.20104
468000;469;26.4347;0.629137;0.0243799;-2.70536;26.2932;-0.377358;-0.311361;0.601841;-0.76503;-0.760595;-1.26707;-0.127495;1.48332;-6.06401;-0.00481872;-0.000104436;0.0219877;0.0219881;-0.00481913;0.0134036;0.219155;4.56298;0.0165014;0.0178715;4.56268;0.219169;114.684;159.684;-0.0304217;-0.00486857;0.0100178;-0.00996116;0.0219386;0.0229215;0.0240124;0;0.0408039;-1.07747;-1.87121;-0.904521;2.34106;-6.5322;-0.00440908;0.000344025;0.0239402;0.0239444;-0.00441326;0.0141788;0.184171;5.42975;0.0176192;0.0189051;5.42556;0.184313;110.451;155.451;-0.0138873;-0.00444562;0.00947747;-0.00853658;0.0238964;0.00946466;0.0442077;0;0.0334753;3.20272
469000;470;26.4448;0.639295;0.0247736;-2.70516;26.3034;-0.374221;-0.311162;0.612119;-0.761893;-0.761059;-1.2668;-0.123875;1.48301;-6.06039;-0.00493941;0.000183139;0.0217221;0.0217234;-0.00494067;0.013332;0.227391;4.39772;0.0163794;0.017776;4.39685;0.227436;114.026;159.026;-0.0298228;-0.00498399;0.0100448;-0.00942125;0.0216727;0.0268151;0.0226765;0;0.036276;-1.0781;-1.87901;-0.901889;2.34657;-6.52957;-0.00464348;0.000383611;0.0246039;0.0246089;-0.00464851;0.0146287;0.18873;5.29859;0.0181549;0.0195049;5.29393;0.188895;109.521;154.521;-0.014475;-0.00467673;0.00916299;-0.00814519;0.024563;0.0108334;0.0464702;0;0.0317303;3.20271
470000;471;26.4525;0.647021;0.025073;-2.70739;26.3109;-0.381499;-0.313385;0.619553;-0.769172;-0.760275;-1.26127;-0.136045;1.47896;-6.07256;-0.00512887;0.000525786;0.021202;0.0212125;-0.00513937;0.0131759;0.241905;4.13386;0.0161301;0.0175679;4.12746;0.24228;113.65;158.65;-0.0303211;-0.00516869;0.0102184;-0.00891691;0.021151;0.0297059;0.026301;0;0.040205;-1.07887;-1.8825;-0.914546;2.3546;-6.54222;-0.00463363;0.000368795;0.0250249;0.0250295;-0.00463822;0.0148339;0.185161;5.40071;0.018428;0.0197785;5.39636;0.18531;109.058;154.058;-0.0149363;-0.00466602;0.00902613;-0.00803807;0.0249852;0.00992011;0.0503443;0;0.0287838;3.20397
471000;472;26.4615;0.655972;0.0254198;-2.70821;26.3198;-0.379966;-0.314204;0.62849;-0.767639;-0.760589;-1.26235;-0.132291;1.4797;-6.0688;-0.00524956;0.000734006;0.0216983;0.0217182;-0.00526954;0.0134939;0.241935;4.13335;0.0165179;0.0179919;4.12147;0.242632;112.897;157.897;-0.0294694;-0.00528734;0.0104234;-0.00869986;0.0216453;0.0259344;0.0250722;0;0.0354454;-1.07982;-1.89117;-0.914678;2.36202;-6.54236;-0.00479441;0.000588624;0.0253652;0.0253767;-0.0048059;0.0150913;0.189015;5.29057;0.0187265;0.0201217;5.28032;0.189382;108.53;153.53;-0.0153273;-0.00482494;0.00924925;-0.0078173;0.0253236;0.011005;0.0458998;0;0.0283174;3.20556
472000;473;26.4684;0.66285;0.0256864;-2.70849;26.3266;-0.387954;-0.314484;0.63526;-0.775627;-0.760917;-1.26013;-0.134715;1.4782;-6.07123;-0.00509206;0.000582888;0.0215215;0.0215342;-0.00510482;0.0133195;0.236604;4.22648;0.016326;0.0177594;4.21841;0.237056;113.237;158.237;-0.0289916;-0.00513138;0.0102834;-0.00886495;0.0214699;0.0265523;0.0264069;0;0.0350418;-1.08097;-1.89743;-0.917856;2.3688;-6.54553;-0.0045756;0.000714109;0.0254279;0.0254449;-0.00459259;0.0150187;0.179944;5.55728;0.0186832;0.020025;5.54042;0.180492;108.463;153.463;-0.0137751;-0.00460685;0.00960705;-0.00791868;0.0253832;0.00947733;0.0414642;0;0.0296418;3.20862
473000;474;26.474;0.668517;0.025906;-2.7088;26.3322;-0.392475;-0.3148;0.640858;-0.780148;-0.761681;-1.2613;-0.129802;1.47915;-6.06631;-0.00523505;0.000863752;0.0221411;0.0221683;-0.00526228;0.0137153;0.23644;4.22939;0.0168098;0.0182871;4.21269;0.237378;112.193;157.193;-0.0285449;-0.00527119;0.0105088;-0.00852301;0.0220875;0.0256679;0.0267786;0;0.0342028;-1.08214;-1.90583;-0.915894;2.37531;-6.54357;-0.00462422;0.000713683;0.0250636;0.0250808;-0.00464137;0.0148611;0.184499;5.42008;0.0184631;0.0198148;5.40375;0.185057;109.194;154.194;-0.0133911;-0.00465781;0.00990134;-0.00820794;0.025016;0.00911713;0.0400641;0;0.0313067;3.21012
474000;475;26.4845;0.678973;0.0263111;-2.71021;26.3426;-0.385657;-0.316205;0.651326;-0.77333;-0.760663;-1.25992;-0.132331;1.47767;-6.06884;-0.00546264;0.000370514;0.0224757;0.0224806;-0.00546755;0.0139741;0.243046;4.11444;0.0171034;0.0186321;4.11164;0.243212;113.51;158.51;-0.0295768;-0.00550566;0.0102692;-0.00925768;0.0224242;0.0293157;0.0266563;0;0.0363323;-1.08205;-1.91373;-0.916914;2.382;-6.54459;-0.00467542;0.000661301;0.0254358;0.0254503;-0.00468994;0.0150701;0.183813;5.44032;0.018727;0.0200935;5.42658;0.184278;109.212;154.212;-0.0137532;-0.00471011;0.00993047;-0.00833574;0.0253879;0.00786801;0.0393453;0;0.0321997;3.21308
475000;476;26.4921;0.686598;0.0266066;-2.71147;26.35;-0.396116;-0.317472;0.658708;-0.783789;-0.761469;-1.25766;-0.132908;1.47621;-6.06942;-0.00540318;0.000761013;0.0227309;0.0227515;-0.00542375;0.0140876;0.237702;4.20695;0.017262;0.0187835;4.19478;0.238391;112.291;157.291;-0.0299611;-0.0054414;0.0105426;-0.00875157;0.0226768;0.0276727;0.0255328;0;0.0369046;-1.08394;-1.92008;-0.920323;2.38927;-6.548;-0.00484205;0.000586392;0.0258641;0.0258752;-0.00485325;0.0153642;0.187212;5.34155;0.0190748;0.0204857;5.33153;0.187563;109.107;154.107;-0.0138908;-0.00487692;0.00979901;-0.00835053;0.0258174;0.00854412;0.0415574;0;0.0356426;3.21442
476000;477;26.502;0.696512;0.0269908;-2.71065;26.3602;-0.390699;-0.316648;0.66884;-0.778371;-0.761202;-1.25722;-0.134139;1.47581;-6.07065;-0.00546364;0.000689961;0.0226859;0.0227028;-0.00548054;0.0140917;0.240839;4.15215;0.0172546;0.0187889;4.14243;0.241404;112.701;157.701;-0.029099;-0.00550361;0.010596;-0.0089435;0.0226312;0.0262896;0.026552;0;0.0349779;-1.08416;-1.92825;-0.922663;2.39684;-6.55034;-0.00499389;0.000344506;0.0265604;0.0265642;-0.00499765;0.0157809;0.18802;5.31858;0.019589;0.0210412;5.31533;0.188135;108.631;153.631;-0.0138065;-0.00502781;0.00918432;-0.00822361;0.0265194;0.00848898;0.0461938;0;0.0300007;3.2155
477000;478;26.5113;0.705767;0.0273495;-2.71243;26.3693;-0.389194;-0.318424;0.677985;-0.776866;-0.760957;-1.25691;-0.134731;1.47548;-6.07124;-0.00538082;0.000811749;0.0224329;0.0224566;-0.00540449;0.0139305;0.239863;4.16905;0.0170603;0.018574;4.15517;0.240664;112.557;157.557;-0.0299744;-0.00541951;0.0107029;-0.00881037;0.0223772;0.0285025;0.0257905;0;0.0353243;-1.08453;-1.93606;-0.925644;2.40444;-6.55332;-0.0052581;0.000202372;0.0272839;0.0272852;-0.00525936;0.0162723;0.192718;5.18893;0.0201731;0.0216963;5.18793;0.192755;108.24;153.24;-0.0155172;-0.00529136;0.00881485;-0.00813729;0.0272461;0.00972227;0.0518724;0;0.030121;3.2172
478000;479;26.5195;0.713982;0.0276678;-2.71351;26.3774;-0.39364;-0.319508;0.686066;-0.781313;-0.760349;-1.25546;-0.13682;1.47412;-6.07333;-0.00550416;0.000979438;0.0227719;0.0228057;-0.00553805;0.0141719;0.241709;4.13721;0.0173471;0.0188959;4.11801;0.242836;111.912;156.912;-0.0306308;-0.00554032;0.0107655;-0.00853617;0.0227157;0.0276626;0.026619;0;0.0357958;-1.08498;-1.94298;-0.929502;2.4117;-6.55718;-0.0051603;0.000562677;0.0279397;0.0279492;-0.00516986;0.0165595;0.184695;5.41434;0.0205738;0.0220794;5.40618;0.184974;107.241;152.241;-0.0156458;-0.00519093;0.00923074;-0.00782631;0.0278984;0.0129587;0.0486287;0;0.0278576;3.21873
479000;480;26.5269;0.721386;0.0279547;-2.71223;26.3849;-0.398652;-0.318226;0.693567;-0.786325;-0.760564;-1.25356;-0.138712;1.47279;-6.07523;-0.00559062;0.000888729;0.0236076;0.0236346;-0.00561765;0.0146261;0.236815;4.22271;0.0179248;0.0195015;4.2072;0.237688;111.758;156.758;-0.0306495;-0.00562888;0.0108287;-0.00876779;0.0235507;0.0292431;0.0269879;0;0.0365382;-1.08615;-1.9503;-0.931292;2.41882;-6.55897;-0.00531774;0.00063974;0.0279218;0.0279341;-0.00533004;0.0166321;0.190451;5.2507;0.0206303;0.0221761;5.24089;0.190807;107.426;152.426;-0.0132402;-0.00534872;0.00944068;-0.00787665;0.0278787;0.00903582;0.0438255;0;0.02922;3.22009
480000;481;26.5356;0.73008;0.0282916;-2.71391;26.3935;-0.398173;-0.319904;0.702142;-0.785845;-0.760828;-1.25294;-0.138642;1.4724;-6.07515;-0.00574671;0.000921645;0.0230438;0.0230733;-0.00577619;0.0144247;0.249382;4.00991;0.017626;0.019233;3.99455;0.250341;112.15;157.15;-0.0312991;-0.00578407;0.010788;-0.00866715;0.0229874;0.0304011;0.0284713;0;0.0357554;-1.08679;-1.95757;-0.93415;2.42607;-6.56183;-0.00534616;0.000728153;0.0277293;0.0277453;-0.00536218;0.0165538;0.192798;5.18678;0.0205192;0.0220717;5.17427;0.193264;107.882;152.882;-0.0127502;-0.00537878;0.00983863;-0.00808918;0.0276825;0.00694847;0.0411074;0;0.0316945;3.22145
481000;482;26.5439;0.738407;0.0286143;-2.71461;26.4017;-0.400753;-0.320612;0.710402;-0.788426;-0.760811;-1.25156;-0.138185;1.47117;-6.0747;-0.00558039;0.00117872;0.0231087;0.0231571;-0.00562873;0.0143929;0.241484;4.14106;0.0176166;0.0191905;4.11408;0.243068;111.429;156.429;-0.0298283;-0.00561518;0.0110348;-0.00840108;0.0230499;0.0285396;0.0276741;0;0.0350675;-1.08759;-1.96504;-0.933951;2.43239;-6.56163;-0.00521854;0.000642091;0.0278399;0.0278524;-0.00523101;0.0165417;0.187448;5.33481;0.0205352;0.0220556;5.32448;0.187812;107.794;152.794;-0.012754;-0.00525147;0.00969475;-0.00811945;0.0277944;0.00652857;0.0404264;0;0.0304729;3.22333
482000;483;26.5498;0.744268;0.0288414;-2.71647;26.4074;-0.404625;-0.32247;0.716044;-0.792298;-0.760927;-1.25128;-0.140357;1.4712;-6.07687;-0.00564652;0.0010837;0.023417;0.0234573;-0.00568687;0.0145721;0.24113;4.14715;0.0178386;0.0194295;4.12482;0.242435;111.659;156.659;-0.0312072;-0.00568345;0.0110893;-0.0086379;0.0233575;0.0330727;0.0266603;0;0.0351848;-1.08854;-1.97245;-0.937924;2.44033;-6.5656;-0.00533275;0.000547084;0.0282365;0.0282454;-0.00534166;0.0167935;0.18886;5.29492;0.0208403;0.0223914;5.28775;0.189116;107.863;152.863;-0.0138627;-0.00536684;0.00964409;-0.00825297;0.0281914;0.00808104;0.0425881;0;0.0343376;3.22472
483000;484;26.5602;0.754681;0.029245;-2.71693;26.4178;-0.400585;-0.322923;0.726529;-0.788257;-0.760566;-1.24997;-0.141227;1.46997;-6.07774;-0.00560797;0.0012318;0.0235939;0.0236458;-0.00565984;0.0146528;0.237687;4.20721;0.0179504;0.0195371;4.17782;0.239359;110.876;155.876;-0.0287793;-0.00564155;0.0110067;-0.00826438;0.0235355;0.0264719;0.0276106;0;0.0353822;-1.08882;-1.97942;-0.940555;2.4471;-6.56823;-0.00557013;0.000389332;0.0287087;0.0287131;-0.00557455;0.0171438;0.194022;5.15404;0.0212455;0.0228584;5.15075;0.194147;108.026;153.026;-0.0143667;-0.00560572;0.00950391;-0.00842156;0.0286649;0.00969706;0.0464145;0;0.0313312;3.22743
484000;485;26.5685;0.76294;0.029565;-2.71781;26.426;-0.402058;-0.323803;0.734719;-0.789731;-0.760987;-1.24867;-0.139457;1.46892;-6.07597;-0.00574093;0.00121029;0.0231703;0.0232208;-0.0057915;0.0145062;0.247771;4.03598;0.0177292;0.0193416;4.00946;0.24941;111.556;156.556;-0.0301802;-0.00577593;0.0111308;-0.00843001;0.0231104;0.0282326;0.0289168;0;0.0354859;-1.08983;-1.98627;-0.942041;2.45366;-6.56972;-0.00576908;0.000221318;0.0295498;0.0295511;-0.00577046;0.0176608;0.195233;5.12209;0.0218794;0.0235477;5.1211;0.19527;106.972;151.972;-0.0148263;-0.00580105;0.00870983;-0.00797601;0.0295129;0.00989325;0.0491864;0;0.0303871;3.22815
485000;486;26.5779;0.772348;0.0299296;-2.71815;26.4354;-0.403537;-0.324145;0.744121;-0.79121;-0.760803;-1.24722;-0.138417;1.4675;-6.07493;-0.00576252;0.00113487;0.0239256;0.0239689;-0.00580584;0.0148874;0.240851;4.15194;0.0182255;0.0198499;4.12842;0.242224;111.364;156.364;-0.0292969;-0.00579936;0.0111948;-0.00863353;0.023865;0.0262285;0.0288508;0;0.0365251;-1.09028;-1.99256;-0.942016;2.45895;-6.56969;-0.0059671;0.000263871;0.0301864;0.0301883;-0.00596902;0.0180787;0.197675;5.0588;0.0223821;0.0241049;5.05749;0.197727;106.478;151.478;-0.0156072;-0.00599778;0.00863585;-0.00781432;0.0301502;0.010517;0.0522825;0;0.0308877;3.22942
486000;487;26.586;0.780511;0.0302459;-2.71818;26.4436;-0.404786;-0.324181;0.752305;-0.792458;-0.760659;-1.2469;-0.135482;1.46688;-6.07199;-0.00581607;0.00146424;0.0245598;0.0246302;-0.00588649;0.0152583;0.236813;4.22274;0.0186938;0.0203445;4.18419;0.238995;109.953;154.953;-0.0307883;-0.00584746;0.0112527;-0.00803411;0.024499;0.0326432;0.0273418;0;0.0326934;-1.09088;-2.00028;-0.94125;2.46518;-6.56893;-0.00593569;0.00056849;0.0304718;0.0304807;-0.00594456;0.0182126;0.194793;5.13366;0.0225645;0.0242835;5.12749;0.195027;105.937;150.937;-0.014338;-0.00596439;0.00901097;-0.00757575;0.0304326;0.0090174;0.0477476;0;0.0276775;3.23068
487000;488;26.5931;0.787561;0.0305191;-2.71979;26.4504;-0.411944;-0.325787;0.759117;-0.799616;-0.761712;-1.24757;-0.136414;1.46808;-6.07293;-0.00601764;0.00189385;0.024491;0.0246082;-0.00613475;0.0153715;0.245708;4.06988;0.0187872;0.0204953;4.01127;0.249297;109.123;154.123;-0.028886;-0.00604365;0.0115099;-0.00743602;0.0244281;0.0328447;0.0295225;0;0.0307597;-1.09275;-2.00958;-0.943547;2.47442;-6.57122;-0.00600582;0.000611885;0.0304417;0.030452;-0.00601609;0.018234;0.197289;5.0687;0.0225755;0.024312;5.06175;0.19756;106.136;151.136;-0.0136657;-0.00603518;0.00919031;-0.00766316;0.0304009;0.00825073;0.0444429;0;0.029472;3.23641
488000;489;26.6012;0.795717;0.0308351;-2.7209;26.4585;-0.412918;-0.326895;0.767188;-0.800591;-0.761157;-1.24545;-0.142562;1.46657;-6.07907;-0.00586938;0.00186951;0.0244771;0.0245918;-0.00598412;0.015288;0.239791;4.1703;0.018711;0.020384;4.10951;0.243338;109.15;154.15;-0.0253822;-0.00589614;0.0115556;-0.00752986;0.0244136;0.0240052;0.0292723;0;0.0277188;-1.09306;-2.01689;-0.949981;2.48297;-6.57766;-0.00575899;0.000674969;0.030365;0.0303776;-0.0057716;0.0180746;0.189659;5.27262;0.0224245;0.0240994;5.26328;0.189995;106.558;151.558;-0.0135771;-0.00579094;0.00966364;-0.00799861;0.0303199;0.00744707;0.0439235;0;0.0317152;3.23531
489000;490;26.61;0.804451;0.0311736;-2.72221;26.4671;-0.415507;-0.328206;0.775793;-0.803179;-0.761946;-1.24374;-0.144139;1.46568;-6.08065;-0.00599323;0.00202548;0.0249462;0.0250783;-0.00612527;0.0156018;0.240246;4.1624;0.019091;0.0208024;4.09423;0.244246;108.793;153.793;-0.0254887;-0.00601912;0.0118006;-0.00745473;0.0248803;0.0236028;0.0296766;0;0.0276269;-1.0944;-2.02343;-0.952023;2.48965;-6.5797;-0.00605445;0.000465546;0.0306679;0.0306738;-0.00606035;0.0183671;0.19742;5.06536;0.0227401;0.0244894;5.0614;0.197574;107.071;152.071;-0.0136376;-0.00608914;0.00957337;-0.0083178;0.0306236;0.00564976;0.0441004;0;0.031949;3.23531
490000;491;26.6172;0.811714;0.0314551;-2.72213;26.4744;-0.416572;-0.328125;0.783088;-0.804244;-0.761358;-1.24339;-0.142339;1.46491;-6.07885;-0.0065447;0.00157104;0.0259278;0.0260036;-0.00662053;0.0163121;0.25242;3.96165;0.0199129;0.0217494;3.92772;0.2546;109.843;154.843;-0.0237064;-0.00657711;0.0116378;-0.00817726;0.025863;0.0168555;0.0318321;0;0.027804;-1.09502;-2.03115;-0.952607;2.49642;-6.58028;-0.00617499;0.00041682;0.0309256;0.0309303;-0.00617967;0.018555;0.199673;5.0082;0.022959;0.02474;5.00516;0.199794;107.343;152.343;-0.0143132;-0.00621159;0.00970711;-0.00853917;0.03088;0.00735084;0.0478136;0;0.0328034;3.23635
491000;492;26.6283;0.822734;0.0318821;-2.72212;26.4855;-0.413324;-0.328119;0.794218;-0.800997;-0.762015;-1.24092;-0.146928;1.46361;-6.08344;-0.0059485;0.0022626;0.0243277;0.0244958;-0.00611666;0.0153062;0.244516;4.08971;0.0187058;0.0204083;4.00477;0.249702;108.993;153.993;-0.026321;-0.00597354;0.0122285;-0.00740892;0.0242572;0.0244291;0.0312874;0;0.0282101;-1.09593;-2.03792;-0.958177;2.50445;-6.58585;-0.00653981;0.000344652;0.0316964;0.0316995;-0.00654291;0.0191212;0.206327;4.84668;0.023618;0.0254949;4.84485;0.206405;106.332;151.332;-0.0145313;-0.00657205;0.00902223;-0.00801134;0.031657;0.00853097;0.0501914;0;0.032195;3.24052
492000;493;26.6357;0.830167;0.0321701;-2.72456;26.4928;-0.412902;-0.33056;0.801447;-0.800574;-0.761673;-1.24099;-0.146286;1.46342;-6.0828;-0.00639433;0.00163576;0.0252947;0.0253789;-0.00647854;0.0159287;0.252794;3.9558;0.019442;0.0212383;3.91737;0.255273;110.082;155.082;-0.0236026;-0.00642647;0.0117412;-0.00815751;0.0252287;0.0161834;0.0311788;0;0.0303348;-1.09729;-2.04581;-0.957772;2.51132;-6.58545;-0.00666761;0.000431952;0.0323634;0.0323682;-0.00667238;0.0195203;0.206023;4.85382;0.0241126;0.026027;4.85106;0.20614;105.505;150.505;-0.0148932;-0.00669697;0.00883122;-0.00764979;0.0323257;0.0104779;0.0527101;0;0.034184;3.24068
493000;494;26.6438;0.838308;0.0324856;-2.72457;26.5008;-0.420011;-0.330565;0.80952;-0.807684;-0.761248;-1.24026;-0.145775;1.46253;-6.08229;-0.00684595;0.00145162;0.0258051;0.0258695;-0.00691036;0.0163899;0.265295;3.76939;0.0199527;0.0218532;3.74357;0.267124;110.556;155.556;-0.0241713;-0.00688054;0.0116421;-0.00841467;0.02574;0.0182339;0.0310976;0;0.0286171;-1.09739;-2.05301;-0.961129;2.51851;-6.58881;-0.00640692;0.000444481;0.0328548;0.0328598;-0.00641196;0.0196359;0.195007;5.12801;0.0243272;0.0261812;5.12477;0.195131;105.335;150.335;-0.0133781;-0.00643726;0.00899027;-0.00777648;0.0328157;0.00900238;0.046575;0;0.0289167;3.24338
494000;495;26.6526;0.847049;0.0328243;-2.72512;26.5096;-0.418556;-0.331115;0.818274;-0.806229;-0.76201;-1.239;-0.144149;1.4617;-6.08066;-0.00692265;0.00149872;0.0261299;0.0261977;-0.00699047;0.0165941;0.264933;3.77455;0.0202025;0.0221254;3.74763;0.266835;110.532;155.532;-0.0242038;-0.00695803;0.0118459;-0.00851533;0.0260626;0.017177;0.0298207;0;0.027973;-1.09859;-2.05995;-0.959774;2.52418;-6.58745;-0.00666678;0.000497467;0.0329255;0.0329317;-0.00667303;0.0198024;0.202481;4.93874;0.0244838;0.0264032;4.93505;0.202632;105.336;150.336;-0.0133969;-0.00669657;0.00903063;-0.00770865;0.0328861;0.0102673;0.0460778;0;0.0296014;3.24412
495000;496;26.6614;0.85588;0.0331666;-2.72614;26.5183;-0.421345;-0.33214;0.827004;-0.809017;-0.762871;-1.23803;-0.147501;1.46166;-6.08401;-0.00605629;0.00266193;0.0252073;0.0254323;-0.00628132;0.0158568;0.240259;4.16217;0.0193908;0.0211424;4.04889;0.246981;107.652;152.652;-0.025651;-0.00607661;0.0125148;-0.00689073;0.0251344;0.0217515;0.0304288;0;0.0273568;-1.0998;-2.06753;-0.966382;2.53341;-6.59406;-0.00661239;0.000571943;0.032944;0.0329523;-0.00662066;0.0197865;0.200716;4.98217;0.0244754;0.026382;4.9772;0.200916;105.693;150.693;-0.0135397;-0.00664411;0.00944286;-0.00795931;0.032901;0.00822736;0.0484811;0;0.032216;3.24539
496000;497;26.6687;0.863226;0.0334512;-2.72741;26.5255;-0.423707;-0.333403;0.834222;-0.81138;-0.761562;-1.23657;-0.152142;1.46022;-6.08865;-0.00692291;0.00157104;0.0267908;0.0268638;-0.00699596;0.0169299;0.258406;3.86988;0.0206403;0.0225732;3.83991;0.260423;109.945;154.945;-0.0240773;-0.00695735;0.0118998;-0.00841874;0.026723;0.0163227;0.0289216;0;0.0288415;-1.09982;-2.07538;-0.968506;2.54063;-6.59618;-0.00662487;0.000647651;0.0330956;0.0331061;-0.00663543;0.0198708;0.200174;4.99566;0.0245829;0.0264944;4.9893;0.200429;105.57;150.57;-0.013285;-0.00665621;0.00955501;-0.00791728;0.0330516;0.00641317;0.0461796;0;0.0380979;3.24799
497000;498;26.6764;0.870874;0.0337476;-2.72814;26.533;-0.431006;-0.334138;0.841718;-0.818679;-0.761621;-1.23543;-0.148816;1.45893;-6.08533;-0.00676324;0.00182566;0.0269074;0.0270061;-0.00686194;0.016934;0.251352;3.97848;0.0206745;0.0225787;3.93564;0.254089;109.133;154.133;-0.0241164;-0.00679408;0.0120234;-0.00803793;0.0268386;0.0164414;0.0287075;0;0.0285118;-1.10065;-2.08267;-0.968026;2.54676;-6.5957;-0.00681011;0.000521809;0.0331463;0.0331532;-0.00681692;0.019985;0.205456;4.86723;0.0246901;0.0266467;4.86336;0.205619;106.179;151.179;-0.0140361;-0.00684446;0.00967478;-0.00827722;0.0331012;0.00805524;0.048302;0;0.0353551;3.24924
498000;499;26.6845;0.878956;0.0340608;-2.72826;26.5412;-0.428758;-0.334262;0.849867;-0.816431;-0.761858;-1.23508;-0.146703;1.45855;-6.08322;-0.00693126;0.00183788;0.0276956;0.0277929;-0.00702853;0.0174107;0.250265;3.99576;0.0212623;0.0232143;3.9543;0.252889;108.883;153.883;-0.023675;-0.00696264;0.0121284;-0.00810611;0.0276257;0.0148416;0.0281906;0;0.0271167;-1.10132;-2.09027;-0.968336;2.55339;-6.59601;-0.0070423;0.00042725;0.03382;0.0338245;-0.00704677;0.0204356;0.208229;4.80241;0.0252288;0.0272475;4.8;0.208333;105.82;150.82;-0.0143631;-0.00707587;0.00938533;-0.00817679;0.0337775;0.00892254;0.0506705;0;0.0332284;3.25045
499000;500;26.6948;0.889252;0.0344598;-2.7298;26.5514;-0.428507;-0.335794;0.860066;-0.81618;-0.761599;-1.23292;-0.14931;1.45686;-6.08582;-0.0063495;0.00252705;0.0272848;0.0274736;-0.00653831;0.017006;0.232712;4.29716;0.0208399;0.0226746;4.20195;0.237985;107.244;152.244;-0.0269585;-0.00637258;0.0126124;-0.00722836;0.0272105;0.0237601;0.0295708;0;0.0268538;-1.10183;-2.09664;-0.972599;2.56044;-6.60028;-0.00737301;0.000339411;0.0344511;0.0344538;-0.00737577;0.0209148;0.214014;4.67259;0.0257819;0.0278864;4.67122;0.214077;104.91;149.91;-0.0144956;-0.00740263;0.00869188;-0.00767538;0.0344146;0.00896749;0.051445;0;0.0322821;3.2509
500000;501;26.7021;0.896587;0.034744;-2.73062;26.5586;-0.43303;-0.336613;0.867282;-0.820703;-0.761689;-1.23261;-0.149748;1.45668;-6.08626;-0.00702359;0.00150171;0.0279004;0.0279648;-0.00708804;0.0175264;0.251738;3.97238;0.0214008;0.0233686;3.94535;0.253463;109.481;154.481;-0.0250118;-0.00705895;0.0118692;-0.00851365;0.0278329;0.0164184;0.0287993;0;0.0300064;-1.10284;-2.10457;-0.97496;2.56827;-6.60264;-0.00718353;0.000354981;0.0350496;0.0350526;-0.00718651;0.0211195;0.204953;4.87916;0.0260959;0.0281594;4.87755;0.205021;104.261;149.261;-0.0141133;-0.00721167;0.00852767;-0.00748426;0.0350145;0.00945646;0.0514256;0;0.0302025;3.25588
501000;502;26.7116;0.906103;0.0351128;-2.73065;26.5682;-0.431695;-0.336643;0.876869;-0.819368;-0.761675;-1.23168;-0.150998;1.45602;-6.08751;-0.00693776;0.00175952;0.0283961;0.0284835;-0.00702517;0.0177543;0.244321;4.09298;0.0217129;0.0236725;4.0545;0.24664;108.712;153.712;-0.0243856;-0.00697058;0.012138;-0.00826252;0.028326;0.0151154;0.02888;0;0.0277855;-1.1035;-2.11256;-0.9756;2.57535;-6.60328;-0.00725254;0.000589483;0.0352741;0.0352823;-0.00726071;0.0212715;0.205605;4.86369;0.0262783;0.028362;4.85934;0.205789;104.622;149.622;-0.0133457;-0.00728249;0.0092691;-0.00773364;0.0352328;0.0104702;0.0464492;0;0.0276474;3.25589
502000;503;26.7204;0.914829;0.0354509;-2.73038;26.577;-0.431097;-0.336378;0.885678;-0.81877;-0.761795;-1.22992;-0.1579;1.45532;-6.09441;-0.00687092;0.00197184;0.0285118;0.0286213;-0.00698047;0.0178009;0.240985;4.14963;0.0217838;0.0237345;4.1002;0.24389;108.117;153.117;-0.0245398;-0.00690081;0.0122506;-0.00795349;0.0284407;0.0150145;0.0296786;0;0.0286183;-1.10425;-2.12031;-0.9813;2.58419;-6.60898;-0.00727536;0.00069156;0.0354367;0.0354479;-0.00728655;0.0213672;0.205306;4.87078;0.0263981;0.0284896;4.86483;0.205557;104.217;149.217;-0.0138035;-0.0073034;0.009228;-0.00749279;0.0353958;0.00778369;0.0489853;0;0.0337143;3.25561
503000;504;26.7284;0.922916;0.0357643;-2.73192;26.5849;-0.433924;-0.337919;0.893604;-0.821596;-0.762528;-1.22847;-0.155553;1.45423;-6.09207;-0.00720798;0.00152883;0.0285108;0.0285761;-0.0072733;0.0179247;0.252816;3.95545;0.0218819;0.0238996;3.92891;0.254524;109.187;154.187;-0.0245871;-0.00724296;0.0118895;-0.00847222;0.0284432;0.0157781;0.0274599;0;0.0257853;-1.10574;-2.12611;-0.982481;2.59003;-6.61016;-0.00732289;0.000581694;0.0355679;0.0355757;-0.00733078;0.0214533;0.205885;4.85708;0.0265009;0.0286043;4.85293;0.206061;104.855;149.855;-0.0138514;-0.00735457;0.00948425;-0.00795219;0.0355246;0.00866314;0.049165;0;0.0325951;3.25622
504000;505;26.7361;0.930605;0.0360622;-2.73259;26.5925;-0.439151;-0.338585;0.901181;-0.826824;-0.762242;-1.22772;-0.154954;1.45338;-6.09147;-0.00714616;0.00200544;0.029013;0.0291238;-0.00725704;0.0181904;0.246309;4.05994;0.0222333;0.0242539;4.01318;0.249179;108.027;153.027;-0.0239012;-0.00717593;0.0123198;-0.00794671;0.0289412;0.0143212;0.0277266;0;0.0265411;-1.10664;-2.13327;-0.985266;2.59735;-6.61294;-0.00748858;0.000520488;0.0357387;0.035745;-0.00749484;0.0216199;0.209537;4.77243;0.0266815;0.0288265;4.76928;0.209675;105.03;150.03;-0.0142807;-0.00752127;0.00948824;-0.00807303;0.0356954;0.00687541;0.049626;0;0.0345076;3.25955
505000;506;26.7439;0.938341;0.036362;-2.73446;26.6001;-0.439;-0.340462;0.908768;-0.826673;-0.762127;-1.22531;-0.157321;1.45154;-6.09383;-0.00737754;0.00145677;0.02953;0.0295874;-0.00743495;0.0185112;0.249832;4.00269;0.0226144;0.0246816;3.9795;0.251288;109.065;154.065;-0.0246308;-0.00741474;0.0120082;-0.00871656;0.029461;0.0154199;0.0273386;0;0.0251469;-1.10743;-2.14081;-0.985508;2.60398;-6.61319;-0.00766058;0.000437701;0.0360074;0.0360117;-0.00766497;0.0218384;0.21275;4.70034;0.0269289;0.0291178;4.69822;0.212846;104.951;149.951;-0.0142966;-0.00769315;0.00930078;-0.00805183;0.0359657;0.00768374;0.0511617;0;0.0317339;3.26261
506000;507;26.7505;0.944984;0.0366195;-2.73529;26.6066;-0.445859;-0.34129;0.915248;-0.833532;-0.763036;-1.22695;-0.151961;1.45283;-6.08847;-0.00753811;0.00169613;0.0298422;0.029919;-0.00761492;0.0187669;0.252599;3.95884;0.0229101;0.0250226;3.929;0.254518;108.702;153.702;-0.0250987;-0.00757329;0.0123032;-0.00852615;0.0297701;0.0156599;0.0270015;0;0.027265;-1.10822;-2.1487;-0.986326;2.61111;-6.614;-0.00801874;0.000456107;0.0365931;0.0365977;-0.00802341;0.0223106;0.219133;4.56344;0.0274664;0.0297474;4.56137;0.219232;104.2;149.2;-0.0138904;-0.00804778;0.008879;-0.00760432;0.0365551;0.00761131;0.0528908;0;0.0322089;3.26372
507000;508;26.7626;0.957097;0.0370888;-2.73551;26.6189;-0.435274;-0.341511;0.927579;-0.822947;-0.763205;-1.22594;-0.148918;1.45175;-6.08543;-0.00689741;0.00247238;0.0296281;0.0297947;-0.007064;0.0184293;0.2328;4.29554;0.022589;0.0245725;4.21782;0.237089;106.812;151.812;-0.0268995;-0.00692265;0.0128104;-0.00749916;0.0295514;0.022679;0.0251818;0;0.0228928;-1.10904;-2.15692;-0.984813;2.61766;-6.61249;-0.00816017;0.000593244;0.0373285;0.0373362;-0.00816791;0.0227521;0.218604;4.57447;0.0280132;0.0303361;4.57109;0.218766;103.892;148.892;-0.0146576;-0.00818862;0.0090951;-0.00753583;0.0372888;0.0107675;0.0509299;0;0.0334633;3.26423
508000;509;26.7697;0.964152;0.0373622;-2.73621;26.6258;-0.440748;-0.342204;0.934511;-0.828421;-0.76262;-1.22335;-0.1545;1.44985;-6.09101;-0.00760823;0.0019555;0.0310256;0.0311243;-0.00770696;0.0194157;0.245224;4.0779;0.0237393;0.0258875;4.03847;0.247618;107.616;152.616;-0.0233512;-0.00764014;0.0125008;-0.00819481;0.0309517;0.0113045;0.025084;0;0.0253311;-1.10978;-2.16317;-0.989251;2.62479;-6.61693;-0.00800771;0.000523908;0.0377821;0.0377881;-0.0080137;0.0229009;0.211944;4.71822;0.0282448;0.0305345;4.71544;0.212069;104.088;149.088;-0.0138671;-0.0080386;0.00928128;-0.0078471;0.0377407;0.0115257;0.0504362;0;0.0308941;3.26549
509000;510;26.7776;0.972124;0.0376711;-2.73699;26.6337;-0.444986;-0.342983;0.942375;-0.832659;-0.763035;-1.22335;-0.155451;1.45016;-6.09196;-0.00698094;0.00221086;0.0305681;0.0306979;-0.00711066;0.0189043;0.228373;4.3788;0.0232016;0.0252057;4.31716;0.231634;106.723;151.723;-0.0270228;-0.00700844;0.0125112;-0.00771444;0.0304946;0.0235237;0.0259621;0;0.0232655;-1.1104;-2.17085;-0.993152;2.63286;-6.62083;-0.007987;0.000567147;0.0379449;0.0379519;-0.007994;0.022973;0.210489;4.75084;0.0283442;0.0306306;4.74755;0.210635;104.014;149.014;-0.01493;-0.00801782;0.00936425;-0.0078407;0.0379028;0.012316;0.0504326;0;0.0305268;3.26547
510000;511;26.7855;0.979938;0.037974;-2.73749;26.6415;-0.444844;-0.343491;0.950182;-0.832517;-0.76226;-1.22213;-0.15744;1.44894;-6.09395;-0.00767241;0.00172631;0.0311651;0.0312416;-0.00774899;0.0194953;0.246186;4.06196;0.0238344;0.0259938;4.0317;0.248034;107.735;152.735;-0.0236104;-0.00770554;0.0121341;-0.0082897;0.0310951;0.0125241;0.0259447;0;0.0244435;-1.11081;-2.17842;-0.994436;2.63976;-6.62211;-0.00814504;0.000596904;0.0380667;0.0380744;-0.00815275;0.0231136;0.213968;4.6736;0.028492;0.0308181;4.67012;0.214127;104.024;149.024;-0.0139495;-0.00817576;0.00941446;-0.00782816;0.0380241;0.00894917;0.0547386;0;0.0337659;3.267
511000;512;26.7943;0.98882;0.0383181;-2.73892;26.6503;-0.445983;-0.344921;0.958946;-0.833656;-0.762924;-1.22099;-0.158839;1.44848;-6.09535;-0.0077293;0.00192888;0.0314336;0.0315284;-0.00782408;0.0196762;0.245893;4.06681;0.0240549;0.026235;4.02966;0.24816;107.109;152.109;-0.0239603;-0.00775908;0.0121722;-0.00792567;0.0313636;0.0138853;0.0240982;0;0.024814;-1.11197;-2.18587;-0.997245;2.64746;-6.62492;-0.00808408;0.000720736;0.0382824;0.0382936;-0.00809528;0.0231944;0.21117;4.73552;0.0286118;0.0309259;4.73036;0.211401;104.706;149.706;-0.0143964;-0.00811915;0.0102388;-0.00837233;0.0382321;0.00878138;0.0552948;0;0.035074;3.26932
512000;513;26.8009;0.995363;0.0385717;-2.73933;26.6567;-0.45353;-0.345332;0.965354;-0.841202;-0.763691;-1.22164;-0.152945;1.4488;-6.08946;-0.00742287;0.00269066;0.0315094;0.0316945;-0.00760795;0.0196512;0.235576;4.24491;0.0240698;0.0262016;4.16597;0.24004;105.582;150.582;-0.0274502;-0.00744419;0.0128023;-0.00703956;0.0314335;0.024648;0.0246458;0;0.0250255;-1.11312;-2.19341;-0.996594;2.65392;-6.62427;-0.00846238;0.000543805;0.0385981;0.0386043;-0.00846866;0.0235365;0.219244;4.56114;0.0289746;0.031382;4.55849;0.219371;104.438;149.438;-0.0137777;-0.00849592;0.00967514;-0.00817381;0.0385531;0.00685991;0.053388;0;0.034133;3.27179
513000;514;26.8109;1.00535;0.0389585;-2.74024;26.6667;-0.447649;-0.346237;0.975398;-0.835322;-0.76251;-1.2194;-0.157615;1.44679;-6.09413;-0.00793159;0.00183176;0.0320808;0.0321645;-0.00801527;0.0200899;0.247238;4.04469;0.0245547;0.0267865;4.0129;0.249196;107.292;152.292;-0.0242156;-0.00796376;0.0122645;-0.00819674;0.0320095;0.0133092;0.0245969;0;0.0240881;-1.11323;-2.20079;-1.00057;2.66156;-6.62825;-0.00879595;0.000456476;0.0389277;0.0389321;-0.00880032;0.0238662;0.225956;4.42564;0.0293316;0.0318216;4.42394;0.226043;104.061;149.061;-0.0144536;-0.00882746;0.00923169;-0.00791568;0.0388868;0.00909033;0.0560754;0;0.032183;3.27366
514000;515;26.8191;1.01355;0.0392764;-2.74186;26.6746;-0.457519;-0.347859;0.983311;-0.845191;-0.76294;-1.21797;-0.160238;1.4461;-6.09675;-0.00795553;0.00162665;0.0323421;0.0324076;-0.00802108;0.0202143;0.245981;4.06536;0.0247165;0.0269525;4.0403;0.247506;107.223;152.223;-0.0236264;-0.00798833;0.0118836;-0.00823009;0.0322749;0.0123793;0.0244262;0;0.0239676;-1.11446;-2.20862;-1.00482;2.67015;-6.6325;-0.00887217;0.000393738;0.039517;0.0395202;-0.00887538;0.0241978;0.224515;4.45404;0.0297499;0.0322637;4.4528;0.224578;103.382;148.382;-0.0135384;-0.0089012;0.00877239;-0.00759491;0.0394801;0.00823907;0.0527095;0;0.0324115;3.2761
515000;516;26.8288;1.02328;0.0396535;-2.74133;26.6846;-0.450431;-0.347327;0.993269;-0.838104;-0.763577;-1.21628;-0.164001;1.44544;-6.10051;-0.00813467;0.00173452;0.0327202;0.0327937;-0.00820818;0.0205009;0.248613;4.02231;0.0250509;0.0273346;3.99525;0.250297;107.294;152.294;-0.0233318;-0.0081682;0.0122216;-0.00833784;0.0326493;0.0115388;0.0253868;0;0.0242505;-1.11566;-2.21585;-1.00951;2.6784;-6.63719;-0.00863297;0.00047437;0.0399439;0.0399485;-0.0086376;0.024293;0.216128;4.6269;0.0299299;0.0323907;4.62495;0.216218;103.579;148.579;-0.012918;-0.00866428;0.00925231;-0.00789358;0.0399028;0.00999566;0.0506812;0;0.0326319;3.27643
516000;517;26.8367;1.03116;0.0399588;-2.74362;26.6922;-0.451604;-0.349616;1.00094;-0.839277;-0.762785;-1.21473;-0.166134;1.44396;-6.10265;-0.00808183;0.0021094;0.0330123;0.0331202;-0.00818982;0.020655;0.244813;4.08475;0.0252567;0.02754;4.04407;0.247275;106.451;151.451;-0.0236717;-0.00811072;0.0124911;-0.00785954;0.0329389;0.0113026;0.0250121;0;0.0255179;-1.11638;-2.22273;-1.01129;2.68506;-6.63897;-0.0086388;0.000414028;0.0402007;0.0402042;-0.00864231;0.0244233;0.214892;4.65351;0.0301;0.0325643;4.65202;0.21496;104.297;149.297;-0.0144724;-0.00867501;0.00974991;-0.00848354;0.0401551;0.0153771;0.0523463;0;0.0314035;3.27715
517000;518;26.8431;1.03761;0.0402087;-2.7435;26.6986;-0.457287;-0.349499;1.00733;-0.84496;-0.763301;-1.21417;-0.161971;1.44328;-6.09848;-0.00819878;0.0022167;0.0331705;0.0332889;-0.00831722;0.0208031;0.247171;4.04578;0.0254226;0.0277374;4.00241;0.24985;106.463;151.463;-0.0234577;-0.00822752;0.0127224;-0.00786854;0.0330945;0.0105654;0.0234963;0;0.0241283;-1.11697;-2.2302;-1.01073;2.69128;-6.63841;-0.00878039;0.000520931;0.0405824;0.0405879;-0.00878589;0.0246869;0.21636;4.62193;0.0304132;0.0329158;4.61967;0.216466;103.624;148.624;-0.0142019;-0.00881287;0.0095095;-0.00804128;0.0405391;0.0115075;0.0545784;0;0.0300435;3.27741
518000;519;26.854;1.04849;0.0406303;-2.74365;26.7096;-0.455841;-0.349648;1.01828;-0.843514;-0.76387;-1.21323;-0.161577;1.44275;-6.09809;-0.00820066;0.0018912;0.0341039;0.0341882;-0.00828504;0.0212366;0.240461;4.15867;0.0259977;0.0283155;4.1265;0.242336;106.378;151.378;-0.0245842;-0.00823222;0.0123455;-0.00813558;0.0340319;0.0137905;0.0219471;0;0.0236209;-1.11829;-2.23788;-1.01263;2.6989;-6.64031;-0.00897823;0.000733879;0.0408593;0.0408701;-0.00898903;0.0249296;0.219735;4.55093;0.0306851;0.0332394;4.54666;0.219942;103.82;148.82;-0.0151317;-0.00901158;0.0100785;-0.00816339;0.0408108;0.0108389;0.059076;0;0.0319621;3.27939
519000;520;26.8625;1.057;0.0409602;-2.74566;26.7179;-0.459709;-0.351662;1.02657;-0.847382;-0.764533;-1.2132;-0.160162;1.44292;-6.09667;-0.00756949;0.00255559;0.0334594;0.033618;-0.00772806;0.020673;0.226229;4.4203;0.0253832;0.027564;4.35012;0.229879;105.041;150.041;-0.0277618;-0.00759251;0.0127418;-0.00722648;0.033384;0.0241604;0.0226579;0;0.0258734;-1.11959;-2.24578;-1.01379;2.70643;-6.64147;-0.00910197;0.000559458;0.0411616;0.0411679;-0.0091082;0.025138;0.221128;4.52228;0.0309316;0.0335174;4.51987;0.221245;104.339;149.339;-0.0145217;-0.0091393;0.0102029;-0.00861847;0.0411118;0.00907244;0.0571396;0;0.0356965;3.28018
520000;521;26.869;1.06352;0.0412129;-2.74529;26.7244;-0.461544;-0.351283;1.03313;-0.849217;-0.763941;-1.2131;-0.159182;1.44241;-6.09569;-0.00763483;0.00262446;0.0339208;0.0340859;-0.00779992;0.0209429;0.225078;4.4429;0.0257212;0.0279239;4.37003;0.228831;104.715;149.715;-0.0271441;-0.00765681;0.012764;-0.00710785;0.0338454;0.0233583;0.0234762;0;0.0245081;-1.11961;-2.25395;-1.01481;2.71361;-6.64249;-0.00962152;0.000527669;0.0413815;0.041387;-0.00962698;0.025507;0.232508;4.30093;0.0312978;0.0340093;4.29906;0.232609;103.612;148.612;-0.0142877;-0.00965369;0.00949375;-0.00799932;0.0413384;0.00929144;0.0553723;0;0.0331617;3.28202
521000;522;26.8796;1.07407;0.0416217;-2.74608;26.735;-0.45986;-0.352081;1.04369;-0.847533;-0.763805;-1.21092;-0.164763;1.44114;-6.10128;-0.00835964;0.00214974;0.0343832;0.034491;-0.00846749;0.0214793;0.243132;4.113;0.0262753;0.028639;4.07335;0.245498;105.738;150.738;-0.0233054;-0.00838712;0.012412;-0.00768869;0.0343109;0.0116471;0.0229404;0;0.0249028;-1.1204;-2.26143;-1.01951;2.7219;-6.64719;-0.00958403;0.00036969;0.0419798;0.0419824;-0.00958669;0.0257846;0.228301;4.38018;0.0316712;0.0343794;4.37924;0.22835;102.983;147.983;-0.0133251;-0.00961426;0.00890846;-0.00774655;0.0419418;0.00699097;0.0548186;0;0.034192;3.28509
522000;523;26.8869;1.0814;0.0419056;-2.74616;26.7423;-0.46388;-0.352157;1.05097;-0.851552;-0.763706;-1.20978;-0.164027;1.44004;-6.10054;-0.00877223;0.00173353;0.0356621;0.0357296;-0.00883975;0.0222847;0.245982;4.06534;0.0272486;0.0297129;4.04193;0.247407;106.425;151.425;-0.0243533;-0.00880684;0.0123871;-0.00846313;0.0355895;0.0117066;0.0215424;0;0.0234854;-1.12092;-2.26908;-1.0207;2.72892;-6.64838;-0.00960839;0.000442642;0.0422734;0.0422772;-0.00961217;0.0259447;0.227292;4.39963;0.0318757;0.0345929;4.3983;0.227361;103.044;148.044;-0.0149231;-0.00963933;0.00915932;-0.00784017;0.0422332;0.0137028;0.0551054;0;0.0320616;3.28588
523000;524;26.8983;1.09278;0.0423467;-2.74807;26.7537;-0.454608;-0.354067;1.06238;-0.842281;-0.763588;-1.2083;-0.165267;1.43888;-6.10178;-0.00790612;0.00290323;0.0351108;0.0353059;-0.00810118;0.0217035;0.225176;4.44096;0.0266513;0.028938;4.35811;0.229457;104.033;149.033;-0.0273139;-0.0079255;0.0130762;-0.00684721;0.0350323;0.0211058;0.0232653;0;0.0249551;-1.12159;-2.27588;-1.02277;2.73562;-6.65045;-0.00930675;0.000640652;0.0423965;0.0424044;-0.00931469;0.0258596;0.219517;4.55545;0.0318321;0.0344794;4.55243;0.219663;103.564;148.564;-0.0149343;-0.0093413;0.0100459;-0.00829815;0.0423483;0.0169539;0.0534405;0;0.0302766;3.28498
524000;525;26.9036;1.09805;0.0425509;-2.74717;26.7589;-0.463651;-0.353163;1.06762;-0.851324;-0.76331;-1.20776;-0.163397;1.43806;-6.09991;-0.00837375;0.00212585;0.0355112;0.035614;-0.00847649;0.0220452;0.235806;4.24078;0.0270151;0.0293937;4.2015;0.23801;105.555;150.555;-0.0239794;-0.00840311;0.0126171;-0.00792096;0.0354366;0.011457;0.0212961;0;0.0249669;-1.12202;-2.28242;-1.02438;2.74185;-6.65206;-0.00966288;0.000450022;0.0427621;0.042766;-0.00966674;0.0262163;0.225968;4.4254;0.0322199;0.0349551;4.42403;0.226038;103.198;148.198;-0.0145966;-0.00969555;0.00940756;-0.00805721;0.0427198;0.0136829;0.0538931;0;0.032019;3.28564
525000;526;26.913;1.10748;0.0429163;-2.74806;26.7683;-0.462613;-0.354056;1.07702;-0.850285;-0.764022;-1.20639;-0.164599;1.43742;-6.10111;-0.00780133;0.00292916;0.0354665;0.0356639;-0.00799873;0.0218313;0.219963;4.54621;0.0268424;0.0291084;4.4587;0.224281;103.462;148.462;-0.0271104;-0.00781884;0.0128556;-0.00658275;0.0353908;0.0218559;0.0232834;0;0.024175;-1.12297;-2.2893;-1.02804;2.74933;-6.65572;-0.00972588;0.000508876;0.0431947;0.0431996;-0.00973077;0.0264652;0.225164;4.44121;0.0325321;0.0352869;4.43948;0.225251;103.581;148.581;-0.0143456;-0.00976156;0.00991723;-0.00842224;0.0431477;0.010246;0.0574029;0;0.0309575;3.28725
526000;527;26.9198;1.11424;0.0431782;-2.74911;26.7749;-0.468107;-0.355109;1.08361;-0.85578;-0.763552;-1.20572;-0.165247;1.43669;-6.10176;-0.00888768;0.00236661;0.0361735;0.0362975;-0.00901164;0.0226546;0.245696;4.07007;0.0276953;0.0302061;4.02784;0.248272;105;150;-0.0243508;-0.00891317;0.0126728;-0.0074916;0.0360987;0.0132581;0.0211337;0;0.0240131;-1.12373;-2.29681;-1.02841;2.75603;-6.65609;-0.00977056;0.00055361;0.0433318;0.0433375;-0.00977633;0.0265569;0.225483;4.43493;0.0326422;0.0354092;4.4329;0.225586;103.781;148.781;-0.0149884;-0.00980765;0.0101854;-0.00858798;0.0432822;0.00862564;0.0608118;0;0.0336677;3.28992
527000;528;26.9281;1.1226;0.0435023;-2.75152;26.783;-0.47334;-0.357519;1.09168;-0.861013;-0.763828;-1.20392;-0.167241;1.43556;-6.10375;-0.00884284;0.00252807;0.036759;0.0368987;-0.00898257;0.0229406;0.240563;4.15692;0.0280765;0.0305875;4.10782;0.243438;104.507;149.507;-0.0233366;-0.00886663;0.0128255;-0.00731669;0.0366828;0.0116575;0.0225806;0;0.0238965;-1.12479;-2.30394;-1.03216;2.76381;-6.65983;-0.00992392;0.0004442;0.0438154;0.0438191;-0.00992759;0.0268733;0.226494;4.41513;0.0330231;0.0358311;4.41387;0.226559;103.456;148.456;-0.0144705;-0.00995983;0.00981547;-0.00844464;0.0437693;0.00939838;0.0593462;0;0.0330469;3.29132
528000;529;26.9385;1.13294;0.043903;-2.75151;26.7935;-0.466831;-0.357508;1.1022;-0.854504;-0.763352;-1.20329;-0.167292;1.43478;-6.10381;-0.00874016;0.00209667;0.0372008;0.0372963;-0.00883565;0.023066;0.234945;4.25631;0.0282734;0.0307547;4.22112;0.236904;104.691;149.691;-0.0234221;-0.0087676;0.0123126;-0.00766695;0.0371299;0.0116115;0.0214676;0;0.0263421;-1.12551;-2.31218;-1.03265;2.77115;-6.66033;-0.0104491;0.000458035;0.0442182;0.044222;-0.010453;0.0273375;0.236309;4.23175;0.0335135;0.03645;4.23057;0.236375;102.824;147.824;-0.0141235;-0.0104808;0.00930911;-0.0079297;0.0441768;0.00909063;0.0578174;0;0.0364186;3.29332
529000;530;26.9465;1.141;0.0442153;-2.75207;26.8015;-0.469336;-0.358067;1.1102;-0.857009;-0.763526;-1.20225;-0.167023;1.43397;-6.10354;-0.00916931;0.00215289;0.0376553;0.0377541;-0.00926808;0.0235111;0.243507;4.10667;0.0287609;0.0313481;4.07356;0.245486;104.943;149.943;-0.0248605;-0.00919779;0.0125922;-0.00781556;0.0375811;0.0140576;0.0208665;0;0.026173;-1.12626;-2.31922;-1.03528;2.77832;-6.66296;-0.0104028;0.000385708;0.0444092;0.0444119;-0.0104055;0.0274087;0.234248;4.26898;0.0336176;0.0365449;4.26813;0.234295;102.902;147.902;-0.0143903;-0.0104355;0.00930108;-0.0080618;0.0443679;0.011302;0.0581585;0;0.0343899;3.29489
530000;531;26.9539;1.14837;0.0445008;-2.75312;26.8087;-0.472995;-0.35912;1.11743;-0.860668;-0.763583;-1.20099;-0.169259;1.43321;-6.10577;-0.00941782;0.00201231;0.0371125;0.0371994;-0.00950468;0.023352;0.253764;3.94067;0.0285011;0.031136;3.91379;0.255507;105.106;150.106;-0.0241014;-0.00944556;0.0121612;-0.00768141;0.0370431;0.0135478;0.0220891;0;0.0264637;-1.12698;-2.32655;-1.0393;2.78623;-6.66698;-0.0102747;0.000455066;0.0447458;0.0447495;-0.0102784;0.027514;0.229624;4.35495;0.0337844;0.0366853;4.35372;0.229688;102.864;147.864;-0.0144956;-0.010308;0.00952171;-0.00813413;0.0447025;0.0141285;0.0558007;0;0.0318538;3.29617
531000;532;26.9641;1.15854;0.0448949;-2.75295;26.8191;-0.468339;-0.358951;1.12776;-0.856011;-0.763775;-1.20012;-0.17011;1.43268;-6.10662;-0.00921115;0.0018148;0.0385446;0.0386134;-0.00928002;0.0239467;0.238974;4.18455;0.0293292;0.031929;4.16092;0.240331;105.159;150.159;-0.0244669;-0.009244;0.0123847;-0.00826928;0.0384723;0.0133497;0.021774;0;0.0256269;-1.12778;-2.33443;-1.03971;2.79329;-6.66739;-0.0101419;0.000485762;0.0450429;0.0450472;-0.0101462;0.0275967;0.225162;4.44125;0.0339232;0.0367956;4.4398;0.225235;103.272;148.272;-0.0146477;-0.0101787;0.0100232;-0.00854808;0.044995;0.0153786;0.0561528;0;0.0333828;3.29622
532000;533;26.9723;1.16678;0.0452144;-2.75401;26.8272;-0.471263;-0.360003;1.13589;-0.858936;-0.763453;-1.19886;-0.169832;1.43142;-6.10634;-0.00931074;0.00179005;0.0384892;0.0385562;-0.00937768;0.0239669;0.241905;4.13386;0.029334;0.0319559;4.11148;0.243221;105.213;150.213;-0.0229684;-0.00934353;0.0123216;-0.00825695;0.0384177;0.0103441;0.0228713;0;0.0257768;-1.12851;-2.34196;-1.04026;2.80008;-6.66793;-0.0103167;0.000644087;0.0454146;0.0454221;-0.0103241;0.0278731;0.227167;4.40205;0.0342455;0.0371641;4.3996;0.227294;103.136;148.136;-0.0164027;-0.0103526;0.0102562;-0.0084557;0.0453645;0.0156257;0.0605971;0;0.0358101;3.29764
533000;534;26.9815;1.17597;0.0455705;-2.75515;26.8363;-0.474142;-0.361145;1.14496;-0.861814;-0.764013;-1.19824;-0.169628;1.43117;-6.10614;-0.00940955;0.00197171;0.0387386;0.0388192;-0.00949016;0.0241547;0.242899;4.11694;0.0295552;0.0322062;4.09047;0.244471;104.832;149.832;-0.0236894;-0.00943981;0.0124168;-0.00798941;0.0386663;0.0123502;0.0214244;0;0.0267352;-1.12962;-2.34956;-1.04282;2.80783;-6.67049;-0.0106494;0.00055078;0.0458677;0.0458731;-0.0106548;0.028264;0.232177;4.30706;0.0346836;0.0376853;4.30539;0.232267;103.087;148.087;-0.0157546;-0.0106855;0.0100751;-0.00845887;0.0458194;0.0107762;0.0620723;0;0.0352542;3.29881
534000;535;26.9913;1.1858;0.0459514;-2.75603;26.846;-0.47634;-0.362023;1.15471;-0.864013;-0.763844;-1.19698;-0.171334;1.43024;-6.10785;-0.00944636;0.00193569;0.0387795;0.0388571;-0.00952393;0.0241905;0.243592;4.10523;0.0295947;0.032254;4.07994;0.245102;104.869;149.869;-0.0235844;-0.00947693;0.0123748;-0.00801894;0.0387076;0.0113563;0.0211643;0;0.02638;-1.13033;-2.35717;-1.04687;2.81599;-6.67455;-0.0107113;0.000416012;0.0463526;0.0463556;-0.0107143;0.028535;0.231083;4.32745;0.0350257;0.0380466;4.32651;0.231133;103.072;148.072;-0.0155176;-0.0107484;0.00993077;-0.00857989;0.0463055;0.00996555;0.0627819;0;0.0343469;3.30113
535000;536;26.998;1.19246;0.0462095;-2.75725;26.8525;-0.482242;-0.363245;1.16118;-0.869914;-0.764011;-1.19564;-0.170637;1.42912;-6.10715;-0.00964057;0.00213804;0.0390282;0.0391219;-0.00973432;0.0244281;0.247016;4.04833;0.0298597;0.0325708;4.01897;0.24882;104.589;149.589;-0.0246513;-0.00966886;0.0125483;-0.00778484;0.0389546;0.0124195;0.0207873;0;0.0274596;-1.13161;-2.3646;-1.04821;2.82323;-6.67589;-0.0111913;0.000366972;0.0467047;0.046707;-0.0111937;0.0289503;0.239619;4.17329;0.035463;0.0386004;4.17263;0.239657;102.707;147.707;-0.0148455;-0.0112258;0.00950755;-0.00826805;0.0466615;0.0102702;0.0616831;0;0.0346795;3.30207
536000;537;27.0078;1.20231;0.0465913;-2.75725;26.8624;-0.4812;-0.363246;1.1711;-0.868873;-0.764531;-1.1954;-0.170456;1.42918;-6.10697;-0.00979013;0.00220569;0.0398539;0.0399517;-0.00988794;0.0249198;0.24565;4.07083;0.03047;0.0332264;4.04045;0.247497;104.419;149.419;-0.0238451;-0.00981869;0.0127518;-0.00783717;0.0397781;0.0125085;0.0226083;0;0.0265366;-1.13266;-2.37299;-1.04825;2.83069;-6.67592;-0.0112996;0.000434451;0.0467995;0.0468027;-0.0113029;0.0290528;0.241447;4.14169;0.0355731;0.038737;4.14079;0.2415;102.83;147.83;-0.0138015;-0.0113347;0.00972578;-0.00834123;0.0467544;0.0103309;0.0601623;0;0.0386253;3.30215
537000;538;27.0169;1.21142;0.0469444;-2.75819;26.8715;-0.477906;-0.36419;1.18022;-0.865579;-0.764707;-1.19455;-0.17273;1.42883;-6.10924;-0.00965365;0.00205989;0.0402279;0.0403128;-0.00973857;0.0250257;0.239974;4.16712;0.0306417;0.0333676;4.1395;0.241575;104.232;149.232;-0.0244638;-0.00968281;0.0124945;-0.00787458;0.0401549;0.0137024;0.0217892;0;0.0277651;-1.13355;-2.38135;-1.05117;2.83914;-6.67885;-0.0111969;0.000559548;0.0470335;0.0470389;-0.0112023;0.0291206;0.238063;4.20057;0.0356844;0.0388275;4.19903;0.23815;103.15;148.15;-0.0135251;-0.0112346;0.0103084;-0.00864713;0.0469829;0.014302;0.0567248;0;0.0369693;3.30636
538000;539;27.026;1.22052;0.0472968;-2.7592;26.8806;-0.476906;-0.3652;1.18928;-0.864578;-0.76377;-1.19352;-0.173766;1.4276;-6.11028;-0.00975981;0.00198899;0.0403244;0.0404033;-0.00983867;0.025121;0.242032;4.13168;0.0307444;0.0334946;4.10658;0.243512;104.551;149.551;-0.0244315;-0.00979107;0.0126055;-0.00811667;0.04025;0.0133296;0.020843;0;0.0275236;-1.13349;-2.38864;-1.0543;2.84639;-6.68198;-0.0110068;0.000367643;0.047365;0.0473673;-0.0110091;0.0291882;0.232382;4.30325;0.0358164;0.0389176;4.30256;0.23242;103.029;148.029;-0.014958;-0.0110452;0.00999914;-0.0087271;0.0473173;0.0160702;0.058866;0;0.0340711;3.30658
539000;540;27.0354;1.22984;0.0476582;-2.75994;26.8899;-0.477471;-0.365934;1.19857;-0.865144;-0.7649;-1.19038;-0.176195;1.42587;-6.11271;-0.00980808;0.00212862;0.0410666;0.0411555;-0.00989699;0.0255262;0.238834;4.18701;0.0312626;0.034035;4.15838;0.240478;104.001;149.001;-0.0240096;-0.00983709;0.0126432;-0.00787235;0.040992;0.012362;0.0225454;0;0.0258576;-1.13545;-2.39522;-1.05794;2.85404;-6.68562;-0.0109957;0.000554232;0.047761;0.0477663;-0.0110009;0.0293836;0.230222;4.34362;0.0360747;0.0391781;4.34204;0.230307;103.083;148.083;-0.0156876;-0.0110349;0.0104972;-0.0088312;0.0477086;0.016587;0.0619113;0;0.0357174;3.3061
540000;541;27.0432;1.23768;0.0479619;-2.7607;26.8975;-0.48883;-0.366694;1.20617;-0.876503;-0.764783;-1.18802;-0.180446;1.42438;-6.11696;-0.0100613;0.00195918;0.0411125;0.0411874;-0.0101362;0.0256618;0.244727;4.08619;0.0313874;0.0342157;4.06339;0.2461;104.161;149.161;-0.0237033;-0.0100912;0.0123698;-0.00793987;0.0410408;0.0114936;0.023231;0;0.0269547;-1.13604;-2.40287;-1.06314;2.86263;-6.69082;-0.0113367;0.000505473;0.048564;0.0485683;-0.011341;0.0299546;0.233439;4.28378;0.0367472;0.0399395;4.28255;0.233506;102.804;147.804;-0.0163301;-0.0113751;0.0102917;-0.00872173;0.0485136;0.0140786;0.0647168;0;0.0367014;3.30559
541000;542;27.0521;1.24654;0.0483053;-2.7616;26.9063;-0.487577;-0.367594;1.21501;-0.87525;-0.766016;-1.18797;-0.179;1.42482;-6.11551;-0.00993323;0.00186533;0.0424216;0.042488;-0.00999961;0.0262438;0.234155;4.27067;0.0321806;0.0349917;4.24896;0.235352;103.935;148.935;-0.0237588;-0.00996539;0.0124572;-0.00819479;0.0423488;0.0124231;0.0229955;0;0.0284031;-1.13747;-2.40947;-1.06347;2.86886;-6.69114;-0.0116715;0.000304236;0.0487329;0.0487344;-0.011673;0.0302037;0.239499;4.17538;0.0369996;0.0402716;4.17497;0.239523;103.478;148.478;-0.0162525;-0.0117149;0.0104608;-0.00926739;0.0486807;0.0104285;0.0648399;0;0.0357573;3.3067
542000;543;27.061;1.25546;0.0486507;-2.76289;26.9152;-0.487233;-0.36889;1.22384;-0.874906;-0.765018;-1.18718;-0.17849;1.42356;-6.115;-0.0102324;0.00199764;0.0427757;0.0428509;-0.0103076;0.0265792;0.23921;4.18042;0.0325517;0.0354389;4.15723;0.240545;103.757;148.757;-0.0237726;-0.0102629;0.012561;-0.00802897;0.0427019;0.013717;0.0230116;0;0.0266794;-1.13788;-2.41723;-1.06331;2.87549;-6.69099;-0.0117892;0.000490348;0.0491006;0.0491046;-0.0117931;0.0304489;0.240102;4.16489;0.0372942;0.0405985;4.16383;0.240164;102.702;147.702;-0.0146173;-0.0118269;0.0101969;-0.00865285;0.0490512;0.0114336;0.0623815;0;0.0367634;3.30787
543000;544;27.0699;1.26434;0.048995;-2.76308;26.9241;-0.488131;-0.369081;1.23274;-0.875804;-0.764842;-1.18706;-0.179162;1.42344;-6.11567;-0.0102926;0.00193749;0.0427403;0.042811;-0.0103633;0.0265871;0.240817;4.15253;0.0325497;0.0354495;4.13102;0.242071;104.064;149.064;-0.0238005;-0.0103251;0.0126697;-0.00824912;0.0426651;0.0116041;0.022718;0;0.0277288;-1.13827;-2.4256;-1.06668;2.88392;-6.69436;-0.01196;0.000385836;0.0492788;0.0492812;-0.0119625;0.0306218;0.242702;4.12028;0.0374834;0.0408291;4.11965;0.242739;102.554;147.554;-0.0133217;-0.011997;0.0098841;-0.00855811;0.0492323;0.007784;0.0599177;0;0.0386783;3.30944
544000;545;27.0762;1.27066;0.0492398;-2.76342;26.9303;-0.492422;-0.369417;1.23898;-0.880095;-0.76547;-1.18665;-0.176169;1.42307;-6.11268;-0.0100096;0.00241886;0.0430429;0.0431529;-0.0101196;0.0266363;0.232548;4.30018;0.0326685;0.035515;4.26429;0.234506;103.142;148.142;-0.0239491;-0.010036;0.0130067;-0.00763065;0.0429646;0.0136515;0.0232068;0;0.028094;-1.13955;-2.43296;-1.0661;2.89041;-6.69378;-0.0121624;0.000349874;0.0491321;0.0491341;-0.0121644;0.0306493;0.247545;4.03967;0.0374749;0.0408657;4.03917;0.247575;102.582;147.582;-0.0139801;-0.0121989;0.00975263;-0.00850357;0.0490868;0.0122749;0.0605303;0;0.0377576;3.31076
545000;546;27.086;1.28044;0.0496188;-2.76573;26.94;-0.487764;-0.371728;1.24866;-0.875437;-0.765885;-1.18456;-0.179689;1.42199;-6.1162;-0.0104505;0.00177434;0.0444318;0.0444891;-0.0105078;0.0274985;0.235204;4.25164;0.0337124;0.0366647;4.2339;0.236189;103.811;148.811;-0.0243067;-0.0104854;0.0126071;-0.00848936;0.0443573;0.0123965;0.0215399;0;0.0284005;-1.14107;-2.44018;-1.06933;2.89827;-6.69701;-0.0119395;0.000462554;0.0495797;0.0495832;-0.011943;0.0307631;0.240815;4.15256;0.0376729;0.0410175;4.15165;0.240868;103.105;148.105;-0.0148001;-0.011981;0.0105832;-0.00906495;0.0495264;0.0185889;0.0583766;0;0.0371586;3.31369
546000;547;27.094;1.28845;0.0499294;-2.76627;26.948;-0.488856;-0.372267;1.25664;-0.876529;-0.76479;-1.18303;-0.178217;1.41994;-6.11473;-0.0105454;0.00179168;0.0438928;0.0439517;-0.0106043;0.027278;0.240254;4.16225;0.0334018;0.0363707;4.14469;0.241273;104.051;149.051;-0.0244461;-0.0105803;0.012647;-0.00849778;0.0438177;0.0137347;0.0252036;0;0.0292266;-1.14068;-2.44672;-1.07132;2.90436;-6.699;-0.0118521;0.000409933;0.0498341;0.0498368;-0.0118548;0.0308458;0.237831;4.20467;0.0378009;0.0411277;4.20393;0.237873;102.71;147.71;-0.0154741;-0.0118915;0.0102353;-0.00883815;0.0497842;0.0173245;0.0627696;0;0.0357521;3.31508
547000;548;27.1024;1.29692;0.0502573;-2.76574;26.9565;-0.488481;-0.371733;1.26521;-0.876154;-0.76433;-1.18299;-0.172163;1.41891;-6.10868;-0.010667;0.00212228;0.0440977;0.0441798;-0.0107491;0.0274645;0.241894;4.13404;0.0336141;0.0366193;4.11009;0.243303;103.761;148.761;-0.0230049;-0.0106989;0.0130434;-0.00822624;0.0440184;0.00955133;0.0223236;0;0.0327535;-1.14078;-2.45486;-1.06581;2.90923;-6.69349;-0.0122117;0.000554873;0.0503349;0.0503398;-0.0122166;0.0312782;0.242608;4.12187;0.0382873;0.0417042;4.12061;0.242682;102.881;147.881;-0.0168892;-0.0122522;0.0106831;-0.00897032;0.0502807;0.0164443;0.0652257;0;0.0389266;3.31523
548000;549;27.1114;1.30589;0.050605;-2.7673;26.9652;-0.496503;-0.373299;1.27393;-0.884175;-0.765008;-1.18048;-0.180994;1.41828;-6.11751;-0.0105738;0.00218491;0.0445906;0.044677;-0.0106602;0.0276686;0.237131;4.21707;0.0339014;0.0368915;4.191;0.238607;103.394;148.394;-0.0224064;-0.0106045;0.0130284;-0.00808613;0.0445116;0.00812916;0.0214708;0;0.0289445;-1.14231;-2.46225;-1.07514;2.9195;-6.70282;-0.0122877;0.000374347;0.0510708;0.051073;-0.01229;0.0316815;0.240602;4.15624;0.0387997;0.042242;4.15568;0.240635;102.978;147.978;-0.0166012;-0.012331;0.0106202;-0.00925392;0.0510172;0.0114997;0.065834;0;0.035727;3.31507
549000;550;27.1205;1.31498;0.0509571;-2.76728;26.9744;-0.497416;-0.373277;1.28305;-0.885089;-0.765915;-1.18135;-0.179545;1.41932;-6.1155;-0.0103253;0.00257584;0.0449526;0.0450724;-0.010445;0.0277587;0.229692;4.35366;0.0340679;0.0370116;4.3152;0.231739;102.372;147.372;-0.0264246;-0.0103494;0.0130809;-0.00737373;0.0448739;0.0187996;0.0286089;0;0.0269598;-1.14334;-2.47033;-1.07646;2.9272;-6.70413;-0.012475;0.000424136;0.0515358;0.0515386;-0.0124778;0.0320082;0.242065;4.13112;0.0391863;0.0426776;4.13041;0.242107;102.856;147.856;-0.0156137;-0.0125178;0.0106759;-0.0092036;0.0514817;0.011721;0.0648017;0;0.0343519;3.3167
550000;551;27.1302;1.32464;0.0513315;-2.76901;26.9839;-0.497915;-0.375005;1.29258;-0.885588;-0.765232;-1.17909;-0.179523;1.41706;-6.11548;-0.0102495;0.0026453;0.0448217;0.0449485;-0.0103763;0.0276624;0.228673;4.37306;0.0339571;0.0368832;4.33185;0.230848;102.185;147.185;-0.027136;-0.0102722;0.0130425;-0.00720413;0.0447437;0.0196192;0.0273255;0;0.0279959;-1.14388;-2.4772;-1.07886;2.9341;-6.70653;-0.0127517;0.000556119;0.0514865;0.0514914;-0.0127565;0.0321239;0.247671;4.03762;0.0392765;0.0428319;4.03647;0.247741;102.791;147.791;-0.0143032;-0.0127929;0.0107673;-0.00903132;0.0514316;0.0130766;0.0618273;0;0.0396608;3.31747
551000;552;27.1388;1.33327;0.0516662;-2.76888;26.9926;-0.496238;-0.374874;1.30131;-0.883911;-0.765058;-1.17727;-0.182384;1.41582;-6.11693;-0.0104163;0.00247868;0.0456707;0.04578;-0.0105257;0.0281529;0.228075;4.38452;0.0345669;0.0375371;4.34937;0.229918;102.533;147.533;-0.0247967;-0.010443;0.0132027;-0.0076704;0.0455903;0.0182348;0.028164;0;0.0280165;-1.14414;-2.48323;-1.08307;2.94083;-6.71075;-0.0126669;0.000361355;0.0515281;0.0515301;-0.012669;0.0320995;0.245826;4.06792;0.0392637;0.0427994;4.06743;0.245856;102.367;147.367;-0.013341;-0.0127057;0.010075;-0.00875927;0.0514799;0.0108707;0.0632736;0;0.0370673;3.31956
552000;553;27.1477;1.34222;0.0520129;-2.77096;27.0014;-0.494575;-0.376953;1.31012;-0.882247;-0.765344;-1.17681;-0.179883;1.41527;-6.11443;-0.0103318;0.00291756;0.0459724;0.0461231;-0.0104826;0.0283029;0.22474;4.44958;0.0347737;0.0377372;4.39996;0.227275;101.586;146.586;-0.0248085;-0.0103518;0.013316;-0.00692141;0.0458917;0.0174515;0.0279273;0;0.0294523;-1.14502;-2.49186;-1.08132;2.94782;-6.70899;-0.0128562;0.000365307;0.0516792;0.0516813;-0.0128582;0.0322698;0.248768;4.0198;0.0394452;0.0430264;4.01932;0.248798;102.422;147.422;-0.0139523;-0.0128952;0.0101212;-0.00879192;0.0516306;0.0137401;0.0616963;0;0.03532;3.32068
553000;554;27.1556;1.35011;0.0523186;-2.77266;27.0092;-0.496068;-0.378659;1.31785;-0.883741;-0.765385;-1.17539;-0.183738;1.41461;-6.11865;-0.0107033;0.00217924;0.046916;0.0469983;-0.0107856;0.028892;0.228138;4.38332;0.0354782;0.0385226;4.3575;0.229489;102.484;147.484;-0.0244125;-0.0107324;0.0128443;-0.00789907;0.0468395;0.0136172;0.0176617;0;0.0289477;-1.1463;-2.49949;-1.08653;2.95669;-6.71421;-0.0127494;0.000423889;0.0520793;0.052082;-0.0127522;0.0324171;0.244807;4.08484;0.0396614;0.0432228;4.08417;0.244848;102.598;147.598;-0.0148754;-0.0127907;0.010514;-0.00904456;0.0520268;0.0170367;0.0649015;0;0.0388575;3.32177
554000;555;27.1636;1.35807;0.0526273;-2.77167;27.0172;-0.500311;-0.377663;1.32588;-0.887983;-0.765347;-1.17422;-0.185651;1.41387;-6.1202;-0.0104227;0.00261227;0.0463154;0.0464355;-0.0105427;0.0284891;0.225036;4.44372;0.0350045;0.0379854;4.40452;0.227039;102.022;147.022;-0.0226946;-0.0104468;0.013182;-0.00738459;0.0462357;0.0135645;0.0262803;0;0.0255843;-1.14658;-2.50688;-1.0894;2.9641;-6.71707;-0.0126579;0.000574067;0.0526831;0.0526882;-0.012663;0.0326756;0.240265;4.16207;0.0400199;0.0435674;4.16081;0.240338;102.194;147.194;-0.0166867;-0.0126972;0.0105977;-0.00882747;0.0526299;0.0177284;0.0653391;0;0.0377147;3.32124
555000;556;27.1725;1.367;0.0529733;-2.77272;27.0259;-0.506485;-0.378721;1.33463;-0.894158;-0.765022;-1.17188;-0.186491;1.41186;-6.1214;-0.010755;0.00247305;0.0473905;0.0474955;-0.01086;0.0291777;0.226944;4.40638;0.0358364;0.0389036;4.37344;0.228653;101.82;146.82;-0.0238263;-0.0107795;0.0129192;-0.0073934;0.0473137;0.0126774;0.0187919;0;0.0286221;-1.1475;-2.51378;-1.09116;2.97094;-6.71884;-0.0129559;0.000365434;0.0531198;0.0531218;-0.012958;0.0330399;0.2439;4.10004;0.040432;0.0440532;4.09955;0.243929;102.569;147.569;-0.0170832;-0.012999;0.0105999;-0.00922693;0.0530665;0.0142168;0.0666112;0;0.0385705;3.32295
556000;557;27.1806;1.37504;0.0532846;-2.77527;27.0336;-0.512883;-0.38127;1.34233;-0.900556;-0.765294;-1.17117;-0.184792;1.41119;-6.1197;-0.0108807;0.00227073;0.0480737;0.048161;-0.010968;0.0295645;0.226333;4.41827;0.0363197;0.0394194;4.39105;0.227736;102.124;147.124;-0.0244478;-0.0109089;0.0129506;-0.00780864;0.0479962;0.012925;0.016858;0;0.0284379;-1.14851;-2.52156;-1.0915;2.97804;-6.71918;-0.0132004;0.000287492;0.0538107;0.053812;-0.0132017;0.0335068;0.245312;4.07644;0.0409901;0.0446758;4.07615;0.24533;102.79;147.79;-0.0166424;-0.0132465;0.0107829;-0.00954056;0.0537556;0.0148476;0.0669705;0;0.0348595;3.32408
557000;558;27.191;1.38549;0.0536897;-2.77523;27.0442;-0.510204;-0.381226;1.35289;-0.897876;-0.765462;-1.17029;-0.185848;1.41069;-6.1204;-0.0108736;0.00220551;0.0484264;0.0485083;-0.0109556;0.0297319;0.22454;4.45356;0.0365423;0.0396426;4.42773;0.225849;101.668;146.668;-0.0232576;-0.0108998;0.0125186;-0.00752448;0.0483539;0.0159634;0.0253712;0;0.0275195;-1.14928;-2.529;-1.09487;2.98587;-6.72255;-0.01341;0.000265562;0.053914;0.053915;-0.013411;0.033663;0.248729;4.02044;0.0411487;0.044884;4.02021;0.248743;102.553;147.553;-0.0151099;-0.0134539;0.0104961;-0.0093115;0.0538617;0.010987;0.0640193;0;0.0382068;3.32692
558000;559;27.1992;1.39369;0.0540074;-2.7753;27.0524;-0.511928;-0.381293;1.3611;-0.899601;-0.765274;-1.16894;-0.18714;1.40964;-6.12169;-0.010703;0.00212759;0.0488424;0.0489183;-0.0107789;0.0298486;0.219134;4.56343;0.0367362;0.0397982;4.53833;0.220346;101.787;146.787;-0.0240434;-0.0107314;0.0126383;-0.00778663;0.0487684;0.0153557;0.0248594;0;0.0282977;-1.14984;-2.53642;-1.09755;2.99335;-6.72523;-0.0134722;0.000365596;0.0539207;0.0539227;-0.0134742;0.0336984;0.249852;4.00237;0.0411813;0.0449312;4.00193;0.249879;102.473;147.473;-0.0141698;-0.013515;0.0105872;-0.00920239;0.0538676;0.0128931;0.0632208;0;0.0388519;3.32709
559000;560;27.2091;1.40356;0.05439;-2.77688;27.0623;-0.507036;-0.382874;1.37095;-0.894709;-0.764846;-1.16862;-0.187112;1.40914;-6.12166;-0.0111116;0.00199083;0.0492726;0.0493382;-0.0111772;0.0302577;0.225513;4.43433;0.0371821;0.0403436;4.41418;0.226543;102.191;147.191;-0.0229908;-0.0111431;0.0127351;-0.00813529;0.0491972;0.0142874;0.0281444;0;0.0324815;-1.1503;-2.54507;-1.09913;3.00144;-6.72681;-0.013396;0.000289384;0.0539754;0.0539767;-0.0133972;0.0336869;0.248186;4.02923;0.0411831;0.0449159;4.02895;0.248204;102.762;147.762;-0.0138919;-0.0134417;0.0107524;-0.00950486;0.0539206;0.0152631;0.0643939;0;0.044807;3.3273
560000;561;27.2162;1.41065;0.0546646;-2.77769;27.0693;-0.506644;-0.383687;1.378;-0.894317;-0.76505;-1.16756;-0.186159;1.40825;-6.11938;-0.0110178;0.00268877;0.0492573;0.049377;-0.0111375;0.0302573;0.223678;4.47072;0.0371906;0.040343;4.43342;0.22556;101.053;146.053;-0.0230238;-0.0110393;0.013027;-0.00705587;0.0491799;0.0147078;0.027562;0;0.0370561;-1.15066;-2.55213;-1.09915;3.00757;-6.72682;-0.01346;0.00044892;0.0543721;0.0543751;-0.013463;0.0339191;0.247554;4.03953;0.0414727;0.0452254;4.03886;0.247595;101.974;146.974;-0.0147027;-0.0134997;0.0103941;-0.00885646;0.054321;0.0163536;0.0673418;0;0.0524169;3.32843
561000;562;27.2263;1.42075;0.0550561;-2.77943;27.0793;-0.508364;-0.385425;1.38795;-0.896036;-0.765313;-1.16362;-0.192119;1.40593;-6.12667;-0.0107985;0.0023445;0.0503405;0.0504303;-0.0108883;0.0306593;0.21451;4.6618;0.0377764;0.0408791;4.6316;0.215908;101.154;146.154;-0.0239518;-0.0108243;0.0128124;-0.00751428;0.050265;0.0162996;0.0239333;0;0.0347831;-1.15227;-2.55815;-1.10609;3.01584;-6.73377;-0.0134614;0.000431372;0.0547062;0.0547089;-0.0134642;0.0340865;0.246068;4.06392;0.0416918;0.0454487;4.0633;0.246106;102.09;147.09;-0.0161755;-0.0135027;0.0105521;-0.00903527;0.0546535;0.0162831;0.0674398;0;0.0487363;3.32858
562000;563;27.2344;1.42891;0.0553723;-2.78002;27.0872;-0.517643;-0.386017;1.39592;-0.905316;-0.765211;-1.16212;-0.192308;1.40465;-6.12686;-0.0111345;0.00199977;0.0510887;0.0511529;-0.0111987;0.0311758;0.217945;4.58831;0.0383833;0.0415677;4.56773;0.218927;101.417;146.417;-0.0239407;-0.0111639;0.0125007;-0.0078797;0.0510162;0.0170908;0.0267571;0;0.0303589;-1.15308;-2.56536;-1.10904;3.02335;-6.73672;-0.0133754;0.000462499;0.0551849;0.055188;-0.0133786;0.0342833;0.242375;4.12584;0.0419685;0.0457111;4.12511;0.242418;101.743;146.743;-0.0171204;-0.0134151;0.0104242;-0.00885201;0.0551335;0.0159066;0.0661331;0;0.0395809;3.32995
563000;564;27.2434;1.43789;0.0557201;-2.78077;27.0962;-0.516887;-0.386764;1.40488;-0.90456;-0.765073;-1.16161;-0.191653;1.40407;-6.1262;-0.0111187;0.0015578;0.0516707;0.0517094;-0.0111573;0.0314333;0.215183;4.6472;0.0387314;0.0419111;4.63458;0.21577;101.863;146.863;-0.0237589;-0.0111539;0.0122478;-0.00849416;0.0516006;0.0171206;0.0236504;0;0.028901;-1.15365;-2.57384;-1.10763;3.03025;-6.73531;-0.013916;0.000334888;0.0559176;0.0559192;-0.0139176;0.0349184;0.248866;4.01822;0.0426818;0.0465578;4.01788;0.248888;102.521;147.521;-0.017938;-0.0139627;0.010981;-0.00960718;0.0558605;0.0150968;0.0672668;0;0.0401692;3.33122
564000;565;27.2518;1.44628;0.0560452;-2.78144;27.1044;-0.523806;-0.387434;1.41311;-0.911479;-0.765959;-1.16108;-0.189972;1.40388;-6.12452;-0.0112284;0.00185524;0.0518709;0.0519254;-0.0112829;0.0316042;0.216469;4.6196;0.0389269;0.0421389;4.60212;0.217291;101.431;146.431;-0.0240981;-0.0112596;0.0124117;-0.00806816;0.0517993;0.0165001;0.0235885;0;0.0288682;-1.15508;-2.58114;-1.1094;3.03764;-6.73708;-0.0141773;0.000273062;0.0562153;0.0562164;-0.0141784;0.0351974;0.252197;3.96516;0.0429903;0.0469299;3.96494;0.252211;102.514;147.514;-0.0158399;-0.0142242;0.0108745;-0.00962187;0.0561594;0.010938;0.0661714;0;0.0383927;3.33307
565000;566;27.2612;1.45564;0.056408;-2.78208;27.1139;-0.519394;-0.388079;1.42255;-0.907067;-0.76514;-1.15826;-0.19213;1.4014;-6.12668;-0.0113343;0.00186256;0.0519032;0.051958;-0.0113891;0.0316736;0.218375;4.57928;0.0389934;0.0422314;4.56206;0.219199;101.685;146.685;-0.0238401;-0.0113672;0.0126407;-0.00826783;0.0518289;0.016733;0.0236374;0;0.026872;-1.15501;-2.58802;-1.11148;3.04422;-6.73916;-0.014303;0.000195863;0.0561756;0.0561762;-0.0143036;0.0352399;0.254613;3.92753;0.0430187;0.0469865;3.92742;0.25462;102.412;147.412;-0.0138501;-0.0143489;0.0105984;-0.0095125;0.0561225;0.010649;0.0646648;0;0.0399932;3.33438
566000;567;27.2722;1.4667;0.0568368;-2.78353;27.1249;-0.516721;-0.389525;1.43357;-0.904393;-0.765044;-1.15672;-0.193736;1.4003;-6.12828;-0.0113705;0.00157282;0.0520243;0.0520633;-0.0114095;0.0317364;0.218561;4.57538;0.0390713;0.0423151;4.56316;0.219146;101.765;146.765;-0.0238344;-0.011405;0.0122008;-0.00841489;0.0519547;0.014585;0.0204375;0;0.0269392;-1.15603;-2.5958;-1.11552;3.0527;-6.7432;-0.0142214;0.000273551;0.0561585;0.0561595;-0.0142225;0.035191;0.253238;3.94886;0.0429724;0.0469214;3.94864;0.253252;102.355;147.355;-0.0126322;-0.0142668;0.0106975;-0.00945582;0.0561043;0.0107978;0.0641441;0;0.0419776;3.33417
567000;568;27.2774;1.47192;0.0570388;-2.78368;27.13;-0.523889;-0.389681;1.43866;-0.911561;-0.765368;-1.15767;-0.192106;1.40103;-6.12572;-0.0110581;0.00270784;0.0514806;0.0515976;-0.0111751;0.0313864;0.214801;4.65546;0.0386656;0.0418485;4.61718;0.216582;99.8782;144.878;-0.0254038;-0.0110758;0.012506;-0.00650781;0.0514097;0.0148727;0.0138295;0;0.0387847;-1.15656;-2.60337;-1.11906;3.06063;-6.74673;-0.0143198;0.000265637;0.0562186;0.0562196;-0.0143208;0.0352702;0.254717;3.92593;0.0430547;0.0470269;3.92572;0.25473;102.086;147.086;-0.0141647;-0.0143628;0.0104207;-0.00921122;0.0561672;0.0136246;0.065613;0;0.0431093;3.33435
568000;569;27.2862;1.48066;0.0573778;-2.78624;27.1385;-0.521965;-0.392236;1.44723;-0.909638;-0.765175;-1.15342;-0.198217;1.39827;-6.13312;-0.0118619;0.00143147;0.0537569;0.0537881;-0.0118931;0.0328406;0.220658;4.53191;0.0404107;0.0437874;4.52264;0.22111;101.768;146.768;-0.0245605;-0.0118992;0.0122405;-0.00870461;0.0536867;0.016796;0.0157655;0;0.0342411;-1.15793;-2.61029;-1.12191;3.06808;-6.74959;-0.0142961;0.000497922;0.0568416;0.056845;-0.0142996;0.0355723;0.251508;3.97602;0.0434547;0.0474297;3.9753;0.251554;101.71;146.71;-0.0155295;-0.0143366;0.0106337;-0.00895566;0.0567882;0.0168122;0.0690231;0;0.048409;3.33442
569000;570;27.2951;1.4896;0.0577241;-2.78688;27.1474;-0.524512;-0.392875;1.4561;-0.912185;-0.765779;-1.15142;-0.197165;1.3968;-6.13207;-0.011891;0.00113342;0.0534685;0.0534882;-0.0119106;0.0326994;0.222392;4.49656;0.0402212;0.0435992;4.49079;0.222678;102.175;147.175;-0.0252199;-0.0119319;0.0120026;-0.00906156;0.0534008;0.014858;0.0137153;0;0.0281308;-1.15912;-2.61754;-1.12137;3.07449;-6.74904;-0.0144571;0.000474635;0.0571415;0.0571447;-0.0144602;0.0358025;0.253005;3.95249;0.043721;0.0477366;3.95185;0.253046;101.721;146.721;-0.0175731;-0.0144981;0.0106374;-0.00899984;0.0570881;0.0169177;0.066326;0;0.0454239;3.33441
570000;571;27.3062;1.50072;0.0581551;-2.78709;27.1587;-0.52006;-0.393091;1.46735;-0.907733;-0.764746;-1.15376;-0.189962;1.39717;-6.12487;-0.0120269;0.001391;0.0536584;0.0536879;-0.0120564;0.0328721;0.224138;4.46153;0.0404147;0.0438295;4.45308;0.224564;101.999;146.999;-0.0247815;-0.0120656;0.0123174;-0.00885436;0.0535874;0.0155297;0.0163755;0;0.02972;-1.15929;-2.62792;-1.11515;3.08115;-6.74283;-0.0145228;0.000413854;0.0579505;0.0579529;-0.0145251;0.036239;0.250606;3.99032;0.0442784;0.0483187;3.98983;0.250637;102.191;147.191;-0.0177949;-0.0145695;0.0111689;-0.00960444;0.0578917;0.0147394;0.0688491;0;0.0437438;3.3356
571000;572;27.3126;1.50712;0.0584031;-2.78815;27.1647;-0.535679;-0.394148;1.47337;-0.923352;-0.765704;-1.15113;-0.199636;1.39688;-6.13326;-0.0111106;0.00260681;0.0526284;0.0527348;-0.0112171;0.0319759;0.211115;4.73675;0.039431;0.0426346;4.7013;0.212707;99.7878;144.788;-0.0250856;-0.0111296;0.0124717;-0.00666096;0.0525577;0.0145709;0.0164226;0;0.038126;-1.16;-2.63133;-1.13143;3.09025;-6.75911;-0.0145492;0.000201778;0.058391;0.0583916;-0.0145498;0.0364707;0.249169;4.01334;0.0445763;0.0486276;4.01322;0.249176;102.074;147.074;-0.0171905;-0.0145965;0.010782;-0.0096493;0.0583361;0.0155537;0.0672269;0;0.0404608;3.33722
572000;573;27.3209;1.51535;0.058722;-2.78949;27.1727;-0.5393;-0.395485;1.48144;-0.926972;-0.76502;-1.14793;-0.20181;1.39417;-6.13674;-0.0117376;0.00139161;0.0543484;0.0543777;-0.0117669;0.0330723;0.21597;4.63027;0.0407445;0.0440964;4.62123;0.216393;101.769;146.769;-0.0254194;-0.0117766;0.0123506;-0.00888062;0.054277;0.0176866;0.0191121;0;0.0259078;-1.16085;-2.63829;-1.13371;3.09733;-6.76139;-0.0150412;0.000151416;0.0588176;0.0588179;-0.0150415;0.0369297;0.255727;3.91043;0.0450703;0.0492396;3.91037;0.25573;102.161;147.161;-0.015952;-0.0150892;0.0107651;-0.00972191;0.0587628;0.0143612;0.0697708;0;0.0402413;3.33868
573000;574;27.3311;1.5256;0.0591193;-2.79035;27.183;-0.535874;-0.396348;1.49172;-0.923547;-0.764995;-1.14795;-0.200367;1.39397;-6.13527;-0.0118807;0.00126231;0.0544856;0.0545096;-0.0119047;0.0332072;0.218052;4.58607;0.0408898;0.0442762;4.57884;0.218396;101.785;146.785;-0.0248098;-0.0119201;0.0121237;-0.00891566;0.0544167;0.0146321;0.0142851;0;0.0278116;-1.1614;-2.64716;-1.13474;3.10547;-6.76242;-0.0149707;0.000149199;0.0585478;0.0585481;-0.014971;0.0367596;0.2557;3.91083;0.0448629;0.0490128;3.91077;0.255704;101.994;146.994;-0.0138437;-0.0150168;0.0105477;-0.00952716;0.0584953;0.0127089;0.06746;0;0.0387376;3.3406
574000;575;27.3404;1.53483;0.0594769;-2.79206;27.1923;-0.527801;-0.398059;1.50098;-0.915473;-0.76653;-1.14888;-0.194131;1.3947;-6.12868;-0.0118434;0.00144699;0.0549549;0.0549863;-0.0118747;0.0334305;0.215511;4.64013;0.0411903;0.044574;4.63052;0.215958;101.517;146.517;-0.0239284;-0.011881;0.0123272;-0.00874448;0.0548839;0.0122731;0.0175761;0;0.0271842;-1.16364;-2.65678;-1.1293;3.11253;-6.75698;-0.0153386;0.000311997;0.0585984;0.0585997;-0.0153399;0.0369698;0.261759;3.82031;0.0450587;0.0492931;3.82007;0.261775;102.138;147.138;-0.0136943;-0.0153847;0.010897;-0.0095337;0.0585423;0.0138013;0.0657439;0;0.0378025;3.34316
575000;576;27.3484;1.54291;0.05979;-2.79235;27.2003;-0.530346;-0.398351;1.50903;-0.918019;-0.765364;-1.146;-0.198264;1.39226;-6.13317;-0.012173;0.00100734;0.0549761;0.0549912;-0.0121881;0.0335896;0.221424;4.51623;0.041327;0.0447862;4.51187;0.221637;101.713;146.713;-0.0241963;-0.0122129;0.0116305;-0.00893977;0.0549124;0.0122834;0.0143771;0;0.028659;-1.16363;-2.6644;-1.13306;3.1204;-6.76074;-0.0151919;0.000430078;0.0588801;0.0588826;-0.0151944;0.0370385;0.258015;3.87575;0.0451797;0.0493847;3.87527;0.258046;101.406;146.406;-0.0149979;-0.0152323;0.0104975;-0.00893312;0.0588281;0.0161104;0.0686921;0;0.0420803;3.34313
576000;577;27.3594;1.55387;0.0602146;-2.79407;27.2112;-0.528302;-0.400064;1.51991;-0.915975;-0.766087;-1.14303;-0.196162;1.38992;-6.13084;-0.0118292;0.00134058;0.0549924;0.0550192;-0.0118561;0.0334377;0.215107;4.64886;0.0412041;0.0445836;4.64058;0.21549;101.282;146.282;-0.0243237;-0.0118654;0.0119149;-0.00856412;0.0549259;0.0113209;0.0208443;0;0.0308675;-1.16509;-2.67057;-1.13434;3.12668;-6.76202;-0.0151709;0.000513252;0.0594555;0.059459;-0.0151744;0.0373167;0.255164;3.91905;0.045548;0.0497556;3.91837;0.255208;101.434;146.434;-0.0164493;-0.0152124;0.0108111;-0.00905925;0.0594004;0.0171497;0.0670891;0;0.0419938;3.34188
577000;578;27.3675;1.56195;0.0605277;-2.7948;27.2192;-0.532606;-0.400793;1.52787;-0.920279;-0.764776;-1.14026;-0.200875;1.3876;-6.13719;-0.0115674;0.00143106;0.0555765;0.055607;-0.0115979;0.0336024;0.208135;4.80458;0.0414813;0.0448032;4.79458;0.208569;101.307;146.307;-0.0256384;-0.0116052;0.0123158;-0.00876145;0.0555056;0.0134982;0.0181288;0;0.0285396;-1.16528;-2.67748;-1.13859;3.13419;-6.76627;-0.0150867;0.000391944;0.0599533;0.0599553;-0.0150887;0.037522;0.25164;3.97393;0.0458352;0.0500293;3.97352;0.251666;101.866;146.866;-0.0184104;-0.0151336;0.0111686;-0.00962178;0.0598945;0.0169906;0.068678;0;0.0426739;3.34186
578000;579;27.3767;1.57119;0.0608856;-2.79476;27.2284;-0.537086;-0.400758;1.53708;-0.924758;-0.765233;-1.14115;-0.197212;1.38806;-6.13043;-0.0117869;0.00179687;0.0551221;0.0551703;-0.0118351;0.0335027;0.213833;4.67655;0.0412945;0.0446703;4.66157;0.21452;100.615;145.615;-0.0213805;-0.0118168;0.012144;-0.00789426;0.0550538;0.0103362;0.020969;0;0.031346;-1.16524;-2.68542;-1.13684;3.14033;-6.76452;-0.0152948;0.000351148;0.0608103;0.0608119;-0.0152964;0.0380541;0.251516;3.97589;0.0464866;0.0507388;3.97557;0.251536;101.809;146.809;-0.0177886;-0.0153427;0.0111991;-0.00971857;0.0607512;0.0166609;0.0679332;0;0.0414406;3.34304
579000;580;27.3866;1.58107;0.0612688;-2.79517;27.2382;-0.540269;-0.401165;1.54691;-0.927942;-0.764225;-1.13936;-0.197053;1.38601;-6.13337;-0.0116783;0.00147346;0.0554163;0.0554486;-0.0117107;0.0335796;0.210738;4.74523;0.0414248;0.0447729;4.73489;0.211198;101.027;146.027;-0.0255402;-0.0117132;0.0120495;-0.00843037;0.0553485;0.0135401;0.0202542;0;0.0309486;-1.16621;-2.69351;-1.1412;3.14918;-6.76888;-0.0157674;9.91072e-05;0.0609476;0.0609477;-0.0157676;0.0383576;0.258705;3.86541;0.0467819;0.0511435;3.86539;0.258706;102.114;147.114;-0.0157474;-0.0158182;0.0109841;-0.00999879;0.0608907;0.0139273;0.0671926;0;0.0424486;3.34319
580000;581;27.395;1.58945;0.0615935;-2.79691;27.2465;-0.539948;-0.402911;1.55516;-0.92762;-0.765369;-1.13847;-0.197006;1.3859;-6.13229;-0.0116839;0.00169372;0.0553686;0.0554113;-0.0117266;0.033569;0.21102;4.73888;0.041407;0.0447586;4.72525;0.211629;100.456;145.456;-0.0178408;-0.0117136;0.0118843;-0.00784951;0.055303;-0.00201327;0.016093;0;0.0411107;-1.16762;-2.70035;-1.14167;3.15573;-6.76934;-0.0159374;0.00012942;0.061096;0.0610962;-0.0159376;0.0385169;0.260858;3.8335;0.0469538;0.0513559;3.83347;0.260861;102.251;147.251;-0.0148984;-0.0159893;0.0111729;-0.0101124;0.0610372;0.0149951;0.0700148;0;0.0481909;3.34454
581000;582;27.4036;1.59809;0.0619283;-2.79712;27.2552;-0.537987;-0.403121;1.56387;-0.925659;-0.765116;-1.13825;-0.197384;1.38563;-6.13229;-0.0121827;0.000857802;0.0568935;0.0569041;-0.0121933;0.0345487;0.214131;4.67004;0.0425864;0.046065;4.66683;0.214278;101.455;146.455;-0.023662;-0.0122247;0.0115671;-0.00915166;0.0568305;0.0177332;0.0158402;0;0.0296035;-1.16805;-2.70865;-1.14457;3.16405;-6.77225;-0.0158709;0.000212686;0.0610108;0.0610114;-0.0158715;0.0384415;0.260133;3.84419;0.0468693;0.0512553;3.84409;0.26014;102.084;147.084;-0.0137856;-0.015921;0.0111445;-0.00992702;0.0609523;0.0141796;0.0716837;0;0.045261;3.3475
582000;583;27.4121;1.6066;0.0622578;-2.79817;27.2636;-0.53695;-0.404164;1.57233;-0.924623;-0.766086;-1.13785;-0.196486;1.38571;-6.1297;-0.0121497;0.00132516;0.0565872;0.0566127;-0.0121753;0.034394;0.214708;4.65749;0.0423872;0.0458587;4.64981;0.215062;100.79;145.79;-0.0221866;-0.0121843;0.0116963;-0.0083714;0.0565233;0.0134142;0.0217162;0;0.0321577;-1.16911;-2.71709;-1.14529;3.17192;-6.77297;-0.0161606;0.00046912;0.0611686;0.0611715;-0.0161635;0.0386675;0.264198;3.78504;0.0471025;0.0515567;3.78455;0.264232;101.379;146.379;-0.0145971;-0.0162031;0.0108512;-0.0091564;0.0611133;0.0176811;0.0688773;0;0.0418436;3.34749
583000;584;27.4202;1.61467;0.0625708;-2.79983;27.2716;-0.538899;-0.40583;1.58024;-0.926572;-0.765521;-1.13285;-0.200918;1.38193;-6.13687;-0.0120161;0.00160212;0.0565814;0.0566188;-0.0120535;0.0343361;0.212368;4.7088;0.0423395;0.0457815;4.6973;0.212888;100.404;145.404;-0.0242823;-0.012047;0.0118523;-0.00798275;0.0565161;0.0137433;0.022665;0;0.0332912;-1.17037;-2.72308;-1.14958;3.17906;-6.77726;-0.016042;0.0005213;0.0617178;0.0617213;-0.0160455;0.0388834;0.259925;3.84727;0.0474099;0.0518445;3.84665;0.259967;101.01;146.01;-0.0157424;-0.0160825;0.0107284;-0.00893828;0.0616637;0.0180924;0.0710043;0;0.0494456;3.3475
584000;585;27.4268;1.62131;0.0628279;-2.80025;27.278;-0.548028;-0.406252;1.58669;-0.935701;-0.764916;-1.13135;-0.203532;1.38075;-6.13984;-0.0125067;0.00100839;0.0570445;0.0570592;-0.0125213;0.0347902;0.219244;4.56113;0.0428277;0.046387;4.55697;0.219444;101.129;146.129;-0.0240658;-0.0125451;0.011472;-0.00876684;0.0569828;0.0124014;0.017083;0;0.0308431;-1.17095;-2.73074;-1.15321;3.18716;-6.78089;-0.015795;0.000525452;0.0621607;0.0621642;-0.0157985;0.0389814;0.254099;3.93547;0.0475912;0.0519751;3.93482;0.254141;101.378;146.378;-0.0177339;-0.01584;0.0112703;-0.00943086;0.062101;0.0155468;0.0706279;0;0.051379;3.34754
585000;586;27.4383;1.63278;0.0632725;-2.80212;27.2894;-0.546366;-0.408116;1.59806;-0.934039;-0.766128;-1.1304;-0.204677;1.38082;-6.1396;-0.0120897;0.0008262;0.0579406;0.0579504;-0.0120994;0.0350249;0.208656;4.79258;0.0432348;0.0466998;4.78952;0.208789;101.005;146.005;-0.0250067;-0.0121301;0.0113245;-0.00897724;0.0578803;0.0182902;0.0163338;0;0.0297281;-1.17249;-2.73769;-1.15636;3.19482;-6.78404;-0.0158653;0.000312499;0.0627121;0.0627133;-0.0158666;0.0392899;0.252987;3.95278;0.0479803;0.0523866;3.95254;0.253002;101.78;146.78;-0.0178111;-0.0159159;0.0114291;-0.00998216;0.0626507;0.0140149;0.0705174;0;0.0462727;3.34803
586000;587;27.4479;1.64241;0.0636458;-2.80215;27.2989;-0.553713;-0.40815;1.6076;-0.941385;-0.765693;-1.12574;-0.207358;1.37716;-6.14332;-0.011926;0.00145367;0.0575982;0.0576286;-0.0119564;0.0347925;0.207056;4.82962;0.0429627;0.04639;4.81988;0.207474;99.9859;144.986;-0.0182875;-0.0119561;0.0114108;-0.00784902;0.0575376;0.00159393;0.0183661;0;0.0311059;-1.17292;-2.74298;-1.16051;3.201;-6.78818;-0.0160878;0.000359495;0.0630473;0.0630489;-0.0160894;0.0395692;0.25517;3.91895;0.0482975;0.0527589;3.91866;0.255189;101.881;146.881;-0.0167898;-0.0161394;0.0116476;-0.0100884;0.0629835;0.0185779;0.066452;0;0.0441745;3.3494
587000;588;27.4592;1.65366;0.0640818;-2.80338;27.3102;-0.54794;-0.409373;1.6189;-0.935613;-0.764869;-1.12453;-0.20332;1.37511;-6.13787;-0.0122026;0.00118154;0.0579228;0.0579427;-0.0122225;0.0350826;0.210671;4.74674;0.0432818;0.0467768;4.74064;0.210942;100.444;145.444;-0.022676;-0.0122371;0.011377;-0.00833824;0.0578623;0.0140487;0.0182554;0;0.0334847;-1.17304;-2.74984;-1.15758;3.20588;-6.78526;-0.0165307;-6.90077e-05;0.0631666;0.0631667;-0.0165307;0.0398487;0.2617;3.82118;0.0485683;0.0531316;3.82117;0.2617;101.883;146.883;-0.0155191;-0.016583;0.0108205;-0.0101422;0.0631116;0.0140372;0.0698303;0;0.0474853;3.35055
588000;589;27.4669;1.66142;0.0643822;-2.80336;27.3179;-0.554394;-0.409355;1.62657;-0.942066;-0.764087;-1.12348;-0.208281;1.37456;-6.14283;-0.0121254;0.00122552;0.0583024;0.0583237;-0.0121467;0.0352352;0.207974;4.80829;0.0435004;0.0469803;4.80161;0.208264;100.334;145.334;-0.0229357;-0.0121596;0.0114479;-0.00831668;0.0582412;0.0135908;0.01888;0;0.0350055;-1.173;-2.75801;-1.16419;3.21526;-6.79186;-0.0165269;-0.000121288;0.0636977;0.0636978;-0.0165271;0.0401125;0.259458;3.85419;0.048914;0.0534833;3.85416;0.25946;101.879;146.879;-0.0141396;-0.0165805;0.0108558;-0.0102704;0.0636423;0.0140568;0.0728722;0;0.0483652;3.35196
589000;590;27.4761;1.67055;0.0647362;-2.80409;27.327;-0.553065;-0.410084;1.63571;-0.940738;-0.76417;-1.12136;-0.207544;1.37277;-6.1435;-0.0121991;0.00191683;0.058248;0.0583002;-0.0122512;0.0352757;0.209433;4.7748;0.043529;0.0470342;4.75874;0.21014;99.5999;144.6;-0.0209838;-0.0122252;0.0119366;-0.00743609;0.0581825;0.00401875;0.0205188;0;0.031633;-1.17397;-2.76527;-1.16461;3.222;-6.79229;-0.0169407;0.000221886;0.0637582;0.0637588;-0.0169414;0.0403501;0.265703;3.7636;0.0491364;0.0538001;3.7635;0.26571;101.162;146.162;-0.0142253;-0.0169856;0.0106288;-0.00939553;0.0637051;0.0156814;0.0737278;0;0.0396238;3.35195
590000;591;27.4829;1.67739;0.0650012;-2.80557;27.3337;-0.552949;-0.411569;1.64243;-0.940622;-0.765251;-1.12254;-0.202026;1.37351;-6.13657;-0.0103486;0.00456898;0.0540964;0.0544187;-0.010671;0.0325448;0.1913;5.22739;0.0403097;0.0433931;5.0997;0.19609;95.0321;140.032;-0.00819655;-0.0103413;0.0121295;-0.00252948;0.0540365;-0.00813535;0.0263111;0;0.0476806;-1.17471;-2.77209;-1.1649;3.22822;-6.79257;-0.0166282;0.000296839;0.0638412;0.0638423;-0.0166293;0.0402358;0.260462;3.83933;0.0490534;0.0536478;3.83914;0.260475;101.061;146.061;-0.0146104;-0.0166727;0.010743;-0.00935921;0.063787;0.0166398;0.0728848;0;0.0410034;3.35195
591000;592;27.491;1.68552;0.0653164;-2.80555;27.342;-0.551614;-0.411552;1.65064;-0.939287;-0.764675;-1.12278;-0.200378;1.37314;-6.13493;-0.0104382;0.00454255;0.05445;0.0547665;-0.0107547;0.0327606;0.191703;5.2164;0.0405738;0.0436808;5.09234;0.196374;94.9475;139.947;-0.00829539;-0.0104309;0.0120302;-0.00248453;0.0543912;-0.00774865;0.0250828;0;0.0570458;-1.17491;-2.78206;-1.16343;3.23633;-6.79111;-0.0166444;0.000682543;0.0641943;0.0642001;-0.0166501;0.0404251;0.259281;3.85682;0.0492965;0.0539002;3.85583;0.259348;100.615;145.615;-0.0162981;-0.0166842;0.011027;-0.00887619;0.0641374;0.0165226;0.074681;0;0.0565959;3.35282
592000;593;27.5014;1.69585;0.0657167;-2.80583;27.3523;-0.551109;-0.41183;1.66101;-0.938782;-0.763645;-1.11865;-0.204753;1.36984;-6.1393;-0.0114598;0.00309123;0.0576214;0.0577595;-0.0115978;0.0346787;0.198881;5.02814;0.0428981;0.0462382;4.98019;0.200795;97.5771;142.577;-0.016795;-0.0114694;0.0121198;-0.00534782;0.0575565;-0.00101383;0.00809947;0;0.0382945;-1.17519;-2.78776;-1.16781;3.24291;-6.79549;-0.016532;0.000607548;0.0645961;0.0646006;-0.0165366;0.0405686;0.255929;3.90733;0.0495086;0.0540915;3.90653;0.255982;100.631;145.631;-0.0172431;-0.0165732;0.0110274;-0.00901833;0.0645392;0.01566;0.0734225;0;0.0506234;3.3535
593000;594;27.5109;1.70535;0.0660845;-2.80798;27.3616;-0.552345;-0.413974;1.67031;-0.940018;-0.764263;-1.11819;-0.205114;1.36986;-6.13833;-0.0127212;0.00155112;0.0592076;0.0592411;-0.0127546;0.0359978;0.214857;4.65427;0.044361;0.0479971;4.64469;0.2153;99.833;144.833;-0.0210112;-0.0127508;0.0115852;-0.00780166;0.0591454;0.0102042;0.02075;0;0.0400846;-1.17655;-2.79644;-1.16672;3.25047;-6.7944;-0.0167163;0.000297187;0.065295;0.0652961;-0.0167174;0.0410067;0.256012;3.90607;0.0500428;0.0546756;3.90588;0.256024;101.109;146.109;-0.0165917;-0.0167639;0.0111084;-0.0096818;0.0652371;0.0148777;0.074914;0;0.0538333;3.3538
594000;595;27.5187;1.7132;0.066389;-2.80913;27.3691;-0.565174;-0.415124;1.67783;-0.952846;-0.764459;-1.11524;-0.209281;1.3682;-6.14383;-0.0124807;0.00152278;0.0599095;0.0599416;-0.0125127;0.0362271;0.208325;4.80019;0.0447193;0.0483028;4.79046;0.208748;99.815;144.815;-0.0221557;-0.0125117;0.0117178;-0.00797607;0.0598459;0.0114704;0.0173461;0;0.0321348;-1.17857;-2.80289;-1.17457;3.25958;-6.80225;-0.0170432;0.000105314;0.0654308;0.0654309;-0.0170433;0.0412371;0.260476;3.83912;0.0502741;0.0549828;3.8391;0.260478;101.39;146.39;-0.0156066;-0.0170938;0.0110318;-0.00997538;0.0653737;0.0142201;0.0742345;0;0.0465593;3.355
595000;596;27.5273;1.72179;0.0667218;-2.80945;27.3777;-0.569485;-0.415443;1.68634;-0.957158;-0.764264;-1.1135;-0.205839;1.36615;-6.14039;-0.0120803;0.00243382;0.0596353;0.0597178;-0.0121628;0.0359403;0.20257;4.93657;0.0444247;0.0479204;4.90987;0.203672;98.4744;143.474;-0.0191232;-0.0120988;0.0120371;-0.00651972;0.0595697;0.00547857;0.0150178;0;0.0287011;-1.17875;-2.80916;-1.17534;3.26531;-6.80301;-0.0173991;-5.11911e-05;0.0658469;0.065847;-0.0173991;0.0416231;0.264236;3.7845;0.0507028;0.0554974;3.7845;0.264236;101.44;146.44;-0.0143308;-0.0174508;0.0108309;-0.0100834;0.0657919;0.0134408;0.0723893;0;0.0433708;3.35645
596000;597;27.5379;1.73233;0.0671303;-2.81088;27.3881;-0.567655;-0.41688;1.69683;-0.955328;-0.764027;-1.11001;-0.21232;1.36416;-6.14617;-0.0124039;0.00194488;0.0606238;0.0606756;-0.0124557;0.0365656;0.204605;4.88747;0.0451783;0.0487542;4.87131;0.205283;98.8096;143.81;-0.0207986;-0.0124272;0.0116078;-0.00705291;0.0605621;0.00116598;0.00373971;0;0.0302485;-1.17908;-2.81558;-1.18101;3.27299;-6.80869;-0.0174221;7.73895e-05;0.0661267;0.0661268;-0.0174222;0.0417745;0.263466;3.79556;0.0508958;0.0556993;3.79555;0.263466;101.245;146.245;-0.0141273;-0.017472;0.010905;-0.00990171;0.0660709;0.0155902;0.0748308;0;0.0412415;3.35768
597000;598;27.5459;1.74042;0.0674435;-2.81077;27.3963;-0.56733;-0.416768;1.70497;-0.955002;-0.764185;-1.10887;-0.213537;1.36351;-6.14739;-0.0122636;0.00201234;0.0610798;0.061135;-0.0123187;0.0367269;0.200779;4.98059;0.0454232;0.0489692;4.96276;0.201501;98.6449;143.645;-0.020958;-0.0122862;0.0116762;-0.00698372;0.0610175;0.00664711;0.0111555;0;0.0289303;-1.17963;-2.82405;-1.18304;3.28121;-6.81071;-0.0173562;0.000346516;0.0662865;0.0662879;-0.0173576;0.0418228;0.261836;3.81918;0.0509727;0.0557637;3.81895;0.261852;100.424;145.424;-0.0147501;-0.0173979;0.0105481;-0.00905488;0.0662343;0.0175141;0.0739304;0;0.0435848;3.35661
598000;599;27.5562;1.7507;0.067842;-2.81183;27.4066;-0.560886;-0.417828;1.71534;-0.948559;-0.764072;-1.10801;-0.211185;1.36238;-6.14471;-0.0128856;0.00181748;0.0606549;0.0606997;-0.0129304;0.0368151;0.212441;4.7072;0.0453947;0.0490868;4.69433;0.213023;99.1734;144.173;-0.0220893;-0.0129111;0.0116493;-0.00733278;0.0605924;0.00312622;0.00584454;0;0.0314843;-1.18067;-2.83303;-1.18142;3.28874;-6.8091;-0.0174477;0.000782315;0.0666504;0.0666577;-0.0174549;0.0420563;0.261779;3.82002;0.0512572;0.0560751;3.81885;0.261859;100.079;145.079;-0.0159266;-0.0174852;0.0109917;-0.00862218;0.0665941;0.0193285;0.0747813;0;0.0492561;3.35936
599000;600;27.5661;1.76053;0.0682231;-2.81386;27.4163;-0.562239;-0.419862;1.72499;-0.949912;-0.7639;-1.10573;-0.210522;1.36033;-6.1452;-0.013375;0.00169915;0.061513;0.0615515;-0.0134135;0.0374825;0.217434;4.5991;0.0461598;0.0499767;4.58876;0.217924;99.3086;144.309;-0.0253471;-0.0134023;0.0116351;-0.00753594;0.0614506;0.00981449;0.00610236;0;0.0326043;-1.18194;-2.84063;-1.18318;3.29637;-6.81086;-0.0171196;0.000609123;0.0665642;0.0665687;-0.017124;0.0418464;0.257189;3.88819;0.0510535;0.0557951;3.88744;0.257239;100.161;145.161;-0.0172244;-0.0171589;0.0108321;-0.00881176;0.0665094;0.0168589;0.0747674;0;0.049317;3.35924
600000;601;27.5733;1.76776;0.0685032;-2.81489;27.4233;-0.568464;-0.420887;1.73202;-0.956136;-0.763561;-1.10542;-0.210849;1.35994;-6.14553;-0.0131199;0.00217507;0.0618642;0.0619272;-0.0131829;0.0375551;0.212076;4.71529;0.0463089;0.0500734;4.69753;0.212878;98.5809;143.581;-0.0262693;-0.0131411;0.0118583;-0.00682459;0.0618002;0.0116819;0.00207812;0;0.0323864;-1.18235;-2.84951;-1.18462;3.3047;-6.8123;-0.0175224;0.000268374;0.0671163;0.0671171;-0.0175232;0.0423202;0.261075;3.83032;0.0515876;0.0564269;3.83018;0.261084;100.601;145.601;-0.0164891;-0.0175671;0.0107468;-0.009379;0.0670622;0.0146216;0.0768295;0;0.0494653;3.36063
601000;602;27.585;1.77952;0.068959;-2.817;27.4348;-0.574263;-0.422999;1.74351;-0.961936;-0.763728;-1.10268;-0.213228;1.35818;-6.14645;-0.0130853;0.00173805;0.0619484;0.0619886;-0.0131256;0.0375571;0.21123;4.73419;0.046325;0.0500761;4.72274;0.211742;98.8895;143.89;-0.0243035;-0.0131105;0.0114195;-0.00725948;0.0618884;0.00785408;0.00103322;0;0.0315984;-1.18355;-2.85552;-1.18907;3.3119;-6.81675;-0.0175721;-4.15169e-05;0.06743;0.06743;-0.0175722;0.0425011;0.260598;3.83732;0.0518137;0.0566681;3.83732;0.260599;101.054;146.054;-0.0151703;-0.0176229;0.0107603;-0.00998314;0.0673758;0.0137964;0.0727615;0;0.0516149;3.36053
602000;603;27.5955;1.78996;0.0693633;-2.81766;27.4452;-0.574754;-0.423657;1.75392;-0.962427;-0.763987;-1.09926;-0.214242;1.35571;-6.14925;-0.0130045;0.0023613;0.0623157;0.0623897;-0.0130784;0.0377341;0.208687;4.79187;0.0465688;0.0503121;4.77043;0.209625;98.165;143.165;-0.0227582;-0.0130229;0.0118672;-0.00647083;0.0622521;0.00628884;0.00649165;0;0.0342723;-1.18459;-2.8622;-1.19148;3.31889;-6.81916;-0.0179013;-0.000106674;0.0677601;0.0677603;-0.0179015;0.0428309;0.264187;3.7852;0.0521746;0.0571078;3.78518;0.264188;101.176;146.176;-0.0147193;-0.0179535;0.0107843;-0.0101239;0.0677057;0.012938;0.075038;0;0.0475796;3.35942
603000;604;27.6035;1.79803;0.069676;-2.81884;27.4532;-0.577073;-0.424842;1.76187;-0.964745;-0.764458;-1.09878;-0.211129;1.3551;-6.14466;-0.0129309;0.00219633;0.0621783;0.0622425;-0.0129951;0.0376188;0.207965;4.80851;0.0464368;0.0501584;4.7897;0.208781;98.308;143.308;-0.0217538;-0.0129508;0.0117122;-0.00664684;0.062116;0.0114072;0.00679577;0;0.0333332;-1.18556;-2.86934;-1.19088;3.32519;-6.81856;-0.0179761;-6.15516e-05;0.0686107;0.0686108;-0.0179762;0.0432935;0.262002;3.81677;0.0527634;0.0577246;3.81676;0.262002;100.866;145.866;-0.0153774;-0.0180265;0.0106987;-0.0099499;0.0685572;0.0192358;0.077766;0;0.0469809;3.35922
604000;605;27.6128;1.80723;0.0700326;-2.81871;27.4625;-0.574762;-0.42471;1.77118;-0.962434;-0.763215;-1.09554;-0.216907;1.35269;-6.15191;-0.0130711;0.00215582;0.061883;0.0619449;-0.013133;0.037539;0.211222;4.73435;0.0462994;0.050052;4.71674;0.212011;98.3924;143.392;-0.0216336;-0.0130912;0.0116435;-0.0066623;0.0618213;0.00733345;0.00599669;0;0.0370358;-1.18527;-2.87563;-1.19759;3.33291;-6.82527;-0.0182609;0.000119915;0.0688665;0.0688666;-0.0182611;0.0435638;0.265164;3.77125;0.0530562;0.0580851;3.77123;0.265166;100.441;145.441;-0.0152425;-0.0183064;0.010543;-0.00945356;0.0688145;0.0188868;0.0801085;0;0.0422205;3.35926
605000;606;27.6199;1.81443;0.0703115;-2.81991;27.4696;-0.577467;-0.425905;1.77824;-0.96514;-0.762754;-1.09334;-0.218037;1.35083;-6.1531;-0.0130306;0.00282043;0.0616764;0.0617827;-0.0131369;0.0374598;0.211273;4.7332;0.0461944;0.0499464;4.70299;0.212631;97.1205;142.12;-0.018983;-0.0130405;0.0115021;-0.00525049;0.0616179;0.00184119;0.00411505;0;0.0412431;-1.18597;-2.88247;-1.20171;3.34055;-6.82939;-0.018033;0.000566039;0.0688441;0.0688478;-0.0180367;0.0434423;0.26194;3.81767;0.052945;0.057923;3.8171;0.261979;99.6796;144.68;-0.0158941;-0.0180703;0.0105232;-0.00858185;0.0687925;0.0177549;0.0780217;0;0.0460926;3.36074
606000;607;27.628;1.82252;0.0706252;-2.82106;27.4777;-0.572783;-0.427057;1.78636;-0.960456;-0.763143;-1.09125;-0.214385;1.34877;-6.15034;-0.0137201;0.00179341;0.0627021;0.0627442;-0.0137622;0.0382532;0.218815;4.57008;0.047092;0.0510043;4.55917;0.219338;99.001;144.001;-0.0224012;-0.0137459;0.0116396;-0.00734487;0.0626399;0.0102033;0.0107482;0;0.0312369;-1.18765;-2.89088;-1.19726;3.34681;-6.82494;-0.0177668;0.000752985;0.0687245;0.0687311;-0.0177734;0.0432522;0.258522;3.86814;0.0527528;0.0576696;3.86708;0.258593;99.5999;144.6;-0.0164245;-0.017803;0.0107874;-0.00846945;0.0686703;0.0167822;0.0789656;0;0.0513098;3.36078
607000;608;27.6364;1.83088;0.0709493;-2.82193;27.4859;-0.577847;-0.427929;1.79457;-0.96552;-0.763331;-1.09078;-0.210289;1.34785;-6.1466;-0.0134792;0.00172465;0.0629503;0.0629892;-0.0135181;0.0382536;0.214124;4.67018;0.0471493;0.0510048;4.65962;0.21461;98.6727;143.673;-0.0248772;-0.0135035;0.0112732;-0.00713743;0.0628919;0.0139095;0.00660165;0;0.0315104;-1.1884;-2.8988;-1.19631;3.35358;-6.82399;-0.0179902;0.000654685;0.0689012;0.0689061;-0.0179952;0.0434506;0.261102;3.82992;0.0529648;0.0579342;3.82914;0.261155;99.9293;144.929;-0.0171208;-0.0180296;0.0109669;-0.0088193;0.0688451;0.0151;0.0797973;0;0.0506358;3.36216
608000;609;27.647;1.84146;0.0713592;-2.82251;27.4964;-0.581081;-0.428507;1.80508;-0.968754;-0.762634;-1.08852;-0.215723;1.34649;-6.15079;-0.0131334;0.00279326;0.0623038;0.0624071;-0.0132367;0.0378219;0.210796;4.74393;0.0466472;0.0504292;4.71472;0.212102;97.2994;142.299;-0.0189975;-0.0131447;0.0117143;-0.00549441;0.0622429;0.000750956;0.00611506;0;0.0428016;-1.188;-2.90474;-1.20415;3.36137;-6.83183;-0.0182191;0.000342806;0.0695975;0.0695988;-0.0182204;0.0439096;0.261778;3.82003;0.0535168;0.0585462;3.81982;0.261792;100.01;145.01;-0.0162191;-0.0182611;0.0106165;-0.00908744;0.0695449;0.013414;0.0768147;0;0.0540263;3.36352
609000;610;27.6574;1.85185;0.0717616;-2.82347;27.5067;-0.582794;-0.42947;1.81539;-0.970467;-0.762584;-1.0856;-0.2187;1.34458;-6.15376;-0.0134506;0.00256288;0.0634279;0.0635133;-0.0135359;0.0385246;0.212061;4.71562;0.0475014;0.0513661;4.6922;0.21312;97.5393;142.539;-0.0208291;-0.0134648;0.0116708;-0.00588674;0.063367;0.00192901;-0.000623999;0;0.0426886;-1.1891;-2.91112;-1.20685;3.36825;-6.83453;-0.0181841;0.000104486;0.0697773;0.0697774;-0.0181843;0.0439808;0.260602;3.83726;0.0536176;0.0586411;3.83724;0.260604;100.871;145.871;-0.0150561;-0.0182359;0.0112093;-0.0100873;0.0697186;0.0148641;0.0775375;0;0.0538405;3.36425
610000;611;27.6663;1.86076;0.0721069;-2.82352;27.5155;-0.588715;-0.429514;1.82421;-0.976387;-0.760111;-1.08153;-0.224478;1.34085;-6.16079;-0.0138696;0.00221986;0.062097;0.0621618;-0.0139344;0.0380481;0.223354;4.4772;0.046783;0.0507308;4.46103;0.224164;98.5445;143.544;-0.0250465;-0.0138896;0.0117776;-0.00665445;0.062034;0.0126549;0.00962499;0;0.034138;-1.18787;-2.91755;-1.21343;3.37573;-6.84111;-0.0185805;-0.000254162;0.0701753;0.0701761;-0.0185812;0.0443786;0.264772;3.77684;0.054053;0.0591715;3.77673;0.26478;100.958;145.958;-0.0146986;-0.0186344;0.0106921;-0.0102926;0.070122;0.015766;0.0764246;0;0.0481602;3.3656
611000;612;27.6756;1.87007;0.0724677;-2.82484;27.5248;-0.587412;-0.430835;1.83347;-0.975084;-0.760745;-1.08146;-0.220742;1.34053;-6.15705;-0.0137768;0.00169253;0.0641018;0.0641385;-0.0138136;0.038976;0.214921;4.65288;0.0480303;0.051968;4.64316;0.215371;98.5391;143.539;-0.0241756;-0.0138012;0.0112246;-0.00714208;0.0640439;0.0128207;0.00490919;0;0.0360568;-1.1897;-2.92677;-1.2108;3.3834;-6.83848;-0.0187499;-0.000368287;0.0707919;0.0707934;-0.0187514;0.0447724;0.264859;3.77559;0.0545315;0.0596965;3.77536;0.264875;100.535;145.535;-0.0146449;-0.0188006;0.0101228;-0.00998209;0.0707441;0.0161868;0.077726;0;0.0456527;3.36648
612000;613;27.6858;1.88026;0.0728628;-2.82453;27.5352;-0.579682;-0.430529;1.84392;-0.967355;-0.761105;-1.08133;-0.213287;1.33942;-6.14821;-0.0136324;0.00181665;0.0630387;0.0630817;-0.0136754;0.0383785;0.216254;4.62419;0.0472769;0.0511714;4.61279;0.216789;98.4271;143.427;-0.0267358;-0.0136545;0.0111652;-0.00685779;0.0629816;0.0220494;0.0112826;0;0.0336761;-1.18998;-2.93581;-1.20473;3.38916;-6.83241;-0.0188228;0.000294106;0.0711818;0.0711828;-0.0188237;0.0450033;0.264432;3.78169;0.0548179;0.0600044;3.78155;0.264442;99.9226;144.923;-0.0158176;-0.0188657;0.0106412;-0.00918362;0.071129;0.0212387;0.0776194;0;0.044705;3.36541
613000;614;27.6929;1.88735;0.0731374;-2.8257;27.5421;-0.585888;-0.431701;1.85079;-0.973561;-0.760878;-1.0781;-0.218333;1.3375;-6.15465;-0.0141819;0.00166861;0.0653316;0.0653666;-0.0142169;0.0397917;0.217075;4.6067;0.0490089;0.0530556;4.59782;0.217494;98.6109;143.611;-0.0266448;-0.0142077;0.0113996;-0.00733625;0.0652719;0.015372;-8.84085e-05;0;0.0366689;-1.19145;-2.94138;-1.21331;3.39756;-6.84099;-0.0188669;0.00061045;0.0711572;0.0711613;-0.018871;0.0450162;0.265144;3.77154;0.0548247;0.0600216;3.77093;0.265187;99.4924;144.492;-0.0160393;-0.0189046;0.010689;-0.00862114;0.071104;0.018834;0.0786393;0;0.0474864;3.36533
614000;615;27.7036;1.89803;0.0735514;-2.8267;27.5529;-0.577851;-0.432699;1.8616;-0.965524;-0.760323;-1.07725;-0.214557;1.33589;-6.15087;-0.0136119;0.00203663;0.0639886;0.064042;-0.0136653;0.0388537;0.212724;4.70093;0.0479039;0.0518049;4.68646;0.213381;98.1521;143.152;-0.0268152;-0.0136324;0.011441;-0.00668203;0.063929;0.0144431;0.00119495;0;0.0363511;-1.19115;-2.95009;-1.21194;3.40451;-6.83962;-0.018664;0.000816089;0.0709027;0.0709101;-0.0186714;0.0447908;0.263234;3.7989;0.0545725;0.059721;3.79778;0.263311;99.2739;144.274;-0.0162339;-0.018699;0.0107882;-0.00832201;0.0708486;0.0166295;0.0800494;0;0.0482231;3.36679
615000;616;27.7113;1.9058;0.0738525;-2.82881;27.5603;-0.587881;-0.434803;1.86898;-0.975554;-0.760519;-1.07328;-0.218606;1.33346;-6.15397;-0.0141666;0.00120713;0.0640903;0.0641089;-0.0141852;0.0391471;0.221041;4.52404;0.048169;0.0521961;4.51941;0.221268;98.8431;143.843;-0.0231026;-0.0141944;0.0106034;-0.00749815;0.0640381;0.00791413;-5.28618e-06;0;0.039423;-1.19289;-2.95582;-1.21557;3.41137;-6.84325;-0.0187283;0.00051269;0.0713022;0.0713051;-0.0187313;0.0450182;0.262661;3.80718;0.0548571;0.0600243;3.80674;0.262692;99.6364;144.636;-0.0167317;-0.0187682;0.0107387;-0.00885394;0.0712485;0.014315;0.079816;0;0.0521685;3.3679
616000;617;27.7217;1.91621;0.0742559;-2.82864;27.5707;-0.591633;-0.434642;1.87939;-0.979306;-0.760763;-1.06814;-0.224533;1.33045;-6.16085;-0.0142717;0.00115388;0.0637533;0.0637703;-0.0142888;0.0390296;0.223859;4.46711;0.0479909;0.0520394;4.46297;0.224066;99.3317;144.332;-0.0272987;-0.0143028;0.010936;-0.0079108;0.0636977;0.0156017;0.00786867;0;0.0375817;-1.19419;-2.96093;-1.22206;3.41857;-6.84974;-0.0186962;0.000327417;0.0720031;0.0720042;-0.0186974;0.0453508;0.259658;3.85122;0.0552991;0.0604677;3.85104;0.25967;100.118;145.118;-0.0152531;-0.0187426;0.0111157;-0.00954814;0.0719455;0.0158858;0.07755;0;0.0568788;3.36517
617000;618;27.7338;1.92832;0.074725;-2.82973;27.5828;-0.591469;-0.43573;1.89145;-0.979142;-0.761304;-1.06902;-0.22335;1.33127;-6.15841;-0.0141378;0.00162881;0.0634452;0.0634794;-0.0141719;0.0388256;0.222834;4.48764;0.0477498;0.0517675;4.47923;0.223253;97.9009;142.901;-0.0242801;-0.014157;0.0102634;-0.00637592;0.0633969;0.00822952;-0.00163188;0;0.0446776;-1.19477;-2.96954;-1.22357;3.42677;-6.85125;-0.0189966;0.000110667;0.0720539;0.072054;-0.0189968;0.0455254;0.263645;3.79298;0.0554635;0.0607005;3.79296;0.263646;100.709;145.709;-0.0158239;-0.0190496;0.0113698;-0.0101922;0.0719936;0.0197343;0.0802874;0;0.0559635;3.36819
618000;619;27.7431;1.93754;0.0750824;-2.82985;27.592;-0.592915;-0.43585;1.90068;-0.980588;-0.760261;-1.06713;-0.22477;1.32939;-6.16108;-0.0142958;0.00148505;0.0646546;0.0646825;-0.0143237;0.0395031;0.22111;4.52264;0.0486049;0.0526708;4.51577;0.221446;98.4466;143.447;-0.0290808;-0.0143202;0.0107544;-0.00709699;0.0646013;0.0192989;0.00408968;0;0.0370088;-1.19533;-2.97787;-1.22449;3.43452;-6.85216;-0.0191193;-0.00016475;0.0724335;0.0724338;-0.0191196;0.0457767;0.263956;3.78851;0.0557659;0.0610356;3.78846;0.263959;100.914;145.914;-0.0148774;-0.019176;0.011191;-0.010551;0.0723751;0.0151411;0.0794029;0;0.0501907;3.36821
619000;620;27.7528;1.94727;0.0754596;-2.83062;27.6016;-0.595511;-0.436617;1.91033;-0.983184;-0.759747;-1.06234;-0.233817;1.32682;-6.1685;-0.0139959;0.00204936;0.064276;0.0643296;-0.0140495;0.0391896;0.217747;4.5925;0.0482562;0.0522528;4.57878;0.218399;97.305;142.305;-0.0227911;-0.014011;0.0105515;-0.00582758;0.0642257;0.00745429;-0.002067;0;0.0463058;-1.19523;-2.98262;-1.23344;3.4418;-6.86112;-0.0192888;-0.000347266;0.0732979;0.0732992;-0.0192901;0.0462946;0.263156;3.80003;0.0564065;0.0617262;3.79984;0.263169;100.573;145.573;-0.0151062;-0.0193437;0.0106356;-0.0103827;0.0732452;0.0187726;0.0808629;0;0.047606;3.36795
620000;621;27.7599;1.95438;0.0757351;-2.83149;27.6088;-0.592018;-0.437487;1.91747;-0.979691;-0.760535;-1.06306;-0.223833;1.32612;-6.1592;-0.014714;0.00138051;0.065992;0.0660156;-0.0147376;0.0403766;0.222967;4.48497;0.0496573;0.0538355;4.47939;0.223245;98.4298;143.43;-0.0271862;-0.0147397;0.0107087;-0.00724152;0.0659391;0.0154509;-0.00226153;0;0.0421344;-1.19703;-2.99241;-1.22444;3.4477;-6.85212;-0.0194692;0.000331406;0.0733639;0.073365;-0.0194704;0.0464177;0.265379;3.7682;0.0565291;0.0618903;3.76803;0.265391;99.7595;144.759;-0.0160006;-0.0195129;0.0108365;-0.00926511;0.0733092;0.0215477;0.0781375;0;0.0630851;3.36879
621000;622;27.7695;1.96396;0.0761063;-2.83195;27.6183;-0.59561;-0.43795;1.92697;-0.983283;-0.759552;-1.05922;-0.233343;1.32413;-6.16656;-0.0140124;0.00175121;0.0657626;0.065801;-0.0140508;0.0399259;0.213075;4.69318;0.049224;0.0532346;4.68308;0.213535;97.3969;142.397;-0.0311861;-0.0140304;0.0103552;-0.00620889;0.0657137;0.0214084;-0.00709591;0;0.0445836;-1.19657;-2.99766;-1.23619;3.45629;-6.86387;-0.0191812;0.000710309;0.0733229;0.0733284;-0.0191867;0.0462575;0.261599;3.82264;0.0563801;0.0616767;3.82184;0.261654;99.1957;144.196;-0.0158749;-0.0192186;0.0108859;-0.0085884;0.073268;0.019725;0.0838111;0;0.0571867;3.36963
622000;623;27.7764;1.97092;0.0763759;-2.8333;27.625;-0.600297;-0.439301;1.93373;-0.98797;-0.75941;-1.05663;-0.230532;1.32148;-6.16375;-0.0150426;0.000417727;0.0668223;0.0668245;-0.0150447;0.0409346;0.225113;4.44222;0.0503199;0.0545794;4.44173;0.225137;99.1769;144.177;-0.0282781;-0.0150778;0.0099093;-0.00834552;0.0667764;0.0172752;-0.00467312;0;0.034534;-1.19756;-3.00348;-1.23702;3.46197;-6.8647;-0.019344;0.000930386;0.0730965;0.0731058;-0.0193534;0.0462296;0.264637;3.77877;0.0563081;0.0616395;3.77742;0.264731;99.2995;144.3;-0.016199;-0.0193808;0.0113045;-0.00855017;0.0730373;0.0146572;0.0814748;0;0.0553913;3.36646
623000;624;27.7881;1.98254;0.0768263;-2.8356;27.6365;-0.601326;-0.441598;1.94516;-0.988999;-0.760678;-1.05379;-0.231229;1.32006;-6.16614;-0.0141184;0.0023423;0.0660588;0.0661272;-0.0141868;0.040157;0.213725;4.67891;0.0494961;0.0535426;4.66118;0.214538;96.9731;141.973;-0.0249845;-0.0141318;0.010971;-0.00563757;0.0660049;0.0149375;0.00249531;0;0.0393881;-1.20012;-3.0109;-1.23846;3.46981;-6.86614;-0.0192782;0.000361963;0.0730175;0.0730189;-0.0192796;0.0461493;0.264022;3.78756;0.0562188;0.0615324;3.78736;0.264036;99.5695;144.57;-0.0155755;-0.0193197;0.0106394;-0.00903146;0.0729648;0.0131076;0.0808716;0;0.0572995;3.373
624000;625;27.797;1.9915;0.0771735;-2.83565;27.6454;-0.606101;-0.441648;1.95406;-0.993774;-0.760606;-1.05498;-0.222923;1.31954;-6.15686;-0.0144554;0.00196843;0.0682633;0.0683101;-0.0145022;0.0414062;0.211759;4.72236;0.0510653;0.0552082;4.71034;0.212299;97.3638;142.364;-0.0305338;-0.014474;0.011016;-0.00637872;0.0682083;0.0303874;0.0122139;0;0.0422506;-1.20023;-3.02027;-1.23447;3.47656;-6.86215;-0.0193151;0.000100826;0.0731012;0.0731013;-0.0193152;0.0462082;0.264224;3.78467;0.0562883;0.061611;3.78465;0.264225;100.608;145.608;-0.0155087;-0.0193684;0.0113993;-0.0102246;0.0730406;0.0157377;0.0814757;0;0.0599474;3.37257
625000;626;27.8098;2.00424;0.0776671;-2.83578;27.6582;-0.602373;-0.441779;1.96693;-0.990045;-0.758264;-1.05107;-0.231613;1.31657;-6.16555;-0.0153382;0.00085032;0.0687597;0.0687683;-0.0153468;0.0420576;0.22307;4.48291;0.0517257;0.0560767;4.48095;0.223167;98.6066;143.607;-0.029293;-0.0153695;0.010345;-0.00789735;0.06871;0.0167149;-0.00784708;0;0.038495;-1.19853;-3.02608;-1.24398;3.48441;-6.87165;-0.0195201;-0.000182498;0.0738979;0.0738982;-0.0195205;0.0467094;0.26415;3.78572;0.0568996;0.0622791;3.78567;0.264154;100.562;145.562;-0.0144941;-0.0195751;0.0109895;-0.0103826;0.0738416;0.0173332;0.0813527;0;0.0589405;3.37218
626000;627;27.8175;2.01202;0.0779687;-2.83664;27.6658;-0.611191;-0.442633;1.97448;-0.998864;-0.757868;-1.04647;-0.236393;1.31352;-6.17094;-0.0144299;0.00200787;0.0679219;0.0679708;-0.0144788;0.0412248;0.212448;4.70704;0.0508322;0.0549664;4.69451;0.213015;97.3691;142.369;-0.0215462;-0.0144481;0.011042;-0.00632977;0.0678667;0.00855694;-0.00163824;0;0.0460456;-1.19971;-3.03102;-1.24711;3.49022;-6.87479;-0.0196016;-0.000306589;0.0743718;0.0743728;-0.0196026;0.0469877;0.263562;3.79417;0.057246;0.0626503;3.79403;0.263572;100.313;145.313;-0.0148818;-0.0196549;0.0105689;-0.0102308;0.0743199;0.0179406;0.081684;0;0.0713652;3.37226
627000;628;27.8269;2.02142;0.078333;-2.83769;27.6753;-0.603506;-0.443687;1.98399;-0.991179;-0.759449;-1.04592;-0.225358;1.31206;-6.16187;-0.0145514;0.00215378;0.0681409;0.068197;-0.0146074;0.0414022;0.213548;4.68278;0.0510355;0.055203;4.66865;0.214195;96.827;141.827;-0.0248753;-0.0145658;0.0107156;-0.00574538;0.0680894;0.0142636;-0.00546927;0;0.044872;-1.20314;-3.04133;-1.23632;3.49653;-6.864;-0.0198271;-0.000199817;0.0752611;0.0752615;-0.0198275;0.0475445;0.263444;3.79588;0.0579259;0.0633926;3.79582;0.263448;99.8428;144.843;-0.0156288;-0.0198761;0.0103399;-0.00980746;0.0752114;0.0213715;0.0811445;0;0.0684345;3.3732
628000;629;27.8368;2.03129;0.0787154;-2.83953;27.6848;-0.61415;-0.44553;1.99349;-1.00182;-0.756903;-1.03842;-0.241006;1.30741;-6.17752;-0.0146491;0.00269609;0.0692528;0.0693393;-0.0147356;0.0420375;0.21153;4.72746;0.0518409;0.0560499;4.70556;0.212514;96.507;141.507;-0.0261273;-0.0146601;0.01146;-0.00538036;0.0691947;0.0136537;-0.00783923;0;0.0498225;-1.20171;-3.0454;-1.25488;3.50617;-6.88255;-0.0199709;0.00046981;0.0754763;0.0754786;-0.0199732;0.0477259;0.264598;3.77932;0.058132;0.0636346;3.779;0.26462;99.1733;144.173;-0.01555;-0.0200108;0.0107117;-0.00886315;0.0754231;0.0247633;0.0815339;0;0.070826;3.37278
629000;630;27.8433;2.03781;0.0789681;-2.83874;27.6914;-0.614839;-0.444738;2.00011;-1.00251;-0.757358;-1.03844;-0.235931;1.30676;-6.17244;-0.0146725;0.00270085;0.0685385;0.068626;-0.01476;0.041693;0.214077;4.67123;0.0513823;0.0555907;4.64945;0.215079;96.298;141.298;-0.0253416;-0.0146818;0.0111316;-0.00507353;0.0684839;0.0160525;-0.0031325;0;0.0412741;-1.202;-3.05256;-1.25453;3.51238;-6.88221;-0.020028;0.000895438;0.0751847;0.0751932;-0.0200364;0.0476148;0.266383;3.75399;0.0579734;0.0634864;3.75283;0.266466;98.2962;143.296;-0.0150738;-0.020058;0.0103547;-0.00772621;0.0751352;0.0177047;0.0843676;0;0.066269;3.37274
630000;631;27.8529;2.04738;0.0793388;-2.84158;27.7009;-0.610378;-0.447578;2.00954;-0.99805;-0.757594;-1.03531;-0.238933;1.30495;-6.17545;-0.0145725;0.00260014;0.0687123;0.0687934;-0.0146536;0.0417235;0.21208;4.71521;0.0514472;0.0556313;4.69465;0.213009;96.3894;141.389;-0.0263771;-0.014583;0.011098;-0.00523565;0.0686578;0.0140089;-0.00404079;0;0.039677;-1.20388;-3.05965;-1.25526;3.51944;-6.88294;-0.019992;0.00082048;0.0752973;0.0753044;-0.0199991;0.0476517;0.265508;3.76637;0.0580296;0.0635356;3.76539;0.265577;98.5344;143.534;-0.0153804;-0.0200245;0.0105279;-0.00802675;0.0752461;0.0152271;0.0813534;0;0.0612897;3.36961
631000;632;27.8637;2.05815;0.079756;-2.84188;27.7115;-0.614903;-0.447877;2.02023;-1.00258;-0.758194;-1.03397;-0.236193;1.30374;-6.17271;-0.0141285;0.00287553;0.0693051;0.0694041;-0.0142275;0.0418158;0.20386;4.90532;0.051669;0.0557544;4.87815;0.204996;96.0835;141.084;-0.026293;-0.014137;0.0114058;-0.00498932;0.0692481;0.0153449;-0.00873857;0;0.0416884;-1.20451;-3.0677;-1.25648;3.52709;-6.88416;-0.0199753;0.000379971;0.0752506;0.0752521;-0.0199768;0.0476144;0.265451;3.76718;0.0579856;0.0634859;3.76697;0.265465;99.2188;144.219;-0.0143422;-0.0200157;0.010568;-0.00890584;0.0751987;0.0121245;0.0863674;0;0.0628387;3.37673
632000;633;27.8758;2.07028;0.0802261;-2.84315;27.7235;-0.619105;-0.449145;2.03221;-1.00678;-0.755872;-1.02951;-0.243304;1.30017;-6.17982;-0.0141409;0.00343213;0.0699498;0.0700897;-0.0142807;0.0421852;0.202157;4.94664;0.0521427;0.0562469;4.90799;0.203749;95.6608;140.661;-0.0249634;-0.014145;0.0119964;-0.00445928;0.0698881;0.011203;-0.00815215;0;0.0407539;-1.20401;-3.07391;-1.26368;3.53489;-6.89136;-0.0200467;4.47329e-05;0.0757089;0.0757089;-0.0200467;0.0478778;0.264787;3.77662;0.058315;0.0638371;3.77662;0.264787;99.5649;144.565;-0.0148482;-0.0200924;0.0104781;-0.00945992;0.0756578;0.0158448;0.0844758;0;0.0640503;3.37634
633000;634;27.8855;2.07996;0.0806015;-2.84351;27.7333;-0.614948;-0.449509;2.042;-1.00262;-0.755243;-1.02926;-0.241325;1.29923;-6.17784;-0.0148303;0.00229192;0.0707068;0.0707682;-0.0148916;0.0428299;0.209743;4.76774;0.0528467;0.0571066;4.75221;0.210428;96.7055;141.706;-0.0264392;-0.014845;0.0111514;-0.00585989;0.0706512;0.0146476;-0.00940087;0;0.0393241;-1.20366;-3.08215;-1.26052;3.54081;-6.8882;-0.0202167;-0.000142691;0.0763142;0.0763144;-0.0202169;0.0482656;0.264913;3.77482;0.0587857;0.0643542;3.77479;0.264916;99.4796;144.48;-0.0140064;-0.0202628;0.0101453;-0.00950797;0.0762664;0.0155878;0.082739;0;0.0631212;3.37504
634000;635;27.8952;2.0897;0.0809788;-2.84508;27.7429;-0.617562;-0.451074;2.05157;-1.00523;-0.756473;-1.02686;-0.236597;1.29718;-6.17311;-0.0148595;0.00244243;0.0712754;0.0713446;-0.0149287;0.0431367;0.208481;4.79661;0.0532416;0.0575156;4.77901;0.209248;96.5499;141.55;-0.0260512;-0.0148731;0.0113157;-0.00571757;0.0712184;0.0158088;-0.0123393;0;0.0407206;-1.20616;-3.08924;-1.25982;3.54759;-6.88749;-0.0203468;-0.00035541;0.0771516;0.0771529;-0.0203481;0.0487505;0.263725;3.79182;0.0593915;0.0650007;3.79164;0.263738;99.5155;144.515;-0.0150156;-0.0203952;0.00996505;-0.00974168;0.0771056;0.019271;0.0820499;0;0.0643011;3.37621
635000;636;27.9037;2.09819;0.0813077;-2.84527;27.7512;-0.624783;-0.451265;2.05993;-1.01246;-0.756765;-1.02488;-0.234858;1.29547;-6.17137;-0.014377;0.00272844;0.0702799;0.0703678;-0.0144648;0.0424163;0.204567;4.88837;0.0524032;0.0565551;4.86475;0.20556;96.1586;141.159;-0.0278796;-0.0143868;0.0113195;-0.00518327;0.0702236;0.0157809;-0.00664085;0;0.0433384;-1.20726;-3.09711;-1.26223;3.55567;-6.88991;-0.0206654;-0.000201419;0.0774439;0.0774443;-0.0206658;0.0490551;0.266843;3.74752;0.0597221;0.0654068;3.74746;0.266847;99.2649;144.265;-0.0159124;-0.0207106;0.00992711;-0.00940765;0.0773982;0.0214596;0.0842815;0;0.0646344;3.3757
636000;637;27.9123;2.10674;0.0816391;-2.84582;27.7598;-0.621874;-0.451816;2.06853;-1.00955;-0.755977;-1.02164;-0.236355;1.29271;-6.17287;-0.0147868;0.00319376;0.070136;0.070256;-0.0149067;0.0425813;0.21083;4.74316;0.0525162;0.0567751;4.71305;0.212177;96.0696;141.07;-0.02724;-0.0147936;0.0119434;-0.00486174;0.0700742;0.0192552;-0.00885444;0;0.0418905;-1.20738;-3.10341;-1.26375;3.56174;-6.89143;-0.0205439;0.000518874;0.077858;0.0778607;-0.0205467;0.0492037;0.263864;3.78983;0.0599416;0.0656049;3.78945;0.26389;98.3654;143.365;-0.0168204;-0.0205786;0.0101737;-0.00825453;0.0778101;0.023728;0.0854042;0;0.0626963;3.37409
637000;638;27.9197;2.11415;0.0819262;-2.84724;27.7671;-0.626022;-0.453236;2.07574;-1.01369;-0.756628;-1.01775;-0.240798;1.29085;-6.17731;-0.0150648;0.00327424;0.0693239;0.0694508;-0.0151916;0.0423212;0.21731;4.60173;0.0521079;0.0564283;4.57165;0.218739;96.384;141.384;-0.0280756;-0.0150721;0.0122689;-0.00501079;0.0692586;0.0208727;-0.00885365;0;0.0433644;-1.20845;-3.10826;-1.27083;3.56884;-6.89851;-0.0206617;0.00073808;0.0780002;0.0780057;-0.0206672;0.0493365;0.264892;3.77512;0.0600895;0.0657819;3.77438;0.264944;97.6761;142.676;-0.0153664;-0.0206896;0.00973337;-0.00743398;0.0779565;0.0203847;0.0844822;0;0.0620849;3.37457
638000;639;27.9299;2.12436;0.0823219;-2.84947;27.777;-0.628909;-0.455463;2.08572;-1.01658;-0.75703;-1.01536;-0.242889;1.28959;-6.17997;-0.0144686;0.00401773;0.0687166;0.0689102;-0.0146622;0.0417862;0.210555;4.74936;0.0515277;0.055715;4.69985;0.212773;95.9188;140.919;-0.0312078;-0.01447;0.0130889;-0.00434765;0.068644;0.0252432;0.00520493;0;0.0518812;-1.2095;-3.11617;-1.27468;3.57746;-6.90236;-0.020764;0.000819361;0.0775811;0.0775879;-0.0207708;0.0491794;0.267642;3.73633;0.0598623;0.0655725;3.73543;0.267707;98.4436;143.444;-0.0166018;-0.0207975;0.0106871;-0.00814787;0.0775284;0.0137102;0.0832734;0;0.0615299;3.37794
639000;640;27.9393;2.13381;0.082688;-2.85037;27.7865;-0.626652;-0.456367;2.09518;-1.01432;-0.75619;-1.01267;-0.241434;1.2867;-6.17795;-0.0148236;0.00313993;0.0669469;0.0670673;-0.014944;0.0410056;0.221423;4.51625;0.0504363;0.0546741;4.48792;0.22282;96.1875;141.187;-0.0260901;-0.0148293;0.0115273;-0.00460483;0.0668892;0.0176426;-0.00428757;0;0.048043;-1.21008;-3.12332;-1.27335;3.58341;-6.90103;-0.0207783;0.000480762;0.0776516;0.0776539;-0.0207806;0.0492173;0.267583;3.73715;0.0599098;0.065623;3.73684;0.267606;99.2089;144.209;-0.0171673;-0.0208205;0.0110369;-0.00911124;0.0775952;0.0142128;0.0822696;0;0.0650438;3.37707
640000;641;27.951;2.14544;0.0831387;-2.85035;27.7982;-0.62775;-0.456351;2.10685;-1.01542;-0.756335;-1.00919;-0.238855;1.28357;-6.182;-0.0145886;0.00419355;0.0699936;0.070201;-0.0147961;0.0424985;0.208428;4.79781;0.0524332;0.0566647;4.74458;0.210767;95.5889;140.589;-0.0307813;-0.0145882;0.0131771;-0.00408012;0.0699207;0.0102377;-0.0115773;0;0.0546786;-1.21087;-3.13024;-1.27291;3.58956;-6.90059;-0.0206291;0.000187431;0.0778844;0.0778848;-0.0206295;0.0492571;0.264868;3.77547;0.0599938;0.0656762;3.77542;0.264871;99.2668;144.267;-0.015548;-0.0206737;0.0106804;-0.00934657;0.0778315;0.0135636;0.0856837;0;0.0638346;3.37706
641000;642;27.962;2.1565;0.0835675;-2.852;27.8089;-0.635789;-0.458001;2.11762;-1.02346;-0.756277;-1.00836;-0.240929;1.28328;-6.17744;-0.0152812;0.00293808;0.0688506;0.0689531;-0.0153836;0.0421684;0.221947;4.50559;0.0518628;0.0562245;4.48223;0.223103;96.4831;141.483;-0.02644;-0.0152901;0.0116805;-0.00511645;0.0687908;0.0199231;-0.00602482;0;0.0519841;-1.21185;-3.1393;-1.27382;3.59811;-6.9015;-0.020776;-0.000287649;0.0791068;0.0791076;-0.0207768;0.0499422;0.262633;3.8076;0.0608579;0.0665896;3.80749;0.26264;98.7854;143.785;-0.0144964;-0.0208188;0.00949301;-0.00916299;0.079065;0.0154863;0.0842357;0;0.0655643;3.38202
642000;643;27.9737;2.16818;0.0840202;-2.85141;27.8208;-0.632421;-0.457408;2.1295;-1.02009;-0.755473;-1.00375;-0.244737;1.2799;-6.18125;-0.0157081;0.00282897;0.068361;0.0684561;-0.0158032;0.0421296;0.229781;4.35197;0.0517163;0.0561729;4.3318;0.230851;96.8371;141.837;-0.027763;-0.0157186;0.0117219;-0.00536435;0.0683005;0.0227046;-0.0091179;0;0.0536889;-1.21242;-3.14563;-1.27781;3.60524;-6.90549;-0.0206859;-0.000460612;0.0796505;0.0796526;-0.020688;0.0501703;0.259708;3.85048;0.0611751;0.0668937;3.85019;0.259728;99.161;144.161;-0.0152843;-0.0207342;0.00977214;-0.00974236;0.0796064;0.0227247;0.0877372;0;0.0708672;3.37686
643000;644;27.984;2.17851;0.0844204;-2.85158;27.8312;-0.629654;-0.457577;2.13994;-1.01733;-0.754826;-0.999238;-0.243562;1.27576;-6.18671;-0.0145885;0.00440113;0.0700223;0.0702506;-0.0148168;0.0425337;0.208341;4.79983;0.0524747;0.0567116;4.74127;0.210914;95.1122;140.112;-0.0276465;-0.014585;0.013007;-0.0035245;0.0699523;0.0069261;-0.0134939;0;0.0630771;-1.2123;-3.15107;-1.28054;3.61092;-6.90822;-0.0210884;-0.000183429;0.080339;0.0803394;-0.0210887;0.0507141;0.262493;3.80963;0.0618004;0.0676187;3.80959;0.262496;98.657;143.657;-0.0154418;-0.0211309;0.00968077;-0.00912151;0.0802957;0.0229128;0.085401;0;0.0625072;3.37711
644000;645;27.9904;2.18489;0.0846677;-2.85307;27.8374;-0.633175;-0.459069;2.14612;-1.02085;-0.754916;-0.999232;-0.241879;1.27549;-6.17839;-0.0154895;0.00297846;0.0684553;0.0685609;-0.0155951;0.042078;0.226272;4.41946;0.0516958;0.056104;4.39632;0.227463;96.1398;141.14;-0.0276826;-0.0154961;0.0112828;-0.00467365;0.0683999;0.019646;-0.0018796;0;0.0563433;-1.2134;-3.15954;-1.27894;3.61811;-6.90662;-0.0211704;0.000226239;0.0804748;0.0804753;-0.0211709;0.0508231;0.263069;3.80129;0.0619254;0.0677641;3.80122;0.263073;97.7894;142.789;-0.0153959;-0.0212032;0.00932354;-0.00801525;0.0804346;0.0191706;0.0842008;0;0.0622245;3.37799
645000;646;27.9997;2.19415;0.0850265;-2.85458;27.8467;-0.630356;-0.460573;2.15534;-1.01803;-0.755112;-0.995685;-0.243794;1.27319;-6.18031;-0.0154203;0.00342399;0.0697772;0.0699146;-0.0155577;0.0427361;0.220993;4.52502;0.0525687;0.0569815;4.4939;0.222524;95.6759;140.676;-0.0270441;-0.0154234;0.0117412;-0.00423107;0.0697183;0.0215533;-0.0153849;0;0.0594027;-1.21477;-3.16546;-1.28175;3.62473;-6.90943;-0.0210855;0.000212708;0.0803415;0.0803419;-0.0210859;0.0507139;0.262449;3.81027;0.0618009;0.0676186;3.81021;0.262453;97.6417;142.642;-0.0159957;-0.021117;0.0091138;-0.00785273;0.0803031;0.0184186;0.0830726;0;0.0664493;3.37717
646000;647;28.0093;2.20376;0.0853986;-2.85462;27.8563;-0.628278;-0.460613;2.16504;-1.01595;-0.754019;-0.991952;-0.245248;1.26991;-6.18853;-0.0153512;0.00351653;0.0705663;0.07071;-0.0154949;0.0431024;0.217543;4.5968;0.0530645;0.0574699;4.56344;0.219133;95.7733;140.773;-0.0315585;-0.0153548;0.012128;-0.00440403;0.0705034;0.0144608;0.0018276;0;0.057621;-1.21431;-3.17306;-1.2834;3.6318;-6.91108;-0.021104;0.000416296;0.0803967;0.0803984;-0.0211057;0.050752;0.262498;3.80956;0.0618465;0.0676694;3.80933;0.262513;97.983;142.983;-0.0166042;-0.0211378;0.00987719;-0.00815581;0.0803516;0.0185927;0.0887954;0;0.0666319;3.37725
647000;648;28.0168;2.21123;0.0856884;-2.85586;27.8636;-0.636612;-0.461855;2.17224;-1.02428;-0.753698;-0.987945;-0.248131;1.26715;-6.19141;-0.0153605;0.0034434;0.0697091;0.0698482;-0.0154997;0.042674;0.220352;4.53819;0.0525003;0.0568986;4.50643;0.221905;95.9451;140.945;-0.0316534;-0.0153648;0.0120744;-0.00450138;0.0696465;0.0180985;0.00111224;0;0.0555087;-1.21467;-3.17828;-1.28699;3.63775;-6.91467;-0.0211734;0.000261152;0.0809591;0.0809598;-0.0211741;0.0510669;0.261532;3.82362;0.0622435;0.0680892;3.82353;0.261538;98.4149;143.415;-0.0170405;-0.0212126;0.0102301;-0.00876596;0.0809107;0.0136207;0.0843853;0;0.0683702;3.37947
648000;649;28.0306;2.2251;0.0862256;-2.85653;27.8773;-0.640871;-0.462531;2.18601;-1.02854;-0.756031;-0.985096;-0.252782;1.26724;-6.19606;-0.0154455;0.00397175;0.0696236;0.0698086;-0.0156305;0.0427196;0.221843;4.5077;0.0525302;0.0569594;4.46618;0.223905;95.8136;140.814;-0.0325371;-0.0154463;0.0128203;-0.00417327;0.0695541;0.014993;0.00315825;0;0.0568562;-1.21835;-3.18935;-1.29191;3.65039;-6.92397;-0.0208505;0.000532378;0.0796839;0.0796867;-0.0208533;0.05027;0.261665;3.82168;0.0612701;0.0670267;3.8213;0.261691;96.6837;141.684;-0.0111618;-0.0208729;0.00844319;-0.00664184;0.079651;0.0117298;0.0897624;0;0.0676917;3.38061
649000;650;28.0386;2.23312;0.0865367;-2.85663;27.8855;-0.637355;-0.462625;2.19415;-1.02503;-0.752736;-0.985205;-0.244253;1.26369;-6.18753;-0.015251;0.00322899;0.0712746;0.071395;-0.0153714;0.0433832;0.213976;4.67343;0.0534622;0.0578442;4.64467;0.2153;95.9005;140.901;-0.0312842;-0.0152571;0.0118831;-0.00472635;0.0712136;0.0163031;0.00210177;0;0.0616837;-1.21607;-3.19653;-1.28558;3.65368;-6.91644;-0.0214825;2.99687e-06;0.0812894;0.0812894;-0.0214825;0.0513859;0.264272;3.78398;0.0625948;0.0685146;3.78398;0.264272;97.5636;142.564;-0.0165283;-0.0215145;0.00875557;-0.00791768;0.0812539;0.0159604;0.0861959;0;0.0670398;3.37544
650000;651;28.0486;2.24304;0.0869211;-2.85794;27.8951;-0.648051;-0.463937;2.20375;-1.03572;-0.752628;-0.983019;-0.2388;1.26087;-6.17531;-0.0152384;0.00277457;0.0726066;0.0726941;-0.0153259;0.04401;0.209876;4.76472;0.0542972;0.05868;4.74322;0.210827;95.8055;140.806;-0.0276194;-0.0152468;0.0111573;-0.00492182;0.0725521;0.0185836;-0.0148747;0;0.0550805;-1.21669;-3.20036;-1.28637;3.65751;-6.91404;-0.0214733;-0.000395941;0.0826567;0.0826582;-0.0214748;0.0520665;0.259789;3.84927;0.0634862;0.069422;3.84907;0.259803;97.7834;142.783;-0.0141072;-0.0215102;0.0085699;-0.00849942;0.0826228;0.016995;0.0863325;0;0.0695997;3.37709
651000;652;28.0596;2.25407;0.0873485;-2.85871;27.9061;-0.64495;-0.46471;2.21483;-1.03262;-0.751994;-0.977916;-0.248789;1.25846;-6.1853;-0.0154128;0.00309884;0.0734263;0.0735342;-0.0155207;0.0445275;0.209908;4.76399;0.0549322;0.05937;4.73781;0.211068;95.5005;140.5;-0.0299319;-0.0154184;0.0114456;-0.00455731;0.0733697;0.0245315;-0.0234979;0;0.0557078;-1.21671;-3.20656;-1.29511;3.66602;-6.92279;-0.0217876;-0.000426423;0.0831691;0.0831709;-0.0217893;0.0524801;0.261967;3.81727;0.0639597;0.0699734;3.81705;0.261982;97.7174;142.717;-0.0146579;-0.0218241;0.00847175;-0.00846235;0.0831361;0.0211684;0.0872217;0;0.0679834;3.38164
652000;653;28.067;2.26143;0.0876335;-2.85869;27.9136;-0.644516;-0.464686;2.22224;-1.03219;-0.751604;-0.976377;-0.250387;1.25734;-6.1869;-0.0157131;0.00269107;0.0732193;0.0733007;-0.0157944;0.0445476;0.214603;4.65977;0.0548946;0.0593967;4.64092;0.215475;95.9047;140.905;-0.0277302;-0.0157223;0.0111262;-0.00504521;0.073165;0.0176784;-0.014759;0;0.0535774;-1.21731;-3.21453;-1.29679;3.67379;-6.92447;-0.0217624;-4.28934e-05;0.0831116;0.0831116;-0.0217624;0.052437;0.261846;3.81904;0.0639091;0.069916;3.81904;0.261846;97.0153;142.015;-0.0142394;-0.0217913;0.0082387;-0.0075226;0.0830802;0.0163769;0.0859634;0;0.0694082;3.37599
653000;654;28.0769;2.27134;0.0880176;-2.86009;27.9234;-0.642484;-0.466092;2.23211;-1.03016;-0.752075;-0.971756;-0.251633;1.25429;-6.18815;-0.0152249;0.00334059;0.072774;0.0729006;-0.0153516;0.0441261;0.209208;4.77992;0.0544439;0.0588348;4.74874;0.210582;95.1649;140.165;-0.0297382;-0.0152277;0.0114303;-0.00408575;0.0727183;0.0233004;-0.0146056;0;0.0535787;-1.21849;-3.21976;-1.29961;3.67975;-6.92728;-0.0221996;0.000204066;0.0836124;0.0836128;-0.0222;0.0529064;0.265506;3.7664;0.0644296;0.0705419;3.76635;0.265509;96.3683;141.368;-0.0145841;-0.0222226;0.00786624;-0.00670993;0.0835839;0.015071;0.0810417;0;0.0702684;3.37657
654000;655;28.085;2.27951;0.0883342;-2.86192;27.9314;-0.644066;-0.46792;2.2401;-1.03174;-0.751829;-0.968329;-0.251988;1.25156;-6.19464;-0.0147505;0.00346583;0.0721369;0.0722749;-0.0148886;0.0435817;0.20448;4.89046;0.0538368;0.058109;4.85439;0.205999;95.0346;140.035;-0.0294111;-0.0147522;0.0115042;-0.0039213;0.0720807;0.0267595;-0.00838656;0;0.0543074;-1.21936;-3.22682;-1.30024;3.68644;-6.92792;-0.0219502;0.000404654;0.0836429;0.0836445;-0.0219517;0.0527981;0.262427;3.81058;0.0643408;0.0703975;3.81039;0.262441;96.3663;141.366;-0.0149147;-0.0219728;0.00823393;-0.00666174;0.0836117;0.00765674;0.0870602;0;0.0739134;3.38164
655000;656;28.0976;2.29207;0.0888209;-2.86332;27.9439;-0.644278;-0.469318;2.25258;-1.03195;-0.751255;-0.963563;-0.257285;1.24861;-6.19993;-0.0149915;0.00444474;0.0732167;0.0734401;-0.0152149;0.0443275;0.204755;4.88388;0.0547411;0.0591034;4.82685;0.207174;94.6387;139.639;-0.0261088;-0.0149869;0.0128441;-0.00326454;0.0731491;0.015565;-0.0187552;0;0.0531306;-1.2202;-3.23411;-1.30421;3.6945;-6.93189;-0.0219577;4.5687e-05;0.0836173;0.0836174;-0.0219577;0.0527875;0.262597;3.80812;0.0643257;0.0703834;3.80811;0.262597;97.1128;142.113;-0.0147606;-0.0219875;0.00855426;-0.00763391;0.0835836;0.0119905;0.0820735;0;0.0823917;3.37705
656000;657;28.109;2.30348;0.0892629;-2.86478;27.9551;-0.64721;-0.470773;2.26383;-1.03488;-0.750748;-0.962405;-0.254159;1.24677;-6.19681;-0.015056;0.00449061;0.0725909;0.0728204;-0.0152854;0.0440529;0.207408;4.82141;0.0543632;0.0587372;4.76404;0.209906;94.6282;139.628;-0.0262726;-0.0150508;0.0128289;-0.00316656;0.0725236;0.0110039;-0.0145748;0;0.0534194;-1.22043;-3.24278;-1.3035;3.70191;-6.93118;-0.0220891;5.7987e-05;0.0839126;0.0839127;-0.0220891;0.0530009;0.263239;3.79883;0.0645766;0.0706678;3.79883;0.263239;97.0394;142.039;-0.0147173;-0.0221183;0.00850814;-0.00756578;0.0838793;0.00764933;0.0910508;0;0.0791525;3.38564
657000;658;28.1202;2.31467;0.0896968;-2.86529;27.9663;-0.647253;-0.471288;2.27504;-1.03493;-0.750679;-0.958072;-0.25809;1.2442;-6.20074;-0.015416;0.00370313;0.0717485;0.0719056;-0.0155731;0.0437393;0.214862;4.65415;0.0538835;0.0583191;4.6173;0.216577;95.3722;140.372;-0.0258443;-0.0154174;0.0121413;-0.00404896;0.0716862;0.0162716;-0.0128022;0;0.057156;-1.22233;-3.25165;-1.30754;3.71174;-6.9396;-0.0215233;0.000192122;0.0831897;0.08319;-0.0215237;0.0523569;0.258726;3.86509;0.0638554;0.0698091;3.86505;0.258729;95.5193;140.519;-0.0104118;-0.0215406;0.00683874;-0.00581196;0.0831681;0.00532437;0.0950052;0;0.081756;3.37861
658000;659;28.1298;2.32431;0.0900702;-2.86627;27.9758;-0.654369;-0.472262;2.28446;-1.04204;-0.750591;-0.955167;-0.258202;1.24193;-6.20085;-0.0151231;0.00396443;0.0726646;0.0728433;-0.0153018;0.0440725;0.208122;4.80487;0.0543851;0.0587634;4.76045;0.210064;94.9408;139.941;-0.0240616;-0.0151219;0.0122668;-0.0036587;0.0726018;0.00688326;-0.00947872;0;0.0567592;-1.22288;-3.25781;-1.31085;3.71848;-6.94172;-0.0217998;-8.87105e-05;0.0848375;0.0848376;-0.0217998;0.0533187;0.256959;3.89167;0.0650542;0.0710916;3.89166;0.25696;96.3662;141.366;-0.0142332;-0.0218249;0.00758359;-0.00700684;0.084811;0.0124131;0.089766;0;0.0715078;3.38067
659000;660;28.1395;2.33402;0.0904463;-2.86822;27.9854;-0.651601;-0.474216;2.29408;-1.03927;-0.7509;-0.953845;-0.256314;1.24071;-6.19283;-0.0147581;0.00407091;0.0731155;0.0733037;-0.0149463;0.044125;0.201847;4.95425;0.0545382;0.0588333;4.90446;0.203896;94.629;139.629;-0.0253247;-0.0147556;0.0122067;-0.00339894;0.0730538;0.0105723;-0.0139913;0;0.0534667;-1.22379;-3.26484;-1.31201;3.72535;-6.94288;-0.0220152;9.28301e-05;0.0854108;0.0854109;-0.0220153;0.0537131;0.257756;3.87963;0.0655237;0.0716175;3.87962;0.257757;95.7742;140.774;-0.0138325;-0.0220355;0.00718968;-0.00630163;0.085387;0.0160426;0.0891223;0;0.0710548;3.38183
660000;661;28.1492;2.34372;0.0908225;-2.8684;27.9951;-0.651472;-0.474398;2.30383;-1.03915;-0.750408;-0.950441;-0.25605;1.23774;-6.19256;-0.0155902;0.00358322;0.074605;0.0747471;-0.0157323;0.0452397;0.208969;4.78539;0.0558195;0.0603196;4.75119;0.210473;95.4082;140.408;-0.0245281;-0.0155935;0.0123027;-0.00440463;0.0745406;0.0042445;-0.0171324;0;0.0517624;-1.22427;-3.26929;-1.31287;3.72971;-6.94054;-0.0218094;0.000108498;0.0858707;0.0858708;-0.0218095;0.0538402;0.253979;3.93733;0.0657343;0.0717869;3.93731;0.25398;96.4618;141.462;-0.0143769;-0.0218355;0.00817024;-0.00715381;0.08584;0.0161306;0.0888651;0;0.0735335;3.37862
661000;662;28.1576;2.35205;0.0911451;-2.86906;28.0034;-0.652081;-0.475061;2.31212;-1.03975;-0.749966;-0.943977;-0.258959;1.23313;-6.20858;-0.0147653;0.00471423;0.0740061;0.0742558;-0.0150149;0.0446353;0.199514;5.01217;0.0551938;0.0595138;4.94546;0.202206;94.6146;139.615;-0.0288171;-0.0147594;0.0134219;-0.00327398;0.0739326;0.00548245;-0.0199325;0;0.0600672;-1.2246;-3.27614;-1.31605;3.73694;-6.94373;-0.0218928;0.00050412;0.0864627;0.086465;-0.0218951;0.0541801;0.253205;3.94937;0.0661606;0.0722401;3.94905;0.253225;96.3116;141.312;-0.015176;-0.0219169;0.00871027;-0.00688364;0.0864279;0.00875476;0.0886647;0;0.0789292;3.38272
662000;663;28.1685;2.36293;0.091567;-2.87042;28.0143;-0.649539;-0.47642;2.32298;-1.03721;-0.750029;-0.94193;-0.259234;1.23166;-6.20238;-0.0146243;0.00513499;0.0728832;0.0731835;-0.0149246;0.044054;0.200654;4.9837;0.05445;0.0587387;4.90355;0.203934;94.2443;139.244;-0.0280775;-0.0146145;0.0136247;-0.0026626;0.072809;0.00739007;-0.0257212;0;0.0597323;-1.22537;-3.2827;-1.32145;3.74484;-6.94913;-0.0220519;0.000279027;0.0865329;0.0865336;-0.0220527;0.0542931;0.254839;3.92405;0.0662744;0.0723908;3.92395;0.254845;96.7153;141.715;-0.0151091;-0.0220801;0.00884302;-0.00742913;0.0864969;0.00451863;0.0824162;0;0.0810735;3.37919
663000;664;28.1814;2.37591;0.0920698;-2.8713;28.0272;-0.651101;-0.477295;2.3359;-1.03877;-0.749194;-0.936574;-0.263471;1.22796;-6.2131;-0.0148775;0.00490979;0.0741624;0.0744323;-0.0151474;0.0447898;0.200607;4.98487;0.0553657;0.0597198;4.91386;0.203506;94.5913;139.591;-0.0291039;-0.0148704;0.0137354;-0.0031846;0.0740858;0.011788;-0.0216535;0;0.0609369;-1.22589;-3.29084;-1.32159;3.7522;-6.94927;-0.0216504;0.000550229;0.0865726;0.0865754;-0.0216532;0.0541143;0.250084;3.99866;0.0661272;0.0721524;3.99828;0.250108;96.9403;141.94;-0.0143133;-0.0216802;0.00965763;-0.00765011;0.0865299;0.00646264;0.0846696;0;0.0816651;3.38149
664000;665;28.1923;2.38681;0.0924924;-2.87029;28.0382;-0.653811;-0.476288;2.34691;-1.04148;-0.748994;-0.933811;-0.261483;1.2253;-6.21111;-0.0151828;0.00548826;0.0734222;0.0737609;-0.0155214;0.0446411;0.206787;4.83589;0.0550816;0.0595215;4.7522;0.210429;94.6628;139.663;-0.0352319;-0.0151719;0.0146919;-0.00295609;0.0733357;0.0147353;-0.0172564;0;0.0622591;-1.22604;-3.29742;-1.32349;3.7587;-6.95117;-0.0218451;0.000115411;0.0866503;0.0866505;-0.0218452;0.0542478;0.252106;3.96658;0.0662601;0.0723305;3.96656;0.252107;97.4059;142.406;-0.0151333;-0.0218807;0.00951718;-0.00834766;0.0866087;0.00381843;0.0896945;0;0.0838433;3.38061
665000;666;28.2051;2.39958;0.0929871;-2.87052;28.0511;-0.652902;-0.476514;2.35974;-1.04058;-0.749133;-0.930863;-0.262996;1.22347;-6.21262;-0.0153126;0.00459228;0.0756169;0.0758483;-0.015544;0.0456961;0.202503;4.9382;0.0564646;0.0609282;4.87959;0.204935;95.2847;140.285;-0.0316296;-0.0153106;0.0141112;-0.00412224;0.0755341;0.011511;-0.0185895;0;0.0624693;-1.22725;-3.30463;-1.32651;3.76648;-6.95419;-0.0219294;-9.49865e-05;0.0873916;0.0873916;-0.0219295;0.0546606;0.250933;3.98513;0.0667821;0.0728807;3.98512;0.250933;97.6884;142.688;-0.0156224;-0.0219694;0.00963845;-0.00884986;0.0873489;0.00871342;0.0837849;0;0.0837503;3.38008
666000;667;28.2161;2.41063;0.0934151;-2.87044;28.0622;-0.652295;-0.476442;2.37087;-1.03997;-0.748906;-0.928418;-0.262552;1.22137;-6.2057;-0.0156739;0.00427029;0.0757669;0.0759659;-0.0158729;0.0459194;0.206871;4.83394;0.0566807;0.0612259;4.78588;0.208948;94.8319;139.832;-0.0270904;-0.0156715;0.0129403;-0.00366302;0.0756976;0.000323033;-0.0230329;0;0.0611313;-1.22801;-3.31133;-1.3282;3.7732;-6.95588;-0.0221403;8.93394e-05;0.0880488;0.0880489;-0.0221403;0.0550946;0.251454;3.97686;0.0673044;0.0734595;3.97685;0.251455;97.6467;142.647;-0.016269;-0.0221798;0.00996886;-0.00878966;0.0880031;0.0107998;0.0828594;0;0.0800974;3.38048
667000;668;28.2266;2.4211;0.0938208;-2.8719;28.0726;-0.650909;-0.477894;2.38128;-1.03858;-0.749142;-0.92411;-0.263526;1.21846;-6.20667;-0.0159685;0.00445134;0.0744539;0.0746725;-0.0161871;0.0454298;0.214475;4.66255;0.0559632;0.060573;4.61309;0.216775;94.9404;139.94;-0.0305289;-0.0159648;0.0131767;-0.00354004;0.0743823;0.00342002;-0.0261811;0;0.0599466;-1.22976;-3.31914;-1.33097;3.78159;-6.96303;-0.0214304;0.000702219;0.0868933;0.0868978;-0.021435;0.0541664;0.246629;4.05467;0.0662431;0.0722219;4.05402;0.246669;95.5063;140.506;-0.0103439;-0.0214484;0.00811073;-0.00596796;0.0868632;0.0108383;0.0935616;0;0.0829537;3.37846
668000;669;28.2336;2.42808;0.0940914;-2.8728;28.0795;-0.652476;-0.478796;2.38818;-1.04015;-0.749215;-0.921284;-0.265799;1.21686;-6.20894;-0.0160132;0.00508053;0.0740791;0.0743647;-0.0162988;0.0453317;0.216163;4.62613;0.0558084;0.0604423;4.56259;0.219174;94.6781;139.678;-0.0309957;-0.0160047;0.0139095;-0.0030082;0.074001;0.00329504;-0.0304141;0;0.0573369;-1.23011;-3.32502;-1.33283;3.78753;-6.96268;-0.0215893;0.000866032;0.0876789;0.0876858;-0.0215961;0.054641;0.246231;4.06123;0.0668294;0.0728546;4.06026;0.24629;95.6135;140.613;-0.00784556;-0.0216078;0.0086003;-0.00609129;0.0876453;0.00646759;0.0888128;0;0.0841871;3.37948
669000;670;28.2437;2.43814;0.0944813;-2.87306;28.0896;-0.651048;-0.479057;2.3983;-1.03872;-0.748686;-0.917405;-0.269808;1.21448;-6.21464;-0.0165321;0.00459085;0.0743954;0.0746266;-0.0167633;0.0456949;0.22222;4.50005;0.0561788;0.0609266;4.45178;0.224629;95.1812;140.181;-0.0312388;-0.0165282;0.0135903;-0.00364725;0.0743192;-0.00238648;-0.0201151;0;0.0565393;-1.2304;-3.33049;-1.3338;3.79276;-6.96148;-0.0217861;0.000929409;0.0897319;0.0897396;-0.0217939;0.0557667;0.242791;4.11876;0.0682608;0.0743557;4.11766;0.242857;96.6651;141.665;-0.0154714;-0.0218147;0.0103661;-0.00754165;0.089683;0.0148068;0.0875499;0;0.0828413;3.37997
670000;671;28.2527;2.44718;0.0948316;-2.87369;28.0985;-0.655068;-0.479692;2.40723;-1.04274;-0.747872;-0.915875;-0.267381;1.21228;-6.21222;-0.0161425;0.00492616;0.0752307;0.0754955;-0.0164073;0.0459514;0.214573;4.66042;0.0565978;0.0612685;4.60134;0.217328;94.8682;139.868;-0.0330659;-0.0161359;0.0139801;-0.00335875;0.075151;0.00497909;-0.0114154;0;0.0602899;-1.22992;-3.33875;-1.33513;3.80034;-6.96281;-0.0215756;0.000764874;0.0900344;0.0900397;-0.0215808;0.0558103;0.239637;4.17298;0.0683651;0.0744137;4.17221;0.239681;96.2752;141.275;-0.0135497;-0.0216016;0.00961795;-0.00718178;0.0899923;0.00453169;0.0890337;0;0.0883394;3.38278
671000;672;28.2649;2.45936;0.0953037;-2.87382;28.1107;-0.656675;-0.479822;2.41943;-1.04435;-0.747882;-0.910947;-0.268638;1.20885;-6.2184;-0.015748;0.00502351;0.0727658;0.0730499;-0.0160322;0.0445411;0.216421;4.62063;0.054831;0.0593881;4.55645;0.219469;95.0738;140.074;-0.0324806;-0.015741;0.0141658;-0.00336481;0.072684;0.0119704;0.00404958;0;0.0585591;-1.23068;-3.34532;-1.33643;3.8068;-6.9641;-0.0213284;0.000858849;0.0898853;0.0898919;-0.021335;0.0556134;0.237285;4.21435;0.0681618;0.0741513;4.21335;0.237341;96.9908;141.991;-0.0162724;-0.0213612;0.0107881;-0.00805726;0.0898322;0.00741188;0.0834857;0;0.0872542;3.38407
672000;673;28.2778;2.47225;0.0958032;-2.87508;28.1235;-0.659106;-0.481073;2.4322;-1.04678;-0.748556;-0.908779;-0.271477;1.20827;-6.21476;-0.0155548;0.00511916;0.0713121;0.0716127;-0.0158555;0.0437341;0.218124;4.58456;0.0538113;0.0583121;4.51659;0.221406;94.3933;139.393;-0.0320545;-0.0155447;0.0134155;-0.00250477;0.0712403;0.0103428;0.00364859;0;0.0607244;-1.23236;-3.35255;-1.34102;3.81532;-6.96869;-0.0216915;0.00128175;0.0908276;0.0908422;-0.0217061;0.0562741;0.23882;4.18725;0.0689453;0.0750321;4.1851;0.238943;96.98;141.98;-0.0160747;-0.021723;0.0115859;-0.00795966;0.0907668;0.00645604;0.085507;0;0.0875678;3.38143
673000;674;28.2869;2.48142;0.0961584;-2.87661;28.1325;-0.663078;-0.482607;2.44117;-1.05075;-0.747399;-0.902634;-0.27877;1.2046;-6.22854;-0.0168449;0.00497333;0.0718498;0.0721278;-0.0171229;0.0446253;0.234446;4.26538;0.0546937;0.0595004;4.21236;0.237396;95.3197;140.32;-0.0290806;-0.0168379;0.0140188;-0.00332399;0.0717696;0.00315455;0.00300282;0;0.0566234;-1.23263;-3.35844;-1.34603;3.82234;-6.97371;-0.0213743;0.000811867;0.0908245;0.0908303;-0.0213801;0.0561052;0.235336;4.24925;0.0687967;0.074807;4.24835;0.235385;96.7448;141.745;-0.0162959;-0.0214056;0.0104912;-0.0078719;0.0907743;0.0147719;0.0912981;0;0.0879084;3.38131
674000;675;28.2989;2.49343;0.0966237;-2.87612;28.1447;-0.657807;-0.482114;2.45342;-1.04548;-0.747332;-0.898637;-0.279999;1.20185;-6.22976;-0.0173436;0.00480286;0.07176;0.0720181;-0.0176018;0.0448099;0.24169;4.13754;0.0548293;0.0597466;4.09152;0.244408;95.8692;140.869;-0.0268115;-0.0173394;0.0142298;-0.00384071;0.0716763;-0.00388322;0.002967;0;0.0561271;-1.23384;-3.36633;-1.34864;3.83058;-6.9795;-0.021529;0.00119923;0.0907409;0.0907537;-0.0215418;0.0561478;0.237258;4.21482;0.0688163;0.0748637;4.21291;0.237366;96.0876;141.088;-0.0163833;-0.0215524;0.0101997;-0.00687493;0.0906939;0.0119888;0.0852123;0;0.078848;3.38147
675000;676;28.3068;2.50127;0.0969278;-2.87723;28.1525;-0.658487;-0.483225;2.46118;-1.04616;-0.747964;-0.897063;-0.277131;1.20041;-6.2269;-0.0168337;0.00555176;0.0712405;0.0715891;-0.0171823;0.0443857;0.236295;4.23201;0.0543662;0.0591809;4.16644;0.240013;95.1458;140.146;-0.0284509;-0.0168223;0.0147393;-0.00288079;0.0711535;0.00246892;0.00142177;0;0.0559844;-1.23509;-3.37406;-1.34796;3.83754;-6.97882;-0.021811;0.00158089;0.0915737;0.0915957;-0.021833;0.0567143;0.238179;4.19852;0.0694942;0.0756191;4.19529;0.238363;95.7197;140.72;-0.0138765;-0.0218301;0.0104052;-0.0063269;0.0915252;0.00791728;0.0860765;0;0.0777293;3.38162
676000;677;28.317;2.51152;0.0973247;-2.88;28.1625;-0.657828;-0.485996;2.47121;-1.0455;-0.747285;-0.895534;-0.27225;1.19772;-6.22365;-0.017482;0.00594066;0.0760874;0.0764631;-0.0178576;0.0471604;0.229762;4.35233;0.057854;0.0628805;4.28181;0.233546;94.9607;139.961;-0.0243254;-0.0174685;0.0156896;-0.00296101;0.0759894;-0.0194525;-0.0157785;0;0.0581079;-1.2358;-3.38235;-1.34575;3.84428;-6.97559;-0.0213265;0.00181119;0.0916539;0.0916829;-0.0213555;0.0565192;0.232685;4.29766;0.0693454;0.075359;4.29317;0.232928;94.8199;139.82;-0.00849869;-0.0213385;0.00961006;-0.00518062;0.0916131;0.00405754;0.0890781;0;0.09321;3.38291
677000;678;28.3282;2.52264;0.0977559;-2.88162;28.1736;-0.655879;-0.487613;2.48228;-1.04355;-0.746639;-0.889192;-0.282505;1.19497;-6.23391;-0.01721;0.00604624;0.0747535;0.0751493;-0.0176058;0.0463775;0.230224;4.3436;0.0568837;0.0618367;4.26843;0.234278;94.8752;139.875;-0.0279421;-0.0171952;0.0156559;-0.00274163;0.0746564;-0.012747;-0.0183215;0;0.0530641;-1.23558;-3.38914;-1.35746;3.8543;-6.99009;-0.0215058;0.00142785;0.0917137;0.0917317;-0.0215238;0.0566277;0.234488;4.26461;0.0694498;0.0755036;4.26188;0.234638;96.559;141.559;-0.0185974;-0.0215335;0.0113956;-0.00750625;0.0916551;0.0122835;0.0842187;0;0.0890453;3.38563
678000;679;28.3393;2.53377;0.098187;-2.88204;28.1847;-0.657021;-0.48804;2.49339;-1.04469;-0.74641;-0.885512;-0.282008;1.19197;-6.23163;-0.0172009;0.00611705;0.0743204;0.0747275;-0.017608;0.0461677;0.231443;4.32072;0.0566079;0.061557;4.24396;0.235629;94.8714;139.871;-0.0225596;-0.0171855;0.01572;-0.00266828;0.0742228;-0.0119311;-0.0274894;0;0.0554841;-1.23565;-3.39305;-1.3559;3.85721;-6.98358;-0.0215342;0.00145549;0.0932344;0.0932529;-0.0215527;0.0574028;0.230969;4.32959;0.0704603;0.076537;4.32674;0.231121;96.8646;141.865;-0.0169548;-0.0215665;0.0121048;-0.00807592;0.0931684;0.0109526;0.0848744;0;0.0907642;3.38049
679000;680;28.3514;2.54585;0.0986553;-2.88268;28.1967;-0.661035;-0.488679;2.50538;-1.04871;-0.746517;-0.879728;-0.288994;1.18942;-6.23862;-0.017195;0.00669668;0.0752142;0.075697;-0.0176777;0.0466874;0.228613;4.3742;0.0572739;0.0622498;4.28205;0.233533;94.1699;139.17;-0.024445;-0.0171738;0.0159991;-0.00180673;0.075116;-0.00925246;-0.0256934;0;0.0542357;-1.23701;-3.39844;-1.36327;3.86498;-6.99095;-0.0214241;0.00162606;0.0934717;0.0934947;-0.0214472;0.0574709;0.229205;4.36291;0.0705736;0.0766279;4.35931;0.229394;95.9116;140.912;-0.0141506;-0.0214465;0.0110523;-0.00680984;0.093417;0.00785905;0.0834294;0;0.0913192;3.3813
680000;681;28.3617;2.55617;0.0990552;-2.88329;28.207;-0.663023;-0.489285;2.51565;-1.0507;-0.746614;-0.880783;-0.280477;1.18823;-6.2301;-0.0175023;0.00570482;0.0765211;0.076866;-0.0178472;0.0473566;0.228725;4.37205;0.0581139;0.0631421;4.30689;0.232186;95.0952;140.095;-0.0259442;-0.0174911;0.015497;-0.00323253;0.0764247;-0.00480903;-0.0304;0;0.0610552;-1.23801;-3.40918;-1.35728;3.87265;-6.98496;-0.0214742;0.00155182;0.0936906;0.0937115;-0.0214952;0.0576033;0.229204;4.36293;0.0707366;0.0768045;4.35966;0.229376;96.6423;141.642;-0.0161899;-0.0215042;0.01202;-0.00781419;0.0936257;0.00552592;0.0829895;0;0.0911348;3.38341
681000;682;28.374;2.56845;0.0995312;-2.88432;28.2192;-0.66368;-0.490315;2.52788;-1.05135;-0.746502;-0.876273;-0.282438;1.18528;-6.23206;-0.017934;0.00583509;0.0769868;0.0773442;-0.0182914;0.0478178;0.232949;4.29278;0.058619;0.0637571;4.22845;0.236493;95.3819;140.382;-0.0260773;-0.0179228;0.0160435;-0.00347411;0.0768831;-0.00722064;-0.0291453;0;0.0510605;-1.23877;-3.41725;-1.36405;3.88237;-6.99667;-0.0216284;0.00137765;0.0928083;0.0928248;-0.021645;0.0572349;0.233044;4.29104;0.0702192;0.0763132;4.28852;0.233181;96.7147;141.715;-0.0192285;-0.0216588;0.0116727;-0.00783946;0.0927468;0.0150869;0.0839203;0;0.094816;3.38133
682000;683;28.3828;2.57732;0.0998746;-2.8844;28.2281;-0.6647;-0.490395;2.53676;-1.05237;-0.747072;-0.875438;-0.275216;1.18332;-6.22484;-0.017964;0.00571334;0.0766779;0.0770216;-0.0183076;0.0476646;0.234278;4.26843;0.0584145;0.0635528;4.20708;0.237694;95.4359;140.436;-0.0240602;-0.0179537;0.0158499;-0.00353272;0.0765764;-0.0106919;-0.0262468;0;0.0533427;-1.2403;-3.42596;-1.3596;3.88897;-6.99222;-0.0219314;0.00149218;0.0933759;0.0933952;-0.0219507;0.057673;0.234873;4.25763;0.0707251;0.0768973;4.25476;0.235031;96.5576;141.558;-0.0162498;-0.02196;0.0116766;-0.00761835;0.0933145;0.00972617;0.0834089;0;0.0907141;3.3843
683000;684;28.3943;2.58873;0.100317;-2.88439;28.2396;-0.660568;-0.49039;2.54834;-1.04824;-0.746746;-0.868939;-0.280958;1.17967;-6.23058;-0.0184203;0.00577743;0.0776316;0.0779779;-0.0187666;0.0483722;0.237279;4.21445;0.05924;0.0644963;4.15514;0.240666;95.7958;140.796;-0.0237153;-0.0184112;0.0164394;-0.0039348;0.0775217;-0.0148596;-0.0309615;0;0.0493633;-1.24158;-3.43132;-1.36179;3.89486;-6.99385;-0.0210394;0.00259833;0.0930502;0.0931093;-0.0210985;0.0571039;0.226108;4.42267;0.0701711;0.0761386;4.41307;0.226599;94.5415;139.542;-0.00903957;-0.0210472;0.0107483;-0.00470111;0.0930004;0.00749447;0.095838;0;0.0918179;3.38006
684000;685;28.4033;2.59774;0.100666;-2.88544;28.2486;-0.660797;-0.491433;2.55728;-1.04847;-0.746867;-0.865391;-0.285047;1.17812;-6.22819;-0.0183466;0.00518602;0.0763372;0.0766204;-0.0186298;0.0476251;0.240336;4.16085;0.0582911;0.0635001;4.1128;0.243144;95.8294;140.829;-0.0265493;-0.0183411;0.0152875;-0.00402729;0.0762411;-0.00852434;-0.0330354;0;0.0484649;-1.2409;-3.43442;-1.36545;3.89866;-6.99313;-0.0217214;0.00185391;0.0952066;0.0952359;-0.0217507;0.0584933;0.22815;4.38308;0.0718468;0.0779911;4.37851;0.228388;95.9873;140.987;-0.0167968;-0.0217445;0.011742;-0.00697864;0.0951452;0.0116446;0.0867984;0;0.092502;3.38129
685000;686;28.4125;2.607;0.101025;-2.88594;28.2579;-0.658597;-0.491934;2.56659;-1.04627;-0.745508;-0.864691;-0.279966;1.17552;-6.22311;-0.0188628;0.00548891;0.0760369;0.0763533;-0.0191792;0.0477663;0.248074;4.03105;0.0583555;0.0636884;3.98104;0.25119;95.9162;140.916;-0.0277005;-0.0188551;0.0157562;-0.00387333;0.0759355;-0.00558482;-0.03075;0;0.0546316;-1.24041;-3.44325;-1.36242;3.90522;-6.9901;-0.0217708;0.0018167;0.0953604;0.0953886;-0.0217989;0.0585938;0.2283;4.3802;0.0719677;0.078125;4.37583;0.228528;95.9223;140.922;-0.0152082;-0.0217935;0.0115935;-0.00691479;0.0953005;0.00713494;0.0901002;0;0.0913957;3.38133
686000;687;28.4237;2.61817;0.101458;-2.88622;28.2689;-0.666244;-0.492222;2.57762;-1.05392;-0.745689;-0.860639;-0.283254;1.17345;-6.2264;-0.0188749;0.00451421;0.0760051;0.0762194;-0.0190892;0.0476543;0.248338;4.02677;0.0582285;0.0635391;3.99279;0.250451;96.1216;141.122;-0.0271675;-0.0188746;0.014325;-0.00443182;0.0759192;-0.00313349;-0.040916;0;0.050011;-1.24128;-3.45279;-1.37553;3.9185;-7.01132;-0.0216965;0.000579973;0.0933681;0.093371;-0.0216994;0.0575352;0.232376;4.30338;0.0706009;0.0767136;4.30293;0.2324;97.1998;142.2;-0.0184489;-0.021736;0.0110754;-0.00881097;0.0933121;0.00307876;0.0935486;0;0.0877754;3.38408
687000;688;28.437;2.63148;0.101974;-2.88879;28.2821;-0.664729;-0.494784;2.59077;-1.0524;-0.745458;-0.85476;-0.288667;1.17032;-6.23181;-0.0196388;0.00420153;0.0763285;0.0765121;-0.0198224;0.0481672;0.257293;3.88661;0.0587412;0.064223;3.85988;0.259075;96.3864;141.386;-0.0263254;-0.0196412;0.0139973;-0.00472113;0.0762457;-0.00547698;-0.0338209;0;0.0536858;-1.24241;-3.45915;-1.37713;3.92502;-7.01292;-0.021849;0.00075746;0.0937186;0.0937236;-0.0218539;0.0577888;0.233134;4.28938;0.0708988;0.0770517;4.28863;0.233175;97.2521;142.252;-0.0217874;-0.0218887;0.0114908;-0.00884178;0.0936585;0.00427759;0.0895919;0;0.0945947;3.3802
688000;689;28.4489;2.64338;0.102435;-2.89009;28.294;-0.660424;-0.496084;2.6027;-1.0481;-0.744675;-0.849651;-0.292812;1.16713;-6.24258;-0.0201606;0.00392366;0.0761353;0.0762949;-0.0203202;0.0483075;0.264799;3.77645;0.0588185;0.06441;3.75464;0.266337;97.1468;142.147;-0.0258236;-0.0201682;0.0142832;-0.0055092;0.0760476;-0.00422489;-0.00877519;0;0.0562711;-1.24314;-3.46385;-1.37839;3.92984;-7.01099;-0.0217296;0.00158186;0.0957762;0.0957975;-0.0217508;0.0587742;0.226879;4.40765;0.0722155;0.0783655;4.40431;0.22705;96.1581;141.158;-0.0171853;-0.021756;0.0116017;-0.00736362;0.0957159;0.00459173;0.091154;0;0.0981315;3.38011
689000;690;28.46;2.65448;0.102865;-2.89021;28.3049;-0.669576;-0.49621;2.61363;-1.05725;-0.745652;-0.843727;-0.303127;1.16609;-6.24641;-0.0206805;0.00237678;0.0743568;0.0744162;-0.0207399;0.0475781;0.278126;3.5955;0.0577785;0.0634374;3.58806;0.278702;97.6164;142.616;-0.0266856;-0.0206974;0.0118124;-0.00622435;0.0742945;-0.000337139;-0.0116193;0;0.0537342;-1.24461;-3.46971;-1.38876;3.93911;-7.02136;-0.0219006;0.00130553;0.0958131;0.0958276;-0.0219151;0.0588714;0.228576;4.37491;0.0723058;0.0784951;4.37268;0.228693;96.5386;141.539;-0.0192198;-0.0219321;0.0116767;-0.00795168;0.0957517;0.00450653;0.0908817;0;0.0955532;3.38126
690000;691;28.4711;2.66557;0.103295;-2.89119;28.316;-0.668194;-0.49719;2.62472;-1.05587;-0.743602;-0.843533;-0.289799;1.16124;-6.23476;-0.0208312;0.00340246;0.0751932;0.0753136;-0.0209516;0.0481326;0.277036;3.60964;0.0584582;0.0641769;3.59464;0.278192;97.0241;142.024;-0.0251062;-0.0208397;0.0129694;-0.0053103;0.0751204;-0.00231138;-0.0116671;0;0.0517134;-1.2437;-3.47666;-1.37711;3.94086;-7.00478;-0.0224483;0.00140812;0.097051;0.0970676;-0.0224649;0.0597663;0.231304;4.32331;0.0733558;0.0796883;4.32086;0.231436;95.4929;140.493;-0.0131114;-0.0224694;0.0103652;-0.00657341;0.097003;0.00659353;0.0834876;0;0.0937514;3.38389
691000;692;28.4809;2.67543;0.103676;-2.89239;28.3259;-0.6636;-0.498384;2.63462;-1.05127;-0.744026;-0.837428;-0.29915;1.15946;-6.24411;-0.0210062;0.00305414;0.0759065;0.0760026;-0.0211023;0.0485525;0.276738;3.61353;0.0589747;0.0647366;3.60162;0.277653;97.3606;142.361;-0.0253164;-0.0210189;0.012852;-0.00586137;0.075834;-0.00441995;-0.017749;0;0.0571304;-1.24483;-3.48233;-1.38323;3.94836;-7.01091;-0.0222027;0.00172799;0.0971977;0.0972227;-0.0222278;0.0597252;0.228429;4.37773;0.0733557;0.0796336;4.37393;0.228627;95.7621;140.762;-0.0147814;-0.0222253;0.0113741;-0.00686851;0.0971401;0.0136138;0.0892391;0;0.0893718;3.38002
692000;693;28.4886;2.68308;0.103973;-2.89348;28.3334;-0.670164;-0.499481;2.64205;-1.05784;-0.743614;-0.833226;-0.299951;1.15637;-6.24491;-0.020302;0.00346855;0.0750008;0.0751269;-0.0204281;0.0477775;0.27069;3.69426;0.0581036;0.0637033;3.67763;0.271914;96.9038;141.904;-0.0242707;-0.0203099;0.0130185;-0.00523503;0.0749276;-0.00969168;-0.0174142;0;0.054383;-1.24504;-3.48775;-1.3872;3.9546;-7.01488;-0.0221934;0.00217249;0.0977305;0.0977698;-0.0222327;0.0600013;0.227088;4.40359;0.0737169;0.0800017;4.39757;0.227399;95.6885;140.689;-0.0158298;-0.0222137;0.0121;-0.00667065;0.0976659;0.0153191;0.0820243;0;0.0990699;3.38197
693000;694;28.497;2.69149;0.104299;-2.89456;28.3417;-0.672168;-0.500559;2.65034;-1.05984;-0.743365;-0.832007;-0.300528;1.15548;-6.23864;-0.0209306;0.00327629;0.0745017;0.074614;-0.021043;0.0478285;0.280942;3.55946;0.0580428;0.0637713;3.54579;0.282024;96.4815;141.482;-0.0176821;-0.0209364;0.0120264;-0.00469687;0.0744394;-0.00501043;-0.0347691;0;0.0515044;-1.24557;-3.49511;-1.39038;3.96237;-7.01806;-0.0221162;0.00181284;0.0985716;0.0985988;-0.0221434;0.0603711;0.224367;4.45698;0.074223;0.0804949;4.45273;0.224581;95.806;140.806;-0.0174906;-0.02214;0.0117762;-0.00705607;0.09851;0.0146754;0.0871966;0;0.0938537;3.3814
694000;695;28.5105;2.70503;0.104824;-2.89581;28.3552;-0.668138;-0.50181;2.66392;-1.05581;-0.743102;-0.829625;-0.299513;1.15334;-6.23603;-0.0208111;0.00390889;0.0745806;0.0747405;-0.020971;0.0478558;0.279042;3.58369;0.0580931;0.0638077;3.56399;0.280584;95.6329;140.633;-0.0197363;-0.02081;0.0121751;-0.00362374;0.0745187;0.00223502;-0.0314899;0;0.0632707;-1.24658;-3.50486;-1.39318;3.97228;-7.02578;-0.0219135;0.00185143;0.0975775;0.0976062;-0.0219421;0.0597742;0.224575;4.45286;0.073485;0.0796989;4.44834;0.224803;95.9252;140.925;-0.0206547;-0.0219377;0.0119276;-0.00712794;0.0975142;0.0129406;0.095085;0;0.0952071;3.38131
695000;696;28.5231;2.71758;0.10531;-2.8976;28.3676;-0.669378;-0.503595;2.67633;-1.05705;-0.742396;-0.825562;-0.299181;1.14988;-6.23569;-0.0210446;0.00418575;0.0736982;0.0738828;-0.0212292;0.047556;0.285551;3.502;0.0576496;0.063408;3.48025;0.287336;95.4709;140.471;-0.0178975;-0.0210409;0.0122952;-0.00320834;0.073636;-0.0020702;-0.0303247;0;0.0552793;-1.24704;-3.51313;-1.39491;3.98032;-7.0307;-0.0221428;0.000944798;0.096619;0.0966265;-0.0221503;0.0593884;0.229176;4.36346;0.0729311;0.0791845;4.36232;0.229236;96.6034;141.603;-0.019498;-0.0221769;0.0112281;-0.00822492;0.0965619;-0.00152908;0.0954752;0;0.0949168;3.38142
696000;697;28.5336;2.7281;0.105717;-2.89855;28.3781;-0.671586;-0.50455;2.68676;-1.05926;-0.742429;-0.820879;-0.302403;1.14738;-6.23892;-0.0206865;0.00427937;0.0750731;0.075264;-0.0208774;0.0480707;0.275552;3.62908;0.0583927;0.0640942;3.60505;0.277389;95.4359;140.436;-0.0183464;-0.0206829;0.01266;-0.00335507;0.0750071;-0.00092058;-0.0313131;0;0.0517203;-1.24812;-3.51959;-1.40027;3.98824;-7.03607;-0.0220244;0.000743394;0.0964066;0.0964113;-0.0220291;0.0592202;0.228453;4.37726;0.0727378;0.0789602;4.37654;0.228491;96.9774;141.977;-0.0219255;-0.0220637;0.0114348;-0.00879326;0.0963472;0.00770628;0.0964007;0;0.0973937;3.38178
697000;698;28.5457;2.74022;0.106188;-2.89946;28.39;-0.678184;-0.505457;2.6987;-1.06586;-0.742499;-0.816377;-0.302297;1.14419;-6.23881;-0.0207271;0.0039431;0.0764573;0.0766171;-0.0208868;0.0487519;0.271094;3.68876;0.0592798;0.0650026;3.6682;0.272613;95.3562;140.356;-0.0226832;-0.0207256;0.0121866;-0.0035564;0.0763956;0.00613441;-0.0333645;0;0.0507642;-1.24879;-3.52321;-1.39852;3.99103;-7.02619;-0.0224263;0.00170971;0.0992273;0.0992514;-0.0224504;0.0608509;0.22601;4.42459;0.0747829;0.0811345;4.42092;0.226197;95.8938;140.894;-0.0152141;-0.0224517;0.0117748;-0.00724162;0.0991656;0.00565948;0.0903071;0;0.102655;3.38249
698000;699;28.5554;2.74983;0.10656;-2.89986;28.3997;-0.674917;-0.505855;2.7084;-1.06259;-0.741649;-0.814919;-0.298291;1.14154;-6.2348;-0.0209907;0.00382249;0.0762787;0.0764287;-0.0211406;0.0487847;0.275184;3.63394;0.0592697;0.0650462;3.61525;0.276606;95.2229;140.223;-0.0212317;-0.0209891;0.0117689;-0.00340598;0.0762212;0.00623657;-0.0357581;0;0.0505622;-1.24905;-3.53346;-1.39822;4.00006;-7.03082;-0.022631;0.00178243;0.0989152;0.0989413;-0.0226572;0.0607992;0.228792;4.37078;0.074668;0.0810657;4.36689;0.228996;95.5853;140.585;-0.0179098;-0.0226526;0.0113537;-0.0067303;0.098858;0.00765484;0.090568;0;0.106182;3.38129
699000;700;28.5639;2.7584;0.106892;-2.90023;28.4081;-0.68409;-0.506224;2.71675;-1.07176;-0.743238;-0.80853;-0.302998;1.13927;-6.23951;-0.0208746;0.00404186;0.0760598;0.076228;-0.0210429;0.0486355;0.27445;3.64365;0.0590953;0.0648473;3.62251;0.276052;95.3797;140.38;-0.0197611;-0.0208725;0.0122994;-0.00347207;0.0759971;0.00143506;-0.0401544;0;0.0504981;-1.25096;-3.53708;-1.40129;4.00493;-7.02897;-0.0222791;0.00182574;0.09967;0.0996973;-0.0223065;0.0610019;0.223529;4.47369;0.0750141;0.0813358;4.46943;0.223742;95.6408;140.641;-0.0156706;-0.0223019;0.0116572;-0.00691555;0.0996097;0.0094514;0.0908578;0;0.098254;3.3813
700000;701;28.5745;2.76893;0.1073;-2.90237;28.4185;-0.68321;-0.508371;2.72715;-1.07088;-0.742152;-0.802707;-0.307112;1.13554;-6.24362;-0.0207903;0.00301784;0.0766408;0.0767342;-0.0208837;0.048809;0.271269;3.68638;0.0593549;0.0650786;3.67437;0.272156;95.8372;140.837;-0.0214374;-0.0207957;0.0112057;-0.0044292;0.0765868;0.00855156;-0.0337543;0;0.0510562;-1.25125;-3.5422;-1.40476;4.01075;-7.03244;-0.0222926;0.00233321;0.100253;0.100298;-0.022337;0.0613173;0.222363;4.49716;0.0754215;0.0817565;4.4902;0.222707;95.3189;140.319;-0.0143811;-0.0223104;0.0121016;-0.00634733;0.100189;0.00981463;0.0799663;0;0.101811;3.3791
701000;702;28.582;2.7765;0.107593;-2.90196;28.4261;-0.685124;-0.507955;2.73476;-1.0728;-0.742894;-0.803396;-0.296452;1.13368;-6.23456;-0.021076;0.0026176;0.0784298;0.0784986;-0.0211448;0.0498217;0.268724;3.72129;0.0606226;0.0664289;3.71244;0.269365;96.1918;141.192;-0.0203167;-0.0210859;0.0111425;-0.00512091;0.0783754;0.00902566;-0.0391653;0;0.0474511;-1.25268;-3.55201;-1.39594;4.0168;-7.02362;-0.0216962;0.00237537;0.101353;0.101399;-0.021742;0.0615705;0.214065;4.67147;0.0758919;0.0820939;4.66373;0.214421;95.7623;140.762;-0.0173556;-0.0217195;0.0131101;-0.00716026;0.101278;0.0168071;0.0876436;0;0.107104;3.38275
702000;703;28.5974;2.79187;0.108189;-2.90395;28.4414;-0.683294;-0.50995;2.75005;-1.07097;-0.740589;-0.796308;-0.308443;1.13036;-6.24496;-0.0210502;0.00208159;0.0765709;0.0766153;-0.0210946;0.048855;0.274912;3.63753;0.059371;0.0651399;3.63198;0.275332;96.413;141.413;-0.0229975;-0.0210626;0.0102479;-0.00534436;0.0765242;0.0120069;-0.0318155;0;0.0479823;-1.2518;-3.55935;-1.4124;4.02875;-7.045;-0.0221381;0.00259934;0.101131;0.101185;-0.0221929;0.0616891;0.218906;4.56817;0.0759432;0.0822521;4.55936;0.219329;95.7093;140.709;-0.0206765;-0.0221591;0.0133213;-0.00692259;0.101053;0.0128746;0.0958071;0;0.102444;3.38264
703000;704;28.6122;2.80673;0.108765;-2.90509;28.4564;-0.674595;-0.511092;2.76508;-1.06227;-0.741492;-0.792706;-0.309661;1.12875;-6.24617;-0.0214705;0.00236926;0.0771885;0.0772454;-0.0215274;0.0493864;0.278157;3.59509;0.0599747;0.0658485;3.58824;0.278688;96.1272;141.127;-0.0232385;-0.0214801;0.0104205;-0.00494474;0.0771407;0.0175515;-0.0359004;0;0.0492834;-1.25355;-3.56662;-1.41203;4.03559;-7.04275;-0.0222313;0.00147748;0.100871;0.100889;-0.0222491;0.0615688;0.220394;4.53733;0.0757722;0.0820918;4.53451;0.220531;96.1772;141.177;-0.0188359;-0.0222623;0.0120655;-0.00792666;0.100806;0.00799012;0.0951835;0;0.0999477;3.38135
704000;705;28.6237;2.81822;0.10921;-2.90675;28.4677;-0.678571;-0.512743;2.77637;-1.06624;-0.741324;-0.788803;-0.308428;1.12557;-6.24494;-0.0210589;0.00236903;0.0750511;0.0751094;-0.0211173;0.0481133;0.280594;3.56386;0.0583989;0.0641511;3.55678;0.281153;96.3377;141.338;-0.0223356;-0.0210686;0.0104247;-0.00496656;0.0750031;0.0109223;-0.0318949;0;0.0524657;-1.25436;-3.57591;-1.41364;4.04462;-7.04943;-0.0224115;0.00135556;0.0994884;0.0995034;-0.0224265;0.060965;0.225267;4.43917;0.0749382;0.0812867;4.43686;0.225385;96.4488;141.449;-0.0221587;-0.0224447;0.0120683;-0.00816963;0.099423;0.00615478;0.0976835;0;0.10811;3.3811
705000;706;28.6354;2.82983;0.10966;-2.90633;28.4794;-0.678243;-0.512325;2.7881;-1.06592;-0.739391;-0.785529;-0.306651;1.12151;-6.24993;-0.0212506;0.00350682;0.074854;0.0749817;-0.0213784;0.0481801;0.283895;3.52243;0.0584325;0.0642401;3.50735;0.285115;95.9015;140.901;-0.0270776;-0.0212526;0.0117638;-0.00401206;0.0747953;0.00415941;-0.0165836;0;0.0548571;-1.25339;-3.58414;-1.40895;4.04996;-7.03967;-0.0226957;0.00178167;0.100377;0.100402;-0.0227215;0.0615619;0.226106;4.42271;0.0756548;0.0820826;4.41883;0.226304;96.1146;141.115;-0.0193577;-0.0227238;0.0123613;-0.00761481;0.100309;0.00749732;0.0883394;0;0.10014;3.38967
706000;707;;;;;;;;;;-0.738573;-0.778867;-0.311897;1.11777;-6.25518;-0.0212639;0.00328825;0.0760207;0.0761317;-0.0213749;0.0487533;0.279712;3.5751;0.0591804;0.0650044;3.56173;0.280763;96.0472;141.047;-0.0275949;-0.0212682;0.0117237;-0.00438474;0.0759618;0.000965197;-0.0196842;0;0.057131;-1.25329;-3.58894;-1.41715;4.05704;-7.04778;-0.0224132;0.00267466;0.102144;0.102201;-0.0224706;0.0623359;0.219428;4.5573;0.076729;0.0831145;4.54821;0.219867;95.3389;140.339;-0.0162256;-0.0224307;0.01294;-0.00643081;0.102071;0.0119852;0.097465;0;0.104579;3.37871
707000;708;;;;;;;;;;-0.739235;-0.775001;-0.310326;1.11508;-6.25361;-0.0214439;0.00284261;0.0741214;0.0742059;-0.0215284;0.0478671;0.289308;3.45652;0.0579943;0.0638229;3.44688;0.290117;96.1615;141.161;-0.0269507;-0.0214498;0.0108177;-0.00442312;0.0740707;0.00138011;-0.0162211;0;0.0574102;-1.25492;-3.5974;-1.41339;4.06372;-7.04832;-0.0223611;0.00234329;0.101114;0.101159;-0.0224056;0.0617822;0.221147;4.52188;0.0760164;0.0823762;4.51489;0.221489;95.4172;140.417;-0.0187419;-0.0223803;0.0123702;-0.00655942;0.101047;0.0119343;0.093161;0;0.108782;3.37311
708000;709;28.6656;2.8601;0.110833;-2.91055;28.5094;-0.680544;-0.516549;2.81804;-1.06822;-0.737618;-0.770169;-0.312638;1.1113;-6.25592;-0.0209089;0.00348531;0.0739956;0.0741234;-0.0210367;0.04758;0.282569;3.53896;0.0577201;0.0634401;3.52353;0.283806;95.739;140.739;-0.0263447;-0.0209101;0.0114953;-0.00381707;0.0739397;0.000155059;-0.0121544;0;0.0676072;-1.25516;-3.60265;-1.41659;4.06955;-7.04919;-0.0222193;0.00260882;0.101881;0.101935;-0.0222742;0.0621048;0.218092;4.58522;0.0764708;0.0828064;4.5764;0.218512;95.4841;140.484;-0.0194924;-0.0222386;0.0130566;-0.0066625;0.101806;0.0132152;0.0886647;0;0.102089;3.37559
709000;710;28.6739;2.8684;0.111154;-2.90948;28.5177;-0.683937;-0.515474;2.82642;-1.07161;-0.738159;-0.767221;-0.311222;1.10922;-6.2545;-0.0207571;0.00329284;0.0749769;0.07509;-0.0208703;0.0479801;0.276847;3.6121;0.0582761;0.0639735;3.59795;0.277936;95.2975;140.297;-0.024942;-0.0207582;0.0108528;-0.00359404;0.0749272;-0.000931933;-0.0221319;0;0.0571257;-1.25577;-3.60865;-1.41738;4.07533;-7.04998;-0.0221627;0.0023712;0.102392;0.102438;-0.0222078;0.0623227;0.216449;4.62003;0.0767726;0.083097;4.61268;0.216794;95.8254;140.825;-0.02193;-0.0221871;0.0132721;-0.00729824;0.102315;0.0150205;0.0871775;0;0.105274;3.37756
710000;711;28.6865;2.88099;0.111642;-2.9128;28.5299;-0.691243;-0.518799;2.83856;-1.07892;-0.738792;-0.76659;-0.31073;1.10907;-6.24724;-0.021492;0.00245516;0.0755961;0.0756581;-0.021554;0.0486061;0.2843;3.51741;0.0589518;0.0648081;3.51017;0.284887;95.1875;140.187;-0.0183392;-0.0214962;0.00932261;-0.0037925;0.0755585;0.00378665;-0.0401459;0;0.0540236;-1.2582;-3.61629;-1.42383;4.08508;-7.05643;-0.0219037;0.00248957;0.102616;0.102665;-0.0219534;0.0623094;0.213454;4.68486;0.0768143;0.0830792;4.67651;0.213835;95.7327;140.733;-0.024408;-0.0219269;0.0133953;-0.0071848;0.102537;0.0209502;0.0966667;0;0.106576;3.38287
711000;712;28.7001;2.8946;0.11217;-2.91419;28.5437;-0.681049;-0.520184;2.85236;-1.06872;-0.737282;-0.76073;-0.312106;1.1044;-6.24862;-0.0219852;0.00333766;0.0744402;0.0745555;-0.0221006;0.0483281;0.295341;3.38592;0.0584796;0.0644374;3.37346;0.296431;94.6381;139.638;-0.0176309;-0.0219833;0.00997081;-0.00270033;0.0743991;0.00309038;-0.0360547;0;0.0533451;-1.25748;-3.61939;-1.41964;4.08616;-7.04732;-0.0220532;0.00304332;0.104464;0.104537;-0.0221264;0.0633316;0.211109;4.73689;0.0781183;0.0844421;4.72453;0.211661;95.5882;140.588;-0.0198177;-0.0220733;0.014346;-0.00696493;0.104375;0.0198003;0.0894121;0;0.107536;3.37348
712000;713;28.7106;2.90505;0.112575;-2.91605;28.5538;-0.687112;-0.522046;2.86253;-1.07478;-0.737337;-0.756381;-0.314962;1.10226;-6.25147;-0.0212522;0.00343709;0.0745927;0.0747158;-0.0213753;0.0480456;0.28491;3.50988;0.0582578;0.0640607;3.49543;0.286088;94.3276;139.328;-0.0167025;-0.0212493;0.00993043;-0.00247722;0.0745523;0.00572282;-0.0358146;0;0.0495631;-1.25788;-3.62482;-1.42514;4.09299;-7.05281;-0.0219149;0.00288831;0.104725;0.104791;-0.0219807;0.063386;0.20926;4.77874;0.078224;0.0845146;4.76742;0.209757;95.508;140.508;-0.0157546;-0.0219352;0.0139912;-0.00694204;0.104641;0.0157609;0.0919341;0;0.115148;3.37844
713000;714;28.7207;2.91527;0.112971;-2.9162;28.5638;-0.695365;-0.522197;2.87254;-1.07987;-0.737093;-0.75107;-0.315933;1.09874;-6.25908;-0.0203838;0.00474923;0.0763509;0.0765835;-0.0206164;0.0485999;0.266975;3.74567;0.059138;0.0647999;3.71469;0.269201;93.9017;138.902;-0.0201261;-0.0203739;0.0119367;-0.00179253;0.0762952;-0.00641721;-0.0507984;0;0.0579968;-1.25936;-3.63874;-1.43316;4.10857;-7.07355;-0.0229498;0.00141234;0.101156;0.101172;-0.0229659;0.062069;0.226876;4.4077;0.0762649;0.0827587;4.40532;0.226998;96.3136;141.314;-0.0186993;-0.0229822;0.0121059;-0.00807611;0.10109;0.00859342;0.0923707;0;0.108077;3.38299
714000;715;;;;;;;;;;-0.736725;-0.746159;-0.318209;1.0958;-6.26136;-0.0207648;0.00455692;0.0763198;0.0765332;-0.0209782;0.0487557;0.272076;3.67544;0.0592657;0.0650076;3.64822;0.274106;94.2848;139.285;-0.0211823;-0.0207567;0.0119801;-0.00219685;0.0762628;-0.00309253;-0.0525161;0;0.0513462;-1.25935;-3.64319;-1.43301;4.11246;-7.07138;-0.022641;0.00210774;0.102784;0.102819;-0.0226765;0.0627479;0.220278;4.53972;0.077223;0.0836639;4.53419;0.220547;95.6575;140.658;-0.0155763;-0.0226647;0.0125165;-0.00711734;0.102715;0.014782;0.098228;0;0.108492;3.37474
715000;716;;;;;;;;;;-0.733623;-0.737577;-0.335;1.09291;-6.27815;-0.0200337;0.00480506;0.0768099;0.0770477;-0.0202715;0.0486596;0.260822;3.83404;0.059289;0.0648795;3.80079;0.263103;93.8678;138.868;-0.0209378;-0.0200236;0.0120949;-0.00182936;0.0767527;-0.00262726;-0.0495339;0;0.0528707;-1.25786;-3.64133;-1.44768;4.11549;-7.0783;-0.0224681;0.00293089;0.104536;0.104603;-0.0225357;0.0635695;0.214932;4.65263;0.0783354;0.0847593;4.64167;0.21544;95.0007;140.001;-0.0178842;-0.0224826;0.0131088;-0.00607695;0.104462;0.0195342;0.0944007;0;0.115838;3.37367
716000;717;28.7508;2.94527;0.114133;-2.9188;28.5939;-0.690497;-0.524802;2.90261;-1.07817;-0.736064;-0.739721;-0.316394;1.09045;-6.25954;-0.0206577;0.00411198;0.0772824;0.0774548;-0.02083;0.0491424;0.267302;3.74109;0.0598016;0.0655232;3.71842;0.268932;94.2747;139.275;-0.0223271;-0.0206522;0.0113553;-0.00247303;0.0772304;-0.00339497;-0.0482026;0;0.0519653;-1.26104;-3.65507;-1.43466;4.12408;-7.06726;-0.0224442;0.00272713;0.103212;0.103271;-0.0225034;0.0628874;0.217457;4.59861;0.0774463;0.0838499;4.58915;0.217905;95.7418;140.742;-0.0191636;-0.0224663;0.0138234;-0.00710554;0.103129;0.0150153;0.0838124;0;0.111655;3.3857
717000;718;28.7615;2.95597;0.114548;-2.92014;28.6047;-0.685886;-0.526137;2.91334;-1.07356;-0.735685;-0.733748;-0.319297;1.087;-6.26244;-0.0208393;0.00272898;0.0809137;0.0809869;-0.0209124;0.0509496;0.257549;3.88275;0.0621462;0.0679329;3.87267;0.25822;95.5937;140.594;-0.0299975;-0.020847;0.0109873;-0.00475211;0.0808613;0.00844155;-0.0639445;0;0.0547588;-1.26032;-3.65916;-1.43356;4.1271;-7.06124;-0.0220581;0.00259625;0.104881;0.104934;-0.0221112;0.0635226;0.210316;4.75475;0.0783731;0.0846968;4.74573;0.210716;95.4113;140.411;-0.0196315;-0.0220789;0.0133104;-0.00688722;0.104804;0.0182366;0.0875257;0;0.115302;3.37758
718000;719;28.7744;2.96887;0.115048;-2.92222;28.6174;-0.685429;-0.528219;2.92611;-1.0731;-0.735094;-0.728417;-0.325534;1.08486;-6.26881;-0.0208914;0.00157684;0.0789276;0.0789525;-0.0209163;0.0499344;0.264691;3.77799;0.0608181;0.0665792;3.77468;0.264923;96.228;141.228;-0.0302176;-0.0209065;0.00954463;-0.00565389;0.0788866;0.013085;-0.0366545;0;0.0594904;-1.26124;-3.66495;-1.43857;4.13425;-7.06625;-0.0220231;0.00305391;0.105991;0.106063;-0.0220959;0.0640797;0.207783;4.81271;0.0791096;0.0854396;4.80015;0.208327;95.33;140.33;-0.0207635;-0.0220415;0.0141219;-0.00673328;0.105905;0.0189157;0.089599;0;0.113877;3.37363
719000;720;28.7858;2.98029;0.115491;-2.92206;28.6287;-0.694806;-0.528055;2.93738;-1.08248;-0.735907;-0.72594;-0.325246;1.08367;-6.26853;-0.0208097;0.00166931;0.0793894;0.0794172;-0.0208375;0.0501273;0.262122;3.81502;0.061087;0.0668364;3.81126;0.26238;96.3716;141.372;-0.0309979;-0.0208257;0.00994305;-0.00583648;0.0793449;0.0102733;-0.0381892;0;0.0575643;-1.2625;-3.67291;-1.44223;4.14297;-7.06991;-0.0223984;0.00286;0.106089;0.106152;-0.022462;0.0643072;0.211129;4.73644;0.0793229;0.085743;4.72586;0.211602;95.4629;140.463;-0.0206649;-0.022419;0.0139636;-0.00695403;0.106004;0.0155333;0.0896653;0;0.123155;3.38278
720000;721;28.8017;2.99614;0.116105;-2.92453;28.6445;-0.690084;-0.530529;2.95318;-1.07776;-0.734815;-0.719801;-0.329707;1.08017;-6.27299;-0.0214738;0.00168594;0.0782078;0.0782363;-0.0215023;0.0498693;0.274573;3.64202;0.06061;0.0664924;3.63852;0.274837;96.3477;141.348;-0.0323899;-0.0214881;0.00967927;-0.00556849;0.0781657;0.0133708;-0.033144;0;0.0591013;-1.26303;-3.67921;-1.44703;4.15039;-7.0747;-0.0220675;0.00289282;0.107304;0.107368;-0.0221322;0.0647502;0.205655;4.86251;0.0799835;0.0863335;4.85123;0.206133;95.1768;140.177;-0.0163181;-0.022086;0.0137253;-0.00667434;0.107222;0.0159062;0.097579;0;0.121418;3.38271
721000;722;28.8113;3.00582;0.11648;-2.92345;28.6542;-0.694593;-0.529451;2.96291;-1.08227;-0.735159;-0.717325;-0.325932;1.07761;-6.27076;-0.0203731;0.00319789;0.0793715;0.079474;-0.0204755;0.0499747;0.25668;3.8959;0.0609649;0.066633;3.88141;0.257638;94.8344;139.834;-0.0198364;-0.0203747;0.010753;-0.00365918;0.0793227;0.00199163;-0.0574022;0;0.0530639;-1.2634;-3.68496;-1.44502;4.1549;-7.07113;-0.0220914;0.0026454;0.10703;0.107084;-0.0221456;0.0646149;0.206404;4.84487;0.0798022;0.0861532;4.83547;0.206805;94.9435;139.944;-0.0123758;-0.0221086;0.0128492;-0.00636848;0.106959;0.0157764;0.0953428;0;0.126511;3.37279
722000;723;28.8228;3.01731;0.116925;-2.9242;28.6657;-0.694596;-0.530197;2.97439;-1.08227;-0.734602;-0.712911;-0.33008;1.07556;-6.27491;-0.0205129;0.00266414;0.079494;0.079565;-0.0205838;0.0500744;0.258043;3.87532;0.061072;0.0667658;3.86542;0.258704;95.2623;140.262;-0.0227468;-0.0205188;0.0103573;-0.00431646;0.0794476;0.00485692;-0.0568082;0;0.0535277;-1.2646;-3.69426;-1.45058;4.16545;-7.0813;-0.0227928;0.00184765;0.104759;0.104786;-0.0228195;0.0638026;0.217573;4.59615;0.0785761;0.0850702;4.59193;0.217773;96.039;141.039;-0.017961;-0.0228234;0.0129298;-0.00795516;0.104685;0.00969401;0.0874371;0;0.10951;3.37552
723000;724;28.8325;3.027;0.117301;-2.92501;28.6753;-0.696403;-0.531002;2.98401;-1.08408;-0.734384;-0.70947;-0.328412;1.07262;-6.27156;-0.0204522;0.0034728;0.0759246;0.0760495;-0.0205771;0.0483133;0.269375;3.7123;0.058772;0.0644178;3.69583;0.270575;94.8692;139.869;-0.0240533;-0.0204514;0.0108422;-0.00323664;0.0758755;-0.00568262;-0.0424584;0;0.0563077;-1.26541;-3.70287;-1.4501;4.17316;-7.08082;-0.022799;0.00182784;0.105607;0.105633;-0.022825;0.0642288;0.215887;4.63206;0.079135;0.0856384;4.62792;0.21608;95.7061;140.706;-0.0170332;-0.0228265;0.0124439;-0.00755546;0.105538;0.0118062;0.0828432;0;0.110756;3.38403
724000;725;28.8436;3.03804;0.117728;-2.92667;28.6862;-0.697302;-0.532663;2.99491;-1.08497;-0.733644;-0.703346;-0.330851;1.06883;-6.274;-0.0207563;0.00382396;0.0749426;0.0750952;-0.0209088;0.048002;0.276962;3.6106;0.0582966;0.0640027;3.59156;0.278431;94.6632;139.663;-0.0234846;-0.0207526;0.0110349;-0.00274513;0.0748928;-0.00361464;-0.042077;0;0.0563946;-1.26604;-3.71176;-1.45282;4.18219;-7.08862;-0.0226052;0.00158155;0.104545;0.104565;-0.0226249;0.063595;0.216224;4.62484;0.0783483;0.0847933;4.62169;0.216371;95.9172;140.917;-0.0214164;-0.0226356;0.0122573;-0.00786539;0.104479;0.0168384;0.0929666;0;0.111274;3.37285
725000;726;28.8522;3.04669;0.118064;-2.92749;28.6948;-0.70092;-0.533488;3.00344;-1.08859;-0.733835;-0.699206;-0.330506;1.06613;-6.27365;-0.020529;0.00398951;0.0751069;0.0752731;-0.0206952;0.0479841;0.273331;3.65857;0.0583176;0.0639788;3.63723;0.274935;94.471;139.471;-0.0220653;-0.0205242;0.0111533;-0.00253723;0.0750565;-0.00821586;-0.0438868;0;0.0591554;-1.26651;-3.71484;-1.45313;4.18517;-7.08385;-0.0223072;0.00221667;0.105757;0.105795;-0.0223456;0.0640704;0.210929;4.74093;0.0790387;0.0854272;4.73451;0.211215;95.9567;140.957;-0.0206336;-0.0223365;0.0136457;-0.00788894;0.105675;0.0170166;0.0835919;0;0.113382;3.37118
726000;727;28.8665;3.06093;0.118615;-2.92782;28.7091;-0.698792;-0.533817;3.01778;-1.08646;-0.732808;-0.695766;-0.331339;1.06343;-6.27448;-0.0206892;0.0040656;0.0739869;0.0741612;-0.0208635;0.0475123;0.279634;3.5761;0.0576673;0.0633498;3.55459;0.281327;94.667;139.667;-0.0215074;-0.0206842;0.0113366;-0.0025646;0.0739348;-0.0133943;-0.0376265;0;0.0590529;-1.26634;-3.72081;-1.45473;4.19097;-7.0824;-0.0217818;0.00322867;0.108003;0.108084;-0.021862;0.0649729;0.201677;4.95843;0.0803409;0.0866305;4.9439;0.20227;95.2107;140.211;-0.020584;-0.0217996;0.0145071;-0.00672895;0.107913;0.0231135;0.0898591;0;0.114542;3.38264
727000;728;;;;;;;;;;-0.73286;-0.691061;-0.329046;1.05968;-6.27219;-0.0206901;0.00387217;0.0741028;0.0742607;-0.020848;0.0475544;0.279208;3.58156;0.0577253;0.0634058;3.56201;0.280741;94.5682;139.568;-0.0211346;-0.0206858;0.0109273;-0.00256046;0.0740542;-0.00978922;-0.0425432;0;0.0676664;-1.26761;-3.72865;-1.4578;4.19938;-7.08843;-0.0220845;0.00297326;0.107684;0.107752;-0.0221525;0.0649521;0.205087;4.87599;0.0802444;0.0866028;4.86408;0.205589;95.5468;140.547;-0.0229534;-0.0221069;0.0145599;-0.00725633;0.107592;0.0176471;0.0925681;0;0.110624;3.37705
728000;729;;;;;;;;;;-0.733389;-0.68682;-0.330393;1.05771;-6.27354;-0.0206045;0.00443193;0.0742895;0.074496;-0.020811;0.0476535;0.277354;3.60551;0.0578622;0.063538;3.57965;0.279357;93.9642;138.964;-0.0191165;-0.020596;0.0112349;-0.00177034;0.0742399;-0.0170001;-0.037651;0;0.059978;-1.26889;-3.73416;-1.4592;4.20515;-7.08983;-0.0222015;0.00321511;0.108146;0.108225;-0.0222808;0.0652531;0.205292;4.87112;0.0806102;0.0870041;4.85735;0.205874;94.7353;139.735;-0.0174044;-0.0222143;0.0136038;-0.00595191;0.108067;0.0128619;0.111187;0;0.113738;3.37002
729000;730;28.9022;3.09671;0.120002;-2.93207;28.7444;-0.707849;-0.53807;3.05309;-1.09552;-0.732433;-0.681706;-0.334953;1.05517;-6.2781;-0.0207794;0.00409276;0.0746856;0.0748607;-0.0209545;0.0479076;0.278225;3.59422;0.0581641;0.0638768;3.57253;0.279913;94.554;139.554;-0.0226883;-0.020774;0.0113255;-0.0024977;0.0746337;-0.00888434;-0.0385298;0;0.0544781;-1.26906;-3.73939;-1.46217;4.21088;-7.08984;-0.022152;0.00296847;0.108635;0.108703;-0.0222193;0.065461;0.203911;4.90409;0.0808985;0.0872813;4.89226;0.204405;95.131;140.131;-0.0168048;-0.0221704;0.0139259;-0.00669659;0.108552;0.00943071;0.101635;0;0.116809;3.37415
730000;731;28.9145;3.10897;0.120477;-2.93281;28.7567;-0.707978;-0.538811;3.06534;-1.09565;-0.731773;-0.676697;-0.337513;1.0523;-6.28066;-0.0203153;0.00470851;0.0757225;0.0759528;-0.0205456;0.0482492;0.268286;3.72736;0.0586949;0.0643323;3.69679;0.270505;93.618;138.618;-0.0214446;-0.0203051;0.0115038;-0.00148029;0.0756713;-0.0107673;-0.0444616;0;0.0564901;-1.26961;-3.75083;-1.46711;4.22292;-7.09971;-0.0223446;0.00270624;0.107063;0.10712;-0.0224011;0.0647606;0.208704;4.79148;0.0799337;0.0863475;4.7819;0.209122;95.3354;140.335;-0.0195889;-0.0223653;0.0136017;-0.00691588;0.106983;0.005014;0.0927817;0;0.108104;3.38269
731000;732;28.9247;3.11919;0.120873;-2.93362;28.7668;-0.710281;-0.539613;3.07549;-1.09795;-0.731746;-0.671402;-0.336402;1.04852;-6.27955;-0.020385;0.00403446;0.0760461;0.0762146;-0.0205535;0.048384;0.268061;3.7305;0.0588693;0.064512;3.70811;0.269679;94.3412;139.341;-0.0222903;-0.0203799;0.0112106;-0.0024988;0.0759952;-0.00798723;-0.0426635;0;0.0567277;-1.27051;-3.75591;-1.46705;4.22768;-7.0998;-0.0230553;0.0023869;0.106951;0.106995;-0.0230992;0.0650469;0.215569;4.63888;0.0801469;0.0867292;4.63198;0.215891;95.6455;140.646;-0.0148046;-0.0230803;0.013457;-0.00738327;0.106872;0.000436904;0.0849187;0;0.107256;3.36986
732000;733;28.9337;3.12816;0.121221;-2.935;28.7757;-0.71029;-0.540999;3.08436;-1.09796;-0.731386;-0.66633;-0.342545;1.04702;-6.28569;-0.0202674;0.0039087;0.0767275;0.0768848;-0.0204246;0.0486547;0.264147;3.78577;0.0592501;0.0648729;3.76432;0.265652;94.2795;139.279;-0.0235219;-0.0202629;0.0110249;-0.00256658;0.0766782;-0.00865721;-0.039861;0;0.0551394;-1.27117;-3.76085;-1.47314;4.23438;-7.10386;-0.0226213;0.00212236;0.107671;0.107706;-0.0226558;0.0651807;0.210096;4.75972;0.0804265;0.0869076;4.75399;0.21035;95.5366;140.537;-0.016291;-0.0226473;0.0129564;-0.00743752;0.107597;0.00512318;0.0805362;0;0.105939;3.36965
733000;734;28.9454;3.13983;0.121673;-2.93613;28.7873;-0.711599;-0.542124;3.09595;-1.09927;-0.731562;-0.661863;-0.342776;1.04439;-6.28761;-0.0206986;0.00294892;0.0775551;0.0776436;-0.0207871;0.0492153;0.266889;3.74687;0.0599059;0.0656204;3.73519;0.267724;95.2933;140.293;-0.0273697;-0.0207024;0.0106057;-0.00400982;0.077507;-0.00647178;-0.0334005;0;0.0547618;-1.27261;-3.77144;-1.47691;4.24553;-7.1127;-0.022421;0.00174529;0.105813;0.105836;-0.0224448;0.0641405;0.211894;4.71934;0.0791077;0.0855207;4.71541;0.212071;96.1946;141.195;-0.0212193;-0.0224555;0.0132119;-0.00839178;0.105735;0.0035417;0.0820221;0;0.113045;3.3802
734000;735;28.9571;3.15162;0.12213;-2.93672;28.7991;-0.711785;-0.542718;3.10774;-1.09946;-0.730763;-0.657867;-0.340022;1.04039;-6.2833;-0.0209881;0.00262803;0.0752277;0.0752995;-0.0210598;0.0481796;0.278994;3.5843;0.0584972;0.0642395;3.5755;0.279681;95.7625;140.763;-0.027174;-0.0209941;0.0102588;-0.00432007;0.075182;-0.00553644;-0.0180131;0;0.0588121;-1.27271;-3.77594;-1.47092;4.24749;-7.10164;-0.0220393;0.00226391;0.108369;0.108409;-0.0220786;0.0652437;0.203372;4.91709;0.0806458;0.0869916;4.91012;0.203661;95.8826;140.883;-0.025596;-0.0220701;0.0139893;-0.00808211;0.108283;0.0164457;0.0902476;0;0.107656;3.3712
735000;736;28.97;3.16447;0.122628;-2.938;28.8119;-0.709399;-0.544001;3.12058;-1.09707;-0.729679;-0.655431;-0.341684;1.03864;-6.2782;-0.0214827;0.00218334;0.073908;0.073958;-0.0215327;0.0477453;0.290668;3.44035;0.0578348;0.0636604;3.43469;0.291147;95.3239;140.324;-0.0192977;-0.0214879;0.00882637;-0.00386969;0.073874;0.00139095;-0.0267712;0;0.0572261;-1.27286;-3.77954;-1.4758;4.25242;-7.10348;-0.0219278;0.00349633;0.11002;0.110113;-0.0220204;0.0660665;0.199308;5.01736;0.0817432;0.0880887;5.00047;0.199981;95.3579;140.358;-0.0223736;-0.0219471;0.0154751;-0.00705893;0.109918;0.0207851;0.093888;0;0.11306;3.36815
736000;737;;;;;;;;;;-0.72948;-0.651586;-0.347304;1.03794;-6.28382;-0.0222901;0.00306435;0.0737916;0.0738892;-0.0223877;0.0481385;0.302068;3.31051;0.0581761;0.0641846;3.30043;0.30299;94.8917;139.892;-0.0188604;-0.0222898;0.00967346;-0.0029535;0.0737524;-0.00439861;-0.0328526;0;0.0563563;-1.27347;-3.78747;-1.48285;4.2621;-7.11348;-0.0221978;0.00340684;0.110383;0.110471;-0.0222853;0.0663781;0.201097;4.97271;0.0820902;0.0885041;4.95712;0.20173;95.0898;140.09;-0.0200049;-0.0222145;0.0148331;-0.00665546;0.11029;0.0205354;0.102838;0;0.119215;3.37987
737000;738;;;;;;;;;;-0.728324;-0.646947;-0.34625;1.03387;-6.28276;-0.02198;0.00310493;0.0733626;0.0734636;-0.022081;0.0477723;0.299608;3.3377;0.0577605;0.0636964;3.327;0.300571;94.5976;139.598;-0.0169126;-0.0219787;0.00943595;-0.00266384;0.0733256;-0.00625477;-0.0325745;0;0.0565858;-1.2738;-3.79749;-1.48277;4.27108;-7.11657;-0.0226524;0.00225337;0.108574;0.108613;-0.0226911;0.065652;0.208635;4.79305;0.0810382;0.087536;4.78659;0.208917;95.6264;140.626;-0.0185936;-0.0226795;0.0134542;-0.00762181;0.108495;0.00608506;0.114764;0;0.114056;3.37857
738000;739;29.0063;3.20073;0.124033;-2.94035;28.8479;-0.717587;-0.546346;3.1566;-1.10526;-0.728834;-0.641301;-0.344818;1.03023;-6.28133;-0.0215911;0.00350268;0.0717394;0.0718706;-0.0217223;0.0467965;0.300965;3.32264;0.0565624;0.0623953;3.30861;0.302242;94.2961;139.296;-0.015776;-0.0215871;0.00965386;-0.00211295;0.0717016;-0.0129639;-0.0318788;0;0.0588192;-1.27466;-3.79955;-1.48206;4.27292;-7.10974;-0.0219429;0.00311254;0.109914;0.109988;-0.0220163;0.0660021;0.199636;5.00911;0.0816594;0.0880028;4.99573;0.200171;95.2852;140.285;-0.0186606;-0.0219634;0.0146432;-0.00704862;0.109822;0.0108616;0.101242;0;0.121643;3.36557
739000;740;29.013;3.2075;0.124295;-2.94081;28.8546;-0.720652;-0.546806;3.16328;-1.10832;-0.727765;-0.637831;-0.346885;1.02801;-6.2834;-0.0214826;0.00415036;0.0706224;0.070809;-0.0216693;0.0462391;0.30419;3.28742;0.0558484;0.0616522;3.26772;0.306024;94.1978;139.198;-0.0165467;-0.0214752;0.0104921;-0.00164596;0.070579;-0.0133719;-0.0254333;0;0.0558818;-1.27497;-3.80625;-1.48361;4.27951;-7.11128;-0.0222282;0.00331261;0.110135;0.110218;-0.022311;0.0662645;0.201826;4.95476;0.0819346;0.0883527;4.94007;0.202426;94.7587;139.759;-0.0151853;-0.0222418;0.0140367;-0.00613313;0.110051;0.00573211;0.0842245;0;0.107084;3.36958
740000;741;29.0252;3.21965;0.124766;-2.94082;28.8668;-0.719944;-0.546816;3.17552;-1.10762;-0.727818;-0.635818;-0.343738;1.02574;-6.28025;-0.0215785;0.00413538;0.0707851;0.0709699;-0.0217633;0.0463666;0.304845;3.28035;0.0559957;0.0618221;3.26099;0.306655;93.7129;138.713;-0.0148995;-0.0215705;0.01;-0.00122353;0.0707464;-0.0123789;-0.0292666;0;0.0592259;-1.27574;-3.81758;-1.48276;4.28953;-7.11043;-0.021831;0.00345284;0.110355;0.110445;-0.0219211;0.0661831;0.197825;5.05497;0.0819207;0.0882442;5.0383;0.19848;95.0995;140.1;-0.015905;-0.0218479;0.0149844;-0.00670629;0.110259;0.0149356;0.078685;0;0.113399;3.38032
741000;742;29.0382;3.23266;0.12527;-2.94328;28.8797;-0.717961;-0.549278;3.1884;-1.10563;-0.726438;-0.628761;-0.346154;1.02121;-6.28267;-0.0216835;0.00381976;0.0716747;0.0718308;-0.0218395;0.0468351;0.302526;3.3055;0.0565896;0.0624468;3.28903;0.304041;94.2013;139.201;-0.0159806;-0.0216778;0.010048;-0.00186601;0.0716344;-0.00934162;-0.0274375;0;0.0549025;-1.27546;-3.82498;-1.4853;4.29691;-7.11602;-0.0226038;0.00233472;0.108552;0.108593;-0.0226453;0.0656192;0.208231;4.80237;0.0810059;0.0874923;4.79539;0.208533;95.7097;140.71;-0.0193374;-0.0226315;0.0137491;-0.00772944;0.108469;0.00625291;0.0851588;0;0.123585;3.36705
742000;743;29.0484;3.24286;0.125665;-2.945;28.8896;-0.724348;-0.550999;3.19832;-1.11202;-0.726574;-0.622782;-0.353333;1.0201;-6.28985;-0.0222573;0.00330758;0.0720924;0.0722082;-0.0223731;0.0472907;0.308733;3.23905;0.0570774;0.0630542;3.22746;0.309841;94.5902;139.59;-0.0163756;-0.0222547;0.00957309;-0.00240665;0.0720548;-0.00749603;-0.0233763;0;0.053882;-1.27713;-3.82586;-1.49407;4.30122;-7.12174;-0.0219197;0.00342593;0.110919;0.111007;-0.022008;0.0665076;0.197619;5.06025;0.0823273;0.0886769;5.04396;0.198257;95.2511;140.251;-0.0212855;-0.0219387;0.0152682;-0.00700064;0.110819;0.0155408;0.0896753;0;0.11377;3.36517
743000;744;29.064;3.25848;0.126271;-2.94657;28.9053;-0.720482;-0.552568;3.21396;-1.10815;-0.726712;-0.620609;-0.350789;1.018;-6.2873;-0.0218691;0.00375934;0.0717318;0.0718826;-0.0220198;0.0469512;0.304872;3.28006;0.0567051;0.0626016;3.26445;0.30633;94.2649;139.265;-0.0158848;-0.0218637;0.00999232;-0.0019294;0.0716918;-0.0117725;-0.0231383;0;0.0572078;-1.27871;-3.83582;-1.49377;4.31045;-7.12145;-0.0219347;0.00349843;0.111402;0.111494;-0.0220264;0.0667602;0.196896;5.07882;0.0826556;0.0890136;5.06183;0.197557;95.478;140.478;-0.0242739;-0.0219564;0.0158742;-0.00739303;0.111294;0.0174325;0.0956726;0;0.108173;3.38023
744000;745;;;;;;;;;;-0.727118;-0.616711;-0.347469;1.01477;-6.28398;-0.0214562;0.00398901;0.0745528;0.0747183;-0.0216217;0.04817;0.287799;3.47465;0.0583699;0.0642266;3.45571;0.289376;93.1439;138.144;-0.0157981;-0.0214487;0.00955662;-0.00108125;0.0745177;-0.00132702;-0.0402251;0;0.0504004;-1.27972;-3.84351;-1.49677;4.31863;-7.12739;-0.022054;0.00342155;0.111614;0.111702;-0.0221415;0.0669215;0.197592;5.06094;0.0828405;0.0892287;5.04489;0.19822;94.7975;139.797;-0.0217473;-0.0220684;0.0144926;-0.00631853;0.111525;0.0137731;0.109094;0;0.117241;3.37221
745000;746;29.0869;3.28139;0.127159;-2.94909;28.928;-0.723924;-0.555083;3.23666;-1.1116;-0.726365;-0.610809;-0.355934;1.0136;-6.28917;-0.0222203;0.00298179;0.0735868;0.0736795;-0.022313;0.0479962;0.301961;3.31169;0.0580059;0.063995;3.30209;0.302839;92.8478;137.848;-0.017052;-0.0222164;0.00747751;-0.00111278;0.0735649;0.0142343;-0.0321628;0;0.0505567;-1.27931;-3.8465;-1.50072;4.32254;-7.1284;-0.0218536;0.0028169;0.111011;0.11107;-0.0219133;0.0664918;0.19686;5.07975;0.0823292;0.0886557;5.06863;0.197292;95.6961;140.696;-0.0197125;-0.0218816;0.0150168;-0.00792432;0.110913;0.00813316;0.101091;0;0.114209;3.3594
746000;747;29.0963;3.29073;0.12752;-2.9484;28.9374;-0.724871;-0.554394;3.24609;-1.11254;-0.724156;-0.606384;-0.357058;1.00975;-6.29029;-0.0213905;0.00178058;0.0761119;0.0761444;-0.021423;0.0487837;0.28104;3.55821;0.0592102;0.065045;3.55432;0.281347;93.7875;138.788;-0.0165332;-0.0213929;0.00679777;-0.00278206;0.0760919;-0.00875236;-0.00432481;0;0.0571005;-1.27791;-3.85149;-1.50365;4.32759;-7.13133;-0.021989;0.003363;0.111469;0.111553;-0.0220737;0.0668136;0.197266;5.06931;0.0827146;0.0890848;5.05369;0.197875;95.4067;140.407;-0.017104;-0.0220106;0.0154997;-0.00731677;0.111366;0.00806207;0.105067;0;0.115647;3.36634
747000;748;29.1074;3.3019;0.127953;-2.94985;28.9485;-0.724893;-0.55585;3.25718;-1.11257;-0.724793;-0.603195;-0.356537;1.00811;-6.28977;-0.0225343;0.00404098;0.0730998;0.0732703;-0.0227047;0.0479875;0.308267;3.24394;0.057918;0.0639833;3.22709;0.309876;92.8291;137.829;-0.0179342;-0.0225261;0.00906602;-0.000536308;0.0730691;0.000173279;-0.0269527;0;0.0532765;-1.27991;-3.86369;-1.50006;4.33779;-7.12774;-0.0220432;0.00369497;0.110811;0.110913;-0.0221459;0.0665296;0.198927;5.02697;0.0823232;0.0887062;5.00829;0.199669;95.034;140.034;-0.0165933;-0.0220581;0.0153198;-0.00653993;0.110711;0.0106829;0.0839695;0;0.116972;3.37846
748000;749;29.1169;3.3114;0.128321;-2.95019;28.9579;-0.727897;-0.556191;3.26661;-1.11557;-0.724609;-0.596623;-0.3591;1.00497;-6.29234;-0.0214385;0.00424296;0.0725142;0.0727055;-0.0216297;0.0471676;0.295645;3.38243;0.0570634;0.0628901;3.36137;0.297498;91.6009;136.601;-0.0181895;-0.0214294;0.00827047;0.000568214;0.0724907;0.0185381;-0.0367851;0;0.0551842;-1.27997;-3.8677;-1.50525;4.34318;-7.13293;-0.0218374;0.00383821;0.111174;0.111285;-0.021948;0.0666164;0.196425;5.09101;0.0824851;0.0888219;5.07038;0.197224;94.742;139.742;-0.0150978;-0.0218488;0.0151158;-0.00608982;0.111078;0.0122518;0.08176;0;0.119754;3.36113
749000;750;29.1273;3.32174;0.128722;-2.95112;28.9682;-0.72728;-0.557122;3.27694;-1.11495;-0.724614;-0.591455;-0.360357;1.00237;-6.29687;-0.0221836;0.00386821;0.0732197;0.0733763;-0.0223402;0.0478582;0.302973;3.30062;0.0578212;0.063811;3.2845;0.304461;94.0004;139;-0.0179178;-0.0221775;0.0100122;-0.00172969;0.0731799;-0.00699941;-0.0322891;0;0.0591721;-1.28165;-3.87608;-1.50721;4.35182;-7.13793;-0.021901;0.00245896;0.109526;0.109572;-0.021947;0.0657596;0.199961;5.00098;0.0813566;0.0876795;4.99259;0.200297;96.001;141.001;-0.0201851;-0.0219336;0.0147268;-0.00835597;0.109431;0.0159587;0.0907222;0;0.121258;3.36366
750000;751;29.1399;3.33438;0.129212;-2.9522;28.9808;-0.730861;-0.558199;3.28944;-1.11853;-0.724307;-0.58654;-0.36472;1.00084;-6.30123;-0.0223006;0.00510508;0.0720383;0.0723138;-0.022576;0.0474449;0.309565;3.23034;0.0572384;0.0632599;3.20313;0.312195;93.427;138.427;-0.0191815;-0.0222874;0.0112793;-0.000525993;0.0719912;-0.0080784;-0.0195329;0;0.0596748;-1.28248;-3.88158;-1.51214;4.35867;-7.13981;-0.0217132;0.00390219;0.112089;0.112202;-0.0218269;0.0670146;0.193715;5.16223;0.0830389;0.0893528;5.14054;0.194532;95.0049;140.005;-0.0201409;-0.0217277;0.0158408;-0.00660041;0.111983;0.0196722;0.0937735;0;0.124737;3.37795
751000;752;29.155;3.34946;0.129796;-2.95397;28.9957;-0.731693;-0.559967;3.30441;-1.11937;-0.723065;-0.580204;-0.366491;0.996883;-6.303;-0.0217689;0.00482552;0.0720715;0.072319;-0.0220164;0.0471677;0.302046;3.31075;0.0569872;0.0628903;3.28477;0.304435;93.0622;138.062;-0.0169162;-0.0217571;0.0105583;-0.000405618;0.0720304;-0.00186372;-0.0391358;0;0.0588946;-1.28269;-3.88798;-1.51992;4.36713;-7.15045;-0.0221725;0.00424219;0.112635;0.112768;-0.0223058;0.067537;0.196853;5.07994;0.0836118;0.0900494;5.05555;0.197803;95.5413;140.541;-0.0156521;-0.022191;0.01745;-0.00736594;0.112506;0.01096;0.101265;0;0.120324;3.36694
752000;753;29.168;3.36252;0.130302;-2.95578;29.0087;-0.728921;-0.561779;3.31742;-1.11659;-0.722388;-0.575077;-0.367673;0.993852;-6.30419;-0.0220732;0.00565766;0.0703249;0.0706701;-0.0224184;0.0465442;0.313875;3.18598;0.0560997;0.062059;3.15233;0.317226;92.8493;137.849;-0.0153265;-0.0220569;0.0114712;0.000345813;0.0702784;-0.01736;-0.0287318;0;0.0607945;-1.28315;-3.89592;-1.52251;4.37524;-7.15777;-0.0230387;0.00258331;0.110459;0.110509;-0.0230887;0.0667988;0.208572;4.7945;0.0824535;0.0890651;4.78629;0.20893;96.7763;141.776;-0.0172988;-0.0230814;0.0163137;-0.00949678;0.110342;0.00490732;0.107961;0;0.113885;3.36078
753000;754;29.1808;3.37527;0.130796;-2.95451;29.0215;-0.734533;-0.560507;3.33023;-1.12221;-0.722231;-0.571138;-0.36617;0.990907;-6.30268;-0.0207449;0.00581743;0.0709206;0.0712884;-0.0211126;0.0462005;0.292508;3.41871;0.0559081;0.0616006;3.37658;0.296158;91.6097;136.61;-0.0143861;-0.0207284;0.0107763;0.00128289;0.0708822;-0.00375219;-0.0435848;0;0.0544304;-1.2837;-3.9035;-1.52306;4.38234;-7.15832;-0.02288;0.00206521;0.109635;0.109667;-0.0229121;0.0662897;0.208692;4.79175;0.0818252;0.0883863;4.78643;0.208924;97.0884;142.088;-0.0148076;-0.0229298;0.0158571;-0.0100799;0.109524;-0.000841202;0.110729;0;0.119548;3.36806
754000;755;29.1919;3.3864;0.131228;-2.9547;29.0326;-0.738473;-0.560694;3.34126;-1.12298;-0.723556;-0.568141;-0.363738;0.989254;-6.30025;-0.0213463;0.00523198;0.0703759;0.0706734;-0.0216438;0.0461586;0.303318;3.29687;0.0557487;0.0615448;3.2653;0.306251;92.5575;137.558;-0.0167463;-0.0213324;0.0106322;0.000294382;0.0703359;0.00130748;-0.0392194;0;0.0561291;-1.28571;-3.91164;-1.51946;4.38894;-7.15435;-0.0223176;0.00415471;0.113284;0.113411;-0.0224448;0.067928;0.197006;5.07599;0.0840935;0.0905706;5.0529;0.197906;95.0827;140.083;-0.00371322;-0.0223316;0.0164886;-0.00667732;0.11317;-0.00806225;0.0926165;0;0.121214;3.37114
755000;756;29.2021;3.39664;0.131625;-2.95465;29.0429;-0.739138;-0.560647;3.35154;-1.12364;-0.722671;-0.562351;-0.362681;0.984901;-6.29919;-0.0217702;0.00568776;0.0692783;0.0696322;-0.0221241;0.0458782;0.314242;3.18226;0.0552918;0.0611709;3.14735;0.317728;92.6244;137.624;-0.0177651;-0.0217538;0.0112616;0.000588365;0.0692341;-0.00720068;-0.0270849;0;0.0585491;-1.28583;-3.91964;-1.52376;4.39759;-7.16469;-0.0227943;0.00215538;0.110071;0.110106;-0.0228293;0.0664677;0.207087;4.82889;0.0820791;0.0886237;4.82303;0.207338;96.8517;141.852;-0.0130611;-0.0228405;0.0156683;-0.0097405;0.109963;0.00752254;0.0934499;0;0.119636;3.36057
756000;757;29.2134;3.40793;0.132062;-2.95662;29.0541;-0.737292;-0.562617;3.36278;-1.12496;-0.720417;-0.556168;-0.370184;0.982527;-6.3067;-0.0216089;0.00567763;0.069748;0.0700995;-0.0219604;0.0460299;0.309815;3.22773;0.0555202;0.0613733;3.19208;0.313276;92.2857;137.286;-0.014465;-0.0215928;0.0109922;0.00081682;0.0697065;-0.00900567;-0.0274031;0;0.0579262;-1.28376;-3.92045;-1.52461;4.398;-7.15229;-0.0215729;0.00420796;0.113271;0.113402;-0.0217041;0.0675531;0.190454;5.2506;0.0837785;0.0900708;5.22491;0.191391;94.6439;139.644;-0.0189871;-0.0215826;0.0158736;-0.00604512;0.113166;0.0164718;0.0869697;0;0.119513;3.36376
757000;758;29.2267;3.42122;0.132577;-2.95672;29.0674;-0.739938;-0.562719;3.37607;-1.12761;-0.721827;-0.554544;-0.366801;0.981375;-6.30004;-0.022302;0.005835;0.0694388;0.0698084;-0.0226716;0.04624;0.321174;3.11357;0.0556572;0.0616534;3.07912;0.324769;90.5359;135.536;-0.015961;-0.0222876;0.00952245;0.0024638;0.0694123;0.00375218;-0.0286205;0;0.0529108;-1.2859;-3.93043;-1.52135;4.4064;-7.14903;-0.0211139;0.00471066;0.114024;0.114188;-0.0212779;0.0677331;0.185171;5.40043;0.08412;0.0903108;5.36651;0.186341;94.6053;139.605;-0.0220188;-0.0211208;0.0168629;-0.00596795;0.113907;0.0247514;0.0920466;0;0.128053;3.37398
758000;759;29.237;3.43151;0.132976;-2.96046;29.0773;-0.739986;-0.566457;3.38604;-1.12766;-0.720845;-0.547943;-0.369159;0.977823;-6.3024;-0.0219862;0.00619399;0.0689022;0.0693224;-0.0224064;0.0458644;0.319093;3.13388;0.0552204;0.0611526;3.09387;0.32322;90.1716;135.172;-0.0162979;-0.021971;0.00976556;0.00292605;0.0688756;0.00735084;-0.0313845;0;0.0580156;-1.28632;-3.93842;-1.52754;4.41579;-7.16039;-0.0225329;0.00369756;0.112609;0.11271;-0.022634;0.0676722;0.200098;4.99756;0.0837111;0.0902295;4.9797;0.200815;95.9495;140.95;-0.0116987;-0.0225598;0.0171754;-0.00814368;0.112483;0.000678922;0.0921344;0;0.134291;3.36059
759000;760;29.25;3.44452;0.13348;-2.96101;29.0904;-0.739046;-0.567009;3.39908;-1.12672;-0.721161;-0.542583;-0.372987;0.976519;-6.30622;-0.0219138;0.00704159;0.0694981;0.0700373;-0.022453;0.0462452;0.315315;3.17143;0.0557052;0.0616602;3.11928;0.320587;89.9007;134.901;-0.0151789;-0.0218949;0.0108725;0.00353801;0.069466;-0.00286971;-0.0257643;0;0.0564987;-1.28791;-3.94489;-1.53304;4.42392;-7.1683;-0.0223152;0.0026109;0.110861;0.110912;-0.0223664;0.0666391;0.201291;4.96794;0.0824146;0.0888521;4.95886;0.201659;96.4995;141.5;-0.017404;-0.0223551;0.0160359;-0.00920503;0.110748;0.00821937;0.112072;0;0.13036;3.35888
760000;761;29.2665;3.46094;0.134116;-2.96217;29.1068;-0.738594;-0.568169;3.41549;-1.12627;-0.720519;-0.536637;-0.37521;0.973606;-6.30845;-0.0220736;0.00667681;0.070194;0.0706746;-0.0225542;0.0466144;0.314466;3.18;0.0561649;0.0621526;3.13354;0.319128;89.849;134.849;-0.0157226;-0.0220567;0.0102658;0.00339721;0.0701656;0.00528481;-0.0257925;0;0.0602514;-1.28813;-3.95112;-1.53556;4.43041;-7.17082;-0.0229838;0.00262305;0.112486;0.112536;-0.0230346;0.0677855;0.204327;4.89412;0.0837649;0.0903807;4.88554;0.204686;97.0037;142.004;-0.0178584;-0.0230328;0.0171378;-0.0101246;0.112357;-0.00135541;0.105749;0;0.133951;3.37236
761000;762;29.2777;3.47216;0.134551;-2.96328;29.118;-0.737511;-0.569273;3.42669;-1.12518;-0.719915;-0.53497;-0.370693;0.970507;-6.30393;-0.0221963;0.00656661;0.0700307;0.0704959;-0.0226615;0.0465787;0.316951;3.15506;0.0560982;0.062105;3.11083;0.321458;90.3789;135.379;-0.0154485;-0.0221786;0.0105581;0.00291908;0.0699988;-0.00203569;-0.0192956;0;0.063939;-1.289;-3.96226;-1.53233;4.43948;-7.16759;-0.0227413;0.00281814;0.11159;0.111649;-0.0228004;0.0672249;0.203793;4.90694;0.0830826;0.0896333;4.89681;0.204214;97.0358;142.036;-0.0163322;-0.0227889;0.0174498;-0.0100458;0.111457;0.00043111;0.106063;0;0.124512;3.36398
762000;763;29.2881;3.48258;0.134955;-2.96207;29.1285;-0.74103;-0.568071;3.4372;-1.1287;-0.721349;-0.530361;-0.368929;0.968368;-6.30217;-0.0217469;0.00630984;0.0700588;0.0704904;-0.0221785;0.0463345;0.310409;3.22156;0.0558735;0.0617793;3.17832;0.314632;90.4477;135.448;-0.0176838;-0.0217302;0.0102766;0.00268335;0.070028;0.00798004;-0.0308087;0;0.0604441;-1.29123;-3.96726;-1.53064;4.44402;-7.1659;-0.022622;0.00253717;0.112097;0.112145;-0.0226697;0.0674072;0.201807;4.95522;0.0833536;0.0898762;4.94689;0.202147;96.8376;141.838;-0.0155399;-0.0226687;0.0166713;-0.00988512;0.111975;-0.00481286;0.0973226;0;0.120416;3.35413
763000;764;29.2972;3.49168;0.135307;-2.96293;29.1376;-0.741632;-0.568929;3.44624;-1.1293;-0.71824;-0.523094;-0.375236;0.964519;-6.31175;-0.021271;0.00575515;0.0703866;0.0707465;-0.021631;0.0461888;0.302203;3.30904;0.0557904;0.061585;3.27061;0.305753;92.1142;137.114;-0.0177697;-0.0212545;0.0110513;0.000912341;0.070345;0.001766;-0.0337632;0;0.0581421;-1.28931;-3.97153;-1.53857;4.45;-7.1708;-0.0227357;0.00207694;0.111169;0.111201;-0.0227679;0.0669846;0.204515;4.88963;0.0827739;0.0893128;4.88412;0.204745;97.73;142.73;-0.0216647;-0.0227995;0.0173528;-0.0113585;0.111036;0.0133718;0.10095;0;0.126683;3.36468
764000;765;29.3128;3.50725;0.135911;-2.96329;29.1532;-0.739965;-0.569286;3.46191;-1.12764;-0.717562;-0.517093;-0.38003;0.962654;-6.32016;-0.021289;0.00641263;0.0717081;0.0721482;-0.0217291;0.0469386;0.296883;3.36832;0.0567459;0.0625848;3.32036;0.301172;91.3487;136.349;-0.020444;-0.0212696;0.0114463;0.00181565;0.0716662;0.000219081;-0.0418724;0;0.060267;-1.28939;-3.98311;-1.53975;4.46077;-7.17501;-0.0225771;0.00324229;0.111808;0.111886;-0.0226553;0.0672705;0.201928;4.95226;0.0831772;0.089694;4.93862;0.202486;96.5733;141.573;-0.0134394;-0.0226151;0.0174063;-0.00921024;0.111676;0.00168669;0.0859753;0;0.131084;3.36789
765000;766;29.3218;3.5163;0.136261;-2.96399;29.1621;-0.746549;-0.569987;3.47076;-1.13422;-0.717026;-0.512548;-0.376084;0.958265;-6.3126;-0.0208298;0.00647315;0.0703255;0.0707829;-0.0212872;0.046035;0.296191;3.37619;0.0556582;0.06138;3.32514;0.300739;91.1929;136.193;-0.0186384;-0.0208104;0.0113697;0.00199345;0.0702847;0.00353096;-0.0424539;0;0.0608825;-1.28961;-3.98366;-1.54053;4.4616;-7.17106;-0.0220392;0.00487875;0.115024;0.115197;-0.0222127;0.0687048;0.191606;5.21903;0.0851733;0.0916065;5.18609;0.192823;94.5389;139.539;-0.0107974;-0.022044;0.0170048;-0.00575728;0.114905;0.0026433;0.0840982;0;0.129411;3.3548
766000;767;29.3337;3.52821;0.136723;-2.96534;29.1739;-0.746136;-0.571336;3.48262;-1.13381;-0.71599;-0.506637;-0.383882;0.957438;-6.32039;-0.0204399;0.00701555;0.0691716;0.0697175;-0.0209858;0.0453517;0.295496;3.38415;0.0548291;0.0604689;3.32213;0.301012;90.5572;135.557;-0.017155;-0.0204188;0.0116171;0.00279958;0.0691315;0.00114914;-0.0415077;0;0.0607532;-1.28965;-3.98843;-1.55011;4.46919;-7.18064;-0.0218489;0.00531794;0.115651;0.115856;-0.0220542;0.0689552;0.188921;5.29322;0.0855418;0.0919402;5.25324;0.190359;94.9676;139.968;-0.0124351;-0.0218556;0.0187324;-0.00644398;0.115506;-0.00185898;0.0875922;0;0.133181;3.35709
767000;768;29.3488;3.5433;0.137308;-2.96672;29.1892;-0.734788;-0.57272;3.49793;-1.12246;-0.716819;-0.503543;-0.382987;0.956067;-6.3195;-0.0203515;0.00703093;0.0694357;0.069983;-0.0208987;0.0454408;0.293098;3.41183;0.0549623;0.0605878;3.34868;0.298626;90.5227;135.523;-0.0185536;-0.0203303;0.0116352;0.00281308;0.0693955;0.00627301;-0.0406649;0;0.0609028;-1.29195;-4.00126;-1.55189;4.48192;-7.18715;-0.0226008;0.00348994;0.113361;0.11345;-0.0226903;0.0680703;0.199371;5.01578;0.084222;0.0907604;4.99994;0.200002;96.2241;141.224;-0.0153934;-0.0226336;0.017418;-0.00873781;0.11323;0.00326105;0.0989758;0;0.140806;3.36753
768000;769;29.3621;3.55661;0.137824;-2.96782;29.2024;-0.738543;-0.57382;3.51111;-1.12622;-0.717037;-0.496918;-0.3891;0.955233;-6.32234;-0.0205379;0.00853727;0.0684813;0.0692927;-0.0213493;0.045321;0.299905;3.33439;0.0547179;0.0604279;3.24567;0.308103;87.8838;132.884;-0.0145952;-0.0205179;0.0115128;0.00580958;0.0684534;0.00575885;-0.0346845;0;0.0572498;-1.29174;-4.00216;-1.55757;4.48463;-7.1881;-0.0226988;0.00522905;0.116994;0.11719;-0.0228943;0.0700419;0.194017;5.15419;0.0867705;0.0933892;5.11872;0.195361;95.2221;140.222;-0.0164677;-0.0227092;0.0190925;-0.00690138;0.116843;0.00424394;0.098543;0;0.138487;3.35479
769000;770;29.3703;3.56478;0.13814;-2.96833;29.2105;-0.743016;-0.574326;3.51916;-1.13069;-0.717286;-0.495438;-0.379213;0.950663;-6.31245;-0.0217979;0.00782382;0.0677802;0.0684584;-0.0224761;0.0454673;0.321598;3.10948;0.0546927;0.060623;3.04582;0.328318;88.6975;133.697;-0.0152435;-0.0217791;0.0109708;0.00494082;0.0677525;0.00541255;-0.0262233;0;0.0671625;-1.29317;-4.01172;-1.55299;4.49199;-7.18825;-0.0227061;0.00315535;0.113923;0.113996;-0.0227789;0.0683875;0.19931;5.01731;0.0846186;0.0911833;5.00446;0.199822;96.9009;141.901;-0.0177364;-0.0227524;0.0181822;-0.0100289;0.113779;0.0034247;0.109782;0;0.128093;3.35187
770000;771;29.3823;3.57681;0.138606;-2.96874;29.2224;-0.746127;-0.574734;3.53113;-1.1338;-0.714997;-0.488816;-0.382224;0.946709;-6.31874;-0.0208976;0.00754931;0.0684623;0.0690956;-0.0215308;0.0453132;0.305242;3.27609;0.0546726;0.0604177;3.20915;0.311609;89.812;134.812;-0.0155897;-0.0208757;0.0116727;0.0037707;0.0684252;-0.000967367;-0.043851;0;0.058555;-1.29279;-4.01597;-1.55235;4.49545;-7.18287;-0.0220824;0.0048694;0.116534;0.116704;-0.0222533;0.0694789;0.189494;5.27721;0.0861838;0.0926385;5.24438;0.19068;95.0296;140.03;-0.0181393;-0.0220935;0.0181118;-0.00672961;0.116397;0.00447229;0.102839;0;0.124797;3.3652
771000;772;29.395;3.58943;0.139095;-2.96823;29.2352;-0.746588;-0.574232;3.54386;-1.13426;-0.714661;-0.482683;-0.389308;0.946194;-6.32582;-0.0211643;0.00750168;0.069292;0.0699099;-0.0217822;0.0458461;0.305437;3.274;0.0553159;0.0611281;3.20949;0.311576;89.668;134.668;-0.0106763;-0.0211432;0.0114648;0.00387375;0.0692569;-0.00774009;-0.0390894;0;0.0546657;-1.29372;-4.02821;-1.56168;4.50988;-7.19694;-0.022847;0.00274319;0.112098;0.112154;-0.0229027;0.0675282;0.203812;4.90648;0.0834576;0.0900377;4.89697;0.204208;97.2564;142.256;-0.0167168;-0.0228993;0.017796;-0.0104835;0.111959;-0.00343585;0.0811916;0;0.132396;3.36102
772000;773;29.4066;3.60106;0.139546;-2.97008;29.2466;-0.748821;-0.576078;3.55532;-1.13649;-0.714227;-0.474199;-0.393252;0.943203;-6.32976;-0.0205617;0.00757656;0.0696297;0.0702617;-0.0211937;0.0457277;0.2953;3.38638;0.055277;0.0609703;3.31522;0.30164;89.4583;134.458;-0.013129;-0.0205405;0.0114779;0.00400409;0.0695949;-6.16963e-05;-0.0477441;0;0.0591736;-1.29411;-4.0274;-1.5622;4.50945;-7.19272;-0.0221474;0.00512843;0.115961;0.116151;-0.0223375;0.0692443;0.19099;5.23587;0.085854;0.0923257;5.19981;0.192315;95.0852;140.085;-0.0149511;-0.0221567;0.0186066;-0.0066824;0.115817;0.00483826;0.0842202;0;0.128551;3.34943
773000;774;29.4185;3.613;0.140009;-2.97219;29.2585;-0.74522;-0.578187;3.56719;-1.13289;-0.714634;-0.472878;-0.392853;0.942682;-6.32584;-0.0215321;0.00793418;0.0689036;0.0695944;-0.0222229;0.0459087;0.312495;3.20005;0.0553126;0.0612116;3.13166;0.31932;88.3407;133.341;-0.00994318;-0.0215139;0.010879;0.00523846;0.0688777;-0.00826934;-0.0372905;0;0.0579877;-1.29489;-4.03993;-1.5633;4.52125;-7.19856;-0.022464;0.0036072;0.113268;0.113364;-0.0225598;0.0679617;0.198326;5.0422;0.0841103;0.0906156;5.02504;0.199003;96.3721;141.372;-0.0171817;-0.0224984;0.017923;-0.00896376;0.113129;-0.000350744;0.0834466;0;0.138576;3.36112
774000;775;29.4323;3.62681;0.140544;-2.9729;29.2722;-0.749244;-0.578898;3.5809;-1.13692;-0.713942;-0.470126;-0.389592;0.939421;-6.32258;-0.0213672;0.00718656;0.0699578;0.0705198;-0.0219293;0.0462246;0.30543;3.27407;0.0557789;0.0616327;3.21579;0.310966;88.473;133.473;-0.0109985;-0.0213523;0.00986871;0.00473331;0.0699364;-0.000409354;-0.0434882;0;0.056255;-1.29591;-4.04985;-1.56543;4.53114;-7.20069;-0.0223001;0.00367865;0.113554;0.113654;-0.0223996;0.0680266;0.196383;5.09208;0.0842342;0.0907021;5.0739;0.197087;96.2916;141.292;-0.0165249;-0.0223334;0.0179695;-0.00886923;0.113415;0.000518181;0.0892817;0;0.141336;3.36367
775000;776;29.4463;3.64075;0.141084;-2.97403;29.2864;-0.73965;-0.58003;3.59505;-1.12732;-0.713392;-0.46112;-0.396311;0.937349;-6.3293;-0.0214539;0.0072809;0.0699781;0.0705542;-0.0220301;0.0462922;0.306581;3.26178;0.0558472;0.0617229;3.20263;0.312244;88.8065;133.806;-0.0117649;-0.0214372;0.0103135;0.00450737;0.0699531;-0.00153043;-0.0434543;0;0.0581627;-1.29661;-4.05388;-1.56997;4.53652;-7.20523;-0.0223008;0.00362759;0.113981;0.114078;-0.0223973;0.0682374;0.195653;5.11108;0.0845126;0.0909833;5.09337;0.196334;96.7865;141.787;-0.0212796;-0.022343;0.0189015;-0.00977838;0.113827;0.00936695;0.0912785;0;0.145014;3.34793
776000;777;29.4578;3.65231;0.141532;-2.97569;29.2978;-0.739827;-0.581691;3.6065;-1.1275;-0.712648;-0.4557;-0.398885;0.935222;-6.33212;-0.0212108;0.00852359;0.0680056;0.0688127;-0.0220178;0.0454153;0.311898;3.20618;0.0547117;0.0605537;3.12532;0.319968;87.9936;132.994;-0.0156108;-0.0211908;0.0115059;0.00579036;0.0679777;0.000511832;-0.0305502;0;0.0642704;-1.29723;-4.05947;-1.57542;4.54357;-7.21155;-0.0228238;0.00179237;0.112843;0.112867;-0.0228475;0.0678572;0.202261;4.9441;0.0839038;0.0904762;4.94001;0.202429;97.4285;142.428;-0.0148879;-0.0228858;0.0165348;-0.0111531;0.112722;0.00134643;0.107067;0;0.138202;3.34988
777000;778;29.4694;3.6639;0.141981;-2.97618;29.3095;-0.737743;-0.582178;3.61816;-1.12542;-0.712386;-0.451025;-0.397649;0.932224;-6.33762;-0.0211841;0.00790608;0.0698857;0.070567;-0.0218653;0.0462161;0.303125;3.29897;0.0557804;0.0616215;3.22734;0.309852;89.9231;134.923;-0.0144464;-0.0211596;0.012359;0.00383206;0.0698435;-0.0182968;-0.0444217;0;0.0615057;-1.29742;-4.06724;-1.57068;4.54893;-7.2065;-0.022788;0.00411945;0.115025;0.115148;-0.022911;0.0690294;0.198114;5.04761;0.0854324;0.0920391;5.02587;0.19897;96.2129;141.213;-0.0148158;-0.022818;0.0187433;-0.00869762;0.114875;-0.00437786;0.112889;0;0.138307;3.36076
778000;779;29.4834;3.67788;0.142523;-2.97506;29.3234;-0.746869;-0.581055;3.6321;-1.13454;-0.711139;-0.443962;-0.401303;0.929443;-6.33762;-0.0208063;0.00611481;0.0710999;0.071505;-0.0212113;0.0463581;0.292634;3.41723;0.0560935;0.0618109;3.37107;0.296641;90.3433;135.343;-0.00903723;-0.0207905;0.010029;0.00253645;0.0710704;-0.0130296;-0.0526046;0;0.0537823;-1.29753;-4.07307;-1.57789;4.55667;-7.21315;-0.0222928;0.0033024;0.114392;0.114472;-0.0223726;0.0684222;0.194881;5.13133;0.084762;0.0912295;5.11661;0.195442;96.7869;141.787;-0.0151675;-0.0223376;0.0183774;-0.00992413;0.114245;0.000370701;0.110583;0;0.130715;3.35059
779000;780;29.4935;3.68797;0.142914;-2.97595;29.3335;-0.746753;-0.581949;3.64215;-1.13443;-0.711317;-0.440048;-0.397105;0.925909;-6.33342;-0.0205414;0.0065404;0.0695473;0.0700197;-0.0210138;0.0455167;0.295359;3.38571;0.0550382;0.060689;3.33208;0.300113;90.4101;135.41;-0.0116925;-0.0205233;0.0107308;0.00270284;0.0695135;-0.0099053;-0.0499418;0;0.0557766;-1.29922;-4.0808;-1.57427;4.56281;-7.20992;-0.0220608;0.00478117;0.115318;0.115484;-0.022227;0.0688557;0.191303;5.2273;0.0853687;0.0918076;5.19569;0.192467;95.3913;140.391;-0.0179089;-0.022076;0.0185089;-0.0072563;0.115175;-0.0051496;0.0937419;0;0.123593;3.34897
780000;781;29.5071;3.70156;0.14344;-2.97666;29.347;-0.747643;-0.582653;3.65572;-1.13532;-0.710625;-0.435505;-0.399128;0.924097;-6.33564;-0.0205936;0.00741807;0.0677573;0.0683758;-0.0212121;0.044794;0.303932;3.29021;0.0540601;0.0597253;3.22343;0.310229;89.6536;134.654;-0.0129358;-0.020573;0.0113349;0.00382519;0.0677229;-0.00476043;-0.0454394;0;0.0564408;-1.29979;-4.08902;-1.57704;4.57128;-7.2123;-0.0222767;0.00354058;0.113774;0.113866;-0.0223687;0.0681173;0.195798;5.10731;0.0843612;0.0908231;5.0904;0.196448;96.5438;141.544;-0.0125159;-0.0223151;0.0182435;-0.00936688;0.11363;-0.00156308;0.0904608;0;0.13828;3.35765
781000;782;29.5198;3.7143;0.143934;-2.9785;29.3595;-0.753052;-0.584501;3.66821;-1.14073;-0.711145;-0.430686;-0.39884;0.922112;-6.33208;-0.0199413;0.00991617;0.0649131;0.0660565;-0.0210847;0.0435706;0.307199;3.25521;0.0524968;0.0580941;3.13292;0.319191;85.2385;130.239;-0.0112097;-0.0199281;0.0114363;0.00851719;0.0648979;0.00151368;-0.0413007;0;0.059942;-1.29981;-4.09241;-1.57865;4.57487;-7.20918;-0.0215371;0.00592226;0.117659;0.11791;-0.0217887;0.0698494;0.183048;5.46306;0.0867863;0.0931326;5.41154;0.18479;94.3997;139.4;-0.0150121;-0.0215348;0.0189983;-0.005526;0.117513;0.00460186;0.0866681;0;0.132884;3.35391
782000;783;29.5308;3.72523;0.144358;-2.9803;29.3703;-0.753288;-0.5863;3.67901;-1.14096;-0.710178;-0.422276;-0.403752;0.919612;-6.34006;-0.0210046;0.00635458;0.0692586;0.0697038;-0.0214498;0.0455768;0.303278;3.29731;0.0550307;0.060769;3.24963;0.307727;89.8008;134.801;-0.00734627;-0.0209892;0.00980492;0.00319544;0.0692325;-0.00849428;-0.0589254;0;0.0541503;-1.30137;-4.09541;-1.58051;4.57864;-7.20748;-0.0205998;0.0065975;0.117865;0.118179;-0.0209135;0.0695462;0.174774;5.72167;0.086603;0.0927283;5.65085;0.176964;93.8768;138.877;-0.0120124;-0.0205883;0.0193624;-0.00458707;0.117717;0.00979378;0.100151;0;0.128404;3.34541
783000;784;29.5433;3.7378;0.144845;-2.98244;29.3829;-0.745581;-0.588435;3.69162;-1.13325;-0.709366;-0.417613;-0.405264;0.917518;-6.34158;-0.0205871;0.00735175;0.0692485;0.0698462;-0.0211848;0.0455155;0.297293;3.36369;0.0550029;0.0606873;3.297;0.303306;89.0252;134.025;-0.00768603;-0.0205689;0.0107061;0.00427913;0.0692202;-0.00865773;-0.0593622;0;0.0536212;-1.30204;-4.1064;-1.58539;4.59035;-7.2171;-0.0212373;0.00371234;0.113857;0.113959;-0.0213393;0.0676491;0.186526;5.36118;0.0839942;0.0901989;5.34034;0.187254;96.288;141.288;-0.0164804;-0.0212723;0.018259;-0.00907066;0.113714;0.0105298;0.104628;0;0.139688;3.3529
784000;785;29.5569;3.75142;0.145373;-2.98332;29.3965;-0.748191;-0.589313;3.70517;-1.13586;-0.708978;-0.410733;-0.409542;0.91601;-6.34585;-0.020837;0.00648781;0.0687343;0.0692018;-0.0213045;0.0452531;0.303153;3.29867;0.0546385;0.0603375;3.24823;0.30786;89.8391;134.839;-0.0105865;-0.0208208;0.0100497;0.00322434;0.0687067;-0.0043926;-0.055837;0;0.0526637;-1.30278;-4.11453;-1.59272;4.60036;-7.22884;-0.0224152;0.00305195;0.113613;0.113681;-0.0224837;0.0680824;0.197295;5.06855;0.0842875;0.0907765;5.05616;0.197778;97.4073;142.407;-0.0175754;-0.0224716;0.0189848;-0.0109353;0.113455;-0.000450889;0.113306;0;0.127548;3.35205
785000;786;29.5682;3.76271;0.14581;-2.98395;29.4078;-0.745162;-0.589951;3.71653;-1.13284;-0.708786;-0.4088;-0.407558;0.914111;-6.34407;-0.0203119;0.00744008;0.0685642;0.0691828;-0.0209304;0.0450566;0.296247;3.37557;0.0544564;0.0600755;3.30536;0.302538;88.7435;133.743;-0.0136848;-0.0202942;0.0106022;0.00454088;0.0685375;0.00715799;-0.0558044;0;0.053924;-1.30305;-4.12029;-1.58914;4.60436;-7.22199;-0.022251;0.00445965;0.117098;0.117241;-0.0223936;0.0698172;0.19002;5.26261;0.0865956;0.0930896;5.23547;0.191005;96.0034;141.003;-0.0128164;-0.0222784;0.0193475;-0.00857179;0.11694;-0.00717132;0.109469;0;0.133565;3.34221
786000;787;29.5795;3.77401;0.146248;-2.9845;29.419;-0.75028;-0.590498;3.72771;-1.13795;-0.707241;-0.405369;-0.403863;0.909736;-6.3371;-0.0199003;0.00893617;0.0671521;0.0680599;-0.0208082;0.044434;0.296347;3.37442;0.0536712;0.0592454;3.27083;0.305733;85.9712;130.971;-0.0138461;-0.0198883;0.0104978;0.00750188;0.0671379;0.0096417;-0.0429661;0;0.0561399;-1.30252;-4.12702;-1.58913;4.61023;-7.22439;-0.0219838;0.00344883;0.114869;0.114956;-0.0220707;0.0685131;0.191382;5.22515;0.084955;0.0913509;5.20852;0.191993;97.1252;142.125;-0.0155563;-0.022035;0.019448;-0.0105871;0.114704;0.000344691;0.119242;0;0.121701;3.34463
787000;788;29.5933;3.78777;0.146781;-2.9846;29.4329;-0.749148;-0.590597;3.74156;-1.13682;-0.707924;-0.400453;-0.405683;0.908899;-6.33892;-0.0206049;0.00949429;0.0658941;0.066924;-0.0216348;0.0442794;0.312698;3.19798;0.0533115;0.0590392;3.09335;0.323274;86.2803;131.28;-0.0130443;-0.0205882;0.0115815;0.00757642;0.0658735;-0.00543216;-0.0313828;0;0.0603898;-1.3036;-4.13529;-1.58528;4.61662;-7.21663;-0.0221493;0.00518415;0.118349;0.11854;-0.0223403;0.0704403;0.187152;5.34325;0.0874302;0.0939204;5.30611;0.188462;94.5493;139.549;-0.00920089;-0.0221537;0.0179361;-0.00596639;0.118217;-0.000654654;0.10166;0;0.129349;3.35161
788000;789;29.6121;3.80666;0.147514;-2.98866;29.4516;-0.743458;-0.594662;3.76024;-1.12796;-0.707831;-0.395369;-0.406184;0.906822;-6.33942;-0.0193577;0.00932914;0.066813;0.0678115;-0.0203562;0.0440838;0.28973;3.45149;0.0533048;0.0587784;3.33125;0.300188;85.4478;130.448;-0.0126225;-0.0193465;0.0107058;0.00806364;0.0668001;0.00450201;-0.0520727;0;0.059591;-1.30452;-4.14194;-1.59069;4.62469;-7.2265;-0.0217508;0.00613452;0.11917;0.119436;-0.0220173;0.0707268;0.182519;5.47888;0.0878875;0.0943024;5.42466;0.184343;94.1011;139.101;-0.0171871;-0.0217445;0.0189154;-0.0050378;0.119027;0.0244613;0.0912781;0;0.13334;3.34083
789000;790;29.6149;3.8094;0.14762;-2.98674;29.4542;-0.75758;-0.592739;3.76288;-1.14525;-0.706958;-0.387725;-0.412327;0.905612;-6.34532;-0.0208353;0.00592548;0.0695288;0.0699157;-0.0212222;0.0455689;0.299664;3.33708;0.055065;0.0607586;3.29447;0.303539;88.4825;133.483;-0.0100934;-0.0208258;0.00794598;0.00407567;0.0695157;-0.00445559;-0.0483736;0;0.0543235;-1.3046;-4.14398;-1.5937;4.62757;-7.22472;-0.0214218;0.00685249;0.119398;0.119731;-0.0217545;0.0707427;0.179415;5.57368;0.0879734;0.0943236;5.50374;0.181695;93.2896;138.29;-0.0101973;-0.021404;0.0186596;-0.00346997;0.119264;0.00548483;0.0898205;0;0.13102;3.34038
790000;791;29.6285;3.82302;0.148147;-2.98788;29.4678;-0.757942;-0.593878;3.77645;-1.14562;-0.707469;-0.384952;-0.413788;0.905495;-6.34702;-0.0193568;0.00832906;0.0665168;0.0673172;-0.0201572;0.0437372;0.291006;3.43635;0.0528934;0.0583163;3.33961;0.299436;85.8149;130.815;-0.0130052;-0.0193484;0.00947457;0.00727578;0.0665072;0.00591827;-0.052522;0;0.0574743;-1.30653;-4.1515;-1.59946;4.63683;-7.22676;-0.020646;0.00692297;0.118545;0.118888;-0.0209895;0.0699389;0.174162;5.74178;0.0871024;0.0932518;5.66419;0.176548;93.4619;138.462;-0.0155037;-0.0206289;0.0191808;-0.0038103;0.118402;0.00843557;0.0995282;0;0.132367;3.34945
791000;792;29.6429;3.83738;0.148704;-2.99009;29.4822;-0.750941;-0.596082;3.79084;-1.13861;-0.706028;-0.378883;-0.411638;0.900818;-6.34487;-0.0196726;0.0080194;0.0667799;0.0675175;-0.0204102;0.0439639;0.294589;3.39456;0.0531381;0.0586185;3.30803;0.302295;86.0178;131.018;-0.0077388;-0.0196648;0.00913656;0.00699277;0.0667709;-0.00463716;-0.0498607;0;0.059579;-1.30647;-4.15875;-1.59591;4.64209;-7.22321;-0.0207559;0.00712766;0.119442;0.119803;-0.0211173;0.0704602;0.173774;5.7546;0.0877589;0.093947;5.67322;0.176267;93.665;138.665;-0.0153149;-0.0207388;0.0200349;-0.00416401;0.119285;0.00786845;0.0941442;0;0.138314;3.34251
792000;793;29.6545;3.84894;0.149152;-2.99103;29.4937;-0.751415;-0.597031;3.80236;-1.13909;-0.706313;-0.373624;-0.414379;0.900102;-6.34762;-0.019686;0.00894552;0.0657106;0.0666377;-0.020613;0.0436253;0.299586;3.33793;0.0526586;0.0581671;3.23279;0.30933;85.5263;130.526;-0.00887881;-0.0196763;0.0101816;0.00780851;0.0656996;-0.00269389;-0.0528188;0;0.0557652;-1.30793;-4.16753;-1.60229;4.65256;-7.23399;-0.0215481;0.0039692;0.115206;0.115322;-0.0216632;0.0684924;0.187039;5.34648;0.085027;0.0913231;5.32339;0.18785;96.8863;141.886;-0.0201587;-0.0215927;0.0200656;-0.0101541;0.115033;0.00402737;0.106992;0;0.143529;3.33627
793000;794;29.6656;3.86005;0.149582;-2.99143;29.5047;-0.754364;-0.597427;3.8134;-1.14204;-0.705329;-0.369734;-0.414667;0.897853;-6.3479;-0.0197542;0.00902675;0.0653689;0.0663156;-0.0207009;0.0435083;0.302195;3.30912;0.0524895;0.058011;3.20352;0.312157;85.1699;130.17;-0.00846159;-0.0197463;0.0100086;0.00812331;0.0653602;-0.00152202;-0.0496912;0;0.0552269;-1.30806;-4.1777;-1.60776;4.66359;-7.24452;-0.0228729;0.00327302;0.115539;0.115617;-0.0229502;0.0692835;0.197966;5.05136;0.0857577;0.092378;5.03771;0.198503;97.4009;142.401;-0.0190903;-0.0229298;0.0196167;-0.0110434;0.115372;0.000814767;0.105636;0;0.126901;3.34605
794000;795;29.6806;3.87513;0.150167;-2.99085;29.5198;-0.759535;-0.596843;3.82849;-1.14721;-0.705729;-0.361178;-0.415997;0.895297;-6.35251;-0.0188483;0.00745875;0.0671858;0.0678276;-0.0194901;0.0436589;0.280539;3.56456;0.0529252;0.0582118;3.4801;0.287348;87.808;132.808;-0.00924552;-0.0188337;0.00992108;0.0051949;0.0671657;-0.0049766;-0.0614059;0;0.0555976;-1.30935;-4.18469;-1.60714;4.67;-7.2424;-0.021735;0.00381094;0.116124;0.116229;-0.0218403;0.0690347;0.187171;5.34271;0.0856989;0.0920462;5.32178;0.187907;96.5918;141.592;-0.0158367;-0.0217763;0.0192933;-0.00975976;0.115964;-0.00288929;0.106437;0;0.125843;3.34442
795000;796;29.692;3.88653;0.150608;-2.99307;29.5311;-0.755381;-0.599069;3.83984;-1.14305;-0.70478;-0.353013;-0.425088;0.895563;-6.36522;-0.0192045;0.0068885;0.0685883;0.0691255;-0.0197417;0.0444336;0.279997;3.57147;0.0538835;0.0592448;3.5015;0.285592;88.7536;133.754;-0.0165446;-0.0191891;0.00986055;0.00416057;0.068565;0.000358651;-0.0650023;0;0.053962;-1.31022;-4.19341;-1.61456;4.68061;-7.25518;-0.0222697;0.00303558;0.113053;0.113121;-0.0223377;0.0677293;0.196985;5.07653;0.0838575;0.0903057;5.06411;0.197468;97.3107;142.311;-0.019562;-0.0223238;0.0186996;-0.0107246;0.1129;-0.00515294;0.0999872;0;0.140663;3.33409
796000;797;29.7112;3.90568;0.151351;-2.9975;29.5499;-0.754747;-0.6035;3.85861;-1.13925;-0.704616;-0.34957;-0.425778;0.89441;-6.36591;-0.0191244;0.00725995;0.0688308;0.0694261;-0.0197196;0.0445728;0.277847;3.59911;0.0540695;0.0594305;3.52066;0.284038;88.2032;133.203;-0.0134268;-0.0191092;0.00994931;0.00479185;0.0688092;-0.00596894;-0.0684455;0;0.0565487;-1.31076;-4.19612;-1.61511;4.68339;-7.25092;-0.0217402;0.00606299;0.119814;0.120073;-0.0219994;0.0710363;0.18145;5.51117;0.0883002;0.094715;5.45802;0.183217;94.5675;139.567;-0.0165694;-0.0217395;0.0198064;-0.005944;0.119655;0.0217835;0.092604;0;0.132924;3.34066
797000;798;29.7166;3.91111;0.151561;-2.99598;29.5552;-0.76957;-0.601982;3.86389;-1.15724;-0.704213;-0.346471;-0.422469;0.891313;-6.35933;-0.0189632;0.0092147;0.0675018;0.0684729;-0.0199343;0.0442036;0.280929;3.55961;0.0535449;0.0589382;3.43492;0.291128;85.0851;130.085;-0.0129497;-0.0189551;0.010211;0.00829906;0.0674927;0.000222172;-0.0585478;0;0.0559593;-1.31115;-4.20506;-1.6159;4.69178;-7.25078;-0.0214894;0.00639939;0.117839;0.118132;-0.0217828;0.0699576;0.182363;5.48358;0.0869304;0.0932768;5.42321;0.184393;94.0186;139.019;-0.0120162;-0.02148;0.0191319;-0.0047469;0.117694;0.0116482;0.0966793;0;0.133673;3.34259
798000;799;29.7303;3.92476;0.15209;-2.99744;29.5688;-0.767381;-0.603441;3.87753;-1.15505;-0.703669;-0.338582;-0.428596;0.890776;-6.36183;-0.0193266;0.0092363;0.0642111;0.0652202;-0.0203356;0.0427779;0.300985;3.32243;0.0516118;0.0570372;3.20719;0.311799;85.0799;130.08;-0.0125647;-0.0193176;0.0103329;0.00822578;0.0642011;0.00184915;-0.0344792;0;0.0578416;-1.3125;-4.20821;-1.62045;4.69654;-7.25176;-0.0207822;0.00648418;0.116813;0.117118;-0.0210871;0.0691024;0.17791;5.62082;0.0859739;0.0921365;5.55401;0.18005;94.4306;139.431;-0.0154687;-0.020776;0.020119;-0.00547172;0.11665;0.0245157;0.100171;0;0.134619;3.3316
799000;800;29.7428;3.93731;0.152576;-2.99981;29.5815;-0.756437;-0.60581;3.89019;-1.14411;-0.703301;-0.331804;-0.433045;0.890087;-6.36628;-0.0188299;0.00839756;0.0650385;0.0658711;-0.0196624;0.0427667;0.289519;3.45401;0.0517292;0.0570223;3.3501;0.298499;85.4805;130.48;-0.00663792;-0.0188225;0.00937942;0.00749301;0.0650303;-0.00783832;-0.0538995;0;0.0592957;-1.31311;-4.21683;-1.62345;4.70548;-7.25909;-0.021407;0.00500451;0.116005;0.116187;-0.021589;0.0688878;0.184536;5.41901;0.0855668;0.0918505;5.38175;0.185813;95.5549;140.555;-0.0181341;-0.0214242;0.0194463;-0.00765989;0.115846;0.00909567;0.102602;0;0.139952;3.3314
800000;801;29.7573;3.95174;0.153135;-3.00076;29.596;-0.75186;-0.60676;3.90471;-1.13953;-0.702843;-0.326326;-0.434404;0.88836;-6.36764;-0.0191087;0.00739912;0.0648609;0.0655079;-0.0197557;0.0426318;0.294611;3.39431;0.0515352;0.0568424;3.31589;0.301578;87.402;132.402;-0.0108584;-0.0190963;0.00944432;0.00551516;0.0648447;-0.0118729;-0.0402667;0;0.0562595;-1.31344;-4.22722;-1.62571;4.71566;-7.26183;-0.0220727;0.00373053;0.114984;0.115086;-0.0221742;0.06863;0.191963;5.20933;0.0850839;0.0915067;5.19007;0.192676;97.075;142.075;-0.0152111;-0.0221212;0.0198658;-0.0104221;0.114814;-0.00266721;0.106433;0;0.139896;3.33747
801000;802;29.7691;3.96357;0.153594;-3.00159;29.6077;-0.758766;-0.607583;3.91635;-1.14644;-0.702129;-0.31911;-0.437376;0.886631;-6.37061;-0.0190318;0.00795789;0.0656466;0.066388;-0.0197732;0.0430806;0.289913;3.44931;0.0521155;0.0574408;3.35747;0.297843;86.5519;131.552;-0.00865586;-0.0190208;0.00958534;0.00645975;0.0656332;-0.0169012;-0.0429485;0;0.0583033;-1.31418;-4.23034;-1.63324;4.72126;-7.26974;-0.0220203;0.00389559;0.116254;0.116364;-0.0221299;0.069247;0.189414;5.27943;0.0859082;0.0923294;5.25822;0.190178;96.817;141.817;-0.0171144;-0.0220647;0.0198681;-0.0100991;0.116084;-0.00489449;0.105655;0;0.123636;3.32715
802000;803;29.7794;3.9739;0.153994;-2.9996;29.6181;-0.762669;-0.605593;3.92684;-1.15034;-0.70098;-0.318868;-0.428264;0.88117;-6.3615;-0.0186759;0.00817782;0.0639841;0.0647854;-0.0194772;0.0421313;0.291883;3.42603;0.0509394;0.056175;3.32623;0.300641;86.0919;131.092;-0.00789337;-0.0186658;0.00959979;0.00686631;0.0639723;-0.0147115;-0.0463911;0;0.0564302;-1.31329;-4.24061;-1.62156;4.7262;-7.25682;-0.0220615;0.00428558;0.11731;0.117442;-0.0221931;0.0698176;0.18806;5.31744;0.0866451;0.0930902;5.29183;0.188971;96.5397;141.54;-0.0137037;-0.0220995;0.0201804;-0.00962736;0.117136;-0.00326449;0.102235;0;0.137127;3.32452
803000;804;29.7932;3.98763;0.154526;-3.00324;29.6317;-0.756875;-0.609236;3.94042;-1.14455;-0.700972;-0.309828;-0.438365;0.882904;-6.3716;-0.0184187;0.00695375;0.0655021;0.0660744;-0.018991;0.0425327;0.281193;3.55628;0.0515592;0.0567102;3.47925;0.287419;86.8034;131.803;-0.0127076;-0.0184108;0.00827556;0.00573604;0.0654926;0.00554606;-0.0599936;0;0.0582782;-1.31526;-4.24962;-1.63435;4.73923;-7.27539;-0.0220635;0.00399907;0.114106;0.114223;-0.0221808;0.0682021;0.19336;5.17171;0.0845183;0.0909361;5.14964;0.194188;96.4713;141.471;-0.0170289;-0.0220985;0.0190256;-0.0091915;0.113951;-0.0208643;0.091229;0;0.120573;3.3342
804000;805;29.8068;4.00133;0.155057;-3.00367;29.645;-0.774905;-0.609669;3.95368;-1.16258;-0.701469;-0.302691;-0.447121;0.88521;-6.38036;-0.0185585;0.00784022;0.0647651;0.0654964;-0.0192898;0.0423931;0.28655;3.48979;0.0513172;0.0565241;3.3954;0.294516;86.6972;131.697;-0.0140563;-0.0185469;0.00958295;0.00623384;0.0647509;-8.92326e-05;-0.0473;0;0.0560745;-1.31561;-4.25006;-1.63771;4.74088;-7.26859;-0.0211627;0.00789357;0.1217;0.122135;-0.0215975;0.0718662;0.173893;5.75068;0.0894953;0.0958215;5.65503;0.176834;93.2058;138.206;-0.0153084;-0.0211362;0.0206347;-0.00322576;0.121538;0.00876759;0.0923976;0;0.136917;3.33017
805000;806;29.8182;4.01264;0.155495;-3.00501;29.6562;-0.774332;-0.61101;3.96494;-1.162;-0.700525;-0.295936;-0.443419;0.880303;-6.37993;-0.0186796;0.00718578;0.0645914;0.065207;-0.0192951;0.042251;0.289196;3.45787;0.0511313;0.0563347;3.37946;0.295906;89.2822;134.282;-0.0164112;-0.0186609;0.0107765;0.00387586;0.0645611;0.00517418;-0.0502131;0;0.0587571;-1.316;-4.25594;-1.63743;4.74616;-7.2683;-0.0208304;0.00757326;0.120762;0.121166;-0.0212343;0.0712;0.172492;5.79738;0.0887065;0.0949333;5.70612;0.17525;93.5644;138.564;-0.0146175;-0.0208091;0.0207614;-0.00394976;0.120595;0.00944498;0.0863065;0;0.125975;3.32094
806000;807;29.8317;4.02618;0.15602;-3.00765;29.6699;-0.762575;-0.613648;3.97859;-1.15025;-0.700778;-0.29273;-0.447181;0.881335;-6.38042;-0.0182012;0.00794547;0.061792;0.0625736;-0.0189827;0.0407782;0.294555;3.39495;0.0492775;0.0543709;3.29635;0.303366;86.6648;131.665;-0.0118236;-0.0181888;0.00979346;0.00623669;0.0617766;-0.00332361;-0.0390883;0;0.0524349;-1.3171;-4.26417;-1.63986;4.75468;-7.27073;-0.0207739;0.00773964;0.120809;0.121231;-0.0211958;0.0712132;0.171957;5.8154;0.0887336;0.0949509;5.71957;0.174838;93.3391;138.339;-0.0140847;-0.0207496;0.0206137;-0.00350906;0.120646;0.00629864;0.102181;0;0.137662;3.33053
807000;808;29.8481;4.04261;0.156657;-3.01052;29.6861;-0.762358;-0.616516;3.99482;-1.15003;-0.699851;-0.28631;-0.448391;0.879101;-6.38163;-0.018925;0.00739142;0.0635769;0.0642339;-0.019582;0.0419079;0.297671;3.35941;0.0506284;0.0558772;3.28026;0.304854;87.1655;132.165;-0.0139478;-0.0189135;0.00925597;0.00567148;0.0635623;0.00584699;-0.0436501;0;0.051728;-1.31786;-4.27643;-1.64772;4.7686;-7.28336;-0.0215362;0.00509795;0.117159;0.117346;-0.0217233;0.0695348;0.18382;5.44011;0.0863873;0.0927131;5.40186;0.185121;95.8739;140.874;-0.0191161;-0.0215581;0.0203951;-0.00830094;0.116985;-0.00591402;0.102089;0;0.139745;3.32812
808000;809;29.8593;4.05376;0.157089;-3.01057;29.6972;-0.767611;-0.616563;4.00589;-1.15528;-0.698949;-0.280632;-0.446308;0.875486;-6.37955;-0.0188836;0.00712836;0.0628067;0.063424;-0.0195009;0.0414625;0.300662;3.326;0.0500654;0.0552833;3.25236;0.307469;88.2227;133.223;-0.0144505;-0.0188691;0.0097241;0.0047321;0.0627861;0.0024371;-0.0393804;0;0.0524906;-1.31858;-4.28372;-1.64477;4.77432;-7.28003;-0.0214808;0.0045086;0.117265;0.117412;-0.0216272;0.0695194;0.183182;5.45906;0.0863906;0.0926925;5.42889;0.1842;96.598;141.598;-0.0173105;-0.0215193;0.0208162;-0.00977478;0.11708;0.00418751;0.102521;0;0.132433;3.31348
809000;810;29.8707;4.06513;0.157529;-3.01155;29.7085;-0.768204;-0.61755;4.01721;-1.15588;-0.698914;-0.274501;-0.44983;0.875317;-6.38307;-0.0178646;0.00697142;0.0632672;0.0638618;-0.0184592;0.0411605;0.282367;3.54149;0.0498795;0.0548807;3.45961;0.28905;87.8969;132.897;-0.0147576;-0.0178516;0.00931496;0.00480666;0.0632492;-0.003699;-0.038601;0;0.0547339;-1.31891;-4.28887;-1.648;4.78015;-7.28364;-0.0217049;0.0049287;0.117809;0.117983;-0.0218788;0.0699309;0.184238;5.42777;0.0868716;0.0932412;5.39257;0.18544;96.1847;141.185;-0.0159453;-0.0217334;0.020781;-0.00894601;0.117627;-0.00542364;0.109986;0;0.124647;3.31964
810000;811;29.8842;4.07865;0.158053;-3.01305;29.722;-0.768799;-0.619048;4.03064;-1.15647;-0.698549;-0.267081;-0.455533;0.875679;-6.38877;-0.0184833;0.00583577;0.0645502;0.0649583;-0.0188915;0.0419249;0.28634;3.49235;0.0507877;0.0558999;3.4385;0.290824;88.5528;133.553;-0.00798693;-0.0184734;0.00802732;0.00381513;0.0645359;-0.0190758;-0.0493351;0;0.054725;-1.31996;-4.29697;-1.65175;4.789;-7.28738;-0.0218288;0.00482311;0.117975;0.118141;-0.021995;0.0700681;0.185029;5.40456;0.087024;0.0934241;5.37128;0.186175;96.2364;141.236;-0.0158266;-0.0218589;0.020694;-0.00906401;0.117794;-0.00567586;0.0975816;0;0.131354;3.31667
811000;812;29.8956;4.09004;0.158495;-3.01456;29.7332;-0.771028;-0.620557;4.04188;-1.1587;-0.698192;-0.260795;-0.452327;0.871829;-6.38884;-0.0190969;0.00549711;0.0658982;0.0662523;-0.019451;0.0428516;0.289794;3.45073;0.0518818;0.0571355;3.40612;0.293589;90.85;135.85;-0.00867856;-0.0190832;0.00948024;0.00183153;0.0658702;-0.0216341;-0.0563504;0;0.0568773;-1.32147;-4.30402;-1.65149;4.79566;-7.28675;-0.0218237;0.00428837;0.116648;0.116781;-0.0219564;0.0693686;0.18709;5.34502;0.0861109;0.0924915;5.31876;0.188014;96.4697;141.47;-0.0109413;-0.0218601;0.0199866;-0.00946401;0.116477;-0.00150938;0.0985759;0;0.134533;3.30548
812000;813;29.9049;4.09936;0.158856;-3.015;29.7425;-0.771804;-0.620996;4.05118;-1.15948;-0.696839;-0.256304;-0.450563;0.868495;-6.38708;-0.0186726;0.00514408;0.0655043;0.0658175;-0.0189858;0.0424016;0.28506;3.50804;0.0513896;0.0565355;3.46666;0.288462;90.7523;135.752;-0.0114229;-0.0186607;0.00886167;0.00172013;0.0654798;-0.00477603;-0.0557163;0;0.0563886;-1.32046;-4.30511;-1.64785;4.7951;-7.27872;-0.0215571;0.00757912;0.122009;0.122408;-0.0219561;0.0721821;0.176685;5.6598;0.0898231;0.0962428;5.57512;0.179368;93.5772;138.577;-0.0152616;-0.0215357;0.0207953;-0.00394699;0.121842;0.00536254;0.0884874;0;0.143312;3.30677
813000;814;29.9191;4.11358;0.159407;-3.01478;29.7565;-0.784108;-0.62078;4.06518;-1.17178;-0.696685;-0.251892;-0.458845;0.871412;-6.39208;-0.019547;0.00464937;0.0658509;0.0661032;-0.0197994;0.0429513;0.296838;3.36884;0.0519421;0.0572684;3.33865;0.299523;90.4515;135.452;-0.0162104;-0.0195377;0.0077311;0.00181452;0.065833;-0.000428286;-0.0461423;0;0.0557066;-1.32137;-4.313;-1.65628;4.80533;-7.28716;-0.0210274;0.00749928;0.121086;0.12148;-0.021422;0.0714512;0.173657;5.75848;0.0889912;0.0952682;5.67082;0.176341;94.1515;139.151;-0.0133112;-0.0210116;0.0218473;-0.00503106;0.120898;-0.0010174;0.0923048;0;0.137009;3.3183
814000;815;29.9353;4.12978;0.160035;-3.01777;29.7728;-0.771809;-0.623762;4.08149;-1.15948;-0.697041;-0.24597;-0.459922;0.870573;-6.39678;-0.0178422;0.00753869;0.0644104;0.0650956;-0.0185274;0.0418115;0.277008;3.61;0.0507139;0.0557487;3.51347;0.284619;87.8949;132.895;-0.0157125;-0.0178263;0.0102214;0.00506326;0.064388;-0.0141357;-0.0463037;0;0.0581852;-1.32291;-4.32545;-1.66181;4.81884;-7.29745;-0.0215356;0.0049802;0.118014;0.118191;-0.0217131;0.0699523;0.182483;5.47995;0.0869406;0.0932697;5.44333;0.183711;95.6122;140.612;-0.0174081;-0.0215553;0.0197678;-0.00796247;0.11785;-0.00229187;0.0965023;0;0.143035;3.31097
815000;816;29.9495;4.14396;0.160584;-3.01845;29.7869;-0.77437;-0.624444;4.09561;-1.16204;-0.695853;-0.240736;-0.457128;0.866678;-6.39037;-0.0184053;0.00620256;0.0634286;0.063896;-0.0188727;0.0413844;0.290173;3.44622;0.0500878;0.0551792;3.38563;0.295366;88.4967;133.497;-0.0116351;-0.018394;0.00855568;0.00403049;0.0634122;-0.0128482;-0.0492046;0;0.0555702;-1.32309;-4.33231;-1.6619;4.82508;-7.29753;-0.0215414;0.00493795;0.118113;0.118288;-0.0217158;0.0700018;0.182379;5.48307;0.0870052;0.0933357;5.44707;0.183585;95.9252;140.925;-0.0190832;-0.0215663;0.0203423;-0.00854321;0.117939;-0.00600163;0.0984598;0;0.140792;3.30366
816000;817;29.965;4.15952;0.161187;-3.02088;29.8025;-0.768902;-0.626879;4.11115;-1.15657;-0.695012;-0.236291;-0.458532;0.865521;-6.39177;-0.0192436;0.00587598;0.0651078;0.0655151;-0.0196509;0.042583;0.295565;3.38335;0.0514925;0.0567774;3.33395;0.299945;88.9926;133.993;-0.0138778;-0.0192324;0.00840754;0.00354488;0.0650908;-0.00100225;-0.0485625;0;0.0557623;-1.32391;-4.3424;-1.66256;4.83459;-7.29782;-0.022054;0.00435587;0.119476;0.11961;-0.0221879;0.0708988;0.18459;5.41742;0.0880723;0.0945317;5.39076;0.185503;96.7336;141.734;-0.0112638;-0.0220978;0.0210542;-0.0102322;0.119286;-0.0114674;0.106558;0;0.127865;3.31214
817000;818;29.9807;4.17521;0.161795;-3.02103;29.818;-0.776931;-0.627031;4.1267;-1.1646;-0.694981;-0.227808;-0.46098;0.864521;-6.39422;-0.0186488;0.00649231;0.0633374;0.0638484;-0.0191597;0.041504;0.294436;3.39633;0.0501864;0.0553387;3.33242;0.300082;88.1309;133.131;-0.0139817;-0.0186375;0.00868041;0.00447289;0.0633218;0.00103735;-0.0385053;0;0.055136;-1.32505;-4.3536;-1.66542;4.84595;-7.30193;-0.0223577;0.00436386;0.118362;0.118497;-0.0224929;0.0704951;0.188892;5.29402;0.0874652;0.0939934;5.26821;0.189818;96.0227;141.023;-0.0102119;-0.0223872;0.0193748;-0.00875901;0.118203;-0.012974;0.106622;0;0.126299;3.3062
818000;819;29.9955;4.19002;0.162369;-3.02474;29.8325;-0.777736;-0.630736;4.1412;-1.16541;-0.693803;-0.220505;-0.466588;0.864691;-6.39983;-0.0186311;0.00615134;0.0645786;0.0650308;-0.0190834;0.0420571;0.288503;3.46617;0.0509213;0.0560762;3.40772;0.293452;88.8349;133.835;-0.0157594;-0.018619;0.00875683;0.00374946;0.0645603;0.00265379;-0.0451291;0;0.0481973;-1.32614;-4.36266;-1.67494;4.85766;-7.31511;-0.0222908;0.00387629;0.115308;0.115417;-0.0223999;0.0689083;0.193316;5.17289;0.0853961;0.0918777;5.15256;0.194078;96.5695;141.569;-0.0192779;-0.0223293;0.0191375;-0.00950274;0.11515;-0.0142041;0.0862359;0;0.135476;3.2881
819000;820;30.007;4.20152;0.162815;-3.02441;29.8438;-0.790169;-0.630403;4.15247;-1.17784;-0.692785;-0.215729;-0.467598;0.863214;-6.40445;-0.0189213;0.00622158;0.0659503;0.0664039;-0.019375;0.0428895;0.286903;3.4855;0.0519463;0.0571859;3.4273;0.291775;88.7621;133.762;-0.0168153;-0.0189092;0.00879669;0.00385147;0.0659321;-0.00133001;-0.0464345;0;0.0520208;-1.32502;-4.36177;-1.67315;4.85594;-7.30402;-0.0211582;0.00781671;0.121747;0.122174;-0.0215845;0.071879;0.173788;5.75414;0.0895155;0.0958387;5.66025;0.176671;93.5365;138.536;-0.0139352;-0.0211346;0.0211883;-0.00385248;0.121574;0.00432732;0.0903839;0;0.136534;3.2954
820000;821;30.0219;4.2164;0.163392;-3.02514;29.8587;-0.789604;-0.631133;4.16738;-1.17728;-0.691937;-0.211379;-0.462843;0.858884;-6.39608;-0.0183102;0.00587761;0.0643059;0.064722;-0.0187263;0.0417241;0.284736;3.51202;0.0505596;0.0556322;3.45621;0.289334;88.9805;133.98;-0.0131058;-0.0182988;0.00847606;0.00348084;0.0642884;-0.00416066;-0.043456;0;0.0532819;-1.32575;-4.37071;-1.67169;4.86367;-7.30257;-0.0210006;0.00793815;0.122226;0.122664;-0.0214393;0.0720517;0.171819;5.82008;0.0897799;0.0960689;5.72147;0.17478;93.8027;138.803;-0.0154246;-0.0209782;0.0220481;-0.00437216;0.122037;0.00244771;0.0851432;0;0.137129;3.29203
821000;822;30.0337;4.22815;0.163847;-3.0288;29.8705;-0.776919;-0.634793;4.17915;-1.16459;-0.692621;-0.205046;-0.464762;0.858936;-6.40162;-0.0180298;0.00666611;0.0666011;0.067123;-0.0185517;0.0428373;0.270714;3.69394;0.0520466;0.0571165;3.61816;0.276384;88.5419;133.542;-0.0181616;-0.018016;0.00940552;0.00414401;0.0665805;0.00149246;-0.0415745;0;0.0564645;-1.32691;-4.37625;-1.67211;4.86911;-7.30299;-0.0208311;0.00785602;0.121858;0.122289;-0.0212623;0.0717758;0.170946;5.84981;0.0894598;0.095701;5.75145;0.173869;93.4293;138.429;-0.0135508;-0.0208066;0.0211052;-0.00370901;0.121687;0.004041;0.0944568;0;0.133829;3.282
822000;823;30.0466;4.2411;0.164349;-3.031;29.8834;-0.769694;-0.636994;4.19213;-1.15737;-0.690704;-0.199254;-0.468305;0.857954;-6.40154;-0.0177381;0.00541698;0.0665559;0.0669026;-0.0180848;0.0424937;0.266515;3.75214;0.0516954;0.0566583;3.69938;0.270315;88.6136;133.614;-0.00954818;-0.0177294;0.00748938;0.00350836;0.0665434;-0.00329416;-0.0560247;0;0.0560409;-1.32701;-4.38076;-1.67876;4.87547;-7.30964;-0.0208771;0.00780638;0.122205;0.12263;-0.0213017;0.0719657;0.170837;5.85355;0.0897007;0.0959542;5.75679;0.173708;94.2188;139.219;-0.0182458;-0.0208598;0.0227101;-0.00519834;0.122002;0.00575815;0.0997661;0;0.141892;3.28624
823000;824;30.0603;4.25481;0.16488;-3.02984;29.8972;-0.775735;-0.635837;4.20588;-1.16341;-0.691537;-0.195948;-0.463409;0.8552;-6.39665;-0.0181014;0.00633397;0.0641865;0.0646712;-0.0185861;0.0416286;0.282012;3.54595;0.0504636;0.0555048;3.47955;0.287393;88.3542;133.354;-0.0104807;-0.0180898;0.00867815;0.00417103;0.0641699;-0.00978375;-0.0409412;0;0.0572994;-1.32878;-4.39702;-1.67591;4.88959;-7.31155;-0.0217405;0.00502913;0.118627;0.118807;-0.0219205;0.0703637;0.183268;5.4565;0.0874322;0.0938182;5.41991;0.184505;96.1968;141.197;-0.0164298;-0.0217693;0.0211066;-0.00903192;0.118439;-0.00434666;0.0969927;0;0.133598;3.29246
824000;825;30.0783;4.27276;0.165575;-3.0313;29.915;-0.777918;-0.637301;4.22372;-1.16559;-0.689689;-0.186046;-0.470493;0.855364;-6.40373;-0.0185494;0.0040632;0.067351;0.0675428;-0.0187411;0.043142;0.275413;3.63091;0.0524048;0.0575226;3.60399;0.277471;90.1117;135.112;-0.0131351;-0.0185424;0.00662981;0.00170313;0.0673382;0.00213326;-0.0599643;0;0.0526883;-1.32946;-4.4071;-1.67997;4.90024;-7.31523;-0.0219423;0.00449823;0.119712;0.119855;-0.022085;0.0709701;0.183292;5.45577;0.0881917;0.0946268;5.42698;0.184264;96.2908;141.291;-0.0104716;-0.0219775;0.0204496;-0.00943599;0.119535;-0.0120587;0.116277;0;0.135705;3.27798
825000;826;30.0938;4.28826;0.166176;-3.03524;29.9302;-0.777638;-0.641236;4.23892;-1.16531;-0.689405;-0.180447;-0.472009;0.854771;-6.40886;-0.0179643;0.00717369;0.0665698;0.0671743;-0.0185687;0.0428715;0.269856;3.70568;0.0520876;0.057162;3.61761;0.276426;88.3398;133.34;-0.0166501;-0.0179485;0.0100414;0.00453325;0.0665467;-0.0130832;-0.0513614;0;0.055518;-1.3309;-4.41788;-1.68906;4.91344;-7.32923;-0.0220508;0.00426357;0.115626;0.115758;-0.0221827;0.0689703;0.190708;5.24361;0.0855304;0.0919604;5.21838;0.19163;96.3027;141.303;-0.0164494;-0.0220831;0.0194079;-0.00901254;0.115465;-0.0182357;0.0906203;0;0.134661;3.27263
826000;827;30.1089;4.30341;0.166763;-3.03331;29.9453;-0.791399;-0.639311;4.25398;-1.17907;-0.689775;-0.174557;-0.470618;0.853077;-6.40385;-0.0186934;0.00583938;0.0636263;0.0640385;-0.0191055;0.041572;0.293799;3.40368;0.0502856;0.0554293;3.35183;0.298344;89.3309;134.331;-0.0132239;-0.0186813;0.00866237;0.00323483;0.0636071;-0.00955262;-0.0456438;0;0.0490096;-1.33163;-4.41929;-1.68464;4.91339;-7.31551;-0.0208884;0.00774386;0.122893;0.123309;-0.0213043;0.0723066;0.169972;5.88331;0.0901504;0.0964088;5.78799;0.172772;93.7221;138.722;-0.0134366;-0.0208674;0.0216109;-0.00434868;0.122712;0.00698524;0.0923052;0;0.143984;3.27617
827000;828;30.1251;4.31959;0.16739;-3.03565;29.9614;-0.787221;-0.641644;4.27012;-1.17489;-0.688699;-0.16832;-0.474505;0.853108;-6.41136;-0.018752;0.00607052;0.0661098;0.0665418;-0.0191841;0.0428629;0.28365;3.52548;0.0519503;0.0571506;3.4686;0.288301;89.6934;134.693;-0.0213442;-0.0187378;0.00940759;0.00299902;0.0660855;-0.00450936;-0.0493942;0;0.052061;-1.3319;-4.42886;-1.68925;4.92365;-7.32012;-0.020883;0.00796577;0.122048;0.122491;-0.0213255;0.0719082;0.171104;5.84439;0.0896189;0.0958776;5.74385;0.174099;93.6836;138.684;-0.0123642;-0.0208594;0.0218506;-0.00415146;0.121864;0.00147654;0.0915685;0;0.133406;3.26896
828000;829;30.1335;4.32802;0.167717;-3.03491;29.9698;-0.794536;-0.640909;4.27848;-1.18221;-0.687623;-0.162589;-0.473754;0.850708;-6.40699;-0.0193573;0.00576784;0.064016;0.0644131;-0.0197544;0.0420838;0.302382;3.30707;0.0508231;0.0561117;3.26069;0.306683;89.1185;134.119;-0.017429;-0.0193463;0.00831335;0.00342175;0.0639991;0.00968608;-0.0398226;0;0.0525003;-1.33205;-4.4329;-1.68871;4.92714;-7.31958;-0.0208568;0.00732775;0.122568;0.122941;-0.0212302;0.0720857;0.170165;5.87664;0.0898773;0.0961143;5.79086;0.172686;93.6893;138.689;-0.01432;-0.0208392;0.0207498;-0.00438043;0.1224;0.0047996;0.105376;0;0.142834;3.25325
829000;830;30.1455;4.33995;0.168179;-3.03661;29.9816;-0.796268;-0.642608;4.29026;-1.18394;-0.688018;-0.159235;-0.473296;0.850137;-6.41015;-0.0186434;0.00647074;0.063848;0.0643525;-0.0191479;0.0417502;0.291997;3.42469;0.050509;0.055667;3.36081;0.297547;89.0875;134.087;-0.0179;-0.0186291;0.00946241;0.00371099;0.0638256;-0.0075132;-0.0437296;0;0.0499438;-1.33286;-4.44406;-1.69557;4.93975;-7.3312;-0.0216984;0.00498542;0.119417;0.119593;-0.0218743;0.0707335;0.181703;5.50348;0.0879315;0.0943113;5.46727;0.182907;95.9936;140.994;-0.0160824;-0.0217251;0.0207298;-0.00877516;0.119236;-0.00994114;0.102464;0;0.136672;3.26703
830000;831;30.1621;4.35657;0.168823;-3.04117;29.9981;-0.78709;-0.647172;4.30675;-1.17476;-0.686447;-0.152483;-0.47448;0.848288;-6.41134;-0.0187363;0.00680839;0.0648864;0.0654371;-0.019287;0.042362;0.288756;3.46313;0.0512774;0.0564827;3.3928;0.294741;88.712;133.712;-0.0171979;-0.0187215;0.0096835;0.004159;0.0648641;-0.00229346;-0.0430705;0;0.0517393;-1.33389;-4.45592;-1.69269;4.94972;-7.32833;-0.0218055;0.00499119;0.120059;0.120235;-0.0219809;0.0711079;0.181623;5.50592;0.0883992;0.0948105;5.46997;0.182816;95.9709;140.971;-0.0128727;-0.0218322;0.0207662;-0.00878668;0.119878;-0.0173531;0.110275;0;0.128862;3.26389
831000;832;30.1797;4.37415;0.169504;-3.04244;30.0155;-0.789882;-0.64844;4.32422;-1.17755;-0.685966;-0.143782;-0.477952;0.848328;-6.41481;-0.0173429;0.00746427;0.0653205;0.0659891;-0.0180115;0.0420003;0.265505;3.76641;0.0510665;0.0560004;3.66372;0.272947;87.635;132.635;-0.0117028;-0.0173283;0.00992837;0.00519134;0.0653003;-0.0185647;-0.045887;0;0.0554712;-1.33427;-4.46313;-1.69849;4.9583;-7.33413;-0.0220763;0.00531711;0.120046;0.120245;-0.0222749;0.07126;0.183898;5.43781;0.0885274;0.0950133;5.39823;0.185246;95.1949;140.195;-0.0110574;-0.0220886;0.0197028;-0.00724403;0.119886;-0.0104862;0.100542;0;0.133404;3.24875
832000;833;30.1941;4.38859;0.170064;-3.04263;30.0297;-0.801923;-0.648632;4.3384;-1.1896;-0.685954;-0.138717;-0.479748;0.848489;-6.41299;-0.0189628;0.00607428;0.0646924;0.0651312;-0.0194015;0.0422664;0.293122;3.41155;0.0511301;0.0563552;3.35701;0.297884;89.1282;134.128;-0.00977638;-0.0189503;0.00885663;0.00351051;0.0646729;-0.00549495;-0.0471089;0;0.0541315;-1.33699;-4.47585;-1.70453;4.97255;-7.34556;-0.0217587;0.00442254;0.11748;0.11762;-0.021899;0.0697596;0.185212;5.39923;0.0866407;0.0930128;5.37104;0.186184;96.3766;141.377;-0.0207329;-0.0217936;0.0201837;-0.00937562;0.117306;-0.0100263;0.0960238;0;0.134107;3.25369
833000;834;30.2132;4.40772;0.170805;-3.04503;30.0489;-0.794295;-0.651026;4.35759;-1.18197;-0.684304;-0.13267;-0.47703;0.844649;-6.41027;-0.0174873;0.00441477;0.0685169;0.068743;-0.0177133;0.0432282;0.255226;3.91809;0.0527342;0.0576375;3.88086;0.257675;89.1786;134.179;-0.00847461;-0.0174807;0.00642603;0.00256538;0.0685067;-0.0159458;-0.0409338;0;0.0604197;-1.33651;-4.47973;-1.70302;4.97539;-7.3339;-0.0208833;0.00775755;0.123393;0.123809;-0.0212993;0.072554;0.169243;5.90868;0.0904785;0.0967387;5.81282;0.172033;93.4508;138.451;-0.00983174;-0.0208603;0.0211104;-0.00388139;0.123221;-0.000888141;0.0957741;0;0.139277;3.24345
834000;835;30.2264;4.42089;0.171316;-3.04578;30.0622;-0.791311;-0.651779;4.37084;-1.17898;-0.684065;-0.124596;-0.479543;0.844648;-6.41278;-0.0176169;0.00619124;0.0647491;0.0652118;-0.0180797;0.0416458;0.27208;3.67539;0.0505897;0.0555277;3.6069;0.277246;88.2964;133.296;-0.00984741;-0.017606;0.00844955;0.0041076;0.0647335;-0.00972453;-0.0586589;0;0.0552533;-1.33666;-4.48534;-1.7034;4.98061;-7.33427;-0.0211021;0.00788401;0.122421;0.122853;-0.0215339;0.0721935;0.172373;5.80138;0.0899435;0.0962581;5.70511;0.175281;93.7597;138.76;-0.0132947;-0.0210798;0.0218597;-0.00430572;0.122236;0.00419798;0.0980217;0;0.142959;3.22282
835000;836;30.2328;4.42727;0.171563;-3.04887;30.0684;-0.785457;-0.654867;4.37709;-1.17313;-0.683615;-0.117407;-0.485837;0.846848;-6.42269;-0.0193285;0.00662853;0.0647718;0.0652911;-0.0198477;0.0425694;0.298409;3.3511;0.051436;0.0567592;3.2896;0.303989;88.9682;133.968;-0.0197499;-0.019314;0.00955435;0.00393375;0.0647496;0.000175603;-0.0460297;0;0.0523178;-1.33722;-4.48593;-1.70785;4.98282;-7.33872;-0.0208289;0.00765794;0.122789;0.123196;-0.0212361;0.0722161;0.169632;5.89513;0.090048;0.0962881;5.80127;0.172376;93.5752;138.575;-0.0118748;-0.0208075;0.0211416;-0.00410206;0.122616;0.00152533;0.0997093;0;0.137534;3.21612
836000;837;30.249;4.44349;0.172191;-3.04633;30.0848;-0.793877;-0.652323;4.39344;-1.18155;-0.683099;-0.113765;-0.48534;0.845648;-6.41786;-0.0193009;0.00535709;0.0641778;0.0645202;-0.0196433;0.0420817;0.300741;3.32512;0.0508422;0.056109;3.28459;0.304452;90.5362;135.536;-0.0150474;-0.0192886;0.00887808;0.00211225;0.0641542;0.000838127;-0.0376025;0;0.0512109;-1.33749;-4.50365;-1.71225;5.00035;-7.34837;-0.0217235;0.00408162;0.117765;0.117884;-0.0218428;0.0698636;0.184465;5.42109;0.0867916;0.0931515;5.39694;0.18529;97.1223;142.122;-0.0112234;-0.0217752;0.0211432;-0.0108517;0.117573;-0.0124208;0.114141;0;0.146;3.24216
837000;838;30.2715;4.46594;0.173061;-3.04981;30.1071;-0.790894;-0.655805;4.41574;-1.17857;-0.682699;-0.106872;-0.482749;0.842939;-6.41997;-0.0188034;0.00700793;0.0637874;0.0643778;-0.0193938;0.0418858;0.294783;3.39233;0.0506366;0.0558477;3.3195;0.30125;89.3987;134.399;-0.012267;-0.0187855;0.0105542;0.00373688;0.0637581;-0.0298872;-0.0414667;0;0.0496195;-1.33927;-4.51864;-1.70954;5.0134;-7.34566;-0.022646;0.00327733;0.119196;0.119271;-0.0227217;0.0709965;0.18999;5.26344;0.0880707;0.0946621;5.24924;0.190504;97.28;142.28;-0.00970197;-0.0227066;0.0200466;-0.0113674;0.119021;-0.0153037;0.10934;0;0.147658;3.22224
838000;839;30.2881;4.48255;0.173705;-3.05335;30.1232;-0.79875;-0.659349;4.43187;-1.18642;-0.682147;-0.0971497;-0.486782;0.843635;-6.42002;-0.0195862;0.00628945;0.0641468;0.0646166;-0.020056;0.0423363;0.305335;3.2751;0.0510925;0.0564484;3.2218;0.310385;89.8334;134.833;-0.0163579;-0.0195711;0.00971109;0.00313698;0.064121;-0.00231547;-0.0410271;0;0.0458941;-1.34148;-4.52756;-1.72196;5.02628;-7.36392;-0.021872;0.0037395;0.116472;0.116573;-0.021973;0.0692728;0.187789;5.32514;0.0859805;0.0923638;5.30526;0.188492;96.8817;141.882;-0.0207217;-0.0219192;0.0197763;-0.0103108;0.116303;-0.00995289;0.107693;0;0.128229;3.21312
839000;840;30.308;4.50251;0.174479;-3.05225;30.1433;-0.800455;-0.658242;4.45202;-1.18813;-0.680066;-0.0943249;-0.482419;0.839116;-6.41907;-0.0192425;0.00650042;0.0652007;0.0656981;-0.01974;0.0427191;0.295128;3.38836;0.0516518;0.0569588;3.32817;0.300465;89.4392;134.439;-0.0141404;-0.0192272;0.00978046;0.00348033;0.0651756;-0.0179332;-0.0405734;0;0.0465723;-1.33988;-4.53615;-1.71139;5.02999;-7.34227;-0.0210308;0.00790399;0.123493;0.123924;-0.0214617;0.0726927;0.1703;5.872;0.0906208;0.0969236;5.77417;0.173185;93.8156;138.816;-0.0149076;-0.0210092;0.0221413;-0.00450303;0.123302;0.00372406;0.0922073;0;0.139193;3.21572
840000;841;30.3281;4.52254;0.175255;-3.05527;30.1627;-0.817253;-0.66127;4.4714;-1.20493;-0.681882;-0.0821197;-0.49662;0.847548;-6.43558;-0.0211223;0.00462958;0.0655656;0.0658122;-0.0213689;0.0435905;0.322156;3.10409;0.0524688;0.0581207;3.07982;0.324695;91.7743;136.774;-0.0230426;-0.0211118;0.00865499;0.000931587;0.0655406;0.0200405;-0.0286422;0;0.051116;-1.34426;-4.54781;-1.72765;5.04722;-7.35818;-0.0206562;0.00678174;0.122514;0.122834;-0.0209767;0.0719054;0.168603;5.93108;0.0897029;0.0958738;5.85573;0.170773;94.8048;139.805;-0.0111508;-0.0206551;0.0221505;-0.00662798;0.122315;-0.00348071;0.101791;0;0.138158;3.19516
841000;842;30.3373;4.5318;0.175613;-3.05938;30.1721;-0.798307;-0.665375;4.48079;-1.18598;-0.678061;-0.0718748;-0.495643;0.842968;-6.43273;-0.0208971;0.00263547;0.0658098;0.0658899;-0.0209772;0.0434335;0.317538;3.14923;0.0523395;0.0579113;3.14103;0.318367;94.1839;139.184;-0.0187638;-0.0208956;0.00765837;-0.00197886;0.0657856;0.00564452;-0.0563197;0;0.0561526;-1.3426;-4.54606;-1.72802;5.04533;-7.3589;-0.0208894;0.0077274;0.123456;0.123868;-0.0213019;0.0725851;0.169206;5.90997;0.0905188;0.0967801;5.81489;0.171972;93.362;138.362;-0.0109241;-0.020866;0.0208714;-0.00372882;0.123288;-0.00664212;0.11107;0;0.144862;3.15998
842000;843;30.345;4.53948;0.175911;-3.05918;30.1799;-0.797058;-0.665182;4.48857;-1.18473;-0.678655;-0.0716588;-0.495204;0.843169;-6.42893;-0.020703;0.0031172;0.0645786;0.0646924;-0.0208168;0.0427546;0.320587;3.11928;0.0514895;0.0570061;3.1077;0.321782;92.3608;137.361;-0.0204573;-0.0206981;0.00677651;-0.00024901;0.0645616;0.0133029;-0.0427134;0;0.0555617;-1.34385;-4.55651;-1.73162;5.0563;-7.36774;-0.0218533;0.00375837;0.116965;0.117067;-0.021955;0.0695107;0.186836;5.35228;0.0862987;0.092681;5.33212;0.187543;97.3507;142.351;-0.0126634;-0.0219103;0.0208551;-0.0112144;0.116776;-0.0135979;0.113955;0;0.132324;3.1818
843000;844;30.3922;4.58667;0.17774;-3.06221;30.2266;-0.812888;-0.668206;4.53529;-1.20056;-0.678112;-0.0594098;-0.493356;0.840693;-6.42683;-0.0200972;0.00331367;0.0655097;0.0656378;-0.0202253;0.0429316;0.306783;3.25964;0.0518328;0.0572421;3.24533;0.308135;91.7716;136.772;-0.0124736;-0.0200917;0.00670168;0.000197828;0.0654938;-0.00334013;-0.0615056;0;0.0517694;-1.34737;-4.589;-1.73663;5.08824;-7.37277;-0.0215338;0.00679855;0.120543;0.120868;-0.0218584;0.0713631;0.17864;5.59786;0.0887663;0.0951508;5.52959;0.180845;94.7666;139.767;-0.0183703;-0.0215299;0.021688;-0.00620413;0.120354;0.0165772;0.095875;0;0.125155;3.16057
844000;845;30.4032;4.59771;0.178168;-3.06214;30.2377;-0.812922;-0.668133;4.5464;-1.20059;-0.678047;-0.0509154;-0.493848;0.840373;-6.42732;-0.0210098;0.00473255;0.0628369;0.0631032;-0.0212761;0.0421896;0.334355;2.99084;0.0506722;0.0562528;2.96592;0.337163;91.7071;136.707;-0.0137532;-0.0209991;0.00859505;0.0011747;0.0628127;-0.00806154;-0.050283;0;0.0484901;-1.3479;-4.59143;-1.7366;5.09056;-7.37224;-0.0213197;0.00569592;0.11966;0.11989;-0.0215495;0.0707195;0.178169;5.61264;0.0879936;0.0942927;5.56346;0.179744;95.36;140.36;-0.0118302;-0.0213321;0.0208255;-0.00752967;0.119481;0.00229143;0.10169;0;0.138683;3.12478
845000;846;30.408;4.60249;0.178353;-3.06271;30.2424;-0.815017;-0.668706;4.55108;-1.20269;-0.678124;-0.0493882;-0.488948;0.837474;-6.4225;-0.0200123;0.00651796;0.0620796;0.0625939;-0.0205266;0.0415602;0.322365;3.10208;0.0499963;0.0554136;3.04941;0.327932;90.2325;135.233;-0.0104451;-0.0199954;0.0102526;0.00307191;0.0620501;-0.0164946;-0.0267473;0;0.0491413;-1.34818;-4.5943;-1.73427;5.09244;-7.36991;-0.0212552;0.00528493;0.119117;0.119316;-0.0214539;0.0703849;0.178439;5.60416;0.0875756;0.0938466;5.56152;0.179807;95.665;140.665;-0.012512;-0.0212748;0.0206403;-0.00814532;0.118939;0.00255992;0.101128;0;0.133141;3.12755
846000;847;30.45;4.64449;0.17998;-3.06832;30.2842;-0.811654;-0.674319;4.59284;-1.19933;-0.676315;-0.0369509;-0.496876;0.840032;-6.4306;-0.0197986;0.0060799;0.0631071;0.0635506;-0.0202421;0.0418963;0.31373;3.18746;0.0504857;0.0558618;3.13953;0.318519;90.658;135.658;-0.0139073;-0.0197828;0.00999961;0.00246578;0.0630774;0.00352781;-0.0187806;0;0.0470328;-1.35018;-4.62339;-1.74191;5.12181;-7.37326;-0.0215224;0.00592206;0.122738;0.122981;-0.0217651;0.0723729;0.175352;5.70282;0.0901226;0.0964972;5.65038;0.176979;94.9737;139.974;-0.0110635;-0.0215297;0.0207911;-0.00703742;0.122561;-0.00124923;0.115497;0;0.122734;3.12874
847000;848;30.4683;4.66277;0.180689;-3.0702;30.3022;-0.815645;-0.676197;4.61092;-1.20332;-0.676932;-0.0247131;-0.502076;0.843166;-6.44104;-0.0213753;0.00492116;0.0646015;0.0648822;-0.0216561;0.0432692;0.330879;3.02225;0.0519991;0.0576922;2.99603;0.333775;91.9505;136.95;-0.0224985;-0.0213635;0.00915877;0.0010257;0.0645735;0.0128009;-0.0295787;0;0.0459086;-1.35261;-4.63187;-1.74659;5.1317;-7.38185;-0.0216341;0.00474396;0.119654;0.119813;-0.0217932;0.0708031;0.180806;5.53079;0.0880435;0.0944042;5.49772;0.181894;95.9956;140.996;-0.011323;-0.0216629;0.0203363;-0.00888162;0.119479;-0.00262371;0.107054;0;0.143527;3.08394
848000;849;30.4751;4.66953;0.180951;-3.07025;30.3087;-0.827973;-0.676249;4.61738;-1.21565;-0.674568;-0.0170657;-0.507331;0.844226;-6.44987;-0.0192584;0.00467817;0.0667135;0.0669673;-0.0195122;0.0432397;0.288673;3.46413;0.0523748;0.057653;3.43208;0.291369;92.8015;137.801;-0.0192909;-0.0192472;0.00997496;-0.000191827;0.0666771;0.00220403;-0.0341617;0;0.0542978;-1.35181;-4.63295;-1.75552;5.13551;-7.39165;-0.0218814;0.0036477;0.119024;0.119118;-0.0219758;0.070547;0.18384;5.4395;0.0876604;0.0940626;5.42044;0.184487;96.916;141.916;-0.0119972;-0.0219334;0.0200895;-0.0107245;0.118849;-0.00495748;0.114359;0;0.137195;3.07287
849000;850;;;;;;;;;;-0.419951;1.93211;-0.552116;2.05286;-6.48511;-0.0195195;0.00463598;0.0677929;0.0680384;-0.019765;0.0439017;0.287929;3.47308;0.0531859;0.0585356;3.44237;0.290498;92.3432;137.343;-0.0233651;-0.0195086;0.00953035;0.000141722;0.0677605;0.012721;-0.0721268;0;0.0592357;;;;;;;;;;;;;;;;;;;;;;;;;;;;;0.0221268
850000;851;;;;;;;;;;-0.414601;1.96617;-0.532095;2.07866;-6.46533;-0.020014;0.00455752;0.0688814;0.0691145;-0.0202471;0.0446808;0.290558;3.44166;0.0541033;0.0595744;3.41355;0.29295;92.2965;137.297;-0.0202504;-0.0200034;0.00937519;0.00014043;0.06885;0.00137208;-0.0762587;0;0.0543016;;;;;;;;;;;;;;;;;;;;;;;;;;;;;0.0214064
851000;852;;;;;;;;;;-0.407737;1.98669;-0.528021;2.09571;-6.46452;-0.0200583;0.00193335;0.0696613;0.0697029;-0.0200999;0.0449014;0.28794;3.47294;0.0544203;0.0598686;3.46782;0.288365;95.8091;140.809;-0.0228409;-0.0200652;0.00859529;-0.00416989;0.0696285;0.0019293;-0.0817701;0;0.0507455;;;;;;;;;;;;;;;;;;;;;;;;;;;;;0.0212948
